
units lj                  # Use reduced LJ style units
atom_style atomic         # Uncharged point particles
atom_modify map hash      # Needed for indexing of clusters etc
                          # Used to be able to find where atoms are in relation to each other.

lattice fcc 1.0 spacing 1 1 1
Lattice spacing in x,y,z = 1.5874011 1.5874011 1.5874011
region box block 0 10 0 10 0 10 units lattice
create_box 2 box
Created orthogonal box = (0.0000000 0.0000000 0.0000000) to (15.874011 15.874011 15.874011)
  3 by 4 by 4 MPI processor grid
create_atoms 1 box
Created 4000 atoms
  using lattice units in orthogonal box = (0.0000000 0.0000000 0.0000000) to (15.874011 15.874011 15.874011)
  create_atoms CPU = 0.016 seconds
set type 1 type/fraction 2 0.46 78393
Setting atom values ...
  1843 settings made for type/fraction
mass 1 1.0
mass 2 1.0
pair_style lj/cut  3.5
pair_modify tail  yes
pair_coeff 1  1  1.0  1.0   # Intearaction between 1 and 1 set with epsilon = 1 and sigma = 1
pair_coeff 1  2  1.5  0.8
pair_coeff 2  2  0.5  0.88

write_data data.0
System init for write_data ...
Neighbor list info ...
  update every 1 steps, delay 10 steps, check yes
  max neighbors/atom: 2000, page size: 100000
  master list distance cutoff = 3.8
  ghost atom cutoff = 3.8
  binsize = 1.9, bins = 9 9 9
  1 neighbor lists, perpetual/occasional/extra = 1 0 0
  (1) pair lj/cut, perpetual
      attributes: half, newton on
      pair build: half/bin/atomonly/newton
      stencil: half/bin/3d
      bin: standard
WARNING: Not all mixed pair coeffs generated from mixing. Use write_data with 'pair ij' option to store all pair coeffs. (../write_data.cpp:312)


#############################
#   M E L T   S Y S T E M   #
#############################

velocity all create 2.4 6583654 mom yes dist gaussian # Assign velocities
                                                    # Temperature 2.4, random number seed, zero linear momentum
                                                                                # Gaussian distribution

timestep 0.002   # simulation timestep
thermo 1000       # output thermodynamic data every 1000 steps bf 100

# Define a fix  in this case with index 1 applied to all
# particles in the simulation. This fix is for simulations
# in the anisotropic NPT ensemble. Note that we use the MTK
# correction.
fix 1 all npt temp 2.4 2.4 0.1 iso 5.68 5.68 0.5 mtk yes tchain 5 pchain 5 # Use NPT ensemble
                                                                         # Set temperature and pressure and damping
                                                                         # Numbers of thermostats in chain and in barostat
run 10000          # run for 10000 steps
Per MPI rank memory allocation (min/avg/max) = 3.642 | 3.644 | 3.648 Mbytes
Step Temp E_pair E_mol TotEng Press Volume 
       0          2.4   -5.5244938            0   -1.9253938   -4.2019961         4000 
    1000    2.3483992   -4.9579512            0   -1.4362331     5.792138    3760.3444 
    2000    2.3727751   -4.9825697            0   -1.4242969    5.6833864    3763.5881 
    3000    2.3511513    -4.966397            0   -1.4405517    5.6310753    3775.2637 
    4000    2.3679614   -4.9436317            0   -1.3925776    5.4306835    3793.9079 
    5000    2.3804378   -4.9932291            0   -1.4234651    5.5537162    3763.9541 
    6000    2.4367756   -4.9681457            0   -1.3138961     5.979607    3752.1832 
    7000    2.4170304   -4.9637841            0   -1.3391448    5.7877127    3768.2464 
    8000    2.4196232   -4.9120297            0   -1.2835023    6.2662576    3755.0705 
    9000    2.4147628   -5.0310337            0   -1.4097951    5.5357556     3754.327 
   10000    2.4217065   -4.9337617            0     -1.30211    5.8090467    3774.7422 
Loop time of 2.63373 on 48 procs for 10000 steps with 4000 atoms

Performance: 656104.389 tau/day, 3796.900 timesteps/s
99.6% CPU use with 48 MPI tasks x no OpenMP threads

MPI task timing breakdown:
Section |  min time  |  avg time  |  max time  |%varavg| %total
---------------------------------------------------------------
Pair    | 1.1331     | 1.2133     | 1.3056     |   3.4 | 46.07
Neigh   | 0.21238    | 0.21994    | 0.23148    |   0.8 |  8.35
Comm    | 0.82549    | 0.91308    | 1.0062     |   4.9 | 34.67
Output  | 0.00024642 | 0.00025494 | 0.00048713 |   0.0 |  0.01
Modify  | 0.24135    | 0.27182    | 0.31734    |   4.5 | 10.32
Other   |            | 0.0153     |            |       |  0.58

Nlocal:        83.3333 ave          91 max          75 min
Histogram: 2 4 3 5 6 7 9 6 5 1
Nghost:        1706.92 ave        1735 max        1666 min
Histogram: 1 1 1 3 9 11 10 6 4 2
Neighs:        10113.6 ave       11369 max        8727 min
Histogram: 2 1 5 6 8 6 8 7 4 1

Total # of neighbors = 485455
Ave neighs/atom = 121.36375
Neighbor list builds = 908
Dangerous builds = 213

# Equilibrate just above the melting temperature to avoid step fn in T

fix 1 all npt temp 1.25 1.25 0.1 iso 5.68 5.68 0.5 mtk yes tchain 5 pchain 5
run 2000
Per MPI rank memory allocation (min/avg/max) = 3.644 | 3.645 | 3.649 Mbytes
Step Temp E_pair E_mol TotEng Press Volume 
   10000    2.4217065   -4.9337617            0     -1.30211    5.8090467    3774.7422 
   11000    1.2551697   -7.0394828            0   -5.1571989    5.8745403    2953.1485 
   12000     1.273791   -7.0855291            0   -5.1753202    5.7123707    2949.6881 
Loop time of 0.635808 on 48 procs for 2000 steps with 4000 atoms

Performance: 543560.542 tau/day, 3145.605 timesteps/s
99.6% CPU use with 48 MPI tasks x no OpenMP threads

MPI task timing breakdown:
Section |  min time  |  avg time  |  max time  |%varavg| %total
---------------------------------------------------------------
Pair    | 0.2758     | 0.30382    | 0.36025    |   2.6 | 47.78
Neigh   | 0.040241   | 0.042253   | 0.049684   |   0.7 |  6.65
Comm    | 0.18019    | 0.24125    | 0.27509    |   3.4 | 37.94
Output  | 5.184e-05  | 5.3401e-05 | 6.8648e-05 |   0.0 |  0.01
Modify  | 0.038433   | 0.043613   | 0.048473   |   1.5 |  6.86
Other   |            | 0.004817   |            |       |  0.76

Nlocal:        83.3333 ave          91 max          73 min
Histogram: 1 2 2 8 2 9 10 5 6 3
Nghost:        2016.83 ave        2037 max        1988 min
Histogram: 1 2 4 10 2 5 6 7 3 8
Neighs:        12944.8 ave       14489 max       11076 min
Histogram: 2 4 2 6 2 9 11 6 4 2

Total # of neighbors = 621350
Ave neighs/atom = 155.33750
Neighbor list builds = 143
Dangerous builds = 7

#############################
# L I N E A R  Q U E N C H  #
#############################

# Define solid atoms. This closely follows ten Wolde  Ruiz-Montero and Frenkel  Faraday Discuss  1996  104  93-110
# Compute components of the per-atom q6 vector
compute q6 all orientorder/atom degrees 1 6 components 6 nnn NULL cutoff 1.3 # compute the Q6 parameter.
                                                                             # Use all neighbours within 1.3 unit cell.

# get number of connections
compute coord_number all coord/atom orientorder q6 0.5

# An atom is solid if it has 8 or more connections (of a possible 14)
variable is_solid atom c_coord_number>=8
group solid dynamic all var is_solid    # Must be dynamic to update
dynamic group solid defined

# do clustering
compute cluster solid cluster/atom 1.3 # Create a cluster where all atoms within are solid and max 1.3 units from another member

# define chunks one chunk per cluster
compute clus_chunks solid chunk/atom c_cluster nchunk every compress yes  # Says which atoms are in which chunk

# count the size of each chunk
compute size_chunks solid property/chunk clus_chunks count


# Find the maximum entry in the vector of chunk sizes
variable max_n equal max(c_size_chunks)


# Thermo style which includes this variable
# thermo_style custom step temp pe vol v_max_n

thermo ${N}  # Print the thermo information every 100 steps
thermo 1000  

# Reset the npt fix at a lower temperature (below freezing)
fix 1  all npt temp  ${temp} ${temp}  0.1  iso  5.68  5.68  0.5  mtk yes tchain  5  pchain  5
fix 1  all npt temp  0.45 ${temp}  0.1  iso  5.68  5.68  0.5  mtk yes tchain  5  pchain  5
fix 1  all npt temp  0.45 0.45  0.1  iso  5.68  5.68  0.5  mtk yes tchain  5  pchain  5

dump dmp2 all dcd ${N} traj.dcd
dump dmp2 all dcd 1000 traj.dcd


compute msd all msd com yes
variable twopoint equal c_msd[4]/6/(step*dt+1.0e-6)
fix 9 all vector 10 c_msd[4]
variable fit equal slope(f_9)/6/(10*dt)
thermo_style custom step temp pe c_msd[4] v_twopoint v_fit v_max_n

fix 1 all npt temp 1.25 ${temp} 0.1 iso 5.68 5.68 0.5 mtk yes tchain 5 pchain 5
fix 1 all npt temp 1.25 0.45 0.1 iso 5.68 5.68 0.5 mtk yes tchain 5 pchain 5
run 5000000 # 5000000  # Run for this many steps
Neighbor list info ...
  update every 1 steps, delay 10 steps, check yes
  max neighbors/atom: 2000, page size: 100000
  master list distance cutoff = 3.8
  ghost atom cutoff = 3.8
  binsize = 1.9, bins = 8 8 8
  4 neighbor lists, perpetual/occasional/extra = 1 3 0
  (1) pair lj/cut, perpetual
      attributes: half, newton on
      pair build: half/bin/atomonly/newton
      stencil: half/bin/3d
      bin: standard
  (2) compute orientorder/atom, occasional
      attributes: full, newton on
      pair build: full/bin/atomonly
      stencil: full/bin/3d
      bin: standard
  (3) compute coord/atom, occasional
      attributes: full, newton on
      pair build: full/bin/atomonly
      stencil: full/bin/3d
      bin: standard
  (4) compute cluster/atom, occasional
      attributes: full, newton on
      pair build: full/bin/atomonly
      stencil: full/bin/3d
      bin: standard
Per MPI rank memory allocation (min/avg/max) = 9.831 | 9.838 | 9.844 Mbytes
Step Temp PotEng c_msd[4] v_twopoint v_fit v_max_n 
   12000     1.273791   -7.0855291  9.74046e-31 6.7642081e-33 8.3333333e+20            1 
   13000    1.2371294   -7.1114834   0.46715272 0.0029945686  0.039432197            2 
   14000    1.2575743   -7.1677351    0.9132173 0.0054358171  0.036286892            2 
   15000    1.2377254   -7.1871103    1.3593373 0.0075518737  0.037161517            3 
   16000    1.2420034   -7.1453416    1.7111572 0.0089122768  0.035933784            2 
   17000    1.2831399   -7.1255462    2.1704063  0.010639246  0.035237591            2 
   18000     1.275004    -7.143935    2.5839796  0.011962868   0.03530019            1 
   19000    1.2259403     -7.15787    2.9685498  0.013019955   0.03502488            1 
   20000    1.2449095   -7.1937376    3.3621682  0.014009034  0.034745081            1 
   21000    1.2607796    -7.089129    3.8312111  0.015203218  0.034562631            1 
   22000    1.2563026     -7.12716    4.2607459  0.016139189  0.034709138            3 
   23000    1.2573101   -7.1946738     4.672989  0.016931119  0.034842128            2 
   24000    1.2617981   -7.1204328    5.0614883  0.017574612  0.034848687            4 
   25000    1.2755585   -7.1757335    5.5083795  0.018361265  0.034886515            2 
   26000    1.2606921   -7.2023469    5.8927089  0.018886887  0.034909186            2 
   27000    1.2451352   -7.1160796    6.2516901   0.01929534  0.034782364            2 
   28000    1.2720679   -7.1445078    6.6712475  0.019854903  0.034623851            2 
   29000    1.2195787   -7.1686345    7.1164133  0.020449463  0.034588409            1 
   30000    1.2465668   -7.1453883    7.4564127  0.020712257  0.034523638            2 
   31000    1.2667624   -7.1192447    7.8707822  0.021158016  0.034388556            1 
   32000    1.2648305   -7.1430661    8.2716377  0.021540723  0.034290108            1 
   33000    1.2806253   -7.1727009    8.6934824  0.021953238  0.034265078            2 
   34000    1.2548659   -7.1608362    8.9750532  0.021997679  0.034164576            2 
   35000    1.2517069   -7.1402199    9.3413609  0.022241335  0.034012583            2 
   36000     1.230139   -7.1428817     9.711181  0.022479585   0.03386598            1 
   37000     1.247982   -7.1293307    10.194714  0.022961067  0.033762763            1 
   38000    1.2627608   -7.1492702    10.474769  0.022970984  0.033679854            4 
   39000    1.2570827   -7.1754252    10.934925  0.023365223  0.033586745            2 
   40000    1.2367373   -7.1309894    11.399451  0.023748857  0.033539566            2 
   41000    1.2208291   -7.1754103    11.671268  0.023722089  0.033485575            1 
   42000    1.2452303   -7.0957547    12.069501  0.023947422  0.033389456            3 
   43000    1.2126909   -7.1542739    12.442927    0.0241142  0.033285311            2 
   44000    1.2430544   -7.1350866     12.83157  0.024302216  0.033226398            2 
   45000    1.2422446   -7.1367398    13.200911  0.024446132  0.033153727            2 
   46000    1.2520967   -7.1904845    13.598212  0.024634442  0.033084309            2 
   47000    1.2399049   -7.1634317     14.05403  0.024918493  0.033038228            2 
   48000    1.2632869   -7.1857298    14.640031  0.025416721   0.03305193            1 
   49000    1.2348644   -7.1259492    15.007018   0.02552214  0.033078391            3 
   50000     1.241542   -7.1439527    15.251324  0.025418873  0.033083212            1 
   51000    1.2090169   -7.1877422    15.662701  0.025592648  0.033065575            2 
   52000    1.2517112   -7.1399793    15.979166  0.025607638  0.033038071            2 
   53000    1.2490452   -7.1222233    16.476041  0.025905725  0.033010843            3 
   54000    1.2302129   -7.1342959    16.838598  0.025985491  0.033004332            1 
   55000    1.2201426   -7.1572412    17.229827  0.026105799  0.032988125            2 
   56000    1.2517919   -7.1681572    17.547913  0.026112965  0.032970728            2 
   57000    1.2496326   -7.1106129    17.960336  0.026257801  0.032950411            2 
   58000    1.2583791   -7.1747615    18.233263  0.026197217  0.032909863            2 
   59000    1.2367432    -7.168933    18.617805  0.026296334  0.032872388            2 
   60000    1.2454724    -7.170055     19.08965  0.026513403  0.032840403            2 
   61000    1.2548103   -7.1482207    19.368395  0.026459555  0.032814244            1 
   62000     1.219828   -7.1780819    19.797667  0.026609767  0.032778485            1 
   63000    1.2319678   -7.1477182    20.176433  0.026688403  0.032746496            3 
   64000    1.2122738   -7.1316832    20.480972  0.026667932  0.032709345       -1e+20 
   65000    1.2362875   -7.1821342    20.742377  0.026592791  0.032657532            1 
   66000    1.2212963   -7.1348393    21.221642  0.026795003  0.032611794            1 
   67000     1.265142   -7.1376115     21.60624  0.026873433  0.032561938            1 
   68000    1.2240884   -7.1719481    21.910998  0.026851713  0.032519477            1 
   69000     1.251031   -7.1505705    22.425155   0.02708352  0.032487823            3 
   70000    1.2332017   -7.1346592    22.902114  0.027264422   0.03246922            2 
   71000    1.2143742   -7.1812689    23.170814  0.027195791  0.032463702            2 
   72000    1.2558141   -7.1187558    23.667795  0.027393281  0.032451293            1 
   73000    1.2455325   -7.1484386    24.181114  0.027604011  0.032451974            3 
   74000    1.2631626   -7.1375324    24.567606  0.027666223  0.032454826            1 
   75000    1.2541011   -7.1590919    24.945345  0.027717049  0.032457855            2 
   76000    1.2309069   -7.1898873    25.353254  0.027799621  0.032467436            4 
   77000    1.2319679   -7.1893162     25.89592  0.028025887  0.032489902            1 
   78000    1.2239645   -7.1573013    26.284187  0.028081396  0.032506822            3 
   79000     1.241621   -7.1376892    26.761559  0.028229492  0.032531947            1 
   80000    1.2467881   -7.1981397    27.117207   0.02824709  0.032556579            1 
   81000    1.2210983   -7.1308276    27.573168  0.028367456  0.032579992            4 
   82000    1.2166585   -7.1692008    27.905901  0.028359656  0.032608734            4 
   83000    1.2635613   -7.1693726    28.440195  0.028554412   0.03264175            1 
   84000    1.2450806   -7.1297141    28.881477  0.028652258  0.032670148            2 
   85000    1.2160423   -7.1785496    29.035544  0.028466219  0.032684949            1 
   86000    1.2470221   -7.1068215    29.513641  0.028598489  0.032697968            3 
   87000    1.2622356   -7.1867876    30.000106  0.028735734  0.032709122            1 
   88000    1.2222398   -7.1664107    30.356677  0.028746853  0.032723046            2 
   89000    1.2403387   -7.1457258     30.99428  0.029020861  0.032752784            2 
   90000    1.2483303   -7.2139578    31.356361  0.029033668  0.032789197            2 
   91000    1.2388508   -7.1546216    31.581609  0.028920887   0.03281356            1 
   92000    1.2682038   -7.1807708    31.933404  0.028925184  0.032829941            2 
   93000    1.2679807    -7.175784    32.308697  0.028950445  0.032841515            2 
   94000     1.250513    -7.174761    32.862615  0.029133524  0.032862325            2 
   95000    1.2304742   -7.1715908    33.397862   0.02929637  0.032888966            1 
   96000    1.2349577   -7.1768159    33.769769  0.029314036   0.03291641            2 
   97000    1.2412839    -7.197746    34.162098  0.029348881  0.032943468            1 
   98000     1.249122   -7.1284065    34.557667  0.029385771   0.03296437            2 
   99000     1.208267     -7.17506    35.015405  0.029474247  0.032985734            2 
  100000     1.226157   -7.1954023    35.297787  0.029414822  0.033004693            3 
  101000    1.2495489    -7.244149     35.57239  0.029350156  0.033020287            2 
  102000    1.2564181   -7.1734493    35.838792  0.029280059  0.033030185            2 
  103000     1.232009   -7.2284287    35.950173  0.029085901  0.033027564            2 
  104000    1.2202358   -7.1481632    36.633483  0.029353752  0.033021097            1 
  105000    1.2381856   -7.1909762     36.93055   0.02930996  0.033013892            2 
  106000    1.2447052   -7.1907028    37.328251  0.029346109  0.033008009            1 
  107000      1.21059   -7.1529557    37.630524  0.029307262  0.033005825            1 
  108000    1.2349546   -7.1822251    38.316469  0.029565176  0.033004063            1 
  109000    1.2258608   -7.1492577    38.645028  0.029545128  0.033001574            2 
  110000    1.2417911   -7.1637756    38.865419  0.029443499  0.032996214            2 
  111000    1.2425694   -7.1795111    39.305297  0.029508481  0.032990125            2 
  112000    1.2254619    -7.185105    39.892489  0.029681911  0.032990521            1 
  113000    1.2239386   -7.2246063    40.263498  0.029692845  0.032996628            3 
  114000    1.2292458   -7.1717916    40.770873   0.02980327  0.033003407            2 
  115000    1.2391994   -7.2166196    41.091317  0.029776316  0.033011994            2 
  116000    1.2322784      -7.1176     41.82441  0.030046271  0.033021038            1 
  117000    1.2562129   -7.1703572    41.936667  0.029869421  0.033035495            2 
  118000    1.2469844   -7.2066907    42.394335  0.029939502  0.033046124       -1e+20 
  119000    1.2243452   -7.2011758    42.942501  0.030071779  0.033060837            2 
  120000    1.2334485   -7.2086483    43.373409  0.030120423  0.033075513            2 
  121000    1.2337291     -7.17075    43.689633  0.030089278   0.03308891            1 
  122000    1.2294434   -7.1627683    44.100016  0.030122962  0.033099443            3 
  123000    1.2154012   -7.1783946    44.381585  0.030068825  0.033107412            1 
  124000    1.1981108   -7.1519369    45.035392   0.03026572  0.033118819            3 
  125000     1.247859   -7.1548639    45.396049  0.030264033  0.033130457            1 
  126000    1.2370326   -7.1853006    45.749694  0.030257734  0.033142516            2 
  127000    1.2449973   -7.1924341    46.222656  0.030329827  0.033159707            2 
  128000    1.2222433   -7.1394494    46.626558  0.030355832  0.033171017            2 
  129000    1.2055713   -7.2037407    46.800183  0.030232676  0.033179202            1 
  130000    1.2153239    -7.163847    47.367565  0.030363823  0.033185257            1 
  131000    1.2174458   -7.2039689    47.788662  0.030399912  0.033198339            2 
  132000    1.2215933   -7.2035076    48.504877  0.030621766  0.033215611            1 
  133000    1.2441679   -7.2191914    48.516563  0.030398849  0.033227278            1 
  134000     1.206168   -7.2558803    48.676892  0.030271699  0.033232289            2 
  135000     1.243868   -7.1367169    49.411669   0.03050103  0.033235453            1 
  136000     1.257888   -7.1473981     49.58074  0.030380355  0.033239048            2 
  137000    1.2476545    -7.169892     50.07524  0.030459392  0.033244097            3 
  138000    1.2576049   -7.1861606     50.31898  0.030385858  0.033245897            6 
  139000    1.2257906    -7.188579    50.564886   0.03031468  0.033245047            1 
  140000    1.2537481   -7.2156108    50.964815  0.030336199  0.033241764            1 
  141000     1.241818   -7.2036764    51.464721  0.030416502  0.033240631            2 
  142000    1.2523912    -7.222083    51.752506  0.030371189  0.033239157            2 
  143000    1.2221001   -7.1998596    52.117809  0.030371684  0.033236349            1 
  144000    1.2155943   -7.1659256    52.393082   0.03032007  0.033229301            4 
  145000    1.2274101   -7.2002755    52.764995   0.03032471  0.033219489            1 
  146000    1.2211941   -7.1984508    53.250123  0.030393906  0.033211412            2 
  147000    1.2050369    -7.187046    53.578015  0.030373024  0.033204667            3 
  148000      1.21775   -7.2349729    53.919833  0.030360266  0.033198381            2 
  149000    1.2381943   -7.2004508     54.40236  0.030426376  0.033191389            5 
  150000    1.2316153   -7.1773195     54.87184  0.030484356  0.033186365            3 
  151000    1.2119351   -7.1914745    55.277355  0.030506266  0.033181104            2 
  152000    1.2285462   -7.2124218     55.58134  0.030472226  0.033176974            4 
  153000    1.2338998   -7.1191661    56.233246  0.030628129  0.033170433            4 
  154000    1.2086964   -7.2235702     56.21432  0.030419004  0.033165194            1 
  155000    1.2029355   -7.2321706    56.548144  0.030402228  0.033160204            1 
  156000    1.2548128   -7.2224845    57.275173  0.030595712  0.033155146            3 
  157000    1.2114623   -7.1899872    57.742959  0.030649129  0.033155841            2 
  158000    1.2126038   -7.2027125    58.049512  0.030616831  0.033152423            1 
  159000    1.2362289   -7.2678398     58.36862   0.03059152  0.033147942            3 
  160000    1.2204142   -7.2154713    58.628379  0.030535614  0.033137804            1 
  161000    1.2358619   -7.1755053    59.092814  0.030586342  0.033130053            1 
  162000    1.2284006   -7.2080224    59.456878  0.030584813  0.033121905            2 
  163000     1.219054   -7.1882549    59.777678  0.030561185  0.033114919            2 
  164000    1.2143026   -7.1969443    60.352709  0.030667027  0.033108017            1 
  165000    1.2586785   -7.1329804    60.621421  0.030616879  0.033104173            2 
  166000    1.2275777    -7.208214    60.966372  0.030605608  0.033097863            1 
  167000    1.2150487   -7.1784718    61.102138  0.030490089  0.033089904            1 
  168000    1.2360513   -7.1463665    61.855502  0.030682292  0.033081557            1 
  169000    1.2178816   -7.1924969    62.197081  0.030669172  0.033075525            2 
  170000    1.2436184   -7.2248158    62.556966   0.03066518  0.033071428            1 
  171000    1.2442395   -7.2435657    62.965043  0.030684719  0.033066149            3 
  172000    1.2356175   -7.1309122    63.596947  0.030812474  0.033060729            1 
  173000    1.2066698   -7.2382537    63.755005  0.030710503   0.03305546            3 
  174000     1.214345   -7.2161389    64.208868  0.030751373   0.03305187            2 
  175000    1.2336284   -7.1717924    64.719263  0.030818696  0.033046643            2 
  176000    1.2148554   -7.2009131    64.775359  0.030670151  0.033042096            1 
  177000    1.2125394   -7.2133014    65.098891  0.030649195  0.033035916            3 
  178000    1.1994068   -7.2333818    65.786448  0.030798899  0.033030164            3 
  179000    1.2445559   -7.2451201    65.939994  0.030698321  0.033024346            3 
  180000    1.1963623   -7.2058385    66.438497  0.030758563   0.03301761            1 
  181000    1.2416166   -7.2091576    66.743957  0.030729262  0.033012354            1 
  182000    1.2204998   -7.2486528    66.904284   0.03063383  0.033006484            8 
  183000    1.2384127   -7.1811995    67.759264  0.030855767  0.033002916            1 
  184000    1.2211674   -7.2438377    67.942906  0.030771244  0.033001304            2 
  185000    1.2096822   -7.2171987    68.306264  0.030768587  0.032997046            2 
  186000     1.248567   -7.2017644    69.072186   0.03094632  0.032993047            1 
  187000    1.2084472   -7.2073139    69.338013  0.030899293  0.032988099            2 
  188000    1.2261257   -7.2144648    69.504654  0.030808801  0.032983909            1 
  189000    1.2387735   -7.1775401    70.074313  0.030896963  0.032978675            1 
  190000    1.2482652   -7.1773662    70.595143  0.030962782  0.032974761            1 
  191000    1.2135301   -7.2424838    70.675339  0.030835663  0.032969136            5 
  192000    1.2315052   -7.2767289    70.906588  0.030775429  0.032962316            2 
  193000    1.2286571   -7.2238683    71.507215  0.030875309  0.032955675            1 
  194000    1.2288368   -7.1550421    72.201617   0.03101444  0.032951151            1 
  195000    1.2220071   -7.2352753    72.208568  0.030858362    0.0329469            2 
  196000     1.207632   -7.2074195    72.643251  0.030885736  0.032943529            1 
  197000    1.2371345   -7.2176467    73.103094  0.030923475  0.032938306            3 
  198000     1.214191   -7.2228169    73.266319  0.030835993  0.032931319            2 
  199000    1.2021019   -7.1809926    73.859146  0.030929291  0.032923208            1 
  200000    1.2518041   -7.2490983    73.824622  0.030760259  0.032916207            3 
  201000     1.235549    -7.190991    74.447354  0.030865404  0.032907726            1 
  202000    1.2397787   -7.1851519    74.949668   0.03091983  0.032901288            2 
  203000    1.1925481   -7.1920326    75.465764  0.030979377  0.032895439            1 
  204000    1.2041635   -7.1707982     75.69601  0.030921573  0.032888644            2 
  205000    1.2347216    -7.217985    76.089701  0.030930773  0.032881337            2 
  206000    1.2148209   -7.2476102     76.21492  0.030831278  0.032873206            2 
  207000    1.2161484   -7.1905577    76.550735  0.030817526  0.032864879            3 
  208000    1.2420488   -7.1918537    76.872337  0.030798212  0.032856755            2 
  209000    1.2110477   -7.1755228    77.412117  0.030866075  0.032846731            1 
  210000    1.2185458   -7.2047185    77.602928  0.030794813   0.03283762            4 
  211000    1.2016093   -7.2509726    77.848475  0.030745843  0.032827156            1 
  212000    1.2379328   -7.2281818    78.237182  0.030753609   0.03281594            2 
  213000    1.2342179   -7.1849505    78.605413  0.030753292  0.032804144            2 
  214000    1.2127191   -7.2204847    78.815402  0.030691356  0.032792624            3 
  215000    1.2602154   -7.1688519    79.326232  0.030746601  0.032781479            1 
  216000    1.2249425   -7.1936059    79.932081  0.030837994  0.032772393            2 
  217000    1.2106758   -7.2484215    79.974837  0.030712303  0.032761415            2 
  218000     1.208883   -7.2539735    80.359695  0.030718538  0.032749267            2 
  219000    1.2159412   -7.2135201    80.974833  0.030812341    0.0327392            4 
  220000    1.2256714   -7.2261853     81.33131  0.030807314  0.032730599            2 
  221000     1.208787   -7.2035763    81.653194  0.030789289  0.032720199            3 
  222000      1.20972   -7.2004585     82.09919  0.030818014  0.032711098            4 
  223000     1.206657   -7.2744233    82.125426  0.030689621  0.032699788            2 
  224000    1.2111932   -7.1795475    82.756459  0.030787373  0.032689184            3 
  225000    1.1973763   -7.2534534    82.860186  0.030688958  0.032678377            2 
  226000    1.2456177   -7.1897859    83.446125   0.03076922  0.032667215            2 
  227000    1.2078693    -7.229351    83.295721  0.030578458  0.032654772            1 
  228000    1.2122898   -7.2633215    84.075115  0.030729209  0.032641239            2 
  229000    1.2079925   -7.2161159    84.553727  0.030769187  0.032628663            2 
  230000    1.1902379   -7.2442684    84.528173  0.030626149  0.032616032            2 
  231000    1.1942113   -7.2594969     84.60029  0.030519585  0.032603674            6 
  232000    1.2077051   -7.2487557    85.561299  0.030733225  0.032591432            2 
  233000    1.2228186   -7.1996181    86.366034  0.030889139  0.032582788            1 
  234000    1.2415197   -7.2166599    86.674852  0.030867112  0.032575091            1 
  235000    1.2228503   -7.2582764    86.648457  0.030726403  0.032566488            1 
  236000    1.2121427    -7.231659    87.465061  0.030884555  0.032557897            2 
  237000    1.2137867   -7.2773345    87.746637  0.030853248  0.032550604            2 
  238000    1.2002309   -7.2403061    88.335521  0.030929804  0.032543994            2 
  239000    1.1924888   -7.2102434    88.885749  0.030992242  0.032538519            5 
  240000    1.2076595   -7.2008838    88.918522  0.030874487  0.032532557            2 
  241000    1.2398911   -7.2001266    89.348683  0.030895119  0.032525734            1 
  242000    1.2334107   -7.2035195    89.194941  0.030714511  0.032517583            2 
  243000    1.2077215   -7.2598266    89.778275   0.03078816  0.032508514            1 
  244000    1.1995727   -7.1858485     90.55946  0.030928777  0.032499159            5 
  245000    1.2095082   -7.2229009      90.7562  0.030869456  0.032490115            1 
  246000    1.2335071   -7.2213218    91.133184  0.030871675  0.032483391            2 
  247000    1.1716467   -7.2154356    91.282959   0.03079722  0.032473597            2 
  248000    1.2030207   -7.2119407    91.495424   0.03074443   0.03246291            2 
  249000    1.1981554   -7.2512655    92.162483  0.030844204  0.032452111            3 
  250000    1.2435335   -7.2122168    92.385648  0.030795216  0.032442701            1 
  251000    1.2093852   -7.2532053    92.654382  0.030761747  0.032433926            2 
  252000    1.2189831   -7.2541072    92.836163  0.030699789  0.032424576            2 
  253000    1.1933897   -7.2325802    93.334323  0.030742531  0.032415979            2 
  254000    1.2226682   -7.2391065    93.472775  0.030666921  0.032404956            1 
  255000    1.2288638   -7.2677279    93.199526  0.030457361   0.03239251            3 
  256000    1.1978519   -7.2642056    94.042481  0.030612787  0.032380072            1 
  257000    1.2121039   -7.2392004     94.40165  0.030610133    0.0323687            1 
  258000     1.209796   -7.2540876    94.653525  0.030572844  0.032357861            1 
  259000    1.1998925   -7.2477326    95.429935  0.030704612  0.032346903            3 
  260000    1.2235836   -7.2322547    95.953697   0.03075439  0.032337077            2 
  261000    1.1959851   -7.2326335    96.284716  0.030742246  0.032328719            3 
  262000    1.2375783   -7.2504757    96.542343  0.030706852  0.032319816            1 
  263000    1.2398815   -7.2653555    96.666878  0.030629556   0.03230939            4 
  264000     1.213496   -7.2213731    97.044033  0.030632586  0.032297799            1 
  265000    1.2096038   -7.2131004    97.247028  0.030580826  0.032286659            3 
  266000    1.2255362    -7.219769    97.854238  0.030656089  0.032275459            3 
  267000    1.2167154   -7.2440033    98.296714  0.030679374  0.032264342            3 
  268000    1.1902883   -7.2436351    98.406145  0.030598926  0.032253287            2 
  269000    1.2314229   -7.2730523    98.732815  0.030586374  0.032240265            2 
  270000    1.2050961   -7.1836067    99.447403  0.030693643  0.032228838            1 
  271000    1.2006509   -7.2339678    99.597093  0.030626412  0.032218058            2 
  272000    1.2311471   -7.2477039    99.890233  0.030603625  0.032205852            4 
  273000    1.2190376   -7.2744345    100.38773  0.030643387  0.032193752            2 
  274000    1.2136497   -7.2024245    100.60082  0.030596357  0.032182666            1 
  275000    1.1900307   -7.2599339    101.24782  0.030681158  0.032172845            3 
  276000    1.2304086   -7.2883746    101.76313  0.030725582  0.032163373            1 
  277000    1.2072928   -7.3050244    101.78518  0.030621292  0.032153565            1 
  278000    1.2314185   -7.2139224    102.45258  0.030711205  0.032143467            3 
  279000    1.1943524   -7.2446676    102.58659  0.030641157  0.032132965            1 
  280000    1.2037275   -7.2538857    102.75172  0.030580868   0.03212142            2 
  281000    1.1813758   -7.2609855     102.8866  0.030512041  0.032109414            2 
  282000    1.2253853   -7.2400155    103.03626  0.030448068  0.032096601            1 
  283000     1.204494   -7.2891781    103.64975  0.030521129  0.032083832            1 
  284000     1.227693   -7.2131815    104.14865  0.030560049  0.032071372            2 
  285000    1.2150438   -7.2669221    104.19108  0.030465229  0.032059153            2 
  286000    1.2076969   -7.2265176    104.55099  0.030463576  0.032047144            2 
  287000    1.2134024   -7.2234448    105.35992  0.030592313  0.032036242            2 
  288000    1.2320839    -7.275628    105.44573  0.030510916   0.03202495            3 
  289000    1.2316623   -7.2390008    105.90348  0.030537334  0.032013882            3 
  290000    1.2099652   -7.2507233    106.32375    0.0305528  0.032004005            1 
  291000     1.184651    -7.315077     106.6515  0.030541666  0.031993864            2 
  292000     1.209316   -7.2721666    107.03002  0.030545097  0.031984232            6 
  293000    1.1989773   -7.2104491    107.75218  0.030646241  0.031974839            2 
  294000    1.2042913   -7.2479393    107.92728  0.030591632  0.031965237            4 
  295000    1.1945053    -7.282706    108.31075  0.030596257  0.031955386            2 
  296000    1.2137158   -7.2703837    108.55626  0.030562009  0.031945914            2 
  297000    1.1772651   -7.2330497    109.21474  0.030643866   0.03193684            2 
  298000    1.2065492   -7.2420503    109.76772  0.030695671  0.031928817            2 
  299000    1.2026787   -7.2850112    109.83235  0.030611024  0.031921873            1 
  300000    1.1887937   -7.2613753    110.55617  0.030710048  0.031914714            2 
  301000    1.1837469   -7.2460113    110.59855  0.030619753  0.031908148            2 
  302000    1.2106534   -7.2324347    111.05961  0.030645587  0.031901942            1 
  303000    1.1821429   -7.2841636    111.40374  0.030639091  0.031895274            2 
  304000    1.1750824   -7.2546672    111.79724  0.030646172  0.031888202            4 
  305000    1.2251933   -7.2421231    112.23937  0.030666495  0.031882727            1 
  306000    1.2173766   -7.2580205    112.59198  0.030662305  0.031877388            1 
  307000     1.188423    -7.245755    113.25616  0.030742714  0.031871739            2 
  308000    1.1892802    -7.272295    113.13034  0.030608858  0.031866256            2 
  309000    1.2022082    -7.250212    114.43218  0.030860889   0.03186075            1 
  310000     1.239247   -7.2307707    114.44362  0.030764413  0.031856821            3 
  311000    1.1984375   -7.2433699    114.74224  0.030745508  0.031851157            1 
  312000    1.1930486   -7.2720158    114.69534  0.030634438  0.031846586            2 
  313000    1.2117104   -7.2893233    115.04808   0.03063048  0.031839803            1 
  314000    1.2128431   -7.2816503    115.79383  0.030730846  0.031833291            1 
  315000    1.1863003   -7.2158135    115.97326  0.030680757    0.0318268            1 
  316000    1.2124019   -7.2424602    116.36103  0.030685926  0.031819821            3 
  317000      1.18917   -7.2446968    116.91991  0.030736044  0.031812763            1 
  318000    1.2203697   -7.2593026    116.51081  0.030532183  0.031806017            2 
  319000    1.2072774   -7.2698508    116.96883  0.030556121  0.031799305            5 
  320000    1.1910057   -7.3026378    117.53238  0.030607391  0.031792175            1 
  321000    1.1993051   -7.2954526    117.69004  0.030552971  0.031784067            1 
  322000    1.1856135    -7.273688    118.00844  0.030540486  0.031775727            3 
  323000    1.1724928   -7.2642286    118.50556  0.030574189  0.031767231            1 
  324000    1.1836314   -7.2444532    118.83405  0.030564312  0.031758401            2 
  325000    1.2074736   -7.2914102    119.25458  0.030578098  0.031750731            3 
  326000    1.2109233   -7.2871788    119.42377  0.030527547  0.031743151            2 
  327000    1.2071385   -7.2797261    120.03703  0.030590477  0.031736438            3 
  328000    1.1748943   -7.2533231    120.39203  0.030587406  0.031730024            2 
  329000    1.2007058   -7.2393331    121.02767  0.030655437  0.031723959            1 
  330000    1.1794141   -7.2423633    121.14935   0.03059327  0.031717243            2 
  331000    1.1823115   -7.2770513    121.29474  0.030537446  0.031709929            2 
  332000    1.2226191   -7.3043096    121.59049  0.030519701  0.031701683            3 
  333000    1.1836369     -7.22537    122.06714  0.030547333  0.031693687            1 
  334000    1.2010231   -7.2686661    122.34946  0.030526311  0.031686397            3 
  335000    1.2278247   -7.3018818    122.00587  0.030349719  0.031678192            1 
  336000    1.1893099   -7.2531037    122.66466  0.030422783  0.031669141            2 
  337000    1.2025818   -7.3034631    123.40038  0.030514435  0.031660815            1 
  338000    1.2139436   -7.2759923    123.74241  0.030508483  0.031653402            2 
  339000     1.226835   -7.2809529    124.28414  0.030551656  0.031645911            4 
  340000    1.2113425    -7.246449    124.44549  0.030501345  0.031638137            2 
  341000    1.2199372   -7.2596606     124.7794  0.030493499  0.031629605            3 
  342000    1.1880981    -7.263086    125.30339  0.030532016  0.031621411            1 
  343000    1.2221363   -7.2458733    125.71129  0.030542101  0.031612854            1 
  344000    1.2052644   -7.2915368    125.21055  0.030332014  0.031603831            2 
  345000    1.1915477   -7.2788949    126.24865  0.030494842  0.031594991            1 
  346000    1.2002332   -7.2869657    126.88798  0.030560689  0.031586274            3 
  347000    1.1879601   -7.2631383    126.94189  0.030485564     0.031579            2 
  348000     1.194769   -7.2738784    127.37378  0.030501385  0.031571044            2 
  349000    1.2074421   -7.2743588    127.85812  0.030529636  0.031562828            2 
  350000    1.1958083   -7.2650672     127.6063  0.030382452  0.031555159            3 
  351000    1.1785003   -7.3025948    128.41942   0.03048894  0.031546609            1 
  352000    1.2176356   -7.2515653    128.61506   0.03044864  0.031539225            1 
  353000    1.1788771    -7.273418    128.84937  0.030417698  0.031532057            3 
  354000    1.1900909   -7.2598288    129.34557  0.030448581  0.031524173            4 
  355000    1.2084628   -7.2306383    129.14023  0.030314607  0.031515795            2 
  356000    1.1823573   -7.2453872     129.6706  0.030353604  0.031507274            1 
  357000    1.1945748   -7.2777196    129.76803  0.030291323  0.031498082            1 
  358000    1.2147379   -7.2802229     130.3719  0.030347276  0.031488805            1 
  359000    1.2110671   -7.3098925    130.22794  0.030229326    0.0314798            1 
  360000     1.198473   -7.2471702     131.0318  0.030331436   0.03146878            1 
  361000    1.1639778   -7.3273653    130.80216  0.030194404   0.03145838            2 
  362000    1.2010264   -7.2904948    131.49847  0.030271287   0.03144777            3 
  363000    1.1948845   -7.2400428    131.66526  0.030226184  0.031437192            1 
  364000    1.2095295   -7.2807166    131.98214  0.030215691  0.031426345            2 
  365000    1.1918641   -7.2486839    132.53363  0.030258819  0.031415975            1 
  366000    1.2058522   -7.2948251    133.02287  0.030287538  0.031406974            2 
  367000     1.178117    -7.263122    133.21915   0.03024958   0.03139744            2 
  368000    1.1880656   -7.2383883    133.79553  0.030297901  0.031387199            2 
  369000    1.1866736   -7.2471685    133.59137  0.030169685  0.031376704            2 
  370000    1.1870174   -7.2875869    133.95349  0.030169705   0.03136511            1 
  371000    1.2061835   -7.2765578    134.05805  0.030111871  0.031353482            1 
  372000    1.2162332   -7.2957645    134.06694  0.030032918  0.031342255            2 
  373000    1.2178102   -7.3027793    134.48741  0.030046339  0.031331175            1 
  374000    1.1952611   -7.3026699    135.15347  0.030114409  0.031319576            2 
  375000    1.2073385   -7.2886537    135.31468   0.03006993  0.031307319            3 
  376000    1.2103628   -7.2584068    135.77312  0.030091559  0.031295802            2 
  377000    1.1871863   -7.3392232    135.57704  0.029968399  0.031284384            1 
  378000    1.1774593   -7.3320507    135.59811  0.029893763  0.031271639            1 
  379000    1.1719693   -7.2980666    135.95523  0.029893409  0.031258338            1 
  380000    1.1936484   -7.3225214    136.64839  0.029966752  0.031245224            2 
  381000     1.183032   -7.2970677    136.93307  0.029950366  0.031232459            3 
  382000    1.2083756   -7.2468692       137.68  0.030034903  0.031220474            1 
  383000    1.2154034   -7.2815888    137.76124  0.029974161  0.031209099            2 
  384000    1.2023959   -7.3050887    138.42509  0.030040168  0.031197895            2 
  385000     1.196757   -7.3174794    138.88707  0.030062136  0.031186792            1 
  386000    1.1786991   -7.2694066    139.89502  0.030201861  0.031177074            1 
  387000    1.1795236   -7.3085842    139.56575  0.030052917  0.031167171            1 
  388000     1.194606    -7.262333    139.92921  0.030053524  0.031157376            2 
  389000    1.2072348   -7.2872088    140.45737   0.03008941   0.03114709            3 
  390000    1.1950002   -7.2954986    140.90269  0.030107412  0.031137712            1 
  391000    1.2124506    -7.294738     141.2933  0.030113662  0.031129728            2 
  392000    1.1990701   -7.2753987    141.92967  0.030172123  0.031121931            2 
  393000    1.1948185   -7.2889494    142.10177  0.030131842  0.031113422            3 
  394000    1.1793884   -7.3020741    142.20337  0.030076854  0.031103923            3 
  395000    1.1706064   -7.3285473     142.4401  0.030050655  0.031094503            6 
  396000    1.2165291   -7.3180697    142.58874  0.030006049  0.031085717            2 
  397000    1.1720716    -7.316782    143.35975  0.030092306  0.031076486            2 
  398000    1.1903314    -7.339135    143.35429  0.030015555  0.031066351            4 
  399000    1.2217977   -7.3139785    144.17151  0.030111008  0.031056523            2 
  400000    1.1876081   -7.2919884    144.21854  0.030045529   0.03104777            3 
  401000     1.181936   -7.3033971    144.65053  0.030060376  0.031037573            6 
  402000      1.18576    -7.306375    144.55237  0.029965251  0.031026736            2 
  403000    1.1868526   -7.3276106     144.9823  0.029979797  0.031016687            2 
  404000     1.187273   -7.3459001    145.02844  0.029915107  0.031007027            3 
  405000    1.2091523   -7.3051791    145.52436  0.029943284  0.030996525            2 
  406000    1.1580648   -7.2871778    145.64401   0.02989409  0.030985317            3 
  407000    1.2062441   -7.2829637    146.39466  0.029974336  0.030975315            1 
  408000     1.166782   -7.3084031    147.15319  0.030055799  0.030965547            2 
  409000    1.2014069   -7.3021361    146.88889  0.029928462  0.030955562            2 
  410000    1.1843784   -7.2948892    147.40102  0.029959558  0.030946462            3 
  411000    1.1797225   -7.2684188    147.98591  0.030005254  0.030936678            2 
  412000    1.1721321   -7.2588386    147.99046  0.029933346  0.030926805            2 
  413000    1.1939129   -7.3063577    148.20133  0.029903415  0.030916555            1 
  414000    1.1707315   -7.2976416    148.42607  0.029876423  0.030905527            2 
  415000    1.1624082   -7.2816321     148.9884  0.029917349  0.030896521            1 
  416000    1.1835387   -7.2855834    149.73166  0.029994323   0.03088725            2 
  417000    1.2114499   -7.2841955    149.86736  0.029949512  0.030877936            2 
  418000    1.1705541   -7.3196006    150.11829   0.02992789  0.030868344            4 
  419000    1.1705285   -7.3448469    149.80901  0.029794951  0.030859121            2 
  420000    1.1921375   -7.3055337    150.08671   0.02977911  0.030849456            2 
  421000    1.2200135   -7.2767728     150.9684  0.029882898  0.030839145            7 
  422000    1.1833313   -7.3125617    150.79591  0.029778024  0.030829373            3 
  423000    1.1990288   -7.2688379    151.49338  0.029845032  0.030820235            1 
  424000    1.1720076   -7.3024223    152.08611  0.029891138  0.030810892            3 
  425000    1.1925889   -7.2964533    152.01529  0.029806919  0.030801518            1 
  426000    1.2059868   -7.2897516    152.36458  0.029805278   0.03079242            2 
  427000    1.1845029    -7.311898    153.13721  0.029886262  0.030782962            2 
  428000    1.1583508   -7.3115815    153.52376  0.029891699   0.03077391            2 
  429000    1.1937432   -7.3022657    153.09602  0.029738931  0.030763999            2 
  430000    1.2033808   -7.3439304    152.83804  0.029619776  0.030753245            2 
  431000    1.1760781   -7.2794037    154.30054  0.029833825  0.030742881            1 
  432000    1.2023833   -7.3187839    153.63553  0.029636484  0.030732725            4 
  433000    1.1841582   -7.3147697    154.95092  0.029821192  0.030722602            2 
  434000    1.1840544   -7.2931047    155.04215  0.029769997  0.030712827            3 
  435000    1.2081813   -7.2795482    155.34693  0.029759949  0.030703237            6 
  436000     1.168662   -7.3321101    155.47756  0.029716659  0.030693238            3 
  437000    1.1810494   -7.2330253    156.96194  0.029931721  0.030683725            1 
  438000    1.1897472   -7.3039182    156.06256  0.029692267  0.030674577            3 
  439000    1.1660835   -7.2912749     156.1937  0.029649525  0.030664224            1 
  440000    1.1809514   -7.3225797    156.50126   0.02964039  0.030652743            3 
  441000     1.169256   -7.3100736    157.11258  0.029688696  0.030642207            2 
  442000    1.1963174   -7.3306968    156.76051  0.029555149  0.030632456            7 
  443000    1.1792244   -7.3150152    157.85627  0.029694557  0.030622358            4 
  444000    1.1584802   -7.2945491    158.19117  0.029690536  0.030612036            3 
  445000     1.165611   -7.2226066    159.33396   0.02983782  0.030603032            4 
  446000    1.1830808   -7.3166025    158.49273  0.029613738  0.030593978            2 
  447000    1.2003717   -7.3284322    159.35277  0.029707824  0.030584328            1 
  448000    1.1828749   -7.3196318    159.75107  0.029715601  0.030575025            3 
  449000    1.1951048   -7.2788505    160.31216  0.029753555  0.030566131            2 
  450000    1.1972448   -7.3353941    160.91781  0.029799595  0.030557338            1 
  451000    1.2034416   -7.2965607    160.98467  0.029745873   0.03054864            4 
  452000    1.1614062   -7.2751913    161.45334  0.029766471   0.03054036            2 
  453000     1.175253   -7.3158222    161.42494  0.029695538  0.030531961            1 
  454000    1.1670017   -7.3084934    162.32866  0.029796009  0.030523311            2 
  455000    1.1895784    -7.322406    161.44453  0.029568594   0.03051488            1 
  456000     1.161657   -7.3005733    161.63502  0.029538563  0.030505302            4 
  457000    1.2127568   -7.3223983     162.2527  0.029586561  0.030495244            2 
  458000    1.1757975   -7.3180107    162.20486  0.029513257  0.030484917            2 
  459000    1.1821485   -7.3150605    162.69899  0.029538669  0.030474557            1 
  460000    1.1524623   -7.2756436    163.57261  0.029632719  0.030464811            1 
  461000    1.1667712   -7.3039498    163.46562    0.0295491   0.03045502            2 
  462000    1.1738707   -7.3146275    163.45581   0.02948337  0.030444858            2 
  463000    1.1807894   -7.3363794    163.50375  0.029428321  0.030434146            2 
  464000    1.1527566   -7.3001604    164.47875  0.029540005  0.030423963            2 
  465000    1.1614718   -7.3114567    164.89889  0.029551773  0.030414463            1 
  466000    1.2033064   -7.3635107    164.95906  0.029499116  0.030404134            1 
  467000    1.1587422   -7.3001998    165.31886  0.029500154  0.030393781            2 
  468000    1.1697119   -7.3411097    165.22904  0.029421125  0.030383515            2 
  469000     1.181784   -7.3395317    165.88081  0.029474203  0.030372563            1 
  470000    1.1594632   -7.3041444    166.11671  0.029453317  0.030362187            3 
  471000    1.1922771   -7.3654571    165.55454   0.02929132  0.030351248            1 
  472000    1.1560336   -7.3320051    166.77744   0.02944517  0.030340007            1 
  473000    1.1555817    -7.336419    166.90913  0.029406119  0.030329511            2 
  474000     1.156355   -7.3241083    167.21578  0.029397992  0.030318368            1 
  475000    1.1442227   -7.3191036    167.56028  0.029396541  0.030307271            2 
  476000    1.1751927   -7.3090556    167.69119  0.029357702  0.030295948            2 
  477000     1.199603   -7.3655284    167.72019  0.029301221  0.030285034            2 
  478000    1.1714358    -7.309559    168.30627  0.029342097   0.03027436            5 
  479000    1.1716055   -7.2620871    169.48886   0.02948658  0.030264172            2 
  480000    1.1762503   -7.2775519    169.90427   0.02949727   0.03025443            3 
  481000    1.1669804   -7.3155763    169.34906  0.029339754   0.03024439            2 
  482000    1.1701665   -7.2758481    170.03456    0.0293974  0.030234319            3 
  483000     1.182985   -7.3567147    169.56766   0.02925598  0.030223856            1 
  484000    1.1802719    -7.319667    169.96739  0.029264357  0.030212294            2 
  485000    1.1611074   -7.3233321    170.41892  0.029281601  0.030201094            1 
  486000    1.1722258   -7.3043018    170.85708  0.029296481  0.030189986            3 
  487000    1.1728728   -7.3206105    171.36657  0.029323506  0.030179692            3 
  488000    1.1762588   -7.3297681    171.82285  0.029341334  0.030169078            2 
  489000    1.1653228   -7.3068754    171.85953  0.029287582  0.030158182            3 
  490000    1.1631916    -7.326869    172.32613  0.029307165  0.030147866            2 
  491000    1.1614105   -7.3262973     172.0794    0.0292056  0.030137219            3 
  492000    1.1543291   -7.3290388    172.56887  0.029229145  0.030126226            1 
  493000    1.1650275   -7.4040515    172.30385  0.029125058  0.030115538            3 
  494000    1.1830381   -7.3314463    173.20735  0.029218513  0.030104619            1 
  495000     1.162516   -7.3292666     174.1072  0.029310976  0.030094206            1 
  496000    1.1683107   -7.3231591    174.41994  0.029304426  0.030083982            4 
  497000    1.1767159   -7.3578184    174.31325  0.029227574  0.030073464            3 
  498000    1.1584477   -7.3720529    174.52488  0.029204297  0.030063229            1 
  499000    1.1452792   -7.2889664    175.92605  0.029379769   0.03005353            1 
  500000    1.1479899   -7.3164858    175.64185  0.029273641  0.030043907            2 
  501000    1.1630383    -7.360033     175.5128  0.029193746  0.030033709            3 
  502000    1.1737924   -7.3361283    175.63271  0.029155496  0.030023592            1 
  503000    1.1523243   -7.3475732    176.14513  0.029182428  0.030013223            1 
  504000    1.1805776   -7.3109135    176.23036  0.029138618  0.030002388            1 
  505000    1.1589794     -7.33497    176.60979  0.029143529  0.029991628            4 
  506000    1.1629681   -7.3524928    177.34683  0.029207316  0.029980759            2 
  507000    1.1555316   -7.3536219    176.87975  0.029072937  0.029969708            2 
  508000    1.1674933   -7.3878517    176.81614  0.029005273  0.029958865            1 
  509000    1.1632108   -7.2952051    177.40846  0.029045262  0.029948154            3 
  510000    1.1675471   -7.3303033    178.60791  0.029184299  0.029937532            3 
  511000     1.172335   -7.3513037    178.98164  0.029188134  0.029926984            2 
  512000    1.1388045   -7.2942922    179.11809  0.029153335  0.029916796            3 
  513000    1.1345534   -7.3061965    179.05332  0.029085984   0.02990666            3 
  514000    1.1604704   -7.3411469    179.89716  0.029166207  0.029896711            2 
  515000    1.1556072   -7.3496609     180.0801  0.029139174  0.029887356            1 
  516000    1.1533457   -7.3089927    180.85953   0.02920858   0.02987783            2 
  517000    1.1473502   -7.3379819    180.33142   0.02906696  0.029868153            3 
  518000    1.1856745   -7.3681723    180.22634  0.028993941  0.029858127            1 
  519000    1.1768574   -7.3216567    181.46105  0.029136328   0.02984802            1 
  520000     1.156294   -7.3751927    181.18118  0.029035446  0.029838753            1 
  521000    1.1433099   -7.3325472     182.3697  0.029169817  0.029829364            1 
  522000    1.1694475   -7.3349598    182.40272  0.029119208  0.029819677            6 
  523000    1.1600339   -7.3864084    181.80227  0.028967856  0.029809674            2 
  524000     1.163042   -7.3498632     182.2969  0.028991237  0.029799839            4 
  525000    1.1602977   -7.3352185    183.07009  0.029058744  0.029790328            2 
  526000    1.1681664   -7.3058614    183.63228  0.029092567  0.029781226            2 
  527000    1.1628169   -7.3557273    184.18589  0.029124904  0.029772232            2 
  528000    1.1500301   -7.3056057    184.39285  0.029102407   0.02976328            1 
  529000    1.1784604   -7.3112924    185.06549  0.029153354  0.029754605            2 
  530000    1.1729593   -7.3729721    184.33809  0.028983977  0.029745867            2 
  531000     1.167092   -7.4196478    184.65148  0.028978575  0.029736477            1 
  532000    1.1777715   -7.3361653    185.26423  0.029020086  0.029727357            2 
  533000    1.1370995    -7.295246    185.68006  0.029030653  0.029717736            1 
  534000     1.154113   -7.3456628     185.2854    0.0289147  0.029707386            2 
  535000    1.1274305   -7.3489341    186.11283  0.028989537  0.029697415            4 
  536000    1.1614871   -7.3089539     186.5814  0.029008303  0.029687377            2 
  537000    1.1783278   -7.3253169    186.86615  0.028998472  0.029677636            2 
  538000    1.1559839   -7.3656325    187.14317   0.02898748  0.029667743            3 
  539000    1.1869612   -7.3839496    187.31921  0.028960917  0.029658502            2 
  540000    1.1543871   -7.3897132    187.38508   0.02891745  0.029649302            1 
  541000    1.1743187   -7.3629687    188.00824  0.028959988  0.029640669            1 
  542000    1.1493606   -7.3194698    188.87489  0.029039804  0.029632103            1 
  543000    1.1547554   -7.3676829    189.02506   0.02900937  0.029623388            1 
  544000    1.1760257   -7.3087399    189.38676  0.029011453  0.029614677            3 
  545000    1.2026884   -7.3996865    188.94308  0.028890379  0.029606188            5 
  546000    1.1549185   -7.3687161     190.0172  0.029001404  0.029597584            3 
  547000    1.1799526   -7.3370446    189.27049  0.028834626  0.029588486            1 
  548000    1.1556926   -7.3309949    191.10332  0.029060724  0.029579407            2 
  549000    1.1835563   -7.3287466    191.11578  0.029009682  0.029570774            1 
  550000    1.1567439   -7.3371015    190.94079  0.028930423   0.02956191            2 
  551000    1.1513003   -7.4103326    190.62012  0.028829419  0.029552348            4 
  552000    1.1237739   -7.3600698    191.29621  0.028879259  0.029542441            2 
  553000    1.1554762   -7.3749533    192.05583  0.028941506  0.029533023            1 
  554000    1.1646772   -7.3722228    192.54829  0.028963341  0.029524095            2 
  555000    1.1474802   -7.3410848     192.3969  0.028888423  0.029515289            1 
  556000    1.1380398   -7.3390923    192.99862  0.028926652  0.029506049            2 
  557000     1.179472   -7.3776129    193.06682  0.028884922  0.029496368            2 
  558000    1.1736878   -7.3744946    193.25217  0.028860837  0.029487211            2 
  559000    1.1735485   -7.4011412    192.75323  0.028734828  0.029477765            5 
  560000    1.1676526   -7.3519115     194.1167  0.028886413  0.029468464            3 
  561000    1.1626812   -7.3215518    194.55508  0.028900041  0.029458919            1 
  562000    1.1764118   -7.4010988    193.41878  0.028680127  0.029449269            4 
  563000     1.179753   -7.3563992    194.35966  0.028768451  0.029439401            2 
  564000    1.1631285    -7.381602    193.89549   0.02864886  0.029429873            2 
  565000    1.1701618   -7.3627028    194.61774  0.028704682  0.029420423            4 
  566000     1.162582   -7.3980436    194.49431  0.028635794  0.029410805            3 
  567000     1.162979   -7.3494679    195.53589  0.028738373  0.029401113            1 
  568000    1.1759505   -7.3449821    196.25121  0.028792724  0.029391796            2 
  569000    1.1581754   -7.3336127    196.05217  0.028712971  0.029381821            4 
  570000    1.1453025   -7.3636718    195.86541  0.028635293  0.029372195            1 
  571000    1.1636604   -7.3151392    196.25514  0.028642022  0.029362196            1 
  572000    1.1641024   -7.3022298    197.33359  0.028749065  0.029352133            2 
  573000    1.1786722   -7.3458869    196.44726  0.028569991  0.029341629            4 
  574000    1.1454941   -7.3594273    197.64669  0.028694351  0.029331624            3 
  575000    1.1611532   -7.3665033    197.53638   0.02862846  0.029321669            1 
  576000    1.1702933   -7.4185595    197.27173  0.028540471  0.029311635            3 
  577000    1.1645115   -7.3836833    198.22654  0.028628906  0.029301439            1 
  578000    1.1736635   -7.3648364    198.33596   0.02859515  0.029291134            6 
  579000     1.152606   -7.3589937    199.28751  0.028682716  0.029281427            2 
  580000    1.1533384   -7.3809149    199.05278  0.028599538  0.029271816            3 
  581000    1.1228761   -7.4034689    198.58155  0.028482724  0.029262386            3 
  582000    1.1545903   -7.3642483    199.89485  0.028621828  0.029252818            1 
  583000    1.1575781   -7.3564414    199.63372  0.028535408  0.029243228            2 
  584000    1.1769977   -7.3798212    200.52432  0.028613631  0.029233515            2 
  585000    1.1776749   -7.3549283    200.00934  0.028491358  0.029224216            2 
  586000    1.1356697    -7.362327    201.14627  0.028604418  0.029214862            3 
  587000      1.15024   -7.3629673     201.2537  0.028570939   0.02920555            1 
  588000     1.140511   -7.3553667    202.26383  0.028665508  0.029196558            3 
  589000    1.1341832   -7.3723177    202.05146  0.028586793  0.029188024            2 
  590000    1.1613617   -7.3766771     202.9152  0.028660339  0.029179537            2 
  591000    1.1707799    -7.378936    202.83961  0.028601186  0.029171388            3 
  592000    1.1474734   -7.3457084    203.71076    0.0286755  0.029163188            1 
  593000    1.1700183   -7.3801889    203.28566  0.028567405  0.029155358            1 
  594000    1.1374349   -7.3696985    203.59341  0.028562487  0.029146619            4 
  595000     1.143698   -7.4410362    202.86499  0.028412463  0.029137905            5 
  596000    1.1601932   -7.3805123    204.62199  0.028610457  0.029128602            3 
  597000    1.1198781   -7.3733416    204.43446  0.028536356  0.029119911            4 
  598000    1.1393808    -7.403159    204.49473  0.028497035  0.029110728            1 
  599000    1.1598366   -7.4207646    205.19109   0.02854634  0.029101864            2 
  600000    1.1557493   -7.3616219    205.18672  0.028498156  0.029093062            1 
  601000    1.1684802    -7.387134    205.76696  0.028531193  0.029084152            3 
  602000    1.1536274    -7.371521    206.34274  0.028563503  0.029075237            1 
  603000    1.1456473   -7.3858604    206.00288  0.028469166  0.029066379            1 
  604000     1.183346    -7.392282    206.67134  0.028514258  0.029057421            2 
  605000    1.1584493   -7.2905926    207.37732  0.028564369  0.029049357            1 
  606000    1.1788096    -7.400304    206.90461  0.028452229  0.029041099            1 
  607000     1.157881   -7.3585532    208.55213  0.028631539  0.029032896            2 
  608000    1.1636908   -7.3899627    208.65122   0.02859803  0.029025074            3 
  609000    1.1575999   -7.3926967    209.30215  0.028640141  0.029017041            1 
  610000    1.1489224   -7.3536479    208.72854  0.028514828  0.029009126            3 
  611000    1.1316368   -7.4131414    208.95166   0.02849859  0.029000872            2 
  612000    1.1221996   -7.3718938    210.30854  0.028636783  0.028993142            1 
  613000    1.1632943   -7.3760488    210.02034  0.028550889  0.028985721            2 
  614000    1.1652482   -7.4290575     209.9219  0.028491029  0.028978052            3 
  615000     1.165635   -7.3843809     210.7902  0.028562358  0.028970005            3 
  616000     1.156424   -7.3435192    211.41867  0.028601011    0.0289626            2 
  617000    1.1503357   -7.3967412    211.44315  0.028557962  0.028955465            3 
  618000    1.1368406   -7.3713694    212.49005  0.028652919  0.028948375            1 
  619000    1.1472417   -7.4135023    211.97963  0.028537914  0.028941574            3 
  620000    1.1303517   -7.3646983    212.80693  0.028603082  0.028934728            1 
  621000    1.1499883   -7.3724017    213.86766  0.028699364  0.028928367            1 
  622000    1.1584836   -7.3384294    214.52784  0.028741672  0.028922339            2 
  623000    1.1495558   -7.3647102    213.85516  0.028605559  0.028916812            2 
  624000    1.1534259   -7.3783845     214.5048  0.028646474  0.028911247            3 
  625000    1.1461701   -7.3549925    215.38898  0.028718531  0.028905267            4 
  626000    1.1623205   -7.4058262    215.19304   0.02864657  0.028899541            2 
  627000    1.1483211   -7.4057766    214.91464  0.028563881  0.028893656            2 
  628000    1.1869653   -7.3426086    215.86495  0.028644499  0.028887812            4 
  629000    1.1671543   -7.3792625    216.90309  0.028736498  0.028882123            2 
  630000    1.1704734   -7.4041385    216.41783  0.028626697  0.028876764            3 
  631000    1.1414075   -7.4085365    216.28855  0.028564256  0.028871613            2 
  632000    1.1474015   -7.4211052     217.1434  0.028631778   0.02886636            2 
  633000    1.1352988   -7.4162666    217.47249   0.02862987   0.02886104            2 
  634000    1.1455273   -7.4025389    218.05532   0.02866132  0.028855919            3 
  635000    1.1716498   -7.4001662    218.49783  0.028674256  0.028851092            2 
  636000    1.1860925   -7.3958215    218.11284  0.028578727  0.028845909            1 
  637000    1.1516888   -7.3871974    218.76195   0.02861878  0.028840689            1 
  638000    1.1263152   -7.3885913    220.05642  0.028743001   0.02883558            3 
  639000    1.1583384    -7.378362    219.50119  0.028625612  0.028830523            2 
  640000    1.1511609    -7.370883     221.3183  0.028817487  0.028825291            1 
  641000    1.1501225   -7.4057351    220.28643  0.028638381   0.02882043            1 
  642000    1.1527835   -7.3713916    220.49238  0.028620506  0.028815338            7 
  643000    1.1804292   -7.4018564    221.64745  0.028725693  0.028810835            1 
  644000    1.1448781   -7.3598153    221.34212  0.028641579  0.028806305            2 
  645000    1.1360369   -7.3999313    221.53019  0.028621471  0.028801597            1 
  646000    1.1490078   -7.3677239    223.08878  0.028778223  0.028796827            7 
  647000    1.1565622    -7.380703    221.95996  0.028588351  0.028791914            4 
  648000    1.1272648   -7.4017057    222.49822  0.028613455  0.028787032            1 
  649000     1.124265   -7.4374642    222.31698  0.028546094  0.028781237            1 
  650000    1.1546456   -7.3674924    223.86463  0.028700593  0.028775835            1 
  651000    1.1433028   -7.4319764    222.54685   0.02848782  0.028770236            2 
  652000     1.160332   -7.3882666     223.0855  0.028512973  0.028764262            2 
  653000    1.1841735   -7.4253097    222.97651  0.028455399   0.02875784            2 
  654000    1.1552444   -7.3512799    224.23585  0.028572356   0.02875147            3 
  655000    1.1442487   -7.3774251    223.20578  0.028397681  0.028744941            1 
  656000     1.130205   -7.3751417    223.63371  0.028408754  0.028738343            3 
  657000    1.1513045   -7.4277976    223.31338  0.028324883  0.028731457            2 
  658000    1.1538379   -7.3903239    223.62878  0.028321781  0.028724644            2 
  659000    1.1367002   -7.4093911    224.01416  0.028327536   0.02871778            2 
  660000     1.154675    -7.380054    224.77282  0.028380407  0.028711273            7 
  661000    1.1424015    -7.418163    225.18436  0.028389355  0.028704174            1 
  662000    1.1438414   -7.3998306    225.26432  0.028356536  0.028697305            1 
  663000    1.1418745   -7.4188222    224.78698  0.028253769  0.028690043            3 
  664000    1.1256213   -7.4032596    225.62287  0.028316123  0.028682851            2 
  665000    1.1595977   -7.3609801    226.32593  0.028361645   0.02867601            2 
  666000    1.1181035   -7.3840367    226.64844  0.028359414  0.028668898            1 
  667000    1.1388177   -7.4107482    227.24483  0.028391408  0.028661911            1 
  668000    1.1710541   -7.3832102    227.24271  0.028348641  0.028655127            1 
  669000    1.1268238   -7.3897421    228.17235  0.028422067  0.028648846            2 
  670000    1.1381571   -7.3797342    227.81996  0.028335816  0.028642559            2 
  671000    1.1331523   -7.3630976    228.88457  0.028425804  0.028636633            1 
  672000    1.1331208   -7.3916077     228.5538  0.028342485  0.028630281            3 
  673000    1.1429394   -7.3941387    228.21279  0.028258147  0.028623726            1 
  674000    1.1465909   -7.3806863    229.39968  0.028362968  0.028617195            1 
  675000    1.1501946   -7.4358078    229.16619  0.028292123  0.028610484            1 
  676000     1.133595   -7.3848717    229.93609  0.028345178  0.028604061            3 
  677000    1.1498869   -7.3918446    230.71874  0.028399648  0.028597904            3 
  678000    1.1282345     -7.41855    230.37911  0.028316017  0.028591502            3 
  679000    1.1585381   -7.3779498    230.66461  0.028309354  0.028584909            2 
  680000    1.1290048   -7.4031153    230.99642  0.028308385  0.028578202            2 
  681000    1.1355671    -7.420461    230.35204  0.028187963  0.028571617            1 
  682000    1.1444552   -7.3902572    231.77282  0.028320237  0.028565023            2 
  683000    1.1341251   -7.4008944    231.69625  0.028269431  0.028558411            2 
  684000    1.1040032   -7.4056684    232.36184  0.028309191   0.02855183            2 
  685000    1.1275295    -7.424311    232.43079  0.028276252   0.02854537            2 
  686000    1.1565014   -7.3924257    232.46932  0.028239713  0.028538994            1 
  687000    1.1452141   -7.4066545    233.14271   0.02828029  0.028532715            2 
  688000    1.1270612    -7.405855    232.84194  0.028202755  0.028526491            1 
  689000    1.1487066   -7.4388034     233.8899   0.02828857  0.028520025            3 
  690000    1.1182098   -7.4233909     234.0733  0.028269722  0.028513648            2 
  691000    1.1483643   -7.4175848     233.9047  0.028208478  0.028507466            1 
  692000    1.1336425   -7.4073964    234.15874  0.028198307  0.028500711            2 
  693000    1.1463066   -7.4095504    234.60533  0.028211319  0.028494022            1 
  694000    1.1210512   -7.3848209    235.32086  0.028256587   0.02848726            4 
  695000    1.1340285   -7.4238649    234.87597  0.028162586  0.028480919            1 
  696000    1.1563986   -7.4266821    235.77227  0.028229439  0.028474211            5 
  697000    1.1462421   -7.4118223     235.1559  0.028115244  0.028467739            3 
  698000    1.1595344   -7.4648469    235.54736    0.0281217  0.028461289            2 
  699000     1.152425   -7.4297508    235.87319  0.028120314  0.028454376            2 
  700000    1.1214259   -7.4269951    236.43803  0.028147385  0.028447599            2 
  701000    1.1343592   -7.3912509    237.22871  0.028201226  0.028441252            1 
  702000    1.1280963   -7.4790333    236.79303  0.028109334  0.028434797            1 
  703000     1.164447   -7.3807857     238.1637  0.028231828  0.028428682            2 
  704000    1.1482168   -7.4299338    237.54571  0.028118574  0.028422495            3 
  705000    1.1282192   -7.3736444    237.72523  0.028099909  0.028416191            4 
  706000    1.1188408   -7.4306716    237.73508   0.02806127  0.028409686            1 
  707000     1.145926   -7.4395051    238.56643   0.02811957   0.02840294            3 
  708000    1.1244445   -7.4141697    238.40427  0.028060766  0.028396349            3 
  709000    1.1276098    -7.395116     238.9448   0.02808472  0.028389241            1 
  710000     1.138281   -7.4000782    238.52375  0.027995746  0.028382183            2 
  711000    1.1156237   -7.4085472    238.79614  0.027988296  0.028374909            1 
  712000     1.168899    -7.431925    239.09453   0.02798391  0.028367706            5 
  713000    1.1177128   -7.4391845    239.03896  0.027938167  0.028360466            2 
  714000    1.1252593   -7.3973602    239.08862  0.027904834  0.028353051            2 
  715000    1.1416649   -7.4349606    239.07651  0.027864395  0.028345423            2 
  716000    1.1373682   -7.3966277    240.26713  0.027964051   0.02833799            1 
  717000    1.1240782   -7.4140608    240.58656  0.027962176  0.028330408            2 
  718000    1.1414858   -7.3987902    241.02064  0.027973612  0.028322753            2 
  719000    1.1469261   -7.3784145    241.01878   0.02793449  0.028315046            4 
  720000    1.1392039   -7.3822581     241.7023  0.027974803  0.028307768            2 
  721000    1.1311207   -7.4134136    241.89998  0.027958851  0.028300353            2 
  722000    1.1400194   -7.4856929     241.5531   0.02788009  0.028292735            2 
  723000    1.1304502   -7.4546166     242.6119  0.027963566  0.028284852            1 
  724000    1.1734902   -7.3909827    243.39699  0.028015308  0.028277459            2 
  725000    1.1621717   -7.3889644    243.69447  0.028010858  0.028270606            2 
  726000    1.1410871   -7.3989619    243.53154  0.027953574  0.028263955            3 
  727000    1.1223337   -7.4388115    243.83072  0.027949417  0.028257138            2 
  728000    1.1555004   -7.4647189    244.42948  0.027979565    0.0282503            1 
  729000    1.1623332   -7.4370218    243.89479  0.027880063  0.028243312            5 
  730000    1.1288202   -7.3914311    245.27309  0.027999211  0.028236409            2 
  731000    1.1324285    -7.462498    243.56024  0.027765645  0.028229113            2 
  732000    1.1409318   -7.4529703    245.16338   0.02791022  0.028221607            2 
  733000    1.1401553   -7.4355211    244.43602  0.027789452  0.028213918            2 
  734000    1.1392058   -7.4033476    245.05284  0.027821621  0.028205928            1 
  735000    1.1125404   -7.4232686    244.90934  0.027767499  0.028198031            9 
  736000    1.1535819   -7.4464825    245.32534  0.027776872  0.028190103            3 
  737000    1.1351383   -7.4175446    245.28176  0.027734256  0.028182222            4 
  738000    1.1105784   -7.4248339     246.6554  0.027851784   0.02817469            3 
  739000    1.1176991   -7.4140966    246.21968  0.027764961  0.028167148            2 
  740000    1.1195533   -7.3918921    246.66376  0.027777451  0.028159707            2 
  741000    1.1488068   -7.4217399    247.04347  0.027782667  0.028152186            1 
  742000     1.140533    -7.409304    248.22334  0.027877733   0.02814471            1 
  743000    1.1551379   -7.4105087    248.36532  0.027856138  0.028137505            2 
  744000    1.1066807   -7.4174618    248.38003  0.027820343  0.028130221            2 
  745000    1.1225776   -7.4537432    247.99887  0.027740366  0.028122931            1 
  746000    1.1233049   -7.4150528    249.06969  0.027822798  0.028116131            2 
  747000    1.1430262    -7.382492    249.15381  0.027794937  0.028109533            1 
  748000    1.1258496   -7.4406402    250.22583  0.027877209  0.028102696            2 
  749000    1.1183177   -7.4325935    249.83247  0.027796225   0.02809561            3 
  750000    1.1322591   -7.4267732    250.09909  0.027788788  0.028088674            2 
  751000    1.1200679   -7.3746807    250.94749  0.027845927  0.028081674            1 
  752000    1.1223055    -7.446587    249.57473  0.027656774  0.028074604            2 
  753000    1.1081848   -7.4098192    250.47584  0.027719769  0.028067001            2 
  754000    1.1131128   -7.4181069    250.69683   0.02770743  0.028059616            1 
  755000     1.144711   -7.4045828    250.94785  0.027698438  0.028052095            1 
  756000    1.1140901   -7.4398463     251.0843  0.027676841  0.028044818            3 
  757000    1.1297768     -7.43782    251.54094  0.027690548  0.028037522            1 
  758000    1.1240142   -7.4536616    252.18083  0.027724366  0.028030491            2 
  759000    1.1494679   -7.4644807    252.27256  0.027697909  0.028023334            2 
  760000    1.1484285   -7.4371351    252.38891  0.027674222   0.02801609            2 
  761000    1.1325837   -7.4619766    252.10205  0.027606445  0.028008862            4 
  762000    1.1338538   -7.4478798    252.95399  0.027663385  0.028001628            2 
  763000    1.1268275   -7.4397629    254.04797  0.027746611  0.027994657            1 
  764000    1.1321505   -7.4214861    254.72265  0.027783884  0.027987856            3 
  765000    1.1170935   -7.4634576    254.45919  0.027718866  0.027981288            4 
  766000    1.1378627   -7.4298016     255.2942  0.027773521  0.027974706            1 
  767000    1.1470738    -7.435908    255.14504  0.027721104  0.027968135            2 
  768000    1.1385173   -7.4329814    256.12246  0.027791065  0.027961499            2 
  769000    1.1099937   -7.4381932      255.878  0.027728435   0.02795506            1 
  770000    1.1429855   -7.4335033    255.84956  0.027689347   0.02794861            4 
  771000     1.120917   -7.4418571    256.08608  0.027678997  0.027941881            1 
  772000    1.1290406   -7.4700317    256.35089  0.027671729  0.027935329            3 
  773000    1.1263976   -7.3936567    256.84587  0.027689292  0.027928432            1 
  774000    1.1101496   -7.4519846    256.17384  0.027581163  0.027921703            2 
  775000    1.1020666   -7.4413651    256.85663  0.027618993  0.027914782            1 
  776000    1.1007174   -7.4780493    256.83523  0.027581102  0.027907618            1 
  777000    1.1352245   -7.4583376    257.56013  0.027623352  0.027900308            2 
  778000     1.122663   -7.4722153    256.53596  0.027478145  0.027892964            2 
  779000     1.111576   -7.4572621    258.12467  0.027612823  0.027885623            2 
  780000    1.1043114   -7.4630105    258.35876  0.027602431  0.027878625            3 
  781000    1.1217111   -7.4634409    257.47036  0.027472296  0.027871429            2 
  782000    1.1154267   -7.4167754    259.07205  0.027607848  0.027864066            1 
  783000    1.1143498   -7.4183019    258.21116  0.027480967  0.027856887            3 
  784000    1.1537721   -7.4278517    259.27894  0.027559411  0.027849371            1 
  785000    1.1481054   -7.4711577    258.94633  0.027488994  0.027842221            6 
  786000    1.1301214   -7.3978445    258.98539  0.027458162  0.027835076            1 
  787000    1.1371836   -7.4335389    260.01468  0.027532262  0.027827973            2 
  788000    1.1267465   -7.4697396    260.56462   0.02755548  0.027820827            3 
  789000    1.1536613   -7.4180164    260.54503  0.027518487  0.027813792            2 
  790000    1.1439897   -7.4456677     260.6268  0.027492279  0.027806295            1 
  791000    1.1651767    -7.474349     259.8188  0.027372398  0.027798672            2 
  792000    1.1214021   -7.4710255    260.42234  0.027401341  0.027790788            2 
  793000    1.1391424    -7.476657    260.58355  0.027383727  0.027782963            3 
  794000    1.1360469   -7.4566224    260.81871   0.02737392  0.027775186            2 
  795000    1.1183056    -7.442839    261.24721  0.027384403  0.027767413            1 
  796000    1.0971948   -7.4421495    261.90911  0.027419295  0.027759529            1 
  797000    1.1229181   -7.4482241    261.85273  0.027378997  0.027751778            3 
  798000    1.1104934   -7.4149851    262.57759  0.027420383   0.02774416            1 
  799000     1.129393   -7.4323535    263.28377  0.027459718  0.027736645            2 
  800000    1.1366115   -7.4402727     262.4927  0.027342989  0.027729412            2 
  801000    1.1240092   -7.4663085    262.85196  0.027346229  0.027721612            1 
  802000    1.1431914   -7.4478624    264.30107  0.027462704   0.02771387            2 
  803000    1.1444569   -7.4739384    263.09416  0.027303255  0.027706043            2 
  804000    1.1283423   -7.4591027    263.02949  0.027262592   0.02769807            2 
  805000    1.1502074   -7.4742881     263.1871  0.027245041  0.027690079            1 
  806000    1.1186747   -7.4700423    262.78667  0.027169837  0.027681772            2 
  807000    1.1168215   -7.4685317    263.60043  0.027220201  0.027673545            2 
  808000     1.128842   -7.4621127    264.31543  0.027260255  0.027665137            4 
  809000     1.129009   -7.4266919    264.03771  0.027197951  0.027656675            5 
  810000       1.1142   -7.4444807    263.83289  0.027143301  0.027648146            6 
  811000    1.1239172   -7.4820571    264.42483  0.027170656  0.027639528            2 
  812000    1.1163217   -7.4637371    263.98253  0.027091803  0.027630842            3 
  813000    1.1382014   -7.4830219    264.66212  0.027128139  0.027622217            2 
  814000     1.097791   -7.4734368    264.77026  0.027105883  0.027613146            2 
  815000    1.1090224   -7.4561473    264.93229  0.027089191  0.027604258            2 
  816000    1.1363204    -7.465596    265.56982  0.027121101  0.027595571            2 
  817000    1.1020925    -7.473255    264.92407  0.027022039  0.027586797            2 
  818000     1.100778   -7.4404959    265.54324  0.027052082  0.027577903            1 
  819000    1.1328912   -7.4600502    265.33677  0.026998044   0.02756904            1 
  820000    1.1347534   -7.4562392    266.20327  0.027053178  0.027559832            1 
  821000    1.1219743   -7.4023608    266.41191  0.027041404  0.027550653            2 
  822000     1.124367   -7.4299121    266.31899  0.026999086  0.027541989            2 
  823000    1.1021546   -7.4166031    266.92533  0.027027676  0.027532966            2 
  824000    1.1231674   -7.4383649    267.50614  0.027053614  0.027524302            2 
  825000    1.1387449   -7.4844843    267.41463  0.027011579  0.027515577            1 
  826000     1.127896   -7.4581304     266.7697  0.026913811  0.027506516            2 
  827000    1.1142743   -7.4955078     267.6261  0.026967564  0.027497334            2 
  828000    1.1134812   -7.4732971    268.11235  0.026983932  0.027488266            2 
  829000    1.1348795   -7.4335899    269.07481  0.027048132  0.027479677            1 
  830000    1.1303697   -7.4438499    269.37905  0.027046089  0.027471095            1 
  831000    1.1086421    -7.471775    269.47998  0.027023664  0.027462609            1 
  832000     1.116836   -7.4697768      269.097  0.026952825  0.027454192            2 
  833000    1.1284765   -7.4834277    270.22047   0.02703286  0.027445771            1 
  834000    1.1220727   -7.4383854    270.87406  0.027065753  0.027437388            6 
  835000    1.1393962   -7.4281516    271.06306  0.027052201  0.027429203            2 
  836000    1.1381423   -7.4943495    269.95035  0.026908927  0.027420938            4 
  837000    1.1207277   -7.4804045    271.84574  0.027065485  0.027412595            1 
  838000    1.1297558   -7.4605707    272.61614  0.027109799  0.027404222            2 
  839000     1.127717    -7.443877    272.23689  0.027039818  0.027395798            2 
  840000     1.101645   -7.4091699    272.08483  0.026992543   0.02738753            2 
  841000    1.1188875   -7.4683575    271.36501  0.026889121  0.027378801            1 
  842000    1.1379176    -7.501174    270.78196  0.026799482  0.027370052            3 
  843000    1.1198073   -7.5007877    271.23274  0.026812252  0.027360999            4 
  844000    1.1546456   -7.4545615    273.28188  0.026982808   0.02735199            2 
  845000    1.1078263   -7.4871439    273.10014  0.026932953  0.027343407            3 
  846000    1.1242128   -7.5298337    272.88152  0.026879582  0.027334621            5 
  847000     1.078051   -7.4550797    273.85362  0.026943489    0.0273263            1 
  848000    1.1344122   -7.4957061     273.7014  0.026896757  0.027318318            4 
  849000    1.1169363   -7.4770756    275.30148  0.027022132  0.027310506            1 
  850000    1.0922761    -7.470586    274.87066  0.026948104  0.027302718            3 
  851000    1.1099821   -7.5134134     275.1274  0.026941579  0.027294688            2 
  852000    1.1089262   -7.4869644    275.92472  0.026987942  0.027286812            2 
  853000    1.1114397   -7.4666643    276.82862   0.02704461  0.027279111            1 
  854000    1.1095641   -7.4665097     275.8046  0.026913017  0.027271499            2 
  855000    1.0896284   -7.4604859     277.0037  0.026998411  0.027263839            2 
  856000    1.1058414   -7.4297425    276.70578  0.026937868  0.027256076            3 
  857000    1.0983182   -7.5252475    275.52664  0.026791777  0.027247897            2 
  858000    1.1107376   -7.4934201    276.57281  0.026862161  0.027239465            1 
  859000    1.1253643   -7.5195126    277.08002  0.026880095  0.027231311            1 
  860000    1.1099551   -7.4694483    276.21543  0.026765061  0.027222951            4 
  861000    1.1183778   -7.4533892    277.25552  0.026834642  0.027214456            3 
  862000    1.1404417    -7.452865    277.38425  0.026815956  0.027206312            2 
  863000    1.1102303   -7.4742448    277.12196  0.026759556   0.02719816            2 
  864000    1.0934636   -7.4625698    278.19871  0.026832437  0.027190051            5 
  865000    1.1357763   -7.5256327    277.62533  0.026746178  0.027181904            1 
  866000    1.1064834   -7.4256996    278.66276  0.026815124    0.0271735            2 
  867000    1.1055445   -7.4776451    279.70533  0.026884403  0.027165675            3 
  868000    1.1176294   -7.4792904    279.09303  0.026794646  0.027157891            2 
  869000    1.1039401   -7.4700821    279.63285  0.026815578  0.027149844            2 
  870000    1.1309034   -7.5217379    279.66516   0.02678785  0.027141709            3 
  871000    1.1073193   -7.4940183    280.31151  0.026818935  0.027133686            1 
  872000    1.1113576   -7.4839974    280.08094  0.026766145  0.027125513            6 
  873000    1.0895935   -7.4537347    280.88889  0.026812609  0.027117619            3 
  874000    1.1299992   -7.4679307    280.04032  0.026701022  0.027109803            2 
  875000    1.1282144   -7.4549272    281.72971  0.026831401  0.027101892       -1e+20 
  876000    1.1192778   -7.4748995    281.97294   0.02682391   0.02709404            2 
  877000    1.1127962   -7.4575693    281.06116  0.026706685  0.027086268            4 
  878000     1.132363   -7.4252866    283.08175  0.026868048  0.027078496            1 
  879000    1.1083938   -7.5003743    281.61194  0.026698136  0.027070531            3 
  880000     1.083628   -7.5137749    281.85469  0.026690785   0.02706252            1 
  881000    1.1116789   -7.4762873    282.55565  0.026726793  0.027054384            3 
  882000    1.1147418   -7.5115714     282.7542  0.026715249  0.027046743            2 
  883000    1.1191326   -7.4721101     282.9043   0.02669916  0.027039018            2 
  884000    1.1071858   -7.4819353    283.45929  0.026721276  0.027031767            2 
  885000    1.1113252   -7.4540327    284.55941  0.026794671  0.027024571            2 
  886000    1.0980601   -7.4872753    285.21107  0.026825721  0.027017054            3 
  887000    1.0829322   -7.4985005    285.46496  0.026819331  0.027009768            3 
  888000    1.1369418    -7.492881    285.34142  0.026777536  0.027002421            4 
  889000     1.108656    -7.463341    285.04739  0.026719852  0.026995128            4 
  890000    1.1199891   -7.4706276    285.68049  0.026749109  0.026987905            2 
  891000    1.0907104   -7.5286047    285.71265  0.026722096  0.026980518            3 
  892000    1.1107207   -7.4967212     287.9336  0.026899626  0.026973219            1 
  893000    1.1049629   -7.4774707    286.87294  0.026770525  0.026965967            1 
  894000    1.1054823   -7.4973426     286.2804  0.026685347  0.026958803            1 
  895000    1.0786716   -7.5216814    286.70837  0.026695379  0.026951533            1 
  896000    1.1114407   -7.4877317    287.08824  0.026700915  0.026944447            5 
  897000     1.120732   -7.4838751    288.27815  0.026781693  0.026937412            5 
  898000    1.1043595   -7.5249093    287.96986  0.026723261  0.026930451            3 
  899000    1.1082172   -7.4849221    288.08203  0.026703933  0.026923426            2 
  900000    1.0955437   -7.4787711    289.47043  0.026802818  0.026916734            2 
  901000    1.0957694   -7.4952954    289.27363  0.026754868  0.026910311            2 
  902000    1.0903554   -7.4911727     289.5376  0.026749593  0.026903782            2 
  903000     1.094899   -7.5175027    290.34718  0.026794683  0.026897347            2 
  904000    1.1161397   -7.5259279     289.7794  0.026712703  0.026890945            3 
  905000    1.0662456   -7.5040071    290.65886  0.026764168   0.02688476            3 
  906000    1.1163329   -7.4797488    291.25202  0.026789185  0.026878653            3 
  907000    1.1175431   -7.5320254    292.30445  0.026856344  0.026872678            4 
  908000    1.1005918   -7.5335699    291.21966  0.026727208   0.02686678            2 
  909000    1.0881241   -7.5246853    292.15298  0.026783368   0.02686057            1 
  910000    1.1121405   -7.5246549    292.13603  0.026752384  0.026854678            3 
  911000    1.1182792   -7.4676933    293.51565  0.026849218  0.026849096            2 
  912000    1.0839909   -7.5088726    293.06091  0.026778227  0.026843517            1 
  913000    1.1191707   -7.4875875    294.06888  0.026840898  0.026837752            1 
  914000    1.1132044   -7.4843418     293.9625  0.026801832  0.026831951            7 
  915000    1.1238813   -7.5180861    293.97454  0.026773637  0.026826222            2 
  916000    1.1052902   -7.5121899     294.1761  0.026762746  0.026820584            1 
  917000    1.1243397   -7.5406152    294.84128  0.026794009  0.026814856            3 
  918000    1.1082666   -7.4662325    295.25676  0.026802539  0.026808903            2 
  919000    1.1340606   -7.5270823    294.61589   0.02671526  0.026803117            1 
  920000    1.1135912   -7.5591233    295.02232  0.026723036  0.026797467            5 
  921000    1.0871529   -7.5027415     296.5936  0.026836193  0.026791902            2 
  922000     1.098814   -7.4958224    296.78335  0.026824236  0.026786476            1 
  923000      1.07661    -7.480763    296.49213  0.026768881  0.026780749            3 
  924000    1.1179552   -7.4851931    296.14608  0.026708701  0.026774951            2 
  925000    1.0793686    -7.521652    295.70341  0.026639947  0.026769021            2 
  926000    1.0931069   -7.4922322    297.57458   0.02677957  0.026762913            1 
  927000    1.0935155   -7.4953423    296.72869   0.02667464  0.026756722            3 
  928000    1.0993423   -7.5204586    296.67527  0.026641098  0.026750393            3 
  929000    1.1096679   -7.4845392     296.3961  0.026587379  0.026743993            1 
  930000    1.1054471   -7.4684613    297.97969  0.026700689  0.026737406            1 
  931000    1.0951949   -7.5183699    296.22978  0.026515376  0.026730781            3 
  932000    1.0874838   -7.5391226    296.42522  0.026504401  0.026724063            2 
  933000    1.1044823   -7.5191697    296.65219  0.026496266  0.026717315            4 
  934000    1.1187822   -7.4576084    298.07043  0.026594435  0.026710697            2 
  935000    1.0996961   -7.4865906    297.88318  0.026549303  0.026704166            3 
  936000    1.1187484   -7.5074726    297.48809  0.026485763  0.026697615            3 
  937000    1.0983475   -7.5147348      297.685  0.026475009  0.026690957            1 
  938000    1.1000442   -7.5213911    298.60189  0.026528242  0.026684393            2 
  939000    1.1276639   -7.4836987    299.27688  0.026559893  0.026677907            2 
  940000    1.0975865   -7.4908857     298.5753  0.026469442  0.026671283            2 
  941000    1.0925972   -7.5035791     299.8574  0.026554853   0.02666454            4 
  942000    1.0899712   -7.5227389    299.27387  0.026475041  0.026657835            1 
  943000    1.1292525   -7.5471788    299.36481  0.026455003  0.026650989            3 
  944000    1.0951503   -7.5202192    299.46116  0.026435484  0.026643989            6 
  945000    1.0749944   -7.5076236    300.99293  0.026542586  0.026637252            4 
  946000    1.0905621   -7.5174363    300.68634  0.026487521  0.026630496            4 
  947000     1.116011   -7.4778349    300.66099   0.02645732  0.026623691            1 
  948000    1.1100411   -7.5116172    300.65643  0.026429011  0.026617038            1 
  949000    1.1037659   -7.5437253    301.30849   0.02645842  0.026610276            2 
  950000    1.1004449   -7.5229823    301.06073  0.026408836  0.026603432            3 
  951000    1.0876067    -7.503034    301.24692  0.026397382  0.026596543            2 
  952000    1.1017433   -7.5196601    301.81152  0.026419076  0.026589748            1 
  953000    1.0855392   -7.5285221    301.94215  0.026402776  0.026582795            3 
  954000    1.0792566   -7.5383108    301.48735  0.026335373  0.026576055            1 
  955000    1.0967238   -7.5352075    302.40676  0.026388025  0.026569365            4 
  956000    1.0843736   -7.5486552    302.41325  0.026360988  0.026562594            1 
  957000    1.0875612   -7.4927454    303.93513  0.026465964   0.02655614            3 
  958000    1.0821732   -7.4584635    304.58719  0.026495058  0.026549582            5 
  959000    1.0893726   -7.5237424    303.52211   0.02637488  0.026543075            1 
  960000    1.1083232   -7.5017219     305.5231  0.026521103  0.026536559            2 
  961000    1.1235199   -7.4725921     304.4189  0.026397754   0.02653018            3 
  962000    1.1161965   -7.4872843    305.16654  0.026435078  0.026523812            2 
  963000    1.1049579   -7.4910394    304.84855   0.02638011  0.026517486            3 
  964000    1.1128736   -7.5585993    304.78784  0.026347497  0.026510972            1 
  965000    1.1137091   -7.5323386    305.22737  0.026358149  0.026504291            2 
  966000    1.1029877   -7.5225618    306.05305  0.026402092  0.026497748            4 
  967000    1.1061331   -7.4595362     306.7218  0.026432419  0.026491366            1 
  968000    1.1047999   -7.5244641    306.47671  0.026384014  0.026485039            2 
  969000    1.0532169   -7.5104094    307.25459  0.026423683  0.026478453            5 
  970000    1.0884504   -7.4895629     307.0367  0.026377723  0.026472109            2 
  971000     1.102318   -7.5251542    306.92866  0.026341285  0.026465479            5 
  972000    1.1033694   -7.5086032    306.73884  0.026297911  0.026458774            4 
  973000     1.107717   -7.5263971    307.41426   0.02632873  0.026452365            4 
  974000    1.0820709   -7.5409916    307.21598  0.026284735   0.02644589            1 
  975000    1.1159766   -7.4886675    307.61237  0.026291655  0.026439278            4 
  976000    1.1003233   -7.5147265     307.3934  0.026246021  0.026432469            3 
  977000    1.1097697   -7.4950611    308.43253   0.02630779  0.026425727            1 
  978000    1.1178659   -7.5201281    309.08541  0.026336521  0.026419342            3 
  979000    1.0973598   -7.4961788    309.24091  0.026322856   0.02641305            5 
  980000    1.0988537   -7.4878119     309.4291  0.026311998  0.026406533            2 
  981000    1.1130429   -7.5009856    309.52452  0.026293282  0.026399962            1 
  982000    1.0987133   -7.5606969    309.17129  0.026236532  0.026393335            3 
  983000    1.0704567   -7.5487697    308.38807  0.026143444  0.026386605            2 
  984000    1.1079726   -7.5901512    308.23666  0.026104053  0.026379859            6 
  985000    1.1062427   -7.5534139    310.29375  0.026251586  0.026372998            2 
  986000    1.0916392   -7.5575732    308.92813  0.026109544   0.02636611            3 
  987000    1.0839427   -7.5160877    310.81424  0.026242337  0.026359133            4 
  988000     1.097466   -7.5371139    310.62455  0.026199777  0.026352416            4 
  989000    1.0825776   -7.5504605    310.86731  0.026193741  0.026345623            2 
  990000    1.0933911   -7.5208997     310.9765  0.026176473   0.02633888            2 
  991000    1.0749549    -7.536707    310.63464  0.026121312  0.026332069            3 
  992000    1.0884609   -7.5410082    311.64597  0.026179937  0.026324996            3 
  993000     1.094112   -7.5325739    310.98346  0.026097974  0.026317992            4 
  994000       1.0937   -7.5552111    312.11923  0.026166937  0.026310968            1 
  995000    1.0884501   -7.5753552    310.41787  0.025998147  0.026303869            1 
  996000    1.0879848   -7.5144448     312.9855  0.026186872  0.026296829            8 
  997000    1.0826323   -7.5426471    312.05044  0.026082451  0.026289938            2 
  998000    1.1021376   -7.4956605    312.67963  0.026108853  0.026283087            1 
  999000    1.1051467   -7.5754758    312.77957  0.026091056  0.026276155            2 
 1000000    1.1120009   -7.5160518      312.516     0.026043  0.026269129            4 
 1001000    1.0799217    -7.550013    313.41529  0.026091849  0.026262004            5 
 1002000    1.0861692   -7.5092013    314.26804   0.02613673  0.026255057            2 
 1003000    1.0993033   -7.5620807    313.31767  0.026031711  0.026248248            5 
 1004000     1.102363   -7.5424127    313.25765  0.026000801   0.02624134            3 
 1005000    1.0675605   -7.4975488     315.4672  0.026158142  0.026234551            2 
 1006000    1.0983143   -7.5578768     314.6983  0.026068448   0.02622741            2 
 1007000    1.0609898   -7.5654873    313.07933  0.025908584  0.026220284            2 
 1008000    1.0744835   -7.5340105    314.54959   0.02600443  0.026213202            5 
 1009000    1.0886001   -7.5485782    315.26113  0.026037424  0.026206039            1 
 1010000    1.0845271   -7.5896766    314.39214  0.025939946  0.026198876            3 
 1011000    1.0820784    -7.582428    314.02636  0.025884138  0.026191565            6 
 1012000    1.0957239   -7.4873944    314.93118  0.025933068   0.02618411            3 
 1013000    1.0987561   -7.5709783    313.88449  0.025821363    0.0261768            4 
 1014000    1.0723545    -7.521871    315.49362  0.025928141  0.026169342            2 
 1015000    1.0931157   -7.5647503      314.177  0.025794499  0.026161883            3 
 1016000    1.1137607   -7.5618743    315.14991   0.02584891  0.026154261            2 
 1017000    1.1114474   -7.5379436    315.84378  0.025880349  0.026146764            3 
 1018000    1.0913605    -7.606802    316.21701  0.025885479  0.026139105            2 
 1019000     1.110094   -7.5596755    315.85364   0.02583036  0.026131538            4 
 1020000    1.0725198   -7.5148111    317.28476  0.025921958  0.026124129            4 
 1021000    1.0765596   -7.4998476    316.45201    0.0258286  0.026116729            2 
 1022000    1.0825716   -7.5240323    315.36733  0.025714884  0.026109132            7 
 1023000     1.104287   -7.5507389    316.62494  0.025792191  0.026101556            3 
 1024000    1.0889255   -7.5673696    317.89306  0.025870203  0.026094167            3 
 1025000    1.0773814   -7.5870135    317.45964  0.025809727  0.026086825            6 
 1026000    1.0672647   -7.5444835    318.24944   0.02584872  0.026079466            2 
 1027000      1.09321   -7.5183696    318.87328  0.025874171  0.026072232            3 
 1028000    1.0922921   -7.5624278    318.53365  0.025821469  0.026065061            1 
 1029000    1.1029219   -7.5077151    319.50932   0.02587539  0.026057979            3 
 1030000    1.0787783   -7.5605829    319.44738  0.025845257  0.026050844            2 
 1031000    1.0947591   -7.5126691    318.77246  0.025765637  0.026043551            1 
 1032000    1.0794917   -7.5186784     319.3617  0.025788251  0.026036309            3 
 1033000    1.0881895   -7.5426883    319.50282  0.025774671  0.026029086            1 
 1034000    1.0876384   -7.5185452    320.38477  0.025820822  0.026021858            1 
 1035000    1.0896637   -7.5797398    319.99306  0.025764337  0.026014676            2 
 1036000    1.0738739   -7.5647249    320.73586  0.025799217  0.026007454            2 
 1037000    1.0692708   -7.5570034    320.28281  0.025737931  0.026000175            2 
 1038000    1.0913867   -7.5654879    320.76819  0.025752103  0.025992976            1 
 1039000    1.1043893   -7.5597425    320.88183  0.025736432  0.025985578            1 
 1040000    1.1005382   -7.4845749    320.44735  0.025676871  0.025978038            2 
 1041000     1.080293   -7.6057317    320.77664  0.025678566  0.025970395            2 
 1042000    1.0978175   -7.5881722    319.82548  0.025577853  0.025962845            3 
 1043000    1.0971569    -7.555952    321.58061  0.025693561  0.025955398            3 
 1044000    1.0928747   -7.5818166    322.21872  0.025719885  0.025947689            3 
 1045000    1.0786504    -7.486669    323.93325  0.025831998  0.025940352            2 
 1046000    1.0621902    -7.563714    322.74053  0.025712279  0.025933144            2 
 1047000    1.0755263   -7.5566715    322.42872  0.025662903  0.025925703            3 
 1048000    1.0781587   -7.5800498    322.07142  0.025610005  0.025918249            2 
 1049000     1.047566   -7.5604169    323.47553  0.025697134  0.025910846            1 
 1050000    1.0767377   -7.5382691     323.6533   0.02568677  0.025903832            2 
 1051000    1.0866045   -7.5374401    324.48113  0.025727968  0.025896925            1 
 1052000    1.1048678   -7.5950949    323.85368  0.025653809   0.02588976            2 
 1053000    1.0762699   -7.5864926    323.64716  0.025613103  0.025882339            8 
 1054000     1.074801   -7.6078267    324.08242  0.025623215  0.025874916            2 
 1055000    1.0931455   -7.5692567    324.45953  0.025628715  0.025867571            3 
 1056000    1.1093853   -7.5525676    325.15459  0.025659295   0.02586011            3 
 1057000    1.0894119   -7.5430799    325.61978  0.025671695  0.025852785            5 
 1058000    1.0599906   -7.5801763    325.67907    0.0256521  0.025845364            3 
 1059000    1.0947018   -7.5738349    324.97016  0.025572093  0.025838002            3 
 1060000    1.0614814    -7.546068    326.60291  0.025676329  0.025830632            1 
 1061000    1.0927978    -7.523032    326.76748  0.025665055  0.025823419            1 
 1062000    1.0715495   -7.5673392    324.70915  0.025479375  0.025815971            1 
 1063000    1.0677137   -7.5414229     326.0283  0.025558819  0.025808451            4 
 1064000    1.0990343   -7.5417254    325.76319  0.025514034  0.025800675            1 
 1065000    1.0674018   -7.5643159    325.84866  0.025496766   0.02579293            3 
 1066000    1.0821054   -7.5689394    325.20988  0.025422911   0.02578505            1 
 1067000    1.0905531   -7.5900909    325.61134  0.025430439  0.025777223            2 
 1068000    1.0831137   -7.5019822    327.80587  0.025577861  0.025769616            1 
 1069000    1.0627036   -7.6050122    327.09767  0.025498727  0.025761934            2 
 1070000    1.0803171   -7.5795442    326.87083  0.025457229  0.025754016            2 
 1071000    1.0706088   -7.5364959    326.83076  0.025430342  0.025746039            1 
 1072000     1.112572   -7.5634311    327.90366  0.025490023  0.025738247            2 
 1073000    1.0792536   -7.5585295    327.14589  0.025407416  0.025730437            2 
 1074000    1.0838853   -7.5282422     328.7949  0.025511709  0.025722682            4 
 1075000    1.0818614   -7.5517984    327.50866  0.025388269  0.025715047            1 
 1076000     1.069197   -7.5451282    327.64397  0.025375153  0.025707281            1 
 1077000    1.0715664    -7.565688    327.49763  0.025340268  0.025699239            1 
 1078000    1.0745463   -7.5738663    328.09924  0.025363268  0.025691269            1 
 1079000    1.0938482   -7.5642252    328.33503  0.025357973   0.02568328            2 
 1080000    1.0892245   -7.6069668    327.25608  0.025251241   0.02567504            5 
 1081000    1.0528345   -7.5737208    328.08536   0.02529181  0.025666819            2 
 1082000    1.0966634   -7.5922886      329.191  0.025353589  0.025658701            2 
 1083000     1.089968   -7.5788037    329.24086  0.025334015   0.02565072            3 
 1084000    1.0853954   -7.5529192    327.98743  0.025214286  0.025642603            4 
 1085000    1.0943384    -7.532434    330.25666  0.025365335  0.025634527            2 
 1086000     1.078801   -7.5525706    328.89887  0.025237789  0.025626484            2 
 1087000    1.0800705   -7.5607245    329.38241  0.025251641  0.025618442            2 
 1088000     1.082864   -7.5389557    330.24266  0.025294321  0.025610213            3 
 1089000    1.0755235   -7.5370589    330.06628  0.025257598  0.025602153            2 
 1090000     1.080711   -7.6095043     329.0949   0.02516016  0.025593857            1 
 1091000    1.0783839     -7.51738    330.98239   0.02528127  0.025585538            2 
 1092000    1.0789608   -7.5593912    330.97664   0.02525768  0.025577368            3 
 1093000    1.0913272   -7.5510906    330.52897   0.02520044  0.025569182            3 
 1094000     1.081917   -7.5437316    331.34069  0.025239236  0.025561112            6 
 1095000    1.0819073   -7.5371951    331.13686  0.025200674  0.025553056            4 
 1096000    1.0998741   -7.5540226    331.40503  0.025198071  0.025545045            4 
 1097000    1.0737394   -7.5900148    331.60082  0.025189974  0.025537024            3 
 1098000    1.0814747   -7.5888538    331.92312  0.025191494  0.025528949            2 
 1099000    1.1033773   -7.5554475    333.21773  0.025266737  0.025520863            2 
 1100000    1.0767416   -7.5857095    331.84267  0.025139596  0.025513051            2 
 1101000     1.091567   -7.6176902    332.32262  0.025153089  0.025504841            1 
 1102000    1.0705533   -7.5730617    333.87947  0.025247994  0.025496859            4 
 1103000    1.0961406   -7.6148033    332.23477  0.025100844  0.025488864            9 
 1104000    1.0649328   -7.5900345    332.33772  0.025085878  0.025480757            4 
 1105000    1.0897182   -7.5769707    333.68341  0.025164661  0.025472622            4 
 1106000    1.0779663   -7.6103189    333.04839  0.025094062  0.025464587            2 
 1107000    1.0864033   -7.5995499    334.05424  0.025147112  0.025456332            1 
 1108000    1.0534415   -7.5463112    334.04942  0.025124054  0.025448271            2 
 1109000     1.057257    -7.582794    334.17442  0.025110792  0.025440282            2 
 1110000    1.0757576   -7.6088947    334.21925  0.025091535  0.025432235            1 
 1111000    1.0722391   -7.5885489    335.24138  0.025145618  0.025424214            2 
 1112000    1.0901138   -7.6051054    335.14734  0.025115958  0.025416276            3 
 1113000    1.0662462   -7.5584897    335.36028  0.025109335  0.025408624            2 
 1114000    1.0659901   -7.6132715    335.27333  0.025080291  0.025400627            4 
 1115000    1.0764258   -7.5798099    335.29664  0.025059539  0.025392606            2 
 1116000    1.0397379   -7.5800473    337.21846   0.02518059  0.025384835            3 
 1117000    1.0754855   -7.5502032    337.00476  0.025142104   0.02537718            3 
 1118000    1.0907944   -7.5626139    336.21918   0.02506106  0.025369469            1 
 1119000    1.0634908   -7.6129499    336.84226  0.025085065   0.02536182            2 
 1120000     1.068139   -7.5854878    338.05352  0.025152792  0.025354095            1 
 1121000    1.0780078   -7.5966845    337.27603  0.025072556  0.025346526            2 
 1122000    1.0497491    -7.615304    337.83078  0.025091412   0.02533888            2 
 1123000    1.0961828    -7.640676    337.61381  0.025052969  0.025331327            2 
 1124000    1.0499832   -7.5562697    338.96419  0.025130797  0.025323786            6 
 1125000    1.0655674   -7.5545728    338.60201   0.02508163  0.025316317            1 
 1126000    1.0751556   -7.5149084    339.41646  0.025119631  0.025308864            2 
 1127000    1.0800668   -7.6197927    339.08113  0.025072547  0.025301397            2 
 1128000    1.0565413   -7.5891604    339.66286  0.025093296  0.025293834            2 
 1129000    1.0644704   -7.5538675    340.48962  0.025132095   0.02528624            1 
 1130000    1.0689723   -7.5654384     339.1508  0.025011121  0.025278691            1 
 1131000     1.087262   -7.6104911    338.88786  0.024969633  0.025271025            1 
 1132000     1.058193   -7.5875168    339.42781  0.024987324  0.025263519            1 
 1133000    1.0826293   -7.6017293    340.17998  0.025020593  0.025256015            1 
 1134000    1.0829539   -7.6280671    339.87133  0.024975847   0.02524845            2 
 1135000    1.0716436    -7.618893    340.28441  0.024984171  0.025240639            2 
 1136000    1.0728262   -7.6006747     340.7921   0.02499942  0.025232892            3 
 1137000    1.0667288   -7.5971186    341.15536  0.025004058  0.025225281            8 
 1138000    1.0782549   -7.5878858     341.6053  0.025015034  0.025217838           11 
 1139000     1.074687   -7.6370361    341.67866  0.024998439  0.025210288            4 
 1140000    1.0744774   -7.5914891    341.42696  0.024958111  0.025202569            4 
 1141000     1.093753   -7.5775612    341.46692  0.024939155  0.025194728            2 
 1142000    1.0606276    -7.640373    342.38622    0.0249844   0.02518713            1 
 1143000    1.0635271   -7.6263817    341.99754  0.024934204  0.025179697            3 
 1144000    1.0561701   -7.6158227    342.67082  0.024961452  0.025172293            2 
 1145000    1.0547053   -7.6175167    341.92664  0.024885491  0.025164835            2 
 1146000    1.0506255   -7.6194877    343.26352  0.024960989  0.025157432            3 
 1147000    1.0749676   -7.5978464    342.51273   0.02488468  0.025149952            4 
 1148000    1.0645513   -7.5485945    344.47718  0.025005603  0.025142668            2 
 1149000    1.0874402   -7.5870618    344.89984  0.025014494  0.025135311            4 
 1150000    1.0587192   -7.5772765    343.69979  0.024905782  0.025128054            3 
 1151000    1.0598125   -7.5965447    344.81344  0.024964773  0.025120644            4 
 1152000    1.0714465   -7.5885358    344.15491  0.024895465  0.025113257            3 
 1153000    1.0947435   -7.6006952    344.35083  0.024888034  0.025105747            1 
 1154000     1.086172   -7.6121334    343.06437  0.024773568  0.025098207            2 
 1155000    1.0459947   -7.5780182    345.39089  0.024919977  0.025090683            4 
 1156000    1.0780644   -7.6197656    345.34807  0.024895333    0.0250831            2 
 1157000     1.082247   -7.5725702    344.90089  0.024841608  0.025075694            6 
 1158000    1.0713762   -7.6010491    344.70052  0.024805737  0.025068131            1 
 1159000     1.050283   -7.6368931    344.39637  0.024762465  0.025060261            1 
 1160000    1.0365781   -7.6191045    345.29925  0.024805981  0.025052533            3 
 1161000    1.0661545   -7.6144493    345.69587  0.024813083  0.025044889            1 
 1162000    1.0856817   -7.6035197    346.18973  0.024827146  0.025037393            2 
 1163000    1.0534226   -7.6106155    346.39433  0.024820459  0.025029852            2 
 1164000    1.0738691   -7.6146741    345.75388  0.024753285   0.02502227            2 
 1165000    1.0650578   -7.6261951    346.65426  0.024796442  0.025014694            2 
 1166000    1.0517048   -7.6010835    346.23863  0.024745471  0.025007094            3 
 1167000    1.0657459   -7.5936868    346.18154   0.02472019  0.024999433            3 
 1168000    1.0579151   -7.6042991    347.83913   0.02481729   0.02499181            2 
 1169000    1.0789288   -7.5563871    347.84799  0.024796691  0.024984548            2 
 1170000    1.0760034   -7.6161333    348.27551  0.024805948  0.024977342            3 
 1171000    1.0551111     -7.61162    348.00892  0.024765792  0.024970013            3 
 1172000    1.0797473   -7.5817906    349.14113  0.024825166  0.024962697            1 
 1173000     1.050255   -7.5807171     349.3896  0.024821654  0.024955321            2 
 1174000    1.0791837   -7.6024949    349.29771  0.024793989  0.024947865            3 
 1175000    1.0829739   -7.5906268     349.8884   0.02481478  0.024940719            4 
 1176000    1.0410749   -7.6374357    349.89376  0.024794059  0.024933639            5 
 1177000    1.0704538   -7.6515585    349.16896  0.024721676  0.024926564            2 
 1178000    1.0629974   -7.5971118    350.56299  0.024799306  0.024919566            1 
 1179000    1.0709751   -7.6046232    352.02283  0.024881456  0.024912575            2 
 1180000    1.0439907   -7.6706984    350.40891  0.024746392  0.024905608            2 
 1181000    1.0544436   -7.5757576    352.35662  0.024862872  0.024898828            3 
 1182000     1.068029   -7.5810134    352.24797  0.024834177  0.024892103            1 
 1183000    1.0567604    -7.637875    351.65751  0.024771591   0.02488545            2 
 1184000    1.0478703   -7.6374161    351.42547  0.024734337  0.024878718            2 
 1185000     1.046002   -7.6474554    351.22037  0.024699042  0.024871832            1 
 1186000     1.058955    -7.650048    351.66078  0.024709161  0.024864923            2 
 1187000    1.0494827   -7.5847847    351.96753   0.02470988  0.024857876            2 
 1188000    1.0339732   -7.6072599    352.39277  0.024718909   0.02485083            2 
 1189000    1.0577041   -7.5832448    353.63042  0.024784863  0.024843795            2 
 1190000    1.0498612   -7.6277342     352.4716  0.024682885  0.024836793            2 
 1191000     1.067917   -7.6104532    353.50913  0.024734756  0.024829907            3 
 1192000    1.0544724   -7.5953431    353.63409  0.024722741  0.024823158            2 
 1193000    1.0570106   -7.5761169    354.45481  0.024759347  0.024816336            3 
 1194000    1.0411127   -7.6281428    354.10883  0.024714463  0.024809581            1 
 1195000    1.0681524    -7.611881     354.6327  0.024730314  0.024802741            2 
 1196000    1.0519231   -7.6161326    354.65012   0.02471085  0.024795806            3 
 1197000    1.0748422    -7.618033    355.14912  0.024724946  0.024788925            2 
 1198000    1.0504134   -7.5956925    355.53776  0.024731341  0.024782068            3 
 1199000    1.0830459   -7.6632476     354.5424  0.024641535  0.024775096            3 
 1200000    1.0660558   -7.5974829    355.70787  0.024701936  0.024768082            2 
 1201000    1.0584529   -7.6436811    355.88196  0.024693447  0.024761078            3 
 1202000    1.0414668   -7.5927913    355.73515  0.024662725  0.024754127            2 
 1203000     1.063647   -7.6012791    355.80223  0.024646871  0.024747208            5 
 1204000    1.0881086   -7.6539382    356.37814  0.024666261  0.024740313            3 
 1205000    1.0609614     -7.64004    355.44096  0.024580979  0.024733303            1 
 1206000    1.0569676   -7.6378415     356.3849  0.024625822  0.024726188            1 
 1207000    1.0530825   -7.6508643    355.70232  0.024558294  0.024719045            2 
 1208000    1.0767467   -7.6304814    356.42217  0.024587622  0.024711993            2 
 1209000    1.0502628   -7.6438316     356.5239  0.024574297  0.024704854            3 
 1210000    1.0373253   -7.6254839    355.23497  0.024465218  0.024697811            2 
 1211000    1.0701307   -7.6050779    356.56851  0.024536782  0.024690646            2 
 1212000    1.0525131   -7.6124364    356.75011  0.024529023  0.024683518            2 
 1213000    1.0659325   -7.6390597    357.36485  0.024551034  0.024676447            1 
 1214000    1.0581975   -7.6179121    356.57644  0.024476691  0.024669264            2 
 1215000    1.0569193   -7.6266602    359.40751  0.024650721   0.02466209            4 
 1216000    1.0532548   -7.6251981    357.89427  0.024526746  0.024655096            4 
 1217000    1.0386556   -7.6383957     358.5391  0.024550746  0.024648025            3 
 1218000    1.0560903   -7.6389683     357.3986  0.024452559  0.024640936            2 
 1219000    1.0655651   -7.6424393    358.24054  0.024490056  0.024633706            3 
 1220000    1.0681823    -7.624527    358.81392  0.024509147  0.024626706            1 
 1221000    1.0616031   -7.6177504    358.66727  0.024479066   0.02461966            2 
 1222000    1.0457679   -7.5857019    360.48809  0.024583203  0.024612775            3 
 1223000    1.0445768   -7.6325763    359.31012  0.024482838  0.024605878            4 
 1224000     1.069632   -7.6652884     357.9541  0.024370513  0.024598796            2 
 1225000    1.0417622   -7.6618607    359.49296  0.024455303   0.02459179            4 
 1226000    1.0623972   -7.6294145    359.51167  0.024436628  0.024584753            3 
 1227000     1.045449   -7.6340363    360.42876  0.024478998  0.024577571            1 
 1228000    1.0552716   -7.6331492    360.60306  0.024470892  0.024570492            1 
 1229000    1.0531347   -7.6593436    360.03017  0.024412135  0.024563353            1 
 1230000    1.0450694   -7.6156783    361.50433  0.024492163  0.024556162            2 
 1231000    1.0497905   -7.6315141    361.69392  0.024485102  0.024549086            3 
 1232000    1.0751756   -7.6529886    362.05189   0.02448944  0.024542115            3 
 1233000    1.0274255   -7.6552276    361.46485  0.024429903  0.024535154            2 
 1234000    1.0520282   -7.6450819    361.75154  0.024429466  0.024528143            4 
 1235000    1.0381714   -7.5990213    362.05448  0.024430127  0.024521146            4 
 1236000     1.076229   -7.6514838    361.95512  0.024403662   0.02451416            6 
 1237000    1.0624016   -7.6517911    361.30177   0.02433992  0.024506977            2 
 1238000    1.0412997   -7.6069307    362.15923  0.024377977  0.024499916            2 
 1239000    1.0539701   -7.6459375    362.07568  0.024352682  0.024492887            3 
 1240000    1.0589575   -7.6680086    362.19432  0.024341016  0.024485733            3 
 1241000    1.0557073   -7.6352026    361.78745  0.024294081  0.024478514            2 
 1242000     1.042735   -7.6265435    362.43752  0.024318138  0.024471394            3 
 1243000    1.0508719   -7.6737116    363.53227  0.024371968  0.024464308            2 
 1244000    1.0552459   -7.6434627    363.30527  0.024337169  0.024457316            2 
 1245000    1.0492327   -7.6589437    363.53722  0.024333148  0.024450348            2 
 1246000    1.0410859   -7.6139606    364.59584  0.024384419  0.024443355            1 
 1247000    1.0492328   -7.6357587    364.24013  0.024341094  0.024436554            2 
 1248000    1.0502572   -7.6419981    364.31476  0.024326573  0.024429641            2 
 1249000      1.04486   -7.6108047    365.01781  0.024354004  0.024422586            3 
 1250000    1.0609426   -7.6351884     364.8807   0.02432538  0.024415621            3 
 1251000    1.0544229   -7.6377758    364.34776  0.024270434  0.024408574            3 
 1252000     1.071045   -7.6575665    365.77313  0.024345922  0.024401683            2 
 1253000    1.0458058   -7.6584409    365.50634  0.024308748   0.02439478            2 
 1254000     1.049489   -7.6609449    365.55902  0.024292864  0.024387698            2 
 1255000      1.04661   -7.6179043    366.68348  0.024348173  0.024380748            2 
 1256000     1.043299   -7.6204094    367.03135  0.024351868  0.024373832            1 
 1257000    1.0369096   -7.6599627    365.18983   0.02421041  0.024366888            3 
 1258000     1.058659   -7.6671345    366.86427  0.024302085  0.024359871            2 
 1259000    1.0505856   -7.6493685    366.79396  0.024278128  0.024353027            2 
 1260000    1.0659162   -7.6280362    367.27081  0.024290398   0.02434606            1 
 1261000    1.0470694    -7.649849     367.0109  0.024253958  0.024339085            1 
 1262000    1.0582819   -7.6472412    367.83538  0.024289183  0.024332232            4 
 1263000     1.051659   -7.6499781    367.71214   0.02426182  0.024325289            4 
 1264000    1.0442302   -7.7105472    366.86178  0.024186562  0.024318318            2 
 1265000     1.035753   -7.6919726     367.0171  0.024177675  0.024311217            2 
 1266000    1.0371686   -7.6468508    368.07882  0.024228464  0.024304166            2 
 1267000    1.0317032   -7.6546125    368.01768   0.02420532  0.024297254            2 
 1268000    1.0536216   -7.6612637    367.62189  0.024160219  0.024290276            7 
 1269000    1.0473676   -7.6493145    369.42603  0.024259655  0.024283306            2 
 1270000    1.0454708   -7.6637622    367.81044  0.024134544  0.024276405            2 
 1271000    1.0533438   -7.6560712    369.42698  0.024221544  0.024269594            6 
 1272000    1.0473056   -7.5994454    370.79555  0.024292162  0.024262777            5 
 1273000    1.0505513   -7.6855518    368.36587  0.024114027   0.02425599            4 
 1274000    1.0459832    -7.654946    369.84707  0.024191985  0.024249082            2 
 1275000    1.0415717   -7.6440562    369.66398  0.024161045  0.024242153            3 
 1276000    1.0470281   -7.6390863    370.13004  0.024172547  0.024235272            2 
 1277000    1.0550151   -7.6767374    368.95832  0.024077155   0.02422824            4 
 1278000    1.0556912   -7.7049647     370.2287  0.024141151  0.024221278            2 
 1279000    1.0342266   -7.6288619    371.82097  0.024226021  0.024214367            2 
 1280000    1.0229887     -7.65559    370.82113  0.024142001  0.024207568            6 
 1281000    1.0475954   -7.6175146    372.09556   0.02420606  0.024200853            3 
 1282000     1.081096   -7.6255418    371.21303  0.024129812  0.024194107            1 
 1283000    1.0386334   -7.6895773    369.70688  0.024013178  0.024187188            3 
 1284000     1.035482   -7.6773656    370.27459  0.024031321  0.024180242            4 
 1285000    1.0248003   -7.6830981    370.89355  0.024052759  0.024173339            3 
 1286000    1.0501278   -7.6652706     371.7081  0.024086839  0.024166263            3 
 1287000    1.0488725   -7.6460905    372.14556  0.024096449  0.024159242            4 
 1288000    1.0363918   -7.6457936    372.02443  0.024069903  0.024152431            5 
 1289000    1.0530919   -7.6651419    371.96372  0.024047306  0.024145573            5 
 1290000    1.0573177   -7.6749135    373.08834  0.024101314  0.024138745            2 
 1291000    1.0294391   -7.6343323    371.83328  0.024001632  0.024131843            2 
 1292000    1.0273734   -7.6583198    372.16029  0.024004146  0.024124962            2 
 1293000     1.040836   -7.6361565     373.2403  0.024055188  0.024118048            2 
 1294000    1.0573244   -7.6548242    371.81709  0.023944944  0.024111012            2 
 1295000    1.0416225   -7.6523257    373.30957  0.024022495  0.024103981            3 
 1296000    1.0424129   -7.6634865    372.73946  0.023967301  0.024096981            8 
 1297000    1.0179497   -7.6313354    373.16382  0.023976087  0.024089879            4 
 1298000    1.0253121   -7.6300369    374.42857  0.024038814  0.024082919            5 
 1299000    1.0600566   -7.6343949    373.19358  0.023941082  0.024075922            1 
 1300000    1.0346715   -7.6727256    373.29441  0.023929129  0.024068848            2 
 1301000    1.0652132   -7.6204446     374.2373  0.023971131  0.024061793            4 
 1302000    1.0281123   -7.6370365    374.41162  0.023963877  0.024054793            1 
 1303000    1.0442123   -7.6859737    374.03475  0.023921384  0.024047746            5 
 1304000    1.0345567   -7.6631598    375.30233  0.023984045  0.024040703            1 
 1305000    1.0495395   -7.6456276    376.11941  0.024017843  0.024033836            2 
 1306000    1.0478342   -7.6911794    375.77749  0.023977634  0.024027079            1 
 1307000    1.0543872   -7.6807924    374.93464   0.02390555  0.024020194            1 
 1308000     1.038485   -7.7019011    375.25028  0.023907383  0.024013298            3 
 1309000    1.0285781   -7.7061112    375.78132  0.023922926  0.024006359            3 
 1310000    1.0535197   -7.6609986    375.81365  0.023906721  0.023999534            2 
 1311000    1.0392829   -7.6796811    375.57559  0.023873353  0.023992613            4 
 1312000    1.0296108   -7.6971411     377.1315  0.023953982  0.023985832            6 
 1313000    1.0207375   -7.6528741    377.73119    0.0239738  0.023979058            4 
 1314000    1.0439007   -7.6552389    377.61475   0.02394817  0.023972493            1 
 1315000    1.0628849   -7.6768796    377.88117  0.023946842  0.023965963            2 
 1316000    1.0439202   -7.6770809     377.4673  0.023902438   0.02395928            1 
 1317000    1.0467803   -7.6199662    379.34319  0.024002986  0.023952731            3 
 1318000    1.0344176   -7.6833344    379.15309  0.023972755  0.023946128            3 
 1319000    1.0451977   -7.6818499    379.43928  0.023972661  0.023939562            3 
 1320000    1.0315057   -7.6818321    378.43746  0.023891254  0.023932983            2 
 1321000    1.0598212   -7.6444796    378.37798  0.023869416  0.023926464            5 
 1322000    1.0319552   -7.6643076    380.40291  0.023979004  0.023919991            2 
 1323000    1.0212233   -7.6800566    380.84521  0.023988738  0.023913468            2 
 1324000    1.0476222   -7.6715802    379.72591  0.023900171  0.023907092            1 
 1325000    1.0181648   -7.6822547    379.19748  0.023848898  0.023900593            1 
 1326000     1.030023   -7.6822653    381.53107  0.023977568  0.023894101            2 
 1327000    1.0334554   -7.6871298    380.37678  0.023887012  0.023887691            3 
 1328000    1.0399349   -7.6782763     381.6968  0.023951857  0.023881245            2 
 1329000    1.0449916   -7.6573418     381.9463   0.02394948  0.023875037            2 
 1330000    1.0413473   -7.6746979    381.83057  0.023924221  0.023868856            2 
 1331000    1.0365878   -7.6207515    383.44348   0.02400723  0.023862657            3 
 1332000    1.0392464   -7.6326058    383.10564   0.02396807  0.023856532            1 
 1333000    1.0176556   -7.6997408    382.27789  0.023898343  0.023850382            3 
 1334000    1.0342066   -7.6904268    382.39468  0.023887723  0.023844108            2 
 1335000    1.0460589    -7.648372    383.52467  0.023940367  0.023837939            6 
 1336000    1.0513957   -7.6714137    383.10795  0.023896454  0.023831727            6 
 1337000    1.0546878    -7.648442    384.19692  0.023946455  0.023825705            5 
 1338000    1.0350934   -7.7137429    383.08691  0.023859424  0.023819616            4 
 1339000    1.0517799    -7.671307    383.92168  0.023893557  0.023813638            2 
 1340000    1.0467292   -7.6536882    385.61165  0.023980824  0.023807567            6 
 1341000    1.0404836   -7.6676441    384.58549  0.023899173  0.023801407            3 
 1342000    1.0335065   -7.6563904     383.5331  0.023816015  0.023795266            3 
 1343000    1.0423506    -7.689584    385.05828  0.023892919  0.023789211            3 
 1344000       1.0478   -7.6841348    385.05744  0.023875089  0.023783077            3 
 1345000      1.04577      -7.7083    384.34756  0.023813356  0.023776967            2 
 1346000    1.0365594   -7.6593141    385.62918  0.023875011  0.023770864            2 
 1347000    1.0250802   -7.6622757    385.91593  0.023875026  0.023764652            2 
 1348000    1.0292491   -7.7140785    385.43851  0.023827801   0.02375836            2 
 1349000    1.0402576   -7.6839523     385.2137   0.02379625  0.023752147            4 
 1350000    1.0491444   -7.6929058    385.43167  0.023792079  0.023745845            4 
 1351000    1.0388189   -7.6488792    386.96645  0.023869137  0.023739603            2 
 1352000    1.0500091   -7.7059372    386.81009  0.023841845  0.023733412            2 
 1353000    1.0358223   -7.6405408     387.5975  0.023872721   0.02372719            1 
 1354000    1.0256088    -7.681531    385.94628  0.023753464  0.023720844            2 
 1355000    1.0293236   -7.6903854    386.60427    0.0237764  0.023714451            4 
 1356000    1.0241816   -7.6913511    386.65815  0.023762178   0.02370819            3 
 1357000     1.025785   -7.6733094     387.2056  0.023778286  0.023701967            4 
 1358000    1.0161941   -7.6521117    387.25013  0.023763508  0.023695789            2 
 1359000    1.0660442   -7.6214268    388.51839  0.023823791  0.023689806            3 
 1360000    1.0288926   -7.6813161     388.3106  0.023793542  0.023683742            4 
 1361000    1.0433074   -7.6730022    388.47629  0.023786204   0.02367756            6 
 1362000    1.0069846   -7.7255894    388.73154  0.023784357  0.023671343            2 
 1363000     1.037576   -7.6645305    389.27119  0.023799902  0.023665135            2 
 1364000    1.0418004   -7.6652119    388.13553   0.02371307  0.023659032            1 
 1365000    1.0403433   -7.6628965    388.20138  0.023699718  0.023652762            3 
 1366000    1.0485296   -7.6896957    388.61469  0.023707582  0.023646365            1 
 1367000     1.047044   -7.6833035    388.56007   0.02368691  0.023640047            3 
 1368000    1.0372203   -7.7076948    389.26269  0.023712396  0.023633762            1 
 1369000    1.0339221   -7.6478024    390.53953  0.023772798  0.023627634            5 
 1370000    1.0283566   -7.6282533    391.48515  0.023812965  0.023621601            3 
 1371000    1.0423877   -7.7065556    389.83085  0.023695043  0.023615404            1 
 1372000     1.048492   -7.6739679    390.38276  0.023711295  0.023609282            3 
 1373000    1.0390917   -7.6812002    390.78909  0.023718687  0.023603046            3 
 1374000     1.022588   -7.7000015    390.33123  0.023673655   0.02359679            2 
 1375000    1.0240249   -7.7032576    389.49208   0.02360558   0.02359052            3 
 1376000    1.0235649   -7.7345087    390.58389  0.023654548  0.023584307            3 
 1377000    1.0267567   -7.6866398    390.77195   0.02364875  0.023578143            4 
 1378000    1.0425412   -7.7217045    391.24374   0.02366012  0.023572019            4 
 1379000    1.0330315   -7.7012354    391.38023  0.023651211  0.023565938            2 
 1380000    1.0099383   -7.6700896    392.22735  0.023685227   0.02355978            2 
 1381000    1.0359419   -7.7014493    391.22086  0.023607341   0.02355365            2 
 1382000    1.0383199   -7.6904208    392.14013   0.02364569  0.023547428            3 
 1383000    1.0340528   -7.6876507    392.03553   0.02362229  0.023541311            5 
 1384000    1.0382783   -7.7219609    391.69376  0.023584644  0.023535229            2 
 1385000    1.0423446   -7.7147843    392.21097  0.023598735  0.023528971            5 
 1386000    1.0208255   -7.7287974    392.56172  0.023602797  0.023522621            1 
 1387000    1.0259765    -7.739666    391.84024  0.023542432  0.023516279            2 
 1388000    1.0208895   -7.6718696    393.40184  0.023619227  0.023510058            1 
 1389000    1.0183702   -7.7207869    393.14416  0.023586763  0.023503746            3 
 1390000    1.0558821    -7.710421    391.71339  0.023484016  0.023497428            3 
 1391000    1.0348704   -7.7265805    391.69639  0.023466115  0.023491033            2 
 1392000    1.0223756   -7.7245427    394.12262  0.023594505   0.02348466            3 
 1393000    1.0057535     -7.69867    393.43787  0.023536604  0.023478405            2 
 1394000    1.0324606   -7.6672357    394.35477  0.023574532  0.023472189            3 
 1395000    1.0242452   -7.7267986    393.20292  0.023488824  0.023465972            2 
 1396000    1.0191754   -7.7173617    394.07581  0.023524105  0.023459492            2 
 1397000    1.0425144    -7.720933    393.07975  0.023447849  0.023453144            2 
 1398000    1.0280559   -7.7438811    392.72626  0.023410006  0.023446712            1 
 1399000    1.0282249    -7.740667    394.11708  0.023476118  0.023440235            1 
 1400000    1.0166228   -7.7171896    395.01237  0.023512641  0.023433844            2 
 1401000    1.0322424   -7.7134143    394.19651   0.02344733  0.023427536            2 
 1402000    1.0369596   -7.7094946     394.6458  0.023457311  0.023421169            7 
 1403000    1.0158243    -7.714737    395.62655  0.023498845  0.023414871            3 
 1404000    1.0445364   -7.6848066    395.39263  0.023468223  0.023408674            2 
 1405000    1.0493994   -7.6869565     395.0877  0.023433434  0.023402446            3 
 1406000    1.0143302   -7.6631808    395.88892  0.023464256  0.023396219            2 
 1407000    1.0361431   -7.6920826    395.62796  0.023432123  0.023390099            4 
 1408000    1.0183932   -7.7189562    395.44393  0.023404589  0.023383829           11 
 1409000    1.0178886   -7.6721938    397.07715  0.023484572  0.023377572            2 
 1410000    1.0037945   -7.7254461    396.30042  0.023422011  0.023371253            2 
 1411000    1.0344423   -7.7328348    396.51381  0.023418014  0.023364871            3 
 1412000    1.0098329   -7.7244542    397.65036  0.023468506  0.023358667            4 
 1413000     1.040223   -7.7056488    397.07396  0.023417903  0.023352437            3 
 1414000    1.0039998   -7.7066258    397.94952  0.023452942  0.023346132            1 
 1415000    1.0275503   -7.7065721    398.41145  0.023463572  0.023339895            5 
 1416000    1.0304093   -7.7395946    397.16123  0.023373425  0.023333674            3 
 1417000    1.0209449   -7.6684857    397.89789  0.023400253   0.02332741            2 
 1418000   0.99574176   -7.6974304    398.30385  0.023407608  0.023321159            2 
 1419000    1.0487109   -7.7018704    397.55136  0.023346921  0.023314918            3 
 1420000    1.0201111   -7.6697162    398.48633  0.023385348  0.023308773            3 
 1421000    1.0359397   -7.6765277    399.48308  0.023427345  0.023302487            2 
 1422000     1.029247   -7.6806546    399.03984  0.023384894  0.023296244            2 
 1423000    1.0221223   -7.6918848    398.50949  0.023337403  0.023290039            2 
 1424000    1.0255665   -7.6926125    399.12953  0.023357299  0.023283775            6 
 1425000    1.0277478   -7.7259471    399.64614  0.023371119   0.02327735            3 
 1426000    1.0370401   -7.7133744    398.99804  0.023316856  0.023271039            2 
 1427000    1.0218487   -7.7029907     400.3158   0.02337747  0.023264762            3 
 1428000    1.0019075   -7.7227975     399.3053   0.02330213  0.023258357            1 
 1429000     1.037247   -7.7105479     399.3325   0.02328741  0.023252048            3 
 1430000    1.0215312   -7.7038641    400.26443  0.023325433  0.023245742            3 
 1431000    1.0170885   -7.7375588     398.5973  0.023212049  0.023239354            2 
 1432000    1.0499904    -7.757192    399.15314  0.023228186   0.02323293            2 
 1433000    1.0150673   -7.8044012    399.12399  0.023210281  0.023226458            4 
 1434000    1.0226538   -7.7083508     399.8586  0.023236785  0.023220021            2 
 1435000    1.0181325   -7.7158076    399.75233  0.023214421  0.023213777            5 
 1436000    1.0297243    -7.710714     401.6026  0.023305629   0.02320743            4 
 1437000    1.0111931   -7.6979608    401.16689  0.023264143  0.023201035            4 
 1438000    1.0167951   -7.7151556    400.02699  0.023181907  0.023194656            3 
 1439000     1.019096   -7.6811922     401.2141  0.023234544  0.023188425            3 
 1440000    1.0217985   -7.7244471    401.01258  0.023206747  0.023182075            2 
 1441000    1.0303212   -7.7098985     402.1681  0.023257466  0.023175637            4 
 1442000   0.99996432    -7.732034    400.88984  0.023167466  0.023169293            3 
 1443000    1.0007158   -7.7016983    401.96052  0.023213243   0.02316297            3 
 1444000     1.029679   -7.6920056     401.9442  0.023196226  0.023156662            2 
 1445000    1.0560977    -7.710411    401.65439   0.02316346  0.023150309            1 
 1446000    1.0425505   -7.7306892    402.98698  0.023224238  0.023143982            3 
 1447000    1.0186356   -7.7408859    402.66886  0.023189867  0.023137644            2 
 1448000    1.0274047   -7.7162447    402.82847  0.023183038  0.023131176            2 
 1449000    1.0149786   -7.7376604    402.95354  0.023174232  0.023124813            1 
 1450000    1.0304342     -7.73386    403.23392  0.023174363  0.023118442            2 
 1451000    1.0237682   -7.6940761    403.72745  0.023186736   0.02311209            2 
 1452000    1.0127348   -7.7031508    403.25164   0.02314346  0.023105675            1 
 1453000    0.9973779   -7.7141159    402.92303  0.023108685  0.023099312            1 
 1454000    1.0091219   -7.7130679    404.63904  0.023191141  0.023092881            3 
 1455000   0.99763042   -7.7327408    403.56052  0.023113432   0.02308656            3 
 1456000    1.0029143   -7.7396968     402.8749  0.023058316  0.023080144            3 
 1457000    1.0249089   -7.7069893    403.73157  0.023091488   0.02307378            4 
 1458000    1.0207801   -7.7484719    403.22565  0.023046733  0.023067481            5 
 1459000      1.01226   -7.7202588    404.50143  0.023103806  0.023061235            3 
 1460000    1.0056735   -7.7135303    404.67226  0.023097732  0.023054977            3 
 1461000     1.017693   -7.7184133    406.32833  0.023176382  0.023048772            2 
 1462000   0.99088708   -7.7398613    405.16168  0.023094031  0.023042564            4 
 1463000    1.0142043   -7.7417486    405.62551  0.023104665  0.023036366            2 
 1464000    1.0119623   -7.7768058    406.23213  0.023123414  0.023030221            5 
 1465000    1.0306892   -7.6936722    407.46333  0.023177664  0.023024099            2 
 1466000     1.015664   -7.7369345    406.72797  0.023120053  0.023017901            1 
 1467000    1.0170922   -7.7510042    404.97702  0.023004829  0.023011615            3 
 1468000    1.0131803   -7.6932599    406.22692  0.023060111  0.023005299            2 
 1469000    1.0344386   -7.6962089    407.08305   0.02309298  0.022998984            3 
 1470000    1.0169001   -7.7339704    405.07039  0.022963174   0.02299255            2 
 1471000   0.99230976   -7.7185546    405.02345  0.022944904  0.022986063            3 
 1472000    1.0015763   -7.7021896       406.36  0.023004982  0.022979622            6 
 1473000    1.0223812    -7.746105    405.75009  0.022954859  0.022973112            3 
 1474000    1.0310837   -7.7400744    405.17234  0.022906623  0.022966491            3 
 1475000    1.0216599   -7.7703091    404.91916  0.022876789  0.022959839            4 
 1476000    1.0341945   -7.7344031    405.96985  0.022920611  0.022953204            3 
 1477000    1.0015066   -7.7383383    406.70307  0.022946461  0.022946507            3 
 1478000    1.0245372   -7.7270799    405.89573  0.022885416  0.022939872            6 
 1479000   0.99801535   -7.7556048     406.6414  0.022911957  0.022933143            2 
 1480000    1.0014774   -7.7215137    406.98176  0.022915639  0.022926552            4 
 1481000     1.006066   -7.7600903    406.99477  0.022900899  0.022919944            4 
 1482000     1.040088   -7.7417649    407.79702  0.022930556  0.022913366            1 
 1483000    1.0032589   -7.7346956    407.51906  0.022899475  0.022906819            4 
 1484000   0.99670505   -7.7150798    407.76334  0.022897762  0.022900202            5 
 1485000   0.98530863   -7.7741111     407.8047  0.022884664  0.022893682            4 
 1486000    1.0068376    -7.726818    409.82577  0.022982603  0.022887117            3 
 1487000    1.0126356   -7.7514026    407.33121  0.022827349  0.022880576            3 
 1488000    1.0364528    -7.731229    408.56291  0.022880987  0.022874019            5 
 1489000    1.0062057   -7.7441698    408.15364  0.022842715  0.022867506            5 
 1490000     1.016039    -7.753992    409.11962  0.022881411  0.022861069            3 
 1491000   0.99754193   -7.6983774    409.46689  0.022885473  0.022854586            1 
 1492000   0.98799373   -7.7741728    407.71563  0.022772321  0.022847976            3 
 1493000     1.008068   -7.7797265    407.36936  0.022737741  0.022841259            3 
 1494000    1.0068878   -7.7885242    408.42698  0.022781514  0.022834563            9 
 1495000    1.0252926   -7.7750737    408.55186  0.022773236  0.022827875            3 
 1496000    1.0027921   -7.7289761    408.72357  0.022767579  0.022821186            1 
 1497000    1.0289435   -7.7359313    408.96379  0.022765742  0.022814652            2 
 1498000    1.0137616   -7.7364867    409.46222  0.022778272  0.022807981            5 
 1499000    1.0042302   -7.7578991    409.28945  0.022753472  0.022801454            2 
 1500000    1.0064249   -7.6614612    411.45276  0.022858487   0.02279493            2 
 1501000    1.0236837   -7.7660501    410.39908  0.022784759  0.022788446            1 
 1502000    1.0129938    -7.740803    409.68605   0.02273003  0.022781859            2 
 1503000    1.0339493   -7.7483405    411.75841  0.022829808  0.022775339            2 
 1504000    1.0105005   -7.7244938    411.40138  0.022794846  0.022768831            7 
 1505000    1.0238821   -7.7943285    411.12334  0.022764304    0.0227622            2 
 1506000    1.0085076   -7.7303581    411.08091  0.022746841   0.02275556            2 
 1507000    1.0100836   -7.7400118     411.1783  0.022737132  0.022748907            2 
 1508000   0.99570014   -7.7776942    410.94384  0.022709098  0.022742287            2 
 1509000    1.0301304   -7.7765064    409.96559  0.022640026  0.022735594            3 
 1510000     1.019179   -7.7786502    411.13012    0.0226893  0.022728995            4 
 1511000    1.0195326   -7.7522381    411.31314  0.022684378  0.022722322            1 
 1512000    0.9989937   -7.7765342    411.09206   0.02265719  0.022715633            3 
 1513000   0.98101877   -7.7809897    411.43719  0.022661225  0.022708925            3 
 1514000    1.0113225   -7.7223012    412.60757  0.022710676  0.022702233            2 
 1515000    1.0212468   -7.7878021    411.56824  0.022638517  0.022695492            3 
 1516000    1.0148727   -7.7609394    412.96858  0.022700559   0.02268883            3 
 1517000    1.0126018   -7.7511981    412.81364  0.022677084  0.022682138            3 
 1518000   0.98466665   -7.7345569    412.24005  0.022630657  0.022675433            7 
 1519000    1.0079972   -7.7718226    412.10639  0.022608426  0.022668836            2 
 1520000    1.0295843   -7.7856444    412.37395  0.022608221  0.022662164            2 
 1521000    1.0041095   -7.7784451    411.93541   0.02256933  0.022655429            3 
 1522000    1.0035302   -7.7096598    414.49886  0.022694856  0.022648717            2 
 1523000    1.0102157   -7.7608616    412.44113  0.022567363  0.022642087            3 
 1524000   0.99992182   -7.7110833    413.66857  0.022619672   0.02263548            2 
 1525000   0.99871158    -7.727748    415.11163  0.022683696  0.022628907            2 
 1526000    1.0292707    -7.790957    413.55229  0.022583677  0.022622231            3 
 1527000    1.0152608   -7.7282115      414.511  0.022621207  0.022615552            3 
 1528000    1.0072405   -7.7422256    414.11784  0.022584961  0.022608886            2 
 1529000   0.99127184   -7.7740497     414.5457  0.022593509  0.022602191            6 
 1530000    1.0021249   -7.7720629    413.60645  0.022527585   0.02259547            5 
 1531000    1.0062853   -7.7524848    414.75341    0.0225753  0.022588736            3 
 1532000    1.0030647   -7.7234131     414.4717   0.02254524  0.022582076            9 
 1533000    1.0162633    -7.748154    413.80363  0.022494218  0.022575545            1 
 1534000    1.0121236   -7.7655568    414.69883  0.022528185  0.022568784            3 
 1535000    1.0131096   -7.7478007    414.60209  0.022508257  0.022562015            2 
 1536000   0.99750154   -7.7757105    414.20784  0.022472214  0.022555278            3 
 1537000    1.0020714   -7.7538112    413.61602  0.022425505  0.022548477            6 
 1538000    1.0149159    -7.776804    415.08195  0.022490353  0.022541688            1 
 1539000   0.98276388   -7.7802875    415.22108  0.022483273  0.022534983            1 
 1540000   0.97415322   -7.7637539     415.6226    0.0224904  0.022528269            3 
 1541000    1.0131987   -7.7533118    416.55155  0.022526041  0.022521602            2 
 1542000    1.0225746   -7.7526689    416.34802  0.022500433   0.02251491            3 
 1543000    1.0053829    -7.775103    415.75088  0.022453601  0.022508186            3 
 1544000   0.99115431   -7.7798235    417.11364   0.02251261  0.022501493            2 
 1545000    1.0094531   -7.7515548    416.21053  0.022449328  0.022494795            4 
 1546000   0.98878616   -7.7710187    416.34513  0.022442062  0.022488148            2 
 1547000   0.98457422   -7.7575784    415.46023  0.022379888  0.022481412            1 
 1548000    1.0153207   -7.7585605    416.90092  0.022442987   0.02247464            2 
 1549000     1.000781   -7.8011228    416.73773  0.022419719  0.022467783            3 
 1550000    1.0317465   -7.7846453    416.56805  0.022396132  0.022460902            4 
 1551000    1.0090461   -7.7608888    417.15436  0.022413194  0.022453997            8 
 1552000    1.0311377   -7.8002403    414.76782  0.022270609  0.022447064            3 
 1553000    1.0390297   -7.7862668    417.26498  0.022390265  0.022440199            1 
 1554000    1.0102884   -7.7674236    417.35132  0.022380487  0.022433393            1 
 1555000    1.0115417   -7.7962998      417.139  0.022354716  0.022426497            4 
 1556000    1.0457678   -7.7953078     416.8683  0.022325852  0.022419666            2 
 1557000    0.9999815    -7.784123    418.27559  0.022386833  0.022412788            1 
 1558000    1.0117615   -7.7694445    417.88454  0.022351548   0.02240604            6 
 1559000     0.989621   -7.7801261    418.46585  0.022368283   0.02239929            2 
 1560000   0.99430071   -7.7765739    418.46692  0.022354002   0.02239246            3 
 1561000   0.98460543   -7.7882463    418.84531  0.022359882  0.022385622            6 
 1562000    1.0080313   -7.7915974    417.90152  0.022295216  0.022378776            2 
 1563000   0.99154967   -7.7918782    418.60271  0.022318336  0.022372039            4 
 1564000    1.0207307   -7.7928452    418.35939  0.022291101  0.022365332            2 
 1565000   0.98425514    -7.754105    418.87828  0.022304488  0.022358592            3 
 1566000    1.0262181   -7.7377878    420.48826  0.022375919  0.022351851            2 
 1567000    1.0081068   -7.7982242    418.93432     0.022279  0.022345116            3 
 1568000   0.99917626   -7.7458068    419.53805  0.022296878  0.022338347            2 
 1569000   0.98546232   -7.7618132    419.43334  0.022277106  0.022331641            2 
 1570000     1.002867   -7.7852146    420.37375  0.022312832  0.022324936            4 
 1571000     1.019426   -7.7943301    418.80661    0.0222155  0.022318235            7 
 1572000    1.0027924   -7.7830012     419.6526  0.022246215  0.022311476            2 
 1573000    1.0010907   -7.7986116    419.34116  0.022215573  0.022304721            2 
 1574000   0.99148046    -7.808555    419.86542  0.022229215  0.022297973            2 
 1575000    1.0154145   -7.7723919    420.54748  0.022251189  0.022291202            3 
 1576000   0.99947222   -7.7964978     419.5436  0.022183989  0.022284377            2 
 1577000   0.99543425   -7.7802197     421.4367  0.022269959  0.022277601            2 
 1578000   0.99516702   -7.7900833    421.50182  0.022259285  0.022270941            3 
 1579000    0.9904637   -7.7668647    421.62506  0.022251692  0.022264269            5 
 1580000    0.9948017   -7.7865408    421.73322  0.022243313   0.02225763            2 
 1581000     1.006518   -7.7979017    421.73676  0.022229431  0.022251019            1 
 1582000   0.99980456   -7.7651486    421.78566  0.022217955  0.022244235            3 
 1583000    1.0070369   -7.7907381    421.60574  0.022194448  0.022237582            1 
 1584000   0.98343183     -7.74853    423.26875  0.022267927  0.022231001            1 
 1585000   0.98563911   -7.7476892     423.1604  0.022248181  0.022224383            2 
 1586000    1.0034798   -7.7910292     423.2713   0.02223998  0.022217876            3 
 1587000     1.003053   -7.7758666    423.17343  0.022220827  0.022211265            6 
 1588000   0.97819509   -7.7610648    422.38348   0.02216538  0.022204708            4 
 1589000     1.013775   -7.7867972    422.84881  0.022175834  0.022198092            9 
 1590000    1.0039339   -7.7979853      423.712  0.022207128  0.022191577            2 
 1591000   0.99452292    -7.785413    424.51906  0.022235442  0.022184959            5 
 1592000    0.9968049   -7.8068991    422.19334  0.022099735  0.022178398            2 
 1593000   0.99928748   -7.8003027    423.08558  0.022132537  0.022171913            3 
 1594000    1.0131568   -7.7795902    425.19449  0.022228905  0.022165537            3 
 1595000     1.004349   -7.7852456    424.40799  0.022173876  0.022159139            2 
 1596000   0.99451189   -7.7771037    424.64029  0.022172112  0.022152621           11 
 1597000    1.0150898   -7.7749831    424.76356  0.022164661  0.022146061            1 
 1598000   0.98054195   -7.8222875    424.28116  0.022125634  0.022139465            3 
 1599000    1.0093747   -7.8048928    424.82605  0.022140195  0.022132803            3 
 1600000    1.0073151   -7.8063774    425.85976  0.022180196  0.022126173            3 
 1601000   0.98642624   -7.8078015    424.61972  0.022101797  0.022119588            2 
 1602000   0.98677531   -7.8254746    423.29098  0.022018881  0.022112883            2 
 1603000    1.0038554   -7.8048875    425.45911  0.022117857  0.022106191            4 
 1604000    1.0121482    -7.834669    423.72602  0.022014028  0.022099542            1 
 1605000    1.0022466   -7.7998751    425.00783  0.022066865  0.022092868            2 
 1606000    1.0046628   -7.7742578    425.88389  0.022098583  0.022086401            3 
 1607000   0.99408382   -7.7430351     426.5656  0.022120182  0.022079868            1 
 1608000    1.0005761   -7.8067179      425.031  0.022026897   0.02207333            3 
 1609000   0.97578167   -7.8281386    425.15379  0.022019566  0.022066621            3 
 1610000   0.98583339   -7.7736178    427.24644  0.022114205  0.022060083            3 
 1611000   0.97736957   -7.8392692    424.69758  0.021968631  0.022053543            2 
 1612000    1.0073351   -7.8014526    426.38374   0.02204217  0.022046904            3 
 1613000    1.0005844   -7.7750959    426.88866  0.022054591  0.022040211            1 
 1614000   0.97230823   -7.7653952    426.39018  0.022015189  0.022033617            4 
 1615000    1.0024382   -7.7456878    428.36662  0.022103541  0.022027058            3 
 1616000    0.9958077    -7.746248    427.88274   0.02206491  0.022020478            3 
 1617000   0.98982091   -7.7605512    427.76692  0.022045296  0.022014021            4 
 1618000    1.0018807   -7.8081048    427.56789   0.02202142  0.022007539            3 
 1619000    1.0001236    -7.747874    428.42104  0.022051732  0.022001132            3 
 1620000    1.0058743   -7.7629643    428.66789  0.022050817  0.021994718            2 
 1621000   0.99666566   -7.7762757    429.23607  0.022066423  0.021988176            2 
 1622000     1.034088   -7.8296107    428.69849    0.0220252  0.021981754            2 
 1623000   0.99337222   -7.8040395    429.06632  0.022030515  0.021975341            2 
 1624000   0.99292083   -7.7951044    430.09221  0.022069592  0.021968999            4 
 1625000   0.99139641   -7.8564363    427.22904  0.021909182   0.02196243            3 
 1626000   0.99623721   -7.8552179    428.18393  0.021944646  0.021955834            7 
 1627000      1.00713   -7.7797601    429.45809   0.02199642  0.021949257           10 
 1628000    1.0037917   -7.8172748    429.01093  0.021960019  0.021942894            3 
 1629000   0.98536202   -7.8091812    429.63708   0.02197857  0.021936528            2 
 1630000     1.000277   -7.8172753    430.12335  0.021989946  0.021930057            3 
 1631000   0.99993022   -7.8115543    429.09466  0.021923904  0.021923528            3 
 1632000   0.98099668   -7.7781056    431.09659  0.022012694  0.021917025            4 
 1633000   0.98527768   -7.7648544    430.62386   0.02197509  0.021910641            2 
 1634000   0.97434947   -7.7910861    431.24559  0.021993349  0.021904215            4 
 1635000   0.97820132   -7.8063342     430.3657  0.021935051  0.021897803            2 
 1636000   0.97373211   -7.8539165    430.27364  0.021916954  0.021891353            5 
 1637000   0.99860307    -7.788117    432.29394  0.022006411  0.021884936            2 
 1638000    1.0054795   -7.8457729    429.80527  0.021866365  0.021878543            4 
 1639000   0.97708299   -7.7902545    431.53599   0.02194102  0.021872127            4 
 1640000   0.98324858   -7.7905936    430.29862  0.021864767  0.021865656            2 
 1641000   0.98492707   -7.8204226    431.56267  0.021915634  0.021859281            5 
 1642000   0.97280562   -7.8261417    431.12273   0.02187996  0.021852812            4 
 1643000   0.97355218   -7.8633253    430.83789  0.021852196   0.02184638            3 
 1644000   0.98227462   -7.7758346    432.34148   0.02191512  0.021839986            5 
 1645000   0.99997234   -7.8341669    431.41065  0.021854643  0.021833597            4 
 1646000   0.95736851   -7.7925374    431.84453  0.021863332   0.02182721            5 
 1647000    1.0108257   -7.8070957    432.47625   0.02188202    0.0218209            2 
 1648000     0.994641   -7.7748292    433.83004  0.021937198  0.021814598            2 
 1649000   0.99958866   -7.8109021    432.45813  0.021854565  0.021808229            2 
 1650000   0.96476437   -7.8418484    431.26103   0.02178086  0.021801855            2 
 1651000    1.0004979    -7.844086    432.81359  0.021846032  0.021795378            2 
 1652000   0.98011878    -7.813841    431.80634  0.021781999  0.021788882            5 
 1653000   0.99616939   -7.8121695    433.01128  0.021829567  0.021782516            3 
 1654000   0.96045275   -7.7790204    432.06904  0.021768896  0.021776027            5 
 1655000   0.98230265    -7.821364    432.94748  0.021799974  0.021769623            1 
 1656000   0.99870139   -7.7835935    434.32538  0.021856148  0.021763159            5 
 1657000   0.99249999   -7.7747825    432.97004  0.021774796   0.02175672            2 
 1658000   0.98401017   -7.8236987    433.74452  0.021800589  0.021750157            4 
 1659000    1.0005425   -7.8220344    432.89595  0.021744824   0.02174353            1 
 1660000   0.97682573   -7.8049632    432.36817   0.02170523  0.021736899            2 
 1661000   0.99270529    -7.814701    433.81957   0.02176498  0.021730356            2 
 1662000    0.9988253   -7.8280151    433.33091  0.021727382  0.021723922            2 
 1663000   0.96755397   -7.7886467    433.62682  0.021729145  0.021717487            3 
 1664000   0.97480926   -7.8454036    432.97008  0.021683197  0.021711061            4 
 1665000   0.99760776   -7.8105698    434.30855  0.021737165  0.021704605           12 
 1666000   0.96215578   -7.8146947    433.47831  0.021682588  0.021698106            4 
 1667000   0.99792173   -7.7969246    435.54261  0.021772776    0.0216916            9 
 1668000    1.0037667   -7.8358628    434.37385  0.021701331  0.021685087            3 
 1669000   0.98534485   -7.8919458    433.94306   0.02166682  0.021678536            4 
 1670000    1.0120952   -7.8315892    434.55242  0.021684252  0.021671951            4 
 1671000   0.97142582   -7.8186329    435.08509   0.02169784  0.021665507            2 
 1672000   0.97298628   -7.8346034     434.8024  0.021670774  0.021659005            4 
 1673000   0.98580331   -7.8312162    435.97922  0.021716439  0.021652538            3 
 1674000   0.99763822   -7.8084881    435.58912  0.021684046  0.021646108            3 
 1675000   0.99457347   -7.8720186    435.91259  0.021687193  0.021639761            2 
 1676000   0.96744309   -7.7787549    436.67623  0.021712223  0.021633465            2 
 1677000   0.98059388   -7.8329671    435.46413  0.021639044  0.021627199            8 
 1678000   0.98906705   -7.8200174    436.73825  0.021689424   0.02162086            2 
 1679000   0.98317795   -7.8100971    437.57233  0.021717904  0.021614431            3 
 1680000    0.9778271   -7.7907624    435.91824  0.021622928  0.021608083            3 
 1681000   0.96453253   -7.8150016    436.90809  0.021659136  0.021601672            3 
 1682000   0.98227352   -7.8182425    437.57302  0.021679202   0.02159528            2 
 1683000    1.0128489   -7.7919626    438.79596  0.021726874  0.021589074            3 
 1684000   0.99238149   -7.8331223    437.70077  0.021659777  0.021582795            9 
 1685000   0.98220675     -7.81628    437.80847  0.021652249  0.021576432            1 
 1686000   0.97461285    -7.835857    436.31141  0.021565412   0.02157004            2 
 1687000   0.99432173   -7.8874673    436.74568   0.02157408  0.021563592            4 
 1688000   0.97793045   -7.8661174    436.69437  0.021558767  0.021557202            1 
 1689000    0.9807229   -7.8704859    437.83301  0.021602181  0.021550803            3 
 1690000   0.99640178   -7.8477557    437.96215  0.021595767  0.021544296            1 
 1691000   0.97366245   -7.8049018    438.69343  0.021619034  0.021537897            3 
 1692000   0.95858473   -7.8393657    436.56072  0.021501217  0.021531404            2 
 1693000   0.97126623   -7.8284809     438.2114  0.021569768  0.021524876            2 
 1694000   0.99088798   -7.8454398    437.21465  0.021508001  0.021518367            3 
 1695000   0.96414102   -7.8649467    438.36043  0.021551644  0.021511826            3 
 1696000   0.97646239   -7.8178679    439.28518  0.021584374  0.021505327            3 
 1697000   0.98115037   -7.8235321    438.62095  0.021539037  0.021499015            3 
 1698000   0.98905685   -7.8605115    439.22257  0.021555878  0.021492689            6 
 1699000   0.97021048   -7.7967182    439.99028  0.021580846  0.021486406            4 
 1700000   0.97898211   -7.7963943    440.37683  0.021587099  0.021480122            3 
 1701000   0.97252744   -7.8004231    440.14637  0.021563118  0.021473865            4 
 1702000   0.97217913   -7.8146781    439.64723   0.02152601  0.021467569            5 
 1703000   0.99002595   -7.8411929    439.66269  0.021514126  0.021461267            5 
 1704000   0.95908923   -7.8654829    440.54619  0.021544708  0.021454812            5 
 1705000   0.98110231   -7.8196994    440.88427  0.021548596  0.021448485            2 
 1706000   0.98185181   -7.8812444    439.35513   0.02146127  0.021442157            1 
 1707000   0.99463566   -7.8398893    441.17095  0.021537344   0.02143586            2 
 1708000    0.9710121   -7.8386665    441.14319   0.02152338   0.02142957            4 
 1709000   0.97175759   -7.8522178    440.61815  0.021485184   0.02142325            4 
 1710000    0.9699648   -7.8843923    439.21349  0.021404166   0.02141688            1 
 1711000   0.99635058   -7.8909386    439.49851  0.021405538  0.021410444            1 
 1712000   0.97820984   -7.8694191    440.07072  0.021420888   0.02140404            4 
 1713000   0.99847245   -7.8382999    441.62204  0.021483851  0.021397633            2 
 1714000   0.97269076    -7.858471    441.42533  0.021461753  0.021391265            2 
 1715000   0.96573548   -7.8278404    441.70115  0.021462641  0.021384875            6 
 1716000   0.97668642   -7.8379466    441.51724  0.021441203  0.021378533            4 
 1717000   0.96079249   -7.8350479    441.74307  0.021439675  0.021372121            2 
 1718000   0.97249791   -7.8323583    441.55207  0.021417931    0.0213658            3 
 1719000   0.97495841   -7.8752241    441.37006  0.021396648  0.021359451            1 
 1720000   0.98993098    -7.864856    439.46771   0.02129204  0.021352991            4 
 1721000   0.98575085    -7.834231    443.12979  0.021456992  0.021346546            3 
 1722000   0.98056465   -7.8414989    441.70067  0.021375371  0.021340159            3 
 1723000   0.97898251   -7.8571854    441.32736   0.02134491  0.021333725            1 
 1724000   0.98109542    -7.841759    441.02739  0.021318029  0.021327302            2 
 1725000   0.98254949   -7.8441889    442.40903  0.021372417  0.021320836            7 
 1726000   0.99526854   -7.8519614    442.67332  0.021372794  0.021314488            2 
 1727000   0.96921873   -7.8374295    443.17576  0.021384663  0.021308034            2 
 1728000   0.96518911   -7.8701531    442.43775  0.021336697  0.021301661            2 
 1729000    0.9733985    -7.864036    441.52896  0.021280555  0.021295265            4 
 1730000   0.97130954   -7.8821428    442.11512   0.02129649  0.021288859            2 
 1731000   0.96630879   -7.8672978    442.46328  0.021300947  0.021282464            3 
 1732000   0.97024724   -7.8325714    444.48259  0.021385806  0.021276035            2 
 1733000     0.979125   -7.8696341    442.46151   0.02127628  0.021269634            4 
 1734000   0.97835251   -7.8299871    444.32346  0.021353492  0.021263252            3 
 1735000    0.9841646   -7.8412583    442.87235  0.021271487  0.021256887            2 
 1736000    0.9833711   -7.8395459    444.21064  0.021323476   0.02125053            1 
 1737000   0.98921314   -7.8679594    444.83338  0.021341076  0.021244182            2 
 1738000   0.97665401   -7.8381747    444.09476  0.021293381  0.021237751            2 
 1739000   0.96406312   -7.8300357    443.96159  0.021274755  0.021231352            5 
 1740000   0.95545979   -7.8347299    444.52637  0.021289577  0.021224958            2 
 1741000   0.96913427   -7.8802203    444.61333  0.021281511  0.021218522            4 
 1742000   0.96873774   -7.8440039    444.16068  0.021247641  0.021212057            3 
 1743000   0.98191607   -7.8304763    443.76826  0.021216689  0.021205544            6 
 1744000   0.98770716   -7.8486946    443.97731  0.021214512  0.021199092            3 
 1745000   0.98434838   -7.8416597    443.71311  0.021189738  0.021192544            6 
 1746000   0.95890509   -7.8775929    443.38034  0.021161719  0.021185953            2 
 1747000   0.96754709    -7.822287    444.97967  0.021225895  0.021179399            7 
 1748000   0.97165354   -7.8631253      443.026  0.021120614  0.021172816            4 
 1749000   0.97538245   -7.9098035     443.0799  0.021111106   0.02116618            2 
 1750000   0.96136325   -7.8132865    445.72273  0.021224892  0.021159582            2 
 1751000   0.98329773   -7.8356973    445.44528  0.021199566  0.021153107            3 
 1752000   0.96963049   -7.8385464    444.19676   0.02112808  0.021146645            4 
 1753000    1.0025823    -7.835915    446.12974  0.021207917  0.021140213            2 
 1754000   0.96205082   -7.8300331    444.83943  0.021134522  0.021133704            1 
 1755000   0.99580141   -7.8328487    446.27465  0.021190629  0.021127247            3 
 1756000   0.96059666    -7.850765    444.99413  0.021117793  0.021120819            2 
 1757000   0.97675066   -7.9037985    443.45582  0.021032812  0.021114229            4 
 1758000   0.95911033   -7.8629023    444.54427  0.021072444  0.021107476            2 
 1759000   0.98000919    -7.853649     445.1845  0.021090795  0.021100775            4 
 1760000   0.96959578   -7.8902914    444.83895   0.02106245  0.021094095            4 
 1761000   0.98660615   -7.8451538    446.73358  0.021140147  0.021087445            2 
 1762000   0.96631145   -7.8478356    443.42577  0.020971707  0.021080799            1 
 1763000   0.95416451    -7.841211    446.20886  0.021091362  0.021074151            2 
 1764000   0.95753428   -7.8140683    447.10619  0.021121797   0.02106764            4 
 1765000   0.95815692   -7.8556328    446.83975   0.02109725  0.021061083            2 
 1766000   0.98597735   -7.8508537    446.12623  0.021051634   0.02105455            2 
 1767000   0.96343369   -7.8862549    445.27393  0.020999525   0.02104796            4 
 1768000    0.9784916    -7.838057    445.94822   0.02101943  0.021041392            2 
 1769000   0.96516279   -7.8865794    445.58937  0.020990643  0.021034753            2 
 1770000   0.94750109   -7.8388483    446.91873  0.021041372  0.021028183            2 
 1771000   0.95826867   -7.8383612    447.71009  0.021066727  0.021021647            4 
 1772000   0.97821705   -7.8764749    446.88811  0.021016183  0.021015083            2 
 1773000   0.96811731   -7.8590258    446.20435  0.020972192  0.021008413            2 
 1774000    0.9572273    -7.849799    447.75595  0.021033256  0.021001828            2 
 1775000    0.9580484   -7.8418188    447.29847  0.020999928  0.020995265            3 
 1776000   0.95924827   -7.8480531    449.12475  0.021073796  0.020988748           12 
 1777000   0.96901882   -7.8314389    448.13447  0.021015498  0.020982201            4 
 1778000   0.96926521   -7.8869778    447.34529   0.02096669  0.020975733            4 
 1779000    0.9669181   -7.8390347    448.71355  0.021018997  0.020969132            2 
 1780000   0.96450173   -7.9355652    446.48161  0.020902697  0.020962572            6 
 1781000   0.95964199   -7.9008174    447.66924   0.02094653  0.020955964            3 
 1782000   0.97025245   -7.8845377    449.41698  0.021016507  0.020949448            3 
 1783000   0.96977575   -7.8782799    447.71189  0.020925027   0.02094296            3 
 1784000   0.96970817   -7.8726764    449.13501  0.020979774  0.020936404            3 
 1785000   0.97739681    -7.882681    448.01886  0.020915913  0.020929836            2 
 1786000   0.97196931   -7.8913313     447.6889  0.020888806  0.020923321            1 
 1787000   0.96087474   -7.9022879    449.12395  0.020944038  0.020916791            6 
 1788000   0.97267651   -7.8605866    448.84308  0.020919234   0.02091017            1 
 1789000    0.9763414   -7.8240491    449.26842  0.020927353  0.020903607            2 
 1790000   0.96911497   -7.8668956    450.28249  0.020962872  0.020897077            4 
 1791000   0.97123315   -7.8808531     450.0877  0.020942104  0.020890621            2 
 1792000   0.98252339   -7.8724925    449.51784  0.020903918  0.020884102            4 
 1793000   0.99232262   -7.8776945    450.16206    0.0209222  0.020877632            2 
 1794000   0.95738846   -7.8536351    450.79352   0.02093987  0.020871171            2 
 1795000   0.95849581   -7.8686615    449.58772  0.020872225  0.020864691            2 
 1796000    0.9600775   -7.9112868    448.77917  0.020823087  0.020858161            6 
 1797000   0.96983326   -7.9053692    450.68786  0.020900012  0.020851593            3 
 1798000   0.95970321   -7.9051904    449.32729  0.020825329  0.020845032            6 
 1799000   0.95208212   -7.8767965    450.56427  0.020871052  0.020838523            3 
 1800000   0.95796499   -7.9136811    450.74193  0.020867682  0.020831983            2 
 1801000   0.95513576   -7.8646565    450.92049  0.020864357  0.020825541            4 
 1802000   0.94959659   -7.9130733    449.52086  0.020788053  0.020819026            5 
 1803000   0.97416158   -7.8480172    451.59313  0.020872302  0.020812574            4 
 1804000   0.96299139   -7.8640286    452.15445  0.020886662  0.020806159            2 
 1805000   0.97472549   -7.8899625    451.93735  0.020865067  0.020799687            5 
 1806000   0.95545471   -7.9042856    451.56519  0.020836341   0.02079317            2 
 1807000   0.93472232   -7.8998843    450.29394  0.020766184  0.020786633            3 
 1808000   0.97744167   -7.8939863     451.1496  0.020794137  0.020780174            4 
 1809000   0.95685611   -7.9073851    452.26102  0.020833841   0.02077373            4 
 1810000   0.97549445   -7.8969331    451.35984   0.02078084  0.020767343            4 
 1811000   0.98721457   -7.9223175    452.81542  0.020836343  0.020760913            3 
 1812000   0.94660572    -7.894277    452.20846  0.020796931   0.02075448            2 
 1813000   0.96073151   -7.8687325    452.73468  0.020809647  0.020748093            4 
 1814000   0.97326372   -7.8114073    454.44505  0.020876748  0.020741744            2 
 1815000    0.9625819   -7.8538723    453.47994  0.020820934   0.02073544            3 
 1816000   0.97830407   -7.8903666    452.88508  0.020782171  0.020729049            2 
 1817000   0.95124645   -7.8764405    453.48924  0.020798442  0.020722598            2 
 1818000   0.95558104   -7.8673102    452.98831  0.020764041  0.020716199            3 
 1819000   0.94702129   -7.9036744    453.54274  0.020778025  0.020709839            2 
 1820000   0.96100977   -7.8746366    453.67657  0.020772737  0.020703555            1 
 1821000   0.96118765    -7.893091    453.37362  0.020747466  0.020697244            2 
 1822000   0.95370653   -7.8846618    454.17761  0.020772851  0.020690955            2 
 1823000   0.97795353   -7.8646121    454.57267  0.020779515  0.020684638            4 
 1824000   0.96599572   -7.8430897    455.19833  0.020796707  0.020678282            4 
 1825000   0.97772266   -7.8612334    455.12141    0.0207818  0.020671905            7 
 1826000   0.97031914   -7.8837746      454.719  0.020752054  0.020665537            2 
 1827000   0.95648583   -7.8615581    453.99507  0.020707675  0.020659194            2 
 1828000   0.96590517   -7.9248052     454.4576  0.020717433  0.020652836            1 
 1829000   0.96066671   -7.9165624     454.2961  0.020698747  0.020646412            4 
 1830000   0.97889182   -7.8697976    454.03101  0.020675365  0.020640036            2 
 1831000   0.96353384   -7.9141142    454.42138   0.02068184  0.020633602            4 
 1832000   0.96507795   -7.8961671     454.4362  0.020671224  0.020627157            6 
 1833000   0.96448281    -7.929253    454.36966  0.020656922  0.020620758            5 
 1834000   0.96212072   -7.8640322    454.79816  0.020665129  0.020614366            5 
 1835000   0.96615107   -7.8996345      454.483  0.020639555  0.020607939            3 
 1836000   0.96406283   -7.8992181    454.37403  0.020623368  0.020601531            3 
 1837000   0.97886615   -7.8734568    454.28991  0.020608325  0.020595124            3 
 1838000   0.94765067   -7.8890196    455.55959  0.020654678  0.020588743            3 
 1839000   0.96450495   -7.9486878    454.96624   0.02061656  0.020582349            6 
 1840000   0.97218981   -7.8980723    455.68566  0.020637938  0.020576004            3 
 1841000   0.95284771   -7.8855882    455.18668  0.020604141  0.020569643            2 
 1842000   0.94559191   -7.9029506    456.08982  0.020633814  0.020563287            4 
 1843000   0.95959365   -7.8672847    457.19729  0.020672693  0.020556946            6 
 1844000   0.96324275   -7.9095664    457.10881  0.020657484   0.02055061            6 
 1845000   0.96605334   -7.8608493    457.50512  0.020664188  0.020544336            2 
 1846000   0.93998281   -7.8789804    456.39985  0.020603099  0.020538094            6 
 1847000   0.96848548   -7.9206737    455.56328    0.0205542  0.020531801            2 
 1848000   0.93825377   -7.8908513    456.64149  0.020591698  0.020525462            2 
 1849000    0.9790955   -7.8627405    456.99522  0.020596503   0.02051914            2 
 1850000   0.95924125   -7.8655066    457.65579  0.020615126  0.020512796            9 
 1851000   0.94553292   -7.8927775    457.27686  0.020586928  0.020506424            4 
 1852000   0.96030754    -7.925289    455.44912  0.020493571  0.020500008            4 
 1853000   0.95284442   -7.8916427    457.53168  0.020576168  0.020493583            4 
 1854000   0.97002277   -7.9200506    456.81519  0.020532865  0.020487103            3 
 1855000   0.95565348    -7.913706    457.60465  0.020557262  0.020480647            3 
 1856000   0.95144752   -7.8969718    457.96289  0.020562271  0.020474147            3 
 1857000   0.96899272   -7.8947674    457.46103  0.020528676  0.020467715           10 
 1858000   0.93755921   -7.9363733    456.37375  0.020468862  0.020461264            2 
 1859000   0.95107309   -7.9217951    456.97556  0.020484829  0.020454818            4 
 1860000   0.95150154   -7.8709982    457.53127  0.020498713  0.020448376            1 
 1861000   0.95822802    -7.946245    456.95369  0.020461835  0.020441936            2 
 1862000   0.96114298   -7.9352159    457.31056  0.020466817   0.02043545            8 
 1863000    0.9576665   -7.9346765    457.63685  0.020470426  0.020429045            3 
 1864000   0.96412515   -7.9191798    458.77551   0.02051035  0.020422644            3 
 1865000   0.94073386   -7.9013838    459.07541  0.020512753  0.020416284            3 
 1866000   0.95999771   -7.9486578    458.27153   0.02046586  0.020409868            6 
 1867000   0.95969667   -7.9609661    456.95989  0.020396353  0.020403502            2 
 1868000   0.93573353   -7.9408576    457.74139  0.020420298  0.020397177            3 
 1869000    0.9433697   -7.9060592    458.83908  0.020458315   0.02039076            3 
 1870000   0.93448397   -7.9252661    458.53341  0.020433753  0.020384413            4 
 1871000   0.94218311   -7.8895653    459.76288  0.020477591    0.0203781            4 
 1872000   0.95827783   -7.8982619    458.47397  0.020409276  0.020371819            2 
 1873000   0.95316707   -7.8960916    460.32822  0.020480878  0.020365622            3 
 1874000   0.93556193   -7.8957872    459.09176  0.020414966  0.020359434            1 
 1875000   0.93484304   -7.9242655     460.4655  0.020465133  0.020353232            2 
 1876000   0.96116033   -7.9066493    460.86166  0.020471822  0.020346929            3 
 1877000   0.95236152   -7.9312784    459.60144  0.020404965  0.020340665            4 
 1878000   0.94830942   -7.9064688    460.23315  0.020422131  0.020334438            2 
 1879000   0.94705462   -7.9154571    460.31905  0.020415072  0.020328212            3 
 1880000   0.96110039   -7.8789279    460.52124  0.020413176  0.020321938            6 
 1881000   0.95566467   -7.9283514    459.71334  0.020366531    0.0203156           12 
 1882000   0.94230502   -7.8980335    460.74584  0.020401428  0.020309315            2 
 1883000   0.93858479   -7.9080195    459.90322  0.020353302  0.020303044            2 
 1884000   0.97119487   -7.8874422    461.18906  0.020399374  0.020296769            2 
 1885000   0.95595219   -7.9079137     459.5677  0.020316874  0.020290533            2 
 1886000   0.94786109   -7.9133013    460.97579  0.020368319  0.020284211            6 
 1887000   0.93855646   -7.9041514    460.62026  0.020341824  0.020277807            2 
 1888000   0.94295357   -7.9277258    459.73672  0.020292051  0.020271446            3 
 1889000     0.950303   -7.9268433    460.76634  0.020326731  0.020265112            2 
 1890000   0.93887521   -7.9314831    460.02755  0.020283402  0.020258695            2 
 1891000   0.94831427    -7.904206    461.56889    0.0203406  0.020252307            3 
 1892000   0.96474734   -7.9239852    460.93952  0.020302128  0.020245962            3 
 1893000   0.93546605    -7.917029    460.33171  0.020264647  0.020239527            6 
 1894000   0.96784755   -7.9247782    461.18573  0.020291523  0.020233075            4 
 1895000   0.92497194   -7.9167802    460.69374  0.020259179  0.020226626            3 
 1896000   0.95644238   -7.9203068    460.75698  0.020251274   0.02022022            1 
 1897000   0.94989055   -7.9016561    462.29031  0.020307956  0.020213848            1 
 1898000   0.97836222   -7.9235504    461.11258  0.020245547  0.020207457            3 
 1899000   0.97363073   -7.9138231    462.83957  0.020310671  0.020200972            3 
 1900000   0.94883722    -7.955812    460.22123  0.020185142  0.020194521            3 
 1901000   0.94639418   -7.9557261    460.53197  0.020188145  0.020188002            3 
 1902000   0.95069205   -7.9457298    460.41084  0.020172224  0.020181443            2 
 1903000   0.93171628   -7.9490426    461.30431  0.020200749   0.02017486            3 
 1904000   0.95672186   -7.9336372    460.88976  0.020171996   0.02016824            5 
 1905000     0.953286   -7.9319561    460.66779  0.020151697  0.020161671            3 
 1906000   0.93847256   -7.9786871    461.87232  0.020193788  0.020155161            2 
 1907000   0.94726332   -7.9115137    462.43018  0.020207576   0.02014869            1 
 1908000   0.95219603    -7.924203    462.69262  0.020208448   0.02014222            7 
 1909000   0.95399858   -7.9208673    462.08979  0.020171547  0.020135851            3 
 1910000   0.95667482   -7.8902002    461.78928  0.020147874  0.020129355            4 
 1911000   0.94759967   -7.9036986    462.57117  0.020171427  0.020122828            5 
 1912000   0.95135772   -7.9460955    462.36401  0.020151848  0.020116348            6 
 1913000   0.94113013   -7.9279318    462.92002  0.020165535  0.020109849            3 
 1914000   0.94498573   -7.9431424    462.24336  0.020125538  0.020103389            2 
 1915000     0.929162   -7.9571976    462.65912  0.020133121  0.020096907            3 
 1916000   0.95529666   -7.9528552     461.2185  0.020059956  0.020090439            5 
 1917000   0.92277169   -7.8941188    463.26526  0.020138465  0.020084017            2 
 1918000   0.95038888   -7.9294427    463.45404  0.020136168  0.020077669            3 
 1919000   0.93974046   -7.9249822     462.2865  0.020074974  0.020071252            3 
 1920000   0.96332554    -7.894213    464.24716  0.020149616  0.020064819            2 
 1921000   0.95808204   -7.9101491    462.87941  0.020079794   0.02005837            5 
 1922000   0.94814218   -7.9422856    462.30793  0.020044569  0.020051874            2 
 1923000   0.94551319   -7.9404178    463.40533  0.020081701  0.020045347            3 
 1924000   0.94138301   -7.9240109    464.27567   0.02010896  0.020038887            3 
 1925000   0.95565278   -7.9141753    463.99651  0.020086429  0.020032461            2 
 1926000   0.94761962    -7.967391    461.97915  0.019988714   0.02002597            3 
 1927000   0.94900059   -7.9554185    463.06638  0.020025358    0.0200195            6 
 1928000   0.94960967   -7.9355941    463.21352  0.020021331   0.02001295            2 
 1929000   0.94111122   -7.9782599     462.8006  0.019993114  0.020006422            4 
 1930000   0.93384345   -7.9159118    463.15328  0.019997983  0.019999886            3 
 1931000   0.94517361   -7.9358545    464.41534  0.020042091  0.019993473            5 
 1932000   0.94421097   -7.9257576    463.77175  0.020003957  0.019987051            5 
 1933000   0.93671737   -7.9597535    464.77141  0.020036705  0.019980563            3 
 1934000   0.92582753   -7.9563001    463.62548  0.019976968  0.019974076            3 
 1935000   0.96543609   -7.9524932    464.09574  0.019986897  0.019967515            6 
 1936000   0.93347916   -7.9556165    463.79722  0.019963723  0.019960939            2 
 1937000   0.95583078   -7.9039923    464.47675  0.019982651  0.019954366            2 
 1938000   0.95000324   -7.9705989    463.26708  0.019920325   0.01994783            3 
 1939000   0.95610474   -7.9308038    464.90556  0.019980469  0.019941368            1 
 1940000   0.91972776   -7.9189762    464.16899  0.019938531  0.019934854            3 
 1941000   0.94954877   -7.9037927    465.07844  0.019967304  0.019928395            3 
 1942000   0.94316703   -7.9408101    465.18018  0.019961388  0.019921892            4 
 1943000   0.94163398   -7.9384006    464.78756  0.019934275  0.019915341            2 
 1944000   0.93687121   -7.9561357     464.5853  0.019915351  0.019908764            3 
 1945000   0.93953977   -7.9765596    464.57892  0.019904838  0.019902211            2 
 1946000   0.93984865   -7.9871552    464.12479  0.019875162  0.019895558            6 
 1947000   0.93356315   -7.9401843    464.20501  0.019868388  0.019888962            4 
 1948000   0.92738452   -7.9330732    464.12458  0.019854748  0.019882324            2 
 1949000    0.9369055   -7.9658469    465.70314  0.019912055  0.019875703            3 
 1950000   0.93945534   -7.9597376    464.42837  0.019847366  0.019869151            2 
 1951000   0.92878389   -7.9566336     466.0703  0.019907325   0.01986256            3 
 1952000   0.96256207   -7.9537521    464.90439  0.019847353  0.019855976            2 
 1953000   0.95351254   -7.9329321    466.11721   0.01988894  0.019849427            5 
 1954000   0.94259972   -7.9547231    466.81714  0.019908612  0.019842934            5 
 1955000    0.9420159    -7.970841    465.66279  0.019849224  0.019836421            4 
 1956000   0.95002806   -7.8874877    466.41623  0.019871175  0.019829991            3 
 1957000   0.93897315   -7.9501171    465.73111  0.019831848   0.01982351            3 
 1958000   0.92737393   -7.9724053    464.52275  0.019770291  0.019816976            7 
 1959000   0.94454514   -7.9616269    465.71644  0.019810977  0.019810439            2 
 1960000   0.93540427   -7.9537015    465.98018  0.019812082  0.019803913            5 
 1961000   0.93936015   -7.9506867    466.51571  0.019824737  0.019797452            5 
 1962000    0.9405918   -7.9534278    466.83369  0.019828138  0.019790962            2 
 1963000   0.95034392   -7.9811939    465.99366  0.019782376  0.019784433            3 
 1964000   0.93695942   -7.9599802    466.30321  0.019785438  0.019777882            4 
 1965000   0.94206754   -7.9778381    465.44921  0.019739152  0.019771332            3 
 1966000   0.96430001   -7.9813564    465.98846  0.019751969  0.019764712            3 
 1967000   0.95006327   -7.9747014    466.19172  0.019750539   0.01975811            2 
 1968000   0.93240776   -7.9572523    467.34192  0.019789207  0.019751512            3 
 1969000   0.93460042   -8.0000913    467.15261  0.019771145  0.019744957            3 
 1970000   0.93635134   -7.9502379    467.17771   0.01976217  0.019738409            2 
 1971000   0.91363392   -7.9615249    466.88243   0.01973966  0.019731934            2 
 1972000   0.94526173   -7.9595654    467.60862  0.019760337  0.019725455            2 
 1973000   0.92307101   -7.9345889    468.28896  0.019779057  0.019718963            4 
 1974000   0.93752062   -7.9302747    467.95048  0.019754748  0.019712521            6 
 1975000   0.93180103   -7.9782447    467.92379   0.01974362  0.019706056            4 
 1976000   0.93625573   -7.9709217    468.49716  0.019757809   0.01969957            2 
 1977000   0.93569491   -7.9639469    468.35707   0.01974191  0.019693025            2 
 1978000   0.93073729   -7.9662973    466.91018  0.019670971  0.019686551            4 
 1979000   0.95182516   -7.9861762    467.36644  0.019680244   0.01968009            4 
 1980000   0.94411687   -7.9509599    468.81529  0.019731283  0.019673585            2 
 1981000   0.93391766   -7.9675886    467.15421  0.019651448  0.019667096            5 
 1982000   0.94058917   -7.9504713    467.61846  0.019661052   0.01966064            2 
 1983000   0.93562441   -7.9582444    468.58128  0.019691598  0.019654177            8 
 1984000   0.94739538   -7.9854675    467.48626   0.01963568  0.019647735            6 
 1985000   0.92711474   -7.9709228    468.61147  0.019673026  0.019641298            1 
 1986000   0.93157378   -7.9718706    468.76228  0.019669448  0.019634867            3 
 1987000   0.92372743   -7.9568229    468.20575  0.019636208  0.019628431            2 
 1988000   0.95348595   -7.9337969    469.90491  0.019697557  0.019621953            5 
 1989000   0.94278032   -7.9464998    468.73479  0.019638629  0.019615513            3 
 1990000   0.94116274   -7.9923696    467.36926  0.019571577  0.019609042            4 
 1991000   0.93239028   -7.9545599    469.17846  0.019637471  0.019602531            5 
 1992000   0.93120626   -7.9470388    469.44994   0.01963897    0.0195961            1 
 1993000   0.93089915   -7.9011452    470.91574  0.019690406  0.019589743            6 
 1994000    0.9149779   -7.9244289    470.33193  0.019656132  0.019583357            5 
 1995000   0.94881365    -7.957912    470.14279  0.019638379  0.019576938            5 
 1996000   0.94366263   -7.9414087    470.20969  0.019631333  0.019570484            5 
 1997000   0.92428366   -7.9593563    471.14965  0.019660727  0.019564027            4 
 1998000   0.89644582   -7.9783711    469.72083  0.019591292  0.019557562            2 
 1999000     0.913873   -7.9507364    470.51517  0.019614606  0.019551091            2 
 2000000     0.931573   -7.9504054    471.18097   0.01963254  0.019544678            2 
 2001000     0.933416   -7.9727743     470.0861  0.019577132  0.019538305            7 
 2002000   0.93034096    -7.927757    472.56089  0.019670367  0.019532005            8 
 2003000   0.92327042   -7.9346956    471.12371  0.019600754  0.019525758            2 
 2004000   0.93167592    -7.939223    472.11893  0.019632357  0.019519463            2 
 2005000   0.92224898   -7.9575724    470.15926  0.019541116  0.019513121            3 
 2006000   0.92993339   -7.9806138     470.5906  0.019549294  0.019506767            3 
 2007000   0.93735735   -7.9848835    471.97733  0.019597132  0.019500465            1 
 2008000   0.92478926   -7.9864095    471.76265  0.019578463  0.019494087            2 
 2009000   0.92552941   -7.9722696    472.11994  0.019583538  0.019487729            2 
 2010000   0.90416171   -7.9470626    472.82919    0.0196032  0.019481419            3 
 2011000   0.93556815   -7.9463647     472.1939  0.019567127  0.019475156            2 
 2012000   0.93383404   -7.9505142     472.7317  0.019579676  0.019468941            5 
 2013000   0.93671318   -7.9649232    472.13224  0.019545133  0.019462706            6 
 2014000   0.92889786   -7.9394463    473.63283  0.019597518  0.019456514            2 
 2015000   0.91705967   -7.9678948    472.84631  0.019555265   0.01945032            2 
 2016000   0.93241395   -7.9758484    472.37502  0.019526084  0.019444057            2 
 2017000   0.91837901   -7.9595812    472.36045  0.019515801  0.019437804            4 
 2018000   0.92144575   -7.9687257    472.28175   0.01950288  0.019431472            3 
 2019000   0.93847258   -7.9686317    472.31372   0.01949454  0.019425146            2 
 2020000   0.95097795   -7.9809868    472.07903  0.019475208  0.019418784            3 
 2021000   0.92920954   -8.0040861    470.70652  0.019408977    0.0194124            5 
 2022000   0.94074362   -7.9767483    473.18706   0.01950161  0.019406048            3 
 2023000   0.90258396   -7.9550703    473.85912  0.019519654  0.019399766            3 
 2024000   0.94598543   -7.9948425    474.51957  0.019537202  0.019393465            5 
 2025000   0.93247979     -7.97168    473.52065  0.019486446  0.019387165            5 
 2026000   0.91357821   -7.9903485    473.66037  0.019482575  0.019380833            2 
 2027000    0.9061033   -8.0101505    473.74454  0.019476424  0.019374554            4 
 2028000   0.92681421   -7.9780473    474.15924  0.019483861  0.019368257            3 
 2029000   0.92285901    -7.982922    473.20905  0.019435233  0.019361951            2 
 2030000   0.95505108   -7.9374884    474.25077  0.019468423  0.019355723            7 
 2031000   0.95074692     -8.00233    474.81687  0.019482064  0.019349515            6 
 2032000   0.91685695   -7.9953854    473.76881  0.019429495  0.019343289            2 
 2033000      0.92734   -7.9543138    474.26064  0.019440098  0.019337041            3 
 2034000   0.93344013   -7.9610201    474.21256  0.019428571  0.019330778            3 
 2035000   0.92011912   -7.9539033    474.41891  0.019427474  0.019324515            4 
 2036000   0.92136909   -8.0070789    473.77978  0.019391772  0.019318191            4 
 2037000   0.90017418   -7.9848134    473.21476  0.019359138  0.019311838            1 
 2038000   0.90152977   -7.9738879    474.14911  0.019387844  0.019305504            4 
 2039000   0.90085297   -8.0036965    473.24383  0.019341337  0.019299166            7 
 2040000   0.90692452   -8.0135767    473.11315  0.019326518   0.01929276            1 
 2041000   0.90616315   -8.0097743    473.30159  0.019324742   0.01928636            8 
 2042000   0.92190207   -7.9824532    474.73671  0.019373846  0.019279968            2 
 2043000   0.92935165   -8.0035072    473.58691  0.019317462  0.019273554            4 
 2044000   0.92683517   -7.9348887    475.45821  0.019384304  0.019267163            7 
 2045000   0.92978786   -7.9971343    474.46966  0.019334542  0.019260818            2 
 2046000   0.92309105   -7.9678617    475.09434  0.019350535  0.019254485            7 
 2047000   0.93253986   -7.9675916    475.66402  0.019364274  0.019248169            2 
 2048000   0.94059017   -7.9935503    474.81666  0.019320339  0.019241874            3 
 2049000   0.90790706   -7.9945377    474.79693  0.019310108  0.019235565            5 
 2050000   0.92299352   -7.9604164    474.12833  0.019273509   0.01922926            3 
 2051000   0.91775241   -8.0070795    475.29847  0.019311655  0.019222936            2 
 2052000   0.91036681   -7.9431911    476.55464  0.019353259  0.019216709            2 
 2053000   0.92075149   -7.9853125    476.21538  0.019330061  0.019210467            2 
 2054000    0.9238016   -7.9944555    474.90846  0.019267627  0.019204207            4 
 2055000   0.93243405   -7.9724925    476.54949  0.019324797  0.019197916            6 
 2056000   0.92363622   -8.0010394    474.86074   0.01924695  0.019191607            5 
 2057000   0.91800053   -8.0212179    476.24339  0.019293607  0.019185302            2 
 2058000   0.96775783   -8.0086741    474.90512  0.019230042  0.019178954            6 
 2059000   0.91580746   -7.9932026    475.76561  0.019255529  0.019172607            3 
 2060000   0.92910257   -7.9976179    475.80651  0.019247836  0.019166297            3 
 2061000    0.9012517   -7.9821835    475.73949  0.019235787  0.019159964            3 
 2062000   0.91033148   -7.9714361    477.04937  0.019279396   0.01915366            2 
 2063000   0.90541724   -7.9929753    476.30075   0.01923981  0.019147403           10 
 2064000   0.92594591   -8.0069893    475.07049  0.019180818  0.019141147            2 
 2065000   0.92092638   -8.0000756    476.92759  0.019246472  0.019134886            2 
 2066000   0.92832489   -8.0002299    477.48713  0.019259726  0.019128643            3 
 2067000   0.91069364   -7.9739421    478.11763  0.019275828   0.01912243            3 
 2068000   0.92549225   -7.9887569    477.00232  0.019221563  0.019116257            4 
 2069000   0.92119127   -7.9953898    477.86515  0.019247026  0.019110072            5 
 2070000   0.91752007   -7.9907028    477.96129  0.019241598  0.019103914            4 
 2071000   0.90783624   -7.9516152    477.69476  0.019221582   0.01909777            5 
 2072000   0.91767282    -7.987755    477.02563  0.019185394  0.019091636            3 
 2073000   0.91985949   -8.0147733    477.47148  0.019194062  0.019085448            3 
 2074000   0.92930374   -7.9760602    478.86382  0.019240751  0.019079312            4 
 2075000   0.91538882   -8.0244326    477.13379     0.019162  0.019073121            7 
 2076000   0.90988823   -7.9695789    479.51341   0.01924829  0.019066953            7 
 2077000   0.92009872    -7.979129    478.07914  0.019181477  0.019060776            3 
 2078000    0.9029182   -8.0301362    478.09881  0.019173035  0.019054607            3 
 2079000   0.91537633   -8.0094452    478.21708  0.019168554  0.019048402            4 
 2080000    0.9126982   -8.0140706    477.52808  0.019131734  0.019042142            3 
 2081000   0.93565483   -8.0077732     478.7411  0.019171116  0.019035942            2 
 2082000   0.92302523   -8.0066127    478.84052  0.019165887   0.01902975            4 
 2083000   0.92596468   -8.0129463     478.1114  0.019127517  0.019023542            2 
 2084000   0.90605015   -7.9747527    478.68169  0.019141142  0.019017295            3 
 2085000   0.93183928   -7.9935813    479.42586  0.019161705  0.019011135            4 
 2086000   0.89150997   -7.9722419    479.56703  0.019158159  0.019004948            4 
 2087000   0.92334651   -7.9948251    479.91776  0.019162984  0.018998778            3 
 2088000   0.92501973   -8.0178675    479.11048  0.019121587  0.018992614            2 
 2089000   0.92716597    -7.985158    478.84932  0.019102015  0.018986424            3 
 2090000   0.90562362   -7.9881149    478.25361  0.019069123  0.018980228            2 
 2091000   0.92518682    -8.025234    479.62489  0.019114654  0.018973988            3 
 2092000   0.91727821   -8.0017706    479.64449  0.019106297  0.018967788            3 
 2093000   0.91728127   -7.9804383    479.20058  0.019079494  0.018961593            4 
 2094000   0.90437894   -8.0234174    479.55028    0.0190843  0.018955382            2 
 2095000   0.91450887   -8.0371327     479.3009   0.01906527  0.018949138            1 
 2096000   0.92093931   -7.9838526    479.97452  0.019082956  0.018942962            2 
 2097000   0.93110477   -7.9859914    480.43904  0.019092316  0.018936794            2 
 2098000   0.89207534   -7.9977605    479.77386  0.019056794  0.018930594            3 
 2099000   0.92984558   -8.0087043    480.78593  0.019087896  0.018924443            3 
 2100000   0.90918331   -8.0503808    478.71393  0.018996584  0.018918278            4 
 2101000   0.91133983    -8.021277     479.6885  0.019026198  0.018912067            2 
 2102000    0.9114788    -8.017261     479.3985  0.019005649  0.018905842            4 
 2103000   0.91591818   -8.0438332    479.74678  0.019010413  0.018899612            2 
 2104000   0.91356212    -8.007846    480.54694   0.01903307  0.018893402            3 
 2105000   0.91402261   -8.0372441    480.05068  0.019004382  0.018887227            4 
 2106000   0.90204135   -7.9994497    481.62094  0.019057492  0.018881058            3 
 2107000   0.91808502   -8.0344379    480.56763  0.019006788  0.018874913            1 
 2108000   0.91616423    -8.000505    480.81773  0.019007659  0.018868747            3 
 2109000   0.90303008   -8.0234051    481.37066  0.019020494  0.018862624            2 
 2110000   0.92505872   -8.0308897    482.00798   0.01903665  0.018856512            4 
 2111000   0.94206801   -8.0511982    480.10669  0.018952577  0.018850347            4 
 2112000   0.91867606   -7.9977041    481.77256  0.019009334  0.018844205            4 
 2113000   0.91184065    -8.009827    481.20239  0.018977851   0.01883809            7 
 2114000   0.89933083   -8.0501558    481.51212  0.018981083  0.018831955            3 
 2115000   0.90945728   -7.9804105    482.34885  0.019005077  0.018825902            2 
 2116000   0.91700176   -8.0046556    481.75959  0.018972889  0.018819837            1 
 2117000   0.90138043   -8.0023474    481.67142  0.018960456  0.018813768            8 
 2118000   0.90734305    -7.999996    480.54563  0.018907209  0.018807628            4 
 2119000   0.90190935   -8.0033647    481.14559  0.018921881  0.018801499            3 
 2120000   0.90395616   -8.0348787    481.38952  0.018922544  0.018795363            2 
 2121000   0.91367936   -8.0076911    481.70501  0.018926018  0.018789142            3 
 2122000   0.89895523    -8.017969    481.73281  0.018918191  0.018782955            3 
 2123000   0.89839013   -8.0363302    480.87936   0.01887578  0.018776692            5 
 2124000   0.91672555   -8.0117874    481.63807   0.01889666  0.018770429           16 
 2125000   0.92967265   -8.0310498    481.60096  0.018886312  0.018764205            5 
 2126000   0.93681336   -8.0048951    481.12494   0.01885877  0.018758002            4 
 2127000   0.91496032   -7.9864185    482.90688  0.018919718  0.018751829            9 
 2128000   0.92176757   -8.0392706    482.56974  0.018897625   0.01874566            3 
 2129000   0.92078586   -7.9933053    483.29402  0.018917098    0.0187395            4 
 2130000   0.91347412   -8.0428945    482.82746  0.018889963  0.018733355            2 
 2131000   0.92392195   -7.9957032    483.21036  0.018896072  0.018727192            3 
 2132000   0.90818106   -8.0581221    481.38569  0.018815889  0.018721065            6 
 2133000   0.91068861   -8.0339915    482.81949  0.018863084  0.018714928            7 
 2134000   0.92622642   -8.0713552     481.9599  0.018820677  0.018708776            5 
 2135000   0.90289674   -8.0552375     481.1737  0.018781175  0.018702588            2 
 2136000   0.89679877   -8.0492787      483.085  0.018846949  0.018696422            3 
 2137000   0.90237883   -8.0377285    483.26482  0.018845142  0.018690282            2 
 2138000   0.88254693   -8.0626163    482.70894  0.018814661  0.018684164            4 
 2139000   0.91638368   -7.9877883    483.42639  0.018833816  0.018678036            4 
 2140000   0.87148657   -7.9847091      484.792  0.018878193  0.018671959            1 
 2141000   0.90024342   -8.0200377    482.16029  0.018766943  0.018665889            2 
 2142000   0.89820251   -8.0666247    482.77779  0.018782205  0.018659771            2 
 2143000   0.90103346   -8.0278001    483.26333  0.018792321  0.018653658            2 
 2144000   0.92806883   -8.0249335    484.28567  0.018823293  0.018647576            4 
 2145000     0.895869   -8.0382818    483.71846  0.018792481  0.018641487            2 
 2146000    0.8948177   -8.0174109    484.21694  0.018803081  0.018635353            3 
 2147000   0.88537792   -8.0002873    484.36574  0.018800099   0.01862927            5 
 2148000   0.91032137   -8.0224706    483.79924  0.018769368  0.018623247            7 
 2149000   0.88887089   -8.0485168    484.15868  0.018774573  0.018617165            2 
 2150000   0.90726046   -8.0097929    485.73207  0.018826825   0.01861109            6 
 2151000   0.91388174   -8.0099664    484.40091  0.018766501  0.018605009            3 
 2152000   0.90635255   -8.0235037    483.43545  0.018720394  0.018598936            4 
 2153000   0.91248884   -8.0422361    484.66807  0.018759408  0.018592873            1 
 2154000   0.91016194   -8.0303381    483.68248  0.018712569  0.018586778            2 
 2155000   0.90109402   -8.0447578    483.80462  0.018708609  0.018580574            9 
 2156000   0.90716384   -8.0602794    483.62794  0.018693102  0.018574432            5 
 2157000   0.91687573   -8.0360216      484.877  0.018732692  0.018568298            6 
 2158000   0.91612372   -8.0514297    484.69163  0.018716853  0.018562137            5 
 2159000   0.92487084   -8.0864885    483.05363   0.01864496  0.018555959            4 
 2160000   0.90679481   -8.0335754     484.4022  0.018688356  0.018549756            5 
 2161000   0.90894788    -8.063906    482.30595  0.018598872  0.018543594            7 
 2162000   0.91295882   -8.0398119    485.25619  0.018703985  0.018537398            3 
 2163000   0.89927552   -8.0528432    485.39966  0.018700865  0.018531196            3 
 2164000   0.90675293    -8.038108    484.72057  0.018666072  0.018525056            3 
 2165000   0.90252421   -8.0260538    485.93357   0.01870414  0.018518904            3 
 2166000   0.91413119   -8.0161522    485.80462  0.018690544  0.018512742            2 
 2167000   0.90603951   -8.0742845    483.65421  0.018599224  0.018506551            3 
 2168000   0.92455408   -8.0689663    484.24318  0.018613283  0.018500311            2 
 2169000   0.89187314   -8.0167288    485.44389  0.018650833  0.018494103            3 
 2170000   0.90517125    -8.022139    485.29536  0.018636535  0.018487923            2 
 2171000    0.9083263   -8.0517213    484.54451  0.018599129  0.018481754            2 
 2172000   0.90362021   -8.0691286     484.1991  0.018577314   0.01847552            6 
 2173000   0.90930283   -8.0631974    484.01865  0.018561844  0.018469285            2 
 2174000   0.88782145   -8.0576771    485.48213  0.018609404  0.018463054            3 
 2175000   0.90492791   -8.0293279    484.76756   0.01857347  0.018456892            4 
 2176000   0.89735116    -8.074698    484.78084  0.018565443  0.018450722            1 
 2177000   0.89024445   -8.0246709    485.15239  0.018571137  0.018444501            3 
 2178000   0.91450499   -8.0521814    485.48623  0.018575384  0.018438294            2 
 2179000   0.90431893    -8.027984    484.68015  0.018536031  0.018432045            2 
 2180000   0.91358635   -8.0279081    485.43557  0.018556406  0.018425846            3 
 2181000    0.9080902   -8.0349912    486.60187   0.01859246  0.018419681            2 
 2182000   0.91807126   -8.0461357    484.51061  0.018504071  0.018413524            2 
 2183000   0.90504972    -8.036639     485.6842  0.018540396  0.018407365            2 
 2184000   0.91141908   -8.0367531     486.6913  0.018570333  0.018401232            4 
 2185000   0.91243831   -8.0792328    484.93524  0.018494861  0.018395053            3 
 2186000   0.90899577   -8.1030083    484.25468  0.018460456   0.01838886            5 
 2187000   0.90504479   -8.0836639    486.19411  0.018525915  0.018382635            3 
 2188000   0.91384941   -8.0271936    487.15414  0.018554012  0.018376483            8 
 2189000   0.87671988    -8.072724    485.51794  0.018483247  0.018370347            5 
 2190000   0.90444429   -8.0414424    486.58519  0.018515418  0.018364196            5 
 2191000   0.89812921   -8.0680072    486.29198  0.018495816  0.018358064           18 
 2192000   0.91391427    -8.050664    487.11207  0.018518555  0.018351984            4 
 2193000   0.90905251   -8.0574169    487.32651  0.018518259  0.018345865            4 
 2194000   0.90114421    -8.043587    487.59692   0.01852009  0.018339732            2 
 2195000   0.89458019   -8.0789098    486.87422  0.018484215  0.018333591            1 
 2196000   0.93772826   -8.0268577    487.53809   0.01850099  0.018327478            2 
 2197000    0.9016556   -8.0709394    486.24163  0.018443394  0.018321364            5 
 2198000   0.90650759   -8.0413294    487.96987  0.018500526  0.018315216            2 
 2199000   0.90495887   -8.0901733     486.7903  0.018447412  0.018309068            6 
 2200000   0.90467898   -8.0462916    487.42078  0.018462908  0.018302954            6 
 2201000    0.9084504   -8.0252496    487.75106  0.018467025   0.01829686            3 
 2202000   0.89267476   -8.0332249    487.30307  0.018441685  0.018290775            3 
 2203000   0.90781018   -8.0193345    488.63147  0.018483563  0.018284698            2 
 2204000   0.90518723   -8.0586706    487.64175  0.018437755  0.018278645            5 
 2205000   0.90363351    -8.082995    488.19656  0.018450361  0.018272551            5 
 2206000   0.90151125    -8.053458    486.46228  0.018376484  0.018266411            6 
 2207000   0.88192568   -8.0612323    488.19419  0.018433552  0.018260315           10 
 2208000   0.90287626   -8.0782353    487.29205  0.018391155  0.018254174            3 
 2209000   0.87937918   -8.1069047    486.89044  0.018367679  0.018248013            5 
 2210000   0.89578153   -8.0911157    486.04239   0.01832739  0.018241817            3 
 2211000   0.88613765   -8.0675517    487.95218  0.018391082  0.018235646            2 
 2212000   0.92767921   -8.0839927    487.59622  0.018369357  0.018229559            5 
 2213000   0.90251838   -8.0610995    487.78155  0.018368035  0.018223476            6 
 2214000   0.92518545   -8.0627781    488.48892  0.018386364  0.018217395            4 
 2215000   0.92000587   -8.0474955     489.1247  0.018401983  0.018211348            3 
 2216000   0.87339748   -8.0178184     489.3618  0.018402595  0.018205298            3 
 2217000   0.89647252   -8.0507228    489.12935  0.018385557  0.018199287            8 
 2218000   0.88521617   -8.0458323    489.72647  0.018399702  0.018193276            3 
 2219000   0.90961836   -8.0312688    489.08583  0.018367351  0.018187272           11 
 2220000    0.9107089   -8.0219912    489.84217  0.018387469  0.018181274            3 
 2221000   0.90338063   -8.0367074    488.76998  0.018338961  0.018175228            3 
 2222000   0.89196377     -8.05649    488.90239  0.018335673  0.018169166            2 
 2223000   0.88772515   -8.0613819    488.76518  0.018322282  0.018163104            3 
 2224000   0.89382776   -8.0654809    488.20213  0.018292946  0.018156993            3 
 2225000   0.89103506   -8.1050038     487.5546  0.018260472  0.018150863            1 
 2226000    0.8859569   -8.0501043    488.80034  0.018298905  0.018144765            4 
 2227000   0.90894346   -8.0844957    488.20544  0.018268427  0.018138711            3 
 2228000   0.89674625    -8.084467    488.70943  0.018279078  0.018132593            3 
 2229000   0.87620179   -8.0719872    489.05079  0.018283639  0.018126482            4 
 2230000   0.89110981   -8.0844811    488.74135  0.018263877   0.01812037            1 
 2231000   0.90841531   -8.1023693    489.07309  0.018268082  0.018114316            4 
 2232000   0.88601763   -8.0427929    491.05918  0.018334049  0.018108271            2 
 2233000   0.89289357   -8.0837733    489.56525  0.018270087  0.018102246            3 
 2234000   0.88912749   -8.0863652    489.61797  0.018263875  0.018096205            2 
 2235000   0.90947363   -8.0932454    490.43733  0.018286254   0.01809014            2 
 2236000   0.90443719   -8.0753447    489.38854  0.018238989  0.018084084            2 
 2237000    0.9209872   -8.0602248     491.3034  0.018302168    0.0180781            3 
 2238000   0.89951955   -8.0502632    491.73637  0.018310112    0.0180721            3 
 2239000   0.90620991   -8.0365768    491.36792  0.018288221  0.018066127            4 
 2240000    0.8994825   -8.0201183    491.78021  0.018295395  0.018060188            2 
 2241000   0.88098197   -8.0704283    490.74542  0.018248751  0.018054226            3 
 2242000   0.88722535   -8.0578147    491.55464   0.01827069  0.018048268           12 
 2243000   0.89078098   -8.0458003    491.48285  0.018259877  0.018042369            4 
 2244000   0.88133097   -8.0761441    491.02905  0.018234887   0.01803641            3 
 2245000    0.8682635   -8.0493819    491.72849  0.018252728  0.018030443            3 
 2246000   0.88416236   -8.1104009    490.96242  0.018216178  0.018024478            4 
 2247000   0.87634193   -8.0800802    491.04312  0.018211064  0.018018468            4 
 2248000   0.88792407   -8.0732726    491.10477  0.018205248  0.018012485            9 
 2249000   0.90032972   -8.0905476    490.57133  0.018177387  0.018006494            5 
 2250000   0.88949303   -8.0751487    491.48879  0.018203289  0.018000534            4 
 2251000   0.90231624   -8.0671948    491.87065  0.018209339  0.017994575           10 
 2252000   0.88722248   -8.0993994    491.10697  0.018172993  0.017988608            2 
 2253000    0.8889877   -8.0913794    491.58375  0.018182562  0.017982573            4 
 2254000   0.90409449   -8.0774645     491.7211  0.018179573  0.017976535            8 
 2255000   0.91357185    -8.085695    491.06971  0.018147439   0.01797048            8 
 2256000   0.91044058   -8.0768938    491.98094  0.018173055    0.0179645            3 
 2257000   0.89038595   -8.0811631    491.66332  0.018153276  0.017958515            9 
 2258000   0.89644975   -8.0911606    491.85577  0.018152339  0.017952533            9 
 2259000   0.88462349   -8.0795053    491.72628  0.018139526  0.017946539            6 
 2260000   0.88147495    -8.122656    491.65804  0.018128984  0.017940529            8 
 2261000   0.87634734   -8.0571578    492.80409  0.018163206  0.017934531            6 
 2262000   0.88848699   -8.0692252    492.55672  0.018146063  0.017928545            2 
 2263000   0.89879904   -8.0858456    493.30131  0.018165463  0.017922556            3 
 2264000   0.88766662   -8.0880049    491.61957  0.018095538  0.017916547            3 
 2265000   0.87292713   -8.0961119    492.53489  0.018121225  0.017910562            2 
 2266000   0.88936374   -8.0388719    492.87227  0.018125635  0.017904652            2 
 2267000   0.88135609   -8.0738017    492.55116  0.018105836  0.017898702            2 
 2268000   0.90301359   -8.0966801    491.42365  0.018056425   0.01789267            3 
 2269000   0.89608128   -8.0775338    492.29108  0.018080325  0.017886629            2 
 2270000    0.8888985   -8.1029895    491.29786  0.018035898   0.01788056            1 
 2271000    0.9004673   -8.0796845     492.1246  0.018058293  0.017874524            6 
 2272000   0.88700456   -8.0896928    492.70907  0.018071782  0.017868482            3 
 2273000   0.89353708   -8.0766011    491.98585  0.018037317   0.01786248            7 
 2274000   0.88884129   -8.1045338    493.37624  0.018080337  0.017856533            2 
 2275000   0.89779171   -8.0718793    493.09038  0.018061919  0.017850576            3 
 2276000   0.88669219   -8.1194168    491.93678  0.018011745  0.017844584            4 
 2277000   0.89199849   -8.1141603    492.56757   0.01802692  0.017838559            3 
 2278000   0.88965609   -8.0765711     493.5614  0.018055363  0.017832547            6 
 2279000   0.89052366   -8.0854824    493.48961  0.018044815  0.017826557            4 
 2280000   0.88134901   -8.0820302    492.86845  0.018014198  0.017820575            2 
 2281000   0.87286396   -8.1068018    493.02122  0.018011881  0.017814597            2 
 2282000   0.88375135   -8.0871011    492.54146  0.017986469  0.017808604            3 
 2283000   0.88879302   -8.1231884     492.8856  0.017991152  0.017802592            3 
 2284000   0.90204251   -8.1048604     492.3778  0.017964747    0.0177966            3 
 2285000   0.89152969   -8.0747322    494.32053  0.018027736  0.017790638            5 
 2286000   0.90184964   -8.0858351    491.99123  0.017934938  0.017784635            3 
 2287000   0.87985195   -8.1110856    492.85392  0.017958531  0.017778633            3 
 2288000   0.89117438   -8.1000727    491.63601  0.017906323  0.017772608            2 
 2289000    0.8912657   -8.0640028    494.76159   0.01801229  0.017766658            3 
 2290000   0.88195079   -8.0772174    493.98997  0.017976345    0.0177607            2 
 2291000   0.88726971   -8.0766058    492.29032  0.017906675  0.017754682            2 
 2292000   0.88717723   -8.0787383    493.52327  0.017943691  0.017748709            5 
 2293000   0.88781742    -8.069266    493.19823  0.017924053  0.017742704            3 
 2294000   0.89208034   -8.0695468      493.835  0.017939371  0.017736684            3 
 2295000   0.87655987   -8.1104223    492.89873  0.017897557  0.017730639            8 
 2296000   0.88958477   -8.0822241    492.87418  0.017888871  0.017724625            1 
 2297000   0.88060577   -8.1258008    492.14792  0.017854735  0.017718605            4 
 2298000   0.89010963   -8.0991148    493.59326  0.017899379  0.017712578            3 
 2299000   0.89268088   -8.0866596     495.5504  0.017962535  0.017706525            4 
 2300000   0.89531352   -8.1388472    494.33484  0.017910683  0.017700544            3 
 2301000   0.88183013   -8.1022676    493.51207  0.017873101  0.017694516            4 
 2302000   0.87331682   -8.1155577    494.33689  0.017895196  0.017688554            5 
 2303000   0.89672075   -8.1200502    493.11433  0.017843188  0.017682523            3 
 2304000   0.86739667   -8.1006138    494.75822  0.017894901  0.017676516            6 
 2305000   0.87492373   -8.0800614    494.05676  0.017861777  0.017670537            3 
 2306000   0.89534539   -8.1245378     494.9583  0.017886611  0.017664568            3 
 2307000   0.90370117   -8.1323222    493.51184  0.017826609    0.0176586            4 
 2308000   0.89489045   -8.0798826    494.18533  0.017843202  0.017652626            3 
 2309000   0.87088285   -8.1415932    493.74765  0.017819678  0.017646618            2 
 2310000   0.87394042   -8.1254252    494.28393   0.01783131  0.017640578            2 
 2311000   0.89835976   -8.1079166    494.04426  0.017814952  0.017634579            1 
 2312000   0.86712712    -8.138335     494.4032  0.017820185  0.017628563            3 
 2313000   0.88889049   -8.1423697    494.01662  0.017798552   0.01762256            7 
 2314000   0.88072838   -8.1305172    493.91133  0.017787069  0.017616526            3 
 2315000    0.8837377   -8.1092913    495.76411   0.01784608  0.017610525            3 
 2316000   0.89907381   -8.1490412     494.9248  0.017808175  0.017604574            5 
 2317000   0.89079552   -8.1127067    494.95664  0.017801634  0.017598574            4 
 2318000   0.88800327   -8.1180605    495.69304  0.017820429  0.017592628            3 
 2319000   0.86936704   -8.1144638    495.90021  0.017820189  0.017586673            5 
 2320000   0.89996728   -8.1071375    495.61801  0.017802371  0.017580769            3 
 2321000   0.88074318   -8.0843512    496.50779  0.017826648  0.017574893            4 
 2322000   0.86778402   -8.1306276    495.15947  0.017770581  0.017569001            2 
 2323000   0.88116592   -8.1180641     494.9423  0.017755141  0.017563034            3 
 2324000   0.88839887   -8.1047746    495.12756  0.017754144  0.017557086            2 
 2325000   0.88115333   -8.1206089    496.06563   0.01778013  0.017551125            3 
 2326000   0.87769995   -8.1215084    494.83332  0.017728336  0.017545206            3 
 2327000   0.87959508   -8.1121201     494.4919  0.017708491  0.017539253            2 
 2328000   0.86736948   -8.1463858    495.55212  0.017738836  0.017533263            3 
 2329000   0.90048388   -8.1099491    495.88828  0.017743247  0.017527284            2 
 2330000   0.87725522   -8.1090103    495.24483  0.017712619  0.017521308            8 
 2331000    0.8666001   -8.1140634    495.41747  0.017711192  0.017515353            6 
 2332000   0.88731972   -8.0973515    495.87183  0.017719834  0.017509411            3 
 2333000   0.87311552   -8.1162379    495.11861  0.017685334  0.017503482            5 
 2334000    0.8816661   -8.0999664    496.48225  0.017726444  0.017497571            3 
 2335000   0.87425847   -8.1518394    495.60252  0.017687456  0.017491621            6 
 2336000   0.86365892    -8.135089    495.39842  0.017672604  0.017485632            4 
 2337000   0.87859331    -8.076454    497.11439   0.01772623  0.017479711            7 
 2338000   0.88658305   -8.0944409     495.8974  0.017675271  0.017473808            3 
 2339000   0.86825045   -8.1501958    495.95184  0.017669654  0.017467878            4 
 2340000   0.86725289   -8.1259868    496.42957  0.017679116  0.017461956           11 
 2341000   0.87841198   -8.0859029    496.79958  0.017684735  0.017456061            7 
 2342000   0.89124476   -8.0984051    496.88091  0.017680078  0.017450125            8 
 2343000   0.86977767   -8.1299627    496.44099  0.017656885  0.017444238            2 
 2344000   0.88543702   -8.0813397    497.34977  0.017681661   0.01743834            2 
 2345000   0.88401079   -8.1076735    496.62885  0.017648502  0.017432443            3 
 2346000   0.87193884   -8.1070783    497.45488  0.017670321  0.017426553            2 
 2347000   0.88693864   -8.1381654    495.97373  0.017610202  0.017420656            5 
 2348000   0.87453103   -8.1505121    497.56861  0.017659306  0.017414705            7 
 2349000   0.86964627   -8.1290387    496.50269  0.017613974  0.017408766            4 
 2350000   0.88558633   -8.1623397    496.10007  0.017592201  0.017402848            3 
 2351000   0.88806299   -8.0933884    496.78855  0.017609122  0.017396969            5 
 2352000   0.87929041   -8.1413092     496.4351  0.017589112  0.017391113            3 
 2353000   0.87211438   -8.1152958    497.56494  0.017621651  0.017385244            3 
 2354000   0.87747387   -8.1304446    496.31249  0.017569828  0.017379347            6 
 2355000   0.87185937   -8.1365553    498.58138  0.017642653  0.017373462            3 
 2356000   0.88780913   -8.1128457     497.4714  0.017595904  0.017367563            5 
 2357000   0.87056688   -8.1378924    495.67785  0.017525026   0.01736166            6 
 2358000   0.87978306   -8.1376299     497.9566  0.017598127  0.017355719            4 
 2359000   0.87343491   -8.1038795    497.68696  0.017581142  0.017349823            3 
 2360000   0.86022991   -8.1114125    497.53727  0.017568406  0.017343901            2 
 2361000   0.87222114    -8.131169    497.22587  0.017549974  0.017337978            4 
 2362000   0.88156805   -8.1244322    496.12545   0.01750372  0.017332015            2 
 2363000   0.87555671   -8.1454076    497.24189  0.017535685  0.017326073           13 
 2364000   0.88032447   -8.1303195    498.58413  0.017575583  0.017320159            3 
 2365000   0.88902238   -8.1347903    496.84244  0.017506781  0.017314234            3 
 2366000   0.86738934   -8.0949154    498.15786  0.017545712  0.017308306            8 
 2367000   0.88052267   -8.1673398     497.4495  0.017513361  0.017302366            5 
 2368000   0.86424681   -8.1371685    496.86819  0.017485508  0.017296415            6 
 2369000   0.86300776   -8.1105226    497.67934   0.01750666  0.017290474            1 
 2370000   0.85594813   -8.1061112    498.86709  0.017541037  0.017284579            6 
 2371000   0.85439904   -8.1213768    499.69284  0.017562661  0.017278717            2 
 2372000   0.85240732   -8.0815156    498.36099  0.017508467  0.017272858            6 
 2373000   0.86104174   -8.1303442    497.65641  0.017476345  0.017266975            7 
 2374000    0.8764859   -8.1182141    497.58543  0.017466492  0.017261066            3 
 2375000   0.86917025   -8.1297032    498.48922   0.01749085  0.017255146            3 
 2376000   0.86526784   -8.1224807    498.87892  0.017497156  0.017249218            2 
 2377000   0.88897173   -8.1413587    497.31501  0.017434968  0.017243327            4 
 2378000   0.87239792   -8.1146377    497.43212  0.017431739  0.017237404            9 
 2379000   0.85308375   -8.0943628    499.36577  0.017492146   0.01723152            5 
 2380000   0.88896848   -8.1551898    497.93302   0.01743463   0.01722562            7 
 2381000   0.87457015   -8.1652581    498.76604  0.017456462  0.017219659            3 
 2382000   0.87188118   -8.1604584    497.46821   0.01740373  0.017213693            3 
 2383000   0.88476611   -8.1418563     499.1073  0.017453745  0.017207781            5 
 2384000   0.85588274   -8.1423059    498.38414  0.017421146  0.017201867            3 
 2385000    0.8905189   -8.1129581    500.05805  0.017472329  0.017195943            5 
 2386000   0.88166059    -8.125857    498.49873  0.017410545  0.017190042            5 
 2387000   0.86005039   -8.1178736    498.57176  0.017405801  0.017184116            5 
 2388000   0.87707926    -8.156036    497.73875  0.017369443  0.017178197            4 
 2389000   0.88742571   -8.1634454    498.44224  0.017386711  0.017172267            3 
 2390000   0.84979649   -8.1428387    499.21334  0.017406323  0.017166382            3 
 2391000   0.86669939   -8.1291688    499.65237  0.017414344  0.017160531            5 
 2392000   0.87026988   -8.1646639     497.2992  0.017325084  0.017154616            2 
 2393000   0.85900076   -8.1588993    497.18038  0.017313706  0.017148676            2 
 2394000   0.87543224   -8.1593641    498.22967  0.017342999  0.017142773            2 
 2395000   0.87168407   -8.1707581    497.47533  0.017309511  0.017136818            4 
 2396000   0.87017445   -8.1334438    499.36402  0.017367975  0.017130903            4 
 2397000   0.87119538   -8.1699329    499.69936  0.017372388  0.017125025            5 
 2398000   0.86794298   -8.1426467    499.82435  0.017369487  0.017119129            5 
 2399000   0.84578914   -8.1662247    497.85899  0.017293976  0.017113295           11 
 2400000   0.88651435   -8.1712789    500.38136  0.017374353  0.017107451            4 
 2401000   0.87840705   -8.1354501    500.08106  0.017356694  0.017101644            3 
 2402000   0.86333072   -8.1076574    499.27072  0.017321354  0.017095813            5 
 2403000    0.8826594   -8.1190072    500.38403  0.017352754   0.01708997            4 
 2404000   0.86098868   -8.1752545    499.33584  0.017309201  0.017084134            6 
 2405000   0.87858682   -8.1350208    499.40386  0.017304361  0.017078302            3 
 2406000   0.87252884   -8.1424852    499.79241  0.017310626    0.0170725            8 
 2407000   0.86025367    -8.158063    500.84689  0.017339942  0.017066659            6 
 2408000   0.86545142   -8.1597222    500.08785  0.017306473  0.017060829            3 
 2409000   0.88562972   -8.1327296    500.81389  0.017324405  0.017055024            6 
 2410000   0.87850237   -8.1374156    501.50278  0.017341037  0.017049236            3 
 2411000   0.87381744   -8.1300044    500.37052  0.017294709  0.017043439            3 
 2412000   0.87013329   -8.1165936    500.53821  0.017293332  0.017037647            4 
 2413000   0.86557167    -8.162061     501.5771  0.017322044  0.017031895            4 
 2414000   0.87531316   -8.1144052    502.43997  0.017344655  0.017026154            6 
 2415000   0.87706495   -8.1338734    501.50904   0.01730535  0.017020358            8 
 2416000   0.85217755   -8.1246964    500.29849  0.017256432  0.017014577            8 
 2417000   0.88216416   -8.1226794    500.97529  0.017272628  0.017008795            2 
 2418000   0.86867943   -8.1196416    501.17538   0.01727238  0.017003007            8 
 2419000   0.86550407    -8.142558     501.2122  0.017266508  0.016997216            3 
 2420000   0.86598766   -8.1541788    500.17175  0.017223545  0.016991398            3 
 2421000   0.88071967   -8.1849608    499.76247  0.017202343  0.016985546            6 
 2422000   0.89007847   -8.1071131    500.82596  0.017231832  0.016979715            4 
 2423000   0.86579414   -8.1374391    500.40221  0.017210146  0.016973917            2 
 2424000   0.86162737   -8.1684391      499.159  0.017160307  0.016968111            4 
 2425000   0.86771727   -8.1402253    502.27428  0.017260285  0.016962293            3 
 2426000   0.86338505    -8.152398    501.30867  0.017220001  0.016956501            4 
 2427000   0.86165847   -8.1277987    500.86806  0.017197777  0.016950693            4 
 2428000   0.85970409   -8.1456754    502.30636  0.017240059  0.016944916            5 
 2429000   0.85947288    -8.143253    501.18645   0.01719454  0.016939158            4 
 2430000   0.88063806   -8.1544862    502.71739  0.017239965  0.016933398            2 
 2431000    0.8602477   -8.1551149    501.90811  0.017205132  0.016927636            2 
 2432000   0.86657948   -8.1425196    502.24484  0.017209596   0.01692189            5 
 2433000   0.85129339   -8.1459606     501.3647  0.017172376  0.016916138            1 
 2434000   0.87347893   -8.1796766    501.68379  0.017176246  0.016910352            8 
 2435000   0.85052557   -8.1926072    500.83534  0.017140155  0.016904565            4 
 2436000   0.88190426   -8.1821519    500.54025  0.017123024  0.016898752            4 
 2437000   0.83797017   -8.1827333    501.73771  0.017156945   0.01689295            6 
 2438000   0.85390077   -8.1737499    500.30424  0.017100911  0.016887117            7 
 2439000   0.86459398   -8.1671725    500.67886  0.017106699  0.016881268           10 
 2440000   0.85245082   -8.1456769    501.57576   0.01713032  0.016875399            8 
 2441000   0.85207219    -8.134344    501.66036   0.01712619  0.016869574            3 
 2442000   0.86444152   -8.1910262    502.46667  0.017146692  0.016863811            2 
 2443000   0.86671864   -8.1608219    502.66867  0.017146564  0.016858025            3 
 2444000    0.8487947   -8.1157699     502.6723  0.017139672  0.016852257            2 
 2445000   0.84605608   -8.1629089    501.78079  0.017102276  0.016846475            3 
 2446000   0.86725439   -8.1725877    501.64922  0.017090802  0.016840688            4 
 2447000   0.83820279   -8.1632568    503.16717  0.017135512  0.016834892            5 
 2448000   0.87553256   -8.1810701    501.70695  0.017078804  0.016829107            5 
 2449000   0.84760911   -8.2168511    501.52999  0.017065809  0.016823309            2 
 2450000   0.85185057   -8.1781838    502.47665  0.017091042  0.016817496            4 
 2451000    0.8507946   -8.1513206    502.85233  0.017096842  0.016811694            1 
 2452000   0.85925786    -8.195373    502.10018  0.017064307  0.016805905            5 
 2453000   0.85592849   -8.1992603    501.25233  0.017028548  0.016800103            3 
 2454000   0.85088877   -8.1406013    503.32385  0.017091953  0.016794302            4 
 2455000   0.85888932   -8.1835418    501.94633  0.017038233  0.016788507            9 
 2456000   0.86512985   -8.1617353    502.81328  0.017060711  0.016782709            5 
 2457000   0.84218019   -8.1867071    502.34367   0.01703784  0.016776938            3 
 2458000   0.85098159    -8.212622    501.16333  0.016990891  0.016771144            2 
 2459000   0.85912291   -8.1820737    502.32228  0.017023258  0.016765372            3 
 2460000   0.86264825   -8.1359317    503.73891  0.017064326  0.016759628            3 
 2461000   0.86344424   -8.1916939    502.59284  0.017018584  0.016753897            3 
 2462000   0.87180221   -8.1657613    502.52907  0.017009513  0.016748136            3 
 2463000   0.86529151   -8.2082064    503.14285  0.017023374  0.016742381            9 
 2464000   0.86629443   -8.1857451    503.97873  0.017044735  0.016736641            4 
 2465000   0.83513808   -8.1814844    502.34524  0.016982598  0.016730911            2 
 2466000   0.84635998   -8.1988386    503.96446  0.017030429  0.016725148            1 
 2467000   0.83366247   -8.1627608    503.81871  0.017018603  0.016719402            3 
 2468000   0.85032985   -8.1677168    503.27216  0.016993252  0.016713688            4 
 2469000   0.87056735   -8.1740182    503.13418  0.016981713  0.016707973            3 
 2470000   0.86034233   -8.2028712    502.79447  0.016963376   0.01670223            3 
 2471000   0.85187059   -8.1502546    504.08462  0.017000021  0.016696475            2 
 2472000   0.85738198   -8.1950501    502.11001  0.016926578  0.016690713            6 
 2473000   0.86227384   -8.2045347    502.33314  0.016927252  0.016684938            1 
 2474000   0.86826923    -8.186329    503.23028  0.016950629   0.01667917            3 
 2475000   0.88283388   -8.1753143     503.6663  0.016958461   0.01667341            5 
 2476000   0.85368621   -8.1594832    504.04089   0.01696422  0.016667667            8 
 2477000   0.86154097   -8.1899273     504.3838  0.016968907  0.016661947            5 
 2478000   0.85492278   -8.1867943     503.8494  0.016944088  0.016656236            7 
 2479000   0.87135152   -8.2122722    502.46917  0.016890855  0.016650469            4 
 2480000   0.83999642    -8.177202    504.27716  0.016944797  0.016644674           17 
 2481000   0.85788043   -8.2064661    503.80768  0.016922198  0.016638913           17 
 2482000   0.85251241   -8.2139929    504.34267  0.016933342   0.01663315            9 
 2483000   0.83730168   -8.2188209    504.32631  0.016925974  0.016627408            6 
 2484000   0.85115312   -8.2071711    503.46068  0.016890119  0.016621647            6 
 2485000   0.84562686   -8.2029927    503.20194  0.016874646  0.016615877            8 
 2486000    0.8649255   -8.2025444    503.92126   0.01689197  0.016610125            5 
 2487000   0.86058597    -8.214929    503.25072   0.01686271  0.016604388            7 
 2488000   0.84557426   -8.1982203    503.60467  0.016867788  0.016598667            4 
 2489000     0.878442   -8.1919151     504.2228  0.016881706  0.016592938            4 
 2490000   0.84350515     -8.19382    503.06796  0.016836277  0.016587238            4 
 2491000   0.85409785   -8.2100674     503.5735  0.016846431  0.016581518            3 
 2492000   0.86196731   -8.1841145    504.43666  0.016868535  0.016575802            5 
 2493000   0.87186388   -8.1865174    504.44316  0.016861986   0.01657013            5 
 2494000   0.85056814   -8.1963861    503.66722  0.016829298  0.016564447            4 
 2495000   0.85976448   -8.2156316    505.04796  0.016868669  0.016558726            8 
 2496000   0.85043157   -8.1935363    503.67628  0.016816115   0.01655304            2 
 2497000   0.84918153   -8.2000683    504.34001  0.016831532   0.01654735            6 
 2498000   0.85100351   -8.2231983    503.79149  0.016806495  0.016541637            3 
 2499000   0.85166078   -8.1806145    504.74433  0.016831544  0.016535938            5 
 2500000   0.83648266   -8.2052975    504.76845  0.016825615  0.016530245            2 
 2501000   0.85692965   -8.1888543    505.36945  0.016838913   0.01652456            5 
 2502000   0.86250754   -8.2058121    504.30119  0.016796602  0.016518875            9 
 2503000   0.85035812   -8.2052188    505.52643  0.016830684  0.016513193            9 
 2504000   0.85771028   -8.1958252    504.58544  0.016792646  0.016507519            7 
 2505000   0.84334151   -8.2034502    504.66737  0.016788668  0.016501836            3 
 2506000    0.8509959   -8.1603608    506.59841  0.016846183  0.016496168            2 
 2507000   0.85702695   -8.2040341    504.67039  0.016775375  0.016490492            8 
 2508000   0.84652049   -8.2114584    504.73716  0.016770905  0.016484768            5 
 2509000   0.87738802    -8.187613    506.38883  0.016819079  0.016479088            6 
 2510000   0.85065713   -8.1985735    504.44687  0.016747904  0.016473404            5 
 2511000   0.83182051   -8.2127707    504.78596  0.016752488  0.016467741            7 
 2512000   0.83480766   -8.1703192    506.58499    0.0168055  0.016462075            3 
 2513000   0.85080728   -8.2298729    504.35732  0.016724941  0.016456436            5 
 2514000   0.87413384   -8.2184614    504.81813  0.016733563   0.01645076            3 
 2515000   0.83661044   -8.2196546    505.65782  0.016754732  0.016445091            6 
 2516000   0.86110583   -8.1914658    504.41145  0.016706791  0.016439408            2 
 2517000   0.83727666   -8.1798933    505.58466  0.016738997  0.016433748            2 
 2518000   0.84763479    -8.221909    505.67332  0.016735283   0.01642805            4 
 2519000   0.86055203    -8.201497    505.84153  0.016734204  0.016422342            3 
 2520000    0.8231472   -8.2170384    504.84864   0.01669473  0.016416642           14 
 2521000   0.82270395   -8.2156019    505.74064  0.016717593  0.016410929            9 
 2522000   0.84469512   -8.2098104    505.65305  0.016708071  0.016405225           17 
 2523000   0.83654979    -8.213598    503.46793  0.016629275  0.016399493            4 
 2524000   0.85630701   -8.2250382    505.04866  0.016674877  0.016393779           10 
 2525000   0.85874436   -8.2213473    503.90144  0.016630411  0.016388063            6 
 2526000    0.8446096   -8.2464349    504.30891  0.016637269  0.016382372            4 
 2527000   0.85251965   -8.2257467      504.899  0.016650145  0.016376677            5 
 2528000   0.85666109   -8.2131042    507.27199  0.016721782  0.016371029            6 
 2529000   0.85911865   -8.2487286    505.42317   0.01665425  0.016365333            4 
 2530000   0.84069884   -8.2010977     505.7654  0.016658939   0.01635965            3 
 2531000   0.84595094   -8.2261133    505.95319   0.01665854   0.01635396            4 
 2532000   0.84111785   -8.2085789    505.49229  0.016636792  0.016348273            2 
 2533000   0.83969962   -8.1849358    505.57968  0.016633099  0.016342638            5 
 2534000   0.85354826   -8.1930361    506.98321  0.016672692  0.016337022            5 
 2535000   0.84168377   -8.1948885    506.81411  0.016660556  0.016331401            5 
 2536000   0.85274599   -8.1761226    505.73283  0.016618455  0.016325756            4 
 2537000   0.86340347   -8.1909766    506.92697  0.016651129  0.016320122            2 
 2538000   0.84163577   -8.1936406    505.87614  0.016610065  0.016314483            6 
 2539000   0.83264645   -8.1915953    507.49857  0.016656773  0.016308841            2 
 2540000   0.85137078   -8.1869978    506.49527  0.016617299  0.016303218            3 
 2541000    0.8335696   -8.1790274    507.60726  0.016647227  0.016297582            2 
 2542000   0.84174879   -8.2255545    506.92698  0.016618377   0.01629194            6 
 2543000   0.83526549   -8.2047963    505.77945  0.016574238  0.016286286            6 
 2544000   0.82317114   -8.2046624    505.62758  0.016562748  0.016280591            7 
 2545000   0.84755479   -8.2093002    506.54392  0.016586245  0.016274896            3 
 2546000   0.84170686   -8.2145674    506.48417  0.016577775  0.016269253            6 
 2547000   0.85863731    -8.204372    506.75469  0.016580117  0.016263616            3 
 2548000   0.83442319   -8.2164504    506.04152  0.016550285  0.016257941            4 
 2549000   0.84118488   -8.2391866    505.22301  0.016517033  0.016252282            6 
 2550000   0.85329412   -8.1933985    506.09033    0.0165389   0.01624661           13 
 2551000   0.83614442   -8.1920951    507.79573  0.016588127  0.016240996            5 
 2552000   0.85652675   -8.2460095    507.05361  0.016557393  0.016235384           10 
 2553000   0.85951316   -8.2073148    507.79405  0.016575077  0.016229763            5 
 2554000   0.82351517   -8.2089316    507.39914  0.016555702  0.016224164           10 
 2555000   0.85591546    -8.224049    506.87052   0.01653198  0.016218541            7 
 2556000   0.84273334   -8.2179539     508.0256  0.016563172  0.016212904            7 
 2557000   0.83460279   -8.2017065    508.22857  0.016563309  0.016207279           10 
 2558000   0.82680345   -8.2188662    508.06028  0.016551351   0.01620166            3 
 2559000   0.85182317   -8.2653403    505.78437  0.016470769  0.016196015            2 
 2560000   0.85197353    -8.272702    505.49804  0.016455014  0.016190384            3 
 2561000   0.84702668   -8.2000099    507.52023   0.01651439  0.016184747            2 
 2562000   0.85095247   -8.2243943    506.27378  0.016467401  0.016179129            4 
 2563000   0.82580147   -8.2259284    507.61129  0.016504464  0.016173486            5 
 2564000   0.84612497   -8.1974897    507.40467  0.016491311  0.016167848            3 
 2565000   0.86608544   -8.1945412     508.1884  0.016510344   0.01616224           11 
 2566000   0.84326867   -8.2091051    507.05125   0.01646698  0.016156649            3 
 2567000   0.83401275   -8.2329996    506.99276  0.016458667  0.016151065            4 
 2568000   0.84519924    -8.228491    506.14129  0.016424627  0.016145478            3 
 2569000   0.81931589   -8.2200239    508.20936  0.016485317  0.016139894            4 
 2570000   0.83612083   -8.2223043    507.64437  0.016460583  0.016134317            3 
 2571000   0.84236351   -8.2475069    506.57229  0.016419431  0.016128725            2 
 2572000   0.82185479    -8.226237    507.57486  0.016445531  0.016123131            6 
 2573000    0.8498238   -8.2372155    507.47755  0.016435987  0.016117532            5 
 2574000   0.81427112   -8.2211217    507.26943  0.016422864  0.016111918            2 
 2575000   0.85941116   -8.2333016    508.30823  0.016450105  0.016106324            7 
 2576000   0.82331117   -8.2078385    507.66299  0.016422845  0.016100714            4 
 2577000   0.83657046   -8.2381893     507.9169  0.016424683  0.016095078            3 
 2578000    0.8261796   -8.2214655    507.30316  0.016398473  0.016089478            6 
 2579000   0.85641605   -8.2203837    508.46854  0.016429771  0.016083917            2 
 2580000   0.82160908   -8.1750959    508.51916  0.016425037  0.016078363            6 
 2581000   0.83286229   -8.1779124    509.79385   0.01645983  0.016072795            4 
 2582000   0.83948198    -8.232301    507.69339  0.016385663  0.016067238            2 
 2583000     0.835942   -8.1983636    509.60423  0.016440968  0.016061677            4 
 2584000   0.85103983   -8.2488283    509.17588  0.016420791  0.016056089            8 
 2585000   0.84357437   -8.2360379    508.73275  0.016400153  0.016050507            3 
 2586000   0.83696619   -8.2294701    508.89543  0.016399053  0.016044953            3 
 2587000   0.84514633   -8.1949832    509.09011  0.016398986  0.016039402            2 
 2588000   0.84364404   -8.2144887    509.15891  0.016394864  0.016033866            2 
 2589000   0.83302082   -8.2443977    509.14769  0.016388171  0.016028314            3 
 2590000   0.83912049   -8.2288064    508.67303  0.016366571  0.016022757            5 
 2591000   0.83009072   -8.2527253    508.37473   0.01635066  0.016017198            2 
 2592000   0.85907287   -8.2206814      509.023  0.016365194  0.016011616            4 
 2593000   0.85011386   -8.2239833    508.41534  0.016339354  0.016006084            7 
 2594000   0.86005288   -8.2294535    509.21494  0.016358743  0.016000526            3 
 2595000   0.85020991   -8.2458748    508.32839  0.016323969  0.015994976            8 
 2596000    0.8294882    -8.224543    508.95276  0.016337723   0.01598941            8 
 2597000    0.8317998   -8.2597564    508.88652  0.016329307  0.015983824           14 
 2598000    0.8235919   -8.2458889    509.26717  0.016335231  0.015978239            6 
 2599000   0.84117627   -8.2439495    508.90801   0.01631743   0.01597265            9 
 2600000   0.83778036   -8.2243104    508.40516  0.016295037   0.01596706            3 
 2601000   0.83058537   -8.2641919    507.57654  0.016262224  0.015961479            4 
 2602000   0.82095186   -8.2462986    508.22794  0.016276836  0.015955889            6 
 2603000   0.84983024   -8.2321987    509.72453  0.016318496  0.015950313            7 
 2604000   0.82450369   -8.2508419    507.99798  0.016256976  0.015944725            6 
 2605000   0.85828346   -8.2277689    508.19463  0.016257026   0.01593916            5 
 2606000   0.83556365   -8.2437338    509.39327  0.016289117  0.015933571            1 
 2607000    0.8442007   -8.2730188    506.46865  0.016189383  0.015927961            3 
 2608000   0.81816465   -8.2672726     508.5888   0.01625092  0.015922328            2 
 2609000   0.83962576   -8.2173952    508.83867  0.016252672  0.015916729            4 
 2610000   0.85017213   -8.2742874    507.27344   0.01619647  0.015911127            3 
 2611000   0.83029604   -8.2715848    508.34622  0.016224506  0.015905491            2 
 2612000   0.82590839   -8.2658275    507.90883   0.01620434  0.015899878            3 
 2613000   0.82699538   -8.2754729    508.92187  0.016230446  0.015894252            3 
 2614000   0.82892388     -8.29159    507.67274  0.016184415  0.015888633            4 
 2615000   0.84044819   -8.2593935    508.99798  0.016220458  0.015883026            3 
 2616000    0.8384199   -8.2577438    507.94083  0.016180582   0.01587745            6 
 2617000    0.8271099   -8.2709643    508.15048  0.016181075  0.015871854            2 
 2618000   0.82705945    -8.268078    508.70397  0.016192513  0.015866266            5 
 2619000   0.83489291   -8.2467851    508.43537  0.016177783  0.015860678           10 
 2620000   0.83140654    -8.260698    508.95945  0.016188278   0.01585514            9 
 2621000   0.85242425   -8.2421598    509.51584  0.016199791    0.0158496            4 
 2622000   0.83560041   -8.2357664     508.6963  0.016167566  0.015844068            5 
 2623000   0.83358566   -8.2573031    509.74441  0.016194701  0.015838513            3 
 2624000   0.83390083   -8.2469878    508.92754  0.016162587  0.015832936            4 
 2625000   0.82161212   -8.2576474    508.58937  0.016145694  0.015827367            7 
 2626000   0.83705492   -8.2336079    510.43464  0.016198104  0.015821813            5 
 2627000   0.81591045   -8.2596384    510.43728  0.016192021   0.01581625            7 
 2628000     0.825552   -8.2188612    510.45399   0.01618639  0.015810697            4 
 2629000   0.83793573   -8.2661314    510.26346  0.016174194  0.015805159            7 
 2630000    0.8340974   -8.2447705    509.32979   0.01613846  0.015799627            7 
 2631000   0.82808183   -8.2336551    510.03831  0.016154767  0.015794074            4 
 2632000   0.82941117    -8.233738    509.39355  0.016128215  0.015788534            7 
 2633000   0.82807009   -8.2665264     509.2046   0.01611611  0.015783007            3 
 2634000   0.81103198   -8.2597509    508.27978  0.016080732  0.015777457           13 
 2635000    0.8309109   -8.2432556    510.02574  0.016129846  0.015771925           10 
 2636000   0.83410473   -8.2596889    509.93473   0.01612085  0.015766431            5 
 2637000   0.82472986   -8.2583325     510.3122  0.016126665  0.015760961            3 
 2638000   0.83316561   -8.2304063    510.50116  0.016126521   0.01575547            9 
 2639000   0.83984143    -8.276001    509.69578  0.016094979  0.015749955            4 
 2640000   0.79830003   -8.3048494    509.44973  0.016081115  0.015744443           11 
 2641000   0.83786832   -8.2829198    510.06997  0.016094597  0.015738906            5 
 2642000    0.8227124   -8.2764072    511.11791  0.016121559   0.01573338            3 
 2643000   0.81974805   -8.2791586    509.90178  0.016077115   0.01572787            5 
 2644000   0.80463673   -8.2502429    510.61824  0.016093616  0.015722367            2 
 2645000    0.8336109   -8.2753274      510.059  0.016069912  0.015716853            3 
 2646000    0.8085134   -8.2519612     510.6365  0.016082026   0.01571133            1 
 2647000   0.83747642   -8.2625201    511.89671  0.016115625  0.015705826            7 
 2648000   0.82987341   -8.2780321    510.12551  0.016053799  0.015700294            3 
 2649000   0.81487329   -8.2430383    510.34785  0.016054733  0.015694752            2 
 2650000   0.83788783   -8.2910713    509.41565   0.01601936  0.015689212            4 
 2651000   0.82709526   -8.2828337    510.27256  0.016040254  0.015683687            6 
 2652000   0.80855194   -8.2472259    509.78469  0.016018875   0.01567816            4 
 2653000   0.82206073   -8.2971495    509.59752  0.016006958   0.01567265            1 
 2654000   0.82530236   -8.2859476    508.21312  0.015957458  0.015667127            3 
 2655000   0.83907715   -8.2961379    510.06168  0.016009469  0.015661629            4 
 2656000   0.83165732   -8.2787422    509.17006  0.015975466  0.015656108            4 
 2657000   0.82605966   -8.2742541     510.9464  0.016025166  0.015650551           11 
 2658000    0.8471287   -8.2488152    510.78052  0.016013937  0.015645029            9 
 2659000   0.84169845   -8.3105851    510.23711  0.015990884  0.015639472            3 
 2660000   0.81692492   -8.2672124    511.31053    0.0160185  0.015633916            7 
 2661000   0.82602807   -8.2784475    508.64798  0.015929099  0.015628407            2 
 2662000   0.82624879   -8.2815612    509.93354  0.015963359  0.015622894            8 
 2663000   0.83029698   -8.2652283    511.33773  0.016001306  0.015617371            3 
 2664000   0.83153636   -8.2502449     511.8227   0.01601047  0.015611873            6 
 2665000   0.82705236   -8.2813416    509.50512  0.015931993  0.015606377            6 
 2666000   0.82666195    -8.289397    510.28185  0.015950295  0.015600863            8 
 2667000   0.82701866   -8.2811979     510.1992  0.015941732  0.015595334            5 
 2668000   0.83725309   -8.2872101     510.1556  0.015934395  0.015589829            3 
 2669000   0.80604477   -8.3035629    510.97808  0.015954105  0.015584331            5 
 2670000   0.81827958   -8.2919355    510.42466  0.015930857  0.015578815            3 
 2671000   0.82660069   -8.2662383    510.07287  0.015913917  0.015573308            3 
 2672000   0.81922026    -8.250989    510.56142  0.015923198  0.015567818            5 
 2673000   0.82983752   -8.2728308    511.02527  0.015931702  0.015562312            2 
 2674000   0.80901586   -8.2483719    511.90074  0.015953027  0.015556812            5 
 2675000   0.81149517   -8.2750987    510.65223  0.015908169  0.015551333            6 
 2676000   0.83050959   -8.2596118    510.63686  0.015901746  0.015545852            7 
 2677000   0.82216508   -8.2593007    510.32097  0.015885972  0.015540336           10 
 2678000   0.81454036   -8.2682621    511.33082  0.015911464  0.015534843            6 
 2679000   0.81713991   -8.2498501    511.33344  0.015905607  0.015529329            4 
 2680000   0.82304748   -8.2697194    511.07943  0.015891773  0.015523838            4 
 2681000   0.84312031   -8.2942822    511.86853  0.015910373  0.015518339            4 
 2682000   0.82430279   -8.2900087    511.09174  0.015880305  0.015512894            5 
 2683000   0.84209607   -8.2952081    510.41651  0.015853414  0.015507386            4 
 2684000   0.82260649   -8.2586374    510.52248  0.015850797  0.015501889            7 
 2685000   0.82023604   -8.2890182    510.47222  0.015843334    0.0154964            2 
 2686000    0.8116208   -8.2781584    511.78807   0.01587826  0.015490926            6 
 2687000   0.81373341   -8.2438174    512.27856  0.015887562  0.015485452            5 
 2688000   0.80446505   -8.2856373    511.12498  0.015845888  0.015479999            5 
 2689000   0.80387397   -8.2543201    512.11153  0.015870569  0.015474516            5 
 2690000   0.82134285   -8.2793623    511.04044  0.015831488  0.015469017            3 
 2691000   0.83619528   -8.3077021    510.60725   0.01581219  0.015463475            3 
 2692000   0.83625505   -8.2999851    510.27107   0.01579591  0.015457944            6 
 2693000   0.82167036   -8.2656904    511.11279  0.015816091  0.015452402            4 
 2694000   0.80704367   -8.3038542    510.63294  0.015795377  0.015446854            6 
 2695000   0.80529181   -8.3039745    510.79061  0.015794391  0.015441339            4 
 2696000   0.86109432   -8.2961441    511.56375   0.01581243   0.01543585            3 
 2697000   0.81354762   -8.2808724    512.33607  0.015830431  0.015430364            3 
 2698000   0.83620471    -8.268087    513.02351  0.015845797  0.015424906            6 
 2699000   0.82791778   -8.2837892    510.67917  0.015767543  0.015419441            4 
 2700000   0.81890477   -8.2850065    511.11696  0.015775215  0.015413946            3 
 2701000   0.82312936   -8.3057696    511.00087  0.015765793  0.015408438            8 
 2702000   0.82059014   -8.3115503    511.64741  0.015779898  0.015402902            2 
 2703000   0.82291606   -8.2995007    510.57345   0.01574095  0.015397382            3 
 2704000   0.81337825    -8.288793    510.24838   0.01572511  0.015391863            8 
 2705000   0.82337669   -8.2726689    511.27164  0.015750821  0.015386359            4 
 2706000   0.81711694   -8.2884288    510.71132  0.015727745  0.015380846            4 
 2707000   0.82537235   -8.3065063    511.06529  0.015732831  0.015375308            4 
 2708000   0.81671706   -8.2991415    511.19584  0.015731039  0.015369755            6 
 2709000   0.81497157   -8.3188174    510.84231  0.015714357  0.015364211            4 
 2710000   0.80237791   -8.2705812    510.71878   0.01570476  0.015358671            4 
 2711000   0.81501427   -8.3106813    509.40919  0.015658711  0.015353135            4 
 2712000   0.82783387   -8.2922732    511.41489  0.015714568  0.015347585            4 
 2713000    0.8308185    -8.318306    510.68684  0.015686412  0.015342025            5 
 2714000   0.80964291   -8.3443974    509.37388  0.015640318  0.015336502            4 
 2715000   0.81427908   -8.3439156    509.85611  0.015649359  0.015330968            5 
 2716000   0.81728526   -8.3163614    510.99659   0.01567859   0.01532544            9 
 2717000   0.81364897   -8.2831102    512.01142  0.015703945  0.015319926            3 
 2718000   0.81981769   -8.3010327    511.70179  0.015688674  0.015314421            3 
 2719000    0.8028767   -8.3049777    511.40524  0.015673815  0.015308911            8 
 2720000    0.7903459   -8.3096591    511.08018  0.015658094  0.015303392            5 
 2721000   0.82720642   -8.3289771    510.56008  0.015636411  0.015297876            5 
 2722000   0.82208692   -8.3051756    511.72954  0.015666469  0.015292357            6 
 2723000   0.81105938    -8.312395    509.99384  0.015607597  0.015286836            7 
 2724000   0.81112947   -8.2999307    511.36955  0.015643953  0.015281337            4 
 2725000   0.81858346    -8.299369    512.70603  0.015679083  0.015275835            4 
 2726000   0.80823869   -8.3170765    510.06062  0.015592462  0.015270328            4 
 2727000    0.8136786   -8.3175238    510.38285  0.015596591  0.015264827            5 
 2728000   0.82006537   -8.3035899    511.72728  0.015631943  0.015259355            4 
 2729000   0.82508071   -8.2816132    511.11278   0.01560745  0.015253864            5 
 2730000   0.80224417   -8.3234134    511.92734  0.015626598  0.015248384            7 
 2731000   0.81773237    -8.314815    510.95663  0.015591256  0.015242925            6 
 2732000   0.82145718   -8.2922317    512.02523  0.015618144   0.01523745            4 
 2733000   0.82523922   -8.2930124    511.86896  0.015607664  0.015231989            5 
 2734000   0.80488708   -8.2878747    511.16029  0.015580355  0.015226518            3 
 2735000   0.82525774   -8.3220507    510.77471   0.01556291  0.015221056            3 
 2736000   0.80151761   -8.2748527    513.40111  0.015637217  0.015215587            2 
 2737000   0.80915306   -8.3144419    511.03816  0.015559559  0.015210138           13 
 2738000   0.81520284   -8.2843986    512.87148  0.015609675  0.015204667            3 
 2739000   0.81264882   -8.3004339    512.09583  0.015580377  0.015199163           13 
 2740000   0.81523906   -8.3339407    511.29215  0.015550248  0.015193664            7 
 2741000   0.81687427   -8.3554397    511.28558  0.015544375  0.015188157            5 
 2742000   0.80780277   -8.3291205    511.11661  0.015533571  0.015182673            3 
 2743000   0.81166167   -8.3377379    511.29196  0.015533235  0.015177195            2 
 2744000   0.82385196   -8.2909428    512.08646  0.015551703  0.015171709            2 
 2745000   0.82496978   -8.3122013    511.96065  0.015542218  0.015166227            6 
 2746000   0.81283033   -8.3051653    511.80399  0.015531804   0.01516074            4 
 2747000    0.8108942   -8.3251615    510.96335  0.015500648   0.01515527            4 
 2748000   0.79942135   -8.3042551    510.58029  0.015483391  0.015149797            4 
 2749000   0.81869686   -8.3025346    511.67611  0.015510977  0.015144285            6 
 2750000   0.83074676   -8.3233003    510.90962   0.01548211  0.015138772            2 
 2751000   0.80928274   -8.3247898    511.84746  0.015504891  0.015133274            4 
 2752000   0.80260007   -8.3325861    511.48866  0.015488392  0.015127765            4 
 2753000   0.81858213   -8.3179716    511.53771  0.015484251   0.01512227            9 
 2754000   0.82837879   -8.3617348    511.27972  0.015470822   0.01511676            7 
 2755000   0.81120503   -8.3435743    511.27861  0.015465173  0.015111255            4 
 2756000   0.81168876   -8.3609073    511.00061  0.015451155  0.015105735            9 
 2757000   0.81667799    -8.360428    511.24742  0.015453011  0.015100217            9 
 2758000   0.80889392   -8.3410002    511.66282   0.01545996  0.015094747            4 
 2759000    0.8203324   -8.3060307    512.65143  0.015484216  0.015089252            3 
 2760000    0.8067794   -8.3239296    511.73942   0.01545107  0.015083788            3 
 2761000   0.81485901   -8.3047461    512.06429  0.015455279  0.015078355            3 
 2762000   0.80294905   -8.3112062    512.04385  0.015449066  0.015072924            9 
 2763000   0.79742697    -8.308612    512.63865  0.015461414  0.015067491           10 
 2764000   0.80483995   -8.2969528    512.02011  0.015437172  0.015062074            4 
 2765000   0.83495866   -8.3175799    513.21244  0.015467524   0.01505667            6 
 2766000   0.80030047   -8.3273696    512.88415  0.015452041  0.015051281            2 
 2767000   0.81626041   -8.3605377    511.75981  0.015412595  0.015045887            5 
 2768000   0.80220829   -8.3232463    512.58612  0.015431904  0.015040475            3 
 2769000   0.81614713    -8.309141     512.4148  0.015421175  0.015035098            2 
 2770000   0.80315656    -8.345723    511.99711  0.015403042  0.015029707            5 
 2771000   0.81453084    -8.322099    512.64463  0.015416956  0.015024292            4 
 2772000   0.80318561   -8.3082907     513.1614   0.01542693  0.015018894            3 
 2773000   0.80087162    -8.309321    514.18103  0.015452008  0.015013487            3 
 2774000   0.79588944   -8.3321077    512.67689  0.015401252  0.015008068            5 
 2775000   0.78733928   -8.3622073    512.89011  0.015402105   0.01500265           17 
 2776000   0.78815873   -8.3370947    513.34863  0.015410321  0.014997224            8 
 2777000    0.8044762   -8.3603562     513.6439  0.015413633  0.014991819           11 
 2778000   0.80147103   -8.3878783    512.57808  0.015376112  0.014986409            4 
 2779000   0.80996242   -8.3467731    513.04782  0.015384665  0.014980995            9 
 2780000   0.81007828   -8.3196368     511.8397  0.015342917  0.014975597           12 
 2781000   0.80481604   -8.3481754    512.51007  0.015357487  0.014970203            8 
 2782000    0.7991443   -8.3483105    513.47531   0.01538088   0.01496483            2 
 2783000   0.80618779   -8.3200338    513.96838  0.015390118  0.014959478            2 
 2784000   0.80893047   -8.3188479    512.73815  0.015347765  0.014954118            6 
 2785000   0.79044951   -8.3548548    513.04172  0.015351338  0.014948712            2 
 2786000   0.82301522   -8.3485009    513.25117  0.015352093  0.014943337            6 
 2787000   0.80599457     -8.36394    513.49326  0.015353823  0.014937939            7 
 2788000   0.82355111   -8.3602903    513.03588  0.015334645  0.014932556            4 
 2789000   0.80423864   -8.3197711    513.62915  0.015346873  0.014927192            4 
 2790000   0.78860095   -8.3653686    513.24161  0.015329797  0.014921818            3 
 2791000   0.81041636   -8.3528495    512.27918  0.015295568  0.014916428            3 
 2792000   0.81469443   -8.3410513    513.54299  0.015327811  0.014911058            3 
 2793000   0.81424648   -8.3654935     513.2453  0.015313441  0.014905677            5 
 2794000   0.79546845   -8.3461597    514.69583  0.015351224  0.014900307            7 
 2795000   0.80657122   -8.3305811     513.5894  0.015312743  0.014894951            4 
 2796000   0.81145719   -8.3441168     513.5905  0.015307299  0.014889585            7 
 2797000   0.80971955   -8.3535553    512.86391  0.015280178  0.014884217            3 
 2798000   0.79538009   -8.3725922    512.69381  0.015269651  0.014878874            6 
 2799000   0.78073347   -8.3790875    512.53785  0.015259552  0.014873494            5 
 2800000   0.80619855   -8.3450482    513.50862  0.015282995  0.014868128            6 
 2801000   0.80888398   -8.3484643    513.30065  0.015271351  0.014862758            5 
 2802000   0.78191358   -8.3659189    513.16021  0.015261724  0.014857362            3 
 2803000   0.79866475   -8.3810134    512.66445   0.01524154  0.014851951            7 
 2804000   0.78724107   -8.3389774    512.76123  0.015238981  0.014846572            7 
 2805000   0.79553954   -8.3445984    514.10973  0.015273611  0.014841202            6 
 2806000    0.8115141   -8.3399137    513.81952  0.015259549   0.01483583            7 
 2807000    0.8214431   -8.3622841    511.90403  0.015197246  0.014830445            6 
 2808000   0.79963564    -8.365381    512.33822  0.015204719  0.014825035           12 
 2809000   0.78340082   -8.3497516     513.4634  0.015232687  0.014819617            5 
 2810000   0.78111188   -8.3731255    513.05939  0.015215284  0.014814214           11 
 2811000    0.7960264   -8.3669141     513.1325  0.015212039  0.014808816            8 
 2812000   0.78610057    -8.341789    512.19048  0.015178713  0.014803438            3 
 2813000   0.80026528   -8.3455951    513.15207  0.015201803  0.014798053            2 
 2814000   0.80291037   -8.3577081    513.58518  0.015209227  0.014792686            6 
 2815000   0.80999302   -8.3414973    513.32988  0.015196266  0.014787322            4 
 2816000   0.80496453   -8.3737604    512.13656  0.015155556  0.014781955            3 
 2817000   0.78372575   -8.3124862     514.0187  0.015205854  0.014776619            4 
 2818000   0.81053893   -8.3670631    513.08136   0.01517274  0.014771266            6 
 2819000   0.79974175   -8.3271109    512.60482   0.01515327  0.014765873            5 
 2820000   0.77955993   -8.3554481    512.57829  0.015147113  0.014760463            5 
 2821000   0.79764895   -8.3558896    513.81691  0.015178332  0.014755096           11 
 2822000    0.8169403   -8.3444241    513.09794  0.015151723  0.014749742            7 
 2823000   0.80662342   -8.3479538    512.72277  0.015135281  0.014744387            5 
 2824000   0.79088059   -8.3524335    513.41075  0.015150223  0.014739035            9 
 2825000   0.78811332   -8.3605356    512.38527   0.01511461  0.014733693            5 
 2826000   0.81039451   -8.3494768    514.49942  0.015171604  0.014728338            6 
 2827000   0.81893335    -8.407182    512.90113  0.015119123  0.014722971            6 
 2828000   0.79682786   -8.3859194     513.6973  0.015137238  0.014717614            9 
 2829000   0.80422432   -8.3800355    512.88995  0.015108105  0.014712259            6 
 2830000   0.79712618   -8.3927969     513.2011  0.015111929  0.014706904            9 
 2831000   0.79261445   -8.3605179    514.00987  0.015130398  0.014701531           10 
 2832000   0.81187896   -8.3807079    512.71913  0.015087074  0.014696186            6 
 2833000   0.79317382   -8.3706245    513.08152  0.015092409  0.014690817            4 
 2834000   0.80805907   -8.3657777    513.89443  0.015110986  0.014685471            7 
 2835000   0.78113834   -8.3547662    513.14385  0.015083593  0.014680125            5 
 2836000   0.80502869   -8.3623462    513.41923  0.015086367  0.014674802           26 
 2837000   0.78307062   -8.3083556    515.38123   0.01513868  0.014669484           14 
 2838000   0.77465224   -8.3499523    514.22841  0.015099495  0.014664159           14 
 2839000   0.79733538   -8.3545167    513.73543  0.015079706  0.014658833            5 
 2840000    0.8152316   -8.3511526    513.55008  0.015068958  0.014653502           15 
 2841000   0.79563989   -8.3947955    513.15506  0.015052067  0.014648174            6 
 2842000   0.80199117   -8.3910255     513.1844  0.015047631  0.014642845            9 
 2843000   0.81598989   -8.3856993    513.84591  0.015061728  0.014637497            6 
 2844000   0.78500227   -8.3727292    514.27459  0.015068993  0.014632165            8 
 2845000   0.79871669   -8.3620414    513.68026  0.015046288  0.014626815            6 
 2846000   0.78394301   -8.3648014    513.10054  0.015024026  0.014621476            8 
 2847000   0.78634998     -8.38686    513.54717  0.015031822  0.014616153            5 
 2848000   0.79963519   -8.3632116    512.74017  0.015002931  0.014610808            7 
 2849000   0.81225512    -8.334771     514.6587  0.015053782  0.014605481            4 
 2850000   0.79592856    -8.405902    512.92404  0.014997779  0.014600159            4 
 2851000   0.80989228   -8.3650583    514.04011  0.015025141  0.014594825            3 
 2852000   0.78727134   -8.3575909    513.90497  0.015015924  0.014589496            6 
 2853000   0.78296413   -8.3712616    513.99715  0.015013353  0.014584163            3 
 2854000   0.80701194   -8.3543914    513.80246  0.015002408  0.014578831            3 
 2855000   0.78883688   -8.3814181    512.67571  0.014964265  0.014573499            3 
 2856000    0.7998208   -8.3802422    514.15848   0.01500229  0.014568174           10 
 2857000    0.8161118   -8.3972819    513.75811  0.014985361  0.014562819            7 
 2858000   0.78856738   -8.3884536    513.67199  0.014977606  0.014557485            3 
 2859000   0.78395903   -8.3719677    513.53829  0.014968471  0.014552179            1 
 2860000   0.80517409   -8.3498532    514.14873  0.014981024  0.014546863            4 
 2861000   0.80018875   -8.3702051    514.26899   0.01497929   0.01454158            2 
 2862000   0.78285847   -8.3807275    513.24002  0.014944096  0.014536287            5 
 2863000    0.7845842   -8.3472565    513.93687  0.014959159     0.014531            5 
 2864000   0.78056322   -8.3579462    514.43465   0.01496842  0.014525703            5 
 2865000    0.7973537   -8.3758631    513.50873  0.014936263  0.014520429            5 
 2866000   0.79540424   -8.3527457    513.62431  0.014934412  0.014515137            9 
 2867000    0.7911462   -8.3584843    514.13581  0.014944071  0.014509838            3 
 2868000   0.79565742   -8.3966262    513.67387  0.014925438  0.014504554            4 
 2869000   0.79731967   -8.3456047    516.19798  0.014993551  0.014499273            5 
 2870000   0.81295151   -8.3592565    514.37575  0.014935417  0.014493994            6 
 2871000   0.79379004   -8.3661911    514.60962  0.014937003  0.014488721            8 
 2872000   0.80976074   -8.3871547    514.26686  0.014921856  0.014483453            5 
 2873000   0.80177432   -8.3997346    515.16123  0.014942605  0.014478164            3 
 2874000   0.79359597    -8.361857    513.76783  0.014897003  0.014472876            3 
 2875000   0.78488681   -8.3653289    513.97344  0.014897781  0.014467558            5 
 2876000   0.80639379   -8.3509573    513.94076  0.014891654  0.014462264            5 
 2877000   0.78957757    -8.418788    514.45542  0.014901385  0.014456976            3 
 2878000   0.78965145   -8.3637096    514.81667  0.014906668  0.014451695            5 
 2879000   0.79662058    -8.399607    514.94495  0.014905203  0.014446404            5 
 2880000   0.78629094   -8.4088495      513.577  0.014860446  0.014441117            6 
 2881000   0.79914709   -8.3738158    514.65792  0.014886553  0.014435833            4 
 2882000   0.79754625   -8.3835344    514.46466    0.0148758  0.014430535            5 
 2883000   0.78101072   -8.3507901    515.70258  0.014906422  0.014425261            3 
 2884000   0.78015689   -8.3696348     515.0222  0.014881594  0.014420022            7 
 2885000   0.79084466    -8.389471    513.77329  0.014840361   0.01441477            3 
 2886000   0.79884266   -8.3531109    515.25006   0.01487786  0.014409514            4 
 2887000   0.80534168   -8.3745794    514.65094  0.014855413  0.014404273            5 
 2888000    0.7950196   -8.3662327    514.12301  0.014835036  0.014399007            7 
 2889000   0.77200045   -8.3783745     515.1009  0.014858108  0.014393749           12 
 2890000   0.79714887   -8.3729245    514.27501  0.014829153  0.014388498            3 
 2891000   0.78078781   -8.3898944    515.42334  0.014857124  0.014383251            3 
 2892000   0.78437181   -8.3878181    515.36279  0.014850242  0.014378012            6 
 2893000   0.77805517   -8.3751262    514.98312  0.014834172  0.014372798            5 
 2894000   0.79445812     -8.33161    516.16697  0.014863136  0.014367602            4 
 2895000   0.78796973   -8.3465656    515.07721  0.014826633  0.014362383            6 
 2896000   0.77359592   -8.3721004     514.3633   0.01480097  0.014357171            6 
 2897000   0.77341093   -8.3542094    515.94366   0.01484132  0.014351971            3 
 2898000   0.77528032   -8.3898041    515.73819  0.014830291   0.01434677            6 
 2899000   0.78760141   -8.3604247    515.94903  0.014831236  0.014341559            5 
 2900000   0.78874416   -8.3853405    515.73737  0.014820039  0.014336359            3 
 2901000   0.79448955   -8.3811047    514.62113  0.014782866  0.014331133           10 
 2902000   0.80239638    -8.409462    513.55722  0.014747221  0.014325894            3 
 2903000   0.78193376    -8.361807    515.55183  0.014799398  0.014320675            9 
 2904000   0.78355012   -8.3717738    514.57051  0.014766142  0.014315461            4 
 2905000   0.79042281     -8.37653    514.49501  0.014758893  0.014310235            3 
 2906000   0.78315526   -8.3704871    515.34152  0.014778089  0.014305009            4 
 2907000   0.81385591   -8.4048263    513.88786  0.014731334  0.014299778           16 
 2908000   0.77483363   -8.3837722    515.64468  0.014776613   0.01429454            8 
 2909000    0.7789012   -8.3908633     514.9828  0.014752573  0.014289326            4 
 2910000    0.7840309   -8.3814203    514.00114  0.014719391  0.014284128            5 
 2911000   0.77770007   -8.3888012    513.49552   0.01469986   0.01427893            6 
 2912000   0.80246524   -8.3807364    514.80334  0.014732238  0.014273708            9 
 2913000   0.78615178   -8.3696384    516.22409  0.014767825  0.014268486            9 
 2914000   0.78094216   -8.3911917    515.20023  0.014733477  0.014263271            8 
 2915000   0.79212598    -8.361481    514.79944  0.014716965  0.014258063            5 
 2916000   0.78266163   -8.3963356    515.46119   0.01473083  0.014252864            3 
 2917000   0.80497175    -8.380621    515.51463  0.014727306   0.01424768           11 
 2918000    0.7792969   -8.4151151    514.08203  0.014681347  0.014242481           21 
 2919000   0.78941183   -8.3882801    514.76373  0.014695779   0.01423728           10 
 2920000    0.7776223   -8.4002395    515.16868  0.014702303  0.014232068           12 
 2921000   0.77254967   -8.4130561    514.91516  0.014690037  0.014226846            7 
 2922000   0.77776313   -8.4009825    515.66618  0.014706428  0.014221622            4 
 2923000   0.79929919   -8.3903544    514.57029  0.014670153  0.014216418            5 
 2924000   0.78186204      -8.4116    515.76906  0.014699301  0.014211222            8 
 2925000    0.7621691   -8.4028652    515.96658  0.014699903  0.014206016           15 
 2926000   0.79524268   -8.3702377    514.77945  0.014661069  0.014200824            5 
 2927000   0.78210595   -8.3797718    516.44774  0.014703557  0.014195632            9 
 2928000   0.79315616   -8.4237447    515.05813  0.014658986  0.014190431            6 
 2929000   0.78150867   -8.4111738    516.11935  0.014684174  0.014185247           15 
 2930000   0.77643319   -8.4277236    514.73389  0.014639758  0.014180035           21 
 2931000   0.76653319   -8.4221629    513.74759  0.014606721  0.014174816           24 
 2932000    0.7751161   -8.4101845    514.88297  0.014634009  0.014169592           21 
 2933000   0.78070634   -8.4155154    515.03856   0.01463344  0.014164355           15 
 2934000   0.78781666   -8.4048785    515.31462  0.014636294  0.014159149            5 
 2935000   0.78216732   -8.4212833    515.11231  0.014625563  0.014153933            6 
 2936000   0.77006615   -8.4110978    515.45812  0.014630396  0.014148728           37 
 2937000   0.77746301   -8.4195967    515.44925  0.014625163  0.014143524           35 
 2938000   0.77269354   -8.4032025    515.78936  0.014629832  0.014138334           38 
 2939000   0.77283182   -8.4110117    514.83388  0.014597762  0.014133129           33 
 2940000   0.78163472   -8.4350529    515.37898  0.014608248  0.014127922           36 
 2941000   0.78068018   -8.4208986    515.87379  0.014617301  0.014122724           34 
 2942000    0.7919043   -8.4134492    514.69839  0.014579039  0.014117532           32 
 2943000   0.79300962   -8.3906731    515.66544  0.014601468  0.014112359           30 
 2944000   0.77150163   -8.3960389    515.47839  0.014591214   0.01410718           42 
 2945000   0.76582757   -8.4177689    516.14736  0.014605188  0.014101998           34 
 2946000   0.77748534    -8.416889    515.18429  0.014572989  0.014096821            4 
 2947000   0.77585112   -8.4034039    515.91825  0.014588798  0.014091668           12 
 2948000   0.78713892   -8.4040481    515.38245  0.014568703  0.014086503           12 
 2949000   0.78445424   -8.4308235    516.07168   0.01458324  0.014081348           13 
 2950000   0.78022433   -8.4423293    514.56754  0.014535806  0.014076179           20 
 2951000     0.765437   -8.4286161    514.71357  0.014535004  0.014071008           24 
 2952000   0.77192803   -8.4487543    514.22404  0.014516261  0.014065814           29 
 2953000    0.7801967   -8.4192304    515.37634  0.014543863  0.014060633           30 
 2954000     0.759999   -8.4337255    515.22539  0.014534682  0.014055456           18 
 2955000    0.7746977   -8.4263352    515.39085  0.014534429  0.014050285           13 
 2956000    0.7725135   -8.4357859    514.67805  0.014509417  0.014045117           18 
 2957000     0.763852   -8.4321266    514.50873  0.014499739  0.014039941           10 
 2958000   0.78026858   -8.4210982     515.4411  0.014521104  0.014034801           16 
 2959000   0.79806052   -8.4010909    514.92026  0.014501528  0.014029668           15 
 2960000   0.77952593   -8.4129859    514.83708  0.014494287  0.014024531           29 
 2961000   0.76983242   -8.4183832    516.04476  0.014523381  0.014019388           24 
 2962000   0.77773812   -8.4323657    515.12654  0.014492644  0.014014225           22 
 2963000    0.7787199    -8.455611    516.32399  0.014521431  0.014009077           30 
 2964000    0.7844973   -8.4200683    516.20203  0.014513103  0.014003933           21 
 2965000   0.77557264   -8.4024067    517.18717  0.014535896  0.013998799           37 
 2966000   0.76377422   -8.4389057    515.00673  0.014469733  0.013993659           29 
 2967000   0.77169902   -8.4515716    515.02055  0.014465244  0.013988494           30 
 2968000   0.76272884    -8.444144    514.60641  0.014448743  0.013983329           22 
 2969000   0.78583744   -8.4530171    516.64113  0.014500986  0.013978175           18 
 2970000   0.78067429   -8.4379922     516.2409  0.014484874  0.013973013           28 
 2971000   0.77863347   -8.4306311    515.81758  0.014468125  0.013967848           42 
 2972000   0.78952891    -8.468284    515.15201  0.014444594  0.013962684           44 
 2973000   0.78626314   -8.4738985    514.36761  0.014417749  0.013957506           33 
 2974000   0.77046223   -8.4727126    514.33187  0.014411899  0.013952353           41 
 2975000   0.77055115   -8.4664713    514.61076  0.014414867  0.013947191           25 
 2976000   0.78845249   -8.4284443    516.44103  0.014461274   0.01394204           45 
 2977000     0.777482    -8.462442    514.24022  0.014394811  0.013936887           52 
 2978000   0.77672032   -8.4514994    515.88195  0.014435918  0.013931729           58 
 2979000   0.78030683   -8.4537076    515.15404  0.014410709  0.013926582           38 
 2980000   0.77413281   -8.4435596    515.57749  0.014417715  0.013921439           24 
 2981000   0.77821277   -8.4627362     514.6649  0.014387367  0.013916288           30 
 2982000   0.77711719   -8.4248983     516.1064  0.014422826  0.013911154           34 
 2983000   0.76100695   -8.4766156    515.24566  0.014393945  0.013906007           52 
 2984000   0.76514647   -8.4414638    516.64614  0.014428232  0.013900846           28 
 2985000   0.77368969   -8.4561669    515.43601  0.014389615  0.013895701           36 
 2986000   0.77199703   -8.4463872    514.61095   0.01436177  0.013890563           27 
 2987000   0.77958175   -8.4367908    515.64401  0.014385783  0.013885438           31 
 2988000   0.77901916   -8.4551408    515.33876  0.014372455  0.013880321           32 
 2989000   0.77152925   -8.4402979    515.42026  0.014369919  0.013875192           36 
 2990000   0.77321134   -8.4546283    516.40646  0.014392599  0.013870055           33 
 2991000   0.78778893   -8.4570946      514.707  0.014340438  0.013864925           29 
 2992000   0.75682915   -8.4486312    514.96157  0.014342735  0.013859789           26 
 2993000    0.7916579   -8.4503904    514.49148  0.014324855  0.013854666           60 
 2994000   0.77881069   -8.4540943    515.40705  0.014345554  0.013849558           40 
 2995000   0.74930037   -8.4375374    514.97116  0.014328635  0.013844438           40 
 2996000   0.77163419   -8.4317089     514.7276  0.014317078  0.013839319           33 
 2997000   0.78508187   -8.4362068     514.6568  0.014310332  0.013834217           29 
 2998000    0.7725259   -8.4628145    514.54676  0.014302501  0.013829103           41 
 2999000   0.78343737   -8.4602006    515.93281  0.014336246  0.013823986           25 
 3000000   0.77110533   -8.4370879    515.50286  0.014319524  0.013818867           32 
 3001000   0.77636599   -8.4190585    515.93203   0.01432667  0.013813756           41 
 3002000     0.771991   -8.4422822    515.18391   0.01430113  0.013808639           40 
 3003000   0.78017929   -8.4282515    515.59996  0.014307913  0.013803517           14 
 3004000     0.780706   -8.4611483    515.88745  0.014311125  0.013798401           25 
 3005000   0.76526243   -8.4643828    516.00947  0.014309747  0.013793273           50 
 3006000   0.77441361   -8.4573134    514.85725  0.014273044   0.01378815           39 
 3007000   0.77632065   -8.4412121     516.0191  0.014300496  0.013783041           56 
 3008000   0.77213133   -8.4712395    514.87753  0.014264116  0.013777915           39 
 3009000   0.78347692    -8.439462    516.14343  0.014294434  0.013772791           35 
 3010000    0.7865346   -8.4190561    515.11493  0.014261211  0.013767677           37 
 3011000   0.76784287   -8.4307449    515.42423  0.014265035  0.013762557           31 
 3012000   0.77375844   -8.4357775    515.57094  0.014264358  0.013757424           41 
 3013000   0.76009244   -8.4539087    515.04638  0.014245115  0.013752316           50 
 3014000   0.76401956   -8.4795357    515.24296  0.014245824  0.013747214           52 
 3015000   0.76218171   -8.4561476    514.87725  0.014230991  0.013742097           69 
 3016000   0.75895664   -8.4560463    514.64031  0.014219726  0.013737006           66 
 3017000   0.76485984   -8.4416987    514.40239  0.014208441  0.013731914           59 
 3018000   0.76271617   -8.4470625    515.64045  0.014237918  0.013726814           54 
 3019000   0.75888784   -8.4479813    515.08161  0.014217776  0.013721719           77 
 3020000   0.76644699   -8.4347945    515.66762  0.014229239   0.01371662           78 
 3021000    0.7577131   -8.4416919    515.69709  0.014225342  0.013711519           52 
 3022000   0.75910595   -8.4312442    515.83366  0.014224401  0.013706434           57 
 3023000   0.77101907   -8.4152113    517.08918  0.014254305  0.013701366           60 
 3024000   0.76806142   -8.4207777    516.77878  0.014241038  0.013696299           51 
 3025000   0.76774192   -8.4154596    516.18416  0.014219949  0.013691248           90 
 3026000   0.77125376   -8.4287472     516.4548  0.014222703  0.013686197           83 
 3027000   0.76167986   -8.4173138    516.20133  0.014211027  0.013681134           57 
 3028000   0.75779603   -8.4418553    516.32892  0.014209845  0.013676083           66 
 3029000   0.75073921   -8.4388068    515.62483  0.014185783  0.013671028           69 
 3030000   0.77043512   -8.4629523    515.08325  0.014166206  0.013665978           70 
 3031000   0.77293351   -8.4367161     515.1018  0.014162042  0.013660912           84 
 3032000   0.76934047   -8.4526211    516.60469  0.014198678   0.01365586           89 
 3033000   0.76217931   -8.4299228    516.64708  0.014195161   0.01365081           67 
 3034000   0.78609271     -8.44504    516.45653  0.014185249  0.013645773           79 
 3035000   0.77617295   -8.4669142    515.98966  0.014167756  0.013640727           97 
 3036000   0.78367751   -8.4364439    515.79502  0.014157747  0.013635689           84 
 3037000   0.78008559   -8.4556442    515.64711  0.014149026  0.013630632           97 
 3038000   0.76310321   -8.4596078    516.48528   0.01416736   0.01362558           80 
 3039000   0.76155858   -8.4586282     515.9762  0.014148739  0.013620514          100 
 3040000   0.75597123   -8.4664178     516.0072  0.014144934  0.013615455          105 
 3041000   0.77141635   -8.4931928    515.43298  0.014124547  0.013610391          101 
 3042000   0.74349215   -8.4643924    515.65079  0.014125871  0.013605327           92 
 3043000   0.75640135   -8.4709972    515.67016  0.014121759  0.013600251           76 
 3044000   0.76228859   -8.4696115    516.10359  0.014128986  0.013595193           84 
 3045000   0.76670769   -8.4685386    516.49936  0.014135177  0.013590141           87 
 3046000   0.76171647   -8.4696654    515.77936  0.014110838  0.013585098           70 
 3047000   0.77132596   -8.4723892    516.30699  0.014120637  0.013580061           85 
 3048000   0.75495596   -8.4624753    515.47445  0.014093243  0.013575015           67 
 3049000   0.77019319   -8.4598072    515.98251  0.014102507  0.013569967           84 
 3050000   0.75468097   -8.4441234    515.89084  0.014095378  0.013564931           89 
 3051000   0.75488249   -8.4501343    515.46523  0.014079133  0.013559896           60 
 3052000   0.77291566   -8.4472784    515.83283  0.014084557  0.013554863           66 
 3053000   0.76564115   -8.4625998    516.11063  0.014087527  0.013549826           74 
 3054000   0.77283672   -8.4766973       516.28  0.014087535  0.013544787           90 
 3055000   0.76119735   -8.4398266    516.19282  0.014080546  0.013539745           94 
 3056000   0.77009324   -8.4580415    515.49797  0.014056991    0.0135347           88 
 3057000   0.75074899   -8.4364421    516.82624  0.014088601  0.013529679           79 
 3058000   0.75650405   -8.4450114    516.01891  0.014061993  0.013524656           90 
 3059000   0.76986593   -8.4372053    515.99765  0.014056817   0.01351964           96 
 3060000   0.75943928   -8.4712798    515.96651  0.014051375  0.013514618          104 
 3061000   0.76085755    -8.465777    515.33455  0.014029581  0.013509606           93 
 3062000   0.75760298   -8.4676518    516.14986  0.014047188  0.013504589           93 
 3063000   0.76565206   -8.4592974    516.05389  0.014039991  0.013499567          105 
 3064000   0.74901399   -8.4269144    516.61107  0.014050562  0.013494558           95 
 3065000   0.75520922   -8.4546105    515.62156  0.014019075  0.013489561           86 
 3066000   0.76562293   -8.4526869    516.56813   0.01404023  0.013484563          104 
 3067000   0.74554331   -8.4706803    516.76883  0.014041105  0.013479568           86 
 3068000   0.77287154   -8.4434287    516.47631  0.014028583  0.013474549          102 
 3069000   0.75371483   -8.4799738    516.22549  0.014017201  0.013469537          107 
 3070000   0.76384433   -8.4497591    516.03121  0.014007362  0.013464527           93 
 3071000   0.75706478   -8.4748625     515.3901  0.013985404  0.013459521          100 
 3072000   0.76434763   -8.4352845    516.35476  0.014007019  0.013454523           86 
 3073000    0.7658116   -8.4787859    516.32468  0.014001645  0.013449527           92 
 3074000   0.76544104   -8.4712158    516.54766  0.014003136  0.013444528           92 
 3075000   0.75890205   -8.4695922    515.63973  0.013973976  0.013439539           95 
 3076000   0.75991042   -8.4567782    516.62084  0.013996013  0.013434552          106 
 3077000    0.7545073   -8.4645454    516.70842  0.013993837  0.013429556          103 
 3078000   0.75496168   -8.4750815    516.32523  0.013978916  0.013424554          122 
 3079000   0.74831776   -8.4769931    516.14016  0.013969367  0.013419556          132 
 3080000    0.7605794   -8.4904427    515.16387  0.013938416   0.01341454          126 
 3081000   0.76082849   -8.4690378    516.90065  0.013980868  0.013409539          119 
 3082000   0.77895802   -8.4701046     516.5307  0.013966329   0.01340453          132 
 3083000     0.764144   -8.4807138    515.50443  0.013934059  0.013399515          105 
 3084000   0.75363286    -8.501151     515.8153   0.01393794  0.013394508          128 
 3085000   0.74931311   -8.4854127    515.13084  0.013914934  0.013389493          109 
 3086000   0.74542243   -8.4479756    515.54478  0.013921602  0.013384479          116 
 3087000   0.78219393    -8.510304    514.68374  0.013893849  0.013379464          118 
 3088000    0.7655754   -8.4739946    515.90129  0.013922207  0.013374452          114 
 3089000   0.76789076   -8.4811174    514.75324  0.013886728   0.01336944          129 
 3090000   0.76873861   -8.4556602    515.60851    0.0139053  0.013364438          134 
 3091000   0.75913267   -8.5148458    514.60314  0.013873696  0.013359443          126 
 3092000   0.75190309   -8.4485223    515.86872  0.013903318  0.013354448          133 
 3093000   0.75535102   -8.5112883      516.125  0.013905728  0.013349445          139 
 3094000   0.75710123   -8.4686035    516.21057  0.013903538  0.013344454          116 
 3095000   0.74449114   -8.4722183    516.46556  0.013905912  0.013339454          124 
 3096000   0.74625919   -8.4882809    516.41631  0.013900094  0.013334473          136 
 3097000   0.73877098   -8.4663642    516.88139   0.01390812  0.013329495          114 
 3098000   0.76438426   -8.4987534    515.56957  0.013868344  0.013324511          141 
 3099000   0.76271426   -8.4932325    516.45434  0.013887661   0.01331952          170 
 3100000   0.74430072     -8.45921    516.32836  0.013879795  0.013314533          144 
 3101000   0.74613614   -8.4953948    516.43476  0.013878178  0.013309564          146 
 3102000   0.74863384   -8.4670827    516.35826  0.013871649  0.013304577          145 
 3103000   0.73990694   -8.4646583    517.51333  0.013898199  0.013299617          140 
 3104000   0.77261273   -8.5028347    515.36802  0.013836126  0.013294635          139 
 3105000    0.7472057   -8.5031786    514.25117  0.013801695  0.013289649          164 
 3106000   0.75014991   -8.4744845    515.40334  0.013828164  0.013284668          179 
 3107000   0.77567219   -8.4944396     515.6222  0.013829584  0.013279687          161 
 3108000   0.74486946   -8.4815075    516.12551  0.013838629  0.013274696          166 
 3109000   0.76374742   -8.4846406    516.58482  0.013846489    0.0132697          154 
 3110000   0.75189489   -8.4727884    516.67666  0.013844498  0.013264725          177 
 3111000   0.77551524   -8.5114649    515.10767   0.01379802  0.013259734          162 
 3112000   0.74785394    -8.503859    514.53583  0.013778273  0.013254742          164 
 3113000   0.76824073   -8.5267595    514.77169  0.013780161  0.013249753          174 
 3114000   0.75539071    -8.532319    514.83493  0.013777428  0.013244756          183 
 3115000   0.77390094   -8.4863567    516.74854  0.013824199  0.013239763          183 
 3116000   0.74552947   -8.5146712    515.34644  0.013782265  0.013234796          192 
 3117000    0.7566922   -8.5109744    514.76637  0.013762335  0.013229815          194 
 3118000   0.74325764   -8.5066076    515.12348  0.013767465  0.013224827          198 
 3119000   0.75756658    -8.515815     514.6632  0.013750754   0.01321985          190 
 3120000   0.75862015    -8.494231    515.84793   0.01377799  0.013214875          204 
 3121000   0.74774424   -8.5127725    515.70642  0.013769797  0.013209902          211 
 3122000   0.75928902   -8.5134404    514.99895  0.013746502  0.013204943          206 
 3123000   0.76061031   -8.4915401    517.16241   0.01379983  0.013199984          211 
 3124000   0.76259479   -8.4803745    516.57073  0.013779629  0.013195036          214 
 3125000   0.74194726   -8.4934078    515.70714   0.01375219  0.013190086          195 
 3126000   0.77477164   -8.5276788    515.27572   0.01373629  0.013185132          203 
 3127000     0.748572   -8.5309433    516.04356   0.01375236  0.013180177          212 
 3128000   0.74640068   -8.5233439    515.31529  0.013728562  0.013175206          215 
 3129000   0.75391725   -8.5063486    515.82638  0.013737786  0.013170233          215 
 3130000   0.74868826   -8.5303125    515.33658  0.013720356  0.013165265          227 
 3131000    0.7655972   -8.5338971    515.36313  0.013716681  0.013160308          206 
 3132000   0.74057236   -8.5243608    515.74859  0.013722557  0.013155349          226 
 3133000   0.75229321   -8.5356685    515.83449  0.013720462  0.013150379          227 
 3134000   0.75707748   -8.5329993    514.66275  0.013684927  0.013145433          243 
 3135000   0.75532358   -8.5443889    514.43913  0.013674618  0.013140475          237 
 3136000    0.7599843   -8.5256546    514.67825  0.013676612  0.013135514          238 
 3137000    0.7507243   -8.5663652    514.63282  0.013671045  0.013130547          247 
 3138000    0.7758039   -8.5609873     514.7627  0.013670138  0.013125577          253 
 3139000   0.73814454   -8.5303586    514.35493  0.013654957  0.013120615          253 
 3140000   0.76492384   -8.5809647    514.91486  0.013665469  0.013115652          275 
 3141000   0.72914232   -8.5448976    515.96658  0.013689021  0.013110706          266 
 3142000   0.75449902   -8.5240427     515.1014  0.013661718  0.013105744          275 
 3143000    0.7533894   -8.5409833    515.86064  0.013677501  0.013100791          289 
 3144000   0.75457907   -8.5442009    514.73116  0.013643214  0.013095839          307 
 3145000   0.74767109    -8.555885    514.82926  0.013641475  0.013090875          292 
 3146000   0.74232253   -8.5248745    516.38016   0.01367822  0.013085935          282 
 3147000   0.73821851   -8.5499306    515.67415  0.013655178     0.013081          264 
 3148000   0.75401874   -8.5291584    515.89865  0.013656783  0.013076063          273 
 3149000   0.75065268   -8.5481438    515.27091  0.013635834  0.013071126          299 
 3150000   0.74529004   -8.5308674    514.56886  0.013612933  0.013066182          308 
 3151000   0.73429771   -8.5233255    515.71674   0.01363897  0.013061266          309 
 3152000   0.74888428   -8.5441285    515.48675  0.013628563  0.013056338          301 
 3153000   0.74204404    -8.550467    515.16696  0.013615788  0.013051422          321 
 3154000   0.72878686   -8.5462155    515.39354  0.013617458   0.01304649          329 
 3155000   0.75360268   -8.5573708    514.76344  0.013596499  0.013041553          349 
 3156000   0.72080417   -8.5464623    515.65333  0.013615688  0.013036609          323 
 3157000   0.74572429   -8.5060442    515.82116  0.013615805  0.013031677          326 
 3158000   0.74001748   -8.5305237    515.34654  0.013598969  0.013026762          336 
 3159000   0.76189112   -8.5143003    515.69943  0.013603974  0.013021838          350 
 3160000    0.7520876   -8.5671942    515.26306  0.013588161  0.013016911          337 
 3161000    0.7353259   -8.5471504     515.3304  0.013585638  0.013011985          360 
 3162000   0.74287733   -8.5541248    516.44902  0.013610822  0.013007061          355 
 3163000   0.73895871   -8.5411421    515.76209  0.013588421  0.013002146          382 
 3164000   0.74223619   -8.5184527    515.83447  0.013586032  0.012997235          346 
 3165000   0.74900931    -8.554937    514.80765  0.013554704  0.012992314          361 
 3166000   0.74273807   -8.5834039    514.62217   0.01354554  0.012987387          372 
 3167000   0.73112082   -8.5637776    515.11201  0.013554153  0.012982463          343 
 3168000   0.76124642   -8.5560488    515.51361  0.013560438  0.012977533          345 
 3169000   0.73916059   -8.5848587    514.83741  0.013538377  0.012972612          346 
 3170000   0.74280566   -8.5716476    514.36846  0.013521779  0.012967684          384 
 3171000   0.74837576   -8.5641263    515.70534  0.013552647  0.012962751          350 
 3172000   0.75168915   -8.5737267     514.1402  0.013507256  0.012957816          347 
 3173000   0.73994158   -8.5837457    514.11896  0.013502441  0.012952877          364 
 3174000   0.74709998   -8.6084784    513.95022  0.013493757  0.012947939          394 
 3175000   0.74354946   -8.6279272    513.61669  0.013480753  0.012942995          394 
 3176000   0.74584583   -8.5893945    514.66741  0.013504078  0.012938045          374 
 3177000   0.75052556   -8.5935881    515.63609  0.013525236    0.0129331          417 
 3178000    0.7414001   -8.5922314    514.30062  0.013485961  0.012928153          415 
 3179000   0.75765056   -8.5974152    513.91616  0.013471641  0.012923209          428 
 3180000   0.74078172   -8.5989151    513.17512  0.013447985  0.012918264          406 
 3181000   0.75356099   -8.6069373    514.56802  0.013480248   0.01291334          395 
 3182000   0.74751987   -8.5764406     514.9409  0.013485777  0.012908406          388 
 3183000   0.74778528   -8.5715745    513.61053   0.01344671  0.012903488          369 
 3184000   0.74503987   -8.5878829    514.37267  0.013462434   0.01289856          431 
 3185000   0.73146939   -8.5956578     514.3507  0.013457632   0.01289362          394 
 3186000   0.74384785   -8.6073926    515.04179  0.013471484   0.01288869          416 
 3187000   0.74265886      -8.5757    515.18229  0.013470931  0.012883781          411 
 3188000   0.74108165   -8.5942553    514.83859  0.013457722  0.012878867          404 
 3189000   0.73588994   -8.5840764    514.34242  0.013440536  0.012873961          413 
 3190000   0.73489449   -8.5772133    514.65833  0.013444575  0.012869057          405 
 3191000   0.73762416   -8.5763021    514.40537  0.013433756  0.012864163          423 
 3192000   0.75231486   -8.5868545    513.82923  0.013414506   0.01285926          454 
 3193000   0.72525658   -8.5886401    514.12961  0.013418144  0.012854351          444 
 3194000   0.71921092    -8.587649    515.10698  0.013439443  0.012849451          468 
 3195000   0.73972631   -8.5798489    514.71152  0.013424922  0.012844552          449 
 3196000   0.73610571   -8.5881795    515.36327  0.013437716  0.012839647          454 
 3197000   0.73005025   -8.5901742     514.6627  0.013415251  0.012834749          460 
 3198000   0.74052702   -8.5851966    513.85934  0.013390122  0.012829843          473 
 3199000   0.72493617    -8.620115    514.42496  0.013400671  0.012824941          430 
 3200000   0.74271022   -8.5834603    514.99163   0.01341124  0.012820034          452 
 3201000   0.73528828    -8.628033    514.72461  0.013400099  0.012815136          490 
 3202000   0.74275611   -8.6032888    514.44028  0.013388515  0.012810224          471 
 3203000   0.74804886   -8.5994656    513.57974  0.013361946  0.012805315          452 
 3204000   0.74883416   -8.5727264    513.99122  0.013368477  0.012800414          444 
 3205000   0.74188776   -8.6002004    514.17692  0.013369135  0.012795533          474 
 3206000   0.75430721   -8.5945426    514.67547  0.013377924  0.012790637          460 
 3207000   0.75579999   -8.5858408    514.52645   0.01336988  0.012785745          435 
 3208000   0.73756849   -8.6143381    513.45902  0.013337984  0.012780851          463 
 3209000   0.74348638   -8.6149498    514.03334  0.013348741  0.012775958          460 
 3210000   0.73696364   -8.6043791    514.38971  0.013353835  0.012771075          493 
 3211000    0.7449582   -8.5827118    513.82569  0.013335038  0.012766179          505 
 3212000   0.73975134   -8.5812453    514.99374  0.013361191  0.012761284          459 
 3213000    0.7384491    -8.594964    514.42412  0.013342258  0.012756398          478 
 3214000   0.74367197   -8.6186595    513.76457  0.013321006  0.012751516          494 
 3215000   0.73263368   -8.6131378    513.72333  0.013315794   0.01274662          508 
 3216000   0.74655264   -8.6327749    514.81499  0.013339941  0.012741718          497 
 3217000    0.7614524   -8.6122052    515.48321  0.013353104  0.012736832          506 
 3218000   0.73157482   -8.6176504    515.21412  0.013341986  0.012731951          477 
 3219000   0.72949867   -8.6150629     514.1214  0.013309553  0.012727077          515 
 3220000   0.72872164   -8.6111249    514.10999  0.013305124  0.012722205          496 
 3221000   0.73305541   -8.6034332    514.60122  0.013313702  0.012717325          487 
 3222000   0.73286344   -8.6102633    514.80641  0.013314877  0.012712457          507 
 3223000   0.74655617   -8.5877865    515.44424  0.013327238  0.012707599          518 
 3224000   0.72669656   -8.6147929    514.15354  0.013289742  0.012702751          525 
 3225000   0.73985875   -8.6166992    514.48134  0.013294092  0.012697879          517 
 3226000   0.73133779   -8.6101507    515.31232  0.013311436  0.012693018          486 
 3227000   0.74402435   -8.6364123    514.60997  0.013289174  0.012688159          530 
 3228000   0.71283682   -8.6282054     515.8419   0.01331686  0.012683289          529 
 3229000    0.7434031   -8.6436454    513.76415  0.013259114  0.012678411          536 
 3230000   0.74411779   -8.6324122    514.06236  0.013262703  0.012673524          563 
 3231000   0.73700239    -8.628533    513.91235  0.013254729  0.012668645          547 
 3232000   0.73489604   -8.6432219    513.71102  0.013245437  0.012663768          546 
 3233000   0.72437988   -8.6236038    513.33708  0.013231701  0.012658892          587 
 3234000   0.73407812   -8.6434466    513.56974  0.013233605  0.012654008          579 
 3235000   0.73932493   -8.6144796    513.21297  0.013220324  0.012649115          589 
 3236000   0.73017152    -8.608286    514.89234  0.013259485  0.012644241          555 
 3237000   0.71974682   -8.6535845    514.71511  0.013250827  0.012639373          601 
 3238000   0.73741393   -8.6266846    514.18774  0.013233162  0.012634507          580 
 3239000   0.73182161    -8.638651    513.47992  0.013210866  0.012629639          617 
 3240000   0.74388856   -8.6451362    513.86791  0.013216767  0.012624778          605 
 3241000   0.73245774   -8.6526904    514.33717  0.013224755  0.012619903          598 
 3242000   0.74102436     -8.65011    513.02549   0.01318696  0.012615029          581 
 3243000   0.74620511   -8.6405441    514.13413  0.013211382   0.01261016          591 
 3244000   0.72651439    -8.652051    512.55693  0.013166793   0.01260528          589 
 3245000   0.72865926   -8.6610909    512.72156  0.013166963  0.012600404          591 
 3246000   0.73829873   -8.6486702    513.88198  0.013192698  0.012595527          624 
 3247000   0.73816333   -8.6394405    512.89938  0.013163417   0.01259066          598 
 3248000   0.72460476   -8.6378177    514.18889  0.013192449  0.012585784          584 
 3249000   0.73677561   -8.6246246    514.47005    0.0131956  0.012580916          571 
 3250000   0.73603308   -8.6415319    514.97559  0.013204502  0.012576063          591 
 3251000   0.73661235   -8.6600149    512.72684  0.013142798    0.0125712          625 
 3252000   0.73089878   -8.6504771    513.33213  0.013154267  0.012566339          617 
 3253000   0.72430028   -8.6592787    513.42469  0.013152595  0.012561478          607 
 3254000   0.72776591    -8.645344    513.74851  0.013156846  0.012556607          605 
 3255000   0.72695557   -8.6562277    512.99383  0.013133483  0.012551754          605 
 3256000   0.72943679   -8.6604968    513.89936  0.013152625  0.012546902          587 
 3257000   0.73085373   -8.6336392    514.00991  0.013151415  0.012542056          617 
 3258000   0.71641422   -8.6780857    512.59735  0.013111248  0.012537211          633 
 3259000   0.73353136    -8.648501     513.5149  0.013130687  0.012532351          610 
 3260000   0.72383489   -8.6692342    512.95555  0.013112361  0.012527497          633 
 3261000   0.72669161   -8.6700697    512.85513  0.013105773  0.012522649          613 
 3262000   0.73596265   -8.6602728    513.93168  0.013129258  0.012517807          624 
 3263000   0.72114416   -8.6508683    513.26563  0.013108224  0.012512965          666 
 3264000   0.74605045   -8.6509666    514.28285  0.013130179  0.012508124          676 
 3265000   0.72966858   -8.6726268    512.62853  0.013083934  0.012503287          622 
 3266000   0.74108979   -8.6661159    513.15148  0.013093271  0.012498442          659 
 3267000   0.74473184   -8.6778291    512.86432  0.013081939  0.012493583          642 
 3268000   0.73310304   -8.6991734    513.16937  0.013085714  0.012488735          643 
 3269000   0.72130301   -8.6843481    513.38628  0.013087241  0.012483881          632 
 3270000   0.72863788   -8.6664715    513.65679  0.013090132  0.012479035          655 
 3271000   0.72704141   -8.6573792    512.84156  0.013065361  0.012474185          664 
 3272000   0.72371674   -8.6918209    512.36252  0.013049168  0.012469347          651 
 3273000   0.72041135    -8.661801    513.02932  0.013062158  0.012464509          697 
 3274000   0.72437255   -8.6765821    512.78061  0.013051838  0.012459676          670 
 3275000     0.733016   -8.6619208    512.90263  0.013050957  0.012454828          699 
 3276000   0.72295876   -8.6781207    513.08817  0.013051693   0.01244998          701 
 3277000   0.73114144   -8.7054473    511.98722  0.013019714  0.012445137          700 
 3278000   0.72566342   -8.6853798    513.01835  0.013041955  0.012440299          722 
 3279000   0.71415902    -8.678044    512.77709  0.013031846  0.012435462          708 
 3280000   0.72316594   -8.6710209    513.65828  0.013050261  0.012430645          706 
 3281000   0.72130997   -8.6884569    512.34122  0.013012832  0.012425819          771 
 3282000   0.72863734   -8.6803901     513.4016  0.013035791  0.012420983          786 
 3283000   0.71893214   -8.6783631    513.67306  0.013038711  0.012416163          762 
 3284000   0.72220839   -8.6969939    512.94476   0.01301626  0.012411338          766 
 3285000   0.73597901   -8.6791128    513.06723  0.013015404  0.012406522          772 
 3286000   0.71254112   -8.6554897    512.52926    0.0129978  0.012401708          785 
 3287000   0.73551169   -8.6937218     513.2911   0.01301316  0.012396893          785 
 3288000   0.72972929   -8.6847819    512.87871  0.012998751  0.012392076          823 
 3289000   0.72979735   -8.6849051     512.6031  0.012987815  0.012387259          818 
 3290000   0.73931568   -8.7128298    511.39174  0.012953185  0.012382428          760 
 3291000    0.7364691   -8.6941452    512.76627  0.012984054  0.012377602          796 
 3292000   0.71966323   -8.6999291    512.50468  0.012973488  0.012372778          828 
 3293000   0.71689568   -8.7163382    512.83498  0.012977907  0.012367961          811 
 3294000   0.71992774   -8.6720913    512.58382  0.012967613  0.012363142          826 
 3295000   0.70716456   -8.6937988    512.93994  0.012972684  0.012358323          789 
 3296000   0.73229542   -8.6706107    513.50493  0.012983033  0.012353511          790 
 3297000   0.72335488   -8.6861513    513.31627  0.012974327  0.012348698          788 
 3298000   0.72297691   -8.6861179    513.95822  0.012986613  0.012343893          769 
 3299000   0.73053103   -8.7118165     512.9811  0.012957995  0.012339079          813 
 3300000   0.72657332   -8.7051157    511.73021   0.01292248  0.012334277          825 
 3301000   0.72284059   -8.6835536    513.11069  0.012953415  0.012329468          808 
 3302000   0.72181321   -8.6994479    512.58979  0.012936346  0.012324666          845 
 3303000   0.71702257   -8.6688986     511.2134  0.012897704  0.012319865          816 
 3304000   0.72333126    -8.702599    512.49497  0.012926124  0.012315073          832 
 3305000   0.73179968   -8.7281495    512.66749  0.012926563  0.012310277          875 
 3306000   0.72428758   -8.7071462    511.54501  0.012894359  0.012305478          839 
 3307000   0.72102509   -8.6798672    512.85942  0.012923582  0.012300689          859 
 3308000   0.72034115   -8.7164184    512.94331  0.012921788  0.012295905          843 
 3309000   0.71541237   -8.6884185    512.31414  0.012902038  0.012291109          889 
 3310000   0.71796579   -8.7155042     511.5282  0.012878353  0.012286316          871 
 3311000   0.73285634    -8.721252    513.23577  0.012917441  0.012281528          866 
 3312000   0.73380117   -8.7058927    513.43051  0.012918441  0.012276752          884 
 3313000   0.71385078   -8.7038357    513.10852  0.012906442  0.012271976          875 
 3314000   0.72467965   -8.7024686    513.03035  0.012900582  0.012267186          882 
 3315000   0.72923271   -8.7157003    513.29445  0.012903329    0.0122624          928 
 3316000   0.72026702   -8.7342196    512.37411   0.01287631  0.012257611          911 
 3317000   0.71980205   -8.7426454    512.62878  0.012878826  0.012252831          926 
 3318000   0.71552912   -8.7336457    512.29419  0.012866541   0.01224806          972 
 3319000   0.72028131   -8.7200118    511.95077  0.012854042  0.012243278          980 
 3320000   0.74657511   -8.7322843    511.55987  0.012840358  0.012238498          928 
 3321000   0.71865619   -8.7355279    512.71052  0.012865365  0.012233717          956 
 3322000   0.72383144   -8.7199685    512.61395   0.01285907  0.012228939          927 
 3323000   0.72099805   -8.7288035     512.6675  0.012856543  0.012224157          985 
 3324000   0.73336526   -8.7266127    512.07862  0.012837912  0.012219372          965 
 3325000   0.70263596   -8.7422543    513.07838  0.012859107  0.012214591          938 
 3326000   0.70859138   -8.7389276    512.68427  0.012845367  0.012209815          944 
 3327000   0.72207183   -8.7429753    513.06176  0.012850961  0.012205045          985 
 3328000   0.72850969    -8.739495    512.10529  0.012823149   0.01220027          964 
 3329000   0.69922581   -8.7515092    511.41565  0.012802034  0.012195494          971 
 3330000   0.73024615   -8.7226678    513.14706  0.012841518  0.012190721          961 
 3331000     0.707075   -8.7319352    513.01933  0.012834467  0.012185956          982 
 3332000   0.71255481    -8.747043    512.08403  0.012807224  0.012181195         1020 
 3333000   0.73548683   -8.7553694    511.68956  0.012793518  0.012176422          967 
 3334000   0.71085473   -8.7589101    512.03067  0.012798207  0.012171658          974 
 3335000   0.71741558   -8.7848772    511.26763  0.012775303  0.012166879          991 
 3336000   0.72069937   -8.7246299    512.95041  0.012813509  0.012162114          997 
 3337000   0.71465955   -8.7613172    511.73319  0.012779272  0.012157348          996 
 3338000   0.70758994   -8.7417321    510.61759  0.012747593  0.012152576         1007 
 3339000   0.71024993   -8.7578293    512.07958  0.012780263  0.012147799         1011 
 3340000   0.72388787   -8.7695153    511.31939   0.01275747  0.012143026         1007 
 3341000   0.72312045    -8.747761    512.07361  0.012772464  0.012138251          990 
 3342000   0.69695664   -8.7566256    511.97704  0.012766234  0.012133489         1028 
 3343000   0.71353483    -8.768276      511.494  0.012750374  0.012128718         1041 
 3344000   0.71539305   -8.7600052    511.68269  0.012751263  0.012123943         1052 
 3345000   0.72215677    -8.757551    511.76797  0.012749576  0.012119173         1048 
 3346000   0.72153637   -8.7515528    511.66829  0.012743283  0.012114419         1047 
 3347000   0.69722704   -8.7536803    511.65815  0.012739223   0.01210966         1044 
 3348000   0.72159787   -8.7522103    511.39848  0.012728955  0.012104905         1055 
 3349000   0.71806817   -8.7667582    511.43102  0.012725963  0.012100143         1059 
 3350000   0.69878308   -8.7915057    511.18223  0.012715976  0.012095383         1101 
 3351000   0.71303605   -8.7598307      512.363  0.012741545  0.012090614         1040 
 3352000   0.71769811   -8.7866515    510.40216  0.012688996  0.012085853         1084 
 3353000   0.70826506   -8.7668873    512.07056  0.012726677  0.012081099         1042 
 3354000   0.71703662   -8.7679387    511.43946  0.012707202  0.012076348         1102 
 3355000   0.74534518   -8.7709904    511.57752  0.012706843  0.012071602         1084 
 3356000   0.71583497   -8.7765641    511.44363  0.012699733  0.012066855         1088 
 3357000   0.71158423   -8.7747866    511.61252  0.012700142  0.012062103         1144 
 3358000   0.70280476   -8.7778964    511.29073  0.012688374  0.012057355         1112 
 3359000   0.71565979   -8.7935657     510.4318  0.012663288  0.012052598         1128 
 3360000    0.7183417   -8.7541039    511.45079  0.012684791  0.012047849         1114 
 3361000   0.71650292   -8.7513411    512.74108  0.012713009  0.012043101         1136 
 3362000   0.72325372   -8.7666708    511.00434  0.012666179  0.012038354         1116 
 3363000   0.71439804   -8.7739475    510.87465  0.012659199  0.012033609         1162 
 3364000   0.72262557   -8.7667063    510.99426  0.012658399  0.012028865         1160 
 3365000   0.70199675   -8.7853999    511.60107  0.012669665  0.012024111         1133 
 3366000   0.71964939   -8.7980689    511.68528  0.012667986  0.012019358         1193 
 3367000    0.7127957   -8.7798719    511.36238  0.012656231  0.012014612         1219 
 3368000   0.71376538   -8.7728467    511.22551  0.012649087  0.012009875         1168 
 3369000   0.71709761   -8.7944652    511.03647  0.012640657  0.012005132         1206 
 3370000   0.69784298    -8.797002    510.18618   0.01261588  0.012000387         1197 
 3371000   0.72528488   -8.7722016     510.5083    0.0126201  0.011995644         1195 
 3372000   0.70641662   -8.8096491    511.21612   0.01263385  0.011990904         1234 
 3373000   0.72000824   -8.8026321    511.36285   0.01263373  0.011986159         1190 
 3374000   0.72582377   -8.8222262    510.24921   0.01260248  0.011981421         1216 
 3375000   0.71451458   -8.8026895    511.29173  0.012624487  0.011976674         1203 
 3376000   0.70914847   -8.8139238    510.96051  0.012612572  0.011971927         1244 
 3377000   0.71305736   -8.7986936    510.88586  0.012606995  0.011967176         1233 
 3378000   0.68947822   -8.7783451    511.20612  0.012611163  0.011962438         1231 
 3379000   0.69665657   -8.8080842    510.05666  0.012579083  0.011957683         1204 
 3380000   0.71284488   -8.8098453    509.64763  0.012565277  0.011952925         1257 
 3381000   0.70585494   -8.8053063    510.34443  0.012578735  0.011948182         1308 
 3382000   0.70953295   -8.8326581    509.82549  0.012562229  0.011943442         1298 
 3383000   0.71390441   -8.8153072    509.82367  0.012558471  0.011938693         1305 
 3384000   0.71417475   -8.8127556    511.23279   0.01258946   0.01193395         1244 
 3385000   0.73114891   -8.8327786    510.19131  0.012560101  0.011929205         1301 
 3386000   0.69850805   -8.8161346    511.38193  0.012585694  0.011924458         1302 
 3387000   0.71308045    -8.839683     510.5783  0.012562206   0.01191971         1347 
 3388000   0.70360449   -8.8348461    510.26711  0.012550844  0.011914963         1325 
 3389000   0.70868735   -8.8174604    511.22827  0.012570775  0.011910223         1305 
 3390000   0.70760987   -8.8457398    509.95496  0.012535766  0.011905483         1327 
 3391000   0.72322871    -8.812764    510.49369  0.012545309  0.011900745         1325 
 3392000   0.71161547   -8.8323451    509.77468  0.012523945  0.011896011         1329 
 3393000   0.70861204   -8.8448584    510.26589  0.012532319  0.011891281         1377 
 3394000   0.72481702    -8.849457    509.44037  0.012508357  0.011886556         1411 
 3395000   0.71940949   -8.8213491    509.83091  0.012514259  0.011881821         1383 
 3396000   0.71111351   -8.8335398     509.9497  0.012513489  0.011877093         1397 
 3397000   0.70872471   -8.8272662    510.48234  0.012522872  0.011872365         1374 
 3398000   0.70762179    -8.843777    510.86317  0.012528526   0.01186763         1419 
 3399000   0.69277022    -8.852812    509.38816  0.012488677  0.011862899         1403 
 3400000   0.70974071   -8.8253803    510.79862  0.012519574  0.011858172         1375 
 3401000   0.72367409   -8.8241355    509.72482  0.012489582  0.011853446         1406 
 3402000    0.7140009   -8.8459171    510.19916   0.01249753  0.011848725         1421 
 3403000   0.69685297   -8.8317957    510.14668  0.012492572  0.011844009         1476 
 3404000   0.69574868   -8.8464998    510.38571  0.012494754  0.011839283         1432 
 3405000   0.70530423   -8.8354771    509.83159  0.012477523  0.011834554         1425 
 3406000   0.70286212   -8.8512717     509.1457  0.012457078  0.011829837         1423 
 3407000   0.70956325   -8.8489829    509.77945  0.012468923  0.011825123         1431 
 3408000   0.70722732   -8.8556215     510.0223  0.012471203  0.011820408         1420 
 3409000   0.72106967   -8.8632201    509.40755  0.012452517  0.011815694         1440 
 3410000     0.689569   -8.8404211    509.90768  0.012461087   0.01181098         1485 
 3411000   0.70195015   -8.8408034    510.31202  0.012467312  0.011806274         1460 
 3412000   0.69563322   -8.8232126    510.45779  0.012467218  0.011801565         1452 
 3413000   0.71303238   -8.8499666    509.14797  0.012431584  0.011796855         1450 
 3414000   0.71105645   -8.8555483    508.92517  0.012422505  0.011792133         1477 
 3415000   0.70854281   -8.8658908    509.39406  0.012430309  0.011787425         1508 
 3416000    0.6890174   -8.8492933    509.18806  0.012421645  0.011782722         1482 
 3417000   0.70668748   -8.8728404     509.6225  0.012428604  0.011778017         1549 
 3418000   0.70639141   -8.8484727    510.62323  0.012449367  0.011773313         1547 
 3419000   0.68228457   -8.8531357    509.56268  0.012419876  0.011768603         1560 
 3420000   0.69525507   -8.8716687    508.54206  0.012391376  0.011763901         1580 
 3421000      0.71517   -8.8551634    509.44365  0.012409716  0.011759192         1519 
 3422000   0.69384932   -8.8719485    509.53709  0.012408365  0.011754482         1553 
 3423000   0.69049469   -8.8574271    509.54621  0.012404962  0.011749771         1536 
 3424000   0.71488837   -8.8647726    509.45701  0.012399168   0.01174506         1547 
 3425000     0.710563   -8.8926117    507.51354  0.012348261  0.011740346         1535 
 3426000   0.70033688   -8.8811518    508.71808  0.012373956  0.011735634         1534 
 3427000   0.68725215   -8.8891458    509.37798  0.012386392  0.011730927         1563 
 3428000   0.70505852   -8.8865829    508.93446  0.012371997  0.011726219         1602 
 3429000   0.68892884   -8.8731678    508.96799  0.012369204   0.01172151         1603 
 3430000   0.71602611   -8.8723577    508.67788  0.012358549  0.011716802         1569 
 3431000    0.6991378   -8.8496328    510.49661  0.012399121  0.011712104         1604 
 3432000   0.69270903   -8.8655593    509.65262  0.012375015  0.011707416         1628 
 3433000   0.70271294   -8.8702039    509.11166  0.012358279  0.011702723         1624 
 3434000   0.70615777   -8.8759604    509.73217  0.012369738  0.011698036         1600 
 3435000   0.70767002   -8.8919991     508.8539   0.01234483  0.011693341         1670 
 3436000   0.68882155   -8.8770231    509.43247   0.01235527  0.011688635         1683 
 3437000   0.71201333   -8.8910615    509.30382  0.012348555  0.011683932         1673 
 3438000   0.70237876   -8.9122074    508.17214  0.012317533  0.011679244         1720 
 3439000   0.68768495   -8.8571374    509.95817   0.01235723  0.011674562         1639 
 3440000   0.69181172   -8.8902953    509.65041  0.012346182  0.011669874         1657 
 3441000   0.68539859     -8.90915     508.4708  0.012314027  0.011665177         1699 
 3442000   0.70381373   -8.9046966    507.99359  0.012298896   0.01166048         1746 
 3443000   0.68588935   -8.8935965    507.78194  0.012290201  0.011655788         1719 
 3444000    0.7105233   -8.9009746    508.26252  0.012298261  0.011651096         1722 
 3445000   0.69677836   -8.8975987    508.04597  0.012289453  0.011646413         1740 
 3446000   0.70882384   -8.9269221     507.9531   0.01228364  0.011641726         1804 
 3447000   0.68700977   -8.9300916    509.14181  0.012308815  0.011637048         1774 
 3448000   0.70751841   -8.9152962     508.9102  0.012299647  0.011632365         1817 
 3449000   0.68981491   -8.9255016    508.25679  0.012280294  0.011627677         1813 
 3450000   0.70186129   -8.9192417    508.88774  0.012291975  0.011622986         1830 
 3451000   0.69320971   -8.9110835    508.03681  0.012267865  0.011618302         1831 
 3452000    0.7095242   -8.9486577    508.25586  0.012269599  0.011613621         1797 
 3453000   0.68500403   -8.9318404      507.969  0.012259123  0.011608938         1808 
 3454000   0.71873668   -8.9153079     506.5926  0.012222365  0.011604254         1815 
 3455000   0.69768685   -8.9155009    508.11335  0.012255508  0.011599569         1849 
 3456000   0.70636638   -8.9265172    507.27938  0.012231852  0.011594882         1818 
 3457000   0.69577116   -8.9468927    508.07302  0.012247445  0.011590197         1858 
 3458000    0.6943489   -8.9274755    507.73125  0.012235667  0.011585511         1875 
 3459000    0.7022828   -8.9246474    507.53587  0.012227423  0.011580819         1883 
 3460000   0.69966979   -8.9380677    506.68886  0.012203489  0.011576128         1862 
 3461000   0.69116219   -8.9192573    507.83084  0.012227459  0.011571446         1874 
 3462000   0.69589969   -8.9233016    507.39167  0.012213356  0.011566763         1900 
 3463000   0.70172085   -8.9274025    507.61562  0.012215219  0.011562069         1918 
 3464000     0.699958   -8.9434778    507.27326  0.012203456  0.011557381         1926 
 3465000   0.69808215   -8.9590936    505.77616  0.012163929  0.011552688         1926 
 3466000   0.69479151   -8.9582731    506.97143  0.012189157   0.01154799         1934 
 3467000   0.70565315     -8.95792    507.42487  0.012196541  0.011543289         2000 
 3468000   0.69061677   -8.9626458    506.56123  0.012172271  0.011538594         1994 
 3469000   0.70585753   -8.9574791    507.24376  0.012185158  0.011533908         1984 
 3470000   0.68730191   -8.9674329     508.1914  0.012204404  0.011529219         1979 
 3471000   0.68689781   -8.9555836    507.68518  0.012188735  0.011524533         1968 
 3472000   0.68694116   -8.9594926    507.61807  0.012183614  0.011519848         1973 
 3473000   0.71629908   -8.9644642    507.40552  0.012175005  0.011515158         2013 
 3474000   0.70161822   -8.9600997    507.31246  0.012169268  0.011510467         1987 
 3475000   0.69820008    -8.954391    506.32288  0.012142036  0.011505768         2029 
 3476000   0.68943614    -8.976493    505.66982  0.012122886  0.011501074         2046 
 3477000   0.68763003   -8.9738499    506.92526  0.012149489  0.011496383         2076 
 3478000   0.69506321   -8.9544904    506.53307  0.012136598  0.011491689         2089 
 3479000   0.69268583   -8.9526298    507.75397  0.012162354  0.011486995         2084 
 3480000   0.69361483   -8.9665533    507.00295  0.012140875  0.011482309         2119 
 3481000   0.69754843   -8.9931909     506.5742  0.012127123  0.011477614         2079 
 3482000   0.69429968   -8.9793937    506.32901  0.012117773  0.011472913         2091 
 3483000    0.6942866   -9.0018268    506.20552  0.012111339  0.011468216         2105 
 3484000   0.69210613   -8.9976497     506.4393  0.012113454  0.011463517         2078 
 3485000   0.70595199   -8.9855337    506.58938  0.012113567  0.011458826         2122 
 3486000   0.68692058   -8.9916875    506.16702  0.012099996  0.011454146         2100 
 3487000   0.68598333   -8.9902697    506.44383  0.012103141  0.011449466         2128 
 3488000   0.69152092   -8.9831749    505.66091  0.012080966  0.011444787         2102 
 3489000   0.69207772   -8.9753962    506.49405  0.012097403  0.011440114         2084 
 3490000   0.68287169   -8.9900727    506.23026  0.012087637  0.011435435         2127 
 3491000   0.71464315   -8.9739227    506.57483    0.0120924  0.011430761         2089 
 3492000   0.71276934   -8.9828195    506.35091  0.012083594  0.011426083         2096 
 3493000   0.69190221   -8.9920323    505.87728  0.012068835  0.011421409         2113 
 3494000    0.6899705   -8.9812901     506.4078  0.012078034  0.011416733         2109 
 3495000   0.68139672   -8.9941824    505.42938  0.012051249  0.011412064         2128 
 3496000   0.69135644   -8.9969777    506.06057  0.012062847  0.011407395         2129 
 3497000   0.67928485   -8.9933444    506.00503  0.012058074  0.011402725         2117 
 3498000   0.68553494   -9.0174536    506.34282  0.012062674  0.011398066         2125 
 3499000   0.69700923   -8.9914059    507.15048  0.012078463  0.011393403         2119 
 3500000   0.68575227   -9.0254933    505.59219  0.012037909   0.01138873         2197 
 3501000   0.67239512   -9.0258014    505.80896  0.012039631  0.011384063         2220 
 3502000   0.71015169   -9.0067746    505.69419  0.012033462  0.011379393         2244 
 3503000   0.68535797   -9.0191742    506.19094  0.012041844  0.011374725         2248 
 3504000   0.68063423   -8.9967447    505.83757  0.012030003  0.011370055         2243 
 3505000   0.70239272   -9.0143771    505.44358  0.012017204  0.011365385         2211 
 3506000   0.69318858   -9.0368523     505.6055  0.012017625  0.011360712         2219 
 3507000   0.69321872   -9.0215124    505.39043  0.012009087  0.011356041         2265 
 3508000   0.69798725   -9.0453999    505.38278  0.012005482  0.011351375         2315 
 3509000   0.69217022   -9.0119317    505.35146  0.012001317  0.011346709         2285 
 3510000   0.69558489   -9.0240329    505.38215  0.011998627  0.011342046         2320 
 3511000   0.67913247   -9.0332565    505.13614   0.01198937   0.01133738         2353 
 3512000   0.70573316   -9.0359177    505.63632  0.011997825  0.011332718         2383 
 3513000   0.69176239   -9.0428573    504.87583  0.011976369  0.011328059         2392 
 3514000   0.68702572   -9.0508457     504.9225  0.011974068  0.011323399         2381 
 3515000   0.70211904   -9.0574831     505.7438  0.011990133   0.01131874         2407 
 3516000   0.69283182   -9.0531276    505.24652  0.011974936  0.011314077         2404 
 3517000   0.69922777   -9.0633941    505.64763  0.011981036  0.011309411         2403 
 3518000   0.69320999   -9.0305183    505.32539  0.011969997  0.011304747         2404 
 3519000   0.68842987   -9.0636885    505.41726  0.011968771  0.011300084         2394 
 3520000   0.69032106   -9.0364113    504.49397  0.011943513  0.011295429         2377 
 3521000    0.6793023   -9.0618553    505.35937  0.011960602  0.011290778         2392 
 3522000   0.69026075   -9.0623629    505.51007  0.011960772  0.011286123         2407 
 3523000   0.68585621   -9.0791462    504.52297  0.011934028  0.011281474         2416 
 3524000   0.69201814   -9.0476439    505.02814  0.011942588  0.011276821         2406 
 3525000   0.68310598   -9.0495915    505.40097  0.011948013  0.011272174         2401 
 3526000   0.68132614   -9.0487746    504.18083  0.011915788  0.011267525         2398 
 3527000   0.68859733   -9.0691954    505.07444  0.011933523  0.011262879         2420 
 3528000   0.68230937     -9.06157    503.90112  0.011902426  0.011258227         2447 
 3529000   0.68996712   -9.0513914     505.3624   0.01193356  0.011253584         2407 
 3530000   0.68495533   -9.0692682    503.38355  0.011883464   0.01124895         2415 
 3531000   0.69118036    -9.043539    505.03525   0.01191908  0.011244313         2432 
 3532000   0.67967994   -9.0618891     504.8388   0.01191107  0.011239679         2435 
 3533000     0.690509   -9.0446799    504.91463  0.011909487  0.011235045         2455 
 3534000   0.67589618   -9.0591106    504.22252  0.011889797  0.011230409         2404 
 3535000   0.69226294   -9.0455427    504.40925  0.011890836  0.011225773         2447 
 3536000   0.69347201   -9.0728832    504.66823  0.011893576  0.011221143         2474 
 3537000   0.68740126   -9.0609932    503.95742  0.011873467   0.01121651         2466 
 3538000   0.68602648   -9.0760036    503.87918  0.011868268  0.011211885         2475 
 3539000   0.69915968   -9.0656982    505.16097  0.011895097  0.011207253         2494 
 3540000   0.68417187   -9.0298843    504.48031  0.011875714  0.011202629         2477 
 3541000   0.68738737   -9.0661755    505.30258  0.011891711  0.011198006         2421 
 3542000    0.6909076    -9.054469    505.76926  0.011899333  0.011193385         2467 
 3543000   0.67924191   -9.0758647    504.32649   0.01186204  0.011188767         2481 
 3544000   0.68900867   -9.0813353    504.76365  0.011868972  0.011184148         2508 
 3545000    0.7016027    -9.078582    505.36542   0.01187977  0.011179536         2548 
 3546000   0.68601758    -9.054473    504.41638  0.011854117  0.011174922         2518 
 3547000   0.66843293   -9.1004183    503.66815  0.011833196   0.01117031         2559 
 3548000   0.68872761   -9.0485319    505.07961  0.011863012  0.011165699         2566 
 3549000   0.68413312   -9.0849411    503.68776  0.011826988  0.011161089         2598 
 3550000   0.69295361   -9.1004566    504.06599  0.011832535  0.011156483         2671 
 3551000   0.68432948   -9.0727889     505.0174   0.01185153  0.011151876         2642 
 3552000   0.67841863   -9.0823246    504.98968  0.011847543  0.011147268         2650 
 3553000    0.6798007   -9.0795801    504.13453  0.011824152  0.011142661         2671 
 3554000   0.69123567   -9.0868106    504.46797  0.011828643  0.011138061         2657 
 3555000   0.69116007   -9.0710686    504.57714  0.011827875  0.011133463         2642 
 3556000   0.68769672   -9.0827197    504.36418  0.011819558  0.011128863         2615 
 3557000   0.69194038   -9.1180878    503.05533  0.011785571  0.011124252         2699 
 3558000   0.68103826   -9.1122597    503.49802  0.011792627  0.011119643         2679 
 3559000   0.68033912   -9.0988708    504.88139  0.011821705  0.011115042         2714 
 3560000   0.68810848   -9.1275305    503.51631  0.011786431  0.011110439         2731 
 3561000    0.6704667   -9.1068768     503.7004  0.011787429   0.01110584         2762 
 3562000   0.67282478   -9.1095177    503.63394  0.011782564  0.011101242         2702 
 3563000   0.68734163   -9.1079532    503.98214  0.011787402   0.01109664         2786 
 3564000   0.66898501   -9.1126152    503.95889   0.01178355  0.011092041         2794 
 3565000   0.68617098    -9.098998    503.96764   0.01178045  0.011087444         2789 
 3566000   0.66605883   -9.1095819    503.96685  0.011777128  0.011082842         2779 
 3567000   0.68088501   -9.1227076    503.49654  0.011762839  0.011078238         2717 
 3568000   0.69108033   -9.1316375    502.92403   0.01174617   0.01107364         2750 
 3569000   0.69098913   -9.1237943    503.80826  0.011763525  0.011069046         2751 
 3570000   0.68102159   -9.1163785     503.6308  0.011756088  0.011064445         2776 
 3571000   0.68511199   -9.1098306    503.94566  0.011760143  0.011059849         2788 
 3572000   0.68969989   -9.1333929    502.79798  0.011730076  0.011055252         2857 
 3573000   0.68077715   -9.1245964    502.93233  0.011729927  0.011050652         2824 
 3574000   0.70342337   -9.1543563    504.59406   0.01176539  0.011046057         2790 
 3575000   0.67788249   -9.1233018      503.369  0.011733543  0.011041458         2826 
 3576000   0.66829292   -9.1367906    503.38793  0.011730703  0.011036866         2798 
 3577000   0.69658186   -9.1339408    503.09705  0.011720647  0.011032276         2873 
 3578000   0.66913338   -9.1435508    503.17914  0.011719283  0.011027685         2823 
 3579000    0.6740996    -9.125138    502.66898   0.01170413  0.011023099         2804 
 3580000   0.68649919   -9.1636604    503.03422  0.011709363  0.011018511         2817 
 3581000   0.67816548   -9.1560877    502.55402  0.011694918  0.011013924         2808 
 3582000    0.6677141   -9.1546308     502.8653  0.011698895   0.01100934         2827 
 3583000   0.67832542   -9.1399301    503.61954  0.011713172  0.011004758         2889 
 3584000   0.67017098   -9.1662698    502.77742  0.011690323  0.011000173         2865 
 3585000   0.68796447   -9.1701986    502.47633  0.011680063  0.010995588         2871 
 3586000   0.67389598   -9.1543928     502.3994  0.011675019  0.010991001         2893 
 3587000   0.67009118   -9.1611376    502.67074  0.011678067  0.010986419         2889 
 3588000   0.68049031    -9.172764    502.47889  0.011670357  0.010981843         2922 
 3589000   0.66477393   -9.1618684    503.57431   0.01169254  0.010977266         2892 
 3590000   0.67108613   -9.1662885    502.49042  0.011664123  0.010972689         2898 
 3591000   0.69445438   -9.1814103    502.12412  0.011652374  0.010968104         2928 
 3592000   0.67872747   -9.1563834    502.28302  0.011652817  0.010963521         2892 
 3593000   0.67989791   -9.1540093    502.53341  0.011655381  0.010958938         2888 
 3594000   0.68014173   -9.1880638    501.52049  0.011628652  0.010954354         2876 
 3595000   0.70006008   -9.1651029    502.36242  0.011644933  0.010949771         2882 
 3596000   0.67464387   -9.1401857      502.142  0.011636587  0.010945203         2880 
 3597000   0.67115459   -9.1637199    502.20669  0.011634851  0.010940626         2912 
 3598000   0.66977515   -9.1648061    502.43965  0.011637012  0.010936059         2927 
 3599000   0.68214446   -9.1901306    502.18181  0.011627809  0.010931491         2909 
 3600000   0.68854555   -9.1764366    503.05309  0.011644747  0.010926923         2965 
 3601000   0.67776874   -9.1955369    502.41124   0.01162666  0.010922362         2970 
 3602000   0.68295797   -9.1673247    503.43867  0.011647202  0.010917793         2989 
 3603000   0.69319295   -9.1923116    502.12903  0.011613679  0.010913228         2958 
 3604000   0.68211359   -9.1785837    501.97292  0.011606847  0.010908665         2963 
 3605000    0.6678106   -9.1828065    501.82818  0.011600282  0.010904101         2972 
 3606000   0.66754899   -9.1755572    502.27087  0.011607295  0.010899541         3008 
 3607000   0.67991291   -9.1853559     502.4973  0.011609308  0.010894984         2952 
 3608000   0.68196777    -9.206501    502.20042  0.011599234  0.010890423         2982 
 3609000   0.67617993   -9.2295677    501.50406   0.01157994   0.01088586         2996 
 3610000    0.6813178   -9.1871831     501.6155  0.011579305  0.010881301         2999 
 3611000   0.68079676    -9.200064    501.19737  0.011566449  0.010876743         2989 
 3612000   0.67771108   -9.1991155    502.60376  0.011595694  0.010872181         2998 
 3613000   0.69050546   -9.2019888    501.40057  0.011564733  0.010867629         2990 
 3614000   0.66992026   -9.1744589    501.90698   0.01157321   0.01086308         3040 
 3615000   0.68642345   -9.1835895    501.12848  0.011552063  0.010858529         3036 
 3616000   0.63917473    -9.189202    502.73468  0.011585884  0.010853982         3041 
 3617000   0.66824603   -9.1805318    501.43269  0.011552684  0.010849436         3013 
 3618000   0.66944316   -9.1994507    502.09774  0.011564809  0.010844892         3030 
 3619000   0.66946752   -9.1971903    500.40283  0.011522585  0.010840349         3040 
 3620000   0.67899758   -9.1887196    502.15647  0.011559771  0.010835806         3046 
 3621000   0.67569289   -9.1827114    501.61932  0.011544217  0.010831269         3008 
 3622000   0.67746296   -9.1943191    501.67084  0.011542215  0.010826733         3037 
 3623000    0.6765573   -9.2161031    501.08195  0.011525484  0.010822195         3062 
 3624000   0.67692089   -9.1605749    501.67647  0.011535975  0.010817657         3045 
 3625000   0.66345516   -9.2082166    500.86742  0.011514194   0.01081313         2981 
 3626000   0.67420154   -9.1983335    501.39719  0.011523193  0.010808609         3015 
 3627000   0.66283603   -9.1844097    500.57954   0.01150123  0.010804078         3011 
 3628000   0.65822723   -9.2058043    500.82057  0.011503596  0.010799558         3036 
 3629000   0.66925577   -9.1967507    501.90861  0.011525411  0.010795036         3039 
 3630000   0.65757025   -9.2074361    502.25698  0.011530234  0.010790516         3015 
 3631000   0.67671962     -9.19418    501.04555  0.011499255  0.010786004         3059 
 3632000    0.6582084   -9.2000904    500.96423  0.011494223  0.010781487         3031 
 3633000   0.67932135   -9.1907386    501.49212  0.011503168  0.010776976         3064 
 3634000   0.68012689    -9.209874    501.34279  0.011496578  0.010772462         3067 
 3635000   0.67798605   -9.2029329    501.47539  0.011496455  0.010767946         3067 
 3636000   0.65536096   -9.1987782    500.59355  0.011473083  0.010763435         3072 
 3637000   0.66813589   -9.2204399    501.30545   0.01148624  0.010758932         3070 
 3638000   0.66856989   -9.2177501    501.65629  0.011491119  0.010754431         3098 
 3639000   0.67604412   -9.2025885    502.21258    0.0115007  0.010749931         3030 
 3640000   0.66165312   -9.2210418    501.39757  0.011478882  0.010745427         3073 
 3641000   0.66433568   -9.2347941    501.11729  0.011469314  0.010740919         3076 
 3642000   0.66021428    -9.193437    501.65439  0.011478455  0.010736413         3026 
 3643000   0.67322926   -9.2064158    501.06465  0.011461814  0.010731917         3063 
 3644000   0.66208441   -9.2205585    500.75412  0.011451567  0.010727418         3077 
 3645000   0.66918243   -9.1971655     500.4401  0.011441246  0.010722918         3069 
 3646000    0.6606106   -9.2441879    499.83103  0.011424187  0.010718417         3069 
 3647000   0.66662383   -9.2298981    500.53331  0.011437101  0.010713922         3095 
 3648000   0.66663186   -9.1982177    500.45693  0.011432222  0.010709433         3090 
 3649000   0.66821729   -9.2130916    500.92113   0.01143969  0.010704945         3106 
 3650000   0.67820041   -9.2275967    501.30925  0.011445417  0.010700459         3064 
 3651000   0.66344563    -9.222563    501.90738  0.011455934  0.010695976         3090 
 3652000   0.66729126   -9.2277962    501.51609  0.011443868  0.010691488         3114 
 3653000    0.6580093   -9.2280012    501.70749  0.011445102  0.010687009         3096 
 3654000    0.6440934   -9.2459983    499.80933   0.01139868  0.010682527         3099 
 3655000   0.65422097   -9.2316011    500.19782  0.011404419  0.010678044         3098 
 3656000    0.6826085   -9.2116007    501.00934  0.011419797  0.010673566         3083 
 3657000   0.66708604   -9.2224095    501.28262  0.011422902  0.010669093         3093 
 3658000   0.65748119   -9.2217658    500.34001  0.011398305  0.010664623         3057 
 3659000   0.65750475   -9.2197076    501.31335  0.011417358  0.010660154         3132 
 3660000   0.65998409   -9.2188509    501.09219  0.011409203  0.010655688         3076 
 3661000   0.67110529   -9.2126356    500.75081  0.011398316  0.010651226         3094 
 3662000   0.66562193   -9.2340649     501.7042  0.011416899  0.010646768         3131 
 3663000   0.67907635   -9.2425567    500.98706  0.011397467  0.010642308         3122 
 3664000   0.66184074   -9.2406723    501.56146   0.01140742  0.010637844         3130 
 3665000   0.66730459   -9.2379234     500.5824  0.011382046  0.010633385         3095 
 3666000   0.64965449   -9.2390735    500.86107  0.011385276  0.010628931         3123 
 3667000   0.66084724   -9.2298322    500.68338  0.011378133  0.010624476         3145 
 3668000   0.67042356   -9.2429345    500.00319  0.011359578  0.010620026         3175 
 3669000   0.66543927   -9.2400285    501.02639  0.011379722  0.010615576         3132 
 3670000   0.67498953   -9.2369827    500.72904  0.011369869  0.010611125         3129 
 3671000   0.65933914   -9.2451623    500.05244  0.011351413  0.010606675         3176 
 3672000   0.65511786   -9.2256818    500.34957  0.011355065  0.010602231         3165 
 3673000   0.65869359   -9.2493843    500.52457  0.011355943  0.010597785         3138 
 3674000   0.67081234   -9.2456457     501.0509  0.011364791  0.010593343         3170 
 3675000   0.66512004    -9.251027    500.43911  0.011347826  0.010588897         3151 
 3676000    0.6751907   -9.2334555    500.35456  0.011342822  0.010584459         3172 
 3677000   0.67381629   -9.2360808     500.5135  0.011343339  0.010580019         3164 
 3678000   0.64801296   -9.2250473    500.59493    0.0113421  0.010575585         3184 
 3679000   0.66960644   -9.2504162    500.17334  0.011329468  0.010571146         3187 
 3680000    0.6655693   -9.2255202    500.90735  0.011343011  0.010566713         3177 
 3681000   0.67897358   -9.2510399      500.823   0.01133802  0.010562288         3178 
 3682000   0.65704442   -9.2539021    499.73215  0.011310251  0.010557859         3155 
 3683000   0.67142428   -9.2513271    500.59096  0.011326612  0.010553439         3146 
 3684000   0.65381217   -9.2369337     500.9273  0.011331146  0.010549013         3141 
 3685000   0.66234526   -9.2448407    500.53872  0.011319284  0.010544591         3145 
 3686000   0.65612427   -9.2746525    500.56452  0.011316796  0.010540176         3186 
 3687000   0.67638938   -9.2452487    501.30636  0.011330494   0.01053576         3158 
 3688000   0.65882837   -9.2469511    501.00657  0.011320647  0.010531351         3186 
 3689000   0.66337491   -9.2594223    499.99228  0.011294666  0.010526942         3143 
 3690000    0.6653094    -9.245456    500.41217  0.011301088  0.010522535         3167 
 3691000   0.65721684   -9.2643877    499.56445  0.011278887  0.010518129         3147 
 3692000   0.64173487   -9.2522541     501.3323  0.011315734  0.010513728         3183 
 3693000   0.66126387   -9.2643239    500.02448  0.011283159  0.010509332         3150 
 3694000   0.66627892   -9.2710249    500.05674  0.011280832  0.010504935         3198 
 3695000   0.65880286   -9.2388266    499.58425  0.011267123  0.010500542         3164 
 3696000   0.66159145   -9.2561498    501.36848  0.011304304  0.010496149         3184 
 3697000   0.66323129   -9.2614076    500.00662  0.011270549  0.010491757         3187 
 3698000    0.6587369   -9.2468388    499.82697  0.011263453  0.010487365         3221 
 3699000   0.65553172   -9.2472481    500.25801  0.011270118  0.010482977         3183 
 3700000   0.66319283   -9.2456442    499.80569  0.011256885  0.010478587         3209 
 3701000   0.65668404   -9.2653296    500.22781  0.011263348  0.010474201         3196 
 3702000   0.65941298   -9.2631152    500.14095   0.01125835  0.010469812         3191 
 3703000   0.64590775   -9.2514123    500.36982   0.01126046  0.010465427         3177 
 3704000   0.68156472   -9.2766482     501.2168  0.011276476  0.010461045         3167 
 3705000   0.65185422   -9.2750416    499.97939    0.0112456  0.010456665         3173 
 3706000   0.64928548   -9.2719466    500.48608  0.011253959  0.010452286         3164 
 3707000   0.66389448    -9.253111    500.74302  0.011256699  0.010447914         3171 
 3708000   0.66517729   -9.2820611    499.26969  0.011220552  0.010443535         3185 
 3709000   0.65741075   -9.2522261      500.564  0.011246607  0.010439162         3179 
 3710000   0.65459584    -9.263527    499.93463  0.011229439  0.010434789         3166 
 3711000   0.66026096     -9.26512    500.39978  0.011236858  0.010430422         3203 
 3712000   0.66828987   -9.2503048    500.09196  0.011226921  0.010426054         3169 
 3713000   0.65752941   -9.2666309    500.20093  0.011226343  0.010421689         3169 
 3714000   0.65352904   -9.2668821    500.16688  0.011222556  0.010417323         3199 
 3715000   0.64378468   -9.2484906    499.78733  0.011211021  0.010412967         3189 
 3716000   0.65717312   -9.2776853    498.97125  0.011189703  0.010408611         3180 
 3717000   0.64945053   -9.2881127    499.94348   0.01120849  0.010404252         3202 
 3718000    0.6486892   -9.2796982    500.33366   0.01121422  0.010399902         3197 
 3719000    0.6435921   -9.2860021    499.95099   0.01120263  0.010395552         3200 
 3720000    0.6629432   -9.2618955     499.6733  0.011193398  0.010391205         3204 
 3721000   0.66481566   -9.2619772    500.29586  0.011204333   0.01038686         3189 
 3722000   0.64731586   -9.2560034    499.75356  0.011189181  0.010382518         3216 
 3723000   0.65559568   -9.2763092    500.06856  0.011193226  0.010378172         3165 
 3724000   0.66385482   -9.2631783    500.29292  0.011195241  0.010373835         3196 
 3725000   0.67163588   -9.2776848      499.248  0.011168859  0.010369495         3218 
 3726000   0.65204809   -9.2729709    499.58148   0.01117332  0.010365161         3236 
 3727000   0.64656687   -9.2616415    500.80078  0.011197585  0.010360832         3217 
 3728000   0.67774083   -9.2900361    499.75466  0.011171197  0.010356502         3198 
 3729000   0.66218374   -9.2482831    499.61483  0.011165076  0.010352171         3231 
 3730000    0.6549317   -9.2921961    499.62344  0.011162275  0.010347846         3200 
 3731000    0.6519696   -9.2774164    500.22691  0.011172762  0.010343518         3187 
 3732000   0.66343822    -9.264519    500.80539  0.011182685  0.010339198         3196 
 3733000   0.65475991    -9.281028    498.70146  0.011132723  0.010334873         3228 
 3734000   0.65777015   -9.2593814    499.92065  0.011156951  0.010330553         3225 
 3735000   0.66206164   -9.2778212     500.0137   0.01115604  0.010326236         3232 
 3736000   0.65700277   -9.2652495    499.96829  0.011152041  0.010321916         3216 
 3737000    0.6557204   -9.2760068    499.41841  0.011136795  0.010317605         3192 
 3738000   0.64233546   -9.2559788    500.04581  0.011147802  0.010313296         3197 
 3739000   0.66063975   -9.2832225    500.00144  0.011143832  0.010308985         3199 
 3740000   0.64152841   -9.2966768     498.9465  0.011117346  0.010304679         3216 
 3741000   0.64775383   -9.2792094    500.81874   0.01115608  0.010300369         3255 
 3742000    0.6558478    -9.271168    499.74913  0.011129279  0.010296071         3160 
 3743000    0.6413823   -9.2774025    499.39946   0.01111852  0.010291772         3236 
 3744000   0.66163822   -9.2978781    499.76972  0.011123792  0.010287476         3229 
 3745000   0.63814255   -9.2861167    499.04772  0.011104756  0.010283181         3212 
 3746000    0.6627802   -9.2742543    499.48162  0.011111444  0.010278888         3259 
 3747000   0.65100995   -9.2952571    499.60153  0.011111145  0.010274596         3241 
 3748000   0.65825126   -9.2998086    499.76234  0.011111756  0.010270305         3209 
 3749000   0.63829438   -9.2928577    499.58159  0.011104774  0.010266017         3269 
 3750000   0.64409999   -9.2767942     500.2199  0.011115998   0.01026173         3235 
 3751000   0.66118103   -9.2862896    499.40117  0.011094845  0.010257451         3229 
 3752000   0.64302061   -9.2881487    499.59432  0.011096178   0.01025317         3212 
 3753000   0.64101348   -9.2735162    500.08764  0.011104175  0.010248889         3237 
 3754000   0.63019493   -9.2943881    499.46036  0.011087293  0.010244609         3217 
 3755000   0.66582665   -9.2835372    499.23862  0.011079419   0.01024034         3199 
 3756000   0.65223634   -9.2954109    500.14403  0.011096557  0.010236071         3214 
 3757000   0.65162339    -9.290493    498.38614  0.011054612  0.010231794         3215 
 3758000   0.64034386   -9.2796542    499.56611  0.011077836  0.010227527         3208 
 3759000   0.65832625   -9.3003761    498.98232  0.011061947  0.010223259         3224 
 3760000   0.66102139   -9.2743876    499.76681  0.011076392     0.010219         3235 
 3761000   0.65010489   -9.2697596    499.24481  0.011061881   0.01021474         3213 
 3762000    0.6511616   -9.2976203    500.16464  0.011079316  0.010210486         3194 
 3763000   0.66484585   -9.2829971    499.42947  0.011060091   0.01020623         3232 
 3764000    0.6653082   -9.2792078    499.74206  0.011064073  0.010201978         3253 
 3765000   0.65583823    -9.284515    499.62217  0.011058481  0.010197732         3225 
 3766000   0.66550104   -9.2922955     500.0073  0.011064067  0.010193484         3271 
 3767000   0.66363597   -9.2864068    499.94207  0.011059687  0.010189239         3242 
 3768000   0.65341505   -9.2810346    500.24336  0.011063415  0.010184997         3185 
 3769000   0.65921386   -9.2722649    499.63533  0.011047036  0.010180758         3224 
 3770000   0.65451104   -9.2841158    500.89437  0.011071936  0.010176522         3191 
 3771000   0.65904797   -9.2720043    499.89136  0.011046835  0.010172287         3242 
 3772000   0.64536357   -9.2960057    499.53917  0.011036125  0.010168057         3261 
 3773000   0.64299652   -9.2911774    500.57066  0.011055982   0.01016383         3231 
 3774000   0.64586005   -9.3008607    499.26075  0.011024129  0.010159604         3255 
 3775000   0.64532272    -9.292951    500.56672  0.011050038  0.010155377         3270 
 3776000   0.64413447   -9.2668989    499.91088  0.011032638  0.010151155         3257 
 3777000   0.64877646   -9.2959636    500.07686  0.011033379  0.010146933         3302 
 3778000   0.64543343   -9.2950385    499.30568  0.011013448  0.010142712         3249 
 3779000   0.65913185    -9.291487     499.2992  0.011010391  0.010138494         3244 
 3780000   0.65197392   -9.2678202    498.86362  0.010997875  0.010134281         3284 
 3781000   0.65139266   -9.2603078      500.586  0.011032928  0.010130071         3217 
 3782000   0.65512008   -9.2848223    500.24652   0.01102253  0.010125862         3288 
 3783000   0.64386625   -9.2788548    499.48104  0.011002754  0.010121656         3266 
 3784000   0.64261825   -9.2755946    499.48058  0.010999837  0.010117451         3293 
 3785000   0.63612473   -9.2916241    499.89551  0.011006066  0.010113249         3278 
 3786000   0.63549759   -9.2817053    499.34264   0.01099099  0.010109049         3282 
 3787000   0.65922538   -9.3108283    499.37492  0.010988798  0.010104853         3287 
 3788000   0.63701224   -9.3049576    499.18364  0.010981689  0.010100656         3308 
 3789000   0.64555027   -9.2739348    499.83561   0.01099313  0.010096463         3289 
 3790000   0.65046627   -9.2743091    499.50947  0.010983058  0.010092271         3281 
 3791000   0.63679357   -9.2963048    499.62404  0.010982679  0.010088076         3313 
 3792000   0.64553124   -9.3012207    499.20019  0.010970468  0.010083887         3307 
 3793000   0.66253472   -9.2990554    499.41122  0.010972212  0.010079698         3300 
 3794000   0.64715094   -9.2983366    498.40554  0.010947231  0.010075512         3275 
 3795000   0.65584278    -9.286258    499.15242  0.010960747  0.010071329         3292 
 3796000   0.63433159    -9.311769    499.04145  0.010955423  0.010067144         3276 
 3797000   0.64600958   -9.2956306    500.16529  0.010977203  0.010062966         3275 
 3798000   0.64506305   -9.2968439    499.64113  0.010962812  0.010058786         3247 
 3799000   0.64824077   -9.3090465    499.34837  0.010953505   0.01005461         3277 
 3800000   0.65094706   -9.3022141     499.4185   0.01095216   0.01005044         3280 
 3801000   0.65024219   -9.3147091    498.43252  0.010927662   0.01004627         3277 
 3802000   0.63926027   -9.3159281    498.56656  0.010927726  0.010042099         3259 
 3803000   0.66519022   -9.2871379    499.59737   0.01094744  0.010037937         3289 
 3804000   0.63189859   -9.2931733    498.89328  0.010929138  0.010033777         3261 
 3805000   0.63338586   -9.2862375    499.21651  0.010933345  0.010029616         3275 
 3806000   0.64048848   -9.3008796    498.87412  0.010922975  0.010025459         3240 
 3807000   0.63895646   -9.2804551    499.82545   0.01094093  0.010021302         3237 
 3808000   0.63713493   -9.2830464     500.3319   0.01094914  0.010017148         3281 
 3809000   0.63544312   -9.2878651     500.3931  0.010947604  0.010012996         3275 
 3810000   0.64280634   -9.2813057    498.75218   0.01090884  0.010008846         3291 
 3811000   0.64000037   -9.3011157    499.01109  0.010911639    0.0100047         3294 
 3812000   0.63086033     -9.30479    499.76757  0.010925314  0.010000561         3267 
 3813000   0.64107429   -9.3183503    499.49977  0.010916596  0.009996417         3280 
 3814000   0.65169626   -9.2843434    498.80983  0.010898659 0.0099922751         3275 
 3815000   0.65319467   -9.2990322    499.16462  0.010903552 0.0099881343         3302 
 3816000    0.6445118   -9.2903199    499.25089  0.010902579 0.0099839944         3292 
 3817000   0.62542296   -9.3104716    499.72121  0.010909991  0.009979859         3324 
 3818000   0.64495342   -9.2872088    498.79424  0.010886901 0.0099757234         3296 
 3819000   0.64809067   -9.2873985    498.95973  0.010887661 0.0099715943         3275 
 3820000   0.64621992      -9.3027    499.09343  0.010887728 0.0099674725         3270 
 3821000   0.64169956   -9.3153842     499.0927  0.010884862 0.0099633463         3319 
 3822000   0.63011008   -9.3024282     499.4344  0.010889465 0.0099592219         3277 
 3823000   0.64538366   -9.2824938    499.82788  0.010895193 0.0099551017         3311 
 3824000   0.63314784   -9.2934148    499.45306  0.010884176 0.0099509839         3274 
 3825000   0.63680682   -9.2953984    499.41199  0.010880436 0.0099468685         3335 
 3826000    0.6305187   -9.3143267    498.87529  0.010865902 0.0099427514         3306 
 3827000   0.63798507   -9.3046179     499.7045  0.010881119 0.0099386333         3309 
 3828000   0.64278136     -9.32992    498.95672  0.010861998 0.0099345172         3292 
 3829000   0.64346858   -9.3122373    499.68252  0.010874957 0.0099304018         3277 
 3830000   0.64713001   -9.3088336    499.10191  0.010859484 0.0099262893         3308 
 3831000   0.65257077   -9.3130289    499.51577  0.010865652 0.0099221823         3281 
 3832000   0.63869496   -9.3256394    499.19819   0.01085591 0.0099180732         3258 
 3833000   0.63652152   -9.3109304    499.14458  0.010851913 0.0099139693         3289 
 3834000   0.61725855    -9.317336    500.04555  0.010868665 0.0099098649         3325 
 3835000   0.63746178   -9.3447219    498.93115  0.010841616  0.009905762         3305 
 3836000   0.65944225   -9.3317157    499.24145   0.01084553  0.009901661         3298 
 3837000   0.64653557    -9.324308    499.46336  0.010847523 0.0098975613         3327 
 3838000    0.6351961   -9.3177777    498.96661  0.010833911 0.0098934648         3321 
 3839000   0.63185757    -9.312242    498.25082  0.010815551 0.0098893683         3304 
 3840000   0.63141894   -9.3030746    499.23136  0.010834014 0.0098852711         3283 
 3841000   0.64251037   -9.3262208    498.82467   0.01082237 0.0098811784         3278 
 3842000   0.63759753   -9.3415273    498.21009  0.010806223 0.0098770892         3280 
 3843000   0.62854991   -9.3229469    498.54276  0.010810625  0.009873001         3319 
 3844000    0.6339175   -9.3176615    499.37523  0.010825859 0.0098689174         3281 
 3845000   0.64140423   -9.3219213    499.39669  0.010823509 0.0098648319         3332 
 3846000   0.62406971   -9.3056834    498.14204  0.010793509 0.0098607535         3336 
 3847000   0.63562298   -9.3038878    499.02804  0.010809896 0.0098566733         3342 
 3848000   0.64295769   -9.3081805    499.16412  0.010810034 0.0098525978         3322 
 3849000   0.62562039   -9.3312403    498.51828  0.010793242  0.009848524         3309 
 3850000   0.64561974   -9.3131811    498.84643  0.010797542 0.0098444496         3311 
 3851000   0.64080821   -9.3166883      498.198  0.010780706 0.0098403825         3322 
 3852000   0.64355509   -9.3322384    499.67731  0.010809911 0.0098363197         3302 
 3853000   0.63966973   -9.3163462    498.50082   0.01078166  0.009832251         3336 
 3854000   0.64764668   -9.3298529     499.0065  0.010789796 0.0098281907         3320 
 3855000   0.64656832   -9.3274526    498.91006  0.010784913 0.0098241335         3319 
 3856000   0.62335715   -9.3073898    499.45632  0.010793921  0.009820076         3314 
 3857000   0.63910992   -9.3252785    499.94377  0.010801654 0.0098160194         3299 
 3858000   0.63850795   -9.3341043    499.00773  0.010778636 0.0098119689         3284 
 3859000   0.62858409   -9.3112676    499.21161  0.010780245 0.0098079225         3291 
 3860000   0.63032047   -9.3100301    499.16003  0.010776339 0.0098038763         3299 
 3861000   0.63344692   -9.2951007    499.42476  0.010779262 0.0097998295         3294 
 3862000   0.64445759   -9.3419224    498.63948  0.010759526 0.0097957891         3312 
 3863000   0.63886252    -9.327325    498.37119  0.010750953 0.0097917465         3298 
 3864000   0.62920632   -9.3121127    498.32817  0.010747243 0.0097877104         3289 
 3865000   0.64339992   -9.3208912    498.13338  0.010740263 0.0097836764         3288 
 3866000   0.63134322   -9.3260506    498.32725  0.010741663 0.0097796397         3328 
 3867000   0.63872256   -9.3359629     498.8603  0.010750373 0.0097756087         3318 
 3868000   0.63623053   -9.3164987    498.84635  0.010747293 0.0097715767         3317 
 3869000   0.64140557   -9.3309951    498.70356   0.01074144 0.0097675501         3320 
 3870000   0.63965754   -9.3207697    498.67536  0.010738057   0.00976352         3332 
 3871000    0.6347081   -9.3163883    497.98205  0.010720357 0.0097594958         3320 
 3872000   0.63637651   -9.3412801    498.71471  0.010733357 0.0097554693         3320 
 3873000   0.63777737   -9.3231934    499.39321  0.010745185 0.0097514441         3347 
 3874000   0.64110248   -9.3380952    498.65258  0.010726479 0.0097474249         3319 
 3875000   0.63190781   -9.3169053    499.15507  0.010734518 0.0097434037         3325 
 3876000    0.6351285   -9.3255649    498.57606  0.010719299  0.009739383         3297 
 3877000   0.62960353   -9.3025696    499.33207  0.010732785   0.00973537         3318 
 3878000   0.63498115    -9.334348    497.81366  0.010697388 0.0097313591         3369 
 3879000   0.63826295   -9.3391251    498.39178   0.01070705 0.0097273519         3335 
 3880000   0.63994553   -9.3269779    497.58882  0.010687045 0.0097233431         3335 
 3881000    0.6320544   -9.3251046    498.10549  0.010695386  0.009719336         3368 
 3882000   0.63092807   -9.3210295    497.64204  0.010682682 0.0097153257         3355 
 3883000   0.63455358   -9.3301642     498.0544   0.01068878 0.0097113202         3361 
 3884000   0.63437557   -9.3468148    499.21307  0.010710888 0.0097073196         3362 
 3885000    0.6345274   -9.3429783    499.11881  0.010706109 0.0097033208         3352 
 3886000   0.62691203   -9.3357046     499.0195  0.010701224 0.0096993262         3369 
 3887000    0.6323805   -9.3237552    499.00257  0.010698109 0.0096953278         3321 
 3888000   0.61820831   -9.3491306      498.943   0.01069408 0.0096913321         3350 
 3889000   0.63576806   -9.3497261    498.66787  0.010685435 0.0096873409         3382 
 3890000   0.63186154   -9.3165597     499.3546  0.010697399 0.0096833511         3307 
 3891000    0.6303172   -9.3327204    498.05383  0.010666792 0.0096793652         3388 
 3892000   0.62398991   -9.3299968    498.78661  0.010679741 0.0096753786         3328 
 3893000   0.63558012   -9.3285704    498.19335  0.010664298 0.0096713985         3354 
 3894000   0.62937239   -9.3324681     498.8996  0.010676674  0.009667421         3320 
 3895000   0.63363436   -9.3389466    498.31874  0.010661505 0.0096634413         3299 
 3896000   0.62028568   -9.3247825    498.81032  0.010669283 0.0096594633         3347 
 3897000   0.62694419   -9.3441575    498.65868  0.010663303 0.0096554921         3319 
 3898000   0.63455474   -9.3375312    499.02531  0.010668405 0.0096515222         3334 
 3899000   0.61707061   -9.3371329    497.80839   0.01063966 0.0096475505         3347 
 3900000   0.62977909   -9.3465187    498.34789  0.010648459 0.0096435817         3371 
 3901000     0.638172   -9.3350462    498.32212  0.010645179 0.0096396159         3347 
 3902000   0.63578898    -9.352501    498.25107  0.010640933 0.0096356501         3359 
 3903000    0.6187581   -9.3461297    497.99383  0.010632715  0.009631688         3304 
 3904000   0.62196537    -9.343815    498.32976  0.010637162 0.0096277287         3358 
 3905000   0.62577638   -9.3227524    499.11429   0.01065118 0.0096237685         3301 
 3906000   0.61324811   -9.3170735    498.88756  0.010643616   0.00961981         3368 
 3907000   0.63133205   -9.3373479     498.4728  0.010632045 0.0096158579         3350 
 3908000   0.62750309   -9.3323007    498.85108  0.010637391  0.009611906         3321 
 3909000   0.61691269   -9.3575322     497.9563  0.010615594 0.0096079551         3345 
 3910000   0.62651331   -9.3451451    498.78016  0.010630438 0.0096040097         3339 
 3911000   0.61559076   -9.3528986    498.82177  0.010628607 0.0096000667         3312 
 3912000   0.64150092   -9.3326217    498.71616   0.01062364 0.0095961228         3322 
 3913000   0.63069723   -9.3187751    498.58739  0.010618183 0.0095921811         3351 
 3914000   0.62382965   -9.3439652    497.76391  0.010597937 0.0095882438         3349 
 3915000   0.62121558   -9.3133445      498.295  0.010606535 0.0095843037         3339 
 3916000   0.63242632   -9.3557719    498.93919  0.010617535 0.0095803705         3324 
 3917000   0.61819431   -9.3198196    498.61499  0.010607927 0.0095764365         3317 
 3918000   0.62520311    -9.332309    498.91381  0.010611575 0.0095725078         3368 
 3919000   0.63217445   -9.3333878    497.82987  0.010585818 0.0095685782         3350 
 3920000   0.62488489   -9.3406428    498.47422  0.010596816 0.0095646507         3353 
 3921000   0.63411819   -9.3307531    498.05064  0.010585111 0.0095607252         3352 
 3922000   0.63380975    -9.346372    498.78755   0.01059807 0.0095568001         3357 
 3923000   0.61982188   -9.3295371    497.43801  0.010566701 0.0095528819         3340 
 3924000   0.63609756   -9.3489865    498.26733   0.01058162 0.0095489649         3308 
 3925000   0.63369038   -9.3338295    498.21976  0.010577914 0.0095450503         3369 
 3926000   0.61367514   -9.3427072    498.11615  0.010573021 0.0095411361         3338 
 3927000   0.61354622   -9.3361571    498.40214  0.010576397 0.0095372238         3363 
 3928000   0.62245364   -9.3378204    498.92956  0.010584894 0.0095333144         3367 
 3929000   0.62847544   -9.3508486    498.14664  0.010565594 0.0095294061         3349 
 3930000   0.61289262   -9.3656977    498.64045  0.010573377 0.0095255011         3319 
 3931000   0.61370863   -9.3563934    499.50236  0.010588959 0.0095215952         3406 
 3932000   0.61293784   -9.3243761    498.46787  0.010564341 0.0095176938         3360 
 3933000   0.61665813   -9.3306953       498.08  0.010553437 0.0095137946         3362 
 3934000   0.61021351   -9.3609129    497.92326  0.010547434 0.0095098939         3372 
 3935000   0.62332869   -9.3340196    498.52087  0.010557409 0.0095059939         3383 
 3936000   0.61198919   -9.3278696    498.76723  0.010559943 0.0095020979         3363 
 3937000   0.62179102   -9.3155756    498.11789  0.010543516 0.0094982074         3368 
 3938000   0.62004479   -9.3419257    498.08092  0.010540057 0.0094943185         3383 
 3939000   0.62700731   -9.3511992    498.19205  0.010539732 0.0094904313         3413 
 3940000   0.63205419   -9.3434135    498.18371   0.01053688 0.0094865421         3351 
 3941000   0.63810724   -9.3527072    497.73922  0.010524808 0.0094826531         3341 
 3942000    0.6182168   -9.3416629    497.50301  0.010517145 0.0094787683         3361 
 3943000   0.61883429   -9.3552662    498.68012  0.010539355 0.0094748886         3363 
 3944000   0.62762143    -9.335909     498.9263  0.010541884 0.0094710121         3343 
 3945000   0.63355932   -9.3558589    497.86857  0.010516869 0.0094671372         3336 
 3946000   0.60859919    -9.349362    499.43651  0.010547316 0.0094632645         3339 
 3947000   0.62399156   -9.3664211    497.90061  0.010512216 0.0094593956         3320 
 3948000   0.62684086   -9.3390636    497.95406  0.010510682 0.0094555272         3379 
 3949000   0.61560432   -9.3406792    498.42472  0.010517952 0.0094516607         3337 
 3950000   0.61274754   -9.3472051    498.76706  0.010522512 0.0094477992         3325 
 3951000    0.6286905   -9.3534232    498.83849  0.010521355 0.0094439376         3369 
 3952000   0.62767664   -9.3456344    498.67661  0.010515279 0.0094400807         3349 
 3953000   0.62440502   -9.3470007    497.69326  0.010491889 0.0094362232         3367 
 3954000   0.61808594   -9.3386115    497.49199  0.010484994 0.0094323677         3419 
 3955000   0.61432268   -9.3447463     498.4243  0.010501987 0.0094285165         3343 
 3956000   0.61895275   -9.3371799    497.97512   0.01048987 0.0094246658         3380 
 3957000   0.61323803   -9.3247751    498.72751  0.010503064 0.0094208164         3348 
 3958000   0.60930716   -9.3475298    498.40133  0.010493543 0.0094169667         3375 
 3959000   0.61627575    -9.357887    498.89247  0.010501231 0.0094131198         3343 
 3960000   0.62509916   -9.3501999    498.28712   0.01048584 0.0094092739         3361 
 3961000     0.619081   -9.3428627    497.50737  0.010466788  0.009405432         3364 
 3962000   0.62335687   -9.3461522    498.26787  0.010480142 0.0094015924         3395 
 3963000   0.61844263   -9.3451282    497.80811   0.01046783 0.0093977518         3377 
 3964000   0.61859494   -9.3436389    497.05937  0.010449449  0.009393913         3349 
 3965000   0.61959777   -9.3706604    497.49358  0.010455939 0.0093900776         3368 
 3966000   0.61189964   -9.3642312    497.62277  0.010456017  0.009386243         3425 
 3967000   0.60948407   -9.3430406    497.34928  0.010447636 0.0093824158         3388 
 3968000   0.61136326   -9.3634647    497.98759  0.010458409 0.0093785884         3358 
 3969000   0.61248532    -9.357979     498.2192  0.010460637 0.0093747641         3385 
 3970000   0.61140557   -9.3494315    498.20406  0.010457684 0.0093709416         3360 
 3971000   0.62739296   -9.3390073    497.17573   0.01043347 0.0093671185         3379 
 3972000   0.61199154    -9.363485    498.24438  0.010453264 0.0093633001         3371 
 3973000   0.61993772   -9.3706289    497.88014  0.010442993  0.009359481         3370 
 3974000   0.60597396   -9.3594043    498.35793  0.010450384 0.0093556689         3370 
 3975000   0.58824581   -9.3545372    498.93921  0.010459942 0.0093518545         3371 
 3976000   0.62158117   -9.3539169    497.52139  0.010427594 0.0093480419         3384 
 3977000   0.61342417   -9.3593028    497.52944  0.010425141 0.0093442307         3402 
 3978000   0.60449564   -9.3490195    498.02992  0.010433005 0.0093404217         3361 
 3979000   0.60879347   -9.3644187     497.5366  0.010420051 0.0093366127         3399 
 3980000   0.61013425   -9.3420209    497.25249  0.010411484 0.0093328082         3387 
 3981000   0.62534139   -9.3407344    498.38169  0.010432506 0.0093290068         3379 
 3982000   0.60677038   -9.3395369    497.80618  0.010417842 0.0093252068         3380 
 3983000   0.61447011   -9.3484231    498.25615  0.010424641 0.0093214095         3351 
 3984000   0.60984407   -9.3328142    498.38094  0.010424635 0.0093176163         3361 
 3985000   0.60814235   -9.3545761    497.57891  0.010405247 0.0093138229         3408 
 3986000   0.61581041   -9.3419421    496.85268  0.010387454 0.0093100271         3369 
 3987000   0.61064727   -9.3619363    498.04863  0.010409845 0.0093062366         3360 
 3988000    0.6153402   -9.3587202    498.00514  0.010406326 0.0093024512         3399 
 3989000   0.61161623   -9.3548263    497.92016  0.010401942 0.0092986634         3352 
 3990000   0.61872373   -9.3522231     497.1842  0.010383964  0.009294881         3378 
 3991000   0.60599466   -9.3610659     497.5322  0.010388629 0.0092910998         3380 
 3992000   0.62045896   -9.3703288    498.61811  0.010408695 0.0092873237         3402 
 3993000   0.60358545   -9.3481518    497.66936  0.010386288 0.0092835458         3375 
 3994000   0.62177408   -9.3644145    498.28052  0.010396439 0.0092797711         3362 
 3995000    0.6111154   -9.3434802    498.43154  0.010396987 0.0092759966         3430 
 3996000   0.61282654    -9.350323    498.19455  0.010389443 0.0092722221         3403 
 3997000   0.60814716   -9.3653462    497.94007  0.010381538 0.0092684535         3420 
 3998000   0.61326113   -9.3606251    498.13645  0.010383034 0.0092646842         3359 
 3999000   0.61464933   -9.3621044     497.8824  0.010375144 0.0092609185         3360 
 4000000   0.61996102   -9.3718011    497.99895  0.010374978 0.0092571549         3364 
 4001000   0.59999373   -9.3416203     498.7821  0.010388697 0.0092533932         3399 
 4002000   0.62459721   -9.3762909    497.55402  0.010360529 0.0092496349         3416 
 4003000   0.61091816   -9.3534251    498.23064  0.010372026  0.009245881         3410 
 4004000   0.60238305   -9.3597396    497.01323  0.010344098 0.0092421274         3407 
 4005000   0.61919574    -9.357818    497.91613  0.010360302 0.0092383731         3371 
 4006000   0.59978249   -9.3498157    498.03989  0.010360291 0.0092346233         3404 
 4007000   0.61024436   -9.3541197    498.04588   0.01035783  0.009230872         3326 
 4008000   0.62809638   -9.3855344    498.40327  0.010362676 0.0092271209         3444 
 4009000   0.61779473   -9.3687987    496.73968  0.010325511 0.0092233716         3415 
 4010000    0.6035847   -9.3567108    497.83602  0.010345719 0.0092196278         3380 
 4011000   0.60305416   -9.3688414    498.26548  0.010352063 0.0092158845         3345 
 4012000    0.6007801   -9.3706123    497.30768  0.010329588 0.0092121451         3358 
 4013000   0.60778837    -9.348481    498.21681  0.010345893 0.0092084058         3378 
 4014000    0.6118569   -9.3652893    497.59224  0.010330349 0.0092046719         3377 
 4015000   0.60881566   -9.3495701    498.56079  0.010347879 0.0092009371         3398 
 4016000   0.61135817    -9.372837    497.69479  0.010327332 0.0091972056         3422 
 4017000    0.6182918   -9.3957863    498.31581  0.010337644 0.0091934758         3411 
 4018000   0.62096514   -9.3749072    497.26713  0.010313322 0.0091897538         3396 
 4019000   0.60647469   -9.3638386    497.99322  0.010325811 0.0091860262         3344 
 4020000   0.60909635   -9.3512904    498.74932  0.010338916 0.0091823037         3395 
 4021000   0.61795076   -9.3701928    497.54417  0.010311369   0.00917858         3421 
 4022000   0.60781792   -9.3598698    497.78057  0.010313703 0.0091748582         3424 
 4023000   0.60588124   -9.3584466    497.87236  0.010313041 0.0091711394         3433 
 4024000   0.59898066   -9.3618045    497.14544  0.010295424 0.0091674229         3377 
 4025000   0.60755325   -9.3456394    498.31641   0.01031711 0.0091637113         3422 
 4026000    0.6129829   -9.3674125    497.64858  0.010300724 0.0091599986         3374 
 4027000   0.60970808   -9.3751096    498.87272  0.010323498   0.00915629         3433 
 4028000   0.60718103   -9.3776325    497.84193   0.01029961 0.0091525857         3402 
 4029000   0.61877851   -9.3529982    497.58221  0.010291681  0.009148882         3401 
 4030000   0.60013172   -9.3419779    498.04834  0.010298766 0.0091451819         3382 
 4031000   0.58752047   -9.3592767    497.92368  0.010293634 0.0091414839         3391 
 4032000   0.59597348   -9.3641637    497.86081  0.010289782 0.0091377862         3412 
 4033000   0.61073702   -9.3625271    497.37293   0.01027715 0.0091340896         3387 
 4034000   0.61300811   -9.3692894    497.52968   0.01027784 0.0091303958         3368 
 4035000   0.60099568   -9.3550904    497.39835  0.010272581 0.0091266979         3412 
 4036000   0.60999927   -9.3797414    497.22731  0.010266504 0.0091230044         3384 
 4037000   0.61797512   -9.3956124    497.70115  0.010273742 0.0091193119         3408 
 4038000   0.59629767   -9.3887675    497.71971  0.010271581 0.0091156214         3407 
 4039000   0.59079776   -9.3406892    498.05068  0.010275866 0.0091119329         3389 
 4040000    0.6185879   -9.3497966    498.01291  0.010272544   0.00910825         3402 
 4041000   0.59034177   -9.3652739    497.81572  0.010265935 0.0091045679         3419 
 4042000   0.60751821   -9.3758295    497.56833  0.010258295 0.0091008884         3451 
 4043000   0.58418202   -9.3735406    496.97062  0.010243438 0.0090972103         3427 
 4044000   0.61122345   -9.3590996    498.29838  0.010268265 0.0090935342         3393 
 4045000    0.6087257    -9.372147    497.28967  0.010244946 0.0090898603         3396 
 4046000   0.59884999   -9.3827263    497.00545   0.01023656 0.0090861858         3392 
 4047000    0.6004773   -9.3700912    497.46503  0.010243494 0.0090825117         3411 
 4048000   0.61166432   -9.3874305    498.12185  0.010254485 0.0090788411         3419 
 4049000   0.60570024   -9.3859728    497.24226  0.010233849 0.0090751734         3416 
 4050000   0.60995913   -9.3770116    497.81961  0.010243202 0.0090715083         3405 
 4051000   0.60524871   -9.3747675    496.96946  0.010223185 0.0090678442         3407 
 4052000   0.59256354   -9.3862483    496.67318  0.010214569 0.0090641779         3388 
 4053000   0.60131991   -9.3787736    497.18312  0.010222533 0.0090605171         3428 
 4054000   0.60190501   -9.3782271    497.16415  0.010219622 0.0090568572         3414 
 4055000    0.5971291    -9.365187    497.65607  0.010227211 0.0090531978         3408 
 4056000   0.59980681   -9.3949632    497.13692  0.010214023 0.0090495426         3388 
 4057000    0.6109307   -9.3843586    497.36568  0.010216204 0.0090458913         3417 
 4058000   0.59962519   -9.3852781    497.52128  0.010216882 0.0090422419         3436 
 4059000   0.59950502   -9.3821945    496.88611  0.010201324 0.0090385923         3379 
 4060000   0.59998748   -9.4005393    497.74344  0.010216409 0.0090349454         3398 
 4061000   0.60596188     -9.37112    497.20215  0.010202786 0.0090312972         3420 
 4062000   0.60447551    -9.382635    498.18228  0.010220382 0.0090276533         3378 
 4063000   0.60318575   -9.3823406    497.03117  0.010194256 0.0090240078         3421 
 4064000   0.62004296    -9.382063    497.73902  0.010206263 0.0090203717         3398 
 4065000   0.60399311   -9.3561648    497.87742  0.010206589 0.0090167341         3375 
 4066000    0.6100794   -9.3844138    496.76496  0.010181279 0.0090130977         3352 
 4067000   0.58535195   -9.3830995    496.85221  0.010180563 0.0090094619         3388 
 4068000   0.60378174   -9.3726437    496.99881  0.010181064 0.0090058267         3413 
 4069000   0.59199904   -9.3739361     498.5458  0.010210244 0.0090021949         3387 
 4070000    0.5981579   -9.3732711    497.64619  0.010189316 0.0089985627         3397 
 4071000   0.59714444   -9.3798753    497.28192  0.010179356 0.0089949322         3397 
 4072000   0.60676491   -9.3800629    496.57908  0.010162473 0.0089913074         3406 
 4073000    0.5924628   -9.3802169     496.9568  0.010167706 0.0089876856         3387 
 4074000   0.59990851   -9.3712925    497.78008   0.01018205 0.0089840624         3373 
 4075000   0.61127268   -9.3722864    497.83474   0.01018067 0.0089804411         3400 
 4076000   0.60139851    -9.353448    496.65161  0.010153983 0.0089768203         3440 
 4077000   0.60059635   -9.3908382    497.37338  0.010166245 0.0089732063         3449 
 4078000   0.60125713    -9.371936    497.49795  0.010166298 0.0089695911         3417 
 4079000   0.60944351   -9.3599451    497.15861  0.010156873 0.0089659819         3399 
 4080000   0.60575528   -9.3808933    497.01885  0.010151529 0.0089623725         3398 
 4081000   0.59787667   -9.3737927    497.23427   0.01015344 0.0089587637         3373 
 4082000   0.59758841   -9.3969909    497.48173  0.010156005 0.0089551568         3393 
 4083000     0.607903   -9.3815653    497.43463  0.010152556 0.0089515514         3393 
 4084000   0.60267149   -9.4101202    497.19334  0.010145147  0.008947947         3414 
 4085000   0.59590157   -9.3811998    497.50924  0.010149107 0.0089443485         3420 
 4086000   0.59593346   -9.3877059     496.7063  0.010130248  0.008940747         3356 
 4087000   0.59257969   -9.3873623    498.37703  0.010161835 0.0089371497         3392 
 4088000   0.59650361   -9.4029668    497.77299  0.010147036 0.0089335583         3405 
 4089000   0.60283424   -9.4112219    497.13754  0.010131604 0.0089299645         3397 
 4090000   0.59630386   -9.3880238    497.31202  0.010132682 0.0089263746         3439 
 4091000    0.5960993    -9.379097     498.1895  0.010148079 0.0089227861         3379 
 4092000   0.59980961   -9.3879446    497.11418    0.0101237 0.0089191996         3430 
 4093000   0.60701346   -9.3985306    496.50686  0.010108862 0.0089156141         3414 
 4094000   0.60372018    -9.388832    496.93015  0.010115009 0.0089120297         3386 
 4095000   0.60802462   -9.3869369    497.69528  0.010128109 0.0089084434         3426 
 4096000   0.59509243   -9.3692558    497.25447  0.010116668 0.0089048641         3406 
 4097000   0.59720509   -9.3865324     497.5492  0.010120194  0.008901285         3404 
 4098000   0.59511781   -9.3848005    497.78098  0.010122437 0.0088977082         3385 
 4099000   0.59187278   -9.3865415      497.172  0.010107587   0.00889413         3394 
 4100000    0.5972022   -9.3951833    497.74874  0.010116844 0.0088905521         3409 
 4101000     0.597151   -9.3968719    497.49759  0.010109274 0.0088869798         3382 
 4102000   0.58668045   -9.3842636    497.39049  0.010104634 0.0088834103         3407 
 4103000    0.5901994   -9.3975282    495.86527  0.010071193 0.0088798418         3399 
 4104000   0.59848172   -9.4032382    497.14881  0.010094802 0.0088762763         3410 
 4105000   0.58897408   -9.3776884    497.46553  0.010098773 0.0088727153         3387 
 4106000   0.58764387   -9.3734608    497.65058  0.010100069 0.0088691559         3399 
 4107000   0.59911389   -9.3802423    497.25702  0.010089624 0.0088655932         3413 
 4108000   0.59345812   -9.3718874    497.73505  0.010096865 0.0088620331         3418 
 4109000   0.59484003   -9.3817153    497.52462   0.01009014 0.0088584769         3402 
 4110000   0.58848704   -9.3856451    497.16399  0.010080373  0.008854921         3404 
 4111000    0.5784882    -9.386809    497.89328  0.010092704 0.0088513682         3416 
 4112000   0.59589246   -9.3668061    497.52865   0.01008286 0.0088478196         3391 
 4113000   0.59847441   -9.3807105    497.86133  0.010087149 0.0088442695         3426 
 4114000    0.5775782   -9.3781493    497.86674  0.010084807 0.0088407271         3394 
 4115000   0.58980179   -9.4047918    496.02459   0.01004505 0.0088371818         3433 
 4116000   0.59260696   -9.3780508    496.95525  0.010061452 0.0088336346         3415 
 4117000   0.59374913   -9.3906653    496.54071  0.010050617 0.0088300924         3416 
 4118000   0.58796866   -9.3948076    496.68637  0.010051125 0.0088265519         3440 
 4119000     0.586596   -9.4060874    496.92774  0.010053568 0.0088230116         3435 
 4120000   0.59159749   -9.3996504    497.58821  0.010064487 0.0088194768         3436 
 4121000   0.58371136   -9.4032977    496.28543    0.0100357 0.0088159423         3437 
 4122000   0.59653931   -9.3814404    495.70664  0.010021564 0.0088124067         3451 
 4123000   0.60416146   -9.3844744    496.98754  0.010045023 0.0088088786         3448 
 4124000   0.58897466   -9.4001456    497.39035  0.010050727 0.0088053498         3461 
 4125000   0.59176055   -9.3960649    497.09412  0.010042305 0.0088018181         3427 
 4126000   0.59824702   -9.3797108    497.09429  0.010039875 0.0087982915         3460 
 4127000   0.59441762   -9.3837914    497.54706  0.010046585 0.0087947661         3428 
 4128000   0.58236949   -9.3936949    497.49945   0.01004319 0.0087912438         3422 
 4129000   0.58696288   -9.3810245    496.16421  0.010013809 0.0087877239         3425 
 4130000   0.59552731   -9.4029796    496.46153  0.010017384 0.0087842067         3381 
 4131000   0.59775684   -9.3989819    497.03124  0.010026451 0.0087806877         3439 
 4132000   0.58420598   -9.3884292     497.3185  0.010029818 0.0087771705         3440 
 4133000   0.58874671    -9.418335    497.21279   0.01002526 0.0087736581         3444 
 4134000   0.58303904   -9.3991905    496.35538  0.010005551 0.0087701468         3401 
 4135000   0.58327733   -9.4049807    497.09856  0.010018109  0.008766638         3465 
 4136000   0.59342819   -9.3954115    498.47801   0.01004348 0.0087631322         3451 
 4137000   0.59514414   -9.4030431    497.08154  0.010012923  0.008759625         3444 
 4138000   0.58365479   -9.4003341    497.79863  0.010024944 0.0087561229         3435 
 4139000   0.59246435   -9.4114777    497.33824  0.010013253 0.0087526182         3427 
 4140000   0.58660688   -9.4120422    497.34877  0.010011046 0.0087491144         3454 
 4141000   0.60227033   -9.3982452    497.09728  0.010003567 0.0087456155         3422 
 4142000   0.57941425   -9.3917705    497.05817  0.010000366  0.008742118         3450 
 4143000   0.59749463   -9.4238727    496.60567 0.0099888501 0.0087386218         3447 
 4144000   0.57363199   -9.3944284     497.1429  0.009997243 0.0087351304         3399 
 4145000   0.59478914   -9.3862837    497.21312 0.0099962429 0.0087316413         3421 
 4146000   0.58824301   -9.3966072    497.00593 0.0099896673 0.0087281503         3442 
 4147000   0.57858563   -9.3927737    497.03927 0.0099879284  0.008724661         3439 
 4148000   0.59135672    -9.395134    496.66997 0.0099781014 0.0087211737         3452 
 4149000   0.58772221   -9.3879855    496.54496 0.0099731854 0.0087176899         3480 
 4150000   0.58358779   -9.3944421    497.46891 0.0099893356 0.0087142107         3439 
 4151000    0.5882775   -9.4087105    496.79565 0.0099734131 0.0087107284         3449 
 4152000   0.58808999   -9.3764857    496.81882 0.0099714759 0.0087072512         3411 
 4153000   0.58805711   -9.4061896    497.45163 0.0099817728 0.0087037745         3423 
 4154000   0.58909046   -9.4031197    496.75231 0.0099653409 0.0087002965         3446 
 4155000   0.59086595   -9.3846914    497.16634 0.0099712462 0.0086968231         3437 
 4156000   0.58515663   -9.4007095    495.59317 0.0099373028 0.0086933495         3431 
 4157000   0.58615702   -9.4050767     496.5992 0.0099550798 0.0086898779         3422 
 4158000   0.58565474   -9.4236464    496.67251 0.0099541548 0.0086864112         3428 
 4159000   0.58151177   -9.3926827    496.54693 0.0099492452 0.0086829468         3404 
 4160000   0.59051252   -9.4081966    496.26116 0.0099411291 0.0086794835         3435 
 4161000   0.58018805   -9.4131921    497.54454 0.0099644424 0.0086760245         3418 
 4162000   0.58321582   -9.4037084    496.78658 0.0099468721 0.0086725634         3409 
 4163000   0.59020872   -9.4011796    497.08713  0.009950499 0.0086691067         3410 
 4164000   0.58743166   -9.4146142    497.36687 0.0099537077 0.0086656481         3470 
 4165000   0.58688776   -9.4177915    496.47483 0.0099334701 0.0086621951         3472 
 4166000   0.57311959   -9.3926686    497.33039 0.0099481995 0.0086587368         3410 
 4167000   0.58813936   -9.4107469     497.0089 0.0099393828 0.0086552829         3451 
 4168000   0.56985677   -9.3949005    497.32075 0.0099432331 0.0086518327         3465 
 4169000    0.5837811   -9.4133697    497.23548 0.0099391437 0.0086483839         3473 
 4170000   0.58552537   -9.4104742     497.3113 0.0099382754 0.0086449347         3432 
 4171000   0.58038227   -9.4033978    496.49793 0.0099196421 0.0086414882         3473 
 4172000   0.58310253   -9.4088843     497.2149 0.0099315856 0.0086380421         3430 
 4173000   0.58005165   -9.4134354    496.90964 0.0099231098 0.0086346027         3484 
 4174000   0.57984126   -9.4161868    496.38843 0.0099103265 0.0086311607         3427 
 4175000   0.57697768    -9.419909    496.44228 0.0099090275 0.0086277202         3450 
 4176000   0.58355732   -9.4296741     497.1355 0.0099204881 0.0086242818         3415 
 4177000   0.59038586   -9.4105006    496.95722 0.0099145562 0.0086208453         3427 
 4178000   0.59528853   -9.3977174    497.18378 0.0099167021  0.008617413         3448 
 4179000   0.59128148   -9.4018988     497.4437 0.0099195122 0.0086139847         3402 
 4180000   0.57914258   -9.3988923     497.3214  0.009914701   0.00861056         3448 
 4181000   0.58366008   -9.4025931    497.19481 0.0099098064 0.0086071346         3472 
 4182000   0.59900389   -9.4259155    496.96807 0.0099029186   0.00860371         3464 
 4183000    0.5833171   -9.4042467    497.73954 0.0099159204 0.0086002889         3428 
 4184000   0.58300383   -9.4167442    495.99318 0.0098787679 0.0085968672         3445 
 4185000   0.57198882   -9.4004414    495.89394 0.0098744314 0.0085934468         3469 
 4186000    0.5803306   -9.4121525    496.86077 0.0098913198 0.0085900288         3444 
 4187000   0.58072141   -9.4046853    496.89034 0.0098895458 0.0085866115         3438 
 4188000   0.59349612   -9.4111847    496.59764 0.0098813603 0.0085831931         3467 
 4189000   0.58308565   -9.4216255    496.60635 0.0098791747 0.0085797781         3491 
 4190000    0.5794782   -9.4141747    496.75394 0.0098797523  0.008576367         3458 
 4191000    0.5841359   -9.4182821     496.8116 0.0098785414 0.0085729596         3446 
 4192000    0.5831771   -9.4130752    497.01725 0.0098802729 0.0085695514         3473 
 4193000   0.57619072   -9.4075587    496.02383  0.009858173 0.0085661423         3487 
 4194000   0.58280748   -9.4140003    497.08286 0.0098768651 0.0085627391         3470 
 4195000   0.58403742    -9.416469    496.41073 0.0098611586 0.0085593403         3413 
 4196000   0.57746852    -9.409715    497.25607 0.0098755971 0.0085559423         3443 
 4197000   0.57820795   -9.4230827    496.87744 0.0098657264 0.0085525406         3460 
 4198000    0.5717716    -9.408535     495.6512 0.0098390345 0.0085491448         3466 
 4199000   0.58755732   -9.3934772    497.09314 0.0098653079 0.0085457489         3442 
 4200000   0.58484649   -9.4236325     496.3813 0.0098488353  0.008542357         3458 
 4201000   0.57522046   -9.4400807    496.73278 0.0098534631 0.0085389643         3472 
 4202000   0.57645447    -9.413262    496.68331 0.0098501371 0.0085355732         3439 
 4203000   0.58316731   -9.4082996    496.52878 0.0098447295 0.0085321836         3455 
 4204000   0.57333206   -9.4081324    496.77752 0.0098473184 0.0085287946         3453 
 4205000   0.58226158   -9.4262324    496.48917 0.0098392622 0.0085254084         3463 
 4206000   0.58616423    -9.420607    496.73028    0.0098417 0.0085220264         3443 
 4207000   0.58544995   -9.4229704    496.14357 0.0098277389 0.0085186449         3463 
 4208000   0.57119624   -9.4078496     495.6531 0.0098156903 0.0085152683         3448 
 4209000   0.57632015   -9.4125938    497.69844 0.0098538536   0.00851189         3405 
 4210000   0.59029164   -9.4276484    496.45891 0.0098269776 0.0085085123         3447 
 4211000    0.5761596   -9.4045435    496.38223 0.0098231265 0.0085051373         3410 
 4212000   0.59001742   -9.4217815    496.73531   0.00982778 0.0085017654         3452 
 4213000   0.58291573   -9.4052053     496.4948   0.00982069  0.008498395         3463 
 4214000   0.56045836   -9.4178903    496.42324 0.0098169444  0.008495025         3413 
 4215000   0.56932042   -9.4091234     496.1243 0.0098087051 0.0084916587         3457 
 4216000   0.57039981   -9.4178822    496.88312 0.0098213774 0.0084882949         3410 
 4217000   0.58696182    -9.398492    496.57344 0.0098129286 0.0084849348         3428 
 4218000     0.576453   -9.4085519    496.34684 0.0098061254 0.0084815731         3431 
 4219000   0.57496344   -9.4126064    497.29415 0.0098225123 0.0084782145         3413 
 4220000   0.59254639   -9.4171729    496.68673 0.0098081899 0.0084748612         3418 
 4221000   0.57961991   -9.4190598    496.38398 0.0097998891 0.0084715089         3457 
 4222000   0.58183975   -9.4107956    496.26208 0.0097951619 0.0084681552         3422 
 4223000   0.58261632   -9.4217311    496.44817 0.0097965145 0.0084648037         3436 
 4224000    0.5699063   -9.4147573    496.24463 0.0097901797 0.0084614555         3452 
 4225000    0.5772824   -9.4178211    496.46549 0.0097922187 0.0084581089         3422 
 4226000   0.57281664   -9.4042801    495.82915 0.0097773535 0.0084547621         3448 
 4227000   0.59323832   -9.4110512    495.94991 0.0097774211 0.0084514201         3414 
 4228000   0.56839957   -9.4205683    496.52551 0.0097864535 0.0084480788         3421 
 4229000   0.57093257   -9.4246135    495.31192 0.0097602254 0.0084447361         3449 
 4230000   0.56996381   -9.4289285    496.75726  0.009786392 0.0084413963         3464 
 4231000   0.57826137   -9.4197388    496.13682 0.0097718589 0.0084380602         3427 
 4232000   0.58021983   -9.4215578    496.32602 0.0097732754 0.0084347267         3460 
 4233000   0.58560934   -9.4150967    497.10742 0.0097863496 0.0084313947         3427 
 4234000   0.58523792   -9.4139276    496.62562 0.0097745557 0.0084280641         3435 
 4235000   0.58855841   -9.4181115    496.59025 0.0097715516 0.0084247355         3432 
 4236000   0.57192906   -9.4198139    497.14857 0.0097802284 0.0084214087         3429 
 4237000   0.57968865   -9.4412191    496.90184 0.0097730674 0.0084180823         3444 
 4238000   0.56894655   -9.4017448    496.58922 0.0097646142 0.0084147563         3442 
 4239000    0.5495366   -9.4195836    496.45447 0.0097596617 0.0084114333         3436 
 4240000   0.58719558   -9.4301264    496.27302 0.0097537936 0.0084081107         3430 
 4241000   0.58216268   -9.4091557    496.48954 0.0097557483 0.0084047891         3431 
 4242000   0.57815985   -9.4011348    496.69898  0.009757563 0.0084014708         3434 
 4243000   0.57031999   -9.4217387    496.50544 0.0097514621 0.0083981555         3444 
 4244000   0.57037507    -9.426197    496.84837 0.0097558979 0.0083948402         3443 
 4245000   0.56839288   -9.4196603    496.29541 0.0097427445 0.0083915257         3444 
 4246000   0.57299371   -9.4230518    496.89343 0.0097521869 0.0083882119         3462 
 4247000   0.56796726   -9.4274593    496.48447 0.0097418663 0.0083849051         3437 
 4248000   0.56328998   -9.4286108     495.1687 0.0097137615 0.0083815981         3447 
 4249000   0.57588455   -9.4279884    496.16289 0.0097309737 0.0083782938         3429 
 4250000   0.56656558   -9.4263701    496.56156 0.0097365012 0.0083749889         3458 
 4251000   0.56376035   -9.4278757    496.44038 0.0097318353 0.0083716882         3429 
 4252000   0.57023167   -9.4280689    495.95127 0.0097199606 0.0083683895         3423 
 4253000   0.56753523   -9.4088736    495.84726 0.0097156372 0.0083650909         3409 
 4254000   0.56476586   -9.4212239    496.69713 0.0097300017 0.0083617954         3427 
 4255000   0.57536491   -9.4528907    495.56053 0.0097054549 0.0083584985         3441 
 4256000   0.55772279   -9.4166178    496.25596 0.0097167911 0.0083552026         3426 
 4257000   0.57041349   -9.4318453    496.34527  0.009716257  0.008351912         3434 
 4258000   0.56680361   -9.4165787    496.41072 0.0097152559 0.0083486213         3434 
 4259000   0.57377416    -9.448407    496.36617 0.0097121032 0.0083453324         3414 
 4260000   0.58112035   -9.4383656    495.92693  0.009701231 0.0083420473         3446 
 4261000   0.56637673   -9.4250973    495.48697 0.0096903499  0.008338764         3417 
 4262000    0.5639604   -9.4283135     496.8347 0.0097144279   0.00833548         3437 
 4263000   0.56472281   -9.4190551    495.75453 0.0096910338 0.0083321993         3434 
 4264000   0.57842019   -9.4026099    496.01357 0.0096938237 0.0083289218         3429 
 4265000   0.56450225   -9.4306225    496.53849 0.0097018072 0.0083256423         3466 
 4266000    0.5716689   -9.4345494    495.74816 0.0096840944 0.0083223655         3469 
 4267000    0.5664822    -9.419976    496.56683 0.0096978133 0.0083190933         3426 
 4268000   0.55732676   -9.4288935    496.05067  0.009685463 0.0083158217         3435 
 4269000   0.57080975   -9.4156518     497.0353 0.0097024146 0.0083125511         3436 
 4270000   0.57621851   -9.4320163    496.34471  0.009686665 0.0083092836         3449 
 4271000   0.54847935   -9.4427118    495.00459 0.0096582492  0.008306015         3476 
 4272000   0.57133463   -9.4234997     496.5816 0.0096867509 0.0083027482         3441 
 4273000    0.5706362   -9.4387326     495.9319 0.0096718134 0.0082994835         3452 
 4274000   0.56831994    -9.431194    496.41611 0.0096789914 0.0082962212         3420 
 4275000   0.56895536   -9.3993693    497.26871 0.0096933471 0.0082929606         3424 
 4276000   0.55994877   -9.4252365     496.8381 0.0096826883 0.0082897003         3436 
 4277000   0.56123381   -9.4384759    496.38903 0.0096716747 0.0082864409         3457 
 4278000   0.57080163   -9.4232994    496.31374 0.0096679472  0.008283182         3432 
 4279000   0.55965427   -9.4079572    496.50747 0.0096694608 0.0082799296         3444 
 4280000   0.57729099   -9.4226377    496.05209  0.009658335 0.0082766788         3433 
 4281000   0.56465939   -9.4275827    495.89576 0.0096530358  0.008273429         3430 
 4282000   0.57315461   -9.4288071    496.25727 0.0096578171 0.0082701821         3433 
 4283000   0.59086284    -9.436153    495.89111 0.0096484377 0.0082669346         3430 
 4284000   0.56242331   -9.4367697     496.1555 0.0096513287 0.0082636884         3439 
 4285000   0.56499834   -9.4308705    496.14671 0.0096489053 0.0082604431         3440 
 4286000   0.56304633   -9.4328428    497.45875 0.0096721642  0.008257201         3384 
 4287000   0.55831984   -9.4468494    496.14219  0.009644316 0.0082539622         3420 
 4288000   0.56648937   -9.4336906    495.20708 0.0096238939 0.0082507203         3435 
 4289000   0.55142415   -9.4206386    495.56593 0.0096286223 0.0082474836         3423 
 4290000   0.56414051    -9.431197    496.71827  0.009648762 0.0082442466         3439 
 4291000   0.56275569   -9.4469845    496.16582 0.0096357845  0.008241011         3437 
 4292000   0.56993849   -9.4440582     495.8046  0.009626526 0.0082377765         3421 
 4293000    0.5529029   -9.4268807    496.05811 0.0096292048  0.008234545         3450 
 4294000   0.55613895   -9.4433527    496.62428 0.0096379499 0.0082313143         3448 
 4295000   0.56377609   -9.4496385    495.75341 0.0096188089 0.0082280867         3433 
 4296000   0.56229746   -9.4291967    495.54015  0.009612433 0.0082248595         3475 
 4297000    0.5475396   -9.4335723    496.22064  0.009623393 0.0082216345         3404 
 4298000   0.56473769   -9.4375798    496.04092 0.0096176694 0.0082184138         3425 
 4299000   0.56912158   -9.4398813    496.00838 0.0096148015  0.008215195         3468 
 4300000   0.55980775   -9.4299056    496.20249 0.0096163273 0.0082119775         3438 
 4301000   0.56531997   -9.4348331    496.80601 0.0096257848 0.0082087624         3451 
 4302000   0.55883333   -9.4467878    495.81312 0.0096043142 0.0082055463         3399 
 4303000   0.56522705   -9.4510682    495.33111 0.0095927474  0.008202333         3408 
 4304000   0.55652554   -9.4570887    496.03121 0.0096040739 0.0081991181         3416 
 4305000   0.56603382   -9.4446982    495.60024 0.0095935007 0.0081959068         3446 
 4306000   0.55229569   -9.4433891    496.16925 0.0096022845 0.0081926994         3407 
 4307000   0.55611786   -9.4442296    495.39001 0.0095849782 0.0081894917         3441 
 4308000   0.55862858   -9.4313306    496.28805 0.0096001247 0.0081862828         3387 
 4309000      0.57411   -9.4396019    496.73706 0.0096065804 0.0081830791         3466 
 4310000   0.55631282   -9.4353156    496.30777 0.0095960512 0.0081798746         3437 
 4311000   0.55312149   -9.4396723    496.11928 0.0095901817 0.0081766741         3451 
 4312000   0.55252432    -9.434248    495.90834  0.009583881 0.0081734742         3421 
 4313000   0.55197513   -9.4293972    496.25774 0.0095884098  0.008170274         3439 
 4314000   0.57113244   -9.4361593    496.21083 0.0095852812 0.0081670795         3417 
 4315000   0.56646901   -9.4431866    496.56103 0.0095898229 0.0081638864         3404 
 4316000   0.56868823   -9.4449433    495.35756 0.0095643643 0.0081606947         3409 
 4317000   0.56101071   -9.4138825    496.39118 0.0095821013 0.0081575066         3417 
 4318000   0.55492611   -9.4406928    496.10035 0.0095742695 0.0081543184         3449 
 4319000   0.57343824   -9.4409966    496.23672 0.0095746839 0.0081511309         3414 
 4320000   0.56836051   -9.4378169    495.99965 0.0095678944 0.0081479465         3396 
 4321000   0.55725014   -9.4569252    495.72855 0.0095604518 0.0081447633         3410 
 4322000   0.56202666   -9.4308931    497.00701 0.0095828901 0.0081415809         3447 
 4323000   0.56459533   -9.4179518    495.94641 0.0095602285 0.0081384018         3406 
 4324000    0.5490493   -9.4204452    496.28174 0.0095644801 0.0081352233         3406 
 4325000   0.56323312   -9.4319497    495.81999 0.0095533716 0.0081320466         3419 
 4326000    0.5500773   -9.4438615    495.97478 0.0095541451 0.0081288694         3461 
 4327000   0.57040927   -9.4628147    495.39325 0.0095407375 0.0081256922         3436 
 4328000   0.55458143   -9.4541339    495.87327 0.0095477755 0.0081225201         3445 
 4329000   0.56805196   -9.4616379    496.13868 0.0095506791 0.0081193478         3420 
 4330000    0.5637026   -9.4296939    496.51573   0.00955573  0.008116179         3435 
 4331000   0.55543307   -9.4511715    495.59261 0.0095357617  0.008113011         3432 
 4332000   0.55131277   -9.4445555    495.36329 0.0095291491 0.0081098453         3387 
 4333000   0.54395761   -9.4329618    495.29472 0.0095256312 0.0081066799         3454 
 4334000   0.55828791   -9.4412648    496.74901 0.0095513961 0.0081035156         3428 
 4335000   0.55356183   -9.4408468    495.76325 0.0095302432 0.0081003512         3435 
 4336000   0.56159171   -9.4353261    496.58363 0.0095438121 0.0080971919         3408 
 4337000   0.55440106   -9.4537805    496.36887  0.009537485 0.0080940325         3438 
 4338000   0.54699757   -9.4417581    495.77985 0.0095239714 0.0080908753         3423 
 4339000   0.55565198   -9.4365041    494.69049 0.0095008544  0.008087719         3434 
 4340000   0.57104166   -9.4627053    495.62414 0.0095165926 0.0080845648         3429 
 4341000   0.55855803   -9.4439827    495.94591 0.0095205772 0.0080814145         3426 
 4342000   0.55640086   -9.4504628    496.71629 0.0095331699 0.0080782664         3426 
 4343000   0.54763342   -9.4440243    495.51759 0.0095079743 0.0080751183         3446 
 4344000   0.56102405   -9.4501328    496.29742 0.0095207454 0.0080719722         3436 
 4345000   0.55639253   -9.4455543    496.22429 0.0095171517 0.0080688255         3429 
 4346000   0.55436197   -9.4346688    495.90073 0.0095087576 0.0080656831         3423 
 4347000   0.54383231    -9.428723    495.81642 0.0095049539 0.0080625401         3418 
 4348000   0.56262003   -9.4533978     496.3138 0.0095123006 0.0080593992         3411 
 4349000   0.56336734   -9.4527951    496.55903 0.0095148124 0.0080562581         3404 
 4350000   0.55009954   -9.4447324    495.86766 0.0094993804 0.0080531218         3402 
 4351000   0.55002661   -9.4547539    495.99298 0.0094995974 0.0080499872         3406 
 4352000   0.55179119   -9.4486866     495.7102 0.0094919999 0.0080468561         3398 
 4353000   0.55480021   -9.4506392    496.44967 0.0095039756 0.0080437254         3412 
 4354000   0.54540632   -9.4461922    496.22848 0.0094975593 0.0080405961         3405 
 4355000   0.56294566      -9.4321    495.48876 0.0094812239 0.0080374693         3388 
 4356000   0.55993983   -9.4296243    495.55663 0.0094803457 0.0080343437         3431 
 4357000   0.54737469   -9.4487437    496.64375 0.0094989623 0.0080312192         3442 
 4358000   0.55865223   -9.4381249    496.14095 0.0094871683 0.0080280956         3425 
 4359000   0.54750833   -9.4485797    496.54634 0.0094927418 0.0080249733         3421 
 4360000   0.56039523    -9.453231    496.25201 0.0094849391 0.0080218498         3412 
 4361000   0.55426098   -9.4595893    496.06323 0.0094791568 0.0080187299         3412 
 4362000   0.54273373   -9.4362486     495.5974 0.0094680842 0.0080156147         3384 
 4363000   0.55835705   -9.4433349    495.71534 0.0094681668 0.0080124965         3393 
 4364000    0.5577234   -9.4608539    494.52667 0.0094432989 0.0080093826         3414 
 4365000    0.5580339   -9.4576298    495.08282  0.009451753  0.008006269         3387 
 4366000   0.55837703   -9.4453343    495.99187 0.0094669391 0.0080031588         3417 
 4367000   0.54592458   -9.4579795    494.91125 0.0094441502 0.0080000481         3397 
 4368000   0.55938194   -9.4594217    496.00229 0.0094628032 0.0079969396         3408 
 4369000    0.5628398      -9.4527    495.47467 0.0094505736 0.0079938335         3375 
 4370000   0.55276994   -9.4652329    496.31828 0.0094644981 0.0079907287         3421 
 4371000   0.55797101   -9.4602365    496.09619 0.0094580987 0.0079876241         3433 
 4372000   0.54663294   -9.4594387    495.48307 0.0094442487 0.0079845216         3422 
 4373000   0.55243141    -9.463869    495.45167 0.0094414908 0.0079814217         3402 
 4374000   0.55885428   -9.4498248    495.26763 0.0094358259 0.0079783239         3430 
 4375000    0.5542342   -9.4606125     495.7021 0.0094419447 0.0079752267         3436 
 4376000   0.54915389   -9.4535888     496.7568  0.009459872 0.0079721309         3410 
 4377000    0.5569318   -9.4586867    495.59506 0.0094355925 0.0079690362         3407 
 4378000   0.56504819   -9.4534378    495.31288 0.0094280661 0.0079659426         3394 
 4379000   0.54049372   -9.4535931    495.60526 0.0094314772 0.0079628519         3429 
 4380000   0.55049434   -9.4544692    495.72357 0.0094315747 0.0079597617         3420 
 4381000   0.54947991   -9.4509324    495.97802  0.009434262 0.0079566745         3394 
 4382000   0.55213791   -9.4713646    495.09596 0.0094153348 0.0079535868         3436 
 4383000   0.54955121   -9.4669218    495.30463 0.0094171539 0.0079505029         3412 
 4384000   0.56340266   -9.4472733     495.0545 0.0094102514 0.0079474185         3387 
 4385000   0.55409528   -9.4722843    495.35153 0.0094137501 0.0079443384         3416 
 4386000   0.54335891   -9.4447493    496.20119 0.0094277472 0.0079412601         3380 
 4387000   0.54964435   -9.4384905    495.25612 0.0094076461 0.0079381809         3395 
 4388000   0.55832661   -9.4607399    495.37328 0.0094077272 0.0079351067         3394 
 4389000   0.54599188   -9.4568893    495.42646 0.0094065934 0.0079320328         3418 
 4390000   0.54099657    -9.467723     495.8324 0.0094121564 0.0079289587         3460 
 4391000   0.54001675    -9.457419    495.28546 0.0093996329 0.0079258882         3401 
 4392000   0.54012429   -9.4612504    495.64762 0.0094043644 0.0079228192         3432 
 4393000   0.54133039    -9.470872    495.77717  0.009404681 0.0079197517         3425 
 4394000    0.5430519    -9.464109    495.35558 0.0093945453  0.007916684         3427 
 4395000   0.53804236   -9.4729211    495.22963 0.0093900195 0.0079136177         3427 
 4396000   0.54289453   -9.4458385    495.97121 0.0094019413 0.0079105532         3410 
 4397000   0.55393907   -9.4433302    495.50132 0.0093908976 0.0079074902         3432 
 4398000   0.54224154   -9.4609567    495.36257 0.0093861332   0.00790443         3418 
 4399000   0.54495647   -9.4759283    495.40306 0.0093847667 0.0079013729         3431 
 4400000     0.558024   -9.4530772    494.79172 0.0093710554 0.0078983164         3407 
 4401000   0.54679691   -9.4665709    495.57648 0.0093837855  0.007895261         3441 
 4402000   0.54619556   -9.4867565    494.00641 0.0093519311 0.0078922064         3426 
 4403000   0.56120032   -9.4626555    495.62926  0.009380522 0.0078891512         3428 
 4404000   0.54492098   -9.4560496    494.62185 0.0093593296 0.0078860996         3432 
 4405000   0.54015891   -9.4628394     496.4535 0.0093918558 0.0078830523         3423 
 4406000   0.54512915   -9.4584137    494.97676 0.0093617937 0.0078800058         3408 
 4407000   0.54543257   -9.4537553    496.00019 0.0093790217 0.0078769597         3413 
 4408000   0.55211642   -9.4622047    495.46063 0.0093666937 0.0078739148         3454 
 4409000   0.54334911   -9.4602068    495.34491 0.0093623822 0.0078708714         3430 
 4410000   0.55311984   -9.4574386    494.98335 0.0093534268 0.0078678284         3424 
 4411000   0.54726281   -9.4746235     495.2319 0.0093560021 0.0078647882         3445 
 4412000   0.54703161   -9.4659455     495.0795 0.0093510029 0.0078617494         3424 
 4413000     0.543896   -9.4687202    495.75224 0.0093615878 0.0078587118         3422 
 4414000   0.53875563   -9.4516952    495.30507 0.0093510246 0.0078556755         3404 
 4415000   0.54337311    -9.448905    496.28649 0.0093674309 0.0078526401         3390 
 4416000   0.54283422   -9.4607659    495.16469 0.0093441405 0.0078496054         3404 
 4417000   0.54402748   -9.4807685    495.59943 0.0093502269 0.0078465716         3433 
 4418000   0.54628934   -9.4766679    495.97507  0.009355196 0.0078435408         3394 
 4419000   0.55696969   -9.4743789    495.40898 0.0093424036 0.0078405104         3436 
 4420000   0.55355013   -9.4539631    495.54786 0.0093429083 0.0078374842         3409 
 4421000   0.55448448   -9.4715704    495.72446 0.0093441239 0.0078344592         3437 
 4422000   0.54309112   -9.4476292     494.9762 0.0093279097 0.0078314327         3447 
 4423000   0.53529174   -9.4464104    495.68008 0.0093390625 0.0078284071         3418 
 4424000   0.53412589   -9.4724128    495.39083  0.009331503 0.0078253841         3424 
 4425000   0.53924443    -9.478757    495.37868 0.0093291653 0.0078223639         3419 
 4426000   0.55075275   -9.4773206    495.50176  0.009329375 0.0078193455         3414 
 4427000   0.53696288   -9.4699315    493.69598 0.0092932757 0.0078163277         3435 
 4428000   0.55226719   -9.4780598    495.64038 0.0093277698 0.0078133117         3434 
 4429000   0.54695311    -9.483709    495.41201  0.009321367  0.007810299         3443 
 4430000   0.53607773   -9.4814429    494.37299 0.0092997176  0.007807286         3424 
 4431000    0.5361082   -9.4293194     495.5693 0.0093201177 0.0078042753         3429 
 4432000   0.55404186   -9.4586477     494.9427 0.0093062332 0.0078012689         3417 
 4433000   0.54149181   -9.4862193    494.83208 0.0093020543 0.0077982608         3407 
 4434000   0.53964159   -9.4564512    495.86861  0.009319437 0.0077952555         3414 
 4435000   0.54426521   -9.4573312    495.61418  0.009312555 0.0077922547         3409 
 4436000   0.54231724   -9.4611096    495.14294 0.0093016031 0.0077892524         3431 
 4437000    0.5371996   -9.4752438    495.09208 0.0092985516 0.0077862507         3423 
 4438000   0.54210238   -9.4907569    495.31462  0.009300635 0.0077832511         3417 
 4439000   0.54871123    -9.456797    496.29925 0.0093170243  0.007780254         3408 
 4440000   0.55650319   -9.4691501    495.93355 0.0093080622 0.0077772595         3410 
 4441000    0.5370694   -9.4673013    495.45922 0.0092970656 0.0077742662         3408 
 4442000    0.5392332   -9.4820208    495.80757 0.0093015078 0.0077712716         3432 
 4443000   0.53822325   -9.4682571    495.08726 0.0092859041 0.0077682792         3432 
 4444000   0.53295523   -9.4641847    494.78562 0.0092781582 0.0077652894         3426 
 4445000   0.54902251   -9.4801609    495.32355 0.0092861558 0.0077623007         3425 
 4446000    0.5433462   -9.4710539    495.50268 0.0092874247 0.0077593113         3407 
 4447000   0.53422136   -9.4651797    495.17296 0.0092791575 0.0077563228         3435 
 4448000   0.53620691   -9.4591892    496.03491 0.0092932199 0.0077533379         3428 
 4449000   0.53479176   -9.4903462    494.29726 0.0092585836 0.0077503524         3420 
 4450000   0.55508783   -9.4835449     495.4376 0.0092778576 0.0077473728         3424 
 4451000   0.54112114    -9.474851    495.29046 0.0092730185  0.007744395         3409 
 4452000    0.5326783    -9.482531    495.48224 0.0092745252 0.0077414171         3432 
 4453000    0.5329378   -9.4594892    495.26508 0.0092683786 0.0077384411         3421 
 4454000   0.54158517   -9.4710592    494.88646 0.0092592139  0.007735467         3415 
 4455000   0.54554645   -9.4573864    494.62084 0.0092521668 0.0077324925         3413 
 4456000   0.54031032   -9.4692839      495.634 0.0092690379 0.0077295219         3429 
 4457000   0.54235299   -9.4697663    495.60248  0.009266369 0.0077265509         3402 
 4458000   0.54324756   -9.4796145    494.78873  0.009249079 0.0077235797         3430 
 4459000   0.53951328    -9.482425    495.07479 0.0092523509 0.0077206132         3412 
 4460000    0.5312959   -9.4898934    495.23592  0.009253287 0.0077176497         3423 
 4461000   0.55238893   -9.4822624    495.42315 0.0092547102 0.0077146849         3406 
 4462000   0.53870329   -9.4784388    495.10797 0.0092467497 0.0077117234         3400 
 4463000   0.51759206   -9.4826855     495.0369  0.009243351 0.0077087629         3426 
 4464000   0.53322845   -9.4527829    496.11625 0.0092614293 0.0077058022         3417 
 4465000   0.52724673      -9.4726    495.02027 0.0092389001 0.0077028444         3417 
 4466000   0.54308394   -9.4827226    495.40959 0.0092440959 0.0076998878         3383 
 4467000   0.54415823   -9.4907349    495.10311 0.0092363091 0.0076969337         3404 
 4468000   0.52220822   -9.4823973     495.2281  0.009236573 0.0076939787         3439 
 4469000   0.53085731   -9.4772433    494.91781 0.0092287203 0.0076910245         3426 
 4470000   0.54310491   -9.4836426    495.04477 0.0092290226 0.0076880741         3409 
 4471000   0.54502127   -9.4825355    495.24747 0.0092307365 0.0076851226         3435 
 4472000   0.54114382   -9.4851734    494.70326 0.0092185313 0.0076821723         3411 
 4473000    0.5451834    -9.491134    494.92336 0.0092205707 0.0076792251         3428 
 4474000   0.54071233   -9.4796185    495.62978 0.0092316677 0.0076762797         3422 
 4475000   0.54099152     -9.48061    494.99749 0.0092178303 0.0076733343         3396 
 4476000    0.5223719   -9.4840912    495.62348 0.0092274255 0.0076703933         3454 
 4477000   0.52861164     -9.48033    494.64541 0.0092071589 0.0076674524         3431 
 4478000   0.52702397   -9.4769475    494.92525 0.0092103107 0.0076645127         3436 
 4479000   0.53837083   -9.4708222    495.59564  0.009220727 0.0076615776         3427 
 4480000   0.53186702   -9.4986754    494.24032 0.0091934584 0.0076586416         3426 
 4481000   0.53247474   -9.4936238    494.68207 0.0091996219 0.0076557058         3409 
 4482000   0.52925016   -9.5010968    494.25985  0.009189719 0.0076527723         3446 
 4483000   0.53148947   -9.4937599      495.368 0.0092082683 0.0076498421         3390 
 4484000   0.53552552   -9.4740783     494.9152 0.0091977997 0.0076469115         3437 
 4485000   0.53343933   -9.4757716    494.95215 0.0091964353 0.0076439813         3423 
 4486000   0.54693336   -9.4944206    494.68026 0.0091893346 0.0076410537         3444 
 4487000   0.54305214    -9.485111    494.24333 0.0091791719 0.0076381285         3438 
 4488000   0.53073936    -9.485383    494.94377 0.0091901324 0.0076352049         3432 
 4489000   0.53332432    -9.487133    494.84356 0.0091862248 0.0076322813         3405 
 4490000   0.52862248   -9.4884794    494.16876 0.0091716547 0.0076293604         3398 
 4491000    0.5201621   -9.4824792    494.87825 0.0091827776 0.0076264393         3432 
 4492000   0.53445945   -9.4697428    494.64208  0.009176352 0.0076235224         3430 
 4493000    0.5326928   -9.4896267    495.48815  0.009190002 0.0076206047         3409 
 4494000   0.53524656    -9.474432    494.99398 0.0091787936 0.0076176906         3427 
 4495000   0.53240936   -9.4884909    495.61515 0.0091882675 0.0076147747         3423 
 4496000    0.5313067   -9.4850179    494.56978 0.0091668479 0.0076118619         3426 
 4497000   0.52476944   -9.4879721    495.03327 0.0091733984  0.007608952         3419 
 4498000   0.53332722    -9.486605    494.27669  0.009157342 0.0076060405         3439 
 4499000   0.53159478   -9.4822049    494.94893 0.0091677582 0.0076031325         3415 
 4500000   0.51856193   -9.4956986    494.89484 0.0091647193  0.007600226         3423 
 4501000   0.53354703   -9.4771141    495.22716 0.0091688358 0.0075973233         3401 
 4502000   0.53427909   -9.4962669    495.59406 0.0091735906 0.0075944194         3430 
 4503000   0.52905266   -9.4804254    494.46047  0.009150575 0.0075915182         3407 
 4504000   0.52143556    -9.491135    495.16038 0.0091614932 0.0075886168         3429 
 4505000   0.53201369   -9.4875071    495.36078 0.0091631665 0.0075857182         3414 
 4506000   0.54313115   -9.4829146    495.63323 0.0091661715 0.0075828203         3425 
 4507000   0.53834096   -9.4894249    494.54023 0.0091439286 0.0075799251         3409 
 4508000    0.5294098   -9.4958119    495.02548 0.0091508704 0.0075770336         3426 
 4509000   0.53324957   -9.4873413    495.13703 0.0091509025 0.0075741413         3432 
 4510000   0.51650798   -9.4932831    495.14523  0.009149025 0.0075712478         3424 
 4511000    0.5350862   -9.5016963    495.20518 0.0091481043 0.0075683575         3440 
 4512000   0.53497901   -9.5068961    494.99725 0.0091422364 0.0075654693         3408 
 4513000   0.52756023   -9.4826237    495.06717 0.0091415017 0.0075625834         3400 
 4514000   0.52480254   -9.4874126    494.31392 0.0091255708 0.0075596978         3417 
 4515000   0.52176039   -9.4987488     494.4722  0.009126471 0.0075568151         3419 
 4516000   0.51788502   -9.4940805    495.16245 0.0091371873  0.007553931         3393 
 4517000   0.52177594   -9.4883388    495.09777 0.0091339712 0.0075510503         3400 
 4518000   0.52540763   -9.4900903    494.45983 0.0091201827 0.0075481708         3422 
 4519000   0.52874637   -9.4885577    495.03436 0.0091287593 0.0075452946         3389 
 4520000    0.5168935   -9.4957554    495.08877 0.0091277427 0.0075424178         3431 
 4521000   0.53148019   -9.4805459    495.94002 0.0091414144 0.0075395446         3415 
 4522000   0.52534251   -9.4897442    494.42824 0.0091115333 0.0075366713         3448 
 4523000   0.53700666   -9.4793956    494.10623  0.009103586 0.0075337972         3413 
 4524000   0.52007608    -9.489577    495.14412 0.0091206919 0.0075309282         3415 
 4525000   0.53947739   -9.5001377    493.85309 0.0090949003 0.0075280593         3446 
 4526000   0.52906206   -9.5027738    494.46199  0.009104102 0.0075251908         3418 
 4527000   0.52289894   -9.4887612     494.3268 0.0090996023 0.0075223249         3424 
 4528000    0.5423611   -9.4935644    494.64983 0.0091035379   0.00751946         3433 
 4529000   0.52085088   -9.4845228      494.581 0.0091002613 0.0075165968         3402 
 4530000   0.52348673   -9.4883974    495.02858  0.009106486 0.0075137354         3418 
 4531000   0.53583475   -9.5086899    494.65451 0.0090975964 0.0075108767         3446 
 4532000   0.53221361   -9.5000435     495.0587  0.009103021 0.0075080183         3436 
 4533000   0.51532271   -9.5044727    494.33151 0.0090876445 0.0075051608         3432 
 4534000   0.52014573   -9.5248949    494.56787 0.0090899844  0.007502304         3450 
 4535000   0.51771096   -9.4761691    495.24592 0.0091004396 0.0074994478         3414 
 4536000   0.53044427    -9.477037    494.57589 0.0090861238 0.0074965974         3434 
 4537000   0.52998773   -9.5028708    495.08005 0.0090933813 0.0074937453         3423 
 4538000   0.52219432   -9.4927795    494.60719 0.0090826941  0.007490896         3429 
 4539000   0.53218633   -9.4965062    495.09624 0.0090896717 0.0074880484         3408 
 4540000   0.53194745    -9.505948    494.26313 0.0090723776 0.0074852016         3448 
 4541000   0.51752722   -9.5046261    494.57575 0.0090761166  0.007482357         3411 
 4542000   0.52470808   -9.4981484    494.24176 0.0090679907  0.007479513         3427 
 4543000   0.51366676   -9.5022782    494.49106 0.0090705675 0.0074766716         3434 
 4544000   0.51543926   -9.4889317    494.61325 0.0090708122 0.0074738317         3427 
 4545000   0.52435713   -9.5049841    494.03303  0.009058178 0.0074709923         3435 
 4546000   0.51306294    -9.508849    494.70774 0.0090685538 0.0074681547         3434 
 4547000    0.5232668   -9.4986052     494.0158 0.0090538779 0.0074653188         3439 
 4548000   0.54015765   -9.5060587    494.88234  0.009067765 0.0074624845         3420 
 4549000   0.51921497    -9.499407    494.47392 0.0090582897 0.0074596503         3456 
 4550000   0.54213506   -9.4860267    495.04348 0.0090667305 0.0074568178         3438 
 4551000   0.52045848   -9.5118316    493.87356 0.0090433157  0.007453989         3466 
 4552000   0.52354674    -9.488546    494.15832 0.0090465421 0.0074511603         3410 
 4553000   0.51871963   -9.5043106    494.52932 0.0090513457 0.0074483325         3422 
 4554000   0.51571166   -9.4998687    494.88958 0.0090559504 0.0074455082         3447 
 4555000   0.52495757   -9.5021873    494.39747 0.0090449593 0.0074426837         3440 
 4556000   0.52429971   -9.5084637     495.0025 0.0090540404 0.0074398594         3440 
 4557000   0.52986636    -9.492718    494.44284 0.0090418191 0.0074370364         3427 
 4558000   0.52863483   -9.5081625    495.21671  0.009053984 0.0074342149         3433 
 4559000   0.52361366   -9.4910349    494.57966 0.0090403535 0.0074313968         3428 
 4560000   0.52518935   -9.5029581    494.61211  0.009038964 0.0074285776         3451 
 4561000   0.52773712   -9.5093896    494.87448 0.0090417759 0.0074257612         3433 
 4562000   0.51515392   -9.5009539    494.41087 0.0090313253 0.0074229498         3434 
 4563000   0.50806033   -9.5033292    494.53327 0.0090315815 0.0074201353         3437 
 4564000    0.5135899   -9.5069957    494.68106  0.009032301 0.0074173244         3440 
 4565000   0.51166784   -9.5028365    495.20966 0.0090399719 0.0074145152         3434 
 4566000   0.52651443   -9.5064052    494.69852 0.0090286634 0.0074117073         3421 
 4567000   0.52399223   -9.4984413    494.76922 0.0090279764 0.0074089021         3452 
 4568000   0.52012536   -9.5058392    494.77355 0.0090260791 0.0074060957         3408 
 4569000   0.51621064   -9.4867936    494.56588 0.0090203159  0.007403292         3446 
 4570000    0.5270922      -9.4996    493.67071 0.0090020187 0.0074004908         3432 
 4571000   0.53525584   -9.5082533    494.74848 0.0090196981 0.0073976898         3458 
 4572000   0.53513817   -9.4889539    494.93274 0.0090210838 0.0073948887         3419 
 4573000     0.517104   -9.5104199     494.6016 0.0090130767 0.0073920889         3461 
 4574000   0.51605917   -9.5206342     494.7444 0.0090137079 0.0073892914         3398 
 4575000   0.51939678   -9.5212438    495.11828 0.0090185478 0.0073864953         3457 
 4576000   0.52008185   -9.5085213     495.0714 0.0090157233 0.0073836997         3443 
 4577000   0.52339162   -9.4975728     494.4521  0.009002478 0.0073809084         3423 
 4578000   0.53373701   -9.5086495    494.58276 0.0090028898 0.0073781172         3443 
 4579000   0.50803954   -9.5015654    494.89556 0.0090066164 0.0073753278         3447 
 4580000   0.52851685   -9.5170721    493.91076 0.0089867314 0.0073725389         3444 
 4581000   0.51937302   -9.5159978    494.39279 0.0089935384 0.0073697519         3413 
 4582000   0.51936108   -9.5206883     493.7643 0.0089801451 0.0073669667         3448 
 4583000   0.52097404   -9.5030482     494.6981 0.0089951651 0.0073641815         3441 
 4584000   0.51192509   -9.5065334    494.87749 0.0089964639 0.0073613979         3443 
 4585000   0.52469064   -9.5160232    493.84007 0.0089756465 0.0073586178         3443 
 4586000   0.52603914   -9.5144932    494.38782 0.0089836426 0.0073558371         3406 
 4587000   0.50695525   -9.5117458    493.73233 0.0089697757 0.0073530555         3430 
 4588000   0.51411686   -9.5201425    494.72792 0.0089859039 0.0073502762         3454 
 4589000   0.52094782   -9.5276687    494.11786 0.0089728673 0.0073474993         3455 
 4590000   0.52601667   -9.5081831    495.17386 0.0089900845 0.0073447263         3435 
 4591000   0.51637964   -9.5121251    494.88695 0.0089829185 0.0073419521         3437 
 4592000   0.51208894   -9.5016952    493.76884 0.0089606714 0.0073391802         3432 
 4593000   0.50915103   -9.4844357    494.53305  0.008972586 0.0073364095         3445 
 4594000   0.52585365   -9.5078404    494.08203 0.0089624516   0.00733364         3437 
 4595000    0.5054709   -9.5001174     494.1418 0.0089615851 0.0073308711         3433 
 4596000   0.51788589   -9.5091282     493.2341 0.0089431771 0.0073281043         3440 
 4597000   0.51842617   -9.4972231    494.31162 0.0089607647 0.0073253387         3454 
 4598000    0.5127124   -9.5137199    494.90772 0.0089696194 0.0073225776         3429 
 4599000   0.51649085   -9.4916258    494.48103 0.0089599376 0.0073198149         3431 
 4600000    0.5257157   -9.5117011    494.59155 0.0089599919 0.0073170558         3426 
 4601000   0.50238677   -9.5117961    495.27086 0.0089703482 0.0073142986         3445 
 4602000   0.50997486   -9.5092202    493.51301 0.0089365676 0.0073115413         3454 
 4603000   0.51837644    -9.513926    494.45753 0.0089517258  0.007308785         3411 
 4604000   0.51425164   -9.5153088    494.60192 0.0089523951 0.0073060286         3445 
 4605000   0.52736735   -9.5033469     494.0389 0.0089402623 0.0073032739         3444 
 4606000   0.51426569   -9.5033587      494.049  0.008938504 0.0073005204         3420 
 4607000   0.52328187   -9.5100898    495.33054 0.0089597449 0.0072977672         3415 
 4608000   0.52085151   -9.5030253    493.94962 0.0089328273 0.0072950151         3436 
 4609000   0.52105489   -9.4948904    493.63242  0.008925154 0.0072922666         3434 
 4610000   0.51813669   -9.5064073    494.30226 0.0089353264 0.0072895187         3415 
 4611000   0.49925314   -9.5121151    494.04458 0.0089287316 0.0072867726         3411 
 4612000   0.51216025   -9.5034839    494.05951 0.0089270655 0.0072840247         3407 
 4613000   0.51300829   -9.5023554    494.28583 0.0089292187 0.0072812806         3445 
 4614000   0.51784143   -9.5039881    494.99776 0.0089401415 0.0072785408         3434 
 4615000   0.50883448   -9.5047766    493.98004 0.0089198273 0.0072757993         3419 
 4616000   0.52096649   -9.5145565    493.73146 0.0089134073 0.0072730626         3446 
 4617000   0.50932199   -9.5207257    494.64723 0.0089280057 0.0072703255         3412 
 4618000   0.51846578   -9.5204455    493.76951 0.0089102336 0.0072675899         3440 
 4619000   0.50554434   -9.5317997    494.49709 0.0089214313 0.0072648574         3431 
 4620000   0.51360552   -9.5045058     494.7034 0.0089232214 0.0072621249         3434 
 4621000   0.52823404   -9.5103224    494.73168 0.0089218004 0.0072593946         3464 
 4622000   0.51416514   -9.5120345    494.98755 0.0089244835 0.0072566666         3426 
 4623000   0.51116466   -9.5016885    493.53182 0.0088963122 0.0072539396         3423 
 4624000   0.50473109   -9.5253522    494.88404 0.0089187579 0.0072512125         3420 
 4625000    0.5147611   -9.5119257    494.74891 0.0089143948 0.0072484897         3421 
 4626000   0.50846208   -9.5071085    493.34192  0.008887122 0.0072457632         3408 
 4627000    0.5178717   -9.5142751    494.40973 0.0089044329 0.0072430401         3430 
 4628000   0.51475057   -9.5082909    494.26945 0.0088999829 0.0072403201         3444 
 4629000   0.53191666   -9.5143935    493.80936 0.0088897775 0.0072375992         3436 
 4630000    0.5188445   -9.5177107    494.60767 0.0089022258 0.0072348809         3420 
 4631000   0.52119769   -9.5083728    493.67851 0.0088835837 0.0072321615         3431 
 4632000   0.51400406   -9.5189396    494.80418 0.0089019174 0.0072294445         3410 
 4633000   0.50789583   -9.5085337    493.99109 0.0088853711 0.0072267281         3455 
 4634000   0.50382025   -9.5380859    494.53799 0.0088932886 0.0072240145         3455 
 4635000   0.50903159   -9.5235457    494.22391 0.0088857229 0.0072213029         3420 
 4636000   0.51538984   -9.5157605    494.14575 0.0088824013 0.0072185923         3437 
 4637000    0.5085449   -9.5092469     493.8299 0.0088748094 0.0072158832         3432 
 4638000   0.50587766    -9.517376     494.3007  0.008881355 0.0072131722         3410 
 4639000    0.5038431   -9.5047625    494.10459 0.0088759178 0.0072104648         3418 
 4640000    0.5101952   -9.5115568    494.48582 0.0088808517 0.0072077588         3434 
 4641000    0.5158223   -9.5187984    493.64402 0.0088638228 0.0072050565         3426 
 4642000   0.51474987   -9.5237956    494.75805 0.0088819124 0.0072023537         3452 
 4643000   0.51823237   -9.5029237    494.07751  0.008867785 0.0071996537         3441 
 4644000   0.51770916   -9.5113424    493.58821 0.0088570953 0.0071969533         3429 
 4645000   0.49773302   -9.5260312    494.88082 0.0088783785  0.007194256         3430 
 4646000   0.50883141   -9.5270921    494.10854 0.0088626155  0.007191559         3431 
 4647000   0.49705768    -9.511846    494.08038 0.0088602034 0.0071888644         3423 
 4648000   0.50662061   -9.5109445    494.22742 0.0088609333 0.0071861712         3435 
 4649000   0.50792775   -9.5261836    493.47789 0.0088455921  0.007183478         3410 
 4650000   0.50865134   -9.4997774    494.11053 0.0088550275 0.0071807877         3456 
 4651000   0.51591933   -9.5226661    494.01502 0.0088514123 0.0071780966         3445 
 4652000    0.4995161   -9.5337119    494.51806 0.0088585208  0.007175407         3421 
 4653000   0.50320481   -9.5268248    494.32292  0.008853122 0.0071727168         3430 
 4654000   0.50648195    -9.530733     493.5243 0.0088369198 0.0071700283         3412 
 4655000   0.50773325   -9.5184932    493.55899 0.0088356425 0.0071673414         3425 
 4656000   0.49785818   -9.5259161     494.0188 0.0088419744 0.0071646575         3427 
 4657000   0.50415192   -9.5311323    494.24611 0.0088441435 0.0071619742         3426 
 4658000    0.5125852   -9.5341047    493.62728 0.0088311736 0.0071592918         3425 
 4659000   0.50221653   -9.5298893    493.81058 0.0088325568 0.0071566103         3441 
 4660000      0.50868   -9.5354581    494.76441 0.0088477183 0.0071539338         3442 
 4661000   0.50103568   -9.5282407    493.44779 0.0088222805 0.0071512549         3417 
 4662000   0.49631725   -9.5258147     493.8628 0.0088278063 0.0071485797         3442 
 4663000   0.49599555   -9.5309594    494.75062 0.0088417795 0.0071459045         3413 
 4664000    0.5123857   -9.5075474    493.38982   0.00881557 0.0071432307         3399 
 4665000   0.49503327   -9.5171937    493.28194 0.0088117532 0.0071405591         3442 
 4666000   0.50176413   -9.5145136      493.613 0.0088157773   0.00713789         3432 
 4667000   0.51746466   -9.5248414    493.41831 0.0088104119 0.0071352195         3420 
 4668000   0.50702604   -9.5277974    494.55289 0.0088287791 0.0071325505         3416 
 4669000   0.50425185   -9.5243167    493.67408  0.008811203 0.0071298824         3420 
 4670000   0.49274161   -9.5323272    493.95165 0.0088142693 0.0071272146         3413 
 4671000   0.51433828   -9.5157612    494.38854 0.0088201767 0.0071245503         3405 
 4672000   0.51503122   -9.5343795    493.89126 0.0088094189 0.0071218888         3421 
 4673000   0.50131311   -9.5144505    493.95418 0.0088086557 0.0071192252         3428 
 4674000    0.5061765    -9.534329    493.46131 0.0087979837 0.0071165632         3413 
 4675000   0.49452687   -9.5305756    494.78752 0.0088197419 0.0071139043         3443 
 4676000   0.50212007   -9.5333036    493.64644   0.00879752  0.007111247         3451 
 4677000   0.49793517   -9.5255082    493.91129  0.008800358 0.0071085925         3423 
 4678000   0.50379994   -9.5400123    494.45019 0.0088080766 0.0071059394         3420 
 4679000   0.50582909   -9.5319253    493.91574 0.0087966756 0.0071032825         3438 
 4680000   0.50478858   -9.5269928    494.49555 0.0088051202 0.0071006292         3419 
 4681000   0.50062162   -9.5168232    493.69253 0.0087889433 0.0070979795         3418 
 4682000   0.50851244   -9.5435478    493.09622 0.0087764527 0.0070953287         3423 
 4683000   0.50213968   -9.5294712      494.148 0.0087932949 0.0070926805         3433 
 4684000    0.5027223   -9.5257477    494.37406 0.0087954394  0.007090035         3428 
 4685000   0.50485617   -9.5295654     494.2659 0.0087916381  0.007087388         3439 
 4686000   0.50893777    -9.535889    494.07951 0.0087864473 0.0070847414         3442 
 4687000   0.50209718   -9.5339531    493.65658 0.0087770533 0.0070820965         3434 
 4688000   0.50664265   -9.5403405    493.39813 0.0087705868 0.0070794527         3457 
 4689000   0.49735751   -9.5408289    493.28864 0.0087667704 0.0070768112         3450 
 4690000   0.50592247   -9.5274686    493.73586 0.0087728475 0.0070741707         3435 
 4691000   0.50764935   -9.5322642    493.63473 0.0087691808 0.0070715302         3414 
 4692000   0.49777683   -9.5430322     493.9411 0.0087727532 0.0070688932         3426 
 4693000   0.50433808   -9.5282783    493.63787 0.0087654994 0.0070662561         3418 
 4694000   0.49136691   -9.5611452    494.18317  0.008773313 0.0070636196         3428 
 4695000   0.50979394   -9.5293616    493.19743  0.008753948 0.0070609843         3427 
 4696000   0.51351367   -9.5388718    493.26475 0.0087532786 0.0070583504         3413 
 4697000   0.49924206   -9.5449217    493.45679  0.008754822 0.0070557196         3422 
 4698000   0.50210521   -9.5246428    493.69759 0.0087572298  0.007053089         3416 
 4699000   0.50449508   -9.5293036    493.74367 0.0087561833 0.0070504598         3417 
 4700000   0.49994996   -9.5241853    493.81616 0.0087556056  0.007047832         3446 
 4701000   0.49590281   -9.5280788    493.84113 0.0087541858 0.0070452039         3407 
 4702000   0.49787664   -9.5211756    493.11892 0.0087395243 0.0070425784         3455 
 4703000   0.48627767   -9.5290227    493.41728 0.0087429527 0.0070399534         3418 
 4704000   0.50207966   -9.5438158    494.31041 0.0087569163  0.007037329         3447 
 4705000   0.50423851    -9.534119    494.02104 0.0087499299 0.0070347085         3435 
 4706000   0.50125913   -9.5420137    494.00925 0.0087478618 0.0070320888         3426 
 4707000   0.50760315   -9.5223903    493.64251 0.0087395105 0.0070294707         3452 
 4708000   0.50086721   -9.5377444    493.59306 0.0087367789 0.0070268539         3439 
 4709000   0.50471607   -9.5279028    494.38182 0.0087488819  0.007024237         3441 
 4710000   0.50475064   -9.5313273    494.02664 0.0087407402 0.0070216234         3427 
 4711000   0.50157656   -9.5302086    493.56396 0.0087307005  0.007019007         3392 
 4712000   0.50737857   -9.5421209    493.57961 0.0087291245 0.0070163949         3417 
 4713000   0.49820207   -9.5461243    493.04299  0.008717784 0.0070137821         3401 
 4714000   0.49813999   -9.5364712    492.94993 0.0087142895 0.0070111728         3443 
 4715000   0.50513018    -9.546653    494.04609  0.008731815 0.0070085646         3433 
 4716000   0.49601494   -9.5505243    494.14375 0.0087316891  0.007005958         3447 
 4717000   0.49992189    -9.525139    494.01667 0.0087275929 0.0070033538         3420 
 4718000   0.50468166   -9.5475596    493.42428 0.0087152798 0.0070007502         3431 
 4719000   0.49284967   -9.5473729    493.71424 0.0087185534 0.0069981478         3427 
 4720000   0.48962209   -9.5394143    493.49515 0.0087128381 0.0069955443         3438 
 4721000   0.49962688   -9.5433886    493.00492 0.0087023392 0.0069929452         3437 
 4722000   0.50364413   -9.5352994      493.513 0.0087094629 0.0069903471         3457 
 4723000   0.49742529   -9.5389216    493.01605 0.0086988506 0.0069877489         3412 
 4724000   0.49723365   -9.5284984    494.01752 0.0087146753 0.0069851535         3422 
 4725000   0.49157303   -9.5236167    494.24594 0.0087168595 0.0069825586         3438 
 4726000   0.50599697   -9.5330376    493.76674 0.0087065655 0.0069799647         3436 
 4727000   0.50464407   -9.5328816    493.32171 0.0086968781 0.0069773734         3461 
 4728000   0.49525532   -9.5478224    493.46726  0.008697604 0.0069747829         3429 
 4729000    0.4988791   -9.5267677    494.30711 0.0087105644 0.0069721932         3425 
 4730000   0.48845517   -9.5420375    493.74997 0.0086989071 0.0069696035         3440 
 4731000   0.50847592   -9.5449936    493.04372 0.0086846283 0.0069670169         3428 
 4732000   0.49881784   -9.5374954    494.04531 0.0087004316 0.0069644322         3443 
 4733000    0.5083692   -9.5482117    493.51544 0.0086892641  0.006961848         3435 
 4734000   0.48150648   -9.5479793    493.03706 0.0086790075 0.0069592636         3446 
 4735000   0.48772661    -9.545169    493.78815 0.0086903934 0.0069566804         3426 
 4736000   0.48845366   -9.5657896    493.44191  0.008682466 0.0069540985         3434 
 4737000   0.50242278   -9.5452251    493.27703 0.0086777326 0.0069515189         3434 
 4738000   0.48553945   -9.5425398    493.79601  0.008685029 0.0069489422         3440 
 4739000    0.4938072   -9.5484534    493.81385 0.0086835101 0.0069463646         3444 
 4740000   0.49550256   -9.5394114    493.47947 0.0086757993 0.0069437897         3449 
 4741000    0.4831579   -9.5459503    493.55587 0.0086753124 0.0069412162         3446 
 4742000   0.48505664   -9.5401766    493.29121 0.0086688318 0.0069386405         3441 
 4743000    0.4969439   -9.5383295    493.30692 0.0086672801  0.006936067         3465 
 4744000   0.50417825   -9.5346121     493.7089 0.0086725145 0.0069334959         3431 
 4745000   0.48887766   -9.5459262     493.9351 0.0086746593 0.0069309263         3450 
 4746000   0.48991851   -9.5296106     493.0882 0.0086579612 0.0069283565         3446 
 4747000    0.4915994   -9.5368322    494.23222 0.0086762204 0.0069257888         3445 
 4748000   0.49704022   -9.5492725    493.53591  0.008662172 0.0069232239         3444 
 4749000   0.49333161   -9.5405331    493.72767 0.0086637129 0.0069206601         3452 
 4750000    0.4944961   -9.5453352    493.57791 0.0086592617 0.0069180965         3435 
 4751000   0.50145405   -9.5453302    493.37149 0.0086538184 0.0069155342         3446 
 4752000   0.49480214   -9.5394819    493.90944  0.008661431  0.006912974         3435 
 4753000   0.48911558   -9.5528521    493.49522 0.0086523462 0.0069104148         3420 
 4754000   0.49738626   -9.5665161    493.01112 0.0086420403 0.0069078566         3433 
 4755000   0.48521765   -9.5462429    493.32631 0.0086457468 0.0069052991         3434 
 4756000   0.48831864   -9.5583044    493.79715 0.0086521788 0.0069027444         3442 
 4757000   0.48510845   -9.5393725    493.88246 0.0086518545 0.0069001907         3428 
 4758000   0.47815885   -9.5510626    494.04212 0.0086528323 0.0068976373         3423 
 4759000   0.49632761   -9.5389419    492.78685 0.0086290337 0.0068950868         3428 
 4760000   0.48506032   -9.5548037    493.49764 0.0086396646 0.0068925377         3428 
 4761000   0.50013806   -9.5522025    492.71488 0.0086241491 0.0068899902         3456 
 4762000    0.4851551   -9.5588266      494.138 0.0086472421  0.006887445         3437 
 4763000   0.47697408   -9.5593267    493.71147 0.0086379639 0.0068848976         3439 
 4764000   0.49013826   -9.5633031    493.49638 0.0086323884 0.0068823531         3453 
 4765000   0.49269571   -9.5321148    494.40695 0.0086465014 0.0068798113         3410 
 4766000   0.48680292   -9.5520773    493.41405 0.0086273263 0.0068772676         3436 
 4767000   0.48867596    -9.558634    492.98263 0.0086179747 0.0068747275         3460 
 4768000   0.49385266   -9.5474673    494.27587 0.0086387701 0.0068721879         3444 
 4769000   0.49697661   -9.5421694     493.6278 0.0086256343 0.0068696473         3411 
 4770000   0.49083727    -9.539073    492.55752  0.008605128 0.0068671086         3443 
 4771000    0.4885301   -9.5639723    493.30457 0.0086163727  0.006864572         3436 
 4772000   0.48748924   -9.5482134    493.31653 0.0086147759 0.0068620362         3460 
 4773000   0.49240393   -9.5382946    493.20853 0.0086110854  0.006859503         3421 
 4774000   0.49958036   -9.5462779    493.40058 0.0086126341 0.0068569698         3436 
 4775000   0.48886756   -9.5477526    492.86275 0.0086014441 0.0068544363         3425 
 4776000   0.48490364   -9.5553798    493.53505 0.0086113737 0.0068519057         3442 
 4777000   0.48209187   -9.5405678    493.28191 0.0086051551 0.0068493764         3439 
 4778000   0.48790971   -9.5649003    493.70468 0.0086107277 0.0068468506         3450 
 4779000   0.50176423   -9.5670668    493.34665 0.0086026827 0.0068443239         3431 
 4780000   0.49433105   -9.5397039    493.14388  0.008597348 0.0068417985         3447 
 4781000   0.48333559   -9.5562139    493.00801 0.0085931815 0.0068392757         3432 
 4782000   0.48915723    -9.559565    494.37526 0.0086152108 0.0068367539         3441 
 4783000   0.48554181   -9.5572648    492.80746 0.0085860942 0.0068342331         3450 
 4784000   0.47608226   -9.5564452    493.58881 0.0085979098 0.0068317121         3437 
 4785000   0.47955844   -9.5579363    492.92399 0.0085845348 0.0068291921         3462 
 4786000   0.48491676   -9.5584949    492.81178 0.0085807874 0.0068266732         3458 
 4787000   0.47905355   -9.5613054    492.92934 0.0085810414 0.0068241563         3436 
 4788000   0.48144203    -9.551974    493.42306 0.0085878421 0.0068216424         3443 
 4789000   0.48949944   -9.5610568    493.23543 0.0085827841 0.0068191283         3461 
 4790000   0.48519469   -9.5505692    493.63685 0.0085879758 0.0068166129         3451 
 4791000   0.49121486    -9.553506    493.22118 0.0085789533 0.0068141017         3469 
 4792000   0.48661587   -9.5509006     493.3269 0.0085790014 0.0068115919         3442 
 4793000   0.49068321   -9.5673496    492.57725 0.0085641778 0.0068090838         3453 
 4794000    0.4899769   -9.5564034    493.26629 0.0085743689  0.006806575         3463 
 4795000   0.48012854   -9.5694773    492.64922 0.0085618564 0.0068040672         3429 
 4796000    0.4839493    -9.561808    493.56518 0.0085759867 0.0068015618         3421 
 4797000   0.49132729     -9.57428    493.10378 0.0085661833 0.0067990581         3448 
 4798000   0.48584752   -9.5404112     493.7011 0.0085747724 0.0067965554         3440 
 4799000    0.4840901   -9.5502773    492.61914 0.0085541977 0.0067940538         3445 
 4800000   0.47344824   -9.5603148    492.49818 0.0085503156 0.0067915525         3458 
 4801000   0.47622522   -9.5546241    493.60443 0.0085677364 0.0067890534         3424 
 4802000   0.48413985   -9.5559628    494.29531 0.0085779416 0.0067865537         3410 
 4803000   0.47628234   -9.5514492    493.32466 0.0085593146 0.0067840573         3434 
 4804000   0.48302784   -9.5650323    492.55263 0.0085441409 0.0067815608         3453 
 4805000   0.48851394    -9.557106    493.01936 0.0085504571 0.0067790656         3436 
 4806000   0.47811418   -9.5724382    493.42538 0.0085557181 0.0067765736         3425 
 4807000   0.47922799   -9.5533146    493.11112 0.0085484905 0.0067740823         3451 
 4808000   0.48082055   -9.5519308    492.85012 0.0085421886 0.0067715913         3462 
 4809000   0.48215035   -9.5579836    493.04492  0.008543788 0.0067691027         3459 
 4810000   0.47675328   -9.5641914    493.03125  0.008541775 0.0067666146         3431 
 4811000   0.48958071   -9.5516513    492.90164 0.0085377545 0.0067641288         3455 
 4812000    0.4779888   -9.5633134    493.29558 0.0085428023 0.0067616435         3453 
 4813000   0.48738574   -9.5770284     493.6792 0.0085476694 0.0067591607         3432 
 4814000   0.48795681   -9.5523061    492.89354 0.0085322936 0.0067566785         3455 
 4815000    0.4798027   -9.5613656    493.13189 0.0085346467 0.0067541974         3440 
 4816000   0.47624105   -9.5557039    492.88909 0.0085286733 0.0067517163         3430 
 4817000   0.47266208   -9.5497789    493.78357 0.0085423772  0.006749237         3457 
 4818000   0.47437226   -9.5499286    493.16411 0.0085298898 0.0067467573         3409 
 4819000   0.48051744   -9.5617523    492.98394 0.0085250042 0.0067442807         3453 
 4820000   0.49356379   -9.5598199    493.13805 0.0085258999 0.0067418039         3431 
 4821000   0.47945772    -9.555824     493.0568  0.008522727 0.0067393287         3429 
 4822000   0.48172086    -9.569635    493.27176 0.0085246744 0.0067368562         3432 
 4823000   0.48060454   -9.5608355     493.0426 0.0085189474 0.0067343828         3454 
 4824000   0.46491994   -9.5611198    492.80883 0.0085131431 0.0067319119         3430 
 4825000   0.48088856   -9.5588946    493.17767  0.008517749 0.0067294409         3443 
 4826000   0.47665874   -9.5495177    492.75438 0.0085086749 0.0067269734         3463 
 4827000   0.48078761   -9.5639305    492.97203 0.0085106697 0.0067245052         3440 
 4828000   0.47134017   -9.5762578    492.92831 0.0085081522 0.0067220384         3421 
 4829000   0.48542314   -9.5724365    493.34388 0.0085135618 0.0067195731         3464 
 4830000   0.46723877   -9.5652728    492.71976  0.008501031 0.0067171075         3437 
 4831000   0.47421953    -9.551356    493.73051 0.0085167065 0.0067146438         3448 
 4832000   0.48250779   -9.5578481    493.17846 0.0085054232 0.0067121821         3431 
 4833000   0.47573486   -9.5585364    493.09946 0.0085023013 0.0067097216         3439 
 4834000    0.4833212   -9.5904274    492.17293 0.0084845698 0.0067072613         3450 
 4835000   0.48046046   -9.5710248    493.42295 0.0085043598 0.0067048014         3462 
 4836000   0.47097755   -9.5767332     493.0219 0.0084956903 0.0067023444         3430 
 4837000    0.4760948   -9.5759636     492.0835 0.0084777669 0.0066998869         3450 
 4838000    0.4731853   -9.5600954    493.77277 0.0085051117 0.0066974333         3447 
 4839000   0.47939469   -9.5709633    492.82229 0.0084869858 0.0066949795         3441 
 4840000   0.47551209   -9.5747096    493.41833 0.0084954947 0.0066925288         3467 
 4841000   0.47583368   -9.5629642    492.20899 0.0084729221 0.0066900787         3428 
 4842000   0.47807748   -9.5829713    493.16755 0.0084876695 0.0066876291         3418 
 4843000    0.4885439   -9.5639957    493.07334 0.0084842959 0.0066851813         3465 
 4844000   0.47596985    -9.569967     492.8399 0.0084785284 0.0066827334         3432 
 4845000   0.46423586   -9.5701825    492.98643 0.0084792987 0.0066802882         3443 
 4846000   0.48158754   -9.5791662    492.58202 0.0084705947 0.0066778438         3413 
 4847000   0.46951213   -9.5648326     492.0611 0.0084598909 0.0066753987         3451 
 4848000   0.47338432   -9.5618908     493.1088 0.0084761551 0.0066729552         3454 
 4849000   0.48059121   -9.5802794     493.6274 0.0084833195 0.0066705136         3457 
 4850000   0.47849747   -9.5659799    492.66313 0.0084650022 0.0066680718         3461 
 4851000   0.46305676   -9.5520119    492.54689 0.0084612604 0.0066656322         3470 
 4852000   0.48514627   -9.5781628    492.61587 0.0084607012 0.0066631928         3443 
 4853000   0.47783125   -9.5720697    493.17965 0.0084686388 0.0066607562         3437 
 4854000   0.48060842   -9.5758494    492.57693 0.0084565467 0.0066583213         3428 
 4855000   0.47448756   -9.5789128    492.08502 0.0084463614 0.0066558876         3434 
 4856000   0.47900269   -9.5745209    494.02757  0.008477958 0.0066534539         3435 
 4857000   0.47682178   -9.5676087    491.94218 0.0084404328 0.0066510208         3434 
 4858000   0.48374962   -9.5798512    493.76009 0.0084698793 0.0066485916         3447 
 4859000   0.47785503   -9.5718963    493.25534 0.0084594797 0.0066461634         3433 
 4860000   0.48362491   -9.5628126    492.96873 0.0084528246 0.0066437356         3426 
 4861000    0.4707624   -9.5740413    492.63834 0.0084454217 0.0066413094         3433 
 4862000   0.47895697   -9.5637574    493.37559 0.0084563209 0.0066388843         3445 
 4863000   0.47519902    -9.564581    493.54202  0.008457434 0.0066364585         3433 
 4864000   0.48434787   -9.5726288    492.94853 0.0084455272 0.0066340334         3475 
 4865000    0.4717499   -9.5652214    492.89349 0.0084428485 0.0066316117         3441 
 4866000   0.46379799   -9.5876426    492.98693 0.0084427136 0.0066291901         3463 
 4867000   0.47011538   -9.5761042    491.88593 0.0084221275 0.0066267686         3430 
 4868000   0.47518818   -9.5809126     492.6128 0.0084328404  0.006624351         3436 
 4869000   0.46631966   -9.5780036    492.48192 0.0084288683 0.0066219333         3438 
 4870000   0.47840615   -9.5642768    492.70675 0.0084309848 0.0066195164         3439 
 4871000   0.47259919   -9.5759107    492.81549 0.0084311143 0.0066171005         3432 
 4872000   0.47369041   -9.5867764    493.51887 0.0084414147  0.006614686         3453 
 4873000   0.46902056   -9.5763255     492.2087 0.0084172771 0.0066122734         3462 
 4874000   0.46962134   -9.5549262    493.06245 0.0084301473 0.0066098621         3433 
 4875000   0.46411986   -9.5859427    492.72956 0.0084227275 0.0066074506         3442 
 4876000   0.47594569   -9.5669457     492.9301 0.0084244275 0.0066050406         3433 
 4877000   0.46426586   -9.5887093    491.95899 0.0084061067 0.0066026322         3410 
 4878000   0.48445737   -9.5736086    492.91578 0.0084207288 0.0066002251         3459 
 4879000   0.47158949   -9.5742524    493.48054 0.0084286489 0.0065978195         3450 
 4880000   0.46020137   -9.5890143    492.70605 0.0084136962 0.0065954142         3467 
 4881000    0.4737185   -9.5858537    492.32584 0.0084054812 0.0065930091         3439 
 4882000   0.47324825   -9.5654538    493.01725 0.0084155613 0.0065906062         3437 
 4883000    0.4706268   -9.5761805    492.71512 0.0084086818 0.0065882058         3452 
 4884000   0.46844169   -9.5761486    493.36735 0.0084180889 0.0065858043         3457 
 4885000   0.45722201   -9.5742837    492.53439 0.0084021561 0.0065834068         3429 
 4886000   0.46106989   -9.5818545    492.51504 0.0084001065 0.0065810088         3430 
 4887000   0.46952124    -9.586466    493.67376 0.0084181462 0.0065786127         3429 
 4888000   0.47184474   -9.5619237    493.69528 0.0084167908  0.006576217         3409 
 4889000    0.4615535   -9.5620515     492.5975 0.0083963575 0.0065738234         3419 
 4890000   0.47449869   -9.5734232    491.84584  0.008381831 0.0065714284         3439 
 4891000   0.46168185   -9.5875385     492.3564 0.0083888161 0.0065690369         3451 
 4892000   0.46633327    -9.585194    493.22759 0.0084019418 0.0065666464         3435 
 4893000   0.47658372   -9.5592246    492.69049 0.0083910773 0.0065642564         3454 
 4894000   0.47549497   -9.5871561    493.04412 0.0083953841 0.0065618687         3454 
 4895000   0.46499256   -9.5786977    492.74471 0.0083885718 0.0065594829         3450 
 4896000   0.46428459   -9.5692509    493.41548 0.0083982754 0.0065570962         3436 
 4897000   0.46913339   -9.5736391    492.55418 0.0083819035 0.0065547104         3450 
 4898000   0.46549277   -9.5627552    492.48539 0.0083790219 0.0065523266         3428 
 4899000   0.46566381   -9.5923559    492.73783 0.0083816056 0.0065499429         3443 
 4900000   0.45827925   -9.5751669    492.36566 0.0083735657 0.0065475607         3475 
 4901000   0.46621074   -9.5936468    492.64659 0.0083766339 0.0065451794         3455 
 4902000   0.47738343   -9.5802235    492.58948 0.0083739542 0.0065427993         3445 
 4903000   0.47057695   -9.5730444    492.73133 0.0083746571 0.0065404211         3434 
 4904000    0.4667548   -9.5723214    492.82583 0.0083745553 0.0065380448         3430 
 4905000   0.46372046   -9.5708185     492.3537 0.0083648266 0.0065356693         3450 
 4906000   0.46326872   -9.5814571    492.53433 0.0083661899 0.0065332945         3459 
 4907000   0.46943354     -9.59852    492.18842 0.0083586104 0.0065309213         3433 
 4908000   0.47293305   -9.5798082    492.91605 0.0083692619 0.0065285499         3422 
 4909000   0.46047681   -9.5819687    491.93721 0.0083509406 0.0065261787         3460 
 4910000   0.45113405   -9.5938341    493.19412 0.0083705723 0.0065238085         3435 
 4911000   0.46676699    -9.600968    492.58478 0.0083585281 0.0065214389         3468 
 4912000   0.47436399   -9.5743685     490.9603 0.0083292668 0.0065190713         3438 
 4913000   0.46469711   -9.5606015    492.69976 0.0083570758 0.0065167052         3449 
 4914000   0.47433417   -9.5896913    492.52587 0.0083524262 0.0065143405         3461 
 4915000   0.46473765   -9.5888148    492.91457 0.0083573172 0.0065119765         3441 
 4916000     0.461159   -9.5970671    492.61487 0.0083505369 0.0065096129         3446 
 4917000   0.46659019   -9.5837988    492.71582 0.0083505495 0.0065072517         3451 
 4918000   0.46902445   -9.5725285    492.66489 0.0083479885 0.0065048899         3466 
 4919000   0.46063228   -9.5780952    492.73882 0.0083475439 0.0065025317         3424 
 4920000   0.47042946   -9.5930967    492.99045 0.0083501092 0.0065001741         3452 
 4921000   0.47661897   -9.5805457    492.93965 0.0083475521 0.0064978165         3439 
 4922000   0.45040216   -9.5884764    492.22465 0.0083337507 0.0064954617         3465 
 4923000   0.47027064   -9.6044756    492.93221 0.0083440349 0.0064931072         3445 
 4924000   0.46316606   -9.5925534    493.01353 0.0083437166 0.0064907535         3474 
 4925000   0.46774969    -9.578311    492.46254 0.0083326994 0.0064884008         3447 
 4926000   0.46270449   -9.5888267    492.77075 0.0083362219 0.0064860495         3452 
 4927000   0.45973019   -9.5923597    491.97209 0.0083210217 0.0064836992         3443 
 4928000   0.46182064   -9.5849239    491.64675 0.0083138316 0.0064813503         3464 
 4929000   0.46107138   -9.6003853    492.37705 0.0083244919 0.0064790032         3395 
 4930000   0.45912715   -9.5886868    492.23909 0.0083204714 0.0064766563         3445 
 4931000   0.46014956   -9.5966921    492.64736 0.0083256838 0.0064743116         3454 
 4932000   0.46883807   -9.5900982    492.18383 0.0083161636 0.0064719667         3443 
 4933000   0.45698591   -9.5751811    492.29132 0.0083162937 0.0064696228         3447 
 4934000   0.47105241   -9.6038136    492.47986 0.0083177925 0.0064672822         3475 
 4935000   0.46110323   -9.6028624    491.85133 0.0083054936  0.006464939         3471 
 4936000    0.4539577   -9.5863165      492.758 0.0083191181 0.0064625979         3442 
 4937000   0.47328385   -9.5936834    492.38861  0.008311198 0.0064602592         3428 
 4938000   0.46507734   -9.5743756    492.38164 0.0083093971 0.0064579226         3451 
 4939000   0.46149951   -9.6031854    492.90042 0.0083164679 0.0064555871         3468 
 4940000   0.46314711   -9.5825857    492.33108 0.0083051801 0.0064532522         3426 
 4941000   0.45839079   -9.5833033    491.73482 0.0082934429 0.0064509184         3454 
 4942000   0.46446491   -9.6087591    492.54012 0.0083053439 0.0064485851         3469 
 4943000   0.45758956   -9.5725229    492.85277 0.0083089346 0.0064462527         3439 
 4944000   0.46755236   -9.5833409    492.71819 0.0083049857 0.0064439222         3466 
 4945000   0.46382563   -9.5792775    492.24335 0.0082953042 0.0064415914         3444 
 4946000   0.46550724   -9.5985866     492.3723 0.0082957996 0.0064392643         3444 
 4947000   0.45882225   -9.5840908    492.69647 0.0082995834 0.0064369357         3416 
 4948000   0.46565142   -9.5978696    491.95213 0.0082853699 0.0064346086         3438 
 4949000   0.45890777   -9.5986768    493.04328 0.0083020691 0.0064322829         3447 
 4950000   0.45883194   -9.6028276      491.675  0.008277357 0.0064299581         3460 
 4951000   0.45303244    -9.589163     492.2098 0.0082846866 0.0064276341         3453 
 4952000   0.45821815   -9.6067918    490.87603 0.0082605686 0.0064253129         3439 
 4953000   0.45315936   -9.6047645    492.89609  0.008292888 0.0064229913         3465 
 4954000   0.45619734   -9.6110422    492.67038 0.0082874173 0.0064206714         3440 
 4955000   0.45867255   -9.5964211    493.14993 0.0082938099 0.0064183544         3431 
 4956000   0.46189162   -9.5921868    492.01656  0.008273079 0.0064160372         3423 
 4957000   0.45689346   -9.5954065    492.38585 0.0082776183 0.0064137227         3443 
 4958000   0.45499799    -9.595098    491.51595 0.0082613276 0.0064114094         3455 
 4959000   0.45314509   -9.6023498     492.5868 0.0082776567 0.0064090968         3432 
 4960000    0.4619401   -9.5888079    492.41536 0.0082731076 0.0064067855         3445 
 4961000   0.46024998   -9.5863591    492.33866 0.0082701516 0.0064044755         3433 
 4962000   0.45616815   -9.5922109    491.43753 0.0082533509 0.0064021649         3444 
 4963000   0.46001404   -9.5868291    492.63562  0.008271805 0.0063998557         3460 
 4964000   0.46270676   -9.6016583    492.28339 0.0082642255 0.0063975479         3461 
 4965000   0.45827977   -9.5937368    491.96267  0.008257178 0.0063952399         3430 
 4966000   0.44799553   -9.5992241    492.41757 0.0082631489 0.0063929348         3456 
 4967000   0.45548677   -9.5963876    492.29058 0.0082593547 0.0063906299         3463 
 4968000   0.45602536    -9.592936    492.32105 0.0082582033 0.0063883259         3457 
 4969000   0.45710733   -9.6052773    492.60977 0.0082613835 0.0063860215         3440 
 4970000   0.46068157   -9.5930326    492.00569 0.0082495924 0.0063837211         3434 
 4971000    0.4491611   -9.5982263    492.30205 0.0082529009 0.0063814224         3455 
 4972000   0.45849714   -9.5902992     492.2956 0.0082511331 0.0063791234         3456 
 4973000   0.45651957   -9.5949375      491.634 0.0082383874 0.0063768247         3450 
 4974000   0.46362056   -9.6047511    491.89777 0.0082411502 0.0063745282         3449 
 4975000   0.45862743   -9.5976123    491.97215 0.0082407396 0.0063722323         3442 
 4976000   0.45063135   -9.6109287    491.70432 0.0082345981 0.0063699377         3445 
 4977000   0.45835785   -9.5939588    492.11846 0.0082398778 0.0063676433         3440 
 4978000   0.46152822   -9.5915603    492.42233 0.0082433093 0.0063653517         3447 
 4979000   0.45591421   -9.6014735    492.12459 0.0082366706 0.0063630595         3429 
 4980000   0.45317444   -9.5882044    492.34574 0.0082387172 0.0063607694         3431 
 4981000   0.46228117   -9.5920774    491.80553 0.0082280253 0.0063584806         3451 
 4982000   0.45690635   -9.5999471    492.22147 0.0082333311 0.0063561935         3441 
 4983000   0.46202585   -9.5931871    492.24555 0.0082320816 0.0063539058         3450 
 4984000   0.45305085   -9.6084515    492.25539 0.0082305945 0.0063516205         3451 
 4985000    0.4570944   -9.6003013    492.77203 0.0082375799 0.0063493368         3444 
 4986000   0.46252882   -9.5988407    492.17843 0.0082260067  0.006347054         3470 
 4987000   0.45733596   -9.5965958    492.05364 0.0082222718 0.0063447711         3432 
 4988000   0.45359457    -9.597915    492.29288 0.0082246204 0.0063424909         3453 
 4989000   0.45092624   -9.6087527    492.16705   0.00822087 0.0063402107         3461 
 4990000   0.45830467     -9.59693     491.6529 0.0082106363 0.0063379313         3463 
 4991000   0.45384056   -9.6072472    491.80613 0.0082115496 0.0063356522         3456 
 4992000   0.44935376   -9.5909301    492.38079 0.0082194978 0.0063333758         3425 
 4993000   0.45792006   -9.6060945    491.95553 0.0082107539 0.0063310997         3463 
 4994000   0.44744899    -9.609576    491.66283 0.0082042256 0.0063288245         3436 
 4995000   0.43745081   -9.6001091    492.71489 0.0082201349 0.0063265518         3457 
 4996000     0.443758   -9.6007685    491.72702 0.0082020119 0.0063242802         3461 
 4997000   0.45373329   -9.5989941    491.46848  0.008196059 0.0063220097         3452 
 4998000   0.44741001   -9.6018181     492.1065  0.008205057 0.0063197386         3463 
 4999000   0.45692551   -9.6107364    491.75779 0.0081976027 0.0063174699         3473 
 5000000   0.44881264   -9.6067589    491.94519 0.0081990865 0.0063152002         3452 
 5001000   0.44723333   -9.5934439    492.21721 0.0082019798 0.0063129343         3456 
 5002000   0.45376288   -9.6077067    492.22504 0.0082004705 0.0063106675         3478 
 5003000   0.45279105   -9.6174603    491.67667 0.0081896973 0.0063084029         3464 
 5004000    0.4471091   -9.6061646    493.10574 0.0082118596 0.0063061385         3446 
 5005000   0.44564803   -9.6214366    491.32533 0.0081805749 0.0063038763         3459 
 5006000   0.44331978   -9.6086162    492.30624 0.0081952696  0.006301613         3459 
 5007000    0.4385851   -9.5949945    492.00495 0.0081886184 0.0062993518         3457 
 5008000   0.44552927   -9.6025227    492.06445 0.0081879735 0.0062970936         3417 
 5009000   0.45315787   -9.6134226    491.80994 0.0081821046 0.0062948366         3436 
 5010000   0.45575716   -9.6066009    492.07625 0.0081849011 0.0062925805         3460 
 5011000   0.45770609   -9.5987239    492.04331 0.0081827198 0.0062903254         3473 
 5012000   0.44647438   -9.5969672    491.23693 0.0081676797 0.0062880706         3438 
Loop time of 12683.5 on 48 procs for 5000000 steps with 4000 atoms

Performance: 68119.907 tau/day, 394.212 timesteps/s
99.4% CPU use with 48 MPI tasks x no OpenMP threads

MPI task timing breakdown:
Section |  min time  |  avg time  |  max time  |%varavg| %total
---------------------------------------------------------------
Pair    | 899.32     | 946.96     | 1018.1     |  85.0 |  7.47
Neigh   | 85.236     | 88.121     | 90.874     |  15.8 |  0.69
Comm    | 801.24     | 881.85     | 939.29     | 106.3 |  6.95
Output  | 17.1       | 17.107     | 17.209     |   0.4 |  0.13
Modify  | 10584      | 10625      | 10667      |  20.9 | 83.77
Other   |            | 124.6      |            |       |  0.98

Nlocal:        83.3333 ave          91 max          74 min
Histogram: 2 3 3 5 4 14 2 5 7 3
Nghost:        2323.77 ave        2356 max        2297 min
Histogram: 2 9 5 7 7 4 3 5 3 3
Neighs:        15755.7 ave       17449 max       14008 min
Histogram: 4 3 4 7 6 5 7 4 4 4
FullNghs:      31512.3 ave       35519 max       27389 min
Histogram: 4 2 3 7 9 6 6 3 5 3

Total # of neighbors = 1512592
Ave neighs/atom = 378.14800
Neighbor list builds = 266446
Dangerous builds = 0

#clear
#
#next RN
#
#jump SELF
Total wall time: 3:31:27
