
units lj                  # Use reduced LJ style units
atom_style atomic         # Uncharged point particles
atom_modify map hash      # Needed for indexing of clusters etc
                          # Used to be able to find where atoms are in relation to each other.

lattice fcc 1.0 spacing 1 1 1
Lattice spacing in x,y,z = 1.5874011 1.5874011 1.5874011
region box block 0 10 0 10 0 10 units lattice
create_box 2 box
Created orthogonal box = (0.0000000 0.0000000 0.0000000) to (15.874011 15.874011 15.874011)
  3 by 4 by 4 MPI processor grid
create_atoms 1 box
Created 4000 atoms
  using lattice units in orthogonal box = (0.0000000 0.0000000 0.0000000) to (15.874011 15.874011 15.874011)
  create_atoms CPU = 0.002 seconds
set type 1 type/fraction 2 0.41 78393
Setting atom values ...
  1648 settings made for type/fraction
mass 1 1.0
mass 2 1.0
pair_style lj/cut  3.5
pair_modify tail  yes
pair_coeff 1  1  1.0  1.0   # Intearaction between 1 and 1 set with epsilon = 1 and sigma = 1
pair_coeff 1  2  1.5  0.8
pair_coeff 2  2  0.5  0.88

write_data data.0
System init for write_data ...
Neighbor list info ...
  update every 1 steps, delay 10 steps, check yes
  max neighbors/atom: 2000, page size: 100000
  master list distance cutoff = 3.8
  ghost atom cutoff = 3.8
  binsize = 1.9, bins = 9 9 9
  1 neighbor lists, perpetual/occasional/extra = 1 0 0
  (1) pair lj/cut, perpetual
      attributes: half, newton on
      pair build: half/bin/atomonly/newton
      stencil: half/bin/3d
      bin: standard
WARNING: Not all mixed pair coeffs generated from mixing. Use write_data with 'pair ij' option to store all pair coeffs. (../write_data.cpp:312)


#############################
#   M E L T   S Y S T E M   #
#############################

velocity all create 2.4 9622624 mom yes dist gaussian # Assign velocities
                                                    # Temperature 2.4, random number seed, zero linear momentum
                                                                                # Gaussian distribution

timestep 0.002   # simulation timestep
thermo 1000       # output thermodynamic data every 1000 steps bf 100

# Define a fix  in this case with index 1 applied to all
# particles in the simulation. This fix is for simulations
# in the anisotropic NPT ensemble. Note that we use the MTK
# correction.
fix 1 all npt temp 2.4 2.4 0.1 iso 5.68 5.68 0.5 mtk yes tchain 5 pchain 5 # Use NPT ensemble
                                                                         # Set temperature and pressure and damping
                                                                         # Numbers of thermostats in chain and in barostat
run 10000          # run for 10000 steps
Per MPI rank memory allocation (min/avg/max) = 3.642 | 3.644 | 3.648 Mbytes
Step Temp E_pair E_mol TotEng Press Volume 
       0          2.4   -5.8082674            0   -2.2091674   -4.1765581         4000 
    1000    2.3976615   -5.0039379            0   -1.4083448    5.5755044    3887.2572 
    2000    2.3948028   -4.9853754            0   -1.3940692    5.8336433    3878.1281 
    3000    2.3951232    -5.094517            0   -1.5027304    5.4700865    3850.8033 
    4000    2.3466713   -5.1039039            0    -1.584777    5.3215197    3851.4479 
    5000    2.3493395   -5.0474865            0   -1.5243583    5.7171352    3850.7453 
    6000    2.4044736    -4.964254            0   -1.3584452    5.7360265    3892.8211 
    7000    2.3861807   -5.0279266            0   -1.4495504    5.4458334    3888.2256 
    8000    2.4111526   -4.9908454            0   -1.3750207    5.8740106    3877.3867 
    9000    2.3674899   -5.0993762            0   -1.5490291    5.5986161    3840.2278 
   10000    2.3924464   -5.0452433            0   -1.4574708    5.5344973    3876.9323 
Loop time of 2.48523 on 48 procs for 10000 steps with 4000 atoms

Performance: 695307.334 tau/day, 4023.769 timesteps/s
99.6% CPU use with 48 MPI tasks x no OpenMP threads

MPI task timing breakdown:
Section |  min time  |  avg time  |  max time  |%varavg| %total
---------------------------------------------------------------
Pair    | 1.1142     | 1.185      | 1.2695     |   2.9 | 47.68
Neigh   | 0.20907    | 0.21577    | 0.22737    |   0.8 |  8.68
Comm    | 0.74584    | 0.83667    | 0.92303    |   3.9 | 33.67
Output  | 0.00023977 | 0.00024349 | 0.00031017 |   0.0 |  0.01
Modify  | 0.20314    | 0.23243    | 0.27233    |   3.9 |  9.35
Other   |            | 0.01515    |            |       |  0.61

Nlocal:        83.3333 ave          96 max          72 min
Histogram: 1 1 3 10 7 19 5 1 0 1
Nghost:        1679.85 ave        1707 max        1659 min
Histogram: 2 7 6 6 8 7 6 2 3 1
Neighs:        9843.73 ave       11474 max        8111 min
Histogram: 1 0 1 8 11 18 4 3 1 1

Total # of neighbors = 472499
Ave neighs/atom = 118.12475
Neighbor list builds = 904
Dangerous builds = 196

# Equilibrate just above the melting temperature to avoid step fn in T

fix 1 all npt temp 1.25 1.25 0.1 iso 5.68 5.68 0.5 mtk yes tchain 5 pchain 5
run 2000
Per MPI rank memory allocation (min/avg/max) = 3.643 | 3.645 | 3.649 Mbytes
Step Temp E_pair E_mol TotEng Press Volume 
   10000    2.3924464   -5.0452433            0   -1.4574708    5.5344973    3876.9323 
   11000    1.2433715   -7.0062274            0   -5.1416364    5.5650927    3077.9118 
   12000    1.2382205   -7.0644046            0   -5.2075381    6.1898959    3038.0153 
Loop time of 0.596486 on 48 procs for 2000 steps with 4000 atoms

Performance: 579393.335 tau/day, 3352.971 timesteps/s
99.6% CPU use with 48 MPI tasks x no OpenMP threads

MPI task timing breakdown:
Section |  min time  |  avg time  |  max time  |%varavg| %total
---------------------------------------------------------------
Pair    | 0.26967    | 0.29183    | 0.3251     |   2.6 | 48.92
Neigh   | 0.038098   | 0.040675   | 0.043519   |   0.7 |  6.82
Comm    | 0.18203    | 0.21753    | 0.24402    |   3.3 | 36.47
Output  | 5.0892e-05 | 5.1933e-05 | 6.695e-05  |   0.0 |  0.01
Modify  | 0.039102   | 0.041732   | 0.044952   |   0.8 |  7.00
Other   |            | 0.00467    |            |       |  0.78

Nlocal:        83.3333 ave          93 max          73 min
Histogram: 1 1 2 5 12 7 11 7 0 2
Nghost:        1979.94 ave        1999 max        1955 min
Histogram: 1 1 4 4 3 17 4 8 2 4
Neighs:        12587.8 ave       14559 max       10862 min
Histogram: 3 2 5 7 10 11 4 4 1 1

Total # of neighbors = 604213
Ave neighs/atom = 151.05325
Neighbor list builds = 141
Dangerous builds = 11

#############################
# L I N E A R  Q U E N C H  #
#############################

# Define solid atoms. This closely follows ten Wolde  Ruiz-Montero and Frenkel  Faraday Discuss  1996  104  93-110
# Compute components of the per-atom q6 vector
compute q6 all orientorder/atom degrees 1 6 components 6 nnn NULL cutoff 1.3 # compute the Q6 parameter.
                                                                             # Use all neighbours within 1.3 unit cell.

# get number of connections
compute coord_number all coord/atom orientorder q6 0.5

# An atom is solid if it has 8 or more connections (of a possible 14)
variable is_solid atom c_coord_number>=8
group solid dynamic all var is_solid    # Must be dynamic to update
dynamic group solid defined

# do clustering
compute cluster solid cluster/atom 1.3 # Create a cluster where all atoms within are solid and max 1.3 units from another member

# define chunks one chunk per cluster
compute clus_chunks solid chunk/atom c_cluster nchunk every compress yes  # Says which atoms are in which chunk

# count the size of each chunk
compute size_chunks solid property/chunk clus_chunks count


# Find the maximum entry in the vector of chunk sizes
variable max_n equal max(c_size_chunks)


# Thermo style which includes this variable
# thermo_style custom step temp pe vol v_max_n

thermo ${N}  # Print the thermo information every 100 steps
thermo 1000  

# Reset the npt fix at a lower temperature (below freezing)
fix 1  all npt temp  ${temp} ${temp}  0.1  iso  5.68  5.68  0.5  mtk yes tchain  5  pchain  5
fix 1  all npt temp  0.45 ${temp}  0.1  iso  5.68  5.68  0.5  mtk yes tchain  5  pchain  5
fix 1  all npt temp  0.45 0.45  0.1  iso  5.68  5.68  0.5  mtk yes tchain  5  pchain  5

dump dmp2 all dcd ${N} traj.dcd
dump dmp2 all dcd 1000 traj.dcd


compute msd all msd com yes
variable twopoint equal c_msd[4]/6/(step*dt+1.0e-6)
fix 9 all vector 10 c_msd[4]
variable fit equal slope(f_9)/6/(10*dt)
thermo_style custom step temp pe c_msd[4] v_twopoint v_fit v_max_n

fix 1 all npt temp 1.25 ${temp} 0.1 iso 5.68 5.68 0.5 mtk yes tchain 5 pchain 5
fix 1 all npt temp 1.25 0.45 0.1 iso 5.68 5.68 0.5 mtk yes tchain 5 pchain 5
run 500000 # 5000000  # Run for this many steps
Neighbor list info ...
  update every 1 steps, delay 10 steps, check yes
  max neighbors/atom: 2000, page size: 100000
  master list distance cutoff = 3.8
  ghost atom cutoff = 3.8
  binsize = 1.9, bins = 8 8 8
  4 neighbor lists, perpetual/occasional/extra = 1 3 0
  (1) pair lj/cut, perpetual
      attributes: half, newton on
      pair build: half/bin/atomonly/newton
      stencil: half/bin/3d
      bin: standard
  (2) compute orientorder/atom, occasional
      attributes: full, newton on
      pair build: full/bin/atomonly
      stencil: full/bin/3d
      bin: standard
  (3) compute coord/atom, occasional
      attributes: full, newton on
      pair build: full/bin/atomonly
      stencil: full/bin/3d
      bin: standard
  (4) compute cluster/atom, occasional
      attributes: full, newton on
      pair build: full/bin/atomonly
      stencil: full/bin/3d
      bin: standard
Per MPI rank memory allocation (min/avg/max) = 9.826 | 9.833 | 9.838 Mbytes
Step Temp PotEng c_msd[4] v_twopoint v_fit v_max_n 
   12000    1.2382205   -7.0644046 2.1186832e-30 1.4713077e-32 8.3333333e+20            2 
   13000    1.2595312   -7.0762242   0.49016226 0.0031420656  0.039682241            1 
   14000    1.2535085   -7.1211984   0.94294849 0.0056127884   0.03904591            1 
   15000    1.2463095   -7.1351942    1.3621642 0.0075675787  0.037314257            1 
   16000    1.2624455   -7.1494945    1.7772945 0.0092567421   0.03648064            6 
   17000    1.2174157   -7.0900717    2.1733284   0.01065357  0.035678678            2 
   18000    1.2493709   -7.1470252      2.56493  0.011874676  0.035279721            2 
   19000    1.2323911   -7.1449456    3.0305911  0.013292066  0.035045896            2 
   20000    1.2523778   -7.1278501    3.4994169  0.014580903  0.035277764            1 
   21000    1.2259651   -7.1056488    3.8832945  0.015409898  0.035291604            2 
   22000    1.2409683   -7.1487651    4.2699864  0.016174191  0.035217763            1 
   23000    1.2577053   -7.1011217    4.7315323  0.017143233  0.035182485            2 
   24000    1.2285535   -7.1615715    5.1696605   0.01795021  0.035250107            2 
   25000    1.2011868   -7.1797935    5.5565962  0.018521987  0.035261662            4 
   26000    1.2129901   -7.1317999    6.0436706  0.019370739  0.035266575            3 
   27000    1.2380217   -7.1802899    6.4432363  0.019886531  0.035358088            2 
   28000    1.2409428   -7.1905818    6.7718552  0.020154331  0.035283712            1 
   29000    1.2238033   -7.2317311    7.2102561  0.020719126  0.035233392            2 
   30000    1.2148013   -7.1805904     7.596862  0.021102394  0.035120919            3 
   31000    1.2324189   -7.2180256     8.043937  0.021623486  0.035057434            1 
   32000      1.24029   -7.1993392    8.4898383  0.022108953  0.035073552            3 
   33000     1.222569   -7.1628366    8.9894939  0.022700742  0.035106979            1 
   34000    1.2339641   -7.1767657    9.3711436  0.022968489  0.035151866            1 
   35000    1.2158452    -7.185771    9.6760428  0.023038197  0.035084672            2 
   36000    1.1953199   -7.1424083    10.200357  0.023611937  0.035039836            1 
   37000    1.2316759   -7.2224467    10.525158   0.02370531  0.034999892            1 
   38000     1.203942   -7.2034722    10.896108  0.023894973  0.034930231            2 
   39000    1.2142064   -7.2024144    11.266755  0.024074263  0.034831991            3 
   40000    1.2108454   -7.2097874    11.641241  0.024252584  0.034743915            2 
   41000    1.1842558     -7.21279    11.905477  0.024198124  0.034621858            2 
   42000    1.2124091   -7.2013159    12.238552  0.024282842  0.034448043            2 
   43000    1.1871991   -7.1965174    12.605585  0.024429429  0.034271901            1 
   44000    1.1936119   -7.1958123    12.938024  0.024503832  0.034111652            2 
   45000    1.1976625   -7.2495779    13.262795  0.024560731  0.033934256            1 
   46000    1.1714117   -7.2375426    13.751255  0.024911693  0.033790162            2 
   47000    1.2170983   -7.2728447    13.851085  0.024558662  0.033612506            2 
   48000     1.183954   -7.2027617    14.362058  0.024934128  0.033432439            1 
   49000    1.1649675   -7.2308759    14.665321  0.024941022  0.033271809            2 
   50000    1.1969899   -7.2439658    14.961821  0.024936368  0.033102333            1 
   51000    1.2154441   -7.2874317    15.318681  0.025030525  0.032948973            3 
   52000    1.1865318   -7.2545711    15.627443  0.025043979  0.032798048            2 
   53000    1.1828207   -7.3137922    15.898207   0.02499718  0.032637587            1 
   54000     1.177388   -7.2577379    16.316252  0.025179401  0.032480073            2 
   55000    1.1873838   -7.2798951    16.746324  0.025373218  0.032355702            1 
   56000    1.1649677    -7.261247    17.098109  0.025443614   0.03225227            2 
   57000    1.2015284    -7.287741    17.451906  0.025514482  0.032160275            2 
   58000    1.1789361   -7.2717852     17.92591  0.025755618  0.032077341            2 
   59000    1.1888376   -7.3213832    18.218803  0.025732772  0.031994098            3 
   60000    1.1796303   -7.2647426    18.500801  0.025695557  0.031897359            2 
   61000      1.17636    -7.297473    18.910472  0.025833978  0.031809721            2 
   62000    1.1571426   -7.2645713    19.334352  0.025987032  0.031736621            6 
   63000    1.1491295   -7.3125407    19.569388  0.025885434  0.031674465            4 
   64000     1.187151   -7.3216175      19.9239  0.025942579  0.031603637            1 
   65000    1.1556182   -7.3079609    20.205561  0.025904565  0.031532902            1 
   66000    1.1748461   -7.3299312    20.547464  0.025943767  0.031451239            2 
   67000    1.1639524   -7.2783327    20.863935  0.025950167  0.031368073            1 
   68000    1.1713041   -7.3537383    21.249189  0.026040673   0.03128934            3 
   69000    1.1602181   -7.3413572    21.551733  0.026028663  0.031214081            1 
   70000     1.148034   -7.3132054    21.895655  0.026066256  0.031140411            3 
   71000    1.1387524    -7.331636    22.146478  0.025993519  0.031065992            1 
   72000    1.1518737   -7.3469755    22.582155  0.026136754  0.030993754            1 
   73000    1.1588999   -7.3411851    22.886729  0.026126403  0.030925298            4 
   74000    1.1436325   -7.3595375    23.205663  0.026132504  0.030858069            1 
   75000     1.172573   -7.3950131    23.505261  0.026116956  0.030794989            3 
   76000    1.1364994   -7.3360914    23.776697   0.02607094  0.030721969            2 
   77000    1.1421946   -7.3642168    24.060544   0.02603955   0.03064386            2 
   78000    1.1596147   -7.3570539     24.35022  0.026015192   0.03056052            4 
   79000    1.1355523   -7.4026592    24.558868  0.025905979  0.030478793            2 
   80000    1.1320583   -7.3625133    25.000078  0.026041748  0.030404044            2 
   81000    1.1415039   -7.3525199    25.420505  0.026152783  0.030330206            3 
   82000    1.1513276   -7.3681708    25.592676  0.026008817  0.030261179            2 
   83000    1.1485137   -7.3401541    25.848774  0.025952585  0.030179564            1 
   84000    1.1346878   -7.3807409    26.177373  0.025969616  0.030096617            4 
   85000    1.1261632   -7.3762989    26.349662  0.025833002  0.030011416            3 
   86000    1.1503841   -7.4026838    26.656598  0.025830037  0.029927751            2 
   87000    1.1429603   -7.4093824    26.843894  0.025712542  0.029835201            2 
   88000    1.1392851   -7.3812591    27.269936  0.025823803  0.029742915            3 
   89000    1.1243054   -7.4195799    27.496264  0.025745566  0.029658857            2 
   90000    1.1024465   -7.4084838    27.760094  0.025703791  0.029579838            2 
   91000    1.1498356   -7.4297454    27.942271   0.02558816  0.029493704            2 
   92000    1.1291918    -7.455138    28.063551  0.025419883   0.02939854            2 
   93000    1.1320127   -7.4717028    28.416692  0.025462985  0.029300279            2 
   94000    1.1241844   -7.4275099     28.68962   0.02543406  0.029205074            1 
   95000    1.1159208    -7.390305    29.052174  0.025484363   0.02911499            2 
   96000    1.1428985   -7.4033436    29.414076  0.025533052  0.029027505            1 
   97000     1.101351   -7.4286107    29.537835  0.025376146   0.02893544            1 
   98000    1.1053916   -7.4072244    29.787939   0.02532988  0.028843488            1 
   99000    1.1075251   -7.4346982    30.142561  0.025372526  0.028754329            5 
  100000    1.1046644   -7.4547792    30.386171  0.025321809  0.028672513            5 
  101000    1.1089493   -7.4528097    30.761624  0.025380878  0.028594538            2 
  102000    1.0948263   -7.4521556    31.081628  0.025393486  0.028520605            2 
  103000    1.0992252   -7.4542276    31.329875  0.025347795  0.028443536            1 
  104000    1.0990977   -7.4620928     31.66016  0.025368718  0.028367966            2 
  105000    1.0939705   -7.4660856    31.772526   0.02521629  0.028297573            4 
  106000    1.1544229   -7.4453886    32.239943  0.025345867  0.028224335            6 
  107000    1.1069459   -7.4790259    32.492707  0.025305846  0.028156565            1 
  108000    1.0998072   -7.5021213    32.667935   0.02520674  0.028086754            2 
  109000     1.092362   -7.5188536    32.989143  0.025221057  0.028018049            1 
  110000     1.081811   -7.4696059    33.361365  0.025273762   0.02795212            1 
  111000    1.1147788   -7.5198131    33.457749   0.02511843  0.027885027            2 
  112000    1.0883173   -7.4975186    33.556132   0.02496736  0.027809371            1 
  113000    1.0959836   -7.5039086    33.810871   0.02493427  0.027732651            4 
  114000     1.074928   -7.5110787    33.912452  0.024789804  0.027653439            1 
  115000     1.099822   -7.4860979    34.214028  0.024792774  0.027573052            1 
  116000    1.0645083   -7.5001217    34.525808  0.024803023  0.027490206            1 
  117000    1.0898577   -7.5364949    34.614159   0.02465396  0.027409493            1 
  118000    1.0622394   -7.5174879     34.93934  0.024674675   0.02732885            1 
  119000    1.0923071    -7.497943    35.176435  0.024633358  0.027248761            2 
  120000    1.0355881   -7.4984085    35.400743  0.024583849  0.027169791            1 
  121000    1.0520254    -7.523646    35.510059  0.024455963  0.027089631            2 
  122000     1.083654   -7.5019353    35.782049   0.02444129  0.027008545            5 
  123000    1.0579845   -7.5716469    35.975024  0.024373322  0.026926867            1 
  124000    1.0630862   -7.5146319     36.26444  0.024371263  0.026845081            1 
  125000    1.0767287    -7.527403    36.254317  0.024169545  0.026760763            2 
  126000    1.0792344   -7.5565922    36.590796  0.024200262  0.026676263            1 
  127000    1.0717066   -7.5662011    36.934072  0.024234955  0.026599349            2 
  128000    1.0608163   -7.5435491    37.402668  0.024350695  0.026524471            2 
  129000    1.0612063   -7.5623565    37.653087    0.0243237  0.026453529            2 
  130000     1.070279   -7.5338979    37.799999  0.024230769  0.026386307            2 
  131000    1.0277371   -7.5881355    37.969209  0.024153441  0.026316237            3 
  132000    1.0611574   -7.5475249    38.170747  0.024097694   0.02624585            1 
  133000    1.0663722   -7.5724137    38.295281  0.023994537  0.026173356            9 
  134000    1.0330865   -7.5915033    38.560348  0.023980316  0.026100299            2 
  135000    1.0327211   -7.5830733    38.639437  0.023851504  0.026023151            2 
  136000    1.0511597   -7.6153832    38.861933  0.023812459  0.025945531            3 
  137000    1.0493434   -7.5834148    39.015875  0.023732284  0.025869475            1 
  138000    1.0613873   -7.6213269    39.145883  0.023638818  0.025789727            5 
  139000    1.0472724   -7.5734305    39.201916  0.023502348  0.025709111            3 
  140000    1.0582507   -7.5505489    39.730698  0.023649225  0.025630491            1 
  141000    1.0317034   -7.6358538    39.666764  0.023443714  0.025551704            3 
  142000    1.0330386   -7.6520706    39.928904  0.023432455  0.025471905            1 
  143000    1.0332505   -7.6027189    40.108015  0.023372969  0.025393645            3 
  144000    1.0293638   -7.5969794    40.389499  0.023373552  0.025316655            3 
  145000     1.020436   -7.5967269    40.572496  0.023317527  0.025239668            3 
  146000    1.0133903   -7.6725498    40.613009  0.023180941  0.025162068            3 
  147000    1.0347293   -7.6599073    40.797946  0.023128087  0.025083622            2 
  148000     1.002627   -7.6595999    40.963956   0.02306529  0.025005005            2 
  149000    1.0513573   -7.6273241    41.263017   0.02307775  0.024926453            2 
  150000    1.0377671   -7.6561763    41.347736  0.022970964  0.024849422            2 
  151000    1.0215774   -7.6623367    41.470066   0.02288635  0.024772287            2 
  152000    1.0106535   -7.7013389    41.678672  0.022850149  0.024692944            1 
  153000   0.99286607   -7.6510316     41.87771   0.02280921  0.024616369            5 
  154000    1.0403839   -7.6518142    42.132737    0.0227991  0.024541185            2 
  155000    1.0164904   -7.6766895    42.203238  0.022689913  0.024466597            2 
  156000    1.0180411   -7.6612861    42.430761  0.022666005  0.024390341            2 
  157000   0.99523816   -7.6630377     42.78942  0.022712006  0.024317984            2 
  158000    1.0298953   -7.6709952    43.083021  0.022723112  0.024247679            1 
  159000    1.0214486   -7.6803067    43.241977   0.02266351  0.024177876            6 
  160000    1.0191708   -7.6677546    43.284744  0.022544137  0.024107915            2 
  161000   0.98900728   -7.6862984     43.59766  0.022566077  0.024038544            1 
  162000    1.0237387   -7.6566269     43.69904   0.02247893  0.023968748            2 
  163000    1.0067764   -7.6958042     43.82631  0.022406089  0.023899243            1 
  164000    1.0138852   -7.7008901    43.855242  0.022284167  0.023829112            2 
  165000   0.98953741   -7.6911083    44.285797  0.022366564  0.023758042            3 
  166000   0.98204696   -7.7303847    44.254709  0.022216219   0.02368749            4 
  167000    1.0283165   -7.7352901    44.555078  0.022233073  0.023618884            1 
  168000   0.99820157   -7.6873007    44.676614  0.022161019  0.023550563            1 
  169000    1.0183388   -7.7197354    44.669014  0.022026141  0.023480356            3 
  170000   0.99967097   -7.7203599    44.980225   0.02204913  0.023409085            1 
  171000    1.0028006   -7.7317774    45.155476  0.022005593  0.023340317            4 
  172000   0.98101125   -7.7605021    45.232226  0.021914838  0.023273938            2 
  173000   0.99999853   -7.7297303    45.428901    0.0218829  0.023206455            2 
  174000   0.98343573   -7.8203583    45.567016  0.021823283  0.023139405            2 
  175000   0.98907014   -7.7386421     45.77181    0.0217961   0.02307178            2 
  176000   0.97491743   -7.7627456    45.829605  0.021699623  0.023003337            2 
  177000   0.98925161   -7.7599966    46.057175  0.021684169  0.022935236            1 
  178000   0.97699556   -7.7791897    46.047017  0.021557592  0.022865783            2 
  179000   0.98322712   -7.7941526    46.200603  0.021508661  0.022794834            1 
  180000   0.99070436   -7.7651533    46.438077   0.02149911  0.022725375            4 
  181000   0.98158142   -7.7549204    46.559071  0.021436036  0.022656074            7 
  182000   0.98330212   -7.7901387    46.615221  0.021343966  0.022587228            2 
  183000   0.98062814   -7.7549468     46.87863  0.021347281  0.022517857            2 
  184000   0.97516491    -7.781196    46.997263  0.021284992  0.022449184            1 
  185000   0.97068047   -7.7667914    47.131465   0.02123039  0.022381706            1 
  186000   0.97115451   -7.7559655    47.302391  0.021192828  0.022314041            2 
  187000   0.95754135   -7.7725995    47.433036  0.021137717  0.022246875            2 
  188000   0.95292103   -7.7938068    47.714207  0.021149915  0.022180622            1 
  189000   0.95894576   -7.8164344     47.74154  0.021050062  0.022114424            3 
  190000   0.97165857   -7.8113853    47.804945  0.020967081   0.02205017            2 
  191000   0.97221569   -7.8429883    48.093236  0.020983087  0.021985911            1 
  192000   0.94862224   -7.8379809    48.272747  0.020951713  0.021921861            1 
  193000   0.94745657   -7.8188405    48.531686  0.020954959  0.021859461            4 
  194000      0.96384   -7.8451434    48.507417  0.020836519  0.021797333            1 
  195000   0.95572024   -7.8675885    48.644541  0.020788265  0.021734142            3 
  196000   0.96309768   -7.8664921    48.945014  0.020809955  0.021671904            1 
  197000   0.94101042   -7.8260885    48.805662  0.020645373  0.021609419            3 
  198000   0.96227154   -7.8682047    49.033303  0.020636912  0.021546554            2 
  199000   0.95432925   -7.8175094    49.185503  0.020596944  0.021484604            3 
  200000   0.94977883   -7.8675232    49.385469  0.020577279  0.021423324            7 
  201000   0.94703367   -7.8850502    49.583424  0.020556975  0.021362281            2 
  202000   0.96404811   -7.8160122    49.742331  0.020520763  0.021302632            3 
  203000   0.94293621   -7.8269638    49.825571  0.020453847  0.021242277            1 
  204000   0.95174215   -7.8509186    49.739848  0.020318565  0.021181165            2 
  205000    0.9542669   -7.8791114    49.868626  0.020271799  0.021118035            2 
  206000    0.9300071   -7.8699129    50.060319  0.020250938  0.021055566            2 
  207000   0.94502867   -7.8899519    50.146017  0.020187607  0.020992571            4 
  208000   0.94062448   -7.9105725    50.095588  0.020070348  0.020929037            5 
  209000   0.93788807     -7.91807    50.211915    0.0200207  0.020865911            2 
  210000   0.93267472   -7.9207659    50.261921  0.019945207  0.020802993            4 
  211000   0.91976454   -7.8980367    50.625168  0.019994142   0.02074045            1 
  212000   0.94554724   -7.9252362    50.687064   0.01992416  0.020679586            1 
  213000   0.91652953   -7.9125492    50.946857   0.01993226  0.020620238            5 
  214000   0.91126684   -7.9105611    50.914321  0.019826449  0.020560455            3 
  215000   0.92431389   -7.9156093    51.103207  0.019807445  0.020500866            3 
  216000   0.91666164   -7.9137569    51.187213  0.019748153  0.020440364            1 
  217000   0.90537165    -7.943833    51.311794   0.01970499  0.020380678            1 
  218000   0.91432791   -7.9337712     51.37577  0.019639056  0.020321456            2 
  219000   0.90407372   -7.9056194    51.542109  0.019612675  0.020261836            3 
  220000   0.91128512   -7.9357883    51.657061  0.019567069  0.020202357            1 
  221000   0.91576687   -7.9105297    51.829652  0.019543609  0.020142161            2 
  222000   0.92795733   -7.9530476    51.753362  0.019426938  0.020082164            2 
  223000   0.91749524   -7.9752327    51.718927  0.019326953  0.020021335            2 
  224000   0.91286268   -7.9751571    51.817852  0.019277475  0.019960302            4 
  225000   0.88749321   -7.9896402    51.938585  0.019236513   0.01989889            3 
  226000   0.90587095   -7.9713576    52.011735  0.019178368  0.019838524            4 
  227000    0.8982162   -7.9882988    52.021754   0.01909756  0.019777565            2 
  228000   0.89798548   -7.9582426    52.081888  0.019035778  0.019716406            1 
  229000   0.91345519   -8.0146526    52.300172  0.019032086  0.019655492            2 
  230000   0.91870915   -7.9899147    52.385285  0.018980176  0.019594116            4 
  231000   0.89323881   -7.9605358    52.392839  0.018900735  0.019533438            2 
  232000   0.88366403    -8.001355    52.576113  0.018885098  0.019473284            2 
  233000    0.9155227   -8.0004708    52.598265  0.018811969  0.019413164            2 
  234000   0.89247963   -8.0398189    52.609782  0.018735677  0.019352714            4 
  235000   0.89725291   -8.0403474    52.731606  0.018699151  0.019291583            1 
  236000   0.90847654   -8.0097558    52.621124  0.018580905  0.019230862            3 
  237000    0.8698349   -7.9568298    53.081232  0.018664287  0.019170663            2 
  238000   0.88413056    -8.008406    53.172245  0.018617733   0.01911136            1 
  239000    0.8698452   -8.0195844    53.205852  0.018551552  0.019051912            4 
  240000   0.88343277   -8.0086006    53.316076  0.018512526  0.018993062            2 
  241000   0.87611045   -8.0154168    53.152791   0.01837925  0.018933646            2 
  242000   0.86562774   -8.0447843    53.298168  0.018353364  0.018873579            1 
  243000   0.88134284   -8.0327236    53.367364  0.018301565  0.018813701            1 
  244000   0.88623944   -8.0324643    53.535162  0.018283867  0.018754245            4 
  245000   0.86645933   -8.0519202    53.368109  0.018152418  0.018694466            2 
  246000   0.87703491   -8.0427683     53.69118  0.018188069  0.018634357            2 
  247000   0.87013044   -8.0568073     53.51538  0.018055121  0.018574206            1 
  248000   0.87111835   -8.0705738    53.513796  0.017981786  0.018514076            2 
  249000   0.87618483   -7.9998728    53.772535  0.017996163  0.018453878            2 
  250000   0.85997139   -8.0631741    53.719411   0.01790647  0.018394041            1 
  251000   0.88640719    -8.069063     53.70743  0.017831152  0.018333964            3 
  252000   0.85411359     -8.09357    53.871744   0.01781473  0.018274143            1 
  253000   0.86918865   -8.0956036    53.976005  0.017778658  0.018214502            2 
  254000    0.8569712    -8.086736    54.119551  0.017755758  0.018155359            6 
  255000   0.84412646   -8.0924452    54.123465  0.017687407  0.018096876            1 
  256000   0.85615377   -8.0935274    54.164063  0.017631531  0.018038102            2 
  257000   0.86682735   -8.0888071    54.046479  0.017524799  0.017979543            2 
  258000   0.86235025   -8.1200546    54.116835  0.017479598  0.017921094            1 
  259000    0.8555793   -8.0752311    54.268137   0.01746079  0.017862262            2 
  260000   0.84270335    -8.102101    54.441042  0.017449052  0.017803898            1 
  261000   0.85485125   -8.1023167    54.492406  0.017398597  0.017746362            6 
  262000   0.84422535   -8.1283108    54.391833  0.017300201  0.017688581            2 
  263000   0.85772005   -8.0956104    54.599462   0.01730021  0.017630621            2 
  264000   0.84403102   -8.1564856    54.706513   0.01726847  0.017573184            4 
  265000   0.83704975   -8.1335232    54.725095  0.017209149  0.017515755            5 
  266000   0.85621807   -8.1541372    54.612389  0.017109144  0.017458081            2 
  267000   0.84466825   -8.1287837    54.851619  0.017119731  0.017400908            2 
  268000    0.8316604   -8.1343419    54.880917  0.017064962   0.01734421            2 
  269000    0.8501915   -8.1454638    54.981061  0.017032547  0.017287773            2 
  270000   0.81284504   -8.1686534    54.784863  0.016908908  0.017230698            3 
  271000   0.83754726    -8.177966    54.913295  0.016886007  0.017173876            1 
  272000   0.83689374   -8.1748012    55.007292  0.016852724  0.017117217            3 
  273000   0.83924362   -8.1862274    54.796971  0.016726792  0.017059858            3 
  274000    0.8392308   -8.1584691    54.893434  0.016695083    0.0170025            4 
  275000    0.8405097   -8.1564365    54.918758  0.016642048  0.016945226            2 
  276000    0.8135319   -8.1858219    55.152907  0.016652448  0.016888024            2 
  277000   0.82777984   -8.1478438    55.080983  0.016570693  0.016831057            1 
  278000    0.8324746   -8.1662087    55.253305  0.016562741  0.016774706            3 
  279000   0.83907095   -8.2026237    55.175156  0.016480035  0.016718477            6 
  280000   0.82864448   -8.1939741     55.35504  0.016474714  0.016662704            4 
  281000   0.83587905   -8.1706045    55.244692   0.01638336  0.016606964            2 
  282000   0.83118735   -8.2089413    55.252265  0.016327501  0.016551101            3 
  283000   0.81637585   -8.2121681    55.319809  0.016289696  0.016495212            3 
  284000    0.8147228   -8.2287116     55.44014  0.016267647  0.016439286            4 
  285000   0.81561858   -8.2174459      55.2674  0.016160059  0.016383042            4 
  286000    0.8098454   -8.2361145    55.418354  0.016147539  0.016327199            2 
  287000   0.81124354   -8.2377809    55.288114  0.016053459  0.016271058            6 
  288000   0.79974251   -8.2405975    55.240288   0.01598388  0.016214831            2 
  289000   0.82980538   -8.2957892    55.315854  0.015950362  0.016158699            4 
  290000   0.79773802   -8.2534541    55.437326  0.015930266  0.016103121            6 
  291000   0.79434003   -8.2391578    55.635867  0.015932379  0.016047629            2 
  292000   0.82403172   -8.2548748     55.43135  0.015819449  0.015991949            4 
  293000   0.80045402   -8.2678569    55.417234  0.015761443  0.015935918            2 
  294000   0.80073185   -8.2781746    55.468641  0.015722404  0.015879991            2 
  295000   0.79923033    -8.283654    55.423474  0.015656348  0.015824133            1 
  296000   0.79312103   -8.2688886     55.46728  0.015615788  0.015768022            2 
  297000    0.7971046   -8.2696525    55.570444  0.015592156  0.015712153            2 
  298000   0.80208925   -8.2744905     55.52527  0.015527201  0.015656764            3 
  299000   0.79844338   -8.2589155    55.672802  0.015516389  0.015601793            2 
  300000   0.79295903   -8.2657461    55.729662  0.015480462  0.015547408            3 
  301000   0.78107809   -8.2542646     55.77324  0.015441096   0.01549352            1 
  302000    0.7751955   -8.2919268    55.721793  0.015375771  0.015439817            4 
  303000   0.79647323   -8.2828864    55.776532   0.01534008  0.015385969            5 
  304000   0.76570598   -8.2992732    55.825131  0.015302942  0.015332493            3 
  305000   0.78146148   -8.3071696    55.852218  0.015260169  0.015279141            5 
  306000   0.79139549   -8.3201917    55.808044  0.015198269  0.015225747            2 
  307000   0.78579515    -8.295505    55.851424  0.015160538  0.015172581            3 
  308000   0.78058816   -8.3118841    55.915194   0.01512857  0.015119609            2 
  309000   0.79128932   -8.3331335    55.851356  0.015062394  0.015066852            2 
  310000   0.77014899   -8.3071834    55.826653  0.015007165  0.015014265            3 
  311000   0.76605214   -8.3354544    55.804258  0.014952909  0.014961566            6 
  312000   0.77719149   -8.3272314    55.999787  0.014957208  0.014909219            4 
  313000   0.77811998   -8.3432601    56.081717  0.014931234  0.014857204            2 
  314000   0.78496348   -8.3419229    56.081963  0.014883748  0.014805052            3 
  315000    0.7472435   -8.3594195    56.054033  0.014829109   0.01475314            4 
  316000   0.76025015   -8.3490188     56.09656  0.014793397  0.014701145            2 
  317000   0.77461139   -8.3631788    55.978101  0.014715589  0.014649445            1 
  318000   0.75192312     -8.37041    56.005871  0.014676591  0.014597957            2 
  319000   0.76211847   -8.3465067    56.075323  0.014648726  0.014546488            6 
  320000   0.76529495   -8.4009859    55.943813  0.014568701  0.014495013            7 
  321000   0.76144854   -8.4000354    55.988864  0.014535011  0.014443642            8 
  322000   0.72810035   -8.3794872    56.002626  0.014493433  0.014392491            2 
  323000   0.75357655   -8.4043136    56.026885  0.014454821  0.014341539            7 
  324000   0.74534519   -8.4182761    55.946675  0.014389577  0.014290422            7 
  325000    0.7368716   -8.4445868    56.042308  0.014369823  0.014239413            5 
  326000   0.75574123   -8.4212383    56.024493  0.014321189  0.014188555            4 
  327000   0.74811897   -8.4124451    56.094068  0.014295124  0.014138018            6 
  328000   0.74672017   -8.4260264    56.132811  0.014261385  0.014087783            3 
  329000   0.75447938   -8.4337786    56.152016  0.014222902  0.014037884            4 
  330000   0.74747261   -8.4298245    56.140755  0.014176958  0.013988301            2 
  331000   0.73403933    -8.431319    56.082703  0.014119512    0.0139387            2 
  332000   0.73066283   -8.4228009    56.048652  0.014068437  0.013888917            1 
  333000   0.73103056   -8.4498557    56.135221  0.014047853  0.013838986            4 
  334000   0.74028743   -8.4588602    56.037249   0.01398135  0.013789203            2 
  335000    0.7338346   -8.4306343    56.184223  0.013976175   0.01373979            4 
  336000   0.73796479   -8.4495188    56.068215  0.013905807  0.013690558            4 
  337000   0.72205975   -8.4534153    56.066424  0.013864101  0.013641285            3 
  338000    0.7200267   -8.4706292      56.0228  0.013812327  0.013591952            3 
  339000   0.74253775   -8.4742155    56.062531   0.01378135  0.013542986            5 
  340000   0.72847732   -8.4883973    56.121938  0.013755377  0.013494289            3 
  341000   0.74184709   -8.4729276    56.190717  0.013731847  0.013445837            2 
  342000   0.72539128   -8.4832093    56.188334  0.013691114  0.013397404            3 
  343000   0.73198071   -8.4734438    56.202734  0.013654697  0.013349184            1 
  344000    0.6990566   -8.4838793    56.109307  0.013592371  0.013300891            3 
  345000   0.72549097   -8.4803816    56.093107   0.01354906  0.013252692            3 
  346000    0.7091638    -8.502034    56.137868  0.013520681   0.01320476            3 
  347000   0.72312905   -8.4958218    56.020717  0.013453582  0.013156921            4 
  348000   0.72175256   -8.5076765    56.091811  0.013431947  0.013109384            5 
  349000   0.72395358    -8.524661    56.057439  0.013385253  0.013061799            5 
  350000   0.71328525   -8.5016644    56.163108  0.013372168  0.013014418            2 
  351000   0.72039252    -8.512059    56.167501  0.013335114  0.012967249            5 
  352000   0.71517941   -8.5286253    56.126682  0.013287567  0.012920235            3 
  353000   0.70768617   -8.5195311    56.017346  0.013224114  0.012873309            6 
  354000   0.70636085   -8.5394478    56.008765  0.013184738  0.012826574            4 
  355000   0.70884932   -8.5688908    56.043012  0.013155637  0.012780034            5 
  356000   0.68132919   -8.5131812    56.152256  0.013144255  0.012733653            3 
  357000   0.69875465   -8.5591168    56.148633   0.01310659  0.012687384            4 
  358000   0.69514485   -8.5678083    56.175995  0.013076349   0.01264147            5 
  359000   0.70528542   -8.5786285    56.205393  0.013046749  0.012595664            6 
  360000    0.6760451   -8.5766005    56.268744  0.013025172  0.012550297            3 
  361000   0.68616361   -8.5658038    56.195776  0.012972248  0.012505145            2 
  362000   0.68024315   -8.5922816    56.039711  0.012900486  0.012459861            6 
  363000   0.68578345   -8.5697936    56.065391  0.012870843  0.012414671            3 
  364000   0.68394187   -8.5722533    56.093591  0.012841939  0.012369708            2 
  365000   0.68356703   -8.5666551    55.995261  0.012784306  0.012324929            3 
  366000   0.68776998   -8.5978355    56.144077   0.01278326  0.012280319            3 
  367000   0.68038511   -8.5848124    56.078557  0.012733551  0.012235916            4 
  368000   0.67467913   -8.5807127    56.109338  0.012705919   0.01219156            2 
  369000    0.6794961    -8.602153    56.188215  0.012689299  0.012147465            4 
  370000   0.67466083   -8.6078574    56.169536  0.012650796  0.012103513            2 
  371000   0.67760111   -8.6201984    56.046193  0.012588992  0.012059658            2 
  372000   0.68721089   -8.5887097    56.223745  0.012594925  0.012016006            2 
  373000   0.66986532   -8.6075364    56.230773  0.012562728   0.01197251            4 
  374000   0.67459764   -8.6113093    56.117999  0.012504011  0.011929209            3 
  375000   0.67810138   -8.6126046    56.130059  0.012473346  0.011885992            3 
  376000   0.67188227    -8.658058    56.016778  0.012415066   0.01184289            3 
  377000   0.66228023   -8.6104149    56.075212  0.012395051  0.011799811            4 
  378000   0.66598485   -8.6402098    56.037617  0.012353972  0.011756919            2 
  379000   0.65782385    -8.638115    56.191391  0.012355187  0.011714269            5 
  380000   0.64552661   -8.6524474    56.088134  0.012300029  0.011671749            5 
  381000    0.6623047   -8.6214474    56.194915  0.012291101  0.011629528            5 
  382000   0.64902504   -8.6272182     56.19756  0.012259503  0.011587523            6 
  383000   0.65206821   -8.6505573    56.210906  0.012230397  0.011545746            4 
  384000   0.65275288   -8.6251203    56.014366  0.012155895  0.011504014            2 
  385000   0.67041782   -8.6378988    55.996193  0.012120388   0.01146238            3 
  386000    0.6528287   -8.6497867    56.083711  0.012107882  0.011420932            2 
  387000   0.65958913     -8.63887    55.935842  0.012044755  0.011379525            4 
  388000   0.64867806   -8.6565296    56.024003  0.012032647  0.011338447            5 
  389000   0.64706619   -8.6364927    56.168732  0.012032719   0.01129753            5 
  390000   0.65654411   -8.6550349    56.026734  0.011971524  0.011256746            2 
  391000    0.6411039   -8.6764188    56.016526  0.011938731  0.011216112            5 
  392000    0.6417196   -8.6762131    55.977143  0.011899903   0.01117546            1 
  393000   0.63615843   -8.6858276    55.991316  0.011872629  0.011134989            6 
  394000   0.63258514   -8.6779091    56.068226  0.011858762  0.011094702            3 
  395000   0.61296074   -8.6704673    56.020651  0.011818703  0.011054673            6 
  396000   0.63021038   -8.6876959     56.00734  0.011786056  0.011014728            6 
  397000   0.63426014   -8.6986694    55.922678  0.011738597   0.01097493            4 
  398000   0.62578056   -8.6645915    55.978887  0.011720872  0.010935285            3 
  399000   0.62487694   -8.6906614    56.012474  0.011698512  0.010895974            3 
  400000   0.62347939   -8.6899623    55.920797  0.011650166  0.010856711            4 
  401000     0.608073   -8.6700353    56.009137  0.011639471  0.010817674            7 
  402000   0.62502011   -8.6929829     55.93484  0.011595116  0.010778738            3 
  403000    0.6385474   -8.6962181    55.980961  0.011575881  0.010739928            4 
  404000   0.61761013   -8.6834399    56.057468  0.011563009  0.010701392            2 
  405000   0.60558604   -8.6976286      56.0252  0.011527819  0.010663036            3 
  406000   0.63365743   -8.6948783    56.009892  0.011496283  0.010624879            3 
  407000   0.62010094   -8.6859553    56.039088  0.011474015  0.010587018            4 
  408000   0.62230436   -8.7114886    55.960446   0.01142983  0.010549226            5 
  409000   0.60484601   -8.7131568    55.968343  0.011403493  0.010511536            3 
  410000   0.61450405   -8.6982953    56.076214  0.011397605  0.010474024            6 
  411000   0.59419638   -8.7303401    56.102399  0.011375182  0.010436671            2 
  412000   0.60140475   -8.7013123    55.940281  0.011314782  0.010399415            5 
  413000   0.60243859   -8.7329691     56.09751   0.01131911  0.010362326            3 
  414000   0.61020692   -8.7464365    56.014101   0.01127498  0.010325429            2 
  415000   0.59572164   -8.7216723     56.04568  0.011254153  0.010288673            3 
  416000   0.59695047   -8.7425652    56.037708  0.011225502  0.010251981            5 
  417000   0.59567666   -8.7230911    55.967177  0.011184488   0.01021555            4 
  418000   0.59774021   -8.7329375    56.015631  0.011167391  0.010179264            2 
  419000    0.5867025   -8.7471681    56.029312  0.011143459  0.010143086            7 
  420000   0.59278078   -8.7656419    55.973172  0.011105788  0.010107065            4 
  421000   0.59560794    -8.765756     56.02301  0.011089273  0.010071094            3 
  422000   0.58476419     -8.75546     55.91556  0.011041777  0.010035316            4 
  423000   0.59041239   -8.7575267    55.971586  0.011026711 0.0099996561            2 
  424000   0.59506442    -8.754534    55.947844  0.010996038 0.0099642017            1 
  425000   0.57822318   -8.7778214     55.86756  0.010954424 0.0099288333            2 
  426000   0.57739531   -8.7518598    55.977274  0.010950171 0.0098935927            2 
  427000   0.58604452   -8.7898375    55.771141  0.010884298 0.0098584698            3 
  428000   0.57050506   -8.7784909    55.954728  0.010894612 0.0098234642            3 
  429000   0.57911946   -8.7697123    55.879504  0.010854604 0.0097886543            2 
  430000   0.57764937   -8.7960847     55.84867  0.010823386 0.0097539398            4 
  431000   0.56137849   -8.7818066    55.905011  0.010809167  0.009719413            1 
  432000   0.58053488    -8.791621    55.813586   0.01076651 0.0096849698            3 
  433000    0.5657894   -8.7933409    55.696482  0.010719107 0.0096506353            3 
  434000   0.56595133    -8.792084    55.805125   0.01071527  0.009616384            3 
  435000   0.58279165    -8.817011    55.820727  0.010693626 0.0095823302            5 
  436000   0.57346185   -8.8101695     55.73971  0.010653614 0.0095483709            2 
  437000   0.55853131   -8.8314913    55.708964  0.010623372 0.0095145522            2 
  438000   0.56503552   -8.7957601    55.691841   0.01059586 0.0094808528            2 
  439000   0.56333896   -8.8229252    55.717156  0.010576529 0.0094473222            2 
  440000   0.56784014    -8.804535    55.728598  0.010554659 0.0094139498            3 
  441000   0.56304165   -8.8152645      55.7976  0.010543764 0.0093807457            3 
  442000    0.5664503   -8.8101128    55.681694  0.010498057  0.009347615           11 
  443000   0.55691189   -8.8244875    55.734278  0.010484251 0.0093146883            2 
  444000   0.56023786   -8.8291604    55.676911  0.010449871 0.0092818591            6 
  445000   0.55499011   -8.8344713    55.690024  0.010428843  0.009249178            1 
  446000   0.56934034   -8.8226287    55.665848  0.010400943 0.0092165161            3 
  447000   0.55443677    -8.836459    55.637242  0.010372342 0.0091840251            4 
  448000   0.55376523   -8.8343086    55.676689  0.010356527 0.0091517408            3 
  449000   0.55479695    -8.836966    55.748479  0.010346785 0.0091196192            3 
  450000   0.54342117   -8.8436266     55.62817  0.010301513 0.0090876593            3 
  451000   0.55506695   -8.8447146    55.717994  0.010295269 0.0090557921            6 
  452000   0.55093183   -8.8379468    55.783578  0.010284583  0.009024105           15 
  453000   0.54700051   -8.8502417    55.673619  0.010241652    0.0089925            5 
  454000    0.5389195   -8.8416211    55.729276  0.010229309 0.0089610452            2 
  455000   0.53218522   -8.8660708    55.690507  0.010199726 0.0089298023            3 
  456000   0.54193467   -8.8818707    55.582782  0.010157672  0.008898641            3 
  457000   0.53986804   -8.8754121    55.565482  0.010132291  0.008867577            2 
  458000   0.53809827   -8.8652345     55.55271  0.010107844 0.0088366384            3 
  459000   0.53639441   -8.8729084     55.70387  0.010113266 0.0088058414            2 
  460000    0.5259594   -8.8700902    55.579716  0.010068789 0.0087752161            7 
  461000   0.52954077   -8.8778793     55.62642   0.01005539 0.0087446962            6 
  462000   0.51773242   -8.8702191    55.663721  0.010040354 0.0087143476            6 
  463000   0.52238037   -8.8884007    55.531046 0.0099947887  0.008684112            3 
  464000   0.52615274   -8.8953133    55.695474  0.010002779 0.0086540346            2 
  465000   0.53029615   -8.8932988    55.582551 0.0099610307  0.008624021            3 
  466000   0.52987981   -8.8964264    55.485827 0.0099223583 0.0085941517            6 
  467000   0.53401202   -8.8777712    55.608183 0.0099229448 0.0085644167            4 
  468000   0.51868317   -8.8983628    55.655673 0.0099101981 0.0085348055            3 
  469000   0.51559247   -8.8912829    55.605356 0.0098801272 0.0085053723            3 
  470000   0.51815541   -8.9012058    55.535771 0.0098467679   0.00847602            2 
  471000   0.51356117   -8.8989432     55.60663 0.0098383988 0.0084468019            6 
  472000   0.50036758   -8.8875382    55.491146 0.0097971657 0.0084177928            4 
  473000   0.51884664   -8.9009514    55.673143 0.0098085171 0.0083888616            3 
  474000   0.51370166   -8.9144037    55.552713 0.0097666514 0.0083600905            4 
  475000   0.50716231   -8.9004275    55.514199 0.0097393332 0.0083313883            5 
  476000   0.51021697   -8.9436393     55.48644 0.0097140127 0.0083027789            6 
  477000   0.49895019   -8.9077377    55.542148 0.0097033801 0.0082743116            2 
  478000   0.51263347   -8.9135539    55.545858 0.0096837269 0.0082459579            4 
  479000   0.50053646   -8.9279472    55.509284 0.0096571475 0.0082177308            3 
  480000    0.4967336   -8.9432268    55.498415 0.0096351415 0.0081895716            8 
  481000   0.49221228   -8.9354368    55.463399 0.0096090436 0.0081615841            4 
  482000   0.50664996   -8.9355378    55.482026 0.0095923281 0.0081336705            3 
  483000   0.51004809   -8.9352347    55.430003 0.0095634926 0.0081058566            1 
  484000   0.50700888   -8.9369598    55.476141 0.0095516772 0.0080782762            3 
  485000   0.49743978   -8.9473352    55.551519 0.0095449345 0.0080507978            3 
  486000   0.48073011   -8.9435511    55.502919 0.0095169614 0.0080234662            5 
  487000   0.48367614   -8.9485281    55.505684 0.0094978926 0.0079962365            6 
  488000   0.47927508   -8.9483425    55.496918 0.0094769327 0.0079691605            5 
  489000   0.48280884   -8.9418492     55.43704 0.0094473484 0.0079421633            4 
  490000   0.47878872   -8.9512015    55.487322 0.0094366193 0.0079152224            7 
  491000   0.48951314   -8.9494879    55.466027  0.009413786 0.0078884526            2 
  492000    0.4860197   -8.9567922    55.410282 0.0093852103 0.0078617422            5 
  493000   0.48249265   -8.9714714    55.459915 0.0093745631 0.0078352414            3 
  494000    0.4806806   -8.9511554    55.379062  0.009341947 0.0078088172            8 
  495000   0.48586507   -8.9560948    55.413967 0.0093289506 0.0077825045            4 
  496000   0.46884363   -8.9688129    55.477941 0.0093208907 0.0077562834            5 
  497000   0.46214616    -8.975575    55.420383 0.0092924854 0.0077301963            6 
  498000   0.46438052    -8.961575    55.350946 0.0092622065 0.0077042273            2 
  499000   0.46732507   -8.9611013    55.422472 0.0092555899 0.0076783904            6 
  500000   0.47676079   -8.9723812    55.337698 0.0092229496 0.0076526467            4 
  501000   0.47181718   -8.9830377    55.364291 0.0092089638 0.0076270181           10 
  502000   0.46542916    -8.989713    55.364939 0.0091907269 0.0076014457            7 
  503000   0.46355796   -8.9948111    55.439129 0.0091847463 0.0075759744            7 
  504000   0.47135385    -8.983009    55.422555 0.0091637823 0.0075506312            7 
  505000   0.46072661   -8.9898148    55.322943 0.0091291986 0.0075254028            9 
  506000    0.4637111   -8.9906597    55.307961 0.0091086892 0.0075002668            7 
  507000   0.46591545   -8.9985461    55.385541 0.0091034748 0.0074752969            7 
  508000   0.46443997   -8.9844195    55.374198 0.0090836939 0.0074504038            4 
  509000   0.45632414   -9.0060393    55.357234 0.0090630704  0.007425588            5 
  510000   0.44374306   -9.0046075    55.334665 0.0090416119  0.007400894            4 
  511000   0.44391305   -8.9974075    55.259539 0.0090116665 0.0073762696            4 
  512000   0.44777943   -9.0081092    55.296199 0.0090000324 0.0073517637            4 
Loop time of 1238.4 on 48 procs for 500000 steps with 4000 atoms

Performance: 69767.257 tau/day, 403.746 timesteps/s
99.4% CPU use with 48 MPI tasks x no OpenMP threads

MPI task timing breakdown:
Section |  min time  |  avg time  |  max time  |%varavg| %total
---------------------------------------------------------------
Pair    | 81.543     | 87.548     | 93.038     |  27.7 |  7.07
Neigh   | 8.242      | 8.5743     | 8.981      |   6.1 |  0.69
Comm    | 78.01      | 84.483     | 90.882     |  30.9 |  6.82
Output  | 0.87117    | 0.87229    | 0.9054     |   0.5 |  0.07
Modify  | 1043.3     | 1045.8     | 1048.2     |   3.6 | 84.45
Other   |            | 11.12      |            |       |  0.90

Nlocal:        83.3333 ave          89 max          76 min
Histogram: 2 0 2 9 3 4 20 3 2 3
Nghost:        2204.35 ave        2223 max        2186 min
Histogram: 3 1 5 2 12 13 4 3 4 1
Neighs:        14705.3 ave       15845 max       12563 min
Histogram: 1 1 1 4 3 5 9 11 8 5
FullNghs:      29409.8 ave       31606 max       26983 min
Histogram: 2 2 3 6 4 13 10 4 3 1

Total # of neighbors = 1411672
Ave neighs/atom = 352.91800
Neighbor list builds = 26708
Dangerous builds = 0

#clear
#
#next RN
#
#jump SELF
Total wall time: 0:20:41
