
units lj                  # Use reduced LJ style units
atom_style atomic         # Uncharged point particles
atom_modify map hash      # Needed for indexing of clusters etc
                          # Used to be able to find where atoms are in relation to each other.

lattice fcc 1.0 spacing 1 1 1
Lattice spacing in x,y,z = 1.5874011 1.5874011 1.5874011
region box block 0 10 0 10 0 10 units lattice
create_box 2 box
Created orthogonal box = (0.0000000 0.0000000 0.0000000) to (15.874011 15.874011 15.874011)
  3 by 4 by 4 MPI processor grid
create_atoms 1 box
Created 4000 atoms
  using lattice units in orthogonal box = (0.0000000 0.0000000 0.0000000) to (15.874011 15.874011 15.874011)
  create_atoms CPU = 0.004 seconds
set type 1 type/fraction 2 0.53 78393
Setting atom values ...
  2126 settings made for type/fraction
mass 1 1.0
mass 2 1.0
pair_style lj/cut  3.5
pair_modify tail  yes
pair_coeff 1  1  1.0  1.0   # Intearaction between 1 and 1 set with epsilon = 1 and sigma = 1
pair_coeff 1  2  1.5  0.8
pair_coeff 2  2  0.5  0.88

write_data data.0
System init for write_data ...
Neighbor list info ...
  update every 1 steps, delay 10 steps, check yes
  max neighbors/atom: 2000, page size: 100000
  master list distance cutoff = 3.8
  ghost atom cutoff = 3.8
  binsize = 1.9, bins = 9 9 9
  1 neighbor lists, perpetual/occasional/extra = 1 0 0
  (1) pair lj/cut, perpetual
      attributes: half, newton on
      pair build: half/bin/atomonly/newton
      stencil: half/bin/3d
      bin: standard
WARNING: Not all mixed pair coeffs generated from mixing. Use write_data with 'pair ij' option to store all pair coeffs. (../write_data.cpp:312)


#############################
#   M E L T   S Y S T E M   #
#############################

velocity all create 2.4 5833274 mom yes dist gaussian # Assign velocities
                                                    # Temperature 2.4, random number seed, zero linear momentum
                                                                                # Gaussian distribution

timestep 0.002   # simulation timestep
thermo 1000       # output thermodynamic data every 1000 steps bf 100

# Define a fix  in this case with index 1 applied to all
# particles in the simulation. This fix is for simulations
# in the anisotropic NPT ensemble. Note that we use the MTK
# correction.
fix 1 all npt temp 2.4 2.4 0.1 iso 5.68 5.68 0.5 mtk yes tchain 5 pchain 5 # Use NPT ensemble
                                                                         # Set temperature and pressure and damping
                                                                         # Numbers of thermostats in chain and in barostat
run 10000          # run for 10000 steps
Per MPI rank memory allocation (min/avg/max) = 3.642 | 3.644 | 3.648 Mbytes
Step Temp E_pair E_mol TotEng Press Volume 
       0          2.4   -5.1225569            0   -1.5234569   -4.1795691         4000 
    1000    2.3676348   -4.7565053            0   -1.2059409    5.6882583    3673.3401 
    2000    2.3969131    -4.806234            0   -1.2117631    5.6333041    3657.6856 
    3000    2.4029493   -4.7924785            0   -1.1889557    5.8043009    3651.8023 
    4000    2.3056319   -4.7694998            0   -1.3119166     5.314464    3696.3112 
    5000    2.3966807    -4.880963            0   -1.2868408    5.4759812    3641.8691 
    6000    2.4072455   -4.7942544            0   -1.1842889    5.8597644    3649.4479 
    7000    2.3942209   -4.7828958            0   -1.1924622    6.0784882    3629.5104 
    8000    2.3959442   -4.7738325            0   -1.1808147    5.8257654    3665.8965 
    9000    2.4723627   -4.8160599            0    -1.108443    5.6964405    3649.0068 
   10000    2.4496072    -4.752695            0   -1.0792028    5.6142512    3696.0575 
Loop time of 3.03477 on 48 procs for 10000 steps with 4000 atoms

Performance: 569400.578 tau/day, 3295.142 timesteps/s
99.3% CPU use with 48 MPI tasks x no OpenMP threads

MPI task timing breakdown:
Section |  min time  |  avg time  |  max time  |%varavg| %total
---------------------------------------------------------------
Pair    | 1.1792     | 1.2496     | 1.3205     |   2.7 | 41.17
Neigh   | 0.21715    | 0.22186    | 0.22798    |   0.5 |  7.31
Comm    | 0.89411    | 0.96182    | 1.0689     |   3.9 | 31.69
Output  | 0.00024967 | 0.00025477 | 0.00033536 |   0.0 |  0.01
Modify  | 0.51638    | 0.58412    | 0.63405    |   2.8 | 19.25
Other   |            | 0.01715    |            |       |  0.57

Nlocal:        83.3333 ave          95 max          74 min
Histogram: 3 2 6 10 8 8 7 1 2 1
Nghost:        1734.79 ave        1759 max        1705 min
Histogram: 1 1 5 6 6 10 6 6 5 2
Neighs:        10327.4 ave       12071 max        8836 min
Histogram: 2 1 9 10 3 10 6 4 2 1

Total # of neighbors = 495713
Ave neighs/atom = 123.92825
Neighbor list builds = 906
Dangerous builds = 190

# Equilibrate just above the melting temperature to avoid step fn in T

fix 1 all npt temp 1.25 1.25 0.1 iso 5.68 5.68 0.5 mtk yes tchain 5 pchain 5
run 2000
Per MPI rank memory allocation (min/avg/max) = 3.644 | 3.646 | 3.649 Mbytes
Step Temp E_pair E_mol TotEng Press Volume 
   10000    2.4496072    -4.752695            0   -1.0792028    5.6142512    3696.0575 
   11000    1.2263958   -6.8757002            0   -5.0365664    5.6018542    2846.8108 
   12000    1.2626218    -7.014446            0   -5.1209868    6.0790865     2798.944 
Loop time of 0.647125 on 48 procs for 2000 steps with 4000 atoms

Performance: 534054.423 tau/day, 3090.593 timesteps/s
99.6% CPU use with 48 MPI tasks x no OpenMP threads

MPI task timing breakdown:
Section |  min time  |  avg time  |  max time  |%varavg| %total
---------------------------------------------------------------
Pair    | 0.28987    | 0.31558    | 0.34513    |   1.9 | 48.77
Neigh   | 0.041363   | 0.043289   | 0.047536   |   0.5 |  6.69
Comm    | 0.20347    | 0.23811    | 0.26451    |   2.4 | 36.79
Output  | 4.9696e-05 | 5.5486e-05 | 0.00028191 |   0.0 |  0.01
Modify  | 0.041456   | 0.045221   | 0.04893    |   1.0 |  6.99
Other   |            | 0.004873   |            |       |  0.75

Nlocal:        83.3333 ave          93 max          76 min
Histogram: 3 6 7 3 6 16 2 2 2 1
Nghost:        2089.40 ave        2108 max        2068 min
Histogram: 2 3 4 7 6 5 2 11 2 6
Neighs:        13616.3 ave       15807 max       12002 min
Histogram: 4 2 9 6 10 8 6 0 1 2

Total # of neighbors = 653581
Ave neighs/atom = 163.39525
Neighbor list builds = 144
Dangerous builds = 12

#############################
# L I N E A R  Q U E N C H  #
#############################

# Define solid atoms. This closely follows ten Wolde  Ruiz-Montero and Frenkel  Faraday Discuss  1996  104  93-110
# Compute components of the per-atom q6 vector
compute q6 all orientorder/atom degrees 1 6 components 6 nnn NULL cutoff 1.3 # compute the Q6 parameter.
                                                                             # Use all neighbours within 1.3 unit cell.

# get number of connections
compute coord_number all coord/atom orientorder q6 0.5

# An atom is solid if it has 8 or more connections (of a possible 14)
variable is_solid atom c_coord_number>=8
group solid dynamic all var is_solid    # Must be dynamic to update
dynamic group solid defined

# do clustering
compute cluster solid cluster/atom 1.3 # Create a cluster where all atoms within are solid and max 1.3 units from another member

# define chunks one chunk per cluster
compute clus_chunks solid chunk/atom c_cluster nchunk every compress yes  # Says which atoms are in which chunk

# count the size of each chunk
compute size_chunks solid property/chunk clus_chunks count


# Find the maximum entry in the vector of chunk sizes
variable max_n equal max(c_size_chunks)


# Thermo style which includes this variable
# thermo_style custom step temp pe vol v_max_n

thermo ${N}  # Print the thermo information every 100 steps
thermo 1000  

# Reset the npt fix at a lower temperature (below freezing)
fix 1  all npt temp  ${temp} ${temp}  0.1  iso  5.68  5.68  0.5  mtk yes tchain  5  pchain  5
fix 1  all npt temp  0.45 ${temp}  0.1  iso  5.68  5.68  0.5  mtk yes tchain  5  pchain  5
fix 1  all npt temp  0.45 0.45  0.1  iso  5.68  5.68  0.5  mtk yes tchain  5  pchain  5

dump dmp2 all dcd ${N} traj.dcd
dump dmp2 all dcd 1000 traj.dcd


compute msd all msd com yes
variable twopoint equal c_msd[4]/6/(step*dt+1.0e-6)
fix 9 all vector 10 c_msd[4]
variable fit equal slope(f_9)/6/(10*dt)
thermo_style custom step temp pe c_msd[4] v_twopoint v_fit v_max_n

fix 1 all npt temp 1.25 ${temp} 0.1 iso 5.68 5.68 0.5 mtk yes tchain 5 pchain 5
fix 1 all npt temp 1.25 0.45 0.1 iso 5.68 5.68 0.5 mtk yes tchain 5 pchain 5
run 5000000 # 5000000  # Run for this many steps
Neighbor list info ...
  update every 1 steps, delay 10 steps, check yes
  max neighbors/atom: 2000, page size: 100000
  master list distance cutoff = 3.8
  ghost atom cutoff = 3.8
  binsize = 1.9, bins = 8 8 8
  4 neighbor lists, perpetual/occasional/extra = 1 3 0
  (1) pair lj/cut, perpetual
      attributes: half, newton on
      pair build: half/bin/atomonly/newton
      stencil: half/bin/3d
      bin: standard
  (2) compute orientorder/atom, occasional
      attributes: full, newton on
      pair build: full/bin/atomonly
      stencil: full/bin/3d
      bin: standard
  (3) compute coord/atom, occasional
      attributes: full, newton on
      pair build: full/bin/atomonly
      stencil: full/bin/3d
      bin: standard
  (4) compute cluster/atom, occasional
      attributes: full, newton on
      pair build: full/bin/atomonly
      stencil: full/bin/3d
      bin: standard
Per MPI rank memory allocation (min/avg/max) = 9.842 | 9.849 | 9.855 Mbytes
Step Temp PotEng c_msd[4] v_twopoint v_fit v_max_n 
   12000    1.2626218    -7.014446 7.7268926e-31 5.3658974e-33 8.3333333e+20            5 
   13000    1.2166155   -6.9946548   0.45748427 0.0029325914  0.036945314            1 
   14000    1.2298125   -7.0433276   0.86248613 0.0051338459  0.034451574            1 
   15000     1.247866   -7.0388356    1.2790279 0.0071057106  0.035052767            4 
   16000     1.237946   -7.0353351    1.6684648 0.0086899204  0.034225456            1 
   17000    1.2268367   -6.9852593    2.0933311  0.010261427  0.033937557            6 
   18000    1.2518503   -7.0479746    2.5097851  0.011619375  0.033947142            3 
   19000    1.2724895   -7.0476273    2.8626427   0.01255545   0.03381957            2 
   20000    1.2631706   -6.9978652    3.2723146  0.013634644  0.033732492            1 
   21000     1.245394   -7.0073968    3.6585928  0.014518225  0.033612638            1 
   22000    1.2378758   -6.9748134    4.0283534  0.015258914  0.033391621            2 
   23000    1.2472776   -7.0046818    4.3685095  0.015827933  0.032986534            2 
   24000     1.248978   -6.9823872    4.7648778  0.016544714  0.032751312            1 
   25000     1.262858   -7.0372326    5.1734581   0.01724486  0.032604007            2 
   26000    1.2255832   -7.0057861    5.6388432  0.018073215   0.03263742            3 
   27000    1.2320592   -7.0207271    6.1100019   0.01885803  0.032881799            1 
   28000    1.2472274   -7.0753475     6.535772  0.019451702  0.033115463            2 
   29000    1.2607348   -7.0651701    6.8275398  0.019619367  0.033197467            1 
   30000    1.2550421   -7.0494701    7.1534193  0.019870609  0.033105219            1 
   31000     1.250879   -6.9883891    7.6275045  0.020504044  0.033023576            2 
   32000    1.2371805   -6.9915626     8.015881   0.02087469  0.033070965            2 
   33000    1.2401335   -7.0298524    8.4476919  0.021332555  0.033084354            1 
   34000    1.2430903   -7.0442241    8.8175126   0.02161155  0.033119252            1 
   35000    1.2369319   -7.0553275    9.1884619   0.02187729  0.033129326            2 
   36000    1.2683021    -7.034233    9.5270526  0.022053362  0.033088448            7 
   37000    1.2298819   -7.0638202    9.9284133  0.022361291   0.03302661            3 
   38000    1.2375244   -7.0321214    10.315628   0.02262199   0.03299216            2 
   39000    1.2498845    -7.053587    10.770304   0.02301347  0.032982447            2 
   40000    1.2559743   -7.0197485    11.266617  0.023472118  0.033018226            2 
   41000    1.2448514   -7.0002606    11.758457  0.023899302   0.03307116            2 
   42000    1.2544779   -7.0522678    12.070465  0.023949334  0.033123646            1 
   43000     1.237111   -7.0320699    12.354205  0.023942258  0.033125161            3 
   44000    1.2468994   -7.0066939    12.828843  0.024297051  0.033132869            2 
   45000    1.2700282   -6.9973282    13.365216  0.024750399  0.033179729            2 
   46000    1.2441925   -7.0597869    13.646907  0.024722657  0.033215109            2 
   47000    1.2663455     -7.05903    14.004245  0.024830221  0.033232542            4 
   48000     1.247114   -7.0716955    14.446453  0.025080647  0.033259879            1 
   49000    1.2368589   -7.0028216    14.929922  0.025391024   0.03330245            2 
   50000    1.2529228   -7.0230716    15.266942  0.025444903  0.033321549            3 
   51000      1.26856   -7.0539412    15.846282  0.025892617  0.033361121            7 
   52000    1.2358938   -6.9923085    16.360406  0.026218599  0.033451671            1 
   53000    1.2344049   -7.0816461    16.717282  0.026285034  0.033526727            4 
   54000    1.2185663   -7.0346533    17.181956  0.026515364  0.033598453            2 
   55000    1.2368722   -7.0183437    17.633386  0.026717252  0.033677131            4 
   56000    1.2317284   -7.0294711    18.126382  0.026973782  0.033750077            3 
   57000    1.2546416   -7.0385971    18.371196  0.026858473  0.033795833            4 
   58000    1.2167767   -7.0392647    18.807452  0.027022201  0.033834968            3 
   59000    1.2261953   -7.0263277    19.154708  0.027054672  0.033870222            4 
   60000    1.2515534   -7.0160541     19.56798  0.027177749  0.033889501            2 
   61000    1.2572735   -7.0642682    19.993779  0.027313905  0.033908027            1 
   62000    1.1982636   -7.0248795    20.467335  0.027509859  0.033928561            4 
   63000    1.2680811   -7.0017293     20.87621  0.027614034  0.033959589            3 
   64000    1.2250894   -7.0836695    21.341795  0.027788795  0.033999131            1 
   65000    1.2248558   -7.0490111    21.656641  0.027764925  0.034033431            2 
   66000    1.2500438   -7.0219101    22.127739  0.027939065  0.034063657            2 
   67000    1.2299612   -7.0861041    22.639613  0.028158723  0.034103426            2 
   68000    1.2302402   -7.0237716    23.195101  0.028425369  0.034153203            1 
   69000     1.229274   -7.0516023    23.702024  0.028625632  0.034207625            2 
   70000    1.2169578   -7.0555793    24.032715  0.028610375  0.034259232            3 
   71000    1.2399606   -7.0169996    24.639474   0.02891957  0.034309543       -1e+20 
   72000    1.1979685   -6.9992994    24.982504  0.028914935   0.03437327            1 
   73000    1.2350584   -7.0941837    25.571138  0.029190797  0.034437143            3 
   74000    1.2337303    -7.023894    26.194307  0.029498093  0.034516329            2 
   75000    1.2439041   -6.9551553    26.711779  0.029679755  0.034606142            2 
   76000    1.2236182   -7.0452163    26.873939  0.029467038  0.034680493            2 
   77000    1.2478795    -7.061269    27.193289  0.029429967  0.034731853            1 
   78000    1.2258764   -7.0226848    27.649262   0.02953981   0.03477825            4 
   79000    1.2506096    -7.061858    28.142712  0.029686405  0.034823055            2 
   80000    1.2726162   -7.0695953    28.543554  0.029732869  0.034864976            1 
   81000     1.233365   -7.0862304    28.881103  0.029713068  0.034902418            1 
   82000    1.2461349   -7.0804704    29.289303  0.029765552  0.034937866            3 
   83000    1.2487397   -7.0627935    29.726613  0.029845996  0.034964738            2 
   84000    1.2379387   -7.0334089    29.975171  0.029737273  0.034977957            2 
   85000    1.2375666    -7.004374    30.423674  0.029827131   0.03498276            2 
   86000    1.2346636   -7.0342689    30.723758  0.029771083  0.034979112            4 
   87000    1.2336237   -7.0486915    31.155336  0.029842276  0.034972658            2 
   88000    1.2462738   -7.0437635    31.616766  0.029940119  0.034968556            2 
   89000    1.2521468   -7.0611583    32.060936  0.030019603    0.0349688            3 
   90000    1.2399696   -7.0410459    32.482396  0.030076293  0.034977027            4 
   91000    1.2293403   -6.9989342    33.100096  0.030311443  0.034989548            4 
   92000    1.2164894   -7.0635869    33.496682  0.030341197  0.035004568            2 
   93000    1.2294334   -7.0655694    33.858198  0.030338887  0.035018419            2 
   94000    1.2326687   -7.0695554    34.205934   0.03032441  0.035030909            4 
   95000     1.236296    -7.077719    34.702075  0.030440416  0.035032261            4 
   96000    1.2281306   -7.0674695    35.088755  0.030458989  0.035045383            2 
   97000    1.2303874   -7.0869189    35.710395  0.030679034  0.035062819            4 
   98000    1.2274595   -7.0560126    36.119853  0.030714161   0.03508395            2 
   99000    1.2206606   -7.0109353    36.685162  0.030879766  0.035109575            2 
  100000    1.2299633   -7.0542803    37.156194  0.030963495   0.03513459            1 
  101000    1.2365764   -7.0195951    37.464568   0.03091136  0.035155677            8 
  102000    1.2432691   -7.0933731    37.680089  0.030784386  0.035170962            3 
  103000    1.2336199   -7.0741596    37.879693     0.030647  0.035171576            2 
  104000    1.2597632   -7.0563925    38.506146  0.030854284   0.03517021            4 
  105000    1.2223453   -7.0280592    38.897426  0.030870972  0.035174864            2 
  106000    1.2312081   -7.0315342    39.106736  0.030744289   0.03516954            2 
  107000    1.2414392   -7.0350529    39.560025  0.030809988  0.035160632            6 
  108000    1.2738039   -7.0652536    39.944718  0.030821542  0.035151795            2 
  109000    1.2151156   -7.0608861    40.189738  0.030726099  0.035137318            4 
  110000    1.2248885   -7.0740226    40.807265  0.030914594  0.035116946            2 
  111000    1.2276619   -7.0659167    40.948239  0.030741921  0.035097812            2 
  112000    1.2444219   -7.0757031    41.292729  0.030723756  0.035080082            4 
  113000    1.2577875   -7.0016365    42.095814   0.03104411  0.035065509            1 
  114000    1.2213654    -7.043433    42.336849  0.030947989  0.035062851            3 
  115000    1.2529024   -7.0743037    42.576049  0.030852209  0.035047437            3 
  116000    1.2311535   -7.0602077    43.066871  0.030938844  0.035033561            2 
  117000    1.2480713   -7.0646912     43.51223  0.030991616  0.035020118            2 
  118000    1.2361348   -7.0653783    44.063661  0.031118405  0.035006459            6 
  119000    1.2469075   -7.0671565    44.259717  0.030994199  0.034989529            2 
  120000    1.2459128   -7.0441928     44.68779  0.031033187  0.034974076            3 
  121000    1.2373489   -7.1059312     45.01924  0.031004986  0.034962901            1 
  122000    1.2407937   -7.0147362    45.778692  0.031269598  0.034956606            1 
  123000    1.2180298   -7.0302817    46.366209   0.03141342  0.034952177            3 
  124000    1.2133253   -7.0581208    46.503003  0.031252018  0.034945815            1 
  125000     1.220561   -7.0553904    46.996893  0.031331262  0.034936351            3 
  126000    1.2158902   -7.0413083    47.203124  0.031218997  0.034928485            2 
  127000    1.2167406   -7.0422663    47.490252  0.031161582  0.034918003            2 
  128000    1.2352544   -7.0770106    47.882767  0.031173676  0.034901723            1 
  129000    1.2418115   -7.0428848     48.34099   0.03122803  0.034883543            2 
  130000    1.2230025   -7.0783146    48.733861  0.031239655  0.034867846            2 
  131000     1.247762   -7.0204185    49.385708  0.031415845  0.034856731            2 
  132000    1.2076297   -7.0390974    49.348868  0.031154588  0.034841674            1 
  133000    1.2244619   -7.0754473    49.595981  0.031075176   0.03482314            1 
  134000     1.231208   -7.0347856    50.108958  0.031162288  0.034804275            3 
  135000    1.2150821   -7.1041032    50.119952  0.030938242   0.03478052            2 
  136000    1.2432389   -7.0671316    50.760421  0.031103199  0.034753435            3 
  137000    1.2003929   -7.0655525    51.063019   0.03106023  0.034726913            3 
  138000    1.2310554   -7.0860883    51.343269  0.031004389  0.034698002            3 
  139000    1.2116924   -7.1339377    51.581441  0.030924125  0.034663907            2 
  140000     1.217049   -7.0597636    52.129593  0.031029519   0.03463454            2 
  141000    1.2283793   -7.0821259    52.419254  0.030980647  0.034606472            2 
  142000    1.2091914   -7.1275175    52.493941  0.030806303  0.034572788            2 
  143000    1.2143053   -7.0583693    52.945695  0.030854134  0.034536141            2 
  144000    1.2210526   -7.0542642     53.35014  0.030873924  0.034497311            2 
  145000    1.1966954   -7.0688177    53.668285  0.030843842  0.034460732            1 
  146000    1.2305136   -7.0830105    54.107578   0.03088332  0.034417724            2 
  147000    1.2352559   -7.0651772    54.363442  0.030818278   0.03437699            2 
  148000    1.2281291   -7.0668254    54.610888  0.030749373  0.034338213            2 
  149000    1.2205732   -7.1273106    55.031974  0.030778509  0.034298661            2 
  150000    1.1989621   -7.0247146    55.676676  0.030931487  0.034263357            1 
  151000    1.2283711   -7.0876317    55.828878  0.030810639  0.034229166            3 
  152000    1.2120315   -7.0391632    56.426497   0.03093558  0.034196956            2 
  153000    1.2431803   -7.0666595    56.775326   0.03092338  0.034166383            3 
  154000    1.2393823   -7.0725359    57.319962  0.031017295  0.034138876            4 
  155000    1.2224897   -7.0749376    57.432683  0.030877786  0.034107469            2 
  156000    1.2197598   -7.1092191    57.928219  0.030944561  0.034076049            1 
  157000    1.2041824   -7.0795757    58.284761   0.03093671  0.034047145            2 
  158000    1.2322305   -7.1189137    58.626726  0.030921269  0.034019532            1 
  159000    1.1912707   -7.1017196    58.759865  0.030796575   0.03399011            1 
  160000     1.218591   -7.0949399    59.499131   0.03098913  0.033965461            3 
  161000    1.2302354   -7.0382233    60.161436   0.03113946  0.033945366            2 
  162000    1.2237569   -7.0812314    60.384102  0.031061781   0.03392603            2 
  163000    1.2287039   -7.0960992    60.781887  0.031074584  0.033905653            2 
  164000     1.246599   -7.0576142    61.235832  0.031115768  0.033884019            2 
  165000    1.2288031   -7.0604676     61.41682  0.031018596  0.033862713            1 
  166000    1.2493645   -7.0949364    61.849996  0.031049195  0.033841134            3 
  167000    1.2266722   -7.0769384    62.178436  0.031027164  0.033818754            5 
  168000    1.2301848   -7.0670049    62.396344  0.030950568  0.033795069            1 
  169000    1.2247284   -7.0628275    62.872569  0.031002253  0.033771907            2 
  170000    1.2517846   -7.1029309    63.079141  0.030921147  0.033748748            4 
  171000    1.2236175   -7.0934993    63.553975  0.030971723  0.033724231            2 
  172000    1.2311074   -7.1013099    63.848868  0.030934529  0.033700205            2 
  173000    1.2611292   -7.1091708    64.281649  0.030964185  0.033678528            2 
  174000    1.2418733   -7.0734255    64.512635  0.030896856  0.033656605            2 
  175000    1.1909047   -7.0982563    65.411241   0.03114821  0.033637077            1 
  176000    1.2070569   -7.0916817    65.590853  0.031056275  0.033618467            3 
  177000    1.2194197   -7.0976244    65.940396  0.031045384  0.033600592            3 
  178000    1.2368525   -7.0909754    66.422395  0.031096627  0.033580733            2 
  179000    1.1938193   -7.0229195    66.835745  0.031115337   0.03356149            3 
  180000    1.2564927   -7.0748948    66.855882  0.030951797  0.033540865            2 
  181000    1.2229375   -7.1119617    67.058917  0.030874271  0.033517763            5 
  182000    1.2292017   -7.0798034    67.274447  0.030803318  0.033493399            1 
  183000    1.2513246   -7.0780401    67.903341  0.030921375  0.033469522            2 
  184000    1.2128805   -7.0633045    68.444337  0.030998341  0.033447122            3 
  185000    1.2160115   -7.0938432    68.767083  0.030976163  0.033422856            4 
  186000    1.2329283   -7.0441843    69.359554  0.031075069  0.033401516            1 
  187000    1.2308102   -7.1132645    69.258473  0.030863847  0.033382048            2 
  188000    1.2173122   -7.0565759    69.792453  0.030936371   0.03336157            2 
  189000    1.2045312   -7.0922146    70.213931  0.030958523  0.033338777            2 
  190000     1.244027    -7.072094    70.503552   0.03092261  0.033315819            5 
  191000    1.2370718   -7.0632073    70.745436  0.030866246   0.03329143            2 
  192000    1.2239382   -7.0862984    70.848379  0.030750165  0.033266797            2 
  193000     1.218854   -7.0905317    71.428286  0.030841229  0.033242332            2 
  194000    1.1994078   -7.0526427    71.458076   0.03069505  0.033217014            2 
  195000    1.2140812   -7.0841031    72.020904  0.030778164  0.033189988            6 
  196000     1.224034    -7.126687    72.347367  0.030759935  0.033165036            1 
  197000    1.2151623   -7.0577698    72.922468  0.030847067  0.033142204            1 
  198000    1.2406778   -7.0732195    73.349913  0.030871176   0.03311865            5 
  199000    1.1993577   -7.0840275    73.484643  0.030772464  0.033097713            2 
  200000    1.2304992   -7.0400789    74.255254  0.030939689  0.033077956            2 
  201000    1.2052482   -7.0682111    74.308293   0.03080775  0.033059071            2 
  202000    1.2216851   -7.0751314    74.915653  0.030905798  0.033040572            1 
  203000    1.2080084    -7.099961    75.554561  0.031015829  0.033024252            3 
  204000    1.2417278   -7.0735098    75.847934  0.030983633  0.033009127            1 
  205000    1.2492198   -7.0775129    76.246307  0.030994434  0.032993653            1 
  206000    1.2080489   -7.1013656    76.544229  0.030964494  0.032977643            1 
  207000    1.2171806   -7.1353968    76.651772  0.030858201  0.032962258            1 
  208000    1.2184272   -7.0845173    77.239648  0.030945372  0.032946397            5 
  209000     1.211488   -7.1032167    77.816052  0.031027134  0.032933132            3 
  210000    1.2209791    -7.101984    78.224082  0.031041302  0.032920059            2 
  211000    1.1786245   -7.1256436    78.447795  0.030982542    0.0329063            1 
  212000    1.2026747   -7.1170755    78.499047  0.030856543  0.032891968            3 
  213000    1.2026871   -7.0694326    79.060065  0.030931168  0.032878474            3 
  214000    1.2124196   -7.0829303    79.549145  0.030977081  0.032864632            2 
  215000     1.237167   -7.0757769    80.155464  0.031068009  0.032851956            2 
  216000    1.2237333   -7.0580866    80.397804  0.031017671  0.032840629            8 
  217000    1.2053289   -7.1132581    80.889866  0.031063697   0.03282969            1 
  218000    1.2199815    -7.112363    81.128513  0.031012428  0.032819628            1 
  219000    1.2181466    -7.048281    81.933078   0.03117697  0.032809003            2 
  220000    1.2015113   -7.0837314    82.047276  0.031078513  0.032800582            3 
  221000    1.2167635   -7.1248051    82.526905  0.031118743   0.03279154            4 
  222000    1.1894891   -7.0893884     82.96225  0.031141986  0.032782033            1 
  223000    1.2077174   -7.1024203    83.172912  0.031081058  0.032771484            3 
  224000    1.2139898   -7.1269087    83.266376  0.030977075  0.032760674            3 
  225000    1.2360213   -7.0759864    83.879694  0.031066553  0.032748829            2 
  226000    1.2062581   -7.1332523    83.803006  0.030900814  0.032736063            2 
  227000    1.2185973   -7.1226729    83.989157  0.030833024  0.032722658            1 
  228000    1.2487942   -7.0839288    84.820275  0.031001563  0.032708728            2 
  229000    1.2122216   -7.0630204     85.29689  0.031039625  0.032696032            3 
  230000    1.2235998   -7.1295058    85.401361  0.030942522  0.032683244            2 
  231000    1.2238943   -7.0637711    86.157976  0.031081521   0.03267199            1 
  232000     1.215097   -7.1443793    86.416817  0.031040523  0.032660749            4 
  233000    1.2155327   -7.0922187    86.889401  0.031076323  0.032651929            2 
  234000    1.2297168    -7.134587    87.103074  0.031019613  0.032641381            2 
  235000    1.2257957   -7.1375451    87.439626   0.03100696  0.032631385            1 
  236000     1.225609   -7.1267458     87.95766  0.031058496  0.032620809            1 
  237000    1.2090804   -7.1334558    88.117595  0.030983683  0.032612573            2 
  238000    1.2277663   -7.1096346    88.526756  0.030996763  0.032601525            2 
  239000    1.2407816   -7.1137793    88.981641  0.031025677  0.032593066            1 
  240000    1.2224373   -7.1054931     89.50896    0.0310795  0.032582597            2 
  241000    1.2068805   -7.1196842    89.861442  0.031072421  0.032574095            2 
  242000    1.1908738   -7.0640156    90.408938  0.031132554  0.032566632            2 
  243000    1.2366942   -7.1372731    90.365241  0.030989451  0.032555493            2 
  244000    1.2126578   -7.0951177    91.535745  0.031262208  0.032546963            1 
  245000    1.2369731   -7.1165643    91.351766  0.031072029    0.0325399            2 
  246000    1.2353843   -7.1182783    91.827169  0.031106765  0.032532766            2 
  247000    1.2248847   -7.1151888     92.08015  0.031066177  0.032525177            1 
  248000    1.2016058   -7.0828835    92.586894  0.031111187  0.032516528            2 
  249000    1.2141849   -7.1347866    92.434538  0.030935254  0.032506085            2 
  250000    1.1850312   -7.1052311    92.755465  0.030918488  0.032494165            4 
  251000    1.2378753    -7.119779    92.595148  0.030742081  0.032480237            3 
  252000     1.216439   -7.1051235    93.484937  0.030914331    0.0324661            4 
  253000     1.214897   -7.1378955    93.627365  0.030839053  0.032453637            2 
  254000    1.1806418   -7.1634994    93.852478  0.030791495  0.032440447            1 
  255000    1.1878931   -7.1385524    94.676064   0.03093989  0.032427312            2 
  256000    1.2157281   -7.1236327    94.545001  0.030776367  0.032415324            2 
  257000    1.2134777   -7.1250058     94.80389  0.030740561  0.032402768            1 
  258000    1.2232627   -7.1477681    95.064995  0.030705748  0.032389266            2 
  259000    1.2194834   -7.1344813    95.795335   0.03082218  0.032375497            2 
  260000    1.2083097   -7.1086281    96.073586  0.030792816   0.03236154            6 
  261000    1.1991116   -7.1087448    96.692425  0.030872422  0.032348769            2 
  262000    1.2091869   -7.1418124    96.746813  0.030771887  0.032334956            3 
  263000    1.2196743   -7.1564567    97.379204  0.030855261   0.03232168            1 
  264000    1.2115877   -7.1400778     97.46445  0.030765293  0.032308369            2 
  265000    1.2174536   -7.1231303    97.941938  0.030799352  0.032294462            3 
  266000    1.2393984   -7.1035618    98.621321  0.030896404  0.032282264            2 
  267000    1.2042468    -7.067001    98.708485  0.030807892  0.032271063            3 
  268000    1.2228593    -7.092617    99.298069  0.030876265  0.032259061            1 
  269000    1.1984486   -7.0937924    98.896348  0.030637035  0.032245334            1 
  270000    1.2032939   -7.0537184    99.655938  0.030758005   0.03223109            3 
  271000    1.2248376   -7.1604501    99.743709  0.030671497  0.032217001            2 
  272000    1.2108622   -7.1379705    99.943183  0.030619848  0.032201853            4 
  273000    1.2146626   -7.1627753    100.15846  0.030573401  0.032187628            5 
  274000    1.2074647     -7.14229    101.00494  0.030719264  0.032173297            1 
  275000    1.2137353   -7.1339733     101.4289   0.03073603  0.032159584            1 
  276000    1.2144575   -7.1261732    101.87554  0.030759522  0.032147707            3 
  277000    1.2065069   -7.1460182    102.21799    0.0307515  0.032137451            3 
  278000    1.2432531   -7.1148946    102.85125  0.030830709  0.032126935            2 
  279000    1.1959861   -7.1448743    103.13355  0.030804526  0.032116394            2 
  280000    1.2096897     -7.11681    103.20812  0.030716702  0.032106247            1 
  281000    1.1990958   -7.1141844    104.01322   0.03084615   0.03209611            1 
  282000    1.1944128   -7.1633549    104.03968  0.030744585   0.03208574            7 
  283000    1.2176534   -7.1484181    104.17944  0.030677102  0.032074598            6 
  284000    1.2052739   -7.1183158    104.91321  0.030784392  0.032063759            4 
  285000    1.1817376   -7.1577974    105.23752  0.030771204  0.032053545            5 
  286000    1.2221449    -7.114983    105.71666  0.030803221  0.032042563            2 
  287000    1.2152357   -7.1401922    106.15226  0.030822374  0.032031666            3 
  288000    1.2173864   -7.1338141    106.74717  0.030887492  0.032021912            4 
  289000    1.1769442   -7.1290007    106.68385  0.030762355  0.032011205            5 
  290000    1.1861466    -7.135022    106.87517  0.030711256  0.032001817            3 
  291000    1.2221826   -7.1254014    107.52306  0.030791255  0.031993164            1 
  292000    1.1955211    -7.159379    108.15183  0.030865247  0.031984129            2 
  293000    1.1925674   -7.1285517    108.73457  0.030925645  0.031974869            1 
  294000    1.1956296   -7.0845805    109.18688  0.030948663  0.031967164            1 
  295000    1.1977095   -7.1428182    109.08382  0.030814637  0.031959439            3 
  296000    1.1880739    -7.116095    109.92997  0.030948754  0.031953154            1 
  297000    1.1934897   -7.1273668    109.45164  0.030710337  0.031945561            4 
  298000    1.1967239   -7.1223503    110.63033  0.030936894  0.031937811            6 
  299000    1.1984892   -7.1278207    110.75946  0.030869415   0.03193105            3 
  300000    1.1755173   -7.1862285    110.79019  0.030775053  0.031924143            4 
  301000    1.2224166   -7.1633809    111.03969  0.030741885   0.03191584            1 
  302000     1.197078   -7.1724609    111.69862  0.030821914  0.031907509            2 
  303000    1.2027476   -7.1096702    111.86405  0.030765691  0.031898825            1 
  304000    1.2005566   -7.0934019    112.45447  0.030826336  0.031891662            3 
  305000    1.2152131   -7.1409819    112.76186  0.030809251  0.031884475            8 
  306000    1.2059149   -7.1964425    112.65675  0.030679943  0.031875642            4 
  307000     1.174619   -7.1836335    113.16006   0.03071663  0.031866116            3 
  308000    1.1941034   -7.1246697    113.40231  0.030682442  0.031857461            7 
  309000    1.2137687   -7.1298105    114.25038  0.030811862  0.031848939            1 
  310000    1.1939309   -7.0891458    114.59691  0.030805621  0.031841316            2 
  311000    1.1958375   -7.1426091    114.95321   0.03080204  0.031834634            3 
  312000    1.2433055   -7.1078722    115.46566  0.030840187  0.031827483            2 
  313000    1.2204073   -7.1543509    114.99832  0.030617231  0.031819078            1 
  314000    1.2059302   -7.1615039    115.92254  0.030765005  0.031810923            3 
  315000    1.2024124   -7.1626791    116.10065  0.030714457   0.03180262            3 
  316000    1.2073942   -7.1929737    116.51895  0.030727571  0.031794395            2 
  317000    1.2213656   -7.1677665    117.00269  0.030757804   0.03178549            3 
  318000     1.177581   -7.1099171    117.12089  0.030692056  0.031776692            2 
  319000    1.1641332   -7.0954747    117.93847  0.030809423  0.031767838            2 
  320000    1.1886986   -7.1446586    117.84636  0.030689155   0.03175894            1 
  321000    1.2010871   -7.1476766    117.91381  0.030611062   0.03174968            2 
  322000     1.173916   -7.2162027    117.73501  0.030469723  0.031739149            3 
  323000    1.2121811   -7.1379018    118.51582  0.030576838  0.031727956            2 
  324000    1.1980605   -7.1204818    118.90435  0.030582393  0.031716563            2 
  325000    1.2004637   -7.1053818    119.43263  0.030623752  0.031706146            1 
  326000    1.2145427   -7.1345607     119.7306  0.030605981  0.031695169            1 
  327000     1.174212     -7.09581    120.34266  0.030668364  0.031686253            4 
  328000    1.1912736   -7.1484171    120.62595  0.030646838  0.031676433            2 
  329000    1.2144752   -7.1240572    121.14183  0.030684354  0.031666063            2 
  330000     1.193977     -7.11482    120.76121  0.030495254   0.03165568            2 
  331000    1.1862224   -7.1144077    121.51816  0.030593697  0.031645028            4 
  332000    1.1900684   -7.1581812    121.16948  0.030414027  0.031633205            3 
  333000    1.2273244   -7.1825975    121.75416  0.030469008  0.031622024            2 
  334000    1.1848424   -7.1717715     121.8357  0.030398129  0.031610124            2 
  335000    1.2342441   -7.1645505    122.64705  0.030509215  0.031598646            2 
  336000    1.1906106   -7.1520581    123.03787  0.030515346   0.03158821            1 
  337000    1.2134766   -7.1077205    124.05224  0.030675629  0.031578397            3 
  338000    1.2116305   -7.1660858     123.7719  0.030515753  0.031568726            2 
  339000    1.1930764   -7.1724664    123.87804  0.030451829  0.031558166            2 
  340000    1.1980592   -7.1876493    124.44449  0.030501101  0.031548094            5 
  341000    1.2058221   -7.1541643    125.15165  0.030584469   0.03153862            3 
  342000    1.1969944   -7.1906136    124.74448  0.030395828  0.031529318            3 
  343000     1.185848   -7.1327392     125.7464  0.030550632   0.03151973            2 
  344000    1.1939746   -7.1309697    125.47759  0.030396703  0.031510337            2 
  345000    1.2136469   -7.2181415    125.43118  0.030297386  0.031498907            2 
  346000     1.181542   -7.1664556    125.82725  0.030305214  0.031486674            3 
  347000     1.205664   -7.2026358    126.17809  0.030302134  0.031474919            3 
  348000    1.1712289    -7.198188    126.52842  0.030298952  0.031462989            3 
  349000    1.1837631   -7.1564427    126.83498  0.030285333  0.031450302            1 
  350000     1.178551   -7.1981807    127.17764   0.03028039  0.031437803            4 
  351000    1.1960063   -7.1767597    127.71539  0.030321793  0.031425178            3 
  352000    1.1788792   -7.1901253    127.67572   0.03022626   0.03141199            4 
  353000    1.2056198   -7.1608887    128.32905  0.030294864  0.031398293            2 
  354000    1.2213743   -7.2086129     128.1318  0.030162853  0.031385404            2 
  355000    1.1857213   -7.1300917    128.88851  0.030255518  0.031372666            1 
  356000    1.2209019   -7.1619665    128.95345  0.030185732  0.031360713            3 
  357000    1.1832455   -7.1801108    129.32517  0.030187948   0.03134789            3 
  358000    1.1804596   -7.1619699    129.39843  0.030120677  0.031334206            2 
  359000     1.214242   -7.1450464    129.54267  0.030070258  0.031319775            2 
  360000    1.1900855   -7.1743644    129.84617  0.030056983  0.031305483            4 
  361000    1.1868125   -7.1414235    130.32227  0.030083625  0.031292086            1 
  362000    1.1844671   -7.1769648    130.35526  0.030008118  0.031278438            2 
  363000     1.190357   -7.1551558    131.19813  0.030118945  0.031264521            6 
  364000    1.1744283   -7.1463703    131.44453  0.030092613  0.031251498            6 
  365000    1.2028098   -7.1916428     131.6474  0.030056484  0.031238156            4 
  366000    1.2054886   -7.1558375    132.25754  0.030113283  0.031225103            2 
  367000     1.196386    -7.139619    132.43494  0.030071513  0.031212288            5 
  368000    1.2090638   -7.1699368    132.71136  0.030052391   0.03119891            2 
  369000    1.1876078   -7.2035293    132.89512  0.030012447  0.031185563            4 
  370000     1.160298   -7.1349126    133.91268  0.030160514  0.031171881            3 
  371000    1.2055182    -7.191676    133.30121  0.029941871  0.031158139            2 
  372000    1.1880719   -7.1649911    134.03837  0.030026516  0.031143436            2 
  373000    1.1823577   -7.2015495    134.27673   0.02999927  0.031128491            3 
  374000    1.1930511   -7.2149931     134.1983  0.029901583   0.03111315            6 
  375000    1.2223132   -7.1560093    134.89803   0.02997734   0.03109907            2 
  376000    1.1623753   -7.2147692    134.81288  0.029878741  0.031084133            3 
  377000      1.18405   -7.1854223     134.7737  0.029790827   0.03106879            2 
  378000    1.1877913   -7.1875816    135.81577  0.029941749  0.031055311            1 
  379000    1.1758597   -7.1947483    135.95775  0.029893965  0.031040837            4 
  380000    1.1816815   -7.1689005    136.28776  0.029887667  0.031026202            2 
  381000    1.1763324   -7.1386894    137.06582    0.0299794  0.031012633            1 
  382000     1.168924    -7.137035    137.49729  0.029995045  0.030999787            3 
  383000    1.2015767    -7.202321    137.20387  0.029852888  0.030986761            1 
  384000    1.2010046   -7.1722846    137.84393  0.029914048  0.030973554            3 
  385000    1.1899066   -7.1788277     138.1022  0.029892252   0.03096085            2 
  386000    1.1998352   -7.1662427    138.50696  0.029902193   0.03094764            2 
  387000    1.1804336   -7.2020881    138.93161  0.029916367  0.030935314            4 
  388000    1.1820132   -7.1599396    139.26866  0.029911653  0.030923309            3 
  389000    1.1980151   -7.1945045    139.45648  0.029874996  0.030911611            3 
  390000      1.21444   -7.1977429    139.85191  0.029882887  0.030899989            1 
  391000    1.2026254   -7.1962521    140.68119  0.029983203  0.030888668            2 
  392000    1.2058726   -7.1660391    141.11809  0.029999593  0.030877772            3 
  393000    1.1806505   -7.1864421    141.17967  0.029936316  0.030866837            2 
  394000    1.1515137    -7.212496     141.1955  0.029863685  0.030855618            2 
  395000    1.1815487   -7.1602075    141.82732  0.029921375  0.030844135            3 
  396000    1.1847727   -7.1576207    142.88091  0.030067532  0.030833848            4 
  397000    1.1957161    -7.177662     142.6874  0.029951176  0.030823907            6 
  398000    1.2060138   -7.1882198    143.03444  0.029948585  0.030813153            2 
  399000    1.1691664   -7.1502745    142.93106  0.029851934  0.030802053            2 
  400000    1.2026722   -7.2326215    143.42339  0.029879874  0.030790556            3 
  401000    1.1776469   -7.2320633    143.62863  0.029848011  0.030779488            1 
  402000    1.2091265   -7.2139129    144.21824  0.029895986  0.030769041            2 
  403000    1.1862859   -7.1405116    144.79789  0.029941664  0.030758403            3 
  404000     1.200522   -7.2136084    144.33893  0.029772882  0.030747022            8 
  405000    1.1818749   -7.1631692    145.56988  0.029952651  0.030735947            1 
  406000    1.1969259   -7.1866752    145.62921  0.029891054  0.030725614            6 
  407000    1.1911305   -7.1831561     145.5155  0.029794327  0.030714105            1 
  408000    1.1727364   -7.1562901    146.04533  0.029829521  0.030702377            2 
  409000    1.1661349   -7.1356958    146.43996  0.029836993  0.030689802            3 
  410000    1.1997883   -7.2180185    145.80635  0.029635436  0.030677555            1 
  411000    1.2000181   -7.2206515    146.13217  0.029629394  0.030664674            2 
  412000    1.1825315   -7.2393583    146.31818  0.029595102  0.030652194            1 
  413000    1.1783505   -7.1553307    147.07537  0.029676225  0.030639361            2 
  414000    1.2100456   -7.2449315    146.43255  0.029475152  0.030625868            2 
  415000    1.2037232   -7.1691508    148.29565  0.029778243  0.030612743            2 
  416000    1.1728604   -7.2199338    147.98542  0.029644515  0.030600241            1 
  417000    1.2007724   -7.2130618    148.10706  0.029597734  0.030588072            2 
  418000    1.1900778   -7.1867687    148.79989  0.029665049  0.030575897            2 
  419000    1.1894824   -7.1439376    149.73613  0.029780456  0.030564837            2 
  420000    1.2015511   -7.2060807    149.78952  0.029720143  0.030553478            2 
  421000     1.171293   -7.2037171    149.34829  0.029562212  0.030541326            3 
  422000    1.1828913   -7.1717435    150.20004  0.029660355  0.030530256            1 
  423000    1.2027201   -7.1490859    150.86637  0.029721508  0.030519351            3 
  424000    1.1986789   -7.2284637    150.34681  0.029549294  0.030507582            2 
  425000    1.1784183   -7.2207217     151.0018  0.029608197  0.030494937            1 
  426000    1.1847543   -7.1977023     150.9408  0.029526761  0.030483743            2 
  427000    1.1919367   -7.1757752    151.85634  0.029636287  0.030471649            3 
  428000    1.1855361   -7.1924982    152.48441  0.029689332   0.03046075            3 
  429000    1.1842004   -7.1857165    152.44588  0.029612642  0.030449823            2 
  430000    1.1963857   -7.1951076    152.73682  0.029600159  0.030438046            2 
  431000    1.1650036   -7.1980572    153.22016  0.029624934  0.030427299            2 
  432000    1.1981396   -7.1865232    153.63987   0.02963732  0.030416815            2 
  433000    1.2117185   -7.2298435    153.53624  0.029548929  0.030405669            3 
  434000    1.1901798     -7.18779    153.87125   0.02954517  0.030394012            1 
  435000    1.1471848    -7.226228    153.51794  0.029409568  0.030381362            2 
  436000    1.1859409   -7.1964923    154.03665  0.029441255  0.030369269            2 
  437000    1.1901824   -7.1985785    154.97714   0.02955323  0.030357156            2 
  438000    1.1514613   -7.2180345    155.43644  0.029573143   0.03034591            2 
  439000    1.1532199    -7.189175    155.65535  0.029547334  0.030334144            2 
  440000     1.191134   -7.2360774    154.89969  0.029337063  0.030322274            3 
  441000    1.1937609   -7.2093283    155.73045  0.029427522  0.030310706            2 
  442000    1.1769105   -7.2430874    156.11849  0.029434104  0.030298773            5 
  443000    1.1967225   -7.2506414    155.97925  0.029341469  0.030286978            2 
  444000    1.1888773   -7.2053281     157.0054  0.029467981  0.030275966            3 
  445000    1.1760325   -7.1936983    157.97716  0.029583738  0.030265744            2 
  446000    1.1750958   -7.1832579    158.67913  0.029648567  0.030255865            3 
  447000    1.1772914   -7.2087777    158.24094  0.029500547  0.030246073            3 
  448000    1.1694746   -7.2134371    158.41983  0.029467974  0.030235478            3 
  449000    1.2015307   -7.2214851    158.64411   0.02944397  0.030225372            1 
  450000    1.1708105   -7.1716146    159.97409  0.029624831  0.030215684            1 
  451000    1.1372645   -7.1771313     159.6707  0.029503085  0.030206244            2 
  452000    1.1982069   -7.2503929    160.03257   0.02950453  0.030196041            2 
  453000    1.1792041   -7.2117316    160.11682  0.029454897  0.030185197            2 
  454000    1.1951582   -7.2568768    160.24641  0.029413804  0.030174445            2 
  455000    1.1768248   -7.1734667    161.00642  0.029488355  0.030164694            2 
  456000    1.2025054   -7.2116153    160.95999  0.029415203  0.030155204            1 
  457000    1.1933577   -7.2826487     161.0127  0.029360449  0.030144407            2 
  458000    1.1817366   -7.2095185    161.88967  0.029455908  0.030133546            6 
  459000    1.1914849   -7.2383083    161.82417  0.029379842  0.030123525            2 
  460000    1.1823674     -7.18848    162.71716  0.029477746   0.03011376            3 
  461000    1.1711582   -7.2116889    162.56052  0.029385489  0.030103928            3 
  462000    1.1910818   -7.2911495    161.86197  0.029195881  0.030092733            1 
  463000    1.1863301   -7.1905884    163.18389  0.029370751  0.030082031            4 
  464000    1.1741072    -7.196582    163.82069   0.02942182  0.030071621            3 
  465000    1.1881647   -7.2329914    163.35746  0.029275531  0.030061162            2 
  466000    1.1675023   -7.2099618    163.87814  0.029305819  0.030049954            4 
  467000    1.2099371   -7.2520848    163.72492  0.029215725  0.030038941            3 
  468000    1.1658918   -7.2166984    164.53734  0.029297959  0.030028146            2 
  469000    1.1591909   -7.1848145    165.16783  0.029347518  0.030018232            8 
  470000    1.1738031   -7.1948337    165.52616   0.02934861  0.030008296            1 
  471000    1.1966849   -7.2553728    164.84371  0.029165554  0.029997842            2 
  472000     1.176798   -7.2435442    165.33517  0.029190532  0.029986769            1 
  473000    1.1778108   -7.2173953    166.25768  0.029291345  0.029975843            2 
  474000    1.1691389   -7.2157057    166.88471  0.029339787  0.029965675            2 
  475000    1.1900727   -7.2505687    166.58097  0.029224731  0.029955407            2 
  476000    1.1860555   -7.1918379      167.326  0.029293767  0.029945246            1 
  477000    1.1707759   -7.1877696    168.01734  0.029353134  0.029935608            2 
  478000    1.1801755   -7.2008104     168.1193  0.029309501  0.029925587            3 
  479000    1.1643885   -7.2367859     167.3861  0.029120755  0.029915178            5 
  480000    1.1864379   -7.2211176    168.66668   0.02928241  0.029904346            3 
  481000    1.1643801   -7.1617541       169.29  0.029329521  0.029894393            1 
  482000    1.1868318   -7.2085871    169.07917  0.029232222  0.029884338            1 
  483000    1.1609701   -7.1916417    169.40706  0.029228271  0.029874439            1 
  484000    1.1767119   -7.2027095    169.42019  0.029170142   0.02986446            1 
  485000    1.1811198   -7.2635854    169.15658  0.029064704  0.029854063            3 
  486000    1.2002752   -7.2530218    169.61061  0.029082753   0.02984305            2 
  487000    1.1811875   -7.2139341    170.40433  0.029158851  0.029832279            3 
  488000    1.1691757   -7.2333032    171.07469  0.029213573  0.029822248            4 
  489000    1.1844268   -7.2750184    170.12374  0.028991776  0.029811703            2 
  490000    1.1833398   -7.2204943     171.4246  0.029153843    0.0298004            5 
  491000    1.1766484   -7.2579881    171.02578  0.029026779   0.02978959            3 
  492000    1.1806136   -7.2378166    171.24921  0.029005624   0.02977857            2 
  493000    1.1680499   -7.2110492    172.41394  0.029143667  0.029767544            2 
  494000    1.1906608   -7.2384054    172.35592  0.029074886  0.029756351            3 
  495000     1.163632   -7.1937428    173.44377  0.029199287  0.029745101            2 
  496000    1.1639918   -7.2163621     172.8617  0.029042625  0.029734988            2 
  497000    1.1734622   -7.2307838     173.2946  0.029056774   0.02972502            3 
  498000    1.1319822   -7.1633713    174.71388  0.029235924  0.029715374            2 
  499000    1.1529656   -7.2041207    174.61557  0.029160917  0.029706266            2 
  500000    1.1592618   -7.2729618    174.84982  0.029141637  0.029696692            4 
  501000    1.1523567   -7.2233711    175.58036  0.029204983  0.029687706            2 
  502000    1.1588287   -7.2154812    176.06368  0.029227039  0.029679278            5 
  503000    1.1792195   -7.2155686    176.50014  0.029241242  0.029671168            4 
  504000    1.1964359   -7.2328076     176.3687  0.029161492   0.02966316            3 
  505000    1.1489028   -7.2425505    177.08746  0.029222353  0.029654783            2 
  506000    1.1517985   -7.2004513    177.63366  0.029254555  0.029647252            2 
  507000    1.1701934   -7.2634334    177.71765  0.029210659  0.029639317            2 
  508000    1.1728697   -7.2118854    178.35649  0.029257954  0.029631267            9 
  509000    1.1865438   -7.2267037      177.727  0.029097413  0.029622951            2 
  510000     1.159172   -7.2316828    178.32108  0.029137431  0.029615031            3 
  511000    1.1778412   -7.2212608    178.42988  0.029098153  0.029606319            4 
  512000    1.1868918   -7.2630002    179.41282  0.029201305  0.029598316            4 
  513000     1.153071   -7.2419492    179.24744  0.029117518   0.02959028            3 
  514000    1.1866923   -7.2659281    179.80821  0.029151785  0.029582439            4 
  515000    1.1656151    -7.254864    179.85488  0.029102732  0.029574162            4 
  516000      1.15408   -7.2239514    180.08852  0.029084063  0.029565736            1 
  517000    1.1456032   -7.2540722    180.68582  0.029124084  0.029557525            3 
  518000    1.1660362   -7.2354625    180.56381  0.029048233  0.029549181            1 
  519000    1.1961387    -7.233022    180.97967  0.029059035  0.029540675            4 
  520000    1.1900107   -7.2460802    181.28899  0.029052722  0.029532424            2 
  521000    1.1866017   -7.2170475    181.64781  0.029054353  0.029524015            3 
  522000    1.1148403   -7.2024666    181.92975  0.029043703  0.029515205            4 
  523000    1.1632202   -7.1860475    182.95031  0.029150782  0.029506217            2 
  524000    1.1746767    -7.216636    182.64468  0.029046546  0.029497465            1 
  525000    1.1564976   -7.2224982    182.12324  0.028908451  0.029488416            4 
  526000    1.1885242   -7.1806524    182.14469   0.02885689  0.029478632            2 
  527000    1.1330911   -7.1978714    183.43616  0.029006351  0.029469699            2 
  528000      1.16255    -7.208413     183.3093  0.028931392  0.029460463            3 
  529000    1.1867819   -7.1901058    184.02617  0.028989629  0.029451173            4 
  530000     1.159348   -7.2383982    184.67875  0.029037539  0.029441481            2 
  531000    1.1785756    -7.275251    184.40581   0.02894002  0.029432523            5 
  532000    1.1652415   -7.2457436    184.54406  0.028907277  0.029423437            2 
  533000    1.1284699   -7.2458667    184.37634  0.028826819  0.029413673            2 
  534000    1.1716518   -7.2087451    185.13885   0.02889183  0.029404129            3 
  535000    1.1661113    -7.281947    185.01728  0.028818892  0.029393979            4 
  536000    1.1550538   -7.2433159    185.58707  0.028853711  0.029384691            1 
  537000    1.1715351   -7.2362866    185.75044  0.028825333  0.029375498            2 
  538000    1.1651832   -7.2676994    186.12439  0.028829676  0.029366305            2 
  539000    1.1473347    -7.296437    185.77783  0.028722609  0.029356159            2 
  540000    1.1706478   -7.2326584    187.16186  0.028883003  0.029346616            2 
  541000    1.1486439    -7.229968    187.86993  0.028938683  0.029337174            3 
  542000    1.1435508   -7.2412333    187.18249  0.028779596  0.029327993            1 
  543000    1.1562765   -7.2192493    188.30882   0.02889945  0.029318932            1 
  544000    1.1690354   -7.2496894    188.15147  0.028822223  0.029309513            2 
  545000    1.1392514   -7.2609306    188.23779  0.028782536  0.029299725            2 
  546000    1.1616433   -7.2278133    188.53011  0.028774437   0.02928998            5 
  547000    1.1764548   -7.2432331    188.66151  0.028741851   0.02928026            5 
  548000    1.1824017   -7.2278971    188.65399  0.028688259  0.029270372            3 
  549000    1.1487162   -7.1940815    189.71706  0.028797368  0.029260174            4 
  550000    1.1727136   -7.2248947    188.76533  0.028600808  0.029250115            3 
  551000    1.1921108   -7.2744627     189.4377   0.02865059  0.029239419            3 
  552000    1.1656291   -7.2420381    189.38259  0.028590367  0.029228688            6 
  553000     1.177181    -7.215522     190.0298  0.028636196  0.029218089            3 
  554000    1.1804322    -7.263057    190.38789  0.028638371  0.029207788            3 
  555000    1.1744091   -7.2372754    190.94545  0.028670488  0.029197394            2 
  556000    1.1686822   -7.2586389    190.84012  0.028603135   0.02918753            4 
  557000     1.180225    -7.243333    191.21286  0.028607549  0.029177063            2 
  558000    1.1870446   -7.2497262    191.31327  0.028571277  0.029166424            2 
  559000    1.1880222   -7.2387673    191.85782  0.028601345  0.029155971            2 
  560000    1.1557877   -7.2273981    191.27111  0.028462963  0.029145136            2 
  561000    1.1846048   -7.2198499    191.63803  0.028466731  0.029134515            2 
  562000    1.1537959   -7.2597258    191.65941  0.028419249  0.029122816            3 
  563000    1.1721361   -7.2424809     192.7032  0.028523269  0.029111924            1 
  564000    1.1431451   -7.2506813    193.20549  0.028546911  0.029100855            6 
  565000     1.155758   -7.2348097      192.642  0.028413275  0.029089875            7 
  566000    1.1730517    -7.214874    193.49086  0.028488054  0.029078707            2 
  567000    1.1559499   -7.2131832    193.08697  0.028378449  0.029067398            5 
  568000    1.1631773   -7.1694459    193.64883  0.028410921  0.029056045            2 
  569000    1.1466918   -7.2876363    192.93365  0.028256246  0.029044538            3 
  570000    1.1694574    -7.243354     194.5637  0.028444986  0.029032612            3 
  571000    1.1756377   -7.2214482    193.36825  0.028220701  0.029021059            3 
  572000    1.1674133   -7.2714011    193.88634  0.028246845  0.029009356            1 
  573000    1.1434828    -7.241568    193.82579  0.028188743  0.028996964            4 
  574000    1.1392211   -7.2601917    194.26281   0.02820308  0.028984238            2 
  575000    1.1407935   -7.3028783    194.64056  0.028208777  0.028971915            3 
  576000    1.1613345   -7.2735559    195.48362  0.028281774  0.028959481            2 
  577000     1.182883    -7.256799    195.60807  0.028250732  0.028947576            2 
  578000    1.1566697    -7.236913    196.30286  0.028302027  0.028936045            2 
  579000    1.1453386   -7.2580198    196.01967  0.028212388  0.028924491            1 
  580000    1.1653708   -7.2526645    196.70511  0.028262228  0.028913123            2 
  581000    1.1550569   -7.2671319    196.43308  0.028174567  0.028901113            8 
  582000    1.1705988   -7.2642455    196.78535  0.028176596  0.028888914            3 
  583000     1.165374   -7.2811635    197.04179  0.028164921  0.028876629            2 
  584000    1.1786104   -7.2576474    197.52502  0.028185648  0.028864443            2 
  585000     1.174933   -7.2721508    197.56553  0.028143237  0.028852714            3 
  586000    1.1426872   -7.3029941    197.59471  0.028099362  0.028840636            2 
  587000    1.1448034   -7.2279658    197.91945  0.028097594  0.028828287            3 
  588000    1.1593753   -7.2811198    198.16096  0.028084036  0.028816163            3 
  589000    1.1451428   -7.2258263    198.97361  0.028151331  0.028804115            2 
  590000    1.1395739   -7.2777616    198.48592  0.028034734  0.028791959            3 
  591000    1.1422815   -7.2344034    199.68206  0.028155959   0.02877984            1 
  592000    1.1743301     -7.31272    199.09232  0.028025382  0.028767623            3 
  593000    1.1715335   -7.2762968    199.95583   0.02809947  0.028755183            2 
  594000    1.1620488   -7.2798213    199.31432  0.027962167   0.02874265            2 
  595000    1.1625696   -7.2826303    199.89636  0.027996689  0.028730473            3 
  596000    1.1409444   -7.2269294    201.33721  0.028151176  0.028718785            4 
  597000    1.1598862   -7.2921061    201.30118  0.028098992  0.028707132            5 
  598000    1.1464847   -7.2534777    201.61999   0.02809643  0.028695862            2 
  599000    1.1630802   -7.2690419    202.35738  0.028152112  0.028684485            2 
  600000    1.1687173   -7.2523646     202.4496  0.028117999  0.028673628            5 
  601000    1.1603329   -7.2875964    202.51666  0.028080513  0.028663095            2 
  602000    1.1542825   -7.3100699    202.75654  0.028067074  0.028651806            4 
  603000     1.121466   -7.2710051    202.17039  0.027939523   0.02864074            3 
  604000    1.1555188   -7.3103219    202.89706  0.027993524  0.028629602            2 
  605000    1.1666336   -7.2356766    203.63847  0.028049377  0.028618573            3 
  606000    1.1512272    -7.247996    204.10994  0.028067923  0.028607786            3 
  607000    1.1607585   -7.2611584    204.43656  0.028066523  0.028596838            4 
  608000    1.1526724   -7.2658797    204.48384  0.028026843  0.028585627            2 
  609000    1.1518367    -7.242994    205.07907  0.028062271  0.028574574            2 
  610000    1.1618111   -7.2502491     205.0923  0.028018074  0.028563514            2 
  611000    1.1560816    -7.243864    205.53558  0.028032676  0.028552653            4 
  612000    1.1542284   -7.3127677    205.10392  0.027928094  0.028541716            2 
  613000    1.1574108   -7.2761665    205.59386  0.027949138  0.028530551            2 
  614000    1.1606061   -7.2762093    205.66112  0.027912747  0.028519837            4 
  615000    1.1356712   -7.2889635    205.67547  0.027869305  0.028509093            2 
  616000    1.1554941   -7.2721363    206.54423   0.02794159  0.028497865            4 
  617000    1.1398791   -7.2800487    207.40902  0.028013103  0.028486775            1 
  618000    1.1595856   -7.2612635    207.98296  0.028045168  0.028476194            3 
  619000     1.143519      -7.2698    208.15912  0.028023576  0.028466215            3 
  620000    1.1385878   -7.2310527    207.77206  0.027926351  0.028455728            2 
  621000    1.1390927   -7.3239104    207.70745  0.027872713  0.028445007            3 
  622000    1.1581935   -7.2532168    208.51156  0.027935632  0.028434145            4 
  623000    1.1437731   -7.2748671    209.18352  0.027980675  0.028423533            2 
  624000    1.1772446    -7.293206    209.29493  0.027950712    0.0284132            4 
  625000    1.1602202   -7.2784843    209.76307  0.027968409  0.028403428            3 
  626000    1.1488813    -7.269098    209.45602  0.027882856   0.02839325            2 
  627000    1.1344654    -7.341256    209.86965  0.027893362  0.028382577            1 
  628000    1.1488658   -7.2797964    210.38115  0.027916819  0.028371917            6 
  629000     1.175588   -7.2786953     210.6174  0.027903736  0.028361348            4 
  630000    1.1489054   -7.2802015    210.51343  0.027845692  0.028350811            1 
  631000     1.166481   -7.2888867    210.78543  0.027837484  0.028340109            1 
  632000    1.1550584   -7.2445118    210.97453  0.027818372  0.028329249            3 
  633000    1.1613841   -7.2891927    211.67755  0.027866976  0.028318858            2 
  634000    1.1276515   -7.2498863    212.19245    0.0278907   0.02830874            3 
  635000    1.1535462    -7.285108    211.78587  0.027793421  0.028298609            2 
  636000    1.1442297   -7.3307406    211.65692  0.027732825  0.028288045            3 
  637000    1.1637292   -7.3461679    211.77012  0.027704097  0.028277771            4 
  638000    1.1406195   -7.3056468    212.43094  0.027746989  0.028267818            2 
  639000    1.1507365   -7.2784285    213.26956  0.027812931  0.028257616            2 
  640000    1.1320352    -7.241679    213.96739  0.027860338  0.028247361            2 
  641000    1.1519698   -7.2267799    213.85954  0.027802852  0.028237441            2 
  642000    1.1435919   -7.3006773    213.85225  0.027758599  0.028227462            2 
  643000    1.1554842   -7.2777509    215.23821   0.02789505  0.028217714            3 
  644000    1.1552912   -7.2884562    214.97646  0.027817865  0.028207799            4 
  645000    1.1473966   -7.2821987    214.77186  0.027748302  0.028197382            2 
  646000    1.1512152   -7.3366207    214.23993   0.02763673  0.028187154            5 
  647000      1.13043    -7.342478    214.85902  0.027673754  0.028177114            7 
  648000    1.1262337   -7.3007987    216.42918  0.027832971  0.028167222            1 
  649000    1.1241337   -7.2705522    216.32208  0.027776332  0.028157988            2 
  650000     1.148471   -7.2525685    217.38928   0.02787042  0.028148803            4 
  651000    1.1646764   -7.2991132    216.57709  0.027723642  0.028139431            2 
  652000    1.1460034   -7.2677696    217.29398  0.027772748  0.028129566            2 
  653000    1.1171048   -7.2931227    217.20611  0.027719004  0.028119601            2 
  654000      1.14439   -7.2805579    216.67456  0.027608889  0.028109331            3 
  655000    1.1711886   -7.2699673    217.05877   0.02761562  0.028098958            3 
  656000    1.1250086   -7.2969982    217.47517  0.027626419  0.028088952            4 
  657000    1.1408145   -7.3079538    217.87551  0.027635148  0.028078993            3 
  658000    1.1529867    -7.260274    219.23768  0.027765663  0.028068955            3 
  659000    1.1486197   -7.3000055    218.09245  0.027578711  0.028058766            4 
  660000    1.1282161   -7.2923741    218.09541  0.027537299   0.02804879            4 
  661000    1.1442342   -7.2576531    220.01447  0.027737578  0.028038622            2 
  662000    1.1697237     -7.22441     219.6101  0.027644776  0.028028863            2 
  663000    1.1443304   -7.2801785    219.54248  0.027594581  0.028019063            4 
  664000    1.1586824   -7.3193925    219.15303  0.027504145  0.028008927            4 
  665000    1.1746422    -7.310118    219.79813  0.027543625  0.027998696            2 
  666000      1.17869   -7.2404117    220.38458  0.027575648  0.027989078            2 
  667000    1.1411042   -7.2828722    220.45375  0.027542947  0.027979723            2 
  668000    1.1601366   -7.2480273    222.18973  0.027718279  0.027970224            1 
  669000    1.1636625   -7.2505224     221.4492  0.027584604  0.027960638            2 
  670000    1.1364343   -7.2864703    221.63223  0.027566198  0.027950884            3 
  671000    1.1458595    -7.302765    221.93129  0.027562257  0.027941086            2 
  672000     1.170941   -7.3102793    222.28876  0.027565571  0.027931889            3 
  673000    1.1273209   -7.3117335     222.6866  0.027573873  0.027922498            3 
  674000    1.1547423   -7.3469846    222.25123  0.027479133  0.027913035            2 
  675000    1.1487071   -7.3810079    222.94929  0.027524603  0.027903409            2 
  676000    1.1321743   -7.2730928    223.72045  0.027578951  0.027894679            4 
  677000    1.1296792    -7.254417    224.32476    0.0276126  0.027885675            2 
  678000    1.1428158   -7.3561733    223.15878  0.027428562  0.027876604            4 
  679000    1.1396558   -7.3191737    223.91253  0.027480674  0.027867212            1 
  680000     1.139648   -7.3002978    225.27112  0.027606755  0.027858382            2 
  681000    1.1654012   -7.2693755    225.88811  0.027641717  0.027849959            1 
  682000    1.1576974   -7.3234337    225.90181   0.02760286  0.027841284            1 
  683000    1.1319817   -7.2993319    225.52174  0.027516074    0.0278321            1 
  684000    1.1324185   -7.2734971    226.57326  0.027603955  0.027823438            6 
  685000    1.1584105    -7.246719      227.005   0.02761618  0.027814871            2 
  686000    1.1640977   -7.2645267    227.19584  0.027599107  0.027806503            3 
  687000    1.1457683   -7.3073146    227.14784   0.02755311  0.027797726            9 
  688000    1.1573568   -7.3141417    226.88014  0.027480637  0.027789097            6 
  689000    1.1505977    -7.290584    227.47672  0.027512907   0.02778054            2 
  690000    1.1496616   -7.2798282    227.81869  0.027514334  0.027771726            2 
  691000    1.1284862   -7.3639373     226.6973  0.027339278  0.027762661            2 
  692000    1.1500988   -7.3079686    228.23976  0.027485521  0.027753761            3 
  693000     1.138471   -7.3047293    228.19903  0.027440961  0.027745049            4 
  694000    1.1145645   -7.2679373    229.14408  0.027514899  0.027736403            4 
  695000    1.1457746   -7.3077706    229.69042  0.027540817   0.02772814            1 
  696000    1.1372831   -7.3144465    229.61665  0.027492414  0.027719837            2 
  697000    1.1395129   -7.2765653    230.31615  0.027536603  0.027711482            3 
  698000    1.1412301   -7.3062563    230.37734  0.027504458   0.02770301            3 
  699000    1.1631749   -7.3374167    230.30506  0.027456493  0.027694649            4 
  700000    1.1466648   -7.2872189    230.65591  0.027459037  0.027686471            2 
  701000    1.1196116   -7.3118893    231.21558  0.027486398  0.027678166            2 
  702000    1.1451215   -7.3228364    230.68117  0.027383805  0.027669957            2 
  703000    1.1486841   -7.3410845     232.1826   0.02752283  0.027661891            2 
  704000    1.1385258   -7.2623729    233.00983  0.027581656  0.027654273            1 
  705000     1.117652   -7.3007515      232.873  0.027526359  0.027646714            2 
  706000    1.1215449   -7.2962793     233.3227  0.027540451  0.027638914            2 
  707000    1.1458316    -7.297924    233.56735  0.027530334  0.027631331            2 
  708000    1.1442244   -7.3266792     233.4401  0.027476472  0.027623222            3 
  709000    1.1301356   -7.3072222    232.92053  0.027376649  0.027615042            1 
  710000    1.1441333   -7.3130139    233.44826  0.027400031   0.02760665            2 
  711000     1.162893   -7.2920107    234.42062   0.02747546  0.027598623            5 
  712000    1.1469216   -7.2840772    234.70365  0.027469997  0.027590746            2 
  713000    1.1436919   -7.2691075    235.41031  0.027514061  0.027582866            2 
  714000    1.1201594   -7.2457309    235.06983  0.027435788  0.027575251            3 
  715000    1.1289718   -7.3052522    234.31168  0.027309053  0.027567247            4 
  716000    1.1335962    -7.300501    235.19036   0.02737318  0.027558623            7 
  717000    1.1504097   -7.3295708    234.91521  0.027303023  0.027550149            3 
  718000    1.1461931   -7.3340088    235.06692  0.027282604  0.027541753            6 
  719000     1.116897   -7.3486701    235.42448  0.027286101  0.027533299            6 
  720000    1.1062578   -7.2835501    235.43823  0.027249795  0.027525034            2 
  721000    1.1460938   -7.3352623    235.46724  0.027215354  0.027516444            3 
  722000    1.1386438   -7.3135462    236.72457  0.027322781  0.027507953            3 
  723000    1.1485567   -7.3421369    236.38858  0.027246263  0.027499463            1 
  724000    1.1534477   -7.3629313     236.1553  0.027181779  0.027490899            2 
  725000    1.1585046   -7.3163189    237.04282  0.027246302    0.0274826            2 
  726000    1.1368453   -7.3473264    237.06061  0.027210814  0.027474059            2 
  727000     1.138343   -7.3427653    237.01376  0.027168015   0.02746543            1 
  728000    1.1304701   -7.3808221    237.24748   0.02715745  0.027456814            4 
  729000    1.1554529   -7.3147039    237.61805  0.027162558  0.027448227            3 
  730000    1.1120057   -7.2946007     238.9274  0.027274817  0.027439686            3 
  731000    1.1601244   -7.3390756    238.43336  0.027181186  0.027431279            3 
  732000    1.1203749   -7.3733144    238.53266  0.027155357  0.027422416            2 
  733000    1.1432112   -7.3378459      238.484  0.027112778  0.027413599            3 
  734000     1.128383   -7.2695182    239.69827    0.0272137  0.027404775            2 
  735000     1.116896   -7.3258227    239.83493  0.027192169  0.027396603            2 
  736000    1.1509997   -7.2924116    240.11223   0.02718662  0.027388122            2 
  737000     1.104732   -7.3233569    239.89588  0.027125269  0.027379749            2 
  738000    1.1339846    -7.321203    240.07558  0.027108805  0.027371128            3 
  739000    1.1370818   -7.3195059    240.53593  0.027124034  0.027362375            2 
  740000    1.1397056   -7.3205911    241.08304  0.027148991    0.0273535            3 
  741000    1.1434227   -7.3239572    241.43162  0.027151554   0.02734479            2 
  742000    1.1318416   -7.3332134    241.67921  0.027142768  0.027336443            3 
  743000    1.1277384   -7.2812572    242.11267  0.027154853  0.027328268            3 
  744000    1.1193708    -7.345843    242.20556  0.027128759  0.027319916            3 
  745000    1.1419045   -7.2903658    242.72756  0.027150734  0.027311669            5 
  746000    1.1513851   -7.3155621    242.95204  0.027139415   0.02730368            4 
  747000    1.1098444   -7.3389621    243.03947  0.027112837  0.027295583            3 
  748000    1.1319817   -7.3258876    243.99241  0.027182755  0.027287278            3 
  749000    1.1267912   -7.3022192    244.23637  0.027173606  0.027279283            1 
  750000    1.1812014   -7.3491705    243.97392  0.027108213  0.027271324            3 
  751000    1.1111895   -7.3165404     244.7173  0.027154605  0.027263096            2 
  752000    1.1258111   -7.3421979    244.33141  0.027075732  0.027254896            3 
  753000     1.145291   -7.3541482    244.85112  0.027097291  0.027246829            2 
  754000    1.1425134   -7.3404114     244.5572  0.027028868  0.027238695            1 
  755000    1.1422367   -7.3138089    245.74809  0.027124513  0.027231039            1 
  756000    1.1362435   -7.3358408    245.52252  0.027063769  0.027223351            2 
  757000    1.1499704   -7.3024559    246.23525  0.027106479  0.027215855            3 
  758000    1.1446824   -7.3410977    246.06821  0.027052354  0.027208583            2 
  759000    1.1251372   -7.3443353    246.32511  0.027044918   0.02720081            3 
  760000    1.1675506   -7.3778509    246.14161  0.026989211  0.027192705            4 
  761000     1.123423   -7.3255455    248.25705  0.027185397  0.027185028            5 
  762000    1.1090272   -7.3157641    247.95903  0.027117129  0.027177193            3 
  763000     1.143526   -7.2846113    249.36608  0.027235264  0.027169531            3 
  764000    1.1336908   -7.3829328    247.85654  0.027034963  0.027162349            4 
  765000    1.1311107   -7.3280031    248.61156  0.027081869  0.027154963            2 
  766000    1.1246698   -7.3531569    248.81295  0.027068423  0.027147478            3 
  767000    1.1068246   -7.3379014    249.29087  0.027085057  0.027140511            4 
  768000    1.1229367   -7.3678864    249.87419  0.027113084    0.0271335            8 
  769000    1.1274848   -7.2980149    250.07659  0.027099761  0.027126654            2 
  770000    1.1296051   -7.3898833    250.14548  0.027072021  0.027119829            2 
  771000    1.1204886    -7.316077    250.70415  0.027097292  0.027112874            3 
  772000    1.1386819   -7.3193735    250.78399  0.027070811  0.027105783            2 
  773000    1.1491611   -7.3310082     250.2142  0.026974364   0.02709824            2 
  774000    1.1523025   -7.3133603    251.40718  0.027067956  0.027091026            4 
  775000    1.1069533    -7.318248    251.64874  0.027059005  0.027083676            8 
  776000    1.1309276    -7.306418    251.39548  0.026996937  0.027076409            3 
  777000    1.1075871   -7.3761097    251.77022  0.027002383  0.027069382            1 
  778000    1.1265941   -7.3388667    252.38185  0.027033189  0.027062136            2 
  779000    1.1304127   -7.3298169    252.85417  0.027049013  0.027055406           10 
  780000    1.1153286   -7.3554407    252.51696  0.026978307   0.02704838            2 
  781000    1.1402933   -7.3355703    252.72299  0.026965748   0.02704138            4 
  782000    1.1563469   -7.3287866    253.05473  0.026966616  0.027034554            2 
  783000    1.1240884   -7.3407179    254.02868  0.027035832  0.027027366            2 
  784000    1.1539296   -7.3307832    254.25322  0.027025214  0.027020581            3 
  785000    1.1402133   -7.3768665     254.2166    0.0269869  0.027013795            5 
  786000    1.1403119   -7.3231335    254.65975  0.026999549  0.027006977            8 
  787000    1.1055851   -7.3719729    254.34898  0.026932335  0.027000001            2 
  788000    1.1048726   -7.3349662    255.92491  0.027064817  0.026993554            2 
  789000    1.1193327   -7.3224857    255.46978  0.026982444  0.026987048            2 
  790000    1.1332388   -7.3406971    255.69303  0.026971838  0.026980174            2 
  791000    1.1019117   -7.3601963    255.97882  0.026967848  0.026973612            4 
  792000    1.1225851   -7.3213658    256.94506  0.027035465    0.0269669            2 
  793000    1.1454767   -7.3426173    256.90063  0.026996704  0.026960439            2 
  794000     1.114562   -7.3486981    256.59868  0.026931011  0.026953506            2 
  795000    1.1195873   -7.3182018    258.20644  0.027065664  0.026946956            4 
  796000    1.1354672     -7.35465    257.34228  0.026941194  0.026940403            4 
  797000    1.1048076   -7.3731491    257.08197  0.026880172  0.026933523            4 
  798000    1.1157961    -7.371184    257.67401  0.026908314  0.026926806            4 
  799000    1.1127656   -7.3273501    258.60097  0.026971315  0.026920212            2 
  800000    1.1289911    -7.387324    257.99197  0.026874164  0.026913716            2 
  801000    1.1091193   -7.2999844    259.66949  0.027015137  0.026907483            2 
  802000    1.1179805   -7.3412642    260.03577  0.027019511  0.026901141            2 
  803000    1.1199385   -7.3627324    259.71822  0.026952908  0.026894677            2 
  804000    1.1347101   -7.3659261    259.71018  0.026918551  0.026888337            3 
  805000    1.0989123    -7.358273    261.12913  0.027032001  0.026882189            5 
  806000    1.1449667   -7.3408377    260.64852  0.026948771  0.026876091            3 
  807000     1.130988   -7.3213634    262.48278  0.027104789  0.026870056            2 
  808000    1.1102618   -7.3110925    261.64577  0.026984919  0.026863878            2 
  809000    1.1152119   -7.3935754    261.02868  0.026887997  0.026857581            2 
  810000    1.1060562   -7.3636746    261.20916  0.026873371  0.026851206            2 
  811000    1.1160946   -7.3193623    262.26394  0.026948617  0.026844947            4 
  812000    1.1131773   -7.3642654    261.77173  0.026864914  0.026838595            5 
  813000    1.1153639   -7.3260195    262.15948  0.026871616  0.026832227            3 
  814000    1.1561532   -7.3379014    262.99692  0.026924336  0.026825792            3 
  815000     1.108071   -7.3673961    262.11593  0.026801219  0.026819585            2 
  816000    1.1120485   -7.3360762    262.47276  0.026804816  0.026812993            5 
  817000    1.1313089   -7.3751178    262.39166  0.026763735  0.026806426            8 
  818000    1.1095761   -7.3258574    263.80329  0.026874826  0.026799809            4 
  819000    1.1232625    -7.361263    263.16538  0.026777104  0.026793175            2 
  820000    1.1106559   -7.3570352    263.65466  0.026794173   0.02678662            4 
  821000    1.1296474   -7.3772175    264.18142  0.026815004  0.026779962            5 
  822000    1.1125681    -7.333712    263.91904  0.026755783  0.026773353            4 
  823000    1.1332418   -7.3562971     265.4137  0.026874615  0.026766766            3 
  824000    1.1285381    -7.367428    264.93106  0.026793189  0.026760391            3 
  825000    1.1231979   -7.3943259     265.7097  0.026839364  0.026753719            4 
  826000    1.1043698   -7.3411207    266.33851   0.02687031  0.026747458            4 
  827000    1.1208171   -7.4004281     265.2776  0.026730915  0.026741388            3 
  828000    1.1079136   -7.3421187    266.91335   0.02686326  0.026734836            1 
  829000    1.1054011   -7.3507241    266.87058  0.026826557  0.026728471            1 
  830000    1.1000529   -7.3485872    266.77277  0.026784414  0.026722219            1 
  831000    1.1215143   -7.3085915    267.88593  0.026863812   0.02671586            2 
  832000    1.1290037   -7.4243291    266.60734   0.02670346  0.026709331            4 
  833000    1.1203934   -7.3866338    267.17794  0.026728485  0.026703125            5 
  834000    1.1223446   -7.3486253    268.13373   0.02679194   0.02669675            3 
  835000    1.1112422   -7.3361008    268.23613  0.026770073  0.026690221            2 
  836000    1.1322968   -7.3870686    267.55597  0.026670252  0.026683663            3 
  837000    1.1217043   -7.3832756    268.55192  0.026737546  0.026676962            2 
  838000     1.115137   -7.3930474    268.15461  0.026666131   0.02667034            4 
  839000    1.1204231   -7.3702172    268.76378  0.026694853  0.026663785            2 
  840000     1.137696    -7.357355    269.66816  0.026752794  0.026657311            1 
  841000    1.1154162   -7.3746605    268.62385  0.026617504  0.026650699            2 
  842000    1.1143052    -7.350143    269.30444  0.026653251  0.026644103            2 
  843000    1.1049191   -7.3376323    269.31105  0.026622287  0.026637119            1 
  844000    1.1207331   -7.3627264    269.57761  0.026617062  0.026630272            1 
  845000    1.1421544   -7.2989739    270.43917  0.026670529  0.026623185            2 
  846000    1.0987759   -7.3777297    269.80004  0.026576048  0.026616251           10 
  847000    1.1246473   -7.3326712     270.2126  0.026585262  0.026609067            2 
  848000    1.1059931   -7.4031489    270.43786  0.026576048  0.026602057            2 
  849000    1.1021727   -7.3442275    270.75731  0.026576101  0.026595378            3 
  850000    1.1194376   -7.3895127    270.49367  0.026518987  0.026588207            3 
  851000    1.1371156   -7.4187103    269.88125  0.026427855  0.026580756            4 
  852000    1.0910128   -7.3648769    270.34695  0.026442385  0.026573311            3 
  853000     1.120541   -7.3751716    271.15182  0.026490018  0.026566019            2 
  854000    1.1026885   -7.3780271    271.25691  0.026469253  0.026558388            2 
  855000    1.1383674   -7.3713118    271.67716  0.026479255   0.02655098            2 
  856000    1.1214622   -7.3828176    272.19245  0.026498486  0.026543453            4 
  857000    1.1527834   -7.3497159    271.62995   0.02641287  0.026535745            2 
  858000    1.0987614   -7.3975626    271.52286  0.026371684  0.026528005            2 
  859000    1.1295649   -7.3796478    271.80622  0.026368473  0.026520185            1 
  860000    1.1137399   -7.3859342     271.8175  0.026338905  0.026512121            3 
  861000    1.1135997   -7.3790592    272.17125  0.026342552  0.026504153            4 
  862000    1.1237802   -7.3777339    273.12129  0.026403837  0.026496178            2 
  863000    1.1232325   -7.3705545    273.57493  0.026417046  0.026488435            3 
  864000    1.1271534   -7.3459904    274.08933  0.026436085  0.026480988            3 
  865000    1.1391541   -7.4200725    273.05793  0.026306159  0.026473252            2 
  866000    1.1361305   -7.3680178    273.64766  0.026332531  0.026465575            5 
  867000    1.0984119   -7.4113178    274.88798  0.026421375  0.026457745            3 
  868000    1.1109894   -7.4012327    273.65119  0.026272195  0.026449865            4 
  869000    1.0896583   -7.4067414    274.07168  0.026282286   0.02644223            2 
  870000      1.11433   -7.3888301    273.81329  0.026227327  0.026434389            4 
  871000    1.0937557   -7.3361915      275.075  0.026317929   0.02642655            4 
  872000    1.0903534   -7.3736952     274.6415  0.026246321  0.026418842            2 
  873000     1.107446   -7.4041759    275.44473  0.026292929  0.026410617            5 
  874000    1.1016411   -7.3871444    275.17968  0.026237575  0.026402298            3 
  875000    1.1084462   -7.3585162    275.35206  0.026224006  0.026393984           11 
  876000    1.1286215   -7.3546545    275.62513  0.026220047  0.026385785            2 
  877000    1.1442706   -7.3918548    275.67124   0.02619453  0.026377306            2 
  878000     1.126937   -7.3560739    275.89364  0.026185805  0.026368751            2 
  879000    1.0871717   -7.3647917    277.04131  0.026264818  0.026360698            5 
  880000    1.1255193   -7.3621785    276.77774  0.026210013  0.026352714            2 
  881000    1.1049619   -7.3375494    277.09305  0.026210087  0.026344927            5 
  882000    1.1103812   -7.3419979    277.05486  0.026176763  0.026337197            3 
  883000    1.1153401   -7.4050696    277.35316   0.02617527  0.026328981            3 
  884000    1.1260914   -7.4032038    276.98633   0.02611108  0.026321003            3 
  885000    1.1325864   -7.4098758    276.28605  0.026015636  0.026312884            2 
  886000    1.1131973   -7.3747491    278.49372  0.026193917    0.0263047            3 
  887000    1.1167365   -7.3402678    278.45669  0.026160907  0.026296715            2 
  888000    1.0930172    -7.356315    278.49924  0.026135439  0.026288973            3 
  889000    1.1147551   -7.3763721    280.09513  0.026255636  0.026281114            2 
  890000     1.085593   -7.4043177    278.26044  0.026054349  0.026273013            2 
  891000      1.09713   -7.3902896    279.13614  0.026107009  0.026265023            2 
  892000    1.1091543   -7.3797585    279.77728  0.026137638  0.026257063            2 
  893000    1.1284719   -7.3715821    280.58486  0.026183731  0.026249518            1 
  894000    1.1055528   -7.3711728    280.58444  0.026154403  0.026241772            2 
  895000    1.1011153   -7.3697041    280.96767  0.026160864  0.026234374            2 
  896000    1.1225372   -7.3767058    281.29013  0.026161656  0.026226753            2 
  897000    1.1078056   -7.3414157    282.25168  0.026221821  0.026219322            2 
  898000    1.1100782   -7.3936017    281.25593  0.026100217  0.026211943            3 
  899000    1.1155519   -7.3531892     282.0597   0.02614569  0.026204484            3 
  900000    1.1122412   -7.3738625    281.91415  0.026103162  0.026197077            5 
  901000    1.0985974   -7.3968053    282.10636  0.026091968  0.026189363            2 
  902000    1.0902468   -7.3571167    282.72845  0.026120515  0.026181688            7 
  903000    1.1180517   -7.4163281    282.31597  0.026053523  0.026173654            8 
  904000    1.1088232   -7.4226237    282.10447  0.026005206  0.026165566            3 
  905000    1.1277303   -7.3965775    282.58013  0.026020269  0.026157667            4 
  906000    1.1177237   -7.3759651     282.2484  0.025961038   0.02614975            3 
  907000    1.1031904   -7.3651916    282.45307  0.025951219  0.026141704            1 
  908000    1.1237003   -7.4075214    281.84763  0.025867073  0.026133302            1 
  909000    1.0895905    -7.411329    281.87738  0.025841344  0.026124515            2 
  910000    1.1211367   -7.3728799    283.00935  0.025916607  0.026115983            3 
  911000    1.0901301   -7.4556882    282.08216  0.025803344  0.026107389            6 
  912000    1.0928078   -7.4074815    283.58206  0.025912103   0.02609861            2 
  913000    1.1184472   -7.3963008    284.01993  0.025923689  0.026090143            5 
  914000    1.0994288   -7.4075313    284.94222  0.025979415  0.026081716            2 
  915000    1.1305825   -7.3749159    284.25725  0.025888639  0.026073429            6 
  916000    1.1158187   -7.4026819    284.06674  0.025843044  0.026065372            2 
  917000    1.1106266   -7.4315012    284.94539   0.02589471  0.026057259            3 
  918000    1.1117111   -7.3947959    285.37771  0.025905747   0.02604908            4 
  919000    1.1144947   -7.4415386    284.04212  0.025756449    0.0260408            3 
  920000    1.0875543   -7.3946673    285.66372  0.025875337  0.026032816            2 
  921000    1.1065557   -7.3904093    285.60513  0.025841941  0.026024773            5 
  922000    1.0992855   -7.3743596    286.59113   0.02590303  0.026016423            3 
  923000    1.1100792   -7.4068582    285.89084  0.025811741   0.02600828            3 
  924000    1.1056586   -7.4228497    286.53041  0.025841487  0.026000269            2 
  925000    1.1327001   -7.4529052     286.1153  0.025776153  0.025991826            3 
  926000    1.0829966    -7.351595    287.97734  0.025915887  0.025983682           10 
  927000    1.0998085   -7.4477064    287.16915  0.025815278  0.025975507            3 
  928000    1.0926852   -7.4193258    287.26123  0.025795729  0.025966959            2 
  929000    1.0825378   -7.4317783    287.03387  0.025747566  0.025958425            5 
  930000    1.0908332   -7.4118541    287.56031  0.025767053  0.025950089            2 
  931000    1.0951058   -7.4071635    289.17332  0.025883756  0.025942076            1 
  932000    1.0960587    -7.421777    289.16727  0.025855442  0.025933922            7 
  933000    1.0807154   -7.4446514    288.38412  0.025757782   0.02592567            4 
  934000    1.0998467   -7.4190254    288.66632  0.025755382    0.0259174            1 
  935000    1.1135425   -7.4175427    288.39515  0.025703667  0.025909075            1 
  936000    1.1200149   -7.4124518    288.51286  0.025686687  0.025900693            4 
  937000    1.0931826   -7.3950574     289.5877  0.025754865  0.025892528            2 
  938000    1.0779064    -7.420403    289.16591  0.025689935  0.025884229            2 
  939000    1.1029316   -7.3994735    289.98466  0.025735238  0.025876032            2 
  940000    1.0991064   -7.4181431    289.46872   0.02566212  0.025867646            4 
  941000    1.0940867   -7.4220116    290.59549  0.025734634  0.025859468            2 
  942000     1.110498   -7.4304471    289.62063  0.025621075  0.025851335            4 
  943000    1.0804035   -7.4092333    290.92695  0.025709345  0.025843154            2 
  944000    1.0920504   -7.4206183    290.27044  0.025624156  0.025835102            2 
  945000    1.1089645   -7.4019828     291.2804  0.025686102  0.025826929            3 
  946000    1.1262818     -7.44579    292.39395  0.025757042  0.025818639            3 
  947000    1.0960407   -7.4383493    291.32815  0.025636057  0.025810435            4 
  948000    1.0897228   -7.4102009    291.08427  0.025587577  0.025802216            4 
  949000    1.1307552   -7.3834486    291.83673  0.025626689  0.025794172            3 
  950000     1.096038   -7.3940825    291.47133  0.025567661  0.025785925            4 
  951000    1.1041328   -7.3896672    293.07329  0.025681151   0.02577769            1 
  952000    1.1058258   -7.3940794    292.55388  0.025608708   0.02576949            3 
  953000    1.0895274   -7.3684532    293.78242  0.025689264  0.025761235            3 
  954000    1.0927624    -7.409935     292.9127  0.025586364  0.025753007            3 
  955000    1.1220484     -7.41018    292.18302  0.025495901   0.02574476            3 
  956000    1.0992742   -7.3728418    292.29864   0.02547931  0.025736463            3 
  957000    1.1246147   -7.4131819     291.9908   0.02542588  0.025728078            4 
  958000    1.1040755   -7.4268639    292.93194  0.025481205  0.025719553            2 
  959000    1.1084142   -7.4219051    293.30906  0.025487406  0.025711173            4 
  960000    1.1029549   -7.3924408    293.90336  0.025512445  0.025702886            5 
  961000      1.09718   -7.3638868    295.54575  0.025628317  0.025694707            2 
  962000    1.1002214   -7.4305169    294.72311  0.025530415  0.025686595            2 
  963000    1.0658426   -7.3810271    295.39463  0.025562014  0.025678455            6 
  964000    1.0896924   -7.4343673    295.44305  0.025539683  0.025670054            2 
  965000    1.0959702    -7.448677    294.84008  0.025461147  0.025661776            1 
  966000    1.1066713   -7.3829387    295.62371  0.025502391   0.02565335            2 
  967000    1.1215011    -7.451443    294.14127  0.025348265   0.02564492            7 
  968000    1.1041005   -7.4174799    296.24614  0.025503284  0.025636322            4 
  969000    1.0745648   -7.3717066    295.97182  0.025453373  0.025627888            2 
  970000    1.0812118   -7.4053855    295.69407   0.02540327  0.025619668            6 
  971000    1.0844792   -7.4142207     296.6606  0.025460058  0.025611245            2 
  972000    1.0776499   -7.4339458    296.26117   0.02539962  0.025602817            4 
  973000    1.1031396    -7.421153    296.91822   0.02542979  0.025594266            3 
  974000    1.1082426   -7.4511154    296.60192  0.025376619   0.02558582            3 
  975000    1.0828418   -7.4006241    297.89658  0.025461246  0.025577679            1 
  976000    1.1150409   -7.4188444    297.56209  0.025406599  0.025569401            1 
  977000    1.0885176   -7.4403593    297.59666  0.025383543    0.0255609            4 
  978000    1.0994652     -7.40749    297.65795  0.025362811  0.025552396            2 
  979000    1.1087714   -7.4119619    297.86966  0.025354925  0.025544065            2 
  980000    1.0760303   -7.4165887    298.57597  0.025389113  0.025535366            3 
  981000    1.1150788   -7.4531366    297.73022  0.025291388  0.025526969            2 
  982000    1.0999346   -7.4144023    299.14057  0.025385317  0.025518492            2 
  983000    1.0924915   -7.4255371    298.25766  0.025284644  0.025509976            4 
  984000    1.1014939   -7.4125328    299.17706  0.025336811  0.025501524            3 
  985000    1.0904123    -7.421516    299.67672   0.02535336  0.025493126            2 
  986000    1.1055895   -7.4769032    299.00604  0.025270963  0.025484731            3 
  987000    1.0989117   -7.4220475    299.84493  0.025316188  0.025476358            2 
  988000    1.0924217   -7.4239908    300.04489   0.02530743  0.025467975            2 
  989000    1.0918374   -7.4183828    300.35479  0.025307954  0.025459688            2 
  990000    1.0706731   -7.4418514    300.49943  0.025294565  0.025451584            2 
  991000    1.1052948    -7.399533    301.19715  0.025327712   0.02544342            2 
  992000    1.0861901   -7.4069242    301.37168  0.025316842  0.025435456            3 
  993000    1.1063905    -7.448894    301.53259  0.025304849  0.025427317            3 
  994000    1.1081269   -7.4556565    301.29473  0.025259451  0.025419231            4 
  995000    1.1028486    -7.422235    301.96033   0.02528981  0.025411012            2 
  996000    1.0771561   -7.4471748     302.0159  0.025269068   0.02540271            6 
  997000    1.1077776   -7.4685171    302.10421  0.025251104  0.025394548            4 
  998000    1.1189688   -7.4708904    301.22736  0.025152585  0.025386093            8 
  999000    1.0965088   -7.4786349     302.6349   0.02524482  0.025377867            4 
 1000000    1.0877446   -7.4488134    302.86224   0.02523852  0.025369532            3 
 1001000    1.0993202   -7.4272287    303.37129  0.025255685  0.025361334            4 
 1002000    1.0729701   -7.4115296    303.52566  0.025243318  0.025353145            2 
 1003000    1.0686564   -7.4166281    303.37977  0.025206029  0.025344962           10 
 1004000    1.0649968   -7.3825255    303.83194  0.025218454  0.025336814            4 
 1005000    1.0967109   -7.4267423     304.0491  0.025211368   0.02532869            4 
 1006000    1.0975604    -7.460362    303.32667  0.025126464   0.02532034            2 
 1007000    1.0735681   -7.4387451    303.56922  0.025121584  0.025312005            6 
 1008000      1.08956   -7.4606141    303.30384  0.025074722  0.025303832            4 
 1009000    1.1099524   -7.4338124    303.56766   0.02507166  0.025295607            3 
 1010000    1.1118227   -7.4370895    304.10335  0.025091035  0.025287185            2 
 1011000    1.0876076   -7.4286769    304.26383  0.025079446  0.025278763            2 
 1012000    1.0851998   -7.4050861    304.75952  0.025095481  0.025270231            4 
 1013000    1.1145155   -7.4434562    303.95997  0.025004933  0.025261909            3 
 1014000    1.0989958   -7.4713053    304.40433  0.025016793   0.02525326            1 
 1015000    1.0632535   -7.4547401    305.03706  0.025044093  0.025244629            2 
 1016000    1.1013947   -7.4114317    304.74001  0.024995079  0.025236058            2 
 1017000    1.0933167    -7.397238    306.44247  0.025110003  0.025227822            4 
 1018000    1.1082805   -7.4724155    305.41631  0.025001335  0.025219507            6 
 1019000     1.102754   -7.4247483    307.15741  0.025119187  0.025211199            3 
 1020000    1.0929619   -7.4328802    307.98174  0.025161907  0.025203016            2 
 1021000    1.1057149    -7.409685    307.08666  0.025064207   0.02519483            5 
 1022000    1.0804079   -7.4496809    306.97573  0.025030637  0.025186828            3 
 1023000    1.1023233   -7.4163093    309.17579  0.025185385  0.025178993            5 
 1024000    1.0529481   -7.4238692    307.64148  0.025035928  0.025170977            3 
 1025000    1.0882313   -7.4133578    308.36312  0.025070172  0.025163036            2 
 1026000    1.0810877   -7.4276946    307.84485  0.025003643  0.025154981            4 
 1027000    1.1157217   -7.4296417    308.30602  0.025016717   0.02514691            8 
 1028000    1.1020811   -7.4435478    308.67449  0.025022251  0.025138898            3 
 1029000    1.0786159   -7.4178147    308.90252  0.025016401  0.025130635            5 
 1030000    1.0943736   -7.4773276    308.09578  0.024926843  0.025122358            4 
 1031000     1.086913   -7.4767494    308.69837  0.024951372  0.025114075            9 
 1032000    1.0865562   -7.4861428    308.65397  0.024923609  0.025105661            3 
 1033000    1.0922408   -7.4880652    308.46017  0.024883847  0.025097236            4 
 1034000    1.0975324   -7.4395562    309.99274  0.024983296  0.025088883            9 
 1035000    1.0912856   -7.4376377    309.48254  0.024918079  0.025080435            4 
 1036000     1.076775   -7.4279113    310.66731  0.024989327  0.025072261            2 
 1037000    1.0780929   -7.4658618    310.17564  0.024925719  0.025063894            2 
 1038000    1.0882599   -7.4536687    310.25308  0.024907922  0.025055472            2 
 1039000    1.0824873   -7.4571883     310.2517  0.024883838  0.025047093            3 
 1040000    1.0787692   -7.5128382    310.29417  0.024863315  0.025038533            3 
 1041000    1.1111502   -7.4446522    310.70467  0.024872292   0.02503018            5 
 1042000    1.0782573   -7.4245397    311.46063  0.024908879  0.025021924            2 
 1043000    1.0895559   -7.4116852    311.22205  0.024865936  0.025013868            4 
 1044000    1.0776008   -7.4617095    311.31181  0.024849282  0.025005753            3 
 1045000     1.093048    -7.433155    311.60768  0.024849097  0.024997379            3 
 1046000    1.0920333   -7.4570037    311.00582  0.024777392  0.024989005            1 
 1047000     1.088607   -7.4764525    311.80931  0.024817678   0.02498076            3 
 1048000    1.0591126   -7.4877861    311.55009  0.024773385   0.02497254            4 
 1049000    1.0757185    -7.479271    312.25052  0.024805412  0.024964221            2 
 1050000    1.0764812   -7.5063234    312.79373  0.024824899  0.024955981            4 
 1051000    1.1072429    -7.490358    312.62641  0.024788012  0.024947797            1 
 1052000    1.0971002   -7.4162334    313.88107  0.024863836  0.024939869            3 
 1053000    1.0767034   -7.4481634    313.34729  0.024797981  0.024931833            2 
 1054000    1.0780678   -7.4795439    313.47579  0.024784613  0.024923549            3 
 1055000    1.0803696   -7.4340113    314.62526  0.024851916  0.024915503            1 
 1056000    1.0865043   -7.4437838    314.86155  0.024847029  0.024907178            6 
 1057000    1.0641442   -7.4470563    314.94024  0.024829726  0.024899072            6 
 1058000    1.1013961   -7.4427882    314.47007  0.024769224  0.024890804            5 
 1059000    1.1124845    -7.485212    313.16035  0.024642772  0.024882321            7 
 1060000    1.0846802   -7.4413752    314.50367  0.024725131  0.024874057            3 
 1061000    1.0713778   -7.4709173    314.40962  0.024694441  0.024865871            3 
 1062000    1.0882845   -7.4519962    315.83758  0.024783237  0.024857658            5 
 1063000    1.1131349   -7.4928293    315.14475  0.024705609  0.024849548            2 
 1064000    1.0927965   -7.4748393    315.76958  0.024731327  0.024841424            5 
 1065000    1.0692134   -7.4997928    315.22396  0.024665412   0.02483336            3 
 1066000    1.0842618   -7.4475204    315.99116  0.024702248  0.024825089            2 
 1067000    1.1027896   -7.4668173     316.0214  0.024681459  0.024816936            4 
 1068000    1.0530516   -7.4712704    316.57286  0.024701378  0.024808812            3 
 1069000    1.0705288   -7.4340883    317.66647  0.024763523  0.024800935            7 
 1070000    1.1069272   -7.4539571    318.08364  0.024772869  0.024792954            5 
 1071000    1.0871424   -7.4970796    316.37693  0.024616941  0.024784762            6 
 1072000    1.0633557    -7.459933    316.71448  0.024620217  0.024776623            3 
 1073000    1.0860522   -7.4572148    316.80805  0.024604539  0.024768361            6 
 1074000     1.067085   -7.4446697    317.71198  0.024651768  0.024760024            7 
 1075000    1.0867242    -7.487374    317.25373  0.024593313  0.024751609            1 
 1076000    1.0748242   -7.5157022    317.86769  0.024618006  0.024743204            3 
 1077000    1.0808333   -7.4807268    317.44839  0.024562704   0.02473477            3 
 1078000    1.0724863   -7.4525661    317.46505  0.024541207  0.024726412            1 
 1079000    1.0800424   -7.4640492    317.65404  0.024533059  0.024718133            2 
 1080000    1.0782339   -7.4859412    317.54734  0.024502109  0.024709606            2 
 1081000    1.0838555   -7.5129857    317.46927  0.024473425  0.024701021            2 
 1082000    1.0917746   -7.4668747    317.96247  0.024488792  0.024692354            3 
 1083000    1.1146274   -7.4687512    318.35127  0.024496097  0.024683758            3 
 1084000    1.0696951   -7.4620444    318.88826   0.02451478  0.024675247            4 
 1085000    1.0692039   -7.4524041      319.306   0.02452427  0.024666975            3 
 1086000    1.0546427   -7.4790598    319.66814  0.024529476  0.024658476            4 
 1087000    1.0784577   -7.5036919    318.07471  0.024384753  0.024649744            4 
 1088000    1.0591984   -7.4665915    318.86238   0.02442267  0.024641053            4 
 1089000    1.0779373   -7.4973553    318.59015  0.024379412  0.024632528            2 
 1090000    1.0579506   -7.4376991    320.80343  0.024526256  0.024624003            5 
 1091000    1.1080233   -7.4845742    320.03736  0.024445261   0.02461567            4 
 1092000    1.0587791   -7.5250165    318.40533  0.024298331  0.024607183            2 
 1093000    1.0778698   -7.4845341    319.84709  0.024386024  0.024598654            3 
 1094000    1.0636006    -7.521235     320.0716  0.024380835  0.024590025            2 
 1095000    1.0663214   -7.4547401    320.50826  0.024391801  0.024581454            4 
 1096000    1.1061916   -7.4731445    320.65905  0.024381011  0.024572851            3 
 1097000    1.0770406   -7.4826071    320.80922  0.024370193  0.024564246            3 
 1098000    1.0809282   -7.4385876    322.44524  0.024472165  0.024555714            3 
 1099000    1.0675117   -7.5449954    320.31489   0.02428836   0.02454699            3 
 1100000    1.0564535   -7.4819999    321.85192  0.024382721  0.024538376            2 
 1101000    1.0649614   -7.4178368    323.04127  0.024450596  0.024529879            3 
 1102000    1.0712675   -7.4552773    321.65181  0.024323337  0.024521572            2 
 1103000    1.0755348    -7.439979    323.52093    0.0244425  0.024513362            3 
 1104000    1.0847116   -7.4825353    322.11796  0.024314459  0.024504957            3 
 1105000    1.0744614    -7.478353    323.89063  0.024426141  0.024496657            3 
 1106000    1.0774604   -7.4780043    322.88826  0.024328531  0.024488311            6 
 1107000    1.0907388   -7.4981633    322.52515  0.024279219  0.024479942            3 
 1108000    1.0768962   -7.5010365    321.92267  0.024211994  0.024471482            4 
 1109000    1.0757399   -7.4949532    323.28614  0.024292616  0.024463137            2 
 1110000    1.0625553   -7.4853826    323.47738  0.024285088  0.024454766            3 
 1111000    1.0810261     -7.52033    322.16895  0.024165088  0.024446189            4 
 1112000    1.0653727    -7.498976     323.5594  0.024247557   0.02443747            3 
 1113000    1.0727157   -7.4814669    324.02648  0.024260742  0.024428981            8 
 1114000    1.0748079   -7.4985168     323.9214  0.024231104  0.024420415            3 
 1115000    1.0718471   -7.5216953    324.17894  0.024228621  0.024411722            3 
 1116000    1.0499315   -7.4925685    323.81216  0.024179522   0.02440317            4 
 1117000    1.0753946   -7.4285109    325.32704  0.024270892  0.024394642            2 
 1118000    1.0777214   -7.4679001     324.9184  0.024218724  0.024386083            3 
 1119000    1.0687959   -7.4917004    324.95959  0.024200148  0.024377525            3 
 1120000    1.0803486   -7.4416076    326.00243  0.024256133  0.024368954            1 
 1121000    1.0734877   -7.4977163    323.94638  0.024081652   0.02436035            3 
 1122000    1.0750142   -7.4854897    325.10445  0.024146201  0.024351784            6 
 1123000    1.0777879   -7.5355076    324.44214  0.024075552  0.024342984            3 
 1124000    1.0825406   -7.5161684    325.28974  0.024116974  0.024334369            2 
 1125000    1.0616662    -7.480119    326.34915  0.024174011  0.024325865            2 
 1126000    1.1003214   -7.4620446     326.5974  0.024170915  0.024317433            5 
 1127000      1.08919   -7.4836141    326.85366  0.024168416  0.024309096            3 
 1128000    1.0705565   -7.5238099    325.91351  0.024077535  0.024300685            4 
 1129000    1.0449977   -7.4836053    326.69657  0.024114007   0.02429208            2 
 1130000    1.0658697   -7.4880155    326.94844  0.024111242  0.024283603            5 
 1131000    1.0790757   -7.5030798    326.70674  0.024072115  0.024275158            5 
 1132000    1.0853631   -7.4414746    327.46866  0.024106939  0.024266726            3 
 1133000    1.0709696   -7.4839909    327.24112  0.024068926  0.024258263            2 
 1134000    1.0632248   -7.4782672    327.90726  0.024096653    0.0242498            4 
 1135000     1.073071   -7.4863566    328.34241  0.024107372  0.024241476            5 
 1136000    1.0671505   -7.4821225    328.13187  0.024070707  0.024232963            2 
 1137000    1.0682568   -7.5180809    328.12948  0.024049361  0.024224351            3 
 1138000    1.0725845   -7.5421207    328.51684  0.024056593   0.02421569            3 
 1139000    1.0889287   -7.4802588    328.10958  0.024005676  0.024207168            4 
 1140000    1.0609419   -7.5197547    328.01348  0.023977593  0.024198581            6 
 1141000    1.0573258    -7.474082    328.70975  0.024007431   0.02418994            2 
 1142000    1.0740355   -7.5067942    328.75281  0.023989551  0.024181253            5 
 1143000    1.0744209   -7.5109438    328.60181  0.023957554   0.02417254            5 
 1144000    1.0678351   -7.5199494    329.62717  0.024011303  0.024163946            3 
 1145000    1.0484095   -7.5083262    328.92075  0.023938919  0.024155387            2 
 1146000    1.0592169   -7.4886396    330.26799  0.024015997  0.024146729            2 
 1147000    1.0693423   -7.4942543    328.53394  0.023869074  0.024137884            7 
 1148000    1.0595234   -7.5089937    329.43605  0.023913766   0.02412884            3 
 1149000    1.0786739     -7.49551    330.04663  0.023937238  0.024120066            2 
 1150000    1.0807941   -7.5659637    328.54836  0.023807852  0.024111358            3 
 1151000    1.0827169   -7.5172175     330.8469  0.023953584  0.024102359            5 
 1152000    1.0544197   -7.4897851    329.79809  0.023856922   0.02409366            3 
 1153000    1.0752071   -7.5004684    331.02155  0.023924657  0.024084909            4 
 1154000    1.0492016   -7.5096606    331.41748  0.023932516  0.024076075            5 
 1155000    1.0647978   -7.5135828     331.8903  0.023945909  0.024067559            5 
 1156000    1.0689815   -7.5696341    330.40053    0.0238178  0.024058886            4 
 1157000    1.0522537   -7.5343948     330.6529  0.023815392  0.024050171            7 
 1158000    1.0635641   -7.5320612    331.58919  0.023862204  0.024041405            4 
 1159000     1.060817   -7.5218712    331.24492  0.023816862   0.02403266            2 
 1160000    1.0794976   -7.5274021    331.10254  0.023786102  0.024023899            4 
 1161000    1.0522296   -7.4895806    331.93901  0.023825654   0.02401531            7 
 1162000    1.0607473   -7.5130649    331.62471   0.02378261  0.024006754            6 
 1163000    1.0664798   -7.5105488    333.06264  0.023865193  0.023998178            1 
 1164000    1.0612724   -7.5019316    331.95996  0.023765747  0.023989725            2 
 1165000    1.0703512   -7.5093784    332.74644  0.023801605   0.02398115            3 
 1166000    1.0541234   -7.5314974    332.29871  0.023749193   0.02397251            3 
 1167000    1.0805882   -7.5560542    332.21606  0.023722941  0.023963827            4 
 1168000    1.0751802   -7.4801811    333.55087  0.023797864  0.023955119            3 
 1169000    1.0768119   -7.5127698    331.91937  0.023661204  0.023946437            6 
 1170000    1.0500786   -7.5509593    333.26451  0.023736789  0.023937657            5 
 1171000    1.0674005   -7.5178688    333.61837    0.0237417  0.023929006            3 
 1172000    1.0930875   -7.5059379    333.89743  0.023741285  0.023920327            2 
 1173000    1.0620113   -7.5432327      334.169  0.023740338  0.023911583            6 
 1174000    1.0630262   -7.5615306    332.44813  0.023597965  0.023902634            2 
 1175000     1.062296   -7.5208356    334.53961  0.023726214  0.023893762            2 
 1176000    1.0817077   -7.4787346    335.14315  0.023748806  0.023885036            2 
 1177000    1.0602737   -7.5436525     334.2786  0.023667417  0.023876426            4 
 1178000    1.0693612    -7.491529    335.15601  0.023709395  0.023867749            4 
 1179000    1.0586094   -7.5068543    335.33436  0.023701891  0.023859183            4 
 1180000    1.0862332   -7.5011877    335.82409   0.02371639  0.023850744            3 
 1181000    1.0738472   -7.5391613    335.06648   0.02364285  0.023842312            8 
 1182000    1.0944511   -7.4978351    336.78221  0.023743811  0.023833813            3 
 1183000     1.073529   -7.5154184    336.22741  0.023684658  0.023825435            3 
 1184000    1.0439022   -7.5694222    335.38586  0.023605424  0.023816928            4 
 1185000    1.0736812   -7.5588714    336.97615  0.023697338  0.023808214            4 
 1186000    1.0634885   -7.5523814    335.75779   0.02359175  0.023799732            4 
 1187000    1.0727518    -7.502249    337.08055  0.023664739  0.023791185            3 
 1188000    1.0676778   -7.4886036    336.84225  0.023628104  0.023782643            3 
 1189000    1.0761301    -7.520635    337.56827  0.023659116  0.023774286            5 
 1190000     1.060864   -7.5293221    337.55083  0.023638013  0.023765949            4 
 1191000    1.0745068   -7.5162945    337.77129  0.023633591  0.023757649            1 
 1192000    1.0576662   -7.4807975    339.00015  0.023699675  0.023749473            5 
 1193000    1.0581284   -7.5041885    338.45946  0.023642041  0.023741249            2 
 1194000    1.0492834   -7.5085128     337.9037  0.023583452  0.023732911            3 
 1195000    1.0563976   -7.5102012    338.51747  0.023606518  0.023724734            2 
 1196000    1.0548041    -7.509768    337.86382  0.023541236  0.023716281            3 
 1197000    1.0581204   -7.4798846    339.63092  0.023644592  0.023707988            2 
 1198000     1.087701    -7.522243    339.26286  0.023599253  0.023699586            3 
 1199000    1.0601251   -7.5401983    339.24299  0.023578189  0.023691284            2 
 1200000    1.0769754   -7.4782688     340.1898  0.023624292  0.023683152            5 
 1201000    1.0543749   -7.4979224    339.95663  0.023588442  0.023674963            4 
 1202000    1.0733806   -7.5361567    340.09864  0.023578663   0.02366665            4 
 1203000    1.0512368   -7.5195217    339.43665  0.023513206  0.023658247            6 
 1204000     1.061539   -7.5448476    340.14965  0.023543027  0.023649994            5 
 1205000    1.0485116   -7.5214806    340.92073  0.023576814  0.023641725            8 
 1206000    1.0591764   -7.5133285    339.72348  0.023474535  0.023633421            7 
 1207000    1.0521437   -7.5207523    340.52269  0.023510266  0.023624923            1 
 1208000    1.0503345   -7.5574233    339.72737  0.023435939  0.023616544            4 
 1209000    1.0553088   -7.5378981    340.55554  0.023473638  0.023608128            5 
 1210000    1.0401964   -7.5404696    340.86679  0.023475674  0.023599777            4 
 1211000    1.0660872   -7.5407354    340.30354   0.02341753  0.023591287            1 
 1212000     1.062481   -7.5139538    341.32987  0.023468775  0.023582911            8 
 1213000    1.0573691   -7.5193518    340.86076    0.0234172  0.023574478            3 
 1214000    1.0661083   -7.5110786    342.05456  0.023479857  0.023566086            4 
 1215000    1.0988245   -7.5029813    341.69575  0.023435922  0.023557881            3 
 1216000    1.0596498   -7.5130427    341.61219  0.023410923   0.02354951            3 
 1217000    1.0671318    -7.512606    342.97676  0.023485125  0.023541204            2 
 1218000    1.0256815   -7.5469244     342.2651  0.023417153  0.023532863            2 
 1219000    1.0515503   -7.5205683    343.57277  0.023487337  0.023524501            4 
 1220000    1.0608971   -7.5454983    342.76418  0.023412854  0.023516266            1 
 1221000    1.0551377   -7.5533661    342.30985  0.023362671  0.023507764            5 
 1222000    1.0681801   -7.5350617    342.26138  0.023340247   0.02349953            2 
 1223000    1.0458984   -7.5420011    342.94273  0.023367589   0.02349108            3 
 1224000    1.0502557   -7.5510354    343.67213  0.023398157  0.023482635            5 
 1225000    1.0436936     -7.54148    342.93911  0.023329191  0.023474187            2 
 1226000    1.0648917   -7.5395591    343.42266   0.02334303  0.023465843            4 
 1227000    1.0489282   -7.5357052    343.04983  0.023298684  0.023457596            3 
 1228000    1.0454048    -7.534569    344.64916  0.023388244  0.023449284            3 
 1229000    1.0631367   -7.5831363     343.6862  0.023303919  0.023440926            4 
 1230000    1.0671487   -7.5529821    344.85241  0.023363985  0.023432458            6 
 1231000    1.0631057   -7.5361362    344.66386  0.023332241  0.023424169            4 
 1232000    1.0570954   -7.4974401    344.45913  0.023299454  0.023415982            2 
 1233000    1.0416683   -7.5418683    344.90988  0.023311022  0.023407803            2 
 1234000    1.0552548    -7.485429    345.66439  0.023343084  0.023399651            2 
 1235000     1.084591   -7.5224607    346.53751  0.023383098  0.023391652            4 
 1236000    1.0472628   -7.5600906    345.74014   0.02331042  0.023383586            2 
 1237000    1.0677435   -7.5315085    346.16521  0.023320211  0.023375409            4 
 1238000    1.0462459   -7.5516955    347.22264  0.023372552  0.023367328            2 
 1239000    1.0474442   -7.5577813    346.10383  0.023278439  0.023359156            5 
 1240000    1.0646138   -7.5413754    346.71142  0.023300499  0.023351131            2 
 1241000    1.0592298   -7.5180107    346.63956  0.023276897  0.023343029            2 
 1242000    1.0188512   -7.5246406    347.11879  0.023290311  0.023334872            2 
 1243000    1.0822849   -7.5538431    346.34396  0.023219627   0.02332668            3 
 1244000    1.0484841   -7.4958708    348.65959  0.023356082   0.02331852            3 
 1245000    1.0710803   -7.5222567    347.55047  0.023263084  0.023310566            2 
 1246000    1.0468116   -7.5816604     347.1006  0.023214326  0.023302494           10 
 1247000    1.0542853   -7.5619344    347.81497  0.023243449  0.023294283            6 
 1248000    1.0748025   -7.5567115    347.93415  0.023232783  0.023286038            3 
 1249000     1.054273   -7.5518535    347.35601  0.023175608  0.023277914            2 
 1250000    1.0307991   -7.5289986    348.56949  0.023237966   0.02326991            8 
 1251000    1.0710757    -7.553199    348.54764  0.023217935  0.023261954            3 
 1252000     1.070702   -7.5498081    348.33442  0.023185198  0.023254035            3 
 1253000    1.0424503   -7.5172744    349.69738  0.023257341  0.023246122            2 
 1254000    1.0581711   -7.5257634    348.98993  0.023191781  0.023238132            4 
 1255000    1.0590325   -7.5668157    348.91365  0.023168237   0.02323005            2 
 1256000    1.0597921   -7.5482837     349.8878  0.023214424  0.023222011            7 
 1257000    1.0448244   -7.5945181    348.97147  0.023135207  0.023213978            3 
 1258000     1.052814   -7.5468406    349.97056     0.023183  0.023206059            5 
 1259000    1.0607841   -7.5431266    349.77743  0.023151803  0.023198095            3 
 1260000     1.055526   -7.5446379    350.42069  0.023175971  0.023190195            2 
 1261000    1.0395563   -7.5446677    350.64355   0.02317232   0.02318219            2 
 1262000    1.0525506   -7.5225861    349.94272  0.023107681  0.023174192            2 
 1263000     1.037841   -7.5102893    351.53753  0.023194611  0.023166331            5 
 1264000    1.0583819   -7.5879245    349.80537  0.023062063  0.023158353            3 
 1265000     1.051224    -7.542214    350.97056   0.02312059  0.023150326            5 
 1266000    1.0377332   -7.5331272    351.26482  0.023121697  0.023142426            3 
 1267000    1.0421282   -7.5170942    352.26191  0.023169029  0.023134706            3 
 1268000    1.0605694   -7.5386478    352.66856  0.023177482  0.023126808            2 
 1269000    1.0399186   -7.5746091    351.94197  0.023111503  0.023119074            6 
 1270000     1.040822   -7.5555694    352.01984  0.023098414  0.023111177            4 
 1271000    1.0421649   -7.5611881    352.10923  0.023086102   0.02310326            5 
 1272000    1.0539939   -7.5842157    352.22315  0.023075416  0.023095334            4 
 1273000    1.0308631   -7.5417171    353.54813  0.023144026  0.023087453            2 
 1274000    1.0723155   -7.5303584     352.9828   0.02308888  0.023079747            2 
 1275000    1.0399126    -7.529163    354.20705  0.023150788  0.023072105            4 
 1276000    1.0546007   -7.5820886    352.27629   0.02300655  0.023064463            4 
 1277000    1.0445639   -7.5397807      353.459  0.023065714   0.02305683            1 
 1278000    1.0410893   -7.5926696    353.85182   0.02307328  0.023049135            4 
 1279000    1.0379974   -7.5930124    352.70692  0.022980644   0.02304149            3 
 1280000    1.0473685   -7.5700745     353.8512  0.023037187   0.02303377            7 
 1281000    1.0503749   -7.5521811    355.16563  0.023104712  0.023026046            8 
 1282000      1.05105   -7.5435918     354.7671  0.023060784  0.023018461            5 
 1283000    1.0700136   -7.6121724    354.31534  0.023013467   0.02301081            5 
 1284000    1.0456373   -7.5956153    354.74522  0.023023444  0.023003178            3 
 1285000    1.0277742   -7.5645228    354.66604  0.023000392  0.022995515            4 
 1286000    1.0518626   -7.5796825    355.40265  0.023030239  0.022987805            2 
 1287000    1.0501061   -7.5825019     354.0011  0.022921594  0.022980115            1 
 1288000    1.0510189   -7.5873622    354.52248  0.022937531   0.02297237            4 
 1289000    1.0386805   -7.5848041    353.77085  0.022871144  0.022964552            2 
 1290000    1.0551245   -7.5992691    355.47185  0.022963298  0.022956791            5 
 1291000    1.0417427   -7.5744301    356.25382  0.022995986  0.022949105            2 
 1292000    1.0587273    -7.565793     356.6668  0.023004824  0.022941445            4 
 1293000    1.0419627    -7.599085    357.97586  0.023071401  0.022933889            6 
 1294000    1.0380085   -7.5682419    357.46248   0.02302051  0.022926306            4 
 1295000    1.0494165   -7.5736406    356.92556  0.022968183  0.022918742            3 
 1296000    1.0519489    -7.589958    357.92897   0.02301498  0.022911042            3 
 1297000    1.0476107   -7.5778343    357.15194   0.02294731  0.022903274            6 
 1298000    1.0463164   -7.5746239    357.03361  0.022922034  0.022895549            2 
 1299000    1.0434072   -7.5662112    356.18653  0.022850047  0.022887775            3 
 1300000    1.0432485   -7.5751846    357.36867  0.022908248  0.022880041            4 
 1301000    1.0384728   -7.5743619    357.58533  0.022904518  0.022872274            2 
 1302000    1.0261668    -7.588446    358.11207   0.02292064    0.0228645            3 
 1303000    1.0232684   -7.5569798    357.48749  0.022863104   0.02285675            3 
 1304000    1.0376314   -7.5747175    358.33862  0.022899963  0.022848948            2 
 1305000    1.0584237   -7.5530212    359.45511  0.022953711  0.022841305            3 
 1306000    1.0342427   -7.5845078    359.17708  0.022918395  0.022833823            3 
 1307000    1.0440866   -7.5483066    359.40335  0.022915286  0.022826311            2 
 1308000    1.0324132   -7.5626464    359.00541  0.022872414   0.02281868            3 
 1309000    1.0174527   -7.6173513    357.98638  0.022790068  0.022811006            3 
 1310000     1.050111   -7.5544521    359.14164   0.02284616  0.022803332            3 
 1311000    1.0216459   -7.5566995    360.80293  0.022934333  0.022795624            4 
 1312000    1.0614303   -7.5561632    360.01594  0.022866866  0.022788094            2 
 1313000     1.020702    -7.560947    359.67677  0.022827924  0.022780615            4 
 1314000    1.0203444   -7.6256851    358.06317  0.022708217  0.022773044            5 
 1315000    1.0723723   -7.6094059    359.26813  0.022767309  0.022765372            4 
 1316000    1.0464108   -7.5653516    360.08223  0.022801559  0.022757776            4 
 1317000    1.0527761    -7.577479    361.04144   0.02284494   0.02275014            9 
 1318000    1.0523185   -7.5523497    361.85705  0.022879176  0.022742574            2 
 1319000    1.0278116    -7.597006    360.52211   0.02277749  0.022735028            4 
 1320000    1.0400306   -7.5727304    360.91915    0.0227853  0.022727457            2 
 1321000    1.0438603   -7.5721832    361.53514   0.02280691  0.022720051            7 
 1322000    1.0371293   -7.5294818    363.20632  0.022895003   0.02271273            7 
 1323000    1.0314631   -7.5955033    361.70984  0.022783437  0.022705386            2 
 1324000    1.0441718    -7.594134    361.27849  0.022739079  0.022697912            4 
 1325000    1.0470169   -7.6162612    361.99393  0.022766914  0.022690324            3 
 1326000    1.0518266   -7.6014451    361.65255   0.02272829  0.022682895            2 
 1327000    1.0261361   -7.5875894    362.32218  0.022753214  0.022675331            2 
 1328000    1.0418823   -7.5706158    362.61558  0.022754492  0.022667723            4 
 1329000     1.054353    -7.553319    363.22894   0.02277583  0.022660208            2 
 1330000    1.0082824    -7.562678    362.35098  0.022703695  0.022652754            8 
 1331000    1.0142072   -7.5628972     364.2881   0.02280792  0.022645267            2 
 1332000    1.0327962   -7.5771843    362.85185  0.022700941   0.02263787            5 
 1333000    1.0446073   -7.6057994    363.39741  0.022718018  0.022630384            2 
 1334000    1.0664973   -7.5764721     363.0726  0.022680697  0.022622845            2 
 1335000    1.0153818   -7.6215317    362.61253  0.022634989  0.022615383            3 
 1336000    1.0214276   -7.5923921    363.91693  0.022699409  0.022607877            3 
 1337000    1.0469805   -7.5741415    363.11357  0.022632359   0.02260039            3 
 1338000    1.0605317   -7.5934504    364.05273  0.022673937  0.022592903            3 
 1339000     1.055843   -7.6194804    364.58212   0.02268995  0.022585461            3 
 1340000    1.0335771   -7.5679834    364.97727  0.022697591  0.022577988            1 
 1341000    1.0245535   -7.5924307    364.92237  0.022677254   0.02257075            3 
 1342000    1.0455403   -7.5862943    364.74636  0.022649426  0.022563362            3 
 1343000    1.0163688   -7.6062244    365.31361  0.022667759  0.022555987            2 
 1344000    1.0495315   -7.6494789    362.87782  0.022499865  0.022548565            2 
 1345000    1.0366067   -7.5603457    365.76526  0.022662036   0.02254119            4 
 1346000    1.0799801   -7.6228478    365.95213  0.022656769    0.0225337            2 
 1347000     1.067915    -7.592601    366.05473  0.022646296  0.022526395            4 
 1348000    1.0298444   -7.5513946    366.91833  0.022682884  0.022519247            4 
 1349000    1.0217779   -7.6301314    364.83688  0.022537489  0.022511953            4 
 1350000    1.0274228   -7.5943575    366.44064  0.022619793  0.022504564            2 
 1351000    1.0450552   -7.6113285    366.58396   0.02261189  0.022497222            3 
 1352000    1.0367637   -7.5984325    366.51012  0.022590614  0.022489987            6 
 1353000    1.0191385    -7.627016    366.80779  0.022592251  0.022482561            6 
 1354000    1.0268335   -7.5898908    365.96577  0.022523742  0.022475174            2 
 1355000     1.038646   -7.6188893    366.63711  0.022548408  0.022467714            2 
 1356000    1.0621417   -7.5780413    366.55336  0.022526632  0.022460334            3 
 1357000     1.033977   -7.5802091    367.38673  0.022561209  0.022452887            3 
 1358000     1.052708   -7.5959078    367.89745  0.022575936    0.0224455            2 
 1359000    1.0410597   -7.5703554    368.05895  0.022569227  0.022438141            4 
 1360000    1.0415535   -7.5750938    368.84829  0.022600998  0.022430806            4 
 1361000     1.028536   -7.5934621    367.97821  0.022531118  0.022423519            3 
 1362000    1.0639068   -7.5826862     369.3462  0.022598274  0.022416151            2 
 1363000    1.0333592   -7.5885648    368.52704  0.022531612  0.022408796            2 
 1364000    1.0106023   -7.5928726    368.00594  0.022483257  0.022401517            4 
 1365000    1.0383292   -7.5635448    369.16354  0.022537457  0.022394248            2 
 1366000    1.0188198   -7.6076862     369.5999  0.022547578  0.022386887            5 
 1367000     1.031457   -7.5934866    368.30513  0.022452153  0.022379437            2 
 1368000    1.0464986   -7.6103343    367.98685  0.022416353  0.022371938            3 
 1369000    1.0203356   -7.6119915    369.78684  0.022509547  0.022364426            5 
 1370000    1.0484906   -7.6159498    368.36686  0.022406744     0.022357            5 
 1371000     1.028396   -7.6183922    369.60607  0.022465722  0.022349682            2 
 1372000    1.0241225    -7.613893    369.90656    0.0224676  0.022342353           13 
 1373000    1.0362643   -7.6145407      369.991  0.022456361  0.022335057            4 
 1374000    1.0475928   -7.6270064    369.56983  0.022414473    0.0223277            4 
 1375000     1.044602   -7.5692073    371.67105  0.022525518   0.02232045            4 
 1376000    1.0265548   -7.5868737    370.97915  0.022467245  0.022313255            4 
 1377000    1.0499874   -7.6025556    370.52128  0.022423219  0.022305967            4 
 1378000    1.0246741   -7.5977546    370.72551  0.022419298  0.022298715            2 
 1379000    1.0134829   -7.5756722    371.55345  0.022453073  0.022291469            3 
 1380000    1.0339342   -7.6125882    370.89537  0.022397064  0.022284379            6 
 1381000     1.034247   -7.5889746    371.41134  0.022411981  0.022277263            2 
 1382000    1.0216253   -7.5947345    371.06964  0.022375159  0.022269918            4 
 1383000    1.0383476   -7.6016898    370.73641  0.022338901  0.022262619            3 
 1384000    1.0271381   -7.6131038    372.00329  0.022399042  0.022255321            2 
 1385000    1.0231386   -7.6389157    371.35384  0.022343793  0.022248114            2 
 1386000    1.0421467    -7.595252    372.73048  0.022410443  0.022240933            7 
 1387000     1.032755    -7.611473    371.77503   0.02233688  0.022233735            3 
 1388000   0.99899071   -7.6083027    372.16878  0.022344427  0.022226624            3 
 1389000     1.007836    -7.582997    373.73299  0.022422186   0.02221947            6 
 1390000    1.0171551   -7.6190282    372.90667  0.022356515  0.022212357            5 
 1391000    1.0252167   -7.6467276     371.6524  0.022265301  0.022205057            4 
 1392000     1.039293   -7.5899909    374.12416  0.022397279  0.022197888            4 
 1393000    1.0453316   -7.5990802    373.17564  0.022324458  0.022190811            3 
 1394000    1.0506687   -7.5864434    373.97451  0.022356199  0.022183809            2 
 1395000    1.0262849   -7.6008545    374.23233  0.022355575   0.02217672            6 
 1396000    1.0375406    -7.668538    372.93105  0.022261882  0.022169462            2 
 1397000    1.0230199   -7.6792505    372.31195  0.022209016  0.022162178            8 
 1398000    1.0083669   -7.6340307    374.29794  0.022311513  0.022154943            3 
 1399000    1.0426648    -7.643954     373.6966  0.022259745  0.022147713            2 
 1400000    1.0277216   -7.6476639    373.28189   0.02221916  0.022140502            6 
 1401000    1.0228433   -7.6601642    374.28492  0.022262962  0.022133214            5 
 1402000    1.0311761    -7.670112     373.4145  0.022195346  0.022125945            4 
 1403000    1.0146465   -7.6731638    373.42649  0.022180238  0.022118692            3 
 1404000    1.0328806   -7.6257047    374.37501  0.022220739  0.022111422            4 
 1405000    1.0168671    -7.626853    374.56278  0.022216061  0.022104177            4 
 1406000    1.0291036   -7.6208337    375.09199  0.022231626  0.022096884            4 
 1407000    1.0194691   -7.5807129    375.32164  0.022229427  0.022089635            7 
 1408000    1.0395869   -7.5978821    375.46817  0.022222311  0.022082568            7 
 1409000    1.0292922   -7.6357492    376.45226  0.022264742  0.022075372            3 
 1410000    1.0414945   -7.6246647    375.64306  0.022201126   0.02206811            3 
 1411000    1.0191888   -7.6548504    375.75014  0.022191716   0.02206085            1 
 1412000   0.99654564   -7.6059826    376.70897  0.022232588  0.022053712            1 
 1413000    1.0297278   -7.5940475    376.59024  0.022209851  0.022046643            3 
 1414000    1.0129256   -7.6218957    376.27743  0.022175709  0.022039452            3 
 1415000    1.0307823   -7.6341738    376.10174   0.02214969  0.022032302            2 
 1416000    1.0347167   -7.6325488    375.88998  0.022121585  0.022025206            4 
 1417000     1.027986   -7.6526976    376.55352  0.022144997  0.022018118            5 
 1418000    1.0375469   -7.5998063    377.36521  0.022177081  0.022011109            1 
 1419000    1.0121693   -7.6066096    377.19094  0.022151218  0.022004059            4 
 1420000    1.0016125     -7.61956    377.68867  0.022164828  0.021996901            4 
 1421000    1.0221999   -7.6372905    377.81274  0.022156506  0.021989789            6 
 1422000     1.019223   -7.6399828    378.19189  0.022163144  0.021982746            3 
 1423000    1.0429068   -7.6449771    377.64176  0.022115353  0.021975612            3 
 1424000    1.0093836    -7.643329    377.16201  0.022071747  0.021968451            2 
 1425000    1.0346192   -7.6007248    379.55201  0.022196024  0.021961442            2 
 1426000     1.024447   -7.6271897    377.58921  0.022065756  0.021954459            2 
 1427000    1.0198074   -7.6500425    378.32092  0.022093022  0.021947493            5 
 1428000    1.0167629   -7.5996346    379.51599  0.022147292  0.021940547            3 
 1429000   0.98062253   -7.6271245    379.65281  0.022139772  0.021933642            2 
 1430000   0.99436209   -7.5846865    380.39135  0.022167328  0.021926764            3 
 1431000    1.0366351   -7.6640305    379.50632  0.022100298   0.02191977            5 
 1432000    1.0268913   -7.6146905    379.10208  0.022061341  0.021912699            7 
 1433000     1.011073   -7.6455595    379.41664  0.022064238  0.021905527            3 
 1434000    1.0412486   -7.6378611    379.38255  0.022046871  0.021898451            4 
 1435000    1.0057073   -7.6354141    379.81194  0.022056443  0.021891482            4 
 1436000    1.0346383   -7.6295062    380.04754  0.022054755  0.021884494            2 
 1437000    1.0345887   -7.5851134    381.28004  0.022110881  0.021877621            3 
 1438000    1.0525378   -7.6277274    381.44869  0.022105279  0.021870764            2 
 1439000    1.0144853   -7.6375755    380.78132   0.02205127   0.02186381            2 
 1440000    1.0216511   -7.6312598    381.00037  0.022048632  0.021856854            3 
 1441000    1.0105569   -7.6471523    380.92132   0.02202876  0.021849881            3 
 1442000    1.0168443   -7.6051953    381.64545  0.022055331  0.021842964            3 
 1443000    1.0277423    -7.618519    381.59519  0.022037144  0.021836091            4 
 1444000    1.0053737   -7.6197823    382.52617   0.02207561   0.02182926            6 
 1445000     1.047782   -7.5861805    382.78961  0.022075526  0.021822506            3 
 1446000     1.017784   -7.6548527    381.83941  0.022005499  0.021815634           10 
 1447000    1.0220129   -7.6036187    381.35679  0.021962496  0.021808727            4 
 1448000    1.0106188   -7.6484649    382.62995    0.0220206  0.021801697            5 
 1449000   0.98837694   -7.6344202    382.14527  0.021977529  0.021794644           16 
 1450000    1.0270433   -7.6389045    380.82959  0.021886758  0.021787579            2 
 1451000    1.0427664   -7.6338211    381.47445   0.02190871  0.021780587            3 
 1452000    1.0078207   -7.5846098    383.07975  0.021985752  0.021773635            3 
 1453000    1.0466935   -7.6242665    382.40318  0.021931818  0.021766668            3 
 1454000    1.0044729   -7.6736486    381.64705  0.021873398  0.021759639            7 
 1455000    1.0167814   -7.5937473    382.60086  0.021912993  0.021752482            4 
 1456000    1.0219083   -7.6322074    382.48616  0.021891378  0.021745413            3 
 1457000    1.0145411   -7.6361886    382.19397  0.021859641  0.021738335            5 
 1458000    1.0193752   -7.6031911    383.55702  0.021922555  0.021731355            3 
 1459000     1.006555   -7.6282897    384.19268  0.021943836  0.021724332           11 
 1460000    1.0138702   -7.6567576    382.92652  0.021856537  0.021717355            5 
 1461000    1.0011551   -7.6240317    383.31433  0.021863697  0.021710217            4 
 1462000    1.0252744   -7.6324444      383.453  0.021856646  0.021703218            1 
 1463000     1.030171    -7.660682    383.85998  0.021864889  0.021696196           10 
 1464000    1.0042684   -7.6440416    384.34713  0.021877683  0.021689254            3 
 1465000    1.0395626   -7.6314176    384.73638  0.021884891  0.021682291            8 
 1466000    1.0192808   -7.7127975    383.70923  0.021811575  0.021675261            6 
 1467000    1.0136597   -7.6548529    383.95348  0.021810582  0.021668333            2 
 1468000    1.0364797   -7.6639977    384.68839  0.021837443  0.021661358            2 
 1469000    1.0229789   -7.6539591    384.46952  0.021810161  0.021654302            3 
 1470000    1.0313342   -7.6991715    384.03657  0.021770781  0.021647152            7 
 1471000    1.0077917   -7.6272139    385.45173  0.021836151  0.021640067            3 
 1472000    1.0155252   -7.6365967    386.21299  0.021864413  0.021633052            4 
 1473000   0.99120086   -7.6101061    385.54059  0.021811529  0.021626108            4 
 1474000     1.011095    -7.612176    385.96976  0.021820995  0.021619216            1 
 1475000    1.0050736   -7.6417535    386.32198  0.021826101  0.021612444            6 
 1476000    1.0109369   -7.5952512    387.98017  0.021904933  0.021605489            2 
 1477000    1.0422248       -7.643    385.59163  0.021755339  0.021598558            6 
 1478000    1.0412618    -7.658232    386.47565  0.021790463  0.021591759            4 
 1479000   0.99647189   -7.6615822     386.6745  0.021786934  0.021584777            9 
 1480000      1.02232   -7.6221206    387.38177  0.021812036  0.021577912            6 
 1481000    1.0113248   -7.6547519    386.71444  0.021759759  0.021571085            3 
 1482000    1.0141539   -7.6688872    385.50063  0.021676823  0.021564072            3 
 1483000    1.0106058   -7.6769712    386.93511  0.021742813  0.021557079            3 
 1484000    1.0213372   -7.5801785    387.51222  0.021760569  0.021550195            4 
 1485000    1.0182054   -7.6194869    388.23158  0.021786284  0.021543384            8 
 1486000    1.0299364    -7.648749    388.33837  0.021777612   0.02153651            2 
 1487000    1.0111287   -7.6520998    388.31939  0.021761902  0.021529603            5 
 1488000   0.98975181   -7.6450011    388.50694  0.021757781  0.021522729            7 
 1489000    1.0426426   -7.6813931    387.40013  0.021681225  0.021515831            5 
 1490000    1.0054665   -7.6535703    387.25412  0.021658508   0.02150879            4 
 1491000   0.98737745   -7.6696385    386.93128  0.021625938  0.021501838            2 
 1492000    1.0275474   -7.6472723    388.45597  0.021696603  0.021494828            3 
 1493000    1.0163439   -7.6554131    387.80717  0.021645857  0.021487812            6 
 1494000    1.0320619    -7.623203    388.88162    0.0216913  0.021480821            4 
 1495000   0.98973086   -7.6809203    387.28132  0.021587587   0.02147384            2 
 1496000    1.0011444   -7.6635555    388.71628  0.021653091  0.021466816            1 
 1497000    1.0388635   -7.6707815    388.31177  0.021616108  0.021459735            2 
 1498000    1.0149215   -7.6412423    389.87597  0.021688694  0.021452621            3 
 1499000     1.035954   -7.6395105    388.77617  0.021613085  0.021445571            2 
 1500000    1.0045238   -7.6841735    387.71931  0.021539961  0.021438403            3 
 1501000    1.0069755   -7.6755856    388.50538  0.021569253  0.021431261            4 
 1502000    1.0191691   -7.6663951     388.6633  0.021563654  0.021424191            1 
 1503000    0.9935848   -7.6376196    389.26814  0.021582842  0.021417207            5 
 1504000   0.98859492   -7.6657647    389.71301  0.021593141  0.021410271            3 
 1505000    1.0040542   -7.6564454    389.98882  0.021594065  0.021403318            4 
 1506000    1.0103324   -7.6864915    389.16455  0.021534116   0.02139639            5 
 1507000    1.0233025   -7.6749019    389.77124  0.021553375  0.021389423            3 
 1508000   0.97568233   -7.6774147    389.03665  0.021498488  0.021382335            3 
 1509000    1.0051077    -7.683641    390.82201  0.021582837  0.021375339           12 
 1510000    1.0338264   -7.6628115    390.16464  0.021532265  0.021368266            4 
 1511000    1.0124293   -7.6403558    391.36188  0.021584044  0.021361285            4 
 1512000    1.0204946   -7.6699136      390.073  0.021498732  0.021354285            4 
 1513000    1.0094743   -7.6870835    389.53328  0.021454796  0.021347175            3 
 1514000    1.0021481   -7.6672997    390.83535  0.021512294  0.021340069            4 
 1515000    1.0221378   -7.6987383    390.43124  0.021475866  0.021332996            8 
 1516000    1.0142209   -7.6573425    391.07428  0.021497047  0.021326107            5 
 1517000    1.0129064   -7.6277158    392.25821  0.021547913  0.021319142            7 
 1518000    1.0278803   -7.6531084     390.6784  0.021446992  0.021312218            2 
 1519000    1.0099729   -7.6605853    391.57237  0.021481916  0.021305146            5 
 1520000   0.99859037   -7.6884836    390.85165   0.02142827  0.021298015            2 
 1521000    1.0094107   -7.6740132    391.06538  0.021425892  0.021290884            4 
 1522000    1.0177159   -7.6579152    391.34938  0.021427364  0.021283793            2 
 1523000    1.0116142   -7.6409357    392.49031  0.021475723  0.021276643            1 
 1524000   0.99224941   -7.6735067    391.64802  0.021415574  0.021269539            8 
 1525000   0.99056533   -7.6334714    392.07342  0.021424777  0.021262451            3 
 1526000   0.99599309   -7.6507749    391.47331  0.021377966  0.021255341            2 
 1527000   0.98575808   -7.7115784     391.1831  0.021348128  0.021248211            3 
 1528000   0.98952472   -7.6424574    391.79473  0.021367514  0.021241082            2 
 1529000   0.98989019   -7.6294185    392.56057  0.021395278  0.021234039            5 
 1530000    1.0332242   -7.6604672    392.19886  0.021361594  0.021227018            4 
 1531000    1.0054285   -7.6589589    393.63023  0.021425551  0.021219963            4 
 1532000   0.98092904   -7.6606529    392.23326  0.021335578  0.021212879            4 
 1533000    1.0049575   -7.6787444    391.92638  0.021304978  0.021205808            7 
 1534000    1.0061451   -7.6839054    392.90778  0.021344403  0.021198733            2 
 1535000    1.0162386   -7.6476727    393.65629  0.021371134  0.021191599            2 
 1536000    1.0108797   -7.6644688    392.52539  0.021295865  0.021184477            4 
 1537000   0.98158219   -7.6639009    394.12671   0.02136883  0.021177305            2 
 1538000   0.99266388   -7.6684023    393.65972  0.021329634  0.021170249            2 
 1539000   0.97922035   -7.7019044    393.11381  0.021286215  0.021163221            3 
 1540000   0.99639688   -7.6651273    394.04345  0.021322698  0.021156083            5 
 1541000   0.99941097   -7.7312708    393.33838  0.021270732  0.021149034            4 
 1542000     1.024714   -7.6849705    393.71488  0.021277285  0.021142056            3 
 1543000     1.019256   -7.6839629    394.76739  0.021320339  0.021135136            4 
 1544000    1.0047724   -7.6641652    395.05698   0.02132216  0.021128296            3 
 1545000   0.99497867   -7.7067008    394.99824  0.021305191  0.021121454            3 
 1546000   0.98150176   -7.7353154    394.53685   0.02126654   0.02111458            4 
 1547000    1.0043422   -7.6494112    396.75213  0.021372125  0.021107719            2 
 1548000   0.99647987   -7.7254323    395.81723   0.02130799  0.021100925            3 
 1549000    1.0147088   -7.6879761    395.70181  0.021288025  0.021094126            9 
 1550000   0.99644611   -7.6869988    396.19333  0.021300717  0.021087372            2 
 1551000    1.0247591   -7.6718229    396.59131  0.021308366  0.021080654            3 
 1552000     1.001835   -7.6228052    397.16343  0.021325356  0.021074013            4 
 1553000    1.0041484   -7.6864865    396.41621  0.021271529  0.021067344            3 
 1554000   0.99303594   -7.6846272    397.80584   0.02133236  0.021060556            8 
 1555000   0.99956893   -7.6640193    397.22523  0.021287526  0.021053782            6 
 1556000    1.0148925   -7.6869601    398.18195  0.021325083  0.021047075            7 
 1557000    1.0194655   -7.7054242    398.08391  0.021306139  0.021040287            5 
 1558000   0.99832938   -7.6592662    399.28882  0.021356911   0.02103374            5 
 1559000   0.99066081   -7.6825728    398.06286  0.021277681  0.021027248            5 
 1560000    1.0171794   -7.6727205    399.45404  0.021338357  0.021020681            2 
 1561000    1.0016413    -7.652804    398.93014  0.021296719  0.021014126            4 
 1562000   0.97839029   -7.7031905    399.11036  0.021292699  0.021007611            4 
 1563000   0.99119353   -7.6651706    400.00066  0.021326544  0.021001142            4 
 1564000     1.012772    -7.728175    398.87315  0.021252832  0.020994572            4 
 1565000   0.97727696   -7.6903505    399.31148  0.021262592  0.020988002            2 
 1566000   0.99064844   -7.6746636    400.24912   0.02129891  0.020981502            4 
 1567000   0.99578653   -7.7025079     398.6014  0.021197692  0.020974928            4 
 1568000    1.0014963   -7.6809929    400.11882  0.021264818  0.020968492            7 
 1569000    1.0010636   -7.6931311    399.65435  0.021226596  0.020962009            8 
 1570000    1.0123682   -7.6849253    399.85271  0.021223605  0.020955409            7 
 1571000   0.98339731   -7.7024084    399.87497  0.021211275  0.020948844            4 
 1572000   0.99021211    -7.671726    400.64912  0.021238821  0.020942302            2 
 1573000    1.0037291   -7.6883544     400.0377  0.021192928  0.020935741            1 
 1574000    1.0071213   -7.6621558    399.69805  0.021161481  0.020929114            5 
 1575000   0.99814345   -7.7197134    399.79513  0.021153182   0.02092251            9 
 1576000   0.98108992   -7.6963378    400.64922  0.021184921  0.020915769            2 
 1577000    1.0088188   -7.6773832    400.73143  0.021175831  0.020909053            3 
 1578000   0.97610648   -7.6988215    401.40355  0.021197906  0.020902385            2 
 1579000    1.0215541   -7.7332598    399.48373  0.021083161  0.020895668            5 
 1580000     1.009332   -7.6888533    400.32854  0.021114374  0.020888857            5 
 1581000    1.0137876   -7.7024461    401.04703   0.02113889  0.020882047            6 
 1582000   0.99302325   -7.7143107    401.13976  0.021130413  0.020875222            5 
 1583000    1.0077868   -7.6997358    400.28243  0.021071932  0.020868472            4 
 1584000   0.99862356   -7.7370185    399.69337  0.021027639  0.020861666            5 
 1585000   0.98633985   -7.7131611    400.94833  0.021080354  0.020854768            3 
 1586000    1.0236443   -7.7107206     400.8246  0.021060561  0.020847908            3 
 1587000   0.99510107    -7.683288    402.03484   0.02111084  0.020841048            6 
 1588000   0.99451528   -7.7297485    400.21066  0.021001819   0.02083406            6 
 1589000   0.98718765   -7.7262398    399.43085  0.020947706  0.020826993            7 
 1590000    1.0226366   -7.7408847    399.19202  0.020922013  0.020819985            4 
 1591000     1.013455   -7.6919573    401.24433  0.021016359  0.020812983            4 
 1592000   0.99276947   -7.7031366    401.99763  0.021042589  0.020806096            8 
 1593000   0.98560941   -7.6922854    401.72819  0.021015285  0.020799172            5 
 1594000     1.005299    -7.709564    401.87607  0.021009832  0.020792297            3 
 1595000   0.97268431   -7.7019478    401.18941  0.020960784  0.020785441            3 
 1596000   0.95976749   -7.6724219    402.65892   0.02102438  0.020778534            3 
 1597000    1.0060981   -7.6897413    401.76252  0.020964439  0.020771678            6 
 1598000    1.0111865    -7.671732    400.98816  0.020910939   0.02076472            5 
 1599000    1.0058202   -7.7336547    401.85774   0.02094318  0.020757749           12 
 1600000    1.0009171   -7.7267616    401.29785   0.02090093  0.020750737            6 
 1601000   0.97700746   -7.7171964    402.23218  0.020936507  0.020743801            3 
 1602000   0.99757649   -7.7036429    401.89243  0.020905765  0.020736801            3 
 1603000   0.99839664   -7.7145432    401.84744  0.020890385  0.020729812            4 
 1604000    1.0156492   -7.7267906    401.94011  0.020882175  0.020722836            4 
 1605000   0.99867378    -7.712061    402.02486  0.020873565  0.020715897            3 
 1606000    0.9944234   -7.7221863    402.29987  0.020874838  0.020709082            2 
 1607000   0.99463992   -7.7067784    403.02541  0.020899472  0.020702259            5 
 1608000   0.98571688   -7.7039766    403.30118  0.020900766  0.020695361            2 
 1609000    1.0026975    -7.721801    403.33338  0.020889444  0.020688441            3 
 1610000   0.99771024   -7.6917817    402.66826  0.020842043  0.020681533            8 
 1611000   0.97586347   -7.6805547    404.49396  0.020923544  0.020674614            3 
 1612000   0.98995137   -7.7329758    402.40728  0.020802692  0.020667719            5 
 1613000    1.0162102   -7.7274568    402.77196  0.020808636  0.020660857            4 
 1614000    1.0037083   -7.7488776    403.22331  0.020819047  0.020653808            3 
 1615000     0.966496   -7.7342179    403.95187   0.02084375  0.020646769            2 
 1616000    1.0021025   -7.6585536    404.26658   0.02084708  0.020639863            1 
 1617000   0.99776553   -7.6719463    405.35179  0.020890115  0.020632969            4 
 1618000    0.9922955    -7.691056    405.03589  0.020860934  0.020626138            5 
 1619000   0.98935592   -7.6946543    403.11289  0.020749068   0.02061925            3 
 1620000   0.98710165   -7.7247376    404.57354  0.020811396  0.020612272            4 
 1621000     1.009439   -7.7350395    404.02521  0.020770369  0.020605253            3 
 1622000    1.0031739   -7.7182039    404.77108  0.020795884  0.020598354            8 
 1623000   0.97373749   -7.7006343    405.69422  0.020830469   0.02059149            4 
 1624000   0.99778204   -7.6826834    405.18959  0.020791748  0.020584777            2 
 1625000   0.98545436   -7.7027659    405.31614  0.020785443  0.020578046            2 
 1626000   0.97656571   -7.7074443    404.74492  0.020743384  0.020571208            2 
 1627000    1.0143082   -7.6985454    405.41757  0.020765088   0.02056431            6 
 1628000   0.98011412   -7.7069503    406.38632   0.02080192  0.020557454            4 
 1629000    0.9898347   -7.6920962     406.4119   0.02079046  0.020550643            4 
 1630000   0.98965246   -7.7217218    406.10422  0.020761974  0.020543791            7 
 1631000   0.98490315   -7.7406325    406.34447   0.02076152  0.020537034            6 
 1632000   0.99902377   -7.7508895    405.05892  0.020683156  0.020530233            4 
 1633000    1.0000183   -7.7216993     405.6556  0.020700939  0.020523334            4 
 1634000   0.99108882   -7.7211099    405.40807  0.020675646  0.020516431            7 
 1635000   0.98958067   -7.7590822    404.58525  0.020621063  0.020509415            1 
 1636000   0.98823392   -7.7055592    406.25508  0.020693515   0.02050244            3 
 1637000   0.99096264   -7.7281641    406.57539  0.020697179  0.020495544            3 
 1638000   0.97753344   -7.7118815    406.59667  0.020685626  0.020488679            2 
 1639000   0.97111657   -7.7014692    407.42366  0.020715053  0.020481832            7 
 1640000    1.0049633   -7.7548836    406.22963   0.02064175     0.020475           10 
 1641000   0.99438786   -7.7234891     406.9565  0.020666083  0.020468118            5 
 1642000   0.99692097   -7.7226111    406.73349  0.020642179  0.020461291            4 
 1643000   0.99954422   -7.7019802    407.27858  0.020657262  0.020454405            4 
 1644000   0.97493224   -7.7055293     407.9065  0.020676526  0.020447627           10 
 1645000    1.0103136   -7.7120978     407.6821  0.020652589  0.020440835            5 
 1646000   0.98882028   -7.6963557    407.89326  0.020650732  0.020434055            3 
 1647000   0.98678375    -7.730066    407.01405  0.020593708  0.020427235            5 
 1648000    0.9966255   -7.7084482    409.20405  0.020691952  0.020420425            4 
 1649000   0.98879712   -7.7171329      407.419  0.020589195  0.020413578            3 
 1650000   0.99678798   -7.6944331    406.97987  0.020554539   0.02040676            5 
 1651000    1.0074366   -7.6946149     408.6157  0.020624657  0.020399897            3 
 1652000   0.96985233   -7.7747185    406.68598   0.02051483  0.020393084            7 
 1653000   0.99634055   -7.7745068    408.44866  0.020591282  0.020386222            4 
 1654000   0.99711089   -7.7865484    406.78642  0.020495084  0.020379275            3 
 1655000   0.99792127   -7.7455816    408.26122   0.02055696  0.020372375            5 
 1656000   0.98939894    -7.723112    409.13904   0.02058872  0.020365491            4 
 1657000   0.94643278   -7.7348209    408.76904  0.020557687  0.020358659            4 
 1658000   0.96772422   -7.7219552    408.46558  0.020530035  0.020351855            5 
 1659000   0.98771388   -7.7502198    407.78868  0.020483659  0.020344995            3 
 1660000   0.98331223    -7.756465    408.63463  0.020513787  0.020338033            4 
 1661000   0.98648231   -7.7366584    409.12367  0.020525972  0.020331188            7 
 1662000   0.97875245     -7.75998    408.99705  0.020507273  0.020324358            3 
 1663000    1.0215612   -7.7320523    409.18016  0.020504117  0.020317505            7 
 1664000   0.99696115   -7.7342781    410.06849  0.020536283  0.020310658            3 
 1665000   0.99312789   -7.7271149    408.66853   0.02045388  0.020303796            4 
 1666000      0.98249   -7.7818041    408.85931  0.020451146  0.020296867           10 
 1667000   0.98653102   -7.7459114    409.15673  0.020453746  0.020289948           11 
 1668000     0.976457   -7.7434828    409.73173   0.02047021   0.02028302            4 
 1669000   0.97055773   -7.7548491    409.40477   0.02044162  0.020276021            6 
 1670000   0.97618168   -7.7551344     408.3504  0.020376766  0.020269126            4 
 1671000    1.0227942   -7.7723914    409.72806  0.020433277  0.020262074           11 
 1672000   0.99598443   -7.7699461    408.78887  0.020374246  0.020255121            5 
 1673000    0.9917572   -7.7475855    408.22533  0.020333997  0.020248104            9 
 1674000   0.97972109   -7.7243254    411.17847   0.02046886   0.02024117            7 
 1675000   0.98164099   -7.7104026     410.8132  0.020438468  0.020234271            4 
 1676000   0.96353979    -7.713443    410.48463  0.020409936  0.020227411            6 
 1677000   0.97019504   -7.6900469    411.45396  0.020445933  0.020220544            4 
 1678000   0.98291202   -7.7413599    409.65344  0.020344331  0.020213707            3 
 1679000   0.97341508   -7.7807087    410.81552  0.020389891  0.020206725            3 
 1680000   0.98037671   -7.7082341    409.48875  0.020311942  0.020199695            3 
 1681000   0.97387108   -7.7307926    410.64157  0.020357008  0.020192714            4 
 1682000   0.97915811   -7.7442036    410.16259  0.020321174  0.020185744            5 
 1683000   0.96619709   -7.7327671    410.56855  0.020329201  0.020178754            5 
 1684000   0.98656979   -7.7753292    410.44007  0.020310772  0.020171716            7 
 1685000   0.99912302   -7.7481823    410.88258  0.020320602  0.020164645            9 
 1686000   0.97230443    -7.781462    409.32766  0.020231695  0.020157558            3 
 1687000   0.98324776   -7.7519401    411.59657  0.020331781  0.020150518            3 
 1688000   0.97710361   -7.7735231    410.32038  0.020256733  0.020143509            4 
 1689000   0.99670197   -7.7321588    411.71836  0.020313714  0.020136509            4 
 1690000   0.98183883   -7.7381339    411.82354  0.020306881  0.020129494            3 
 1691000   0.97775039   -7.7736107    410.53228  0.020231238   0.02012241            6 
 1692000   0.97606002   -7.7837058    412.56736  0.020319511  0.020115386           14 
 1693000   0.97167364   -7.7934632    410.49304  0.020205406  0.020108319            3 
 1694000   0.99980414   -7.7749385    410.85237  0.020211155   0.02010131            5 
 1695000   0.98543964   -7.7990772    411.57694  0.020234854  0.020094313            7 
 1696000    0.9838244   -7.7647301    411.45775  0.020217067  0.020087256            4 
 1697000   0.97165705   -7.7837814     410.5053  0.020158382  0.020080238            4 
 1698000   0.97096955   -7.7805808    411.55977  0.020198261  0.020073145            8 
 1699000    0.9895055   -7.7541117    412.15906  0.020215767  0.020066164            4 
 1700000    0.9895535   -7.7448866    411.44655  0.020168948  0.020059135            4 
 1701000   0.99667101   -7.7478558    412.23137   0.02019554  0.020052107            6 
 1702000   0.96706894   -7.7384722    412.77944  0.020210509  0.020045131            7 
 1703000   0.97858129   -7.7751264    411.77079  0.020149285  0.020038124            2 
 1704000   0.98642626   -7.7317853    413.89639  0.020241412  0.020031181            7 
 1705000   0.99045138   -7.7630107    413.17564  0.020194313  0.020024264            4 
 1706000   0.96042278   -7.7199072    413.48652  0.020197661   0.02001745            6 
 1707000   0.96765096   -7.7210541      414.882  0.020253954  0.020010582            4 
 1708000   0.96368671   -7.7398625    412.77463  0.020139278  0.020003776            3 
 1709000    0.9785562    -7.748261    414.01165  0.020187812  0.019996871            3 
 1710000   0.97329734   -7.7450552    414.74472  0.020211731  0.019989956            4 
 1711000   0.97707057   -7.7539225    414.42858  0.020184521  0.019983038            9 
 1712000   0.98520085   -7.7813602    412.99313  0.020102859   0.01997613            6 
 1713000   0.96727999   -7.7916794     413.7378   0.02012735  0.019969214           11 
 1714000   0.99531311   -7.7333726    415.50504  0.020201528  0.019962395            3 
 1715000   0.99070059   -7.7275178    415.38199   0.02018377  0.019955526            4 
 1716000   0.97804817   -7.7917285    414.53673   0.02013096  0.019948657            4 
 1717000   0.97159405   -7.7485891    415.26804  0.020154729  0.019941804            4 
 1718000   0.98406757   -7.7599514     415.3262  0.020145819  0.019934914            4 
 1719000   0.97173759   -7.7689759    414.25397   0.02008212  0.019928023            4 
 1720000   0.98753524   -7.7543551    415.17755  0.020115191  0.019921227           12 
 1721000     0.958965   -7.7513525    415.22359  0.020105733  0.019914362            3 
 1722000   0.97293679   -7.8006291    414.39881  0.020054143  0.019907421            6 
 1723000   0.97632905   -7.7624995    414.65573   0.02005493  0.019900391            3 
 1724000   0.96789959   -7.7394341    414.64464  0.020042761  0.019893549            5 
 1725000   0.97517463   -7.7446224    415.39178  0.020067236  0.019886607           11 
 1726000   0.98042767   -7.7802831    415.82133  0.020076349  0.019879619            6 
 1727000   0.98137981   -7.7932375    416.16545  0.020081328  0.019872725           13 
 1728000   0.96501264   -7.8064269    414.44652  0.019986811  0.019865712            9 
 1729000   0.95969064   -7.7271289    416.39072  0.020068957  0.019858843            3 
 1730000   0.97485516   -7.7720834    416.04063  0.020040493  0.019851973            6 
 1731000    0.9524086   -7.7765651    416.57693  0.020054734  0.019845048           10 
 1732000   0.96249308   -7.8032302    416.25551   0.02002769  0.019838114            4 
 1733000   0.97150772   -7.7391067    416.32274  0.020019366  0.019831221            6 
 1734000   0.98222999   -7.7534377    417.03725  0.020042159  0.019824315           14 
 1735000   0.97275786   -7.7891529    416.50592  0.020005087  0.019817377            4 
 1736000   0.98397512   -7.7670121    415.91812  0.019965347  0.019810417            4 
 1737000   0.94561066   -7.7637228    416.50661  0.019982086  0.019803492            8 
 1738000   0.98255972   -7.7858613    415.07704  0.019902045  0.019796536            9 
 1739000   0.96694644   -7.7623763    417.43956  0.020003812   0.01978962           12 
 1740000   0.97532051   -7.7500984    416.72995  0.019958331  0.019782693            3 
 1741000   0.98094471   -7.7556072    416.12494  0.019917908  0.019775751            6 
 1742000   0.98348426     -7.76044    418.07528  0.019999774  0.019768879           13 
 1743000   0.98962464   -7.8036538    416.62153  0.019918796  0.019761962           23 
 1744000   0.97102024   -7.8111419    415.62827  0.019859914  0.019755007           11 
 1745000   0.96057885   -7.7424002    418.14725  0.019968828  0.019748068           15 
 1746000   0.99573822   -7.8037748    417.97924  0.019949372  0.019741145           12 
 1747000   0.93881989   -7.7390555    417.89759  0.019934058  0.019734223            2 
 1748000   0.95281334   -7.7893269    417.26253  0.019892378  0.019727371            2 
 1749000   0.96828423   -7.7169206    419.58591  0.019991705  0.019720574            3 
 1750000   0.98960822   -7.7775509    418.36458  0.019922123  0.019713877            9 
 1751000   0.97490243   -7.7900396    418.88534  0.019935529  0.019707049            7 
 1752000   0.96506872   -7.8030722    420.04326  0.019979227  0.019700277            2 
 1753000   0.98459184   -7.7928211    419.65203  0.019949231   0.01969351            2 
 1754000   0.97267099   -7.7927589    417.89183   0.01985423  0.019686678            3 
 1755000   0.99018655   -7.7858626    419.70498  0.019929011  0.019679967            4 
 1756000   0.96903177   -7.8014476    419.37028  0.019901778  0.019673251            6 
 1757000   0.97459615    -7.814451    418.88356  0.019867367  0.019666591            3 
 1758000   0.94288394   -7.7521362    419.36688  0.019878976  0.019659896            5 
 1759000   0.96365277   -7.7644621    421.11868  0.019950667  0.019653222            3 
 1760000   0.96836076   -7.7979866    419.40547  0.019858213  0.019646503            6 
 1761000   0.96852362   -7.7620575    418.90651  0.019823325   0.01963984            3 
 1762000   0.93833929   -7.7212606    420.98939  0.019910584   0.01963315            4 
 1763000   0.97143476   -7.7834434    420.04744  0.019854766  0.019626498            2 
 1764000   0.96758151   -7.7389956      420.934  0.019885393  0.019619794            6 
 1765000   0.96349974    -7.772215    420.59499   0.01985812  0.019613098            4 
 1766000   0.94758843   -7.8076148    420.49477  0.019842147  0.019606398            7 
 1767000   0.96360529   -7.7707537    420.63668   0.01983761  0.019599715            4 
 1768000   0.98043055    -7.765683    421.00424  0.019843714  0.019593162            2 
 1769000   0.96619613   -7.7463026    421.28798  0.019845863  0.019586507            6 
 1770000   0.94514513   -7.7557453    422.17953  0.019876626   0.01957988            8 
 1771000     0.954195   -7.8002041    421.25325  0.019821817  0.019573274            5 
 1772000   0.97484742   -7.7343171    422.93019  0.019889493  0.019566619            4 
 1773000   0.97053496   -7.8366145    420.65261  0.019771226   0.01955996            5 
 1774000    0.9686267   -7.7684222    421.39488  0.019794949  0.019553269            9 
 1775000   0.96577444   -7.7552342    422.15489  0.019819478  0.019546629            4 
 1776000   0.96911693   -7.7867785     421.7798  0.019790719  0.019539945            3 
 1777000   0.97125165   -7.7924789    421.46181  0.019764669  0.019533185            2 
 1778000   0.97427154   -7.7853141    421.46073  0.019753503  0.019526483            5 
 1779000     0.981224   -7.7681106    421.67335  0.019752359  0.019519887            5 
 1780000   0.98355018    -7.807345    421.69633  0.019742338  0.019513244            5 
 1781000   0.96198258   -7.8020006    421.94051  0.019742678  0.019506609            6 
 1782000   0.97834709   -7.7704091    422.09562  0.019738852       0.0195            3 
 1783000   0.96932655   -7.7796737    422.12535  0.019729171  0.019493355           11 
 1784000   0.95961743   -7.7822768     422.4247  0.019732095  0.019486775            2 
 1785000    0.9732049   -7.8200369    421.56401  0.019680859  0.019480161            6 
 1786000   0.97220835   -7.8028801     423.3967  0.019755352  0.019473505            6 
 1787000   0.99170871     -7.79292    422.38209  0.019696982  0.019466834            4 
 1788000   0.94364582    -7.761792    423.43965  0.019735256   0.01946017            3 
 1789000   0.96593167   -7.7558336    423.39501  0.019722145  0.019453535            6 
 1790000   0.94381097   -7.7847178    422.56344  0.019672413  0.019446968            6 
 1791000   0.99390529   -7.7648253    424.18338  0.019736803  0.019440355            2 
 1792000   0.96631841   -7.8310834     422.3187  0.019639077  0.019433683            4 
 1793000   0.95603816   -7.8128244    423.51217  0.019683592  0.019426966            6 
 1794000   0.95732125   -7.7564775    424.26256  0.019707477  0.019420286            3 
 1795000   0.95235804   -7.7880514    423.27286  0.019650551  0.019413625            7 
 1796000   0.97415434   -7.8258311    423.68394  0.019658683  0.019406908            7 
 1797000    0.9660784     -7.81884    422.84994  0.019609068  0.019400178            4 
 1798000   0.95134843   -7.8129995    423.52038  0.019629235  0.019393435            6 
 1799000   0.96268728   -7.8214681    423.60344  0.019622172  0.019386695           10 
 1800000    0.9570803   -7.7780485    423.29528  0.019597004  0.019379972           13 
 1801000   0.95194351   -7.7695461    423.68333  0.019604078  0.019373241            3 
 1802000   0.96282066   -7.8060188    423.07439  0.019565038  0.019366539            3 
 1803000   0.96546334   -7.8168596     423.0814  0.019554511   0.01935976            4 
 1804000   0.94308831   -7.7871327    423.51204  0.019563564  0.019352996            4 
 1805000   0.96285719   -7.8129158    423.89146  0.019570243  0.019346333            4 
 1806000   0.95390324   -7.8008623    424.39326  0.019582561   0.01933966            2 
 1807000   0.95400358   -7.7888417    423.66505  0.019538141  0.019332942            2 
 1808000   0.94019273   -7.7854972    424.64085  0.019572311  0.019326263            3 
 1809000   0.93935151    -7.784652    424.75281  0.019566649  0.019319547            4 
 1810000   0.97401035   -7.8170917    423.58046  0.019501863  0.019312813            2 
 1811000   0.94693694   -7.7980711     424.5161  0.019534148  0.019306129            8 
 1812000   0.95731387   -7.8029363    424.22049  0.019509772  0.019299376            6 
 1813000     0.969802   -7.8256509    424.43687  0.019508957  0.019292627            6 
 1814000   0.96014002   -7.8362439    424.45428  0.019499002  0.019285884            6 
 1815000   0.95304275   -7.7775205    424.83931  0.019505937  0.019279155            8 
 1816000   0.97624587   -7.7918758    424.18464  0.019465154  0.019272363            4 
 1817000   0.97179081   -7.8098884    423.57637  0.019426544  0.019265573            3 
 1818000   0.98410818   -7.8072569     425.5354  0.019505656  0.019258866            3 
 1819000   0.95197034   -7.8103382    424.69516   0.01945644  0.019252168            2 
 1820000   0.95316681   -7.7855113    425.31844  0.019474287  0.019245452            3 
 1821000   0.95643752   -7.8169173    424.27261  0.019415734  0.019238701            3 
 1822000   0.96951466   -7.7999345    425.11554  0.019443631  0.019231995            5 
 1823000   0.96708197   -7.7971003    425.23445  0.019438401  0.019225271            9 
 1824000   0.97148918   -7.8027167    426.19417   0.01947159  0.019218608            7 
 1825000   0.96217948    -7.795529      425.887  0.019446895  0.019211964            3 
 1826000   0.96411489   -7.7709527    427.11475  0.019492276  0.019205394           14 
 1827000   0.96205409   -7.8033905    426.49654  0.019453409  0.019198786            3 
 1828000   0.98474001   -7.8132152    426.21714   0.01943003  0.019192092           12 
 1829000   0.95440572   -7.8463115     425.5997  0.019391275    0.0191854           10 
 1830000   0.98447792   -7.8148783    426.26547  0.019410996  0.019178636            5 
 1831000   0.96688625   -7.8250717    426.20028  0.019397428  0.019171953            2 
 1832000   0.96965681   -7.8319253    426.43464    0.0193975  0.019165124            5 
 1833000   0.95896332   -7.8377113    425.93809  0.019364343  0.019158356           19 
 1834000   0.96416347   -7.8174315     427.1991  0.019411083  0.019151663            4 
 1835000   0.95752757   -7.7943031     428.3095  0.019450931  0.019144972            9 
 1836000   0.96135364   -7.8282067     427.0304   0.01938228  0.019138273            7 
 1837000   0.98272782   -7.8283372    427.47315  0.019391814  0.019131515            2 
 1838000   0.96360086   -7.8359099     426.1911  0.019323136  0.019124751            4 
 1839000   0.95854193   -7.8295073    426.23061  0.019314419  0.019118066            4 
 1840000   0.94959595   -7.8145063     427.6523  0.019368311    0.0191114            3 
 1841000   0.95405327   -7.8225961    429.04767  0.019420952  0.019104769            4 
 1842000   0.96043535   -7.8259117    427.74641  0.019351539  0.019098161            5 
 1843000   0.95535234   -7.8392936    427.99459   0.01935226  0.019091508            9 
 1844000   0.93901027   -7.8492812    427.24079    0.0193077  0.019084859            4 
 1845000   0.94834509   -7.8089019    429.64477  0.019405816  0.019078199            5 
 1846000   0.96704356   -7.8018398    428.45175  0.019341448  0.019071603           10 
 1847000   0.94947661    -7.805675    429.34153  0.019371121  0.019064979            5 
 1848000   0.95820229   -7.8333973    428.19138  0.019308774  0.019058372            3 
 1849000   0.93424929   -7.8034122    428.19083  0.019298307  0.019051755            5 
 1850000   0.93715228   -7.8069344    429.91018  0.019365324  0.019045094            3 
 1851000     0.960247   -7.8565853    428.77034  0.019303545  0.019038468            9 
 1852000   0.94812553   -7.8318617    428.20921  0.019267873  0.019031874            3 
 1853000   0.95470488   -7.8432326    427.95963   0.01924625   0.01902527            4 
 1854000   0.94766097   -7.8578101    429.56607  0.019308076  0.019018633            8 
 1855000   0.94823869   -7.8347642    429.42836  0.019291481  0.019012087            3 
 1856000   0.92735513   -7.7729855    429.71206  0.019293825  0.019005528            3 
 1857000   0.94490811    -7.801228    430.66731  0.019326302  0.018999063            4 
 1858000   0.95240687   -7.8460353     428.8913  0.019236244  0.018992562            4 
 1859000   0.96330109   -7.8818511    430.30509  0.019289273  0.018986058            3 
 1860000   0.94463779   -7.8260668    429.48672  0.019242236   0.01897957           11 
 1861000   0.94124818   -7.8667174    430.63221  0.019283191  0.018973093            3 
 1862000   0.97003339   -7.8592533      428.763  0.019189178  0.018966542            5 
 1863000   0.93957068   -7.8270933    430.69892  0.019265473   0.01896004            7 
 1864000   0.94596298   -7.8352138    431.19572  0.019277348  0.018953492           10 
 1865000   0.94848987   -7.8093426    429.80983  0.019205086  0.018947002            4 
 1866000   0.94132576   -7.8243752    430.19455  0.019211975  0.018940493            4 
 1867000    0.9475935   -7.8551547    430.66848  0.019222839  0.018933984            9 
 1868000   0.95739984   -7.8245148    432.59208  0.019298362  0.018927531            5 
 1869000   0.96018993   -7.8305235    430.68297  0.019202915  0.018921083            3 
 1870000   0.97370315   -7.8719265    430.01074  0.019162689  0.018914657            5 
 1871000   0.94894928   -7.8065192    432.04614  0.019243102  0.018908232            3 
 1872000   0.94877781   -7.8336743    432.51362  0.019253634  0.018901854            5 
 1873000   0.95237901   -7.8137194    433.08076  0.019268587  0.018895487            5 
 1874000   0.96681695   -7.8323163    431.91267  0.019206362  0.018889108           10 
 1875000   0.94717514   -7.8032596    432.93009  0.019241337  0.018882755            5 
 1876000   0.97154307   -7.8197278    432.26407  0.019201496  0.018876472            2 
 1877000   0.95177028    -7.807959    433.41998  0.019242585  0.018870176            4 
 1878000   0.96344669   -7.8378644    431.85726  0.019162995  0.018863816            2 
 1879000   0.95194002   -7.8677404    432.20518  0.019168227  0.018857451            6 
 1880000   0.95404244   -7.8010725     433.3846   0.01921031  0.018851096            7 
 1881000   0.95551498   -7.8764883    432.84162  0.019176042  0.018844738            6 
 1882000   0.95445158    -7.812283     433.9761  0.019216086  0.018838415            3 
 1883000   0.96962426   -7.8630386     433.4611   0.01918309  0.018832159           18 
 1884000   0.95170661   -7.8422393    434.72633  0.019228872  0.018825835            6 
 1885000   0.95371436   -7.8186231    432.78749  0.019132957   0.01881954            7 
 1886000   0.97146177   -7.7990028    434.02932  0.019177683   0.01881323            6 
 1887000   0.95290817   -7.8231478    434.14128  0.019172464  0.018806982            4 
 1888000   0.95888185   -7.8415069     434.0714  0.019159225  0.018800723            7 
 1889000   0.94262854   -7.8053295    434.60962  0.019172826  0.018794412            5 
 1890000   0.94293245   -7.8120098    435.12133  0.019185244  0.018788164            4 
 1891000   0.93334523   -7.8350649    433.00207  0.019081706  0.018781873            4 
 1892000   0.94818751   -7.8423374    434.45069  0.019135425  0.018775512            5 
 1893000   0.95432239   -7.8480883    434.12667  0.019111053   0.01876922            7 
 1894000     0.939695   -7.8357718    435.11348  0.019144381  0.018762963            7 
 1895000   0.94508346   -7.8530741    434.28749  0.019097955  0.018756707            6 
 1896000   0.95787114   -7.8414946    435.62082  0.019146485  0.018750444            5 
 1897000   0.93834114   -7.8550222    434.83257  0.019101765  0.018744226            2 
 1898000   0.94495157   -7.8355775    435.29927  0.019112191  0.018737962            7 
 1899000   0.94579241   -7.8356891    435.69505  0.019119495  0.018731796            9 
 1900000   0.95172698   -7.8410637    435.58599  0.019104649   0.01872555            3 
 1901000   0.94159292   -7.8433004    435.26634  0.019080587  0.018719243            6 
 1902000   0.94067636   -7.8042757    435.59107  0.019084782  0.018713061            5 
 1903000   0.97912339   -7.8355083    434.55878  0.019029549  0.018706836            5 
 1904000    0.9367913   -7.8376823    435.01244   0.01903941  0.018700564            2 
 1905000   0.95109939   -7.8948707    433.32458  0.018955581  0.018694269           13 
 1906000   0.94794177    -7.864495    434.34384  0.018990199  0.018687876           11 
 1907000   0.93937017   -7.8200636    436.22766  0.019062562  0.018681601            4 
 1908000   0.94116324   -7.8333616    435.79503  0.019033675  0.018675385            8 
 1909000   0.94655117   -7.8296876    436.38421  0.019049424  0.018669147           27 
 1910000   0.90970815   -7.8378746    436.84301  0.019059468  0.018663007           21 
 1911000   0.93840259   -7.8162841    436.57765  0.019037923   0.01865685            6 
 1912000    0.9594972   -7.8521309    435.24895  0.018970055  0.018650679            5 
 1913000    0.9587335   -7.8374826    437.38377  0.019053135  0.018644473            8 
 1914000   0.95712317   -7.8734065    436.59782  0.019008961  0.018638317            3 
 1915000   0.93265185   -7.8636823    436.86568  0.019010691  0.018632084            4 
 1916000   0.94664935   -7.8355907    437.00317  0.019006749  0.018625886            2 
 1917000   0.95768602   -7.8410509    438.07569  0.019043457  0.018619721            4 
 1918000   0.95696106   -7.8540198    436.08483   0.01894703  0.018613516           11 
 1919000   0.95556551   -7.8690224     436.9317  0.018973932  0.018607308            4 
 1920000   0.95793779   -7.8915789    437.63824  0.018994715  0.018601097            5 
 1921000    0.9392871   -7.8486841    437.26232   0.01896852  0.018594899            4 
 1922000   0.93486104   -7.8492914    437.77652  0.018980945  0.018588815           16 
 1923000   0.94779355   -7.8413364    439.27173   0.01903587  0.018582742           21 
 1924000   0.96000591   -7.8680365    438.38337  0.018987499   0.01857669            7 
 1925000   0.94318561   -7.8668779    438.73136    0.0189927  0.018570618            6 
 1926000   0.90433328   -7.8625975     438.0911  0.018955136  0.018564534            4 
 1927000   0.93058252   -7.8538849     439.0079  0.018984946  0.018558484            3 
 1928000   0.94149434      -7.8271    440.29565  0.019030759  0.018552423            7 
 1929000   0.94652697   -7.8857845    439.23376   0.01897502  0.018546368            8 
 1930000   0.92751416   -7.8521166    439.17401  0.018962608  0.018540264            8 
 1931000   0.95122706   -7.8265997    438.56147  0.018926354  0.018534249            7 
 1932000   0.95180114   -7.8739147    440.01475  0.018979242  0.018528219            5 
 1933000   0.95428606   -7.8544434    441.36234  0.019027519  0.018522199            6 
 1934000   0.95072866   -7.8470046    439.78918  0.018949896  0.018516142           11 
 1935000   0.94151865   -7.8821139    439.02745  0.018907298  0.018510076           11 
 1936000   0.95178419   -7.8628401     439.6465  0.018924178  0.018503993            3 
 1937000   0.92789274   -7.8937769    438.37163  0.018859561  0.018497869            6 
 1938000   0.95517867   -7.8677152    438.11827  0.018838935  0.018491745            4 
 1939000   0.95019773   -7.8735341    439.81184  0.018902004  0.018485713            2 
 1940000   0.93883292   -7.8313166    440.47604  0.018920792  0.018479699            4 
 1941000   0.94282282   -7.8757007    439.54913  0.018871249  0.018473736            5 
 1942000   0.95039691   -7.8634899    440.13166  0.018886528  0.018467715            5 
 1943000   0.95572855   -7.8991854    440.64734  0.018898925  0.018461738            2 
 1944000   0.92328207    -7.842367    440.95551  0.018902414  0.018455794            3 
 1945000   0.93646825   -7.8647453    440.10965  0.018856455  0.018449878           11 
 1946000   0.93865164   -7.9117626    440.82294   0.01887731  0.018443918            8 
 1947000   0.95468017   -7.8584276    441.56811  0.018899508  0.018437894            5 
 1948000   0.92405764   -7.8664122    440.66157  0.018851025   0.01843197            8 
 1949000   0.92839455   -7.8453041    442.07666  0.018901858  0.018425993            9 
 1950000   0.91449051   -7.8709415    440.91639  0.018842581  0.018420077            3 
 1951000   0.95543101   -7.8871369    441.55049  0.018860007   0.01841411            6 
 1952000   0.93864119   -7.8908522    440.81307  0.018818864  0.018408182            8 
 1953000   0.93231305   -7.8646374    441.70687  0.018847366  0.018402273            4 
 1954000    0.9289176    -7.821485    443.08887  0.018896659  0.018396421            6 
 1955000   0.92996135   -7.8753603    442.86202  0.018877324   0.01839056           10 
 1956000   0.92127385   -7.8660331    442.51056  0.018852699  0.018384639            4 
 1957000   0.95850359   -7.8655676    441.84714  0.018814816  0.018378734            4 
 1958000   0.93766246   -7.8966936    441.44328  0.018788018  0.018372817            4 
 1959000   0.92108376   -7.8683603    443.17817  0.018852228  0.018366888           10 
 1960000   0.91712177   -7.8608745    442.55091   0.01881594  0.018360939            3 
 1961000   0.95334833    -7.899215    441.55437  0.018763997  0.018354965           13 
 1962000   0.94597755   -7.8218224    443.14368  0.018821937  0.018349034            2 
 1963000   0.96226394   -7.8667711    443.20887  0.018815116  0.018343142            6 
 1964000    0.9186937   -7.8739124    441.75356  0.018743786  0.018337189            2 
 1965000   0.93389274   -7.8282657     443.7491  0.018818876  0.018331306            2 
 1966000    0.9351667   -7.8835872    443.11246  0.018782319  0.018325385            3 
 1967000   0.92830286    -7.885351    443.25728  0.018778905  0.018319456            3 
 1968000   0.92430501   -7.8869635    442.21067  0.018725045  0.018313511            4 
 1969000   0.92189303   -7.8813507    444.62851  0.018817865  0.018307535            5 
 1970000   0.92378204   -7.8631895    444.00185  0.018781804  0.018301595           10 
 1971000   0.93311204   -7.8321778    444.59071  0.018797172  0.018295705            5 
 1972000   0.93143933   -7.8900608    443.14123  0.018726387   0.01828986            5 
 1973000   0.92707724    -7.886825    442.90764   0.01870703  0.018283986            4 
 1974000   0.95219571    -7.878022    444.43775  0.018762148  0.018278135            7 
 1975000   0.93928616   -7.8566884    444.33018  0.018748109  0.018272231            4 
 1976000   0.94829592   -7.9128609    442.77635  0.018673092  0.018266363            2 
 1977000   0.94209637   -7.8565763    444.80897  0.018749324   0.01826047            4 
 1978000   0.94725935   -7.8628978    444.81118  0.018739938  0.018254572            6 
 1979000    0.9395293   -7.8980394    444.05079   0.01869845  0.018248655            5 
 1980000   0.94333664   -7.8789546    444.56153  0.018710502  0.018242726            4 
 1981000   0.94270689   -7.8951739    444.02645  0.018678548  0.018236844            3 
 1982000   0.92826517   -7.8553289     444.4173  0.018685557  0.018230933            4 
 1983000   0.93553081   -7.9154479    443.28874  0.018628708  0.018225013            4 
 1984000   0.93140745   -7.8726414    444.54632  0.018672141  0.018219025            3 
 1985000   0.91364924   -7.8712887    444.07356  0.018642887  0.018213049            6 
 1986000    0.9403381   -7.8577278    443.48017  0.018608601  0.018206979            4 
 1987000   0.93440539   -7.8608474    445.56789  0.018686793  0.018201043            3 
 1988000   0.93826517   -7.8786602    444.43897  0.018630071  0.018195074            4 
 1989000   0.93900054   -7.9138911    443.63709  0.018587108  0.018189081            3 
 1990000   0.90438382   -7.9233792    443.73893  0.018582032  0.018183093            6 
 1991000   0.94751251   -7.8912747    444.28909  0.018595726  0.018177143           10 
 1992000   0.92030685   -7.8636211    445.06108  0.018618687  0.018171175            3 
 1993000   0.90202052   -7.8876002    445.27239   0.01861818  0.018165195            3 
 1994000   0.92335632   -7.9037107    445.62691  0.018623659   0.01815921            6 
 1995000   0.92355733   -7.8889335     444.9274  0.018585104  0.018153237            9 
 1996000    0.9475974   -7.8769649    446.20779   0.01862925   0.01814736            3 
 1997000   0.91961475   -7.8848719    445.80525  0.018603124  0.018141485            6 
 1998000   0.92097738   -7.8405243    447.35259   0.01865835  0.018135633            4 
 1999000    0.9435127   -7.8675454    446.68871   0.01862134  0.018129804            3 
 2000000   0.92374543   -7.9228214    445.31519  0.018554799  0.018123932            4 
 2001000   0.92573687   -7.9100113    445.56962  0.018556123  0.018117999            5 
 2002000   0.93185551   -7.8840192    445.24642  0.018533401  0.018112074            4 
 2003000   0.91105666   -7.8916819    445.38071  0.018529735  0.018106142           13 
 2004000   0.94211264   -7.8929327    445.61341  0.018530165  0.018100192            5 
 2005000   0.94559339   -7.8948326    445.90004  0.018532836  0.018094247           14 
 2006000   0.92119741   -7.9107739    446.32967  0.018541445  0.018088264            5 
 2007000   0.94140409   -7.8956667    446.14294  0.018524453   0.01808231            4 
 2008000   0.92735739   -7.8613979     447.3813  0.018566621  0.018076364            4 
 2009000   0.92952232   -7.9214185    444.47783  0.018436943  0.018070459            5 
 2010000    0.9471119   -7.8925845     446.6789  0.018519026  0.018064572            9 
 2011000   0.94664263    -7.939843    445.84947  0.018475446   0.01805863            5 
 2012000   0.95622457   -7.8995506     447.0613  0.018516456  0.018052694            7 
 2013000   0.92824666   -7.9316533    446.14622  0.018469375  0.018046771            5 
 2014000   0.93580242   -7.9030572    445.20026  0.018421063  0.018040774            5 
 2015000   0.92577088   -7.9142692    445.22649  0.018413006  0.018034815            4 
 2016000   0.91531751   -7.9269309    445.51501  0.018415799  0.018028804           11 
 2017000   0.91161125   -7.9547775     446.6175  0.018452219  0.018022846            6 
 2018000   0.92311883   -7.9573727    445.12275  0.018381349  0.018016833            5 
 2019000   0.93026971   -7.8962327    446.02191  0.018409357  0.018010809            3 
 2020000   0.93610331   -7.9136591    446.88722  0.018435942  0.018004765            2 
 2021000   0.94349223   -7.9092777     447.6625  0.018458787  0.017998727            5 
 2022000   0.93330455   -7.9505624    446.23102  0.018390662  0.017992703            8 
 2023000   0.92530233   -7.9231589    445.95466  0.018370187  0.017986586            4 
 2024000   0.92426632   -7.9187344    445.96652  0.018361599  0.017980521            4 
 2025000   0.93129227   -7.9171601    446.02568  0.018354966  0.017974477            4 
 2026000   0.93284094   -7.8817644     447.3071  0.018398614  0.017968397            5 
 2027000   0.93215932   -7.9050055    446.17169  0.018342858  0.017962343            7 
 2028000   0.92221907   -7.8690329    447.38425   0.01838364  0.017956309            4 
 2029000   0.93465375   -7.8946571    448.57323  0.018423412  0.017950278            3 
 2030000   0.94027169   -7.9408848    446.55026  0.018331291  0.017944252            3 
 2031000   0.91398876   -7.9364958    445.99185  0.018299354  0.017938177            5 
 2032000   0.93491536   -7.9340438    446.99678  0.018331561  0.017932102            6 
 2033000   0.93075314   -7.8941956    447.30777  0.018335291  0.017926055            3 
 2034000   0.94152748   -7.9231782    445.73162  0.018261702  0.017920047           10 
 2035000   0.94377424   -7.8996987     447.0854  0.018308165  0.017914039            5 
 2036000   0.92802019   -7.9053297    447.79815  0.018328346  0.017908016            4 
 2037000   0.93046948   -7.9045513    447.89954  0.018323496  0.017901978           16 
 2038000   0.93714496   -7.9009045    446.64315  0.018263132  0.017895892            7 
 2039000   0.94089285   -7.8926678    448.43708  0.018327492  0.017889883           11 
 2040000   0.94519576   -7.9130421    448.18604  0.018308253  0.017883915            8 
 2041000   0.91359392   -7.8699006    448.02254  0.018292607  0.017877922            2 
 2042000   0.93253193   -7.9060766    448.34973  0.018297002   0.01787191            3 
 2043000   0.91342634   -7.9073347     447.6147  0.018258064  0.017865943            3 
 2044000   0.93188058   -7.8922576    449.69001  0.018333742  0.017859993           10 
 2045000    0.9323916   -7.8757635    448.47765  0.018275373  0.017854036            8 
 2046000   0.93323573   -7.9572014    447.33598  0.018219941  0.017847984            5 
 2047000   0.92528106   -7.9079632    449.17036  0.018285717  0.017841943            5 
 2048000   0.90804495   -7.9564172    448.80303  0.018261842  0.017835974            8 
 2049000   0.92012817   -7.9012983    450.22336  0.018310695  0.017829999            3 
 2050000   0.92731953   -7.8795919    449.03532  0.018253468  0.017824044            5 
 2051000   0.93590667   -7.8830493    448.95849  0.018241447  0.017818142            8 
 2052000   0.91906998   -7.8930089    449.48347  0.018253877  0.017812287            4 
 2053000   0.91609586    -7.881478    449.51847  0.018246407  0.017806368            5 
 2054000   0.92139823   -7.9352974    448.97236  0.018215367  0.017800422            6 
 2055000   0.91539421   -7.9247858    449.49303  0.018227617  0.017794451           10 
 2056000   0.92199137   -7.8978252    450.94793  0.018277721  0.017788461            4 
 2057000   0.92756511    -7.943083    448.30551  0.018161785  0.017782467            8 
 2058000   0.92763005   -7.9177238    448.64515  0.018166713  0.017776482            7 
 2059000    0.9062621    -7.875498    450.63665  0.018238492  0.017770502            7 
 2060000   0.92688411   -7.8955007    449.70904  0.018192113  0.017764537            9 
 2061000   0.90764714   -7.9254652    450.91619  0.018232096  0.017758534            5 
 2062000   0.94606556    -7.950588    448.38785  0.018121074  0.017752556            8 
 2063000   0.92260589   -7.9343507    448.77038  0.018127742  0.017746535           10 
 2064000    0.9195386   -7.9601792    449.17278  0.018135206  0.017740531            3 
 2065000   0.92291563   -7.9251603     449.0733  0.018122409  0.017734523            7 
 2066000   0.91597673   -7.9173783    450.28859  0.018162657  0.017728499            8 
 2067000   0.93551538   -7.9641796    448.39839  0.018077664  0.017722516            4 
 2068000    0.9165261   -7.9391083    449.77747  0.018124495  0.017716491            3 
 2069000   0.95649937   -7.9714816    449.43952  0.018102124  0.017710473            5 
 2070000   0.91784627   -7.8973699    449.97569  0.018114964  0.017704527            8 
 2071000   0.92600183   -7.9311191    450.58193  0.018130611  0.017698587            6 
 2072000   0.92913986   -7.9189461    450.28058   0.01810974  0.017692676           13 
 2073000   0.92289081   -7.8648923    451.99005  0.018169724   0.01768679            9 
 2074000   0.92369608   -7.8966617    451.20269  0.018129327  0.017680865            5 
 2075000   0.91271604   -7.9488069    450.12306  0.018077231  0.017674915            6 
 2076000   0.92767502   -7.9129799    451.89207  0.018139534   0.01766897            5 
 2077000   0.91542952   -7.9148462    452.32694  0.018148248  0.017663101            5 
 2078000   0.93403584   -7.9146767    452.10574  0.018130644  0.017657193            5 
 2079000   0.90914314   -7.9617766    450.95979   0.01807599  0.017651255            8 
 2080000   0.90789984   -7.9322007    449.65334  0.018014957  0.017645236           19 
 2081000   0.90500064   -7.9303091    451.51271  0.018080759  0.017639252            3 
 2082000   0.91857544   -7.9292173    452.05602  0.018093821  0.017633313            2 
 2083000   0.93038074    -7.915791    451.22877  0.018052039  0.017627423            5 
 2084000    0.9114346   -7.9236487     452.5705  0.018097029  0.017621576            4 
 2085000   0.89944665   -7.8911105    453.38131  0.018120756  0.017615696            4 
 2086000   0.93102219    -7.930335      451.938   0.01805441  0.017609845            5 
 2087000   0.90950244   -7.9634178    451.12137  0.018013152  0.017603992            5 
 2088000   0.92089858   -7.9293655    451.66638  0.018026276  0.017598134            6 
 2089000   0.93999794   -7.9359079    452.27729  0.018042017  0.017592273            8 
 2090000   0.91755551   -7.9188866    451.27576  0.017993451  0.017586385            8 
 2091000   0.91353448   -7.9313086     452.2224  0.018022573  0.017580497           11 
 2092000   0.92284337    -7.930481    453.23577  0.018054325  0.017574628            9 
 2093000   0.91893834   -7.9398556    453.58967   0.01805979  0.017568748           10 
 2094000   0.91869761   -7.9833778    451.37677    0.0179631  0.017562908            9 
 2095000   0.91521795   -7.9592843    452.05924  0.017981672  0.017556997            5 
 2096000   0.90943554   -7.9299416    452.95695  0.018008785  0.017551098            5 
 2097000   0.90050984   -7.9578345    451.80649  0.017954478  0.017545193            4 
 2098000    0.9144498    -7.990037    451.36163   0.01792825  0.017539298            9 
 2099000   0.92682137   -7.9398202    453.33816   0.01799818  0.017533411            7 
 2100000    0.9128008   -7.9323824    452.78246  0.017967558   0.01752752            9 
 2101000   0.91062594   -7.9261232    453.03496  0.017969021   0.01752165            7 
 2102000   0.91302609   -7.9684115    453.13407  0.017964402  0.017515773            7 
 2103000   0.93564698   -7.9436089    452.76092  0.017941073  0.017509853            9 
 2104000   0.90733468   -8.0043131    452.16455  0.017908925  0.017503906            5 
 2105000   0.92062683   -7.9221169    454.28092  0.017984201   0.01749799            7 
 2106000    0.9356984   -7.9544509    452.90404  0.017921179   0.01749204            5 
 2107000    0.9108509   -7.9672804     452.5039  0.017896848  0.017486104            4 
 2108000   0.91105366   -7.9606513    452.66538  0.017894741  0.017480194           19 
 2109000   0.92519698   -7.9499346     454.5935  0.017962443  0.017474327           14 
 2110000    0.9026322    -7.937921    454.12602  0.017935467  0.017468508           14 
 2111000   0.91859352   -7.9308119    453.17596  0.017889466  0.017462692            5 
 2112000   0.91789318   -7.9610927    453.29315   0.01788562   0.01745692           10 
 2113000   0.93407516   -7.9811568    453.97055  0.017903871  0.017451074            6 
 2114000   0.92194673   -7.9593919    453.08572  0.017860522  0.017445188            6 
 2115000   0.91663559   -7.9749494    453.47251  0.017867317  0.017439343            6 
 2116000   0.92184441   -7.9441994    455.32479  0.017931821  0.017433497            7 
 2117000   0.88888718   -7.9449746    454.58135  0.017894085   0.01742769            3 
 2118000   0.92962716   -7.9785563    453.60995  0.017847417  0.017421868            3 
 2119000    0.9223922   -7.9473666    454.22753  0.017863282   0.01741604            7 
 2120000    0.9318026   -7.9528696    454.07167  0.017848729  0.017410196            4 
 2121000   0.90346874   -7.9374655    455.06263  0.017879248  0.017404411            5 
 2122000   0.88558341   -7.9402402    453.89471  0.017824957  0.017398563           14 
 2123000   0.90165457   -7.9388511    455.26554   0.01787037  0.017392761            6 
 2124000   0.89723411    -7.960464    454.52439  0.017832878   0.01738692            5 
 2125000   0.90725402   -7.9760563    455.20329  0.017851109   0.01738105            4 
 2126000   0.90906417   -7.9351675    454.47551  0.017814186  0.017375179           11 
 2127000   0.90282143   -7.9793828    454.27603  0.017797995   0.01736929            3 
 2128000   0.90350534   -7.9513661    454.08626    0.0177822  0.017363342            5 
 2129000   0.91342756   -7.9772089    453.27232  0.017741988   0.01735741            6 
 2130000   0.90629122   -8.0053291    454.72635  0.017790546  0.017351487            6 
 2131000   0.91445972   -7.9781432    454.64232  0.017778911  0.017345558            5 
 2132000   0.91317838   -7.9891277    455.18273  0.017791695   0.01733967            8 
 2133000   0.91431029   -7.9533834     455.7154  0.017804165   0.01733381            9 
 2134000   0.88886626   -7.9855037    453.83682  0.017722462  0.017327957           11 
 2135000   0.91608594   -7.9423168    456.19959  0.017806385  0.017322132            5 
 2136000   0.90765034   -7.8943125    455.38166  0.017766138  0.017316338           14 
 2137000   0.91024941   -7.9509181    455.45139  0.017760544  0.017310512            9 
 2138000   0.90367484   -7.9156619    456.09606  0.017777364  0.017304652           11 
 2139000   0.91635186   -7.9718489    454.44986  0.017704919  0.017298801            5 
 2140000   0.93140556   -7.9589237    455.70151  0.017745386  0.017292952            8 
 2141000   0.88711153   -7.9773161    454.94024  0.017707467  0.017287109            9 
 2142000   0.90003633    -7.958207    455.09989  0.017705411  0.017281265            9 
 2143000   0.91112529   -7.9750263    456.15636  0.017738232  0.017275376            9 
 2144000   0.91825493   -7.9518365    455.54486   0.01770619  0.017269494            4 
 2145000   0.89289492   -7.9595058    456.44556  0.017732928  0.017263648            7 
 2146000   0.90470056   -7.9774016    456.40309  0.017723015    0.0172578            4 
 2147000   0.90322596   -7.9657566    454.59449  0.017644562  0.017251915            7 
 2148000    0.9040282   -7.9788931    455.65016  0.017677303  0.017245987            8 
 2149000   0.88888214   -7.9852487    454.91507  0.017640572  0.017240074            5 
 2150000   0.91471327   -7.9863506    454.88549  0.017631221  0.017234165           11 
 2151000   0.89713909   -7.9751339     455.8643  0.017660944  0.017228256           13 
 2152000   0.92598966   -7.9609094    455.78995  0.017649859  0.017222267           29 
 2153000    0.9033624   -7.9732874    455.21429  0.017619379  0.017216364            8 
 2154000   0.89476939   -7.9615749    457.26374  0.017690488  0.017210517           19 
 2155000   0.90514578   -7.9595026    456.91623  0.017668841  0.017204681           11 
 2156000   0.89696658   -7.9428145    456.39213  0.017640389  0.017198837           13 
 2157000   0.90657231   -7.9772593    455.98778  0.017616589  0.017192969           18 
 2158000   0.90289446   -7.9517374     456.8358  0.017641172  0.017187045           10 
 2159000   0.90166743   -7.9530409    456.21792  0.017609152  0.017181149           21 
 2160000   0.90916778   -7.9561378    455.49547  0.017573128  0.017175248           15 
 2161000   0.90073119   -8.0081633    455.51213  0.017565638  0.017169299            5 
 2162000   0.90510453   -8.0140926    455.80309  0.017568729  0.017163328            4 
 2163000   0.90992845   -7.9756453    455.52688  0.017549965  0.017157349            6 
 2164000   0.89823377   -7.9920404       454.91  0.017518099  0.017151382           21 
 2165000   0.88089274   -8.0086196    456.75855  0.017581161  0.017145435           14 
 2166000   0.91109994   -7.9651804    457.12139  0.017587003  0.017139492           12 
 2167000   0.89635427   -7.9607089    457.13404  0.017579374  0.017133597           10 
 2168000   0.90154938   -7.9581793    457.90852  0.017601035  0.017127722            9 
 2169000   0.91888039   -8.0111388    455.73915  0.017509572  0.017121792            4 
 2170000   0.90556152    -7.970186    456.98698  0.017549423  0.017115897            5 
 2171000    0.8885968   -7.9599726    457.87141  0.017575288  0.017110016            9 
 2172000   0.88734215   -7.9854679    457.34386  0.017546956  0.017104134            7 
 2173000   0.93927936   -7.9706893     456.1199  0.017491943  0.017098219            8 
 2174000   0.90306042   -7.9495024    457.95063  0.017554072  0.017092289           10 
 2175000   0.91162127   -8.0373189     455.7091  0.017460119  0.017086356            4 
 2176000   0.90501117   -7.9994402    456.42402  0.017479474  0.017080454            6 
 2177000   0.91241186   -7.9916671    456.18828  0.017462421  0.017074551           10 
 2178000   0.91077377    -8.002118    456.70266  0.017474084  0.017068641            4 
 2179000   0.90321892   -7.9740281     457.7754   0.01750709  0.017062735           13 
 2180000   0.89266063   -7.9890733     455.8978  0.017427286  0.017056784            6 
 2181000   0.91511653   -7.9789923    457.53909  0.017482007  0.017050857            7 
 2182000   0.90137643   -7.9663563    456.50629  0.017434551  0.017044966            7 
 2183000   0.89494866   -7.9597708     457.3802  0.017459925  0.017039099            5 
 2184000   0.89095964   -8.0013101    457.32494  0.017449822  0.017033227            7 
 2185000   0.89917207   -7.9847501    457.51407  0.017449049  0.017027353            7 
 2186000   0.91051883   -7.9815165    456.34924  0.017396662  0.017021496           14 
 2187000   0.90436867   -7.9584245    457.92867   0.01744889  0.017015599            7 
 2188000   0.91274567   -7.9767866    457.39387  0.017420547  0.017009721            4 
 2189000   0.89266403   -7.9709863     457.8313  0.017429241  0.017003812            7 
 2190000   0.90667117   -8.0144546     458.1644  0.017433958   0.01699787            6 
 2191000    0.8912011   -8.0071388    457.93762  0.017417375  0.016991928           10 
 2192000   0.89893071   -8.0114847    457.64778   0.01739841  0.016986023            5 
 2193000   0.91230476   -8.0317202     458.1749  0.017410507  0.016980161           16 
 2194000   0.90511055   -8.0000787    458.61015  0.017419103  0.016974286           12 
 2195000   0.90171369   -7.9970296    458.58286  0.017410131  0.016968428           10 
 2196000   0.90416883   -7.9970921    458.42368  0.017396163  0.016962556            9 
 2197000   0.90499928   -7.9695399     458.7391  0.017400209  0.016956653           17 
 2198000   0.89059162   -7.9961542    457.45683  0.017343677  0.016950702           18 
 2199000   0.90782981   -8.0137247    457.62334    0.0173421  0.016944766            8 
 2200000   0.89778854   -8.0105661    457.30778  0.017322264  0.016938763            4 
 2201000   0.89083336    -8.013225    457.44758  0.017319687  0.016932819           15 
 2202000   0.90826778   -7.9715771    458.87325  0.017365776  0.016926893           15 
 2203000     0.904508   -8.0098798    458.40812  0.017340298  0.016920924            7 
 2204000   0.88167528   -7.9939938    458.04033  0.017318524  0.016914974           10 
 2205000   0.90265266   -8.0361918    457.75335  0.017299824     0.016909           13 
 2206000    0.9012327   -8.0154272    457.63997  0.017287699  0.016903037            4 
 2207000   0.92659351   -7.9892419    459.43326  0.017347578  0.016897084            4 
 2208000   0.89681394   -7.9852065    458.46784  0.017303285  0.016891154            4 
 2209000   0.90068036    -8.019634    457.09042  0.017243489  0.016885239            3 
 2210000   0.88839612   -8.0061664    458.85124  0.017302083  0.016879279            8 
 2211000    0.9005863   -8.0197439     458.1598  0.017268197  0.016873317            7 
 2212000   0.90222878   -8.0069485    458.60579  0.017277192  0.016867318            7 
 2213000   0.90209516   -7.9817836    458.56047  0.017267678  0.016861362            5 
 2214000   0.90582033   -7.9814918    458.73124  0.017266307   0.01685541            4 
 2215000    0.9120011   -8.0038305    459.26533  0.017278605   0.01684946           10 
 2216000    0.8805019   -8.0001395    458.03742  0.017224632  0.016843471           10 
 2217000   0.89885059    -7.988474    458.45059  0.017232393  0.016837526            3 
 2218000   0.88699928   -8.0000241    459.29363  0.017256298  0.016831559            6 
 2219000   0.90867019   -8.0085768    458.37767  0.017214123  0.016825601           22 
 2220000   0.88286475   -7.9499331    460.61527  0.017290363  0.016819651           12 
 2221000   0.89862597   -8.0036163     458.7073   0.01721099  0.016813749            8 
 2222000   0.89081299   -8.0323557    458.46569  0.017194183  0.016807804            9 
 2223000   0.91315003   -7.9979962    458.72876   0.01719631  0.016801878            4 
 2224000   0.88171974   -8.0226919    459.40582  0.017213947  0.016795906            6 
 2225000   0.88497156   -8.0377396    458.78681  0.017183027  0.016789909            6 
 2226000   0.88597094   -8.0327796     458.3528   0.01715906  0.016783867            5 
 2227000   0.87722106   -8.0027076    458.92226  0.017172664  0.016777863           15 
 2228000     0.893958   -8.0164546    459.12958   0.01717271  0.016771876           15 
 2229000   0.90032319   -8.0431518    458.24124  0.017131795    0.0167659            9 
 2230000   0.87776986   -8.0388807    458.19068  0.017122223  0.016759899            5 
 2231000   0.87696654   -8.0003834     460.8288  0.017213088  0.016753869            9 
 2232000   0.87160862   -7.9357899    460.89653  0.017207905  0.016747924            4 
 2233000   0.90023577   -7.9891792    460.12257  0.017171315  0.016742007            7 
 2234000   0.91348898   -7.9824443    460.72071  0.017185941  0.016736115            4 
 2235000   0.90021063   -7.9836481    459.28618  0.017124764  0.016730189            4 
 2236000   0.91382548   -7.9735252    460.19715  0.017151057  0.016724298            4 
 2237000   0.91284488   -7.9938868    459.72718  0.017125882  0.016718381            5 
 2238000   0.88668241   -7.9859997    460.25981  0.017138063  0.016712488           10 
 2239000   0.88440183   -7.9663861    459.92106  0.017117801   0.01670663            5 
 2240000   0.87593746   -8.0112635    460.77863  0.017142062  0.016700782            6 
 2241000   0.86965563    -8.030576    458.62368  0.017054279  0.016694849            3 
 2242000   0.87754417   -8.0430307    459.76327   0.01708903  0.016688922            7 
 2243000    0.8851784   -7.9976762    460.26585  0.017100084  0.016682989            6 
 2244000   0.89340514   -8.0098592     459.5169   0.01706465  0.016677034            7 
 2245000   0.89070634   -8.0477991    459.36652  0.017051467   0.01667105           10 
 2246000   0.88902795   -8.0476734    460.26639  0.017077263  0.016665059           12 
 2247000    0.8938703    -8.001603    460.19738  0.017067104  0.016659112           17 
 2248000   0.88893033   -8.0137631    460.41818  0.017067696  0.016653198            5 
 2249000    0.8850163   -8.0013364    460.76063  0.017072797  0.016647227           10 
 2250000   0.91636971   -8.0058538    460.52388   0.01705644  0.016641306           15 
 2251000   0.88489514   -8.0395738    458.13011  0.016960244  0.016635322           12 
 2252000   0.88723824   -8.0838561    459.33446  0.016997279  0.016629297            8 
 2253000   0.87990408   -8.0443905    459.57122  0.016998492  0.016623261            5 
 2254000   0.88575423   -8.0375691    459.45118  0.016986512  0.016617229            9 
 2255000    0.9082866   -8.0415193    460.64322  0.017023031  0.016611247            6 
 2256000    0.8970597   -8.0383718    460.44092  0.017008013  0.016605298            9 
 2257000   0.86238216    -8.013328    459.76738  0.016975609  0.016599357           22 
 2258000   0.89247774   -8.0659616    458.74666   0.01693042  0.016593399           38 
 2259000   0.87663831   -8.0411417    459.47396  0.016949755    0.0165874           27 
 2260000    0.9080413   -8.0394544    460.02337  0.016962514   0.01658136           28 
 2261000   0.88499491   -8.0783496    459.49945  0.016935701  0.016575327           28 
 2262000   0.88310995   -8.0619798    459.42794   0.01692558  0.016569302           40 
 2263000   0.90447676   -8.0490908    459.23525  0.016911005  0.016563305           30 
 2264000   0.88442523   -8.0195786     461.6128  0.016991048  0.016557307           12 
 2265000    0.8865207   -8.0208628     461.3634  0.016974371  0.016551351           18 
 2266000   0.88159885   -8.0613166    460.31221  0.016928222  0.016545407            6 
 2267000   0.88517327   -7.9822162    461.81349  0.016975941  0.016539483           14 
 2268000    0.8708989   -8.0286355    461.23319  0.016947134  0.016533575           15 
 2269000   0.88265995   -8.0362132    461.32324  0.016942972  0.016527675            4 
 2270000   0.86735321   -8.0117526    460.27588  0.016897059  0.016521727            7 
 2271000   0.87649461   -8.0158215    461.49555  0.016934374  0.016515831            3 
 2272000   0.90289462   -8.0252979    461.22077  0.016916842  0.016509926           12 
 2273000   0.89005328      -8.0309    460.73837  0.016891713  0.016504025           20 
 2274000   0.90454957   -8.0071733    461.44307  0.016910109  0.016498114           11 
 2275000   0.88618616   -8.0356101    459.51066  0.016831892  0.016492133           11 
 2276000   0.87935736   -8.0265751     460.9439  0.016876973  0.016486189           11 
 2277000   0.89798704   -8.0475302    460.99338  0.016871373  0.016480227            5 
 2278000   0.87817017   -8.0538568    460.63343  0.016850799  0.016474319            5 
 2279000   0.89483626   -8.0333016     461.0363  0.016858136  0.016468384           12 
 2280000    0.8811348   -8.0084948    461.03875  0.016850831  0.016462473           20 
 2281000   0.88685846   -8.0507848    461.34731  0.016854717  0.016456555            7 
 2282000   0.87391039   -8.0341714    460.26759  0.016807902  0.016450651           28 
 2283000   0.88587859     -8.00896    462.39439  0.016878172  0.016444763           21 
 2284000   0.86211023   -8.0451548     462.2073  0.016863956  0.016438868           13 
 2285000   0.87591039   -8.0268216     463.0025  0.016885576  0.016432968           14 
 2286000   0.87142667   -8.0284047    461.09304  0.016808583  0.016427018           20 
 2287000   0.90477289   -8.0664176    461.92589   0.01683158  0.016421122           26 
 2288000   0.86599748   -8.0652951    460.86298  0.016785511  0.016415204           14 
 2289000   0.87842606   -8.0359442    461.58512  0.016804468  0.016409257           22 
 2290000   0.91311829   -8.0475482    461.87666  0.016807739  0.016403375           41 
 2291000   0.88253238   -8.0379924    463.11653  0.016845502  0.016397488           21 
 2292000   0.89731567   -8.0481063    461.95373  0.016795874  0.016391601           35 
 2293000    0.8966725   -8.0064627     463.3519  0.016839363  0.016385706           32 
 2294000   0.89205555   -8.0451294    462.61952  0.016805417  0.016379821           59 
 2295000   0.87000098   -8.0777138    461.91909  0.016772661   0.01637387           53 
 2296000   0.87963034   -8.1004699    461.08888  0.016735224  0.016367889           35 
 2297000   0.86549873   -8.0762561    462.17014  0.016767165  0.016361929           30 
 2298000   0.88153097   -8.0440307    460.91103  0.016714209  0.016355973           32 
 2299000   0.88953878   -8.0513182    461.86172  0.016741399  0.016350036           33 
 2300000   0.87863612   -8.0568014    462.14641  0.016744435  0.016344112           47 
 2301000   0.88828259   -8.0764202    462.07068  0.016734415  0.016338167           40 
 2302000   0.87765704   -8.0418824    462.73536  0.016751207  0.016332264           34 
 2303000   0.89084762   -8.0640367    461.26509  0.016690733  0.016326338           72 
 2304000   0.86906692   -8.0627717    462.66708  0.016734197  0.016320463           27 
 2305000   0.88389511   -8.0336769    462.10204  0.016706509    0.0163146           33 
 2306000   0.88300081   -8.0635194    463.47269  0.016748796  0.016308713           74 
 2307000     0.877163   -8.0546016    463.24293  0.016733237  0.016302835           28 
 2308000   0.86867482   -7.9906376    464.44793  0.016769495  0.016297004           18 
 2309000   0.86168865   -8.0249212    463.24219  0.016718716  0.016291134           11 
 2310000   0.89205144   -8.0484463    462.87165  0.016698112  0.016285283           14 
 2311000   0.86334958   -8.0344651    462.49288  0.016677228  0.016279387           16 
 2312000    0.8978384   -8.0641811     463.7041  0.016713672  0.016273526           19 
 2313000   0.89865835   -8.0192372    464.01696  0.016717717  0.016267696           15 
 2314000    0.8839232   -8.0602634    463.93063  0.016707384  0.016261896           10 
 2315000   0.89070558   -8.0180078    463.76925  0.016694357   0.01625609           32 
 2316000    0.8806535   -8.0685278    462.87611  0.016655013  0.016250296            3 
 2317000   0.88973443   -8.0437216    464.07381  0.016690901  0.016244466            2 
 2318000     0.879077   -8.0535645    464.05045  0.016682861  0.016238683            8 
 2319000   0.87574682   -8.0604082    463.52995  0.016656963  0.016232873            5 
 2320000   0.87820174   -8.0183816    464.94435  0.016700587  0.016227085           12 
 2321000   0.89059408   -8.0668815     463.8014  0.016652355  0.016221277           10 
 2322000   0.89362234   -8.0691262    464.51172  0.016670676  0.016215461           10 
 2323000   0.86892303   -8.0421924    464.37793    0.0166587  0.016209606            9 
 2324000    0.8886726   -8.0721487    462.92977  0.016599604   0.01620379           14 
 2325000   0.87510886   -8.0708427    464.55578  0.016650745  0.016197965            3 
 2326000   0.87658698   -8.0585667    464.02639   0.01662462  0.016192108            7 
 2327000   0.88167011   -8.0904352    464.28164  0.016626616  0.016186287           11 
 2328000   0.87770739   -8.1041207    463.92899  0.016606851  0.016180461           23 
 2329000   0.87897989   -8.0650109    465.00599  0.016638256  0.016174658           12 
 2330000   0.88687266   -8.0624878    463.88217  0.016590922  0.016168854            4 
 2331000   0.87265007   -8.0610476    465.33463   0.01663573  0.016163053            9 
 2332000   0.87973083   -8.0692429    465.16241  0.016622442  0.016157282            6 
 2333000   0.87162097   -8.0899035    464.48306  0.016591051  0.016151473            8 
 2334000   0.86401453   -8.0290791     466.5886  0.016659119  0.016145702           22 
 2335000   0.88151613   -8.0839351    465.51392   0.01661363  0.016139963           21 
 2336000   0.88383736   -8.0251648    464.85974  0.016583181  0.016134165           15 
 2337000   0.88515248   -8.0301216    465.59704  0.016602376  0.016128407            9 
 2338000   0.85491542   -8.0357579    465.46941  0.016590726  0.016122642            7 
 2339000   0.88618731   -8.0439986    465.12091  0.016571217  0.016116868            4 
 2340000    0.8714096   -8.0308186    464.49532  0.016541856  0.016111092            8 
 2341000   0.87836614   -8.0287264    465.20468  0.016560041  0.016105375           16 
 2342000   0.88220715   -8.0441228    465.58856   0.01656663  0.016099631           25 
 2343000   0.86678895   -8.0398828     464.8027  0.016531608  0.016093891           21 
 2344000   0.88850271   -8.0610823    465.56253  0.016551569  0.016088137           17 
 2345000   0.87888241   -8.0270796    465.54186  0.016543776  0.016082396            8 
 2346000   0.86412529   -8.0238064    465.85406  0.016547814  0.016076682            8 
 2347000   0.86984897   -8.0312896    466.39136  0.016559841  0.016070962           18 
 2348000   0.87225655    -8.053399    465.48515  0.016520626  0.016065254            7 
 2349000   0.88136122   -8.0481546    465.88711  0.016527853  0.016059529            8 
 2350000   0.88625118   -8.0645865    464.97367  0.016488428  0.016053779            7 
 2351000   0.88065882   -8.0940291    464.36718  0.016459917  0.016047995            7 
 2352000   0.88062598   -8.0657382    466.21123  0.016518255  0.016042225            6 
 2353000    0.8795964    -8.084279    465.99404  0.016503543  0.016036482            3 
 2354000   0.88528103   -8.0867168    465.42347  0.016476334  0.016030737            7 
 2355000   0.87690557    -8.078824    465.88297  0.016485597  0.016025003            8 
 2356000   0.86767963   -8.0483633    466.58201  0.016503325  0.016019292            5 
 2357000   0.88936775   -8.0509098    464.78859  0.016432916   0.01601358           11 
 2358000   0.88210617   -8.0892274    465.85011  0.016463462   0.01600787            7 
 2359000   0.87306828   -8.0892441    465.96829  0.016460658  0.016002133           16 
 2360000   0.87558053   -8.0786285    465.34876  0.016431807   0.01599639            5 
 2361000   0.86847882   -8.0623415    467.05131   0.01648494   0.01599066            8 
 2362000   0.87148415   -8.0825659    466.01388  0.016441359  0.015984922            8 
 2363000   0.86747226   -8.0737355    465.93913  0.016431765  0.015979223            9 
 2364000   0.86559553   -8.0700801    465.85699  0.016421919  0.015973523           10 
 2365000   0.86377089   -8.0659621    466.93135  0.016452831  0.015967823            6 
 2366000   0.87653325   -8.0752321    467.10796  0.016452098   0.01596211           13 
 2367000   0.86969533    -8.084253     467.0787  0.016444117  0.015956397            9 
 2368000    0.8483801   -8.0960332    466.78267  0.016426755  0.015950723           20 
 2369000     0.855991   -8.0935787    467.31745  0.016438633  0.015945044            6 
 2370000   0.86916028   -8.0945525    465.86317  0.016380562  0.015939373            6 
 2371000   0.87527795   -8.0668763    467.84058  0.016443153  0.015933676            5 
 2372000   0.84814749   -8.0630602    467.15676  0.016412197  0.015927976           14 
 2373000   0.84690919   -8.0895895     465.8151  0.016358165  0.015922284            4 
 2374000   0.86857097   -8.0899263     466.8474  0.016387511  0.015916579            3 
 2375000    0.8795934   -8.1052528     466.5599  0.016370523  0.015910845            8 
 2376000   0.85441274   -8.1312946    466.23048  0.016352079  0.015905097           11 
 2377000   0.88097634   -8.1168448    466.34812  0.016349324  0.015899331           10 
 2378000   0.87768275   -8.0839698    467.13962  0.016370186  0.015893595           10 
 2379000   0.87769833   -8.0916716    466.54837  0.016342594  0.015887888            8 
 2380000   0.85987874   -8.1375895    465.60854   0.01630282  0.015882139            6 
 2381000   0.87058622   -8.0989422    466.67634  0.016333345   0.01587637           10 
 2382000   0.86792661   -8.1063865     465.5254  0.016286223  0.015870613            7 
 2383000   0.88380452   -8.0938965    465.72617   0.01628641  0.015864828           13 
 2384000   0.88090055   -8.0721395    466.42721  0.016304083  0.015859049           11 
 2385000   0.85279221    -8.041782    468.16667  0.016358025   0.01585334            8 
 2386000   0.88915775   -8.0699874    466.62567  0.016297348   0.01584763            7 
 2387000   0.87323816   -8.0631317    468.11059  0.016342361  0.015841932            8 
 2388000   0.86816154   -8.0768111    467.26709  0.016306082  0.015836232            6 
 2389000   0.86229251   -8.0703667    467.81452  0.016318352  0.015830539           10 
 2390000   0.88290078   -8.0514911    467.02917  0.016284141  0.015824859            6 
 2391000    0.8756543   -8.0862125    466.78772  0.016268915  0.015819188            5 
 2392000   0.86635922   -8.1017948    467.41251  0.016283881  0.015813452           23 
 2393000   0.86419966     -8.04913    468.74095  0.016323337   0.01580774            5 
 2394000   0.87446291   -8.0701102    467.45226  0.016271661  0.015802031            6 
 2395000    0.8531411   -8.0845823    466.99502  0.016248957  0.015796334            5 
 2396000   0.87659426   -8.0987302    467.27001  0.016251739  0.015790618            7 
 2397000    0.8615703   -8.1200984    467.39997  0.016249477  0.015784901            8 
 2398000    0.8681348   -8.1012124    466.42137  0.016208694  0.015779178            5 
 2399000   0.85639893   -8.1194254    467.45666    0.0162379  0.015773434            7 
 2400000   0.88419357   -8.1276921     467.0625  0.016217448  0.015767731            4 
 2401000   0.88160905   -8.1027824     467.7731  0.016235357  0.015761981           11 
 2402000   0.84746916   -8.1509426    466.09834  0.016170495  0.015756261           10 
 2403000   0.87889156   -8.0971088    466.87507  0.016190701  0.015750516            5 
 2404000   0.85411338   -8.1080082    466.61919  0.016175097  0.015744783            5 
 2405000   0.86821869   -8.0855128    467.63666  0.016203627  0.015739055            7 
 2406000   0.85701993   -8.0604952    469.26131  0.016253163  0.015733354           11 
 2407000   0.87477163   -8.0937438    467.06461  0.016170358  0.015727624            6 
 2408000   0.84222326   -8.0759927    468.55734  0.016215301  0.015721885           10 
 2409000   0.85119765   -8.0969475     466.9279  0.016152203  0.015716182           20 
 2410000   0.87296225   -8.1250515    466.99579  0.016147849  0.015710418            9 
 2411000   0.85670613   -8.1111825    467.24127  0.016149636  0.015704654           17 
 2412000   0.87350983   -8.1414822    466.94742  0.016132788  0.015698897            8 
 2413000   0.87797599   -8.1071568     467.3873  0.016141294  0.015693109           19 
 2414000   0.86604761   -8.1184957    466.47312  0.016103049  0.015687358           22 
 2415000    0.8735704   -8.1252591    467.09191  0.016117733  0.015681584           26 
 2416000   0.87564969   -8.0889543    468.20481  0.016149448  0.015675822           11 
 2417000   0.88170148   -8.0835291    467.45172  0.016116802   0.01567005            6 
 2418000    0.8691094   -8.1397923    466.90539  0.016091308  0.015664323           17 
 2419000   0.87876485   -8.1067297    468.78878  0.016149538  0.015658592            6 
 2420000   0.85007922   -8.1305612    468.94234  0.016148152  0.015652865            8 
 2421000   0.87044552   -8.1303207    467.31529  0.016085477  0.015647138           10 
 2422000   0.87678828   -8.1094926    466.75054  0.016059405  0.015641419            8 
 2423000   0.86498072   -8.1374035    467.02697  0.016062284   0.01563568           16 
 2424000    0.8692856   -8.1373638    468.16267  0.016094701  0.015629987            8 
 2425000   0.86668388   -8.1254348    467.76104  0.016074263  0.015624297            9 
 2426000   0.85825689   -8.1034003    466.70976  0.016031525  0.015618566           14 
 2427000   0.87699284   -8.1194208    468.24755  0.016077721  0.015612886           14 
 2428000     0.864417   -8.0925352    468.60883  0.016083499  0.015607171            6 
 2429000   0.86311744   -8.1004521    468.01174  0.016056393   0.01560147           12 
 2430000   0.87200236   -8.1151575     466.9041    0.0160118   0.01559572           10 
 2431000   0.85596646   -8.1241387    467.56321  0.016027808  0.015590008            5 
 2432000   0.84340931   -8.1027091    468.24682  0.016044642  0.015584269           18 
 2433000    0.8636405   -8.1349237    468.08662   0.01603256   0.01557854           20 
 2434000   0.86345614   -8.1419772    467.89465  0.016019401  0.015572811            7 
 2435000   0.85010132   -8.1312491    468.78633  0.016043338  0.015567112           14 
 2436000   0.84177215   -8.1246832    468.38021  0.016022859  0.015561376            7 
 2437000   0.86223228   -8.0963272    469.03756  0.016038762  0.015555657           13 
 2438000   0.86283196   -8.0894815    469.26078  0.016039814  0.015549976           19 
 2439000   0.86047729   -8.1137117     468.9783  0.016023585   0.01554432           17 
 2440000   0.86302441    -8.137394    469.16709  0.016023466  0.015538633           17 
 2441000   0.85596965    -8.137735    469.45008  0.016026563  0.015532941            8 
 2442000   0.86375982   -8.1201194    470.27837  0.016048266  0.015527266            5 
 2443000   0.86632807   -8.1440386    468.81451  0.015991762  0.015521572            8 
 2444000   0.86609962   -8.1481536    468.85528  0.015986609  0.015515853           13 
 2445000   0.87045883   -8.1231141    469.20286  0.015991917  0.015510148           10 
 2446000   0.85821552   -8.1374021    468.71113  0.015968627  0.015504444            4 
 2447000   0.87180345   -8.1380409    468.10868  0.015941584  0.015498721            6 
 2448000   0.87292712   -8.1665373    467.61351  0.015918216  0.015492974            7 
 2449000   0.85285002    -8.097127    468.57392  0.015944396  0.015487249            4 
 2450000   0.85196493   -8.0916348     469.5407  0.015970772  0.015481547            9 
 2451000   0.86239195   -8.1333323    468.90117  0.015942512  0.015475849            9 
 2452000   0.85786444   -8.0722686    468.49945  0.015922358   0.01547013            4 
 2453000   0.85347227   -8.1369463    468.44476  0.015914009   0.01546442           16 
 2454000   0.84070386   -8.1387634    467.94865  0.015890677   0.01545869           11 
 2455000   0.87388821   -8.1399318    468.02822  0.015886905     0.015453           16 
 2456000   0.86144741   -8.1162756    468.98756  0.015912987  0.015447315           16 
 2457000   0.86144751   -8.1213166    469.87585  0.015936639  0.015441641           20 
 2458000   0.87616301   -8.1090857    470.01707  0.015934943  0.015435968           24 
 2459000   0.84314047   -8.1071696       469.74  0.015919073  0.015430301           11 
 2460000   0.84616802   -8.1555636    468.66054  0.015876035  0.015424669           25 
 2461000   0.86574033   -8.1224345    469.96113  0.015913624  0.015419003            9 
 2462000   0.84409317   -8.1202618    469.42954  0.015889167  0.015413335            4 
 2463000   0.86665525   -8.0790919    469.73464  0.015893038  0.015407669            7 
 2464000    0.8587838     -8.14381    469.11473  0.015865623  0.015401972           19 
 2465000   0.85810097   -8.0963622    469.90879  0.015886031  0.015396308           18 
 2466000   0.85805028   -8.0858596    470.90455  0.015913238  0.015390707           12 
 2467000   0.85742992   -8.1082114    469.72975  0.015867104  0.015385115           21 
 2468000   0.86452346   -8.1422652    469.59097  0.015855989  0.015379485           20 
 2469000   0.85420007   -8.1226232    469.57188  0.015848923  0.015373836           23 
 2470000   0.85731893   -8.1225669    469.81428  0.015850684  0.015368176           27 
 2471000   0.85271864   -8.1549297    467.78007  0.015775667  0.015362547           46 
 2472000   0.83855032   -8.1400645     470.7985  0.015871039  0.015356888           46 
 2473000   0.84789032   -8.1205582    470.43087  0.015852233  0.015351269           16 
 2474000   0.83670272   -8.1377952    469.24239  0.015805793  0.015345628           36 
 2475000   0.84314752   -8.1866557    469.73228  0.015815902   0.01533993           18 
 2476000   0.86602453   -8.1721846    469.63881  0.015806368  0.015334257            6 
 2477000   0.87439866   -8.1270431     468.7176  0.015768995  0.015328606           19 
 2478000   0.82725956   -8.1746864    468.44223  0.015753371  0.015322944           18 
 2479000   0.84086471   -8.1547882    469.02193  0.015766503  0.015317246           22 
 2480000   0.85555225   -8.1795193    468.03711  0.015727053  0.015311562           15 
 2481000   0.84755073   -8.1744126    470.25194  0.015795108   0.01530588           23 
 2482000   0.85637711   -8.1495448    471.23531   0.01582176  0.015300237            5 
 2483000   0.84652334   -8.1514548    470.31833  0.015784613  0.015294615           12 
 2484000   0.87021695   -8.1470264    470.60149  0.015787758  0.015289011           12 
 2485000   0.84648229   -8.1830916    469.73091   0.01575221  0.015283393           32 
 2486000   0.86279514   -8.1465154    469.62619  0.015742364  0.015277752           15 
 2487000   0.85833366   -8.1898407    469.81098  0.015742226  0.015272092           23 
 2488000   0.85095949   -8.1987195    469.19027  0.015715108  0.015266434           10 
 2489000   0.85947914   -8.1664181    471.06586   0.01577159  0.015260792           14 
 2490000   0.86447313   -8.1226723    470.85003  0.015758033   0.01525516           15 
 2491000   0.87148881   -8.1515787    470.14511  0.015728125  0.015249533           13 
 2492000   0.85382987   -8.1518281    471.34826  0.015762047  0.015243911           14 
 2493000   0.85082414   -8.1400712    470.43605  0.015725232  0.015238286           13 
 2494000   0.84922982   -8.1424052    470.96563  0.015736622  0.015232669           15 
 2495000   0.86766537   -8.1395652    471.29787  0.015741412  0.015227068           21 
 2496000   0.85649463   -8.1562816    471.03739  0.015726409   0.01522146           16 
 2497000   0.87312808   -8.1014181    471.21744  0.015726119  0.015215901           24 
 2498000   0.87496646   -8.1648553    470.05899  0.015681178  0.015210332           11 
 2499000   0.83981152   -8.1198465    471.90129  0.015736338  0.015204764           24 
 2500000   0.85558375   -8.0948252    471.57252  0.015719084  0.015199215           11 
 2501000   0.85922891   -8.1351295    471.26025  0.015702394  0.015193671           24 
 2502000   0.84780715    -8.130286    471.20816  0.015694383  0.015188128           14 
 2503000   0.85549597   -8.1678807    470.54579   0.01566606  0.015182558           10 
 2504000   0.83152275   -8.1289924    471.81073  0.015701901  0.015176983            7 
 2505000   0.84468111   -8.1999156    470.31802  0.015645975  0.015171377           21 
 2506000   0.84580678   -8.1693258    470.88908  0.015658722   0.01516575           18 
 2507000   0.86038172   -8.1694363    470.60228  0.015642942   0.01516013           13 
 2508000   0.84508041   -8.1688278    469.51086  0.015600441  0.015154473           29 
 2509000   0.85425376   -8.1498335    470.65409  0.015632194   0.01514885           24 
 2510000   0.85275205   -8.1454018    470.96916  0.015636426   0.01514323           19 
 2511000   0.83716741   -8.1756324    469.90017  0.015594722  0.015137593           31 
 2512000   0.87057854    -8.140506    471.50437  0.015641732  0.015131954           15 
 2513000   0.83588285   -8.1928316    470.93713  0.015616698   0.01512632           14 
 2514000   0.84724989   -8.1616477    469.74209  0.015570873  0.015120662           14 
 2515000   0.86505936    -8.210679    469.77991  0.015565935   0.01511502           24 
 2516000   0.86325496   -8.1468608    471.10838  0.015603749  0.015109389           23 
 2517000   0.86713029   -8.1454053    472.15916  0.015632339  0.015103799           29 
 2518000   0.84824441   -8.1759037    471.58434  0.015607107  0.015098192           24 
 2519000   0.85440056   -8.1760418    470.73877  0.015572938  0.015092578           28 
 2520000   0.83779308   -8.1619778    470.79459  0.015568604  0.015086982           17 
 2521000   0.85488036   -8.1527464    471.70072  0.015592381  0.015081375           30 
 2522000   0.87444154   -8.1529851    471.36759  0.015575191  0.015075792           39 
 2523000   0.85721273   -8.1297204    470.95758  0.015555476  0.015070211           32 
 2524000    0.8700109   -8.1673476    471.66896    0.0155728  0.015064637           36 
 2525000    0.8377925   -8.1709536    471.00675  0.015544777  0.015059048           45 
 2526000    0.8599168   -8.1547739    471.05184  0.015540111  0.015053451           35 
 2527000   0.82856512   -8.1604826    471.27188  0.015541217  0.015047865           74 
 2528000   0.81691293   -8.1686258     470.1305  0.015497445  0.015042281           40 
 2529000   0.84376228   -8.1711634    471.17218  0.015525642  0.015036686           45 
 2530000   0.85098105   -8.1209889    471.33833  0.015524978  0.015031083           30 
 2531000    0.8630771   -8.1556135     471.7781  0.015533323  0.015025478           85 
 2532000   0.85922023   -8.1781955    471.89358  0.015530989  0.015019893           54 
 2533000   0.84946191    -8.161787    472.28713  0.015537805  0.015014291          117 
 2534000   0.84568805   -8.1780778    471.04005  0.015490662  0.015008686           48 
 2535000   0.85018289   -8.1709153    472.47858   0.01553184  0.015003088           40 
 2536000   0.85448713   -8.1970744    470.68972  0.015466934  0.014997495           41 
 2537000   0.85255958   -8.2014866    470.33176  0.015449079  0.014991904           43 
 2538000   0.84174926   -8.1949968    470.69967  0.015455072  0.014986344           33 
 2539000   0.83803107    -8.161025    471.91543  0.015488888  0.014980779           43 
 2540000   0.86709975   -8.1956911     471.6585   0.01547436  0.014975204           46 
 2541000   0.85264364   -8.2185899    469.49977  0.015397474  0.014969603           53 
 2542000   0.85025532     -8.20433     471.0598  0.015442558  0.014963983           55 
 2543000   0.82508775   -8.2326355    471.05033  0.015436175  0.014958365           40 
 2544000    0.8425043   -8.1999406    471.27855  0.015437584  0.014952749           45 
 2545000   0.84075019   -8.2054803    471.20486  0.015429105  0.014947168           47 
 2546000   0.82871479   -8.2082366    470.72284  0.015407268  0.014941574           35 
 2547000   0.84995436   -8.1959011    470.37301  0.015389773  0.014935955           65 
 2548000   0.83916915   -8.2091487    470.78913  0.015397342   0.01493034           17 
 2549000   0.83655606   -8.2189972    470.58105  0.015384499  0.014924717           45 
 2550000   0.85891433   -8.2184786    469.87487  0.015355388  0.014919069           52 
 2551000   0.84742513   -8.2255617    470.40376  0.015366646  0.014913438           46 
 2552000   0.84199338    -8.178509     472.0548  0.015414538  0.014907797           46 
 2553000   0.85280585   -8.2183427    470.88171  0.015370208  0.014902181           44 
 2554000   0.84310577   -8.1997965    471.84813  0.015395723  0.014896583           60 
 2555000   0.85005924   -8.2204805    471.22608  0.015369409  0.014890988           67 
 2556000   0.84824026   -8.1814853    472.13977  0.015393185  0.014885412           44 
 2557000   0.84970647   -8.1823973    471.60938   0.01536988  0.014879841           49 
 2558000   0.85798539   -8.2040167    470.92962  0.015341726  0.014874262           40 
 2559000   0.85396415   -8.2319049      470.743  0.015329653  0.014868661           83 
 2560000   0.83551184   -8.2380857    471.68057  0.015354185   0.01486307           97 
 2561000   0.85048518   -8.2224339     471.3917   0.01533879  0.014857471           81 
 2562000   0.83159594   -8.1921481    472.53665  0.015370045  0.014851883           53 
 2563000   0.85346695   -8.2097602    471.25699  0.015322441  0.014846282           80 
 2564000   0.84910629    -8.204863    472.21337  0.015347548  0.014840703           98 
 2565000   0.84397005   -8.1832601    472.20577  0.015341318  0.014835133           84 
 2566000   0.84939414   -8.2039246    472.37468  0.015340825  0.014829584           90 
 2567000   0.84594695   -8.2073505    472.65111  0.015343822  0.014824058          102 
 2568000   0.85378176   -8.2243056    473.10138  0.015352459  0.014818546           92 
 2569000   0.82949633   -8.1569344    472.50618  0.015327176  0.014813002          135 
 2570000   0.84656531    -8.227757    472.30631  0.015314731  0.014807445          109 
 2571000   0.83325394   -8.2187952    470.80914  0.015260247  0.014801865          109 
 2572000   0.84283662   -8.2176235    472.02469  0.015293698  0.014796315          169 
 2573000   0.82690931   -8.2165124     471.7006  0.015277257  0.014790752          125 
 2574000   0.84619552   -8.2411956    472.77428  0.015306083  0.014785186          211 
 2575000   0.82114253   -8.2273397    472.24966  0.015283161  0.014779587          191 
 2576000   0.84347021   -8.2527416    471.71889  0.015260057  0.014773987          386 
 2577000    0.8420529   -8.2387769    471.67737  0.015252793  0.014768364          189 
 2578000   0.84577314   -8.2491961    472.02227  0.015258025  0.014762761          192 
 2579000    0.8421856   -8.2243722    471.56811  0.015237434   0.01475716          206 
 2580000   0.83602321    -8.246992    471.78303   0.01523847  0.014751536          275 
 2581000   0.84672903   -8.2365704    472.23719  0.015247229  0.014745938          157 
 2582000   0.85221264    -8.271366    470.77159  0.015194022   0.01474032          174 
 2583000   0.83866854   -8.2856932    470.14561  0.015167945  0.014734713          194 
 2584000   0.84564284   -8.2512105    472.14718  0.015226625  0.014729108          198 
 2585000   0.83577199   -8.2670629    471.09136  0.015186698  0.014723492          222 
 2586000   0.82264239   -8.2552453    471.37448  0.015189949  0.014717878          253 
 2587000   0.84101711   -8.2740608    471.44144  0.015186234  0.014712246          262 
 2588000   0.84480834   -8.2615217    472.32197  0.015208719  0.014706627          438 
 2589000   0.82800137   -8.2920277    470.22518  0.015135354  0.014701012          231 
 2590000   0.84004938   -8.2542201    470.88875  0.015150861  0.014695392          227 
 2591000   0.83898328   -8.2804992     470.9077  0.015145623  0.014689739          306 
 2592000   0.83513903   -8.2883627    470.79905  0.015136286  0.014684063          260 
 2593000   0.83640359   -8.3129458    471.28411  0.015146038  0.014678384          242 
 2594000   0.82136804   -8.2870958    469.94658   0.01509723  0.014672708          303 
 2595000   0.82364034   -8.2874366    470.39149    0.0151057  0.014667042          261 
 2596000   0.82116081   -8.2943285       470.42  0.015100796   0.01466138          295 
 2597000   0.84141147   -8.3349582    470.36871  0.015093336  0.014655695          377 
 2598000   0.84729872   -8.3136045    470.42228  0.015089244   0.01464999          684 
 2599000   0.82370702   -8.3254516    469.39354  0.015050453  0.014644273          761 
 2600000   0.83630838   -8.3221249    470.19755  0.015070434  0.014638554          364 
 2601000   0.84724573   -8.3501928    468.88918  0.015022721  0.014632814          367 
 2602000   0.83553931   -8.3416824    469.89132  0.015049043  0.014627059          394 
 2603000   0.84110405   -8.3545692    470.10795  0.015050197  0.014621297          812 
 2604000   0.83127979   -8.3420486    469.66697  0.015030305  0.014615556          795 
 2605000   0.82910721   -8.3339046    468.52546  0.014988018  0.014609808          832 
 2606000   0.81164656   -8.3549162    469.57797  0.015015924  0.014604053          825 
 2607000    0.8204064   -8.3767401    469.39767  0.015004401  0.014598272          846 
 2608000   0.81660436   -8.3536754      467.662  0.014943188  0.014592481          889 
 2609000   0.81650508   -8.3307516    469.26025  0.014988509  0.014586696          848 
 2610000   0.84970127   -8.3721291    468.57251  0.014960808  0.014580915          905 
 2611000   0.83055871   -8.3426262    469.43309  0.014982545  0.014575135          851 
 2612000   0.83114834   -8.3493234    469.07177  0.014965281  0.014569367          882 
 2613000   0.84137742   -8.3894176    469.55519  0.014974971  0.014563594          899 
 2614000   0.84083366   -8.3695007     468.8806  0.014947736  0.014557801          996 
 2615000   0.82279239   -8.3804569    469.89684  0.014974405  0.014551984         1032 
 2616000   0.82005892   -8.4027731     467.6459  0.014896977  0.014546186         1052 
 2617000    0.8232204   -8.3927386    468.99675    0.0149343   0.01454036         1076 
 2618000   0.84253892   -8.4258577     468.0433  0.014898246  0.014534518         1126 
 2619000   0.83089246   -8.4132331    468.86098  0.014918575  0.014528681         1073 
 2620000   0.85243294   -8.4423973    467.58182  0.014872195  0.014522841         1126 
 2621000   0.84292203   -8.4096588    469.23869    0.0149192  0.014516986         1130 
 2622000   0.81599301   -8.4292443    467.58726  0.014861024  0.014511127         1150 
 2623000    0.8320717   -8.4269071    467.91418  0.014865745  0.014505249         1196 
 2624000    0.8439592   -8.4453525    469.39833  0.014907213  0.014499389         1219 
 2625000   0.83320019   -8.4582749    467.71064  0.014847957   0.01449352         1231 
 2626000   0.83256154   -8.4388355    467.19632  0.014825981  0.014487619         1275 
 2627000   0.84043758   -8.4892865     467.6935  0.014836109  0.014481715         1280 
 2628000   0.84050059   -8.4475462    467.26075  0.014816741  0.014475819         1369 
 2629000   0.84137557   -8.4370842    467.89388  0.014831174  0.014469935         1340 
 2630000   0.83214536   -8.4766873    466.72413   0.01478847  0.014464005         1390 
 2631000   0.82077859   -8.4997874    466.58735  0.014778517  0.014458081         1450 
 2632000   0.83751986   -8.5316725    466.02402  0.014755067  0.014452148         1415 
 2633000   0.82626382   -8.4992803    466.89259  0.014776952  0.014446226         1447 
 2634000   0.81558034   -8.4862517    466.49214  0.014758673  0.014440291         1586 
 2635000   0.84329163   -8.5169089    466.05772  0.014739333  0.014434328         1458 
 2636000   0.83788605   -8.5042741    466.87663  0.014759631   0.01442837         1543 
 2637000   0.82721385   -8.5312154    466.41722  0.014739515  0.014422415         1562 
 2638000   0.81037432   -8.5291003    466.92242  0.014749887  0.014416447         1638 
 2639000   0.81514574    -8.512801     465.7554  0.014707446  0.014410472         1650 
 2640000   0.83759624   -8.5650235    465.88974  0.014706115  0.014404482         1613 
 2641000   0.83908937   -8.5811106    465.52902  0.014689165  0.014398485         1693 
 2642000   0.83181121   -8.5592951    465.93304  0.014696349  0.014392482         1726 
 2643000   0.81837011    -8.584602    464.60639  0.014648959  0.014386466         1777 
 2644000   0.82422482   -8.5600416    466.29455  0.014696626  0.014380457         1777 
 2645000   0.82673551   -8.5837654     465.6801  0.014671711  0.014374436         1813 
 2646000   0.81470995   -8.5644224    465.38414  0.014656845  0.014368397         1837 
 2647000   0.83325697   -8.5837527    464.47365  0.014622644  0.014362332         1924 
 2648000   0.81974952   -8.5798189    464.78245  0.014626839  0.014356263         1945 
 2649000   0.80796495   -8.6061807     463.8658  0.014592481  0.014350169         1981 
 2650000   0.82142849   -8.5958343    464.36337  0.014602622  0.014344065         2000 
 2651000   0.82845367   -8.6213747    463.67816  0.014575574  0.014337981         2023 
 2652000   0.81157713    -8.629914    463.35199  0.014559829  0.014331862         2096 
 2653000   0.83345534   -8.6480453    463.36187  0.014554651   0.01432576         2090 
 2654000   0.82062056   -8.6025365    463.77445  0.014562122  0.014319633         2143 
 2655000   0.83266308   -8.6402125    462.88841  0.014528826   0.01431352         2142 
 2656000   0.83738962   -8.6599386    463.90362  0.014555209  0.014307386         2144 
 2657000   0.83293431    -8.644902    464.18944  0.014558695  0.014301247         2149 
 2658000   0.80770875   -8.6601036    463.46526  0.014530513  0.014295108         2192 
 2659000   0.81088235   -8.6631401    462.49658   0.01449469  0.014288949         2245 
 2660000   0.84385778   -8.6492121    462.21738  0.014480494  0.014282788         2305 
 2661000    0.8415356   -8.6971107    462.86928  0.014495468  0.014276613         2332 
 2662000   0.84077245   -8.6677643    462.84566  0.014489283  0.014270419         2326 
 2663000   0.83533918   -8.6710801    462.79446   0.01448224  0.014264224         2334 
 2664000   0.80911344   -8.6835288    462.60254    0.0144708  0.014258027         2409 
 2665000   0.82612281   -8.6694985    462.10798  0.014449906  0.014251811         2421 
 2666000   0.81978217   -8.6864965    462.58896   0.01445952  0.014245596         2423 
 2667000   0.82142494   -8.7135353    460.89724  0.014401238  0.014239349         2515 
 2668000   0.82937718   -8.7158381    461.41208  0.014411922  0.014233104         2558 
 2669000    0.8069267    -8.731009    461.23022  0.014400844  0.014226836         2565 
 2670000   0.81452969   -8.7245799     461.4215   0.01440142   0.01422058         2587 
 2671000   0.80886833   -8.7262152    461.52143  0.014399146  0.014214311         2536 
 2672000   0.81488403   -8.7551933    461.22213  0.014384423  0.014208015         2544 
 2673000    0.8081584    -8.721495    461.64031  0.014392079   0.01420171         2613 
 2674000   0.83262883   -8.7567124    460.79872  0.014360469  0.014195404         2677 
 2675000   0.81807921   -8.7556204    459.98973  0.014329898  0.014189085         2600 
 2676000   0.82144857   -8.7501623    461.08458  0.014358638  0.014182771         2640 
 2677000    0.8221808   -8.7545613    460.85223  0.014346041  0.014176468         2686 
 2678000   0.83009739   -8.7579774    460.33659  0.014324639  0.014170175         2763 
 2679000   0.81765161    -8.745025     461.4057  0.014352548  0.014163855         2770 
 2680000   0.81746213   -8.7860309    459.93087  0.014301333  0.014157551         2788 
 2681000   0.81156926   -8.7725987     459.2429  0.014274615  0.014151227         2828 
 2682000   0.82868801   -8.7814336    460.53118  0.014309321  0.014144905         2883 
 2683000   0.83971323   -8.7932387    460.58831  0.014305762  0.014138576         2834 
 2684000   0.82958955    -8.816512    460.60745  0.014301026  0.014132236         2940 
 2685000   0.82879732   -8.7675501    459.86653  0.014272704  0.014125875         2846 
 2686000   0.82334153   -8.7866927    459.70751  0.014262457  0.014119522         2863 
 2687000   0.80091685   -8.8093669    459.91212  0.014263495  0.014113162         2975 
 2688000   0.80539238   -8.8335896    459.07914  0.014232364  0.014106776         2972 
 2689000   0.82790164    -8.796824    459.17944   0.01423018  0.014100379         2915 
 2690000   0.81897553   -8.8492741     459.5286  0.014235706     0.014094         2953 
 2691000   0.82503235   -8.8583251    459.29369  0.014223142  0.014087609         3026 
 2692000   0.83727234   -8.8318928    459.07206  0.014210997   0.01408122         2924 
 2693000   0.80987172   -8.8490646    457.90644  0.014169651  0.014074809         2969 
 2694000   0.82460418   -8.8646542    458.34188  0.014177861  0.014068405         3028 
 2695000   0.82154232   -8.8400727    459.27452  0.014201439  0.014062003         3007 
 2696000    0.8335661    -8.866015    458.43472  0.014170213  0.014055603         3043 
 2697000    0.8147764   -8.8610044    458.19969  0.014157697  0.014049181         3056 
 2698000   0.82444616    -8.865774    457.59746  0.014133848  0.014042753         3059 
 2699000   0.81789831   -8.8536792    457.96881  0.014140077  0.014036316         3080 
 2700000   0.83171302   -8.9025152    457.93037  0.014133653  0.014029892         3094 
 2701000   0.80878979   -8.8985011    457.42394  0.014112796  0.014023438         3107 
 2702000   0.81929146   -8.9002766     458.2641  0.014133484  0.014016986         3106 
 2703000   0.81766816   -8.8804618    457.38172  0.014101052  0.014010532         3078 
 2704000   0.81705394   -8.8811637    458.54852  0.014131796  0.014004088         3089 
 2705000    0.8443222   -8.9018665    457.43796  0.014092358  0.013997635         3066 
 2706000   0.82188847   -8.9051133    459.11735  0.014138869  0.013991189         3099 
 2707000   0.81738403   -8.8924314    456.84175  0.014063593  0.013984734         3086 
 2708000    0.8392558   -8.8842896    456.96731  0.014062263  0.013978285         3074 
 2709000    0.8063244   -8.9168788    456.95152  0.014056587  0.013971841         3109 
 2710000   0.82050583   -8.8974544    456.60474  0.014040736  0.013965395         3141 
 2711000   0.82416109    -8.898264    457.05887  0.014049516  0.013958951         3115 
 2712000   0.83526744   -8.9148674    457.06769  0.014044607  0.013952516         3165 
 2713000   0.80606351   -8.9289618    456.33277  0.014016856  0.013946065         3152 
 2714000   0.82027561   -8.9126837    457.31425  0.014041828  0.013939627         3147 
 2715000   0.81477197   -8.9091565    457.43762  0.014040443  0.013933194         3108 
 2716000   0.82010642   -8.9170242    457.27899  0.014030406  0.013926756         3156 
 2717000   0.82424794   -8.9233979    457.62979  0.014036001  0.013920328         3157 
 2718000   0.82452168   -8.9294863    455.94096  0.013979058    0.0139139         3151 
 2719000   0.80461785   -8.8973591     457.7772  0.014030195  0.013907457         3151 
 2720000   0.80891215   -8.9423435     456.6752  0.013991274  0.013901009         3158 
 2721000   0.82303559   -8.8988587    458.32722  0.014036727  0.013894569         3165 
 2722000    0.8239058    -8.946229    457.13085  0.013994944  0.013888126         3205 
 2723000   0.82947242   -8.9163601    456.66618  0.013975584  0.013881667         3201 
 2724000   0.80971826    -8.935208    457.13925  0.013984926  0.013875221         3220 
 2725000     0.817954   -8.9381814    457.11802  0.013979144  0.013868774         3273 
 2726000   0.82767464   -8.9214006    457.25986  0.013978352  0.013862316         3224 
 2727000   0.80901097   -8.9526292    456.07617  0.013937055  0.013855859         3283 
 2728000    0.8090617   -8.9516776    456.14827  0.013934148  0.013849408         3287 
 2729000   0.80817008   -8.9650483    456.05567  0.013926214  0.013842956         3248 
 2730000   0.81180729    -8.929273    456.78978  0.013943522  0.013836512         3237 
 2731000   0.82677572   -8.9507033    456.54539  0.013930959  0.013830061         3244 
 2732000   0.83118805   -8.9315076    457.02973  0.013940634   0.01382363         3189 
 2733000   0.82094229   -8.9626663    455.90872  0.013901351  0.013817197         3253 
 2734000   0.80355568   -8.9239876    457.46236  0.013943622  0.013810775         3177 
 2735000   0.81152872   -8.9344815    456.63585  0.013913341  0.013804348         3232 
 2736000   0.81202682   -8.9345929    457.25716  0.013927179  0.013797919         3222 
 2737000   0.80817672   -8.9477715    455.98431  0.013883337  0.013791478         3234 
 2738000   0.82114798   -8.9700861    455.80521  0.013872815  0.013785032         3249 
 2739000    0.8240737   -8.9563836     457.0276  0.013904941   0.01377858         3210 
 2740000   0.82640436   -8.9917064     456.6307  0.013887795  0.013772127         3245 
 2741000   0.81586198   -8.9586452    456.57671  0.013881087  0.013765691         3223 
 2742000   0.84053735   -8.9571494    456.75079  0.013881315  0.013759256         3237 
 2743000   0.81191495   -8.9720388    456.77847  0.013877095  0.013752817         3256 
 2744000   0.83735096   -8.9799577    456.81797  0.013873238  0.013746383         3280 
 2745000   0.81372736   -9.0005673    455.47523  0.013827421   0.01373994         3210 
 2746000   0.80581015   -8.9741194    456.79658  0.013862484   0.01373352         3257 
 2747000   0.81866196   -9.0188079    454.84532  0.013798244  0.013727088         3292 
 2748000   0.80436732   -8.9630828    456.53268  0.013844392  0.013720655         3294 
 2749000   0.82031848   -8.9712506    456.35744  0.013834044  0.013714231         3277 
 2750000   0.80181686   -8.9881209    456.27123  0.013826401   0.01370782         3303 
 2751000   0.81705375   -8.9841007    456.19202  0.013818976  0.013701403         3324 
 2752000   0.82134076   -8.9869628     456.2042  0.013814323   0.01369498         3301 
 2753000   0.81513241   -8.9748715    455.89016  0.013799799  0.013688563         3303 
 2754000   0.82643673   -8.9843048    455.94918  0.013796574  0.013682149         3262 
 2755000   0.80948684   -8.9664756    456.32188   0.01380284  0.013675733         3258 
 2756000   0.80494652   -9.0158162    455.67875  0.013778385  0.013669319         3299 
 2757000   0.79813902   -8.9928278    456.72175  0.013804913  0.013662903         3251 
 2758000   0.82048492   -8.9927475    455.66272  0.013767909   0.01365648         3277 
 2759000   0.80345634   -9.0048918    455.15319  0.013747529  0.013650071         3336 
 2760000   0.81446721   -8.9913168     455.3877  0.013749629  0.013643658         3263 
 2761000    0.7983341   -8.9757697    456.83801  0.013788422  0.013637255         3254 
 2762000   0.78523051   -8.9997334    456.54994  0.013774739  0.013630846         3350 
 2763000    0.8171361   -8.9983127    455.40726   0.01373529  0.013624436         3327 
 2764000   0.82713587   -9.0004813    455.19763     0.013724  0.013618028         3297 
 2765000   0.81197648   -9.0031265    455.68297  0.013733664  0.013611618         3346 
 2766000   0.82091993   -8.9964139    456.12625  0.013742054  0.013605209         3357 
 2767000     0.826369   -8.9946927    455.44646  0.013716614  0.013598802         3338 
 2768000   0.81984266   -8.9998576    455.26198  0.013706105  0.013592398         3311 
 2769000   0.80267303   -9.0130957    454.82562  0.013688023  0.013586004         3319 
 2770000   0.79716216   -8.9897392    456.68697  0.013739079  0.013579615         3320 
 2771000   0.80562811   -9.0163456    455.18637  0.013688992   0.01357322         3334 
 2772000   0.80415753   -9.0145526    456.65444  0.013728188  0.013566837         3343 
 2773000   0.81690075   -9.0320324    454.51144  0.013658836   0.01356043         3343 
 2774000   0.80274647   -9.0418434    455.23114  0.013675533  0.013554036         3360 
 2775000   0.81427883   -8.9985951    456.08898  0.013696366  0.013547653         3342 
 2776000   0.78743522   -8.9882071    456.42229  0.013701438  0.013541273         3283 
 2777000   0.80680046   -9.0014761    455.03881  0.013654988  0.013534887         3292 
 2778000   0.82000011    -9.007826    454.96237  0.013647779  0.013528514         3317 
 2779000   0.80167767   -9.0051724    455.83702  0.013669096  0.013522136         3315 
 2780000   0.81452612   -9.0273628     454.8664  0.013635084  0.013515755         3308 
 2781000   0.81009885   -9.0136815    454.55464  0.013620839  0.013509381         3354 
 2782000   0.81776983   -9.0149363    456.18724  0.013664847  0.013503013         3291 
 2783000   0.80576245   -9.0204742    454.30752  0.013603651  0.013496638         3316 
 2784000   0.80865281     -9.02279    455.61896   0.01363802  0.013490267         3309 
 2785000   0.79505361   -9.0165379    454.99225   0.01361437  0.013483906         3326 
 2786000   0.80057598   -9.0058553    454.78797  0.013603373  0.013477549         3306 
 2787000   0.81301733   -8.9870094    454.65514   0.01359452  0.013471187         3299 
 2788000   0.81302819   -9.0147314    454.92604  0.013597742  0.013464831         3301 
 2789000   0.82586438   -9.0285053    455.14334  0.013599359  0.013458474         3333 
 2790000   0.80959152   -9.0027075    455.57358  0.013607335  0.013452123         3357 
 2791000   0.80161382   -9.0153215    454.74881  0.013577834   0.01344576         3360 
 2792000   0.79663959   -9.0100502    454.34958  0.013561055  0.013439398         3328 
 2793000   0.80205359   -9.0245496     455.1415  0.013579827  0.013433061         3371 
 2794000   0.79799539   -9.0118399    455.11108   0.01357406  0.013426715         3292 
 2795000   0.79184862   -9.0162197    454.83699  0.013561031  0.013420369         3366 
 2796000   0.79014362   -9.0227895    454.97846  0.013560398  0.013414017         3338 
 2797000   0.80684743   -9.0172682    455.36674  0.013567118  0.013407672         3360 
 2798000   0.81410919   -9.0361482    454.58146  0.013538881  0.013401329         3357 
 2799000   0.79906357   -9.0185684    456.13836  0.013580396  0.013394999         3339 
 2800000   0.80045439   -9.0292935    454.78725  0.013535335  0.013388648         3396 
 2801000   0.82447165   -9.0253473    454.98088  0.013536263  0.013382305         3332 
 2802000   0.81431935   -9.0295757     454.5644  0.013519046  0.013375965         3362 
 2803000   0.80741278   -9.0230878    455.09947  0.013530131  0.013369619         3361 
 2804000   0.80476861   -9.0204733    454.60388  0.013510577  0.013363283         3367 
 2805000   0.81799459   -9.0584318    454.09838  0.013490742  0.013356949         3402 
 2806000   0.79073465   -9.0532139    453.75358  0.013475694  0.013350621         3387 
 2807000   0.82267831     -9.05949    454.27763  0.013486451  0.013344285         3418 
 2808000   0.78736483    -8.994231     455.1337  0.013507054  0.013337967         3427 
 2809000   0.79894752   -9.0224209    455.01874  0.013498835  0.013331656         3342 
 2810000   0.79621854   -9.0215784     455.1411   0.01349766  0.013325347         3390 
 2811000   0.80842565    -9.039983    454.55171  0.013475386  0.013319046         3360 
 2812000    0.7992049   -9.0231806    455.58479  0.013501209  0.013312747         3368 
 2813000   0.79275565   -9.0365375    454.82495    0.0134739  0.013306444         3348 
 2814000   0.79878608   -9.0346026    454.67833  0.013464769  0.013300124         3394 
 2815000   0.79799054   -9.0320171    454.86872  0.013465622  0.013293814         3379 
 2816000   0.80010412   -9.0465541    454.25944   0.01344281  0.013287518         3367 
 2817000    0.8036819   -9.0301268    454.94704  0.013458379  0.013281213         3392 
 2818000   0.80242581   -9.0652247    455.07236  0.013457309  0.013274909         3371 
 2819000   0.79130916   -9.0663744    453.67227  0.013411147  0.013268607         3369 
 2820000   0.80138337    -9.074255    454.24382  0.013423281  0.013262311         3395 
 2821000   0.79027176   -9.0314115    454.11787  0.013414802  0.013256017         3368 
 2822000    0.8082362   -9.0637536    455.08479  0.013438601  0.013249726         3327 
 2823000   0.79451597   -9.0500047    454.24552  0.013409066  0.013243443         3368 
 2824000   0.80429819   -9.0522771    455.29574  0.013435309  0.013237157         3399 
 2825000   0.81117465   -9.0553898    453.95112  0.013390889  0.013230875         3350 
 2826000     0.792066   -9.0417479    454.33813  0.013397562  0.013224596         3378 
 2827000   0.80565869    -9.058545    455.22296  0.013418906  0.013218313         3368 
 2828000   0.79905976   -9.0361542     454.1109  0.013381392  0.013212033         3354 
 2829000   0.79209905   -9.0468117    454.49609  0.013388008  0.013205753         3339 
 2830000   0.79804744   -9.0609065    454.64992  0.013387807  0.013199485         3415 
 2831000   0.78806938   -9.0524311    453.56782  0.013351225  0.013193212         3390 
 2832000   0.79380494   -9.0410627    455.64492  0.013407631  0.013186949         3363 
 2833000   0.80624759    -9.064026    454.34934  0.013364788   0.01318069         3425 
 2834000   0.79847519   -9.0625871    454.52822  0.013365332  0.013174435         3412 
 2835000   0.82252568   -9.0534816    453.88904  0.013341829  0.013168169         3363 
 2836000   0.77872755   -9.0653344    453.59131  0.013328376  0.013161907         3345 
 2837000   0.80764351    -9.020535    455.34279  0.013375126  0.013155637         3374 
 2838000   0.79024252   -9.0788384    453.42525  0.013314108  0.013149383         3402 
 2839000   0.81388245   -9.0356332    454.88403  0.013352237  0.013143142         3342 
 2840000   0.78132354   -9.0780129    454.78794  0.013344716  0.013136903         3371 
 2841000   0.80606187     -9.06321     454.2643   0.01332466  0.013130662         3385 
 2842000   0.80750326   -9.0747573    453.08347  0.013285347  0.013124413         3415 
 2843000   0.79163766   -9.0931432    453.60174  0.013295865  0.013118155         3424 
 2844000   0.79436861   -9.0562704    454.01468   0.01330329  0.013111911         3418 
 2845000    0.7875908   -9.0593119    454.62431  0.013316471  0.013105668         3378 
 2846000   0.77935728   -9.0898088    454.10301  0.013296527  0.013099425         3433 
 2847000   0.80560674   -9.0907645    454.93328   0.01331616  0.013093179         3394 
 2848000   0.80153027   -9.0660631    454.19558  0.013289899  0.013086944         3453 
 2849000   0.80046637   -9.0703797    453.47942  0.013264286  0.013080709         3405 
 2850000   0.78737357   -9.0705163    454.29305  0.013283423  0.013074468         3399 
 2851000   0.78208996   -9.0857726    453.13446  0.013244898  0.013068239         3402 
 2852000   0.80965673   -9.0861345    453.57001  0.013252981  0.013062004         3403 
 2853000   0.78950595   -9.0640919    454.16664  0.013265762   0.01305578         3404 
 2854000   0.79413544   -9.0932517    453.14604  0.013231314  0.013049554         3409 
 2855000   0.81068343   -9.0832848    454.33373  0.013261346  0.013043326         3401 
 2856000   0.80263647   -9.0847112    454.36976  0.013257754  0.013037107         3439 
 2857000   0.78184689   -9.0934534    452.43736  0.013196749  0.013030899         3435 
 2858000   0.79638525   -9.0843741    453.61573  0.013226491  0.013024683         3403 
 2859000   0.77943947    -9.092349    452.88089  0.013200446  0.013018459         3407 
 2860000    0.8012077   -9.0757648    453.71982  0.013220274  0.013012249         3437 
 2861000   0.79423262   -9.1167298    453.37199  0.013205522  0.013006045         3434 
 2862000   0.79067711   -9.0852486    453.48068  0.013204073  0.012999834         3451 
 2863000   0.78455538   -9.0885051    453.21491  0.013191725  0.012993619         3428 
 2864000   0.79110617   -9.1107853    453.76018  0.013202985  0.012987409         3461 
 2865000   0.80095825   -9.1090172    453.35794  0.013186676    0.0129812         3463 
 2866000   0.80399602   -9.1271355     453.3822  0.013182781  0.012974986         3438 
 2867000   0.80880809   -9.0947487    453.83034  0.013191209  0.012968789         3500 
 2868000   0.77449395   -9.1286601    453.01176  0.013162824  0.012962578         3500 
 2869000    0.8040453   -9.0881683    454.16525  0.013191741  0.012956371         3475 
 2870000   0.79683867   -9.1278451    453.03887  0.013154439  0.012950167         3492 
 2871000   0.79328804   -9.1213145    451.95044  0.013118264  0.012943963         3503 
 2872000   0.78956948   -9.1213522    452.47028   0.01312878  0.012937756         3475 
 2873000   0.78130766    -9.115485    452.84923  0.013135202  0.012931555         3471 
 2874000   0.78581129   -9.1264139    453.12025   0.01313849   0.01292535         3500 
 2875000   0.78672039   -9.1322933    452.69104  0.013121479  0.012919146         3507 
 2876000   0.78993825   -9.1286987    452.12329  0.013100466   0.01291294         3496 
 2877000   0.79008433   -9.1509522    452.81567  0.013115968  0.012906735         3494 
 2878000   0.77583449   -9.1465938    453.77132  0.013139082  0.012900528         3494 
 2879000   0.78296599   -9.1248588    452.91786  0.013109814  0.012894331         3478 
 2880000   0.80753423   -9.1120703    453.46306  0.013121038  0.012888137         3546 
 2881000   0.79756218   -9.1061824    452.67065  0.013093563  0.012881939         3505 
 2882000   0.81117739    -9.157122    452.40461  0.013081327  0.012875749         3593 
 2883000   0.81036534   -9.1430879     452.5359  0.013080584  0.012869555         3576 
 2884000   0.80841639   -9.1741123    452.25109  0.013067819  0.012863354         3514 
 2885000   0.79592439   -9.1611284    453.72486   0.01310586   0.01285716         3557 
 2886000   0.75735925   -9.1605232     452.0846  0.013053956  0.012850966         3589 
 2887000   0.79351586   -9.1641428    452.33848  0.013056763  0.012844769         3580 
 2888000   0.78101009   -9.1551117    453.24291  0.013078339  0.012838588         3553 
 2889000   0.79212552   -9.1336881    452.88048  0.013063357  0.012832397         3594 
 2890000   0.77719828   -9.1336337    452.57468   0.01305002  0.012826222         3587 
 2891000    0.7878009   -9.1575506    451.96795  0.013028017  0.012820045         3564 
 2892000   0.80126076   -9.1646446    451.86224  0.013020466   0.01281386         3589 
 2893000   0.79223207   -9.1597928    451.97422  0.013019191  0.012807684         3603 
 2894000   0.78788313   -9.1689722    452.96635  0.013043261  0.012801526         3593 
 2895000   0.79464052   -9.1532707    453.69288  0.013059668  0.012795363         3567 
 2896000   0.77837579    -9.185085    452.09475  0.013009172   0.01278919         3596 
 2897000   0.78022536   -9.1478954    452.35198  0.013012081  0.012783019         3599 
 2898000   0.79137239   -9.1629978    452.44071  0.013010142  0.012776852         3620 
 2899000   0.80677905   -9.1797583    452.07957  0.012995273  0.012770693         3608 
 2900000   0.79215326    -9.151418    452.80933  0.013011762  0.012764534         3594 
 2901000    0.7908943   -9.1848214    452.17971  0.012989191  0.012758381         3653 
 2902000   0.78870241   -9.1806175    452.11104  0.012982743  0.012752229         3652 
 2903000    0.7821704    -9.179677    451.24297  0.012953352   0.01274608         3655 
 2904000   0.79123106   -9.2077471     452.3002   0.01297923  0.012739936         3664 
 2905000   0.78613462   -9.1712192     451.3385  0.012947174  0.012733776         3656 
 2906000   0.80187651   -9.1994846    452.21546  0.012967867  0.012727606         3675 
 2907000   0.77275276   -9.1872287    452.45637  0.012970312  0.012721448         3667 
 2908000   0.78986767   -9.2024447    452.22755  0.012959295  0.012715288         3668 
 2909000   0.78855243    -9.199488     451.8311  0.012943483  0.012709117         3667 
 2910000   0.80375753    -9.215258    451.74562  0.012936587  0.012702959         3684 
 2911000   0.79521293   -9.1841869    451.55193  0.012926598  0.012696799         3678 
 2912000   0.78469599   -9.1948367    451.85237  0.012930757  0.012690653         3694 
 2913000   0.79189525   -9.2147055    451.15407  0.012906342  0.012684518         3701 
 2914000   0.77648521   -9.2344031    451.34173  0.012907279  0.012678377         3703 
 2915000   0.78242645   -9.2203624    451.65485  0.012911803  0.012672246         3688 
 2916000   0.79683261   -9.2260529     451.0193  0.012889212  0.012666113         3684 
 2917000   0.80102858   -9.2186417    451.38861  0.012895344  0.012659988         3677 
 2918000   0.78146789   -9.2242657    451.18533  0.012885119  0.012653846         3684 
 2919000   0.78676142     -9.18945    451.82831  0.012899061  0.012647729         3715 
 2920000   0.77303915   -9.2181193    450.85919  0.012866986  0.012641603         3724 
 2921000   0.77791661   -9.2401224    451.48954  0.012880564   0.01263548         3719 
 2922000   0.78107095   -9.2296301    451.44584   0.01287491  0.012629364         3719 
 2923000   0.78131899    -9.208107    452.14243  0.012890365  0.012623249         3695 
 2924000    0.7910456   -9.2264133    451.52658  0.012868405  0.012617131         3726 
 2925000   0.79064134   -9.2380574    452.36687  0.012887945   0.01261102         3754 
 2926000   0.79265243    -9.224631    451.33782  0.012854233  0.012604909         3726 
 2927000   0.79107969   -9.2380997     451.4176  0.012852113  0.012598811         3750 
 2928000   0.79770019   -9.2504499     450.2198  0.012813633  0.012592708         3763 
 2929000   0.76449475   -9.2313737    450.80498  0.012825907  0.012586612         3751 
 2930000   0.79168977   -9.2163605    451.90736  0.012852883  0.012580525         3747 
 2931000   0.76885364   -9.2211446    451.86099  0.012847179  0.012574447         3748 
 2932000   0.77366125   -9.2341885    451.59259  0.012835169  0.012568357         3761 
 2933000   0.77832655   -9.2430928      452.044  0.012843619  0.012562284         3762 
 2934000   0.78976962   -9.2185253    451.56012  0.012825498  0.012556196         3773 
 2935000   0.80559418   -9.2480029    450.86205  0.012801308   0.01255011         3746 
 2936000   0.79768922   -9.2494216    451.04561  0.012802157   0.01254403         3742 
 2937000   0.77287969   -9.2306946    449.94315  0.012766518  0.012537949         3730 
 2938000   0.79494782    -9.214604    451.41438  0.012803902  0.012531874         3723 
 2939000   0.78626351   -9.2418477    450.32228   0.01276858  0.012525801         3741 
 2940000   0.78438885   -9.2523224    450.83135  0.012778667  0.012519726         3762 
 2941000   0.77453757   -9.2261592    451.07529  0.012781233  0.012513654         3764 
 2942000   0.76548929   -9.2281584     450.8294  0.012769924  0.012507581         3744 
 2943000   0.77047358   -9.2386488    451.12357  0.012773915  0.012501517         3738 
 2944000   0.77394802   -9.2370152    451.05892  0.012767746  0.012495457         3747 
 2945000   0.78666109   -9.2664683    449.97567  0.012732758  0.012489388         3775 
 2946000   0.77139434   -9.2418526    450.95104  0.012756026  0.012483321         3789 
 2947000   0.77160887   -9.2359657    452.00637   0.01278154   0.01247726         3746 
 2948000   0.79452102   -9.2454148    451.16079  0.012753301  0.012471196         3760 
 2949000   0.78224621   -9.2508743    450.92767  0.012742389  0.012465145         3767 
 2950000   0.77743882   -9.2480615    451.45994  0.012753106  0.012459096         3798 
 2951000   0.78755121    -9.254139    450.64646  0.012725812  0.012453046         3775 
 2952000   0.77591665   -9.2413117    451.51414  0.012745995  0.012446994         3787 
 2953000   0.76796227   -9.2297413    450.95138  0.012725798  0.012440957         3794 
 2954000   0.77370543   -9.2712058    451.11076  0.012725986  0.012434917         3793 
 2955000   0.77852287   -9.2511121    451.32012  0.012727584  0.012428874         3779 
 2956000   0.78136979    -9.261687    450.48279  0.012699673  0.012422828         3750 
 2957000   0.77742349   -9.2438608    450.80825   0.01270455  0.012416783         3778 
 2958000     0.753856   -9.2574202     450.3561  0.012687517  0.012410742         3830 
 2959000   0.78142839    -9.266289    450.51437  0.012687686  0.012404702         3829 
 2960000   0.77428609   -9.2852848    450.58672  0.012685437  0.012398669         3814 
 2961000   0.77446602   -9.2552339    450.25507  0.012671819  0.012392635         3827 
 2962000   0.76830795   -9.2433571    450.96651  0.012687557  0.012386596         3810 
 2963000   0.77747485   -9.2605813    450.53916  0.012671255  0.012380563         3828 
 2964000   0.76116662    -9.293914    449.87253  0.012648238   0.01237453         3858 
 2965000   0.76699075   -9.2738636    450.44416  0.012660038  0.012368491         3828 
 2966000   0.78283486   -9.2860822    450.44081  0.012655676   0.01236246         3830 
 2967000   0.79113758   -9.2753209    449.53666  0.012626016  0.012356431         3843 
 2968000   0.79605971   -9.2755736    450.99262  0.012662641  0.012350407         3851 
 2969000   0.78528617   -9.2610293    450.10525  0.012633469  0.012344387         3855 
 2970000   0.77474429    -9.265282    450.59429  0.012642938  0.012338358         3858 
 2971000   0.78240862   -9.2836866    448.62648  0.012583487  0.012332337         3874 
 2972000   0.77565305   -9.2628726    449.95791  0.012616586   0.01232632         3864 
 2973000    0.7623368   -9.2861259    449.84544  0.012609189  0.012320316         3882 
 2974000   0.79501749   -9.2502843    450.15489  0.012613621  0.012314304         3881 
 2975000   0.78476819    -9.275489    450.06393  0.012606833    0.0123083         3865 
 2976000   0.76871141   -9.2651628    450.20348  0.012606504  0.012302298         3858 
 2977000   0.76218438   -9.2722227    450.40986  0.012608047  0.012296296         3864 
 2978000   0.78311843   -9.2568148    449.64628  0.012582446  0.012290298         3887 
 2979000   0.78316724   -9.2587012    449.99272  0.012587913  0.012284295         3872 
 2980000   0.76447332   -9.2677879    450.04693  0.012585205  0.012278302         3870 
 2981000   0.76954889     -9.26975    449.60536  0.012568639  0.012272308         3855 
 2982000   0.77849763   -9.2564058     449.2814  0.012555371  0.012266317         3857 
 2983000   0.76347507   -9.2692516    450.36828  0.012581525  0.012260326         3890 
 2984000   0.75990634   -9.2787618    450.21165  0.012572935   0.01225434         3887 
 2985000   0.78938557   -9.2704095    450.85382   0.01258665  0.012248358         3883 
 2986000   0.76912512   -9.2903007    449.63667  0.012548467  0.012242388         3909 
 2987000   0.78352128   -9.2602944     449.5138  0.012540838  0.012236417         3865 
 2988000   0.78231926   -9.2704811    450.27706  0.012557928  0.012230449         3884 
 2989000   0.76864056   -9.2901683    449.61927  0.012535387  0.012224484         3907 
 2990000   0.77247497   -9.2668296    449.06823  0.012515837   0.01221852         3898 
 2991000   0.77947581   -9.2628738    449.55236  0.012525141  0.012212563         3892 
 2992000   0.77007863   -9.2733318    449.74847  0.012526417  0.012206607         3924 
 2993000   0.78033518   -9.3011675    449.04585  0.012502669  0.012200654         3891 
 2994000   0.75940575   -9.2668064    449.73896  0.012517785   0.01219471         3903 
 2995000   0.76742425   -9.2560642    449.80428  0.012515422  0.012188766         3923 
 2996000   0.76505371   -9.2522488    450.29006  0.012524757   0.01218282         3888 
 2997000   0.76586909   -9.2783372    449.95183  0.012511173  0.012176879         3903 
 2998000   0.77154062   -9.2584195    450.10362  0.012511219  0.012170952         3857 
 2999000   0.78633589   -9.2435956    449.94767  0.012502714  0.012165031         3890 
 3000000   0.75693242   -9.2711454    449.70519  0.012491811  0.012159103         3880 
 3001000    0.7830441   -9.2871641    449.76022  0.012489177  0.012153181         3904 
 3002000   0.77685296   -9.2660851    450.02921  0.012492483  0.012147268         3880 
 3003000   0.77318482   -9.2807495    449.80264  0.012482036  0.012141353         3890 
 3004000   0.78557787   -9.2546991    449.69969  0.012475025  0.012135436         3899 
 3005000   0.76161525   -9.2908547    448.90769   0.01244891  0.012129518         3916 
 3006000   0.76879216   -9.2575853    449.55587  0.012462738  0.012123604         3909 
 3007000   0.75847114   -9.2666969     449.9111  0.012468438  0.012117693         3901 
 3008000   0.76709237   -9.2792116    449.28395  0.012446918  0.012111787         3901 
 3009000   0.79023632   -9.2872179    449.98719  0.012462257  0.012105889         3910 
 3010000    0.7544821   -9.2898554    450.33562  0.012467764  0.012099994         3877 
 3011000   0.76983378    -9.298784    449.72434  0.012446705  0.012094102         3913 
 3012000   0.76933043   -9.2985496    449.43754  0.012434637  0.012088213         3907 
 3013000     0.769741   -9.2753676    450.23591  0.012452592   0.01208233         3883 
 3014000   0.75995035   -9.2862066    449.28351  0.012422128  0.012076445         3910 
 3015000    0.7689616    -9.249484    449.42834   0.01242201   0.01207057         3896 
 3016000   0.78182408   -9.3124856    449.12552  0.012409525  0.012064693         3915 
 3017000    0.7666019   -9.3168466    448.88295  0.012398712  0.012058815         3911 
 3018000   0.77513951    -9.285188    449.80199   0.01241998  0.012052946         3900 
 3019000    0.7652721   -9.2875421    450.13013  0.012424924  0.012047077         3895 
 3020000   0.78385816   -9.3059498    449.93142  0.012415326  0.012041211         3923 
 3021000   0.76436905   -9.2934368    448.85764  0.012381597  0.012035349         3925 
 3022000   0.75576135   -9.2735015    449.68679  0.012400364  0.012029485         3906 
 3023000   0.76423777   -9.3195812    449.33618  0.012386597  0.012023623         3914 
 3024000   0.76697225   -9.2727525    449.42184  0.012384861  0.012017767         3900 
 3025000    0.7641004   -9.3030527    448.68582  0.012360491  0.012011905         3917 
 3026000   0.77682364   -9.2924071    449.21803  0.012371063  0.012006055         3913 
 3027000    0.7840288    -9.279523    448.71864  0.012353228   0.01200021         3913 
 3028000   0.75692302   -9.3010768    449.69752  0.012376088  0.011994379         3916 
 3029000   0.77385699   -9.3145334    450.01653  0.012380778  0.011988543         3919 
 3030000   0.78156064   -9.2918912    449.65823  0.012366838  0.011982703         3916 
 3031000   0.77951764   -9.2932489    449.65664  0.012362714  0.011976865         3927 
 3032000   0.76331672   -9.2932006    449.95805  0.012366921  0.011971036         3912 
 3033000   0.77054693   -9.2876747     449.5646  0.012352033  0.011965212         3904 
 3034000   0.77039279   -9.2889729    449.36525  0.012342486  0.011959384         3907 
 3035000   0.78442104   -9.2981913    449.15662  0.012332691  0.011953561         3899 
 3036000   0.76849388   -9.3024247    448.86092  0.012320513  0.011947742         3900 
 3037000     0.769031    -9.311379    449.28361  0.012328054   0.01194192         3926 
 3038000   0.75857133   -9.2880413    448.90764  0.012313683  0.011936102         3916 
 3039000   0.76481567   -9.3123015    449.25955  0.012319281  0.011930289         3905 
 3040000   0.75213885   -9.3011583    449.89139  0.012332549  0.011924477         3907 
 3041000    0.7691098   -9.3012526    449.20742  0.012309751  0.011918671         3908 
 3042000   0.76650409   -9.2884255    449.47756  0.012313104  0.011912868         3917 
 3043000   0.75373476   -9.2968064    449.49797  0.012309617  0.011907069         3922 
 3044000   0.77845159   -9.3270206    448.86793  0.012288325  0.011901275         3931 
 3045000   0.76789986   -9.3113683    449.45446  0.012300341  0.011895475         3922 
 3046000   0.75396127   -9.3035675    448.87502   0.01228045  0.011889688         3909 
 3047000     0.752625   -9.3363753    449.42488  0.012291458  0.011883898         3926 
 3048000   0.75869389   -9.2798466    449.83788  0.012298717  0.011878112         3911 
 3049000   0.76323085   -9.3073051    448.72149  0.012264171   0.01187233         3902 
 3050000   0.75663793   -9.2863794    450.00771  0.012295292  0.011866557         3898 
 3051000   0.75502772   -9.3255429    449.36751  0.012273777  0.011860778         3933 
 3052000   0.77204469   -9.3126532    449.48225  0.012272888  0.011855002         3908 
 3053000   0.73806324   -9.3206388    448.82953  0.012251052  0.011849233         3895 
 3054000   0.77340777   -9.3104379    448.71197  0.012243832  0.011843469         3912 
 3055000   0.76163886   -9.3005103    448.89081  0.012244703  0.011837696         3917 
 3056000   0.76855036   -9.2949985     449.5655  0.012259094  0.011831942         3930 
 3057000   0.77524352   -9.3023966    448.88344  0.012236491  0.011826191         3890 
 3058000   0.76729907   -9.3193832    448.60998  0.012225038   0.01182044         3920 
 3059000   0.76795528   -9.3016037    449.58337  0.012247558  0.011814697         3929 
 3060000   0.74830341   -9.3181651    449.03598  0.012228649  0.011808957         3927 
 3061000   0.75183313   -9.2824423    450.25824  0.012257929  0.011803219         3903 
 3062000   0.76959407   -9.2981318     449.3383  0.012228889  0.011797485         3934 
 3063000   0.76370599    -9.313205    449.64071  0.012233124  0.011791755         3924 
 3064000   0.75858986   -9.3046185    450.40172  0.012249829  0.011786023         3893 
 3065000   0.76714505   -9.3063661    448.67647  0.012198925  0.011780294         3937 
 3066000   0.77560049    -9.287768     449.0862  0.012206083  0.011774575         3902 
 3067000   0.76755467   -9.3122124    448.25851  0.012179614  0.011768856         3936 
 3068000   0.77537096   -9.3315277     448.1414  0.012172463  0.011763141         3899 
 3069000   0.74335712   -9.3358487     449.0381  0.012192845  0.011757424         3923 
 3070000   0.75903916   -9.3004239    449.39521  0.012198567  0.011751714         3924 
 3071000   0.76910795   -9.3336158    448.53548  0.012171266  0.011746004         3927 
 3072000   0.76678335   -9.2942365    449.43432  0.012191686  0.011740302         3914 
 3073000   0.75010433   -9.3048303    448.85148  0.012171913  0.011734601         3942 
 3074000   0.76398118   -9.3075843    449.65934  0.012189854  0.011728904         3909 
 3075000   0.74233366   -9.3028966    449.83968  0.012190777  0.011723212         3914 
 3076000   0.75369818   -9.3231549    448.45912  0.012149413  0.011717525         3905 
 3077000   0.78877284   -9.2956047    449.42468  0.012171614  0.011711844         3903 
 3078000   0.76314641   -9.2963148    449.35548  0.012165786  0.011706166         3913 
 3079000   0.75884474   -9.3413324    448.90397  0.012149615  0.011700482         3921 
 3080000   0.75005801   -9.2890369    448.73469   0.01214109   0.01169481         3914 
 3081000   0.74105885   -9.3358073    448.24722  0.012123965   0.01168914         3921 
 3082000   0.74731876   -9.3359898    448.75466  0.012133751   0.01168347         3920 
 3083000   0.76890829   -9.3106945    449.68061  0.012154844  0.011677809         3905 
 3084000   0.75616525   -9.3323677    447.46911  0.012091146  0.011672144         3925 
 3085000   0.75589896   -9.3412949    448.99875  0.012128545  0.011666486         3911 
 3086000   0.74944139   -9.3108989    450.20539  0.012157199   0.01166083         3927 
 3087000   0.74695167   -9.3082481    448.82948  0.012116118  0.011655181         3911 
 3088000   0.75183304   -9.3210281    449.30523  0.012125033  0.011649531         3929 
 3089000   0.75537143   -9.3045274    448.98636  0.012112506  0.011643885         3882 
 3090000   0.76225287   -9.3137507    448.73637  0.012101844  0.011638246         3922 
 3091000   0.75527308   -9.3549779    448.97778  0.012104437  0.011632608         3918 
 3092000    0.7652279   -9.2964197    448.72413  0.012093686  0.011626975         3919 
 3093000   0.76465632   -9.3302365    447.79267   0.01206468  0.011621344         3936 
 3094000   0.75968465   -9.3093816    449.76676  0.012113951  0.011615717         3922 
 3095000   0.74584257    -9.334253    448.48451  0.012075512  0.011610088         3932 
 3096000   0.75097464   -9.3076026    449.08964  0.012087899  0.011604466         3912 
 3097000   0.77649446   -9.3206351    447.80796  0.012049509  0.011598841         3949 
 3098000   0.76753603   -9.3217754    448.99649   0.01207759  0.011593221         3929 
 3099000   0.76576444   -9.3058427    448.74668  0.012066975  0.011587608         3938 
 3100000   0.76906199   -9.3186494    448.32061  0.012051629  0.011581995         3945 
 3101000   0.77435292   -9.3185255    449.50993  0.012079703  0.011576388         3938 
 3102000   0.75291088   -9.3251006    448.23805  0.012041641  0.011570787         3924 
 3103000   0.74580294   -9.3185925     450.3329  0.012094019  0.011565192         3922 
 3104000   0.75747063    -9.325806    448.98107   0.01205383  0.011559599         3920 
 3105000   0.76153795   -9.3018434    449.29593  0.012058399  0.011554008         3938 
 3106000   0.75594228    -9.304658    448.74143  0.012039639  0.011548412         3928 
 3107000   0.75390911   -9.3193859    450.40813  0.012080467  0.011542818         3914 
 3108000   0.74705321   -9.3158847    449.13957  0.012042567  0.011537232         3926 
 3109000   0.74744642   -9.3467009    447.76208  0.012001771  0.011531653         3932 
 3110000   0.76115143   -9.3170147     449.4956  0.012044362  0.011526077         3913 
 3111000   0.77249889   -9.3149037    448.38987  0.012010872  0.011520508         3940 
 3112000   0.75270412   -9.3269917    448.89826  0.012020626  0.011514939         3924 
 3113000   0.73705512   -9.3118589     449.0042  0.012019601  0.011509381         3925 
 3114000   0.76184829   -9.3110799     448.7974  0.012010207   0.01150382         3930 
 3115000   0.74417233    -9.317863    448.05229  0.011986418  0.011498257         3913 
 3116000   0.75112014   -9.3455402    448.63856   0.01199825  0.011492699         3921 
 3117000   0.74293743   -9.3159427    448.45061  0.011989376  0.011487152         3935 
 3118000   0.73887638   -9.3318693    450.02816  0.012027693  0.011481603         3946 
 3119000    0.7471596   -9.3396446    448.59743  0.011985611  0.011476057         3950 
 3120000   0.74004288   -9.3129109    449.03109  0.011993352  0.011470517         3931 
 3121000   0.75998121   -9.2962209     448.7101  0.011980938  0.011464977         3925 
 3122000      0.74785   -9.3126046    448.10535  0.011960958  0.011459449         3915 
 3123000   0.75987723   -9.3435955    448.11184  0.011957302  0.011453918         3938 
 3124000   0.75659823   -9.3204571    448.21342  0.011956184  0.011448381         3930 
 3125000   0.74854985   -9.3314662     448.3886  0.011957029  0.011442855         3931 
 3126000   0.76121625   -9.3327218    448.08569  0.011945129  0.011437332         3940 
 3127000   0.74943809   -9.3276302    448.42721  0.011950411  0.011431807         3945 
 3128000   0.73812081   -9.3205765    447.52395  0.011922526  0.011426285         3940 
 3129000   0.73172894   -9.3480633    448.23204  0.011937574  0.011420763         3938 
 3130000   0.74292554   -9.3466936    449.17871  0.011958965   0.01141525         3953 
 3131000    0.7327312   -9.3272475    448.03949  0.011924824   0.01140974         3932 
 3132000   0.75841501   -9.3278434    447.72158  0.011912558  0.011404235         3946 
 3133000   0.75091594   -9.3281683    449.27686  0.011950124  0.011398732         3947 
 3134000   0.74838125    -9.333001     448.3052  0.011920474   0.01139323         3941 
 3135000   0.73733928   -9.3461391    448.53301  0.011922727  0.011387729         3942 
 3136000   0.74687723   -9.3508674    448.84201  0.011927137  0.011382232         3951 
 3137000   0.75384099   -9.3233033    449.06039  0.011929136   0.01137674         3920 
 3138000   0.75459178   -9.3240783     448.9815  0.011923239  0.011371253         3947 
 3139000   0.74386933   -9.3137482    447.38017  0.011876929  0.011365769         3944 
 3140000   0.75352849   -9.3497391    448.06988  0.011891451   0.01136029         3943 
 3141000   0.74594572   -9.3364734    448.31688  0.011894218  0.011354816         3946 
 3142000   0.74688693   -9.3224663    448.60293   0.01189802  0.011349344         3916 
 3143000   0.76058772   -9.3275571    448.87894  0.011901552  0.011343876         3942 
 3144000    0.7560502   -9.3260208    449.07437  0.011902947  0.011338405         3928 
 3145000   0.74096132   -9.3253685    449.34624  0.011906366  0.011332937         3941 
 3146000   0.74764717   -9.3351908     448.5504    0.0118815  0.011327483         3945 
 3147000   0.73555954   -9.3343277    447.99954  0.011863138  0.011322028         3939 
 3148000   0.75378119   -9.3427369     449.4436  0.011897596  0.011316572         3945 
 3149000    0.7475436   -9.3269086    449.40921  0.011892908  0.011311114         3928 
 3150000   0.75560863   -9.3506373    448.62567  0.011868404  0.011305666         3940 
 3151000   0.74615454   -9.3202111    448.49342   0.01186114   0.01130022         3935 
 3152000   0.74923779   -9.3365497    448.39199  0.011854695  0.011294778         3942 
 3153000   0.75124856   -9.3312694    448.92379  0.011864991  0.011289333         3935 
 3154000   0.75480064   -9.3240585    449.27147  0.011870415  0.011283891         3928 
 3155000   0.73603877    -9.322357      448.105  0.011835843  0.011278457         3944 
 3156000   0.74392131   -9.3566469    448.15416   0.01183339  0.011273027         3951 
 3157000   0.75557812   -9.3560523    448.84113  0.011847776  0.011267599         3949 
 3158000   0.75473832   -9.3459253    447.86159  0.011818176   0.01126217         3958 
 3159000   0.76248785   -9.3661874    448.25198  0.011824733  0.011256747         3959 
 3160000   0.75133607   -9.3285629    448.72832  0.011833553  0.011251329         3938 
 3161000   0.73380681   -9.3365392    447.85771  0.011806857   0.01124591         3936 
 3162000   0.76230815   -9.3496861    448.44317  0.011818553  0.011240494         3946 
 3163000   0.75541617   -9.3637632    447.21734   0.01178252  0.011235083         3948 
 3164000    0.7583511   -9.3389464    448.65813  0.011816744  0.011229674         3939 
 3165000   0.74980173    -9.339765     447.7846  0.011790011  0.011224269         3929 
 3166000   0.72842704   -9.3504685    448.31563  0.011800264  0.011218867         3940 
 3167000   0.74794062   -9.3213287    448.49361  0.011801221  0.011213464         3948 
 3168000    0.7569191   -9.3516458    448.52317  0.011798274  0.011208066         3937 
 3169000   0.74667805   -9.3411149    448.40749  0.011791509  0.011202667         3956 
 3170000   0.74351058   -9.3563579    447.77548  0.011771175  0.011197284         3929 
 3171000   0.75217407   -9.3450983    447.74443  0.011766646  0.011191889         3931 
 3172000   0.74191775    -9.322881    448.42507  0.011780818  0.011186508         3962 
 3173000   0.75376503   -9.3458102    448.35172  0.011775179   0.01118112         3947 
 3174000   0.74112879   -9.3507153     447.6274  0.011752452  0.011175739         3944 
 3175000   0.73973618   -9.3629646    448.05998  0.011760104  0.011170363         3948 
 3176000   0.73947711   -9.3559621    448.60594  0.011770727  0.011164989         3943 
 3177000    0.7462614   -9.3306134     449.1462  0.011781193  0.011159622         3937 
 3178000   0.73713451    -9.349053    448.90984  0.011771288  0.011154258         3951 
 3179000   0.76673157   -9.3338029    448.39124  0.011753991  0.011148897         3951 
 3180000   0.74217367   -9.3241169    447.76412  0.011733861  0.011143541         3939 
 3181000   0.73579925   -9.3429599    447.45252  0.011722009  0.011138188         3949 
 3182000   0.75433001   -9.3512421    448.15174  0.011736637  0.011132827         3961 
 3183000   0.74049023   -9.3428868      448.159  0.011733139  0.011127477         3943 
 3184000   0.74609551   -9.3389266    448.67782  0.011743033  0.011122127         3950 
 3185000   0.74308843   -9.3368203    447.36937  0.011705112  0.011116786         3931 
 3186000   0.73756623   -9.3399763    447.42027  0.011702769  0.011111451         3956 
 3187000   0.72209767   -9.3452264    448.37588  0.011724084  0.011106115         3953 
 3188000   0.74584728   -9.3567821    448.56027  0.011725227   0.01110078         3955 
 3189000   0.74107552   -9.3605087    448.56642   0.01172171  0.011095446         3946 
 3190000   0.73702379   -9.3471197    448.54299  0.011717424  0.011090119         3951 
 3191000   0.73955345   -9.3555076     448.5467  0.011713849  0.011084797         3964 
 3192000   0.74613956   -9.3665124    448.82359  0.011717408  0.011079476         3958 
 3193000   0.74364808   -9.3420712    447.88501  0.011689242  0.011074154         3957 
 3194000   0.73911668   -9.3521876    448.84247  0.011710563  0.011068837         3947 
 3195000   0.73253412   -9.3391464     447.6773  0.011676508  0.011063526         3937 
 3196000   0.74155277   -9.3366742    448.71714  0.011699967  0.011058223         3947 
 3197000   0.73847029    -9.333584    448.94361  0.011702211   0.01105292         3942 
 3198000    0.7370362   -9.3550836     447.3724  0.011657609  0.011047617         3945 
 3199000   0.73735227   -9.3351892    448.19579  0.011675414  0.011042315         3950 
 3200000   0.75087828   -9.3584912    446.91818  0.011638494   0.01103702         3949 
 3201000   0.72821499   -9.3605566    448.19223  0.011668026  0.011031732         3947 
 3202000   0.74159941   -9.3721409    448.92453  0.011683441  0.011026442         3950 
 3203000   0.76625955   -9.3658313    448.41521  0.011666542  0.011021154         3937 
 3204000   0.73276823   -9.3442253    448.57562  0.011667073  0.011015873         3952 
 3205000   0.74794129   -9.3269156     448.4174  0.011659319  0.011010595         3949 
 3206000   0.72676276   -9.3491199    448.05915   0.01164637  0.011005319         3949 
 3207000   0.74114493   -9.3552264    448.41802  0.011652064  0.011000043         3946 
 3208000   0.73620798   -9.3514606    447.90698  0.011635156  0.010994774         3942 
 3209000   0.74031109   -9.3450451     448.5504  0.011648239  0.010989508         3956 
 3210000   0.72739838   -9.3478141    448.98985  0.011656019  0.010984242         3953 
 3211000   0.75133918   -9.3501991    447.37869  0.011610575  0.010978983         3949 
 3212000   0.73987521   -9.3599815    446.71882  0.011589841  0.010973731         3952 
 3213000   0.73190188   -9.3886446    447.96621  0.011618586  0.010968475         3940 
 3214000   0.74351845   -9.3587623    448.30927  0.011623866  0.010963225         3943 
 3215000   0.76542386   -9.3712909    447.61434  0.011602238  0.010957971         3941 
 3216000   0.73906696    -9.335947    448.47944  0.011621047  0.010952726         3937 
 3217000   0.72611211   -9.3793633     447.8109  0.011600117  0.010947482         3951 
 3218000   0.74165568   -9.3575033    447.35489  0.011584703  0.010942242         3941 
 3219000   0.73417884   -9.3738692     446.5687  0.011560751  0.010937002         3961 
 3220000   0.73898519   -9.3791438    448.08099  0.011596299  0.010931768         3945 
 3221000   0.74780009   -9.3784828    447.98483  0.011590211   0.01092654         3946 
 3222000   0.72636353   -9.3457914    448.61136  0.011602818  0.010921305         3949 
 3223000   0.75205216   -9.3597491    448.24639  0.011589782  0.010916088         3948 
 3224000   0.73805739   -9.3428193    448.18697  0.011584651  0.010910865         3951 
 3225000   0.74505062   -9.3353403    448.27007  0.011583206  0.010905648         3944 
 3226000   0.72196457   -9.3836673    447.71558  0.011565292  0.010900432         3941 
 3227000   0.72920142   -9.3458077    447.81198  0.011564197  0.010895221         3938 
 3228000   0.73816529   -9.3550213    448.40734  0.011575985  0.010890011         3946 
 3229000   0.73705677    -9.348783    447.67158  0.011553411  0.010884804         3954 
 3230000   0.72552325   -9.3524274    447.48975  0.011545143  0.010879605         3928 
 3231000   0.73820817   -9.3370021    448.19224  0.011559688  0.010874411         3953 
 3232000   0.73381707   -9.3615224    447.60968  0.011541091  0.010869218         3937 
 3233000   0.74383351   -9.3619539    448.09268  0.011549971  0.010864027         3945 
 3234000   0.75348146   -9.3504768    447.19016  0.011523144  0.010858841         3940 
 3235000    0.7352091   -9.3663945    447.54179   0.01152864  0.010853659         3951 
 3236000   0.73659919   -9.3313543    448.34959   0.01154588  0.010848479         3945 
 3237000   0.73464723   -9.3536071    448.41569  0.011544014  0.010843305         3930 
 3238000   0.73248767   -9.3533888    448.46522  0.011541724   0.01083813         3965 
 3239000   0.73085434    -9.341161    448.08589  0.011528401  0.010832954         3939 
 3240000   0.73781108   -9.3766047     447.1985  0.011502019  0.010827789         3930 
 3241000   0.75943998   -9.3582855    447.96228  0.011518109  0.010822623         3940 
 3242000    0.7470128   -9.3729266    448.25299  0.011522028  0.010817458         3947 
 3243000   0.74142737   -9.3570153    448.17414  0.011516449  0.010812293         3948 
 3244000   0.73246802   -9.3495105    448.05367  0.011509804  0.010807135         3943 
 3245000   0.73213889   -9.3609494    447.42903  0.011490216  0.010801975         3951 
 3246000   0.74106444   -9.3689888    448.60292  0.011516813  0.010796824         3947 
 3247000    0.7216953   -9.3717265    447.83778   0.01149363  0.010791672         3932 
 3248000   0.71729873   -9.3733692    447.93262  0.011492524  0.010786524         3958 
 3249000   0.71587465   -9.3676966    447.63036  0.011481234   0.01078138         3939 
 3250000   0.73931109   -9.3731718    447.40919   0.01147203  0.010776244         3954 
 3251000   0.72520398   -9.3545464     447.0328  0.011458854  0.010771111         3952 
 3252000   0.72992641   -9.3674606    447.79308  0.011474812  0.010765983         3935 
 3253000   0.73212197   -9.3689074    448.06797  0.011478327  0.010760856         3951 
 3254000   0.73643295   -9.3615829    448.15821   0.01147711  0.010755728         3947 
 3255000   0.73360256   -9.3790034    447.86016  0.011465954  0.010750605         3939 
 3256000    0.7231764   -9.3628724    448.59823  0.011481323  0.010745487         3936 
 3257000   0.73286716   -9.3694233    448.51126  0.011475572  0.010740367         3946 
 3258000   0.74543884   -9.3548549    448.29612  0.011466547   0.01073525         3938 
 3259000   0.74800078   -9.3488778    448.78996  0.011475656  0.010730143         3951 
 3260000   0.71920577    -9.340081    448.33555   0.01146052   0.01072504         3950 
 3261000   0.73554679   -9.3480252    448.55282  0.011462558  0.010719938         3943 
 3262000   0.71867266   -9.3862071    447.06164  0.011420949  0.010714835         3956 
 3263000   0.71378759   -9.3827075    447.12697  0.011419118  0.010709734         3945 
 3264000   0.72773707   -9.3689558     448.3196  0.011446068  0.010704634         3940 
 3265000   0.71106491   -9.3529826    447.11497  0.011411817   0.01069954         3940 
 3266000   0.73075901   -9.3704365    448.30585  0.011438708  0.010694449         3958 
 3267000   0.73108735   -9.3939746    447.93036  0.011425629   0.01068936         3920 
 3268000   0.71592638   -9.3540538    447.66314  0.011415319   0.01068428         3943 
 3269000   0.72469487   -9.3511027    448.32283  0.011428644  0.010679198         3920 
 3270000   0.73696701   -9.3777079    447.68096  0.011408791  0.010674124         3933 
 3271000    0.7203856   -9.3500647    447.77252  0.011407636  0.010669048         3942 
 3272000   0.71645701   -9.3693309    448.88993  0.011432608  0.010663976         3933 
 3273000    0.7196224   -9.3575412    447.49579  0.011393619  0.010658909         3941 
 3274000   0.72817091    -9.374416    447.58013  0.011392286  0.010653845         3944 
 3275000   0.73107032   -9.3577544    447.32037  0.011382198  0.010648782         3929 
 3276000   0.73316843   -9.3957852    448.00838  0.011396225  0.010643722         3931 
 3277000   0.73724658   -9.3746157    447.85146  0.011388756  0.010638666         3933 
 3278000   0.72346261   -9.3892122    447.64694  0.011380083  0.010633609         3939 
 3279000   0.71691964   -9.3704627    447.24443  0.011366383   0.01062856         3942 
 3280000   0.71697982   -9.3952159    447.33359  0.011365183   0.01062351         3938 
 3281000   0.72184837   -9.3785657    447.53235  0.011366767  0.010618465         3949 
 3282000   0.73129643   -9.3473427    447.95574  0.011374054  0.010613432         3946 
 3283000   0.73564351   -9.3772587    447.20157  0.011351446  0.010608403         3941 
 3284000   0.71839753   -9.3938924    447.27193  0.011349775  0.010603371         3930 
 3285000   0.71926486   -9.3687753    448.10943  0.011367565  0.010598334         3936 
 3286000   0.71711188   -9.4018688    447.52617  0.011349315  0.010593309         3940 
 3287000   0.69982967   -9.3735576     447.2549  0.011338984  0.010588278         3908 
 3288000   0.72354522   -9.3655097    448.58178  0.011369165  0.010583251         3931 
 3289000   0.71497002    -9.377923    448.47852  0.011363092  0.010578226         3935 
 3290000   0.71841141   -9.3601955    447.43827  0.011333289  0.010573209         3924 
 3291000   0.73059757   -9.3765033    447.61175  0.011334238    0.0105682         3955 
 3292000   0.71825415   -9.3744364    446.79926  0.011310228  0.010563194         3938 
 3293000   0.71162237   -9.4113614    446.38985  0.011296433  0.010558188         3938 
 3294000   0.72839218    -9.380019    446.56253  0.011297372  0.010553183         3946 
 3295000   0.71418957   -9.3546432    447.73099  0.011323495  0.010548182         3937 
 3296000   0.71779419   -9.3736752    447.95256  0.011325661   0.01054318         3941 
 3297000   0.75200739   -9.3761742    447.78957  0.011318107  0.010538183         3924 
 3298000   0.72477113   -9.3859392    447.57854  0.011309343  0.010533191         3935 
 3299000   0.73106813   -9.3764245    447.78718  0.011311185  0.010528199         3931 
 3300000   0.72889879   -9.3845568    447.80973  0.011308327  0.010523214         3931 
 3301000   0.72691016   -9.4131662    446.75514  0.011278278  0.010518233         3938 
 3302000    0.7086861   -9.3963703    447.69736  0.011298641   0.01051325         3936 
 3303000   0.72925013   -9.3577688    446.70366   0.01127015  0.010508273         3933 
 3304000   0.71406044   -9.3773597    447.87238  0.011296216  0.010503297         3934 
 3305000   0.72588012   -9.3636484     447.2573  0.011277289   0.01049833         3950 
 3306000   0.71232905   -9.3919312    447.38631   0.01127713   0.01049336         3944 
 3307000   0.73717363   -9.3620151    447.95989  0.011288174  0.010488397         3942 
 3308000   0.73130381   -9.4050426    446.86564  0.011257196   0.01048344         3950 
 3309000   0.72220775   -9.3552986    447.48561  0.011269407  0.010478482         3942 
 3310000   0.72890929    -9.366782    447.64298  0.011269964  0.010473525         3948 
 3311000   0.73398788   -9.3904923    447.49945  0.011262948  0.010468575         3944 
 3312000   0.73673532   -9.3735458    447.74571  0.011265744  0.010463628         3938 
 3313000   0.72375164   -9.3795606    447.61226  0.011258986  0.010458687         3943 
 3314000   0.73207361   -9.3804691    447.42248  0.011250817  0.010453745         3937 
 3315000   0.72472853   -9.3839711    447.56918  0.011251111  0.010448808         3947 
 3316000   0.72821977   -9.3939845    447.84534  0.011254658  0.010443869         3958 
 3317000   0.72522978   -9.3847476    447.63157  0.011245894  0.010438932         3941 
 3318000   0.69969291    -9.390056    447.21326  0.011231999  0.010433996         3958 
 3319000    0.7042231   -9.3656086    447.76743  0.011242529  0.010429069         3929 
 3320000   0.73351949   -9.3874527    447.43876  0.011230893  0.010424146         3945 
 3321000   0.71797406    -9.379713    447.23834  0.011222482  0.010419226         3954 
 3322000   0.71618525   -9.3729155    447.89355  0.011235539  0.010414313         3947 
 3323000   0.70188338   -9.4037881    447.11889  0.011212732  0.010409396         3961 
 3324000   0.72133229   -9.3699371    448.62101  0.011247017  0.010404487         3951 
 3325000   0.71764324   -9.3870632    448.13242  0.011231389  0.010399577         3953 
 3326000   0.71388889   -9.3693937    448.47364  0.011236561  0.010394675         3942 
 3327000    0.7175265   -9.3904242    447.67952  0.011213293  0.010389769         3953 
 3328000   0.72035313   -9.4217411     446.9078    0.0111906  0.010384866         3949 
 3329000   0.71959056   -9.3900594    447.15145  0.011193338  0.010379961         3944 
 3330000   0.70979545   -9.3797757    447.66679  0.011202873  0.010375069         3950 
 3331000   0.72181721   -9.3798378    447.45776   0.01119428   0.01037017         3932 
 3332000   0.72062967   -9.3519722    448.62456  0.011220102  0.010365282         3929 
 3333000   0.72488622   -9.3945904    448.08338  0.011203205  0.010360393         3952 
 3334000   0.70855231   -9.3712849    447.69472   0.01119013  0.010355513         3965 
 3335000   0.72116517   -9.3862747    447.06807  0.011171116  0.010350634         3954 
 3336000   0.72868574   -9.3931342     446.7609  0.011160094  0.010345754         3945 
 3337000   0.71161496   -9.4048294    447.24468  0.011168831  0.010340874         3948 
 3338000   0.71832886   -9.3800711    448.14684  0.011188008  0.010336002         3945 
 3339000    0.7107469   -9.4034534    447.09701  0.011158456  0.010331131         3939 
 3340000    0.7276793    -9.372273    447.58442  0.011167276  0.010326267         3954 
 3341000   0.71756157   -9.3836166    447.45473  0.011160699  0.010321404         3961 
 3342000   0.72600802   -9.3798234    447.73302  0.011164298  0.010316542         3942 
 3343000   0.70970961   -9.3831134    446.87176   0.01113949   0.01031168         3951 
 3344000   0.70041131   -9.3993721    447.22074  0.011144855  0.010306825         3941 
 3345000   0.71821756   -9.3713449    448.67098  0.011177653  0.010301974         3931 
 3346000   0.71818005   -9.3968798    446.42814  0.011118453  0.010297126         3944 
 3347000   0.72222768   -9.4171808    446.89679    0.0111268  0.010292278         3944 
 3348000   0.71965048   -9.3908938    447.08645  0.011128197  0.010287437         3923 
 3349000   0.73311193   -9.3810525    447.53005  0.011135912  0.010282604         3920 
 3350000   0.71447413   -9.3859289    446.79527   0.01111431  0.010277769         3930 
 3351000   0.72292524   -9.3947792    447.16132  0.011120096  0.010272937         3930 
 3352000   0.71216277   -9.3747138    448.32071  0.011145602  0.010268113         3925 
 3353000   0.71405214   -9.3791174    447.90437  0.011131931  0.010263282         3931 
 3354000   0.70874796   -9.3966218    447.28781  0.011113293  0.010258454         3950 
 3355000   0.72379081   -9.3789975    447.16504  0.011106931  0.010253635         3947 
 3356000   0.70502872   -9.3804812    446.99991  0.011099521  0.010248813         3938 
 3357000   0.71636261   -9.3692429    447.96831  0.011120254  0.010243997         3940 
 3358000   0.72849899   -9.3939896    447.40754  0.011103026  0.010239187         3943 
 3359000    0.7129461   -9.3777078    447.59491  0.011104369  0.010234378         3933 
 3360000     0.720255   -9.3838812    447.77015   0.01110541  0.010229576         3925 
 3361000   0.72074314   -9.3926694    447.51537  0.011095789  0.010224772         3945 
 3362000    0.7110273   -9.3771474    447.42235  0.011090183  0.010219968         3955 
 3363000    0.7175564   -9.4061177    447.17124  0.011080663  0.010215168         3940 
 3364000   0.71215947    -9.393032    447.40128  0.011083068   0.01021037         3939 
 3365000   0.69996544   -9.4186318    448.08245  0.011096643  0.010205577         3942 
 3366000   0.72077291   -9.4062716    447.09881  0.011068994  0.010200781         3948 
 3367000   0.70444092   -9.4031765    446.68847  0.011055551  0.010195989         3951 
 3368000   0.72078303   -9.3902592    447.73752  0.011078225    0.0101912         3933 
 3369000   0.70329318   -9.3857271    446.98089  0.011056221  0.010186409         3935 
 3370000   0.71519694   -9.4023393    446.33587   0.01103699  0.010181626         3932 
 3371000   0.70616213   -9.3988161    446.83366  0.011046021   0.01017685         3947 
 3372000    0.7015426    -9.398379    446.65988  0.011038451  0.010172077         3941 
 3373000   0.72546565   -9.3993927    446.32056  0.011026795  0.010167301         3943 
 3374000   0.70878261   -9.4071546    447.15762  0.011044201  0.010162533         3925 
 3375000    0.7235944    -9.370033    447.49379  0.011049229  0.010157768         3960 
 3376000    0.7136269   -9.4035758    446.94894  0.011032507  0.010153005         3939 
 3377000   0.70629585   -9.3992269    447.41859   0.01104083  0.010148243         3957 
 3378000   0.70398477   -9.3724724    447.42574  0.011037738  0.010143484         3932 
 3379000   0.71123766    -9.400136    447.53495  0.011037165  0.010138729         3949 
 3380000   0.72359186   -9.3957304    447.08827  0.011022886   0.01013397         3925 
 3381000   0.73196607   -9.4011202    447.36655  0.011026485  0.010129218         3948 
 3382000   0.71787215   -9.4071546    447.18373   0.01101872  0.010124473         3935 
 3383000   0.69493817   -9.4106848    446.27957  0.010993191  0.010119728         3938 
 3384000    0.7102869   -9.4091871     446.4889  0.010995097  0.010114989         3948 
 3385000   0.72220154   -9.3739479    447.74717  0.011022825  0.010110251         3944 
 3386000    0.7132559   -9.4070394    446.34017  0.010984942  0.010105519         3950 
 3387000   0.70078179   -9.3776713     447.4358  0.011008656  0.010100783         3942 
 3388000   0.71265279   -9.4152411    446.70152  0.010987346  0.010096048         3959 
 3389000   0.71011012   -9.4091703      446.194  0.010971624   0.01009132         3943 
 3390000   0.68477166   -9.3988685    447.00414  0.010988302  0.010086598         3956 
 3391000   0.71566485   -9.3968119    448.07289  0.011011326  0.010081875         3952 
 3392000   0.72230267   -9.3989598    448.07115  0.011008037  0.010077155         3942 
 3393000   0.70751432   -9.4017463    447.53437   0.01099161  0.010072439         3953 
 3394000   0.70199088   -9.3805579    447.40676  0.010985238  0.010067725         3951 
 3395000   0.70321213   -9.4150318    448.13029  0.010999762  0.010063012         3957 
 3396000   0.70580847   -9.3971706     445.9215  0.010942322  0.010058305         3938 
 3397000   0.72119278   -9.4033426    446.55575   0.01095466  0.010053605         3951 
 3398000   0.70577523   -9.3909936    447.81622  0.010982348  0.010048905         3949 
 3399000   0.70314897    -9.410055    447.66062  0.010975302  0.010044206         3947 
 3400000   0.71331676   -9.4152894    446.24306   0.01093733  0.010039509         3952 
 3401000   0.70749544   -9.4297731    446.30159  0.010935548  0.010034811         3954 
 3402000   0.71400745    -9.400234    447.31052  0.010957048   0.01003012         3927 
 3403000   0.67790409   -9.4004807    447.20736  0.010951302  0.010025433         3945 
 3404000   0.70436628   -9.3852319    447.60841  0.010957903   0.01002075         3956 
 3405000   0.69168875   -9.3996796    446.98343  0.010939389  0.010016067         3952 
 3406000   0.68966214   -9.3982991    447.40612  0.010946519  0.010011387         3948 
 3407000   0.70907114   -9.4096883    447.42876   0.01094386   0.01000671         3942 
 3408000    0.7051524   -9.4170695    447.29667  0.010937419  0.010002044         3941 
 3409000   0.70430713   -9.4061705    447.20087  0.010931868 0.0099973749         3950 
 3410000    0.7066395   -9.4130785    446.56203  0.010913051 0.0099927096         3959 
 3411000   0.70730776   -9.4077475    446.60536   0.01091091 0.0099880472         3950 
 3412000    0.7041301   -9.4088826     447.0176   0.01091778 0.0099833874         3950 
 3413000   0.70376048   -9.3937268    447.11409  0.010916937 0.0099787346         3936 
 3414000   0.70664557    -9.402105    446.19643   0.01089134 0.0099740828         3944 
 3415000   0.72797543   -9.3991875    447.05113  0.010909008 0.0099694368         3931 
 3416000   0.71520351   -9.4036201    447.08313  0.010906595 0.0099647908         3935 
 3417000   0.70998906   -9.4104184    446.61457  0.010891976 0.0099601487         3939 
 3418000   0.69592872   -9.4059764    447.07289  0.010899963 0.0099555032         3940 
 3419000   0.71397174    -9.400567    447.05486  0.010896336 0.0099508649         3942 
 3420000   0.70666532   -9.4352426    447.29547  0.010899013 0.0099462235         3953 
 3421000   0.70049796    -9.402455     447.1417  0.010892081 0.0099415848         3940 
 3422000   0.70162673   -9.3989853    445.51831  0.010849365 0.0099369529         3930 
 3423000   0.70770202   -9.4129929    446.53097  0.010870848 0.0099323294         3926 
 3424000    0.7079651   -9.3851142    447.36081   0.01088787 0.0099277016         3932 
 3425000   0.70576505   -9.4143179     447.7073  0.010893122 0.0099230847         3930 
 3426000   0.70113983   -9.4119069    446.76368   0.01086699 0.0099184645         3919 
 3427000   0.71069558   -9.3987168     446.6372  0.010860743 0.0099138489         3927 
 3428000   0.70896188   -9.3832453    446.99729  0.010866329 0.0099092331         3922 
 3429000   0.70683364   -9.3861784    447.90429  0.010885202 0.0099046241         3937 
 3430000   0.69389842   -9.4207744     446.9301   0.01085836  0.009900018         3934 
 3431000   0.68621363   -9.3921722    447.36848  0.010865843 0.0098954091         3940 
 3432000   0.69529896    -9.382262     446.8552  0.010850214 0.0098908017         3941 
 3433000   0.71121739   -9.4354402     446.7628   0.01084481  0.009886194         3943 
 3434000   0.70159062   -9.3885417    447.06685   0.01084903 0.0098815942         3946 
 3435000   0.71069341   -9.4125361    447.42742   0.01085462 0.0098769961         3928 
 3436000   0.72541315   -9.4119576    447.59775  0.010855591 0.0098724028         3939 
 3437000   0.71522898     -9.42116    447.59757  0.010852429 0.0098678133         3951 
 3438000   0.69133875   -9.4130683    446.27287  0.010817163 0.0098632185         3940 
 3439000   0.70865959    -9.405149      445.791  0.010802341 0.0098586297         3933 
 3440000    0.6898666   -9.4115152    446.26012  0.010810565 0.0098540482         3948 
 3441000    0.6921675   -9.4141793    447.35842  0.010834022 0.0098494653         3937 
 3442000   0.69640766   -9.3929967    446.70061  0.010814948 0.0098448833         3952 
 3443000   0.70203646    -9.414291    447.08159  0.010821028 0.0098403082         3942 
 3444000    0.6988042   -9.4117961    446.45032  0.010802611 0.0098357339         3933 
 3445000   0.71283941   -9.4293021    447.24283  0.010818646   0.00983116         3920 
 3446000   0.70610073     -9.41711    447.07898  0.010811544 0.0098265857         3941 
 3447000   0.69208849   -9.4304366    445.73669  0.010775957 0.0098220107         3964 
 3448000   0.70049582   -9.4479206    445.61602  0.010769915 0.0098174391         3960 
 3449000   0.71742714   -9.4280267    446.37408  0.010785109 0.0098128735         3936 
 3450000    0.7018412   -9.4272226    446.31492  0.010780554  0.009808307         3955 
 3451000   0.70337541    -9.401266    446.50923  0.010782122 0.0098037511         3941 
 3452000   0.70904463   -9.4259017    446.75299  0.010784883 0.0097991984         3941 
 3453000   0.69893798   -9.4301212    447.35371  0.010796257 0.0097946444         3941 
 3454000   0.69613406   -9.4256582    445.97173  0.010759789 0.0097900899         3952 
 3455000   0.69281386   -9.4071925     447.6202  0.010796435 0.0097855431         3939 
 3456000   0.68989434   -9.4285599    446.22801  0.010759742 0.0097809958         3935 
 3457000    0.7003204    -9.442052    446.17277  0.010755298 0.0097764556         3952 
 3458000   0.69828998   -9.4264464    446.76029  0.010766346 0.0097719177         3931 
 3459000   0.70271949   -9.4245772     446.4583  0.010755958 0.0097673825         3954 
 3460000   0.69688186   -9.3990005    446.32866  0.010749727 0.0097628462         3937 
 3461000   0.69040894   -9.4516744    445.67658   0.01073092 0.0097583118         3939 
 3462000   0.69906887   -9.4025905    447.35735  0.010768278 0.0097537815         3953 
 3463000   0.67965287   -9.4312433    446.19108  0.010737104  0.009749258         3939 
 3464000   0.69991264   -9.4039523    446.48937   0.01074118  0.009744734         3941 
 3465000   0.69170431   -9.4004281    446.12071  0.010729214 0.0097402134         3947 
 3466000   0.69987712   -9.3922681    446.47923  0.010734738    0.0097357         3925 
 3467000   0.68295679   -9.4005086    446.61871  0.010734995 0.0097311856         3927 
 3468000   0.70365687   -9.4558901    447.04862  0.010742229 0.0097266742         3942 
 3469000    0.6885656   -9.4378203    446.62482  0.010728952  0.009722163         3944 
 3470000   0.71586614   -9.4044053    446.60608   0.01072541 0.0097176602         3933 
 3471000   0.70042882   -9.4196864    446.35274  0.010716238 0.0097131573         3932 
 3472000   0.69335012   -9.4301042    446.52586  0.010717306 0.0097086532         3935 
 3473000   0.68143608   -9.4201653    447.13649  0.010728873 0.0097041571         3948 
 3474000   0.70027896   -9.4294721    447.08385  0.010724521 0.0096996601         3944 
 3475000   0.69427113   -9.4066767    446.73632  0.010713101 0.0096951705         3939 
 3476000   0.70475426    -9.432987    446.51988   0.01070483 0.0096906815         3953 
 3477000    0.6810683   -9.4293031    446.85517  0.010709787 0.0096861918         3938 
 3478000   0.70144395   -9.4197628    446.67953    0.0107025  0.009681703         3944 
 3479000   0.69626269   -9.3993874    446.75999  0.010701351 0.0096772188         3956 
 3480000   0.69303524   -9.4174771    446.91467   0.01070198  0.009672735         3956 
 3481000   0.68558922   -9.4158118    446.36015   0.01068563 0.0096682542         3947 
 3482000   0.68768769   -9.4180938    446.45636  0.010684864 0.0096637755         3947 
 3483000   0.69036577   -9.4237282    445.84196  0.010667096  0.009659299         3941 
 3484000   0.68334568   -9.4287968     446.4548  0.010678693 0.0096548283         3958 
 3485000   0.70728673   -9.4325493    446.41162  0.010674596 0.0096503565         3958 
 3486000   0.69407693   -9.4304034    446.75712  0.010679793 0.0096458926         3956 
 3487000   0.69459164   -9.4038481    447.73455   0.01070009 0.0096414308         3946 
 3488000   0.67731437   -9.4433565    446.24563  0.010661449 0.0096369747         3953 
 3489000    0.6883434   -9.4367524    445.87091  0.010649444 0.0096325156         3956 
 3490000   0.68418438   -9.4398582    446.74215  0.010667196 0.0096280622         3965 
 3491000   0.69948517   -9.4337655    445.49605  0.010634394 0.0096236148         3943 
 3492000   0.68670486   -9.4458171    445.40861  0.010629262 0.0096191641         3954 
 3493000   0.69204195   -9.4425805    446.35573  0.010648815 0.0096147207         3948 
 3494000   0.68733121   -9.4253071    446.06059  0.010638728 0.0096102805         3951 
 3495000   0.69679999   -9.4456778    446.13607  0.010637484 0.0096058392         3946 
 3496000   0.69437206   -9.4505401     446.7219  0.010648405 0.0096014013         3954 
 3497000   0.68644196   -9.4300725    446.55309  0.010641338 0.0095969654         3954 
 3498000   0.69640944   -9.4458717    445.50095   0.01061323 0.0095925335         3933 
 3499000    0.6861868   -9.4207363    446.91375  0.010643845  0.009588102         3944 
 3500000   0.70930801   -9.4371126    446.53005  0.010631668 0.0095836715         3957 
 3501000   0.70114115   -9.4339366    445.94738  0.010614762 0.0095792451         3915 
 3502000   0.68013391   -9.4313762    446.81085  0.010632278  0.009574822         3938 
 3503000   0.68733016   -9.4403631    446.47773  0.010621318  0.009570404         3948 
 3504000   0.69564251   -9.4185899    446.45183  0.010617671 0.0095659855         3934 
 3505000   0.69353147   -9.4314872    445.97503  0.010603305 0.0095615714         3940 
 3506000   0.68946246   -9.4121045    446.11317  0.010603565  0.009557159         3937 
 3507000   0.70119703   -9.4429053     446.3431  0.010606005 0.0095527485         3936 
 3508000   0.68801127   -9.4276246    446.05657  0.010596175 0.0095483366         3935 
 3509000    0.6854737   -9.4368602    446.04805  0.010592953 0.0095439338         3940 
 3510000   0.68466711   -9.4330269    446.21944  0.010594004 0.0095395305         3927 
 3511000   0.67471901   -9.4512165    446.54949   0.01059882  0.009535133         3938 
 3512000    0.6854537   -9.4176767    446.45171  0.010593482 0.0095307335         3929 
 3513000   0.69603662   -9.4367396    446.67588  0.010595784 0.0095263439         3935 
 3514000   0.67147295   -9.4435167    445.29436  0.010560007 0.0095219528         3935 
 3515000   0.69397369   -9.4517911     445.7808  0.010568535 0.0095175665         3937 
 3516000   0.69037491   -9.4429296    446.17487  0.010574869  0.009513183         3936 
 3517000   0.69715843    -9.430278    445.49025   0.01055564 0.0095088026         3933 
 3518000   0.68328793   -9.4305979    446.24047  0.010570411 0.0095044293         3947 
 3519000   0.70078345   -9.4359354    447.05594  0.010586718 0.0095000533         3931 
 3520000   0.69626612   -9.4406982    446.73816  0.010576187 0.0094956796         3935 
 3521000   0.69462179    -9.461635    446.59257  0.010569738 0.0094913107         3931 
 3522000   0.69060875   -9.4327587    445.95135  0.010551565 0.0094869438         3941 
 3523000   0.68282605   -9.4208372    445.67596  0.010542056 0.0094825757         3952 
 3524000   0.69290148   -9.4468624    445.95697   0.01054571 0.0094782157         3948 
 3525000   0.70124102   -9.4427313    445.78337  0.010538614 0.0094738564         3941 
 3526000   0.67604529   -9.4364165    446.50116  0.010552589 0.0094695015         3933 
 3527000   0.68181971   -9.4518953    446.02554   0.01053836 0.0094651439         3938 
 3528000   0.68442836   -9.4547412    445.65682  0.010526663 0.0094607934         3930 
 3529000   0.71460008   -9.4302558    446.15981  0.010535558 0.0094564439         3940 
 3530000   0.68779231    -9.449005    446.58822  0.010542687 0.0094520998         3928 
 3531000   0.70807922   -9.4365861    446.77233  0.010544046  0.009447755         3957 
 3532000    0.6997546   -9.4394614    446.12589  0.010525809 0.0094434142         3945 
 3533000    0.6837688   -9.4451165    446.06782   0.01052146 0.0094390763         3943 
 3534000   0.68977579   -9.4392373    446.04649   0.01051798 0.0094347351         3956 
 3535000   0.67663074   -9.4420015    445.91844  0.010511986 0.0094303959         3954 
 3536000   0.67092716   -9.4438122    445.54333  0.010500173 0.0094260598         3945 
 3537000   0.68616663   -9.4392487    445.40776   0.01049401 0.0094217285         3958 
 3538000   0.69773663   -9.4478268    446.03233  0.010505755 0.0094173988         3957 
 3539000   0.69712723   -9.4552502    445.36358  0.010487039 0.0094130789         3953 
 3540000   0.68646577   -9.4333145    446.58212  0.010512762 0.0094087577         3945 
 3541000   0.69120635   -9.4505779    446.16552  0.010499989 0.0094044371         3957 
 3542000   0.69043164   -9.4602949    447.34178  0.010524698 0.0094001177         3957 
 3543000   0.69129069   -9.4680132    445.96078  0.010489246 0.0093958039         3961 
 3544000   0.69016404   -9.4471695    446.53538  0.010499797 0.0093914911         3935 
 3545000   0.68157915   -9.4633978     445.1958  0.010465345  0.009387179         3938 
 3546000    0.6959054   -9.4520405    445.84224  0.010477586 0.0093828657         3953 
 3547000    0.6845843   -9.4295312    446.30279  0.010485452 0.0093785625         3958 
 3548000   0.69215834   -9.4474244     445.9846  0.010475024 0.0093742584         3953 
 3549000   0.67895033   -9.4410509    446.00393  0.010472526 0.0093699598         3961 
 3550000   0.68522648   -9.4646892     446.1891  0.010473922 0.0093656618         3959 
 3551000   0.68268275   -9.4367149    445.78192  0.010461417 0.0093613687         3964 
 3552000   0.68468138   -9.4532928    445.97582  0.010463021 0.0093570786         3959 
 3553000   0.67503148   -9.4557903    446.52063  0.010472855 0.0093527899         3960 
 3554000   0.69470749   -9.4406579    446.25252  0.010463621 0.0093485052         3958 
 3555000   0.66759355   -9.4555693    445.99993  0.010454757 0.0093442208         3968 
 3556000   0.69220233   -9.4356936      445.914  0.010449803 0.0093399442         3939 
 3557000   0.68319528   -9.4420794    446.49829  0.010460554 0.0093356666         3953 
 3558000   0.67599598   -9.4397148    446.06891  0.010447557 0.0093313921         3953 
 3559000   0.69582808   -9.4382893    445.79503  0.010438209 0.0093271157         3936 
 3560000    0.6848887   -9.4569317    445.88868  0.010437469 0.0093228465         3949 
 3561000   0.68326201   -9.4414535    446.31716  0.010444565 0.0093185828         3964 
 3562000   0.69832995   -9.4574345    446.48944  0.010445663 0.0093143159         3960 
 3563000   0.68485815   -9.4468005    445.83039  0.010427318 0.0093100528         3964 
 3564000   0.67220936   -9.4801425    445.74096  0.010422301 0.0093057896         3962 
 3565000   0.66376945   -9.4420876    446.19596  0.010430013 0.0093015261         3941 
 3566000   0.67493981   -9.4232733    446.24824   0.01042831  0.009297272         3945 
 3567000   0.68689547   -9.4403892    445.96311  0.010418725 0.0092930182         3955 
 3568000   0.68070655   -9.4366865    446.60125  0.010430709 0.0092887678         3949 
 3569000   0.68262429   -9.4505137    446.01895  0.010414191 0.0092845158         3952 
 3570000   0.68260226   -9.4610576     445.8938  0.010408352 0.0092802689         3951 
 3571000   0.67099864   -9.4346036    446.42252  0.010417776 0.0092760265         3947 
 3572000   0.69230486   -9.4664657    446.75761  0.010422677 0.0092717875         3958 
 3573000   0.68159589   -9.4446489    446.58298  0.010415687 0.0092675525         3948 
 3574000   0.66826239   -9.4639878    445.44599  0.010386262 0.0092633149         3960 
 3575000    0.6846877   -9.4482717    445.19811  0.010377578 0.0092590791         3949 
 3576000   0.68433964   -9.4565098    446.21295  0.010398326 0.0092548489         3951 
 3577000   0.67115361   -9.4677055    446.25731  0.010396452 0.0092506203         3962 
 3578000   0.67998885   -9.4529649    446.44547  0.010397929 0.0092463947         3952 
 3579000   0.68220264   -9.4574407    446.65284  0.010399852 0.0092421699         3955 
 3580000   0.68083173   -9.4385031    446.16919  0.010385689 0.0092379448         3947 
 3581000   0.67719283   -9.4668382    445.76195  0.010373312 0.0092337311         3955 
 3582000   0.67129008   -9.4570774     446.1944  0.010380477 0.0092295152         3958 
 3583000   0.65994758   -9.4663962    445.41961  0.010359559 0.0092253028         3948 
 3584000   0.67477099   -9.4647182    446.56519  0.010383305  0.009221091         3949 
 3585000   0.67381634   -9.4610303    446.78262  0.010385463 0.0092168824         3939 
 3586000   0.67482779    -9.462154    446.05236  0.010365597 0.0092126753         3943 
 3587000   0.66076892   -9.4598791    446.01307  0.010361794 0.0092084715         3949 
 3588000   0.68863045   -9.4636414    446.27973    0.0103651 0.0092042722         3946 
 3589000   0.68569908   -9.4448741    445.95516  0.010354675 0.0092000759         3940 
 3590000   0.67652855   -9.4748834    445.60619  0.010343691 0.0091958836         3943 
 3591000   0.66427318   -9.4404226    446.33992  0.010357837 0.0091916873         3948 
 3592000   0.66380034   -9.4523556    446.15217  0.010350598 0.0091874965         3942 
 3593000   0.66472723   -9.4711194    445.42386  0.010330825 0.0091833098         3946 
 3594000   0.66262691   -9.4416165    445.81982  0.010337132 0.0091791259         3948 
 3595000   0.67102133   -9.4618124    445.27428  0.010321611 0.0091749398         3944 
 3596000   0.67010827   -9.4574289    446.61373  0.010349781 0.0091707598         3937 
 3597000   0.67461978   -9.4533785    445.56148  0.010322525 0.0091665795         3948 
 3598000   0.67777065   -9.4434682    445.67013  0.010322173 0.0091624089         3944 
 3599000   0.66371565   -9.4574067    445.43222  0.010313796 0.0091582365         3962 
 3600000   0.67339883   -9.4818249    444.27222  0.010284079 0.0091540646         3950 
 3601000   0.65898348   -9.4717377    445.52726  0.010310267 0.0091498925         3954 
 3602000   0.67683088   -9.4572951    444.98855  0.010294941  0.009145727         3957 
 3603000   0.66556142   -9.4503982    445.97835  0.010314977  0.009141568         3951 
 3604000   0.66919188    -9.445033    445.71535  0.010306034 0.0091374082         3949 
 3605000   0.66776992   -9.4706295    445.54861  0.010299321 0.0091332463         3950 
 3606000   0.69121488   -9.4782841    446.05964  0.010308274 0.0091290887         3964 
 3607000   0.66547576   -9.4649636    445.70293  0.010297175 0.0091249353         3930 
 3608000   0.67193974   -9.4777221    446.07087  0.010302819 0.0091207811         3962 
 3609000   0.67810867   -9.4651078    445.81372  0.010294027 0.0091166283         3951 
 3610000   0.67489943   -9.4328029    446.62057  0.010309801 0.0091124825         3946 
 3611000   0.66639785   -9.4753096     445.8898  0.010290081 0.0091083373         3957 
 3612000   0.68610908   -9.4489085    445.71177  0.010283125 0.0091041951         3957 
 3613000   0.66602068   -9.4489262    446.26442  0.010293026 0.0091000513         3953 
 3614000   0.67501419   -9.4598191     445.9242  0.010282333 0.0090959135         3955 
 3615000   0.67749847   -9.4738397     445.7155  0.010274677 0.0090917767         3951 
 3616000   0.66554622   -9.4787699     445.8594  0.010275152 0.0090876417         3954 
 3617000   0.67654966   -9.4749194    444.99365  0.010252365 0.0090835106         3946 
 3618000   0.68039224   -9.4631646    445.58259  0.010263096 0.0090793784         3953 
 3619000    0.6762588   -9.4788938    445.84903  0.010266396 0.0090752506         3948 
 3620000   0.66626963   -9.4712784    445.55742  0.010256847 0.0090711277         3946 
 3621000   0.68730269   -9.4628417    445.69837  0.010257258 0.0090670066         3944 
 3622000   0.67632484   -9.4941348    445.64159   0.01025312 0.0090628877         3956 
 3623000   0.68000147   -9.4799072    445.53233  0.010247776 0.0090587707         3946 
 3624000   0.67347675   -9.4775958    445.17489  0.010236729 0.0090546594         3951 
 3625000   0.66567249   -9.4577036    445.17842  0.010233987  0.009050546         3949 
 3626000   0.66565746   -9.4676632    445.04657  0.010228134 0.0090464382         3950 
 3627000   0.66020304   -9.4505612    445.23044  0.010229539 0.0090423355         3949 
 3628000   0.66070085   -9.4763087    445.27021  0.010227632 0.0090382307         3948 
 3629000   0.66779521    -9.468376    445.26407  0.010224673 0.0090341275         3948 
 3630000   0.66941696   -9.4826562    446.04939  0.010239885 0.0090300309         3938 
 3631000   0.66332646   -9.4709358    445.35462   0.01022112 0.0090259325         3927 
 3632000   0.65802672   -9.4540992    447.08773   0.01025807 0.0090218411         3954 
 3633000   0.68747948   -9.4629207    446.38671  0.010239167 0.0090177487         3953 
 3634000   0.66304593   -9.4712967    445.45866  0.010215067 0.0090136568         3937 
 3635000   0.67338609   -9.4823432    445.48045  0.010212757 0.0090095726         3939 
 3636000   0.67947515    -9.472072     445.1297  0.010201909  0.009005488         3952 
 3637000    0.6805659   -9.4639838    445.56302  0.010209033 0.0090014045         3947 
 3638000   0.65354393   -9.4717079    445.63721  0.010207926 0.0089973236         3948 
 3639000   0.69052576   -9.4834932    445.79043  0.010208629 0.0089932454         3943 
 3640000   0.66909627   -9.4810226    446.10975  0.010213135 0.0089891697         3938 
 3641000   0.64507578   -9.4988536     445.7628   0.01020239 0.0089850982         3943 
 3642000   0.67307445    -9.432849    446.02218  0.010205523 0.0089810325         3947 
 3643000   0.66809094   -9.4987104    445.66325  0.010194511 0.0089769663         3951 
 3644000   0.67085669   -9.4553212    445.28307  0.010183019 0.0089729074         3951 
 3645000   0.67963279   -9.4661276    444.88151  0.010171045 0.0089688404         3948 
 3646000   0.67903224   -9.4820471    445.23269  0.010176282 0.0089647801         3940 
 3647000   0.66441304   -9.4724302    445.13975  0.010171368 0.0089607215         3924 
 3648000   0.66180377   -9.4806458    445.63482  0.010179889  0.008956667         3950 
 3649000   0.65841608   -9.4651032    445.83309  0.010181627 0.0089526161         3942 
 3650000   0.66379073   -9.4615195    445.33711  0.010167514 0.0089485672         3949 
 3651000   0.67340136   -9.4802163     444.9431  0.010155736 0.0089445188         3946 
 3652000   0.67462672   -9.4640325    445.46781  0.010164928 0.0089404722         3946 
 3653000   0.66684364   -9.4688074    445.35737  0.010159626 0.0089364266         3956 
 3654000    0.6718185   -9.4801011    445.71123  0.010164916 0.0089323856         3954 
 3655000   0.66435198   -9.4722197    445.20106  0.010150503 0.0089283483         3954 
 3656000   0.67274649   -9.4730717    446.05459  0.010167182 0.0089243129         3956 
 3657000   0.66494955   -9.4854576    445.24291  0.010145905 0.0089202784         3946 
 3658000   0.66117819   -9.4758702    445.38451  0.010146357 0.0089162513         3959 
 3659000   0.66353915   -9.4856975    444.72547  0.010128575 0.0089122188         3948 
 3660000   0.65910634   -9.4904223    444.61585  0.010123312 0.0089081901         3962 
 3661000   0.66392693   -9.4625975    445.15244  0.010132761  0.008904162         3954 
 3662000   0.66416002   -9.4738976    445.76531   0.01014394 0.0089001388         3945 
 3663000   0.66740174   -9.4873983    445.00714  0.010123923 0.0088961202         3955 
 3664000   0.66926728   -9.4715811    444.84615  0.010117498 0.0088921019         3955 
 3665000   0.65581808   -9.4805307     445.8423  0.010137388 0.0088880896         3944 
 3666000   0.66458559   -9.4606091    446.12048  0.010140946 0.0088840778         3943 
 3667000   0.65713336   -9.4586987    446.41881   0.01014496 0.0088800676         3953 
 3668000   0.66909112   -9.4776371     445.7337  0.010126629 0.0088760614         3948 
 3669000   0.66672965   -9.4824587    446.04314  0.010130897 0.0088720552         3952 
 3670000   0.65531417   -9.4722287    445.60127  0.010118103 0.0088680505         3953 
 3671000   0.66457058   -9.4896407    444.34859  0.010086911 0.0088640492         3959 
 3672000   0.67574403   -9.4838987    445.77924  0.010116631 0.0088600517         3940 
 3673000   0.65208184   -9.4601305    445.82274  0.010114864 0.0088560586         3961 
 3674000   0.66985319   -9.4733157    445.94161  0.010114807 0.0088520679         3949 
 3675000   0.65693206   -9.4948127    444.82567   0.01008675 0.0088480789         3952 
 3676000   0.67027331   -9.4784807    444.05162  0.010066459 0.0088440921         3954 
 3677000   0.66612803   -9.4746887    444.25717  0.010068379 0.0088401057         3952 
 3678000   0.66435959   -9.4882502    445.07251  0.010084115  0.008836124         3952 
 3679000    0.6702189   -9.4772953    445.15832  0.010083318 0.0088321416         3939 
 3680000   0.65980516    -9.463186    445.56627  0.010089816  0.008828161         3951 
 3681000   0.65634943   -9.4922215    445.30462  0.010081151 0.0088241876         3944 
 3682000   0.66499993   -9.4948668    444.99257  0.010071351 0.0088202168         3959 
 3683000   0.65282634   -9.4630704    445.33912  0.010076457  0.008816248         3952 
 3684000   0.67158031   -9.4943022    445.18304  0.010070192 0.0088122815         3951 
 3685000   0.66731942   -9.4826841    445.39103  0.010072163 0.0088083193         3951 
 3686000   0.65996706   -9.4937407    445.02522   0.01006116 0.0088043544         3952 
 3687000   0.65593148   -9.4943657    444.31733  0.010042431 0.0088003934         3949 
 3688000   0.67402106   -9.4963088    445.26157  0.010061044 0.0087964343         3966 
 3689000   0.65724068   -9.4653315    446.04627  0.010076043 0.0087924833         3958 
 3690000    0.6674194   -9.4767959    444.78005  0.010044717 0.0087885236         3949 
 3691000    0.6670263   -9.4865674    445.21849  0.010051894 0.0087845688         3954 
 3692000   0.66245498   -9.5027621     445.2484  0.010049846 0.0087806204         3939 
 3693000   0.63673573   -9.5045733    444.74965  0.010035871 0.0087766763         3943 
 3694000   0.67439879   -9.4793538    445.38626  0.010047515 0.0087727306         3932 
 3695000   0.66397393   -9.4834413    444.98234  0.010035687  0.008768792         3937 
 3696000   0.67810804   -9.5024314    445.75949  0.010050494 0.0087648542         3953 
 3697000    0.6565368   -9.4798388    445.24977  0.010036285 0.0087609179         3962 
 3698000   0.66526399   -9.4738334    445.24559  0.010033477 0.0087569823         3960 
 3699000   0.65611094   -9.4923232    446.29588  0.010054426 0.0087530496         3951 
 3700000   0.65840491   -9.4709957    445.41466  0.010031862 0.0087491213         3946 
 3701000   0.67129814    -9.488655    444.44092  0.010007226 0.0087451921         3961 
 3702000   0.65569941   -9.4764269    444.67346  0.010009757 0.0087412658         3950 
 3703000   0.66344477   -9.4975291    445.25775  0.010020203 0.0087373426         3967 
 3704000   0.65709551   -9.4733791    444.90225    0.0100095 0.0087334205         3956 
 3705000   0.66191794   -9.4790734     444.8657  0.010005976 0.0087295011         3965 
 3706000   0.65284015   -9.4760208    444.61455 0.0099976289 0.0087255845         3967 
 3707000   0.66340868   -9.5025324     445.3808  0.010012157 0.0087216707         3964 
 3708000   0.65920556   -9.4742037    445.57438  0.010013807 0.0087177588         3955 
 3709000   0.67823905   -9.4896913    445.71534  0.010014275 0.0087138461         3943 
 3710000    0.6723296    -9.504555    444.79685 0.0099909445 0.0087099408         3966 
 3711000    0.6662607   -9.4976836     444.7031  0.009986147 0.0087060347         3954 
 3712000   0.65932277    -9.487923    445.09041 0.0099921517 0.0087021327         3955 
 3713000   0.66187898     -9.47634     444.5796 0.0099779962  0.008698235         3952 
 3714000   0.67862508   -9.4933579    444.94801 0.0099835759 0.0086943359         3954 
 3715000   0.66179483   -9.4951793    445.88134  0.010001825 0.0086904416         3954 
 3716000    0.6541947   -9.4843153    445.81023 0.0099975384 0.0086865483         3961 
 3717000    0.6602357   -9.4935482    445.70359 0.0099924577 0.0086826567         3947 
 3718000     0.661362   -9.4965205    445.94005 0.0099950701 0.0086787692         3950 
 3719000   0.66330114   -9.4808575     445.7167 0.0099873779 0.0086748812         3956 
 3720000   0.65767737   -9.5037171    445.16961 0.0099724375 0.0086709991         3959 
 3721000   0.66521047   -9.4859263    445.60642 0.0099795399   0.00866712         3963 
 3722000    0.6536691   -9.4531261    444.80296 0.0099588698 0.0086632441         3948 
 3723000   0.65171335   -9.4741464    445.55641 0.0099730596 0.0086593679         3943 
 3724000   0.65305171   -9.4781246    445.26922 0.0099639549 0.0086554916         3958 
 3725000   0.65661752   -9.4939675    444.94329 0.0099539886  0.008651618         3961 
 3726000   0.66009669   -9.4880926    444.37474 0.0099386013 0.0086477462         3972 
 3727000    0.6539688   -9.4983367    445.11743 0.0099525407 0.0086438779         3963 
 3728000   0.64848446   -9.5003876    444.52981 0.0099367357 0.0086400122         3953 
 3729000    0.6416452   -9.5067081    444.05057 0.0099233612 0.0086361453         3950 
 3730000   0.65699644   -9.5057437    444.26794 0.0099255571 0.0086322829         3953 
 3731000   0.66582033   -9.4939834     444.3201 0.0099240619 0.0086284245         3944 
 3732000   0.64530225   -9.5007528    444.23876 0.0099195865 0.0086245705         3961 
 3733000   0.65271021   -9.5008375    444.49402 0.0099226274 0.0086207172         3949 
 3734000   0.66561917   -9.4685748    445.66472 0.0099460972 0.0086168644         3946 
 3735000   0.64999255   -9.4876951    445.05444 0.0099298179 0.0086130145         3948 
 3736000   0.65523469   -9.5172518    444.75707  0.009920527 0.0086091672         3940 
 3737000   0.63618737   -9.4880968    444.49763 0.0099120869 0.0086053235         3955 
 3738000   0.64592431   -9.4996278    445.66815 0.0099355304 0.0086014831         3943 
 3739000   0.65215167   -9.4757552    444.35961 0.0099037089 0.0085976441         3954 
 3740000   0.63507436   -9.5047483     445.3272 0.0099226204 0.0085938015         3950 
 3741000   0.65553953   -9.4838847    444.72021 0.0099064468 0.0085899635         3951 
 3742000   0.64554236   -9.4850795    444.82463 0.0099061247 0.0085861242         3943 
 3743000   0.65132909   -9.5037364    444.89121 0.0099049606 0.0085822975         3952 
 3744000   0.65968508   -9.5169486    444.57088 0.0098951851 0.0085784685         3941 
 3745000   0.65111175   -9.5009148    444.69102 0.0098952163   0.00857464         3951 
 3746000   0.65105984   -9.5064018    445.76854 0.0099165451 0.0085708156         3963 
 3747000   0.65796019   -9.4922694    445.21122 0.0099015038 0.0085669895         3937 
 3748000   0.64667852   -9.5077605    445.60102  0.009907529 0.0085631707         3958 
 3749000   0.66250912   -9.5011213    444.79988 0.0098870784 0.0085593501         3951 
 3750000   0.64840342   -9.4959392    445.11619  0.009891471 0.0085555343         3948 
 3751000   0.64729408   -9.4919569    445.02997 0.0098869185 0.0085517214         3951 
 3752000   0.64732915   -9.4906844    444.56942 0.0098740543 0.0085479079         3950 
 3753000   0.66474455   -9.5040422    444.72445 0.0098748656  0.008544098         3947 
 3754000   0.66486814    -9.508575    444.50344  0.009867329 0.0085402894         3958 
 3755000   0.65991427   -9.5012143    445.02703 0.0098763212 0.0085364844         3952 
 3756000   0.64530038   -9.5093731    444.68256 0.0098660489 0.0085326815         3957 
 3757000   0.64159881   -9.5132967    445.23953 0.0098757771 0.0085288821         3956 
 3758000   0.64972797   -9.5097954     444.8187 0.0098638172 0.0085250838         3948 
 3759000   0.65441464   -9.4942742    445.13467 0.0098681978 0.0085212858         3950 
 3760000   0.66167778   -9.5092677    444.63532 0.0098545062 0.0085174859         3950 
 3761000   0.66318683   -9.4942314    444.75342 0.0098545028 0.0085136924         3954 
 3762000   0.65475248   -9.5030434    444.84197 0.0098538449 0.0085099035         3966 
 3763000    0.6585114   -9.5171894    444.97002 0.0098540619 0.0085061191         3950 
 3764000   0.65488485   -9.4989473    444.98447 0.0098517639 0.0085023343         3954 
 3765000   0.64524736    -9.492368    444.81933 0.0098454921 0.0084985531         3955 
 3766000   0.64820808   -9.4899562    444.36368 0.0098327951  0.008494771         3952 
 3767000   0.64582448   -9.5135217    444.31966  0.009829211 0.0084909911         3952 
 3768000   0.64272605   -9.5108279      444.515 0.0098309227 0.0084872134         3956 
 3769000   0.66173387   -9.5144304    444.60674 0.0098303427 0.0084834374         3942 
 3770000   0.65195171   -9.5215335    444.40841 0.0098233512 0.0084796664         3943 
 3771000   0.65179883   -9.4842869    444.57695 0.0098244708 0.0084758975         3950 
 3772000   0.64304917   -9.5013853    444.59257 0.0098222113 0.0084721296         3946 
 3773000   0.64070726   -9.5186559    444.61684 0.0098201441 0.0084683637         3959 
 3774000   0.63534365   -9.5026304    445.49108  0.009836846 0.0084646026         3949 
 3775000   0.64951636   -9.5201891    444.72904 0.0098174182 0.0084608397         3946 
 3776000   0.65397751   -9.5180888    444.37049 0.0098069053 0.0084570801         3940 
 3777000   0.65832499   -9.5306588    443.75668 0.0097907661 0.0084533219         3956 
 3778000   0.65040165   -9.4997358    445.13837 0.0098186511 0.0084495657         3953 
 3779000   0.65108947    -9.506943    444.68834  0.009806129 0.0084458116         3951 
 3780000   0.65413122   -9.5083391     443.9032 0.0097862256 0.0084420615         3947 
 3781000   0.63967643   -9.5143247    445.04828 0.0098088751 0.0084383158         3951 
 3782000   0.65112763    -9.518835    444.44545 0.0097929987 0.0084345726         3954 
 3783000   0.64712075    -9.514231    445.26891 0.0098085493 0.0084308288         3960 
 3784000   0.65096013   -9.5250538    443.96196  0.009777175 0.0084270864         3959 
 3785000   0.64927883   -9.5024035    444.44702 0.0097852712 0.0084233474         3954 
 3786000   0.67143749    -9.494649    444.98923 0.0097946211 0.0084196133         3955 
 3787000   0.65166273   -9.4931379    444.45517 0.0097802828 0.0084158798         3951 
 3788000   0.64641964   -9.5203992      444.948 0.0097885427 0.0084121487         3951 
 3789000   0.64393116   -9.5175232    444.68687 0.0097802162 0.0084084197         3953 
 3790000   0.63470926   -9.5078074    444.45544  0.009772547 0.0084046908         3951 
 3791000   0.65281136   -9.4936666    444.21694 0.0097647265 0.0084009643         3943 
 3792000   0.65246421   -9.4862586    444.95542 0.0097783803 0.0083972407         3956 
 3793000    0.6452568   -9.5105603    445.10676 0.0097791272 0.0083935174         3957 
 3794000   0.65724394   -9.5249365    444.89031 0.0097717956 0.0083897984         3948 
 3795000   0.63204914   -9.5052752    445.00357 0.0097717077 0.0083860845         3949 
 3796000    0.6380571   -9.5001046    445.23815 0.0097742833  0.008382369         3943 
 3797000   0.65207763   -9.5012226    444.83795 0.0097629258 0.0083786557         3947 
 3798000   0.63914206   -9.5119636    444.19419 0.0097462303 0.0083749452         3946 
 3799000   0.64285642    -9.506758    444.46302 0.0097495618  0.008371237         3956 
 3800000   0.63840893    -9.520357    444.88461 0.0097562415 0.0083675322         3950 
 3801000   0.64245406   -9.5123091    444.83083 0.0097524956 0.0083638257         3953 
 3802000   0.65628934   -9.5057114    444.05851 0.0097330025 0.0083601203         3951 
 3803000   0.63687848   -9.5113087    445.66598  0.009765667 0.0083564172         3958 
 3804000   0.63066646    -9.504871    444.49766 0.0097375057 0.0083527182         3943 
 3805000   0.64396521   -9.5160406    444.47098 0.0097343623 0.0083490217         3943 
 3806000   0.64845582   -9.5058132    445.31802 0.0097503508 0.0083453267         3948 
 3807000   0.65346517   -9.5281768    444.27352  0.009724926 0.0083416344         3957 
 3808000   0.64286417   -9.5249391    444.12367  0.009719093 0.0083379452         3958 
 3809000   0.64227123   -9.5111709    444.45559 0.0097238031 0.0083342585         3948 
 3810000   0.64711067   -9.5242209    444.06434 0.0097126933 0.0083305741         3949 
 3811000    0.6498236   -9.5059378     444.7438 0.0097250023 0.0083268931         3948 
 3812000   0.65389487   -9.5180571    444.28971 0.0097125243 0.0083232105         3954 
 3813000   0.65568554   -9.5065152    445.23516 0.0097306398 0.0083195367         3958 
 3814000   0.64348196   -9.5185546    443.96095 0.0097002479 0.0083158614         3946 
 3815000   0.64836119     -9.51407    445.00559  0.009720524 0.0083121865         3956 
 3816000   0.64898617   -9.5207912    443.83933  0.009692508 0.0083085158         3960 
 3817000   0.64690927   -9.5138116    444.66423 0.0097079781  0.008304848         3942 
 3818000   0.63815664   -9.5039996    444.54293 0.0097027878 0.0083011823         3962 
 3819000   0.64292843   -9.5232578    444.67905 0.0097032175 0.0082975172         3957 
 3820000   0.63221464   -9.5277431      444.647 0.0096999782 0.0082938571         3954 
 3821000   0.64998933   -9.5152237    444.70752 0.0096987594 0.0082901967         3965 
 3822000    0.6351133   -9.5306552    444.17328 0.0096845735 0.0082865373         3967 
 3823000   0.63104772   -9.5148297    444.68071 0.0096931012 0.0082828808         3951 
 3824000    0.6404879   -9.5040879    444.09863 0.0096778815 0.0082792286         3951 
 3825000   0.65368339   -9.5272874    444.80003 0.0096906324 0.0082755772         3945 
 3826000   0.64187835   -9.5098682    444.62482 0.0096842834 0.0082719285         3964 
 3827000   0.63844844   -9.5063454    444.53329 0.0096797597 0.0082682823         3963 
 3828000   0.63230434   -9.5225917    444.22117 0.0096704364 0.0082646364         3958 
 3829000   0.64356273   -9.5126827     443.8448 0.0096597198 0.0082609944         3960 
 3830000   0.64669249   -9.5247199    444.45234 0.0096704165 0.0082573516         3959 
 3831000   0.65039449   -9.5178709      444.889 0.0096773906 0.0082537123         3944 
 3832000    0.6371527   -9.5185975    445.15213 0.0096805873 0.0082500767         3960 
 3833000   0.65959286   -9.5155832    444.92451 0.0096731131 0.0082464424         3954 
 3834000    0.6519898   -9.5112929    444.47389 0.0096607957 0.0082428107         3954 
 3835000   0.63277588   -9.5223529     444.4287 0.0096572946 0.0082391805         3954 
 3836000   0.64233881    -9.513198    444.64173  0.009659405 0.0082355507         3945 
 3837000   0.63936318   -9.5264578    444.54551 0.0096547977 0.0082319249         3948 
 3838000   0.64130888   -9.5304393    443.56132 0.0096309129 0.0082282999         3948 
 3839000   0.63881657   -9.5266394    444.20691  0.009642418 0.0082246793         3955 
 3840000   0.63432004   -9.5421075    443.24965 0.0096191329 0.0082210601         3949 
 3841000   0.64633157   -9.5031612    444.55673 0.0096449867 0.0082174413         3959 
 3842000   0.63095532   -9.5408199    444.87665 0.0096494154 0.0082138245         3951 
 3843000   0.64299271   -9.5418597     444.2791 0.0096339471 0.0082102138         3960 
 3844000   0.63924051   -9.5204188    444.52371 0.0096367437 0.0082066074         3957 
 3845000   0.63830851   -9.5114675    444.84468 0.0096411937 0.0082029965         3953 
 3846000    0.6422868   -9.5379618    444.76509 0.0096369624 0.0081993895         3958 
 3847000   0.64512323   -9.4886443    443.82861 0.0096141715 0.0081957842         3964 
 3848000    0.6314556   -9.5264785    444.75392 0.0096317118 0.0081921826         3955 
 3849000   0.63641585   -9.5166232    443.74813 0.0096074332 0.0081885841         3959 
 3850000   0.64221047   -9.5491332    444.09169 0.0096123742 0.0081849884         3961 
 3851000   0.63911895   -9.5062448    443.75806 0.0096026587 0.0081813928         3954 
 3852000   0.63488354   -9.5137913    444.84574 0.0096236962 0.0081778006         3961 
 3853000   0.63323201   -9.5257094    444.51913 0.0096141346 0.0081742066         3958 
 3854000   0.62928332   -9.5217717    444.30976  0.009607113 0.0081706177         3958 
 3855000   0.63721887   -9.5442175    443.95836 0.0095970247 0.0081670311         3961 
 3856000     0.639644   -9.5608005    444.03916 0.0095962819 0.0081634456         3955 
 3857000   0.62210229    -9.520905    443.85185 0.0095897469 0.0081598636         3947 
 3858000   0.63319148   -9.5268951    445.08812  0.009613965 0.0081562819         3956 
 3859000   0.63664009   -9.5220299    444.37208  0.009596011 0.0081527027         3958 
 3860000   0.62870539   -9.5405915    444.22687 0.0095903901  0.008149121         3957 
 3861000   0.65255632   -9.5352298    443.35377 0.0095690618 0.0081455451         3953 
 3862000   0.62735684   -9.5181482    444.68583 0.0095953269 0.0081419713         3953 
 3863000   0.63654073   -9.5174355     444.2049 0.0095824684 0.0081384025         3959 
 3864000   0.63198727   -9.5115677    444.03447 0.0095763128   0.00813483         3951 
 3865000   0.62461022   -9.5314319     443.9306 0.0095715955 0.0081312611         3958 
 3866000   0.63625499   -9.5234811    444.42911 0.0095798652 0.0081276987         3958 
 3867000   0.62906709   -9.5541739    443.29423 0.0095529315 0.0081241355         3953 
 3868000   0.64094636   -9.5235858    444.16999 0.0095693294 0.0081205753         3947 
 3869000   0.64211149    -9.514202     443.6421 0.0095554859 0.0081170141         3952 
 3870000   0.62757392   -9.5472191    444.53752 0.0095722981 0.0081134566         3949 
 3871000   0.64656834   -9.5238725    443.61931 0.0095500584 0.0081098998         3955 
 3872000    0.6273337   -9.5466616      444.235 0.0095608427 0.0081063473         3963 
 3873000   0.62981527   -9.5230244    444.25441 0.0095587919  0.008102794         3939 
 3874000   0.62394844   -9.5363896    443.99552 0.0095507555 0.0080992433         3962 
 3875000   0.64718434   -9.5381224    444.00954 0.0095485923 0.0080956955         3943 
 3876000   0.61897243    -9.529326    444.64636 0.0095598202 0.0080921509         3953 
 3877000    0.6317165   -9.5316355    444.56917 0.0095556953 0.0080886075         3947 
 3878000   0.62143876   -9.5358175    443.66081 0.0095337118 0.0080850679         3950 
 3879000   0.61325767    -9.543644    444.52557 0.0095498319  0.008081528         3938 
 3880000   0.62386617    -9.529864    444.05376 0.0095372372 0.0080779906         3967 
 3881000   0.63036486   -9.5227162    443.38339 0.0095203855 0.0080744549         3957 
 3882000   0.62215702   -9.5571151     444.1117 0.0095335672 0.0080709201         3943 
 3883000   0.64676161   -9.5233751    444.38043 0.0095368793 0.0080673893         3947 
 3884000   0.63308431   -9.5349125    444.68998 0.0095410654 0.0080638643         3953 
 3885000   0.63478364   -9.5293825    444.36432 0.0095316243 0.0080603366         3952 
 3886000   0.62471116   -9.5355543    445.04457 0.0095437591 0.0080568112         3950 
 3887000   0.63462896   -9.5286197    444.19653 0.0095231226 0.0080532884         3956 
 3888000   0.63113855   -9.5475586    444.26132 0.0095220619 0.0080497694         3947 
 3889000   0.63950677   -9.5098263     444.0563 0.0095152203   0.00804625         3958 
 3890000   0.62834101   -9.5278341    443.20532 0.0094945441 0.0080427356         3948 
 3891000   0.62539766   -9.5536385    444.20472 0.0095135081 0.0080392228         3952 
 3892000   0.62949266   -9.5379913    444.08187 0.0095084333 0.0080357101         3943 
 3893000   0.63263265   -9.5247284    443.92454 0.0095026231 0.0080321975         3953 
 3894000   0.63165409    -9.534284    444.11546 0.0095042686 0.0080286909         3936 
 3895000   0.63834886   -9.5234562    443.67637 0.0094924341 0.0080251878         3942 
 3896000   0.62722836   -9.5525932     443.8117 0.0094928924 0.0080216845         3943 
 3897000   0.62035987   -9.5406188    444.25024  0.009499834 0.0080181841         3954 
 3898000    0.6292405   -9.5351596    444.77623 0.0095086419 0.0080146857         3955 
 3899000   0.62892717    -9.549109    444.22518 0.0094944254 0.0080111897         3956 
 3900000   0.62570963   -9.5450829    443.67356 0.0094802044 0.0080076938         3953 
 3901000     0.617155   -9.5380877    443.68337 0.0094779837 0.0080042031         3946 
 3902000   0.63216541   -9.5222306    443.47341 0.0094710707 0.0080007105         3949 
 3903000   0.63098732   -9.5382657    443.53668 0.0094699948 0.0079972233         3950 
 3904000   0.62500339   -9.5520616    443.51508  0.009467108 0.0079937371         3959 
 3905000   0.62808039   -9.5327954    443.74888  0.009469673 0.0079902555         3951 
 3906000   0.63577525   -9.5536774    444.11131 0.0094749809  0.007986771         3959 
 3907000   0.63337956   -9.5434887    443.93496 0.0094687944 0.0079832911         3939 
 3908000   0.62107869    -9.558181    443.67849 0.0094609025 0.0079798104         3959 
 3909000   0.62559793   -9.5487797    443.48676  0.009454395 0.0079763327         3958 
 3910000   0.62271287   -9.5620811    442.95553  0.009440655 0.0079728544         3956 
 3911000   0.62386747   -9.5419255    444.28267 0.0094665189 0.0079693823         3954 
 3912000   0.63523394   -9.5186072    444.76775 0.0094744322 0.0079659131         3937 
 3913000   0.62450369   -9.5478806    443.53406 0.0094457378 0.0079624463         3951 
 3914000   0.62558321   -9.5433817    443.55016 0.0094436671 0.0079589817         3948 
 3915000   0.62171937   -9.5424531    443.85652  0.009447776 0.0079555179         3954 
 3916000   0.63063356   -9.5489239    444.31926 0.0094552107 0.0079520532         3959 
 3917000   0.63204229   -9.5389802    442.78665 0.0094201909 0.0079485925         3950 
 3918000   0.61814735   -9.5509846    444.48921 0.0094539989 0.0079451358         3949 
 3919000   0.61128581    -9.551523    443.95288  0.009440182 0.0079416814         3963 
 3920000   0.62259039   -9.5427953     443.7528 0.0094335204 0.0079382253         3955 
 3921000   0.62888351    -9.535897    444.48368  0.009446648 0.0079347734         3968 
 3922000   0.60295845   -9.5305564    444.15743 0.0094373072 0.0079313224         3962 
 3923000   0.62175778   -9.5364722    444.44841 0.0094410826  0.007927873         3956 
 3924000   0.62803974   -9.5438652    443.82915 0.0094255256 0.0079244283         3960 
 3925000   0.63022969   -9.5310799    443.82297  0.009422993 0.0079209835         3952 
 3926000   0.62449893   -9.5105793    444.37582 0.0094323277  0.007917544         3954 
 3927000    0.6379217   -9.5500422    442.69059 0.0093941642 0.0079141074         3950 
 3928000   0.62624064    -9.548373    444.09496 0.0094215665 0.0079106712         3941 
 3929000    0.6210535   -9.5385228    443.86057 0.0094141972 0.0079072333         3947 
 3930000   0.62096518   -9.5328871    444.01675 0.0094151135 0.0079037971         3960 
 3931000   0.62967344   -9.5744595    443.72542 0.0094065425 0.0079003661         3952 
 3932000   0.62269895    -9.546853      444.246 0.0094151832  0.007896932         3947 
 3933000   0.62232971   -9.5466671    442.86731 0.0093835773 0.0078935035         3954 
 3934000   0.62112077   -9.5371548    444.09318 0.0094071594 0.0078900758         3956 
 3935000   0.62981825     -9.55416     444.3742   0.00941072 0.0078866488         3952 
 3936000   0.62333833   -9.5483489    443.75222 0.0093951605  0.007883227         3953 
 3937000   0.62161433   -9.5573118    443.91269 0.0093961706 0.0078798057         3956 
 3938000   0.61267987   -9.5601527    443.84939 0.0093924453 0.0078763842         3955 
 3939000   0.63081428   -9.5557389    444.17127 0.0093968704 0.0078729677         3958 
 3940000   0.63424368   -9.5534572    443.48938  0.009380063  0.007869551         3964 
 3941000   0.62734342   -9.5645785    444.34716 0.0093958209 0.0078661387         3970 
 3942000   0.62648174     -9.56273    443.64205 0.0093785313 0.0078627276         3967 
 3943000    0.6156342   -9.5427928    444.57848 0.0093959438 0.0078593197         3957 
 3944000   0.61523324   -9.5299729    444.61544 0.0093943424 0.0078559116         3941 
 3945000   0.60707515   -9.5420882    444.52362 0.0093900215  0.007852507         3936 
 3946000    0.6202975   -9.5461675     444.7408 0.0093922284 0.0078491046         3949 
 3947000   0.62001053   -9.5412878     444.4053 0.0093827654 0.0078457064         3952 
 3948000   0.60220779   -9.5391486    443.83078  0.009368262 0.0078423042         3958 
 3949000   0.61845065   -9.5333931     443.9055 0.0093674665 0.0078389078         3961 
 3950000   0.63934981   -9.5635061    444.08816 0.0093689486 0.0078355136         3951 
 3951000    0.6141401   -9.5561175    443.65924 0.0093575305 0.0078321223         3947 
 3952000    0.6063851   -9.5352042    443.92708 0.0093608107 0.0078287318         3945 
 3953000   0.62402704   -9.5632345    443.58972 0.0093513306 0.0078253449         3962 
 3954000   0.63098561   -9.5459298    442.92934 0.0093350476 0.0078219575         3951 
 3955000   0.62390007   -9.5742664    444.19328  0.009359319 0.0078185783         3960 
 3956000   0.61841067   -9.5385952    444.21955 0.0093575064  0.007815194         3954 
 3957000    0.6034181   -9.5354859     444.6295 0.0093637753 0.0078118137         3946 
 3958000   0.61300681   -9.5417532    443.33358 0.0093341245 0.0078084321         3944 
 3959000   0.62062678   -9.5260351    443.93301 0.0093443843 0.0078050573         3956 
 3960000   0.62107998   -9.5407234    442.95509 0.0093214455 0.0078016809         3945 
 3961000   0.61969748   -9.5623334    443.35686 0.0093275448 0.0077983072         3960 
 3962000   0.61860516   -9.5465613    444.23543 0.0093436697 0.0077949381         3946 
 3963000   0.61531296    -9.549886     442.7749 0.0093106002   0.00779157         3949 
 3964000   0.60632946   -9.5523501    443.38814 0.0093211431 0.0077882057         3951 
 3965000     0.617129   -9.5698102    443.78492 0.0093271316 0.0077848407         3947 
 3966000   0.62478697   -9.5674722    443.95094 0.0093282682 0.0077814763         3956 
 3967000   0.61189391   -9.5586352    443.70021 0.0093206497 0.0077781126         3951 
 3968000   0.60841769   -9.5524137    444.03473 0.0093253262 0.0077747516         3951 
 3969000   0.60943019   -9.5467294    443.86102 0.0093193294 0.0077713922         3963 
 3970000   0.61325798   -9.5523971    444.43516 0.0093290336 0.0077680364         3945 
 3971000   0.62631976   -9.5573501    443.43294 0.0093056522 0.0077646824         3949 
 3972000   0.61634795   -9.5497801    443.83762 0.0093117996 0.0077613333         3955 
 3973000   0.62383814   -9.5562816    444.45057 0.0093223124 0.0077579828         3956 
 3974000   0.61975088   -9.5544894    443.58053 0.0093017222 0.0077546329         3952 
 3975000   0.61334074   -9.5347028    443.92593 0.0093066232 0.0077512895         3950 
 3976000   0.60686199   -9.5523128     443.6976 0.0092994969 0.0077479491         3955 
 3977000    0.5938084   -9.5548107    443.77783 0.0092988398 0.0077446081         3942 
 3978000   0.60456971   -9.5475008    443.59266 0.0092926233 0.0077412689         3945 
 3979000   0.61760614   -9.5715643    444.09278  0.009300762 0.0077379327         3960 
 3980000   0.61539745   -9.5438212    443.52516 0.0092865402 0.0077345968         3960 
 3981000   0.61492396   -9.5424061    443.82627 0.0092905105 0.0077312657         3947 
 3982000   0.61231612   -9.5475494    443.57953 0.0092830138 0.0077279317         3949 
 3983000   0.60934835   -9.5419038    443.88175 0.0092870063 0.0077246018         3948 
 3984000   0.61277128   -9.5573721    444.34374 0.0092943386 0.0077212738         3957 
 3985000   0.61635298   -9.5719522    443.70978 0.0092787491 0.0077179499         3958 
 3986000   0.60598903   -9.5482145    443.86486 0.0092796634 0.0077146287         3956 
 3987000   0.61965966   -9.5445397    443.25633 0.0092646169 0.0077113084         3950 
 3988000   0.61658427   -9.5458451    444.27647 0.0092836107 0.0077079931         3960 
 3989000   0.61905489   -9.5556133    443.96628 0.0092748033 0.0077046781         3944 
 3990000   0.61029549   -9.5437417    443.64349  0.009265737 0.0077013603         3931 
 3991000   0.61737014   -9.5764229    443.10089 0.0092520857 0.0076980457         3963 
 3992000   0.61676492   -9.5398905    443.36138 0.0092552057  0.007694735         3954 
 3993000   0.62876468   -9.5576177    442.97122 0.0092447454 0.0076914258         3948 
 3994000   0.62210948    -9.559488    443.18579 0.0092469076 0.0076881194         3960 
 3995000   0.61645553   -9.5754726    443.15939 0.0092440424 0.0076848119         3953 
 3996000   0.61743841   -9.5602362    443.62627 0.0092514655 0.0076815073         3941 
 3997000   0.61454046   -9.5651108     443.0065 0.0092362292 0.0076782028         3950 
 3998000   0.61126334   -9.5314019    442.88266 0.0092313377 0.0076749028         3951 
 3999000   0.61980894   -9.5597001    443.48128 0.0092415037 0.0076716039         3956 
 4000000   0.60155642   -9.5614953    442.89425 0.0092269635 0.0076683074         3948 
 4001000   0.61894901   -9.5680108    443.16084 0.0092302099 0.0076650135         3954 
 4002000   0.60575474   -9.5483799    444.08284 0.0092471024 0.0076617206         3944 
 4003000   0.60722083   -9.5599077     443.2189 0.0092268069 0.0076584286         3962 
 4004000   0.60864482   -9.5664748    442.69162 0.0092135286 0.0076551366         3936 
 4005000   0.60613443   -9.5488901    443.77598 0.0092337907 0.0076518489         3955 
 4006000   0.60953139   -9.5558803    443.75554 0.0092310605 0.0076485606         3965 
 4007000   0.59141927   -9.5547889    444.19372 0.0092378696 0.0076452806         3949 
 4008000   0.61250815     -9.56327      443.514 0.0092214322 0.0076419998         3940 
 4009000   0.61481217   -9.5731734    443.24881 0.0092136196 0.0076387209         3950 
 4010000   0.62126738   -9.5584774    444.43323 0.0092359358 0.0076354435         3953 
 4011000   0.61000352   -9.5566658    444.06911 0.0092260681 0.0076321692         3959 
 4012000   0.61558054   -9.5529977    443.21378 0.0092060025 0.0076288925         3949 
 4013000   0.60308563   -9.5724913    442.68289 0.0091926841  0.007625617         3958 
 4014000   0.61721822   -9.5477745    443.82914 0.0092141908 0.0076223456         3951 
 4015000    0.6117699   -9.5607449    443.57616  0.009206645 0.0076190801         3956 
 4016000   0.60186658    -9.558616    444.19543 0.0092172027 0.0076158126         3961 
 4017000   0.61112868   -9.5535522    444.00721 0.0092110034 0.0076125479         3949 
 4018000   0.61073459   -9.5699856    442.94838 0.0091867509 0.0076092864         3949 
 4019000    0.6189604   -9.5639964    443.61346 0.0091982553 0.0076060252         3957 
 4020000     0.609347    -9.546522    443.99998 0.0092039797 0.0076027681         3933 
 4021000    0.6035219   -9.5743158    443.05432 0.0091820924 0.0075995136         3964 
 4022000   0.60939584   -9.5559888     443.3284 0.0091854882 0.0075962567         3952 
 4023000   0.60544435   -9.5746457    443.31925 0.0091830153 0.0075930041         3952 
 4024000    0.6088918   -9.5459553    443.66793 0.0091879541 0.0075897545         3953 
 4025000   0.59584523   -9.5585382     443.4017 0.0091801595 0.0075865037         3962 
 4026000    0.6120578   -9.5714686    443.52629 0.0091804581 0.0075832571         3953 
 4027000   0.60545054   -9.5658238    443.27868 0.0091730544 0.0075800096         3964 
 4028000   0.61721343   -9.5477224    443.88001 0.0091832177 0.0075767653         3958 
 4029000   0.61611644   -9.5555138    443.60092  0.009175166 0.0075735247         3966 
 4030000   0.59392583   -9.5674518      443.668 0.0091742763 0.0075702831         3959 
 4031000   0.60081199   -9.5454154    443.16508 0.0091616034 0.0075670456         3948 
 4032000   0.60611825   -9.5499321    443.56533 0.0091676035 0.0075638132         3963 
 4033000   0.59449536   -9.5647158    444.05721  0.009175494 0.0075605818         3953 
 4034000   0.59756657   -9.5511566    443.98043 0.0091716333   0.00755735         3956 
 4035000   0.60748273   -9.5417211     443.7206 0.0091639943 0.0075541212         3948 
 4036000   0.60839507   -9.5783435    443.03694 0.0091476079 0.0075508958         3950 
 4037000   0.59969664   -9.5536836    443.64723 0.0091579397 0.0075476703         3959 
 4038000   0.59927893   -9.5471248    443.34183 0.0091493692 0.0075444448         3963 
 4039000   0.58651561   -9.5769953    443.68107 0.0091541031 0.0075412222         3952 
 4040000   0.59981785   -9.5759761    442.62073 0.0091299656 0.0075380012         3958 
 4041000   0.60369166   -9.5962482    442.90676 0.0091336047 0.0075347808         3949 
 4042000   0.59986193   -9.5717144    443.36446 0.0091407813 0.0075315629         3951 
 4043000   0.60182725   -9.5716413    443.58761   0.00914312 0.0075283511         3940 
 4044000   0.61008321   -9.5822906    443.85656 0.0091464012 0.0075251404         3958 
 4045000   0.59771177   -9.5622252    443.19665 0.0091305449 0.0075219286         3954 
 4046000   0.60977922    -9.586886    442.66135  0.009117263 0.0075187188         3960 
 4047000   0.61966815   -9.5618284    443.17242 0.0091255337 0.0075155138         3951 
 4048000   0.60441833    -9.570265    443.24277 0.0091247276 0.0075123082         3954 
 4049000   0.60594148   -9.5719176    443.88523 0.0091356967 0.0075091027         3952 
 4050000   0.59829031   -9.5693311    443.14747 0.0091182607 0.0075059005         3961 
 4051000   0.60656244   -9.5786583    443.35562 0.0091202917 0.0075027026         3964 
 4052000   0.59515533   -9.5551147    442.73744 0.0091053273 0.0074995058         3952 
 4053000   0.60531256   -9.5623482     443.4744 0.0091182335 0.0074963075         3952 
 4054000   0.62003435   -9.5774482    442.52596 0.0090964882 0.0074931103         3958 
 4055000   0.60615947   -9.5762217    443.31966 0.0091105561 0.0074899194         3955 
 4056000   0.60603355    -9.582575     442.7947 0.0090975242 0.0074867288         3948 
 4057000   0.60104892   -9.5763127    443.91946 0.0091183852 0.0074835405         3954 
 4058000    0.6160638   -9.5708371    442.50691 0.0090871306 0.0074803529         3962 
 4059000   0.60271153   -9.5702927    443.18848 0.0090988848 0.0074771702         3945 
 4060000   0.59570265   -9.5676012    443.73294 0.0091078189 0.0074739865         3950 
 4061000   0.61437389   -9.5591384    442.96298 0.0090897764 0.0074708065         3960 
 4062000   0.59846805   -9.5797113    443.47186 0.0090979783 0.0074676277         3967 
 4063000   0.58782789    -9.575874    443.33303 0.0090928917 0.0074644494         3958 
 4064000    0.5969962   -9.5691014    443.55608 0.0090952279 0.0074612717         3953 
 4065000   0.59620733   -9.5786858    443.06865 0.0090829981 0.0074580949         3951 
 4066000   0.59431739   -9.5797484    443.14715  0.009082373 0.0074549226         3936 
 4067000   0.61469928    -9.588982    443.29989 0.0090832696 0.0074517532         3959 
 4068000   0.61281817   -9.5748129    443.83455 0.0090919892 0.0074485852         3962 
 4069000   0.59409259   -9.5860495    442.71763 0.0090668802 0.0074454195         3961 
 4070000   0.60000273   -9.5689302    443.51743 0.0090810286 0.0074422554         3947 
 4071000   0.59828825   -9.5569317    443.45532 0.0090775263 0.0074390924         3960 
 4072000   0.58824267   -9.5548742    442.91522  0.009064244 0.0074359316         3957 
 4073000   0.59556043   -9.5671892     442.8994 0.0090616948 0.0074327725         3960 
 4074000   0.60189993   -9.5963038    442.94559 0.0090604154  0.007429613         3950 
 4075000   0.60211757    -9.581903    443.59062 0.0090713829 0.0074264558         3952 
 4076000   0.59191828   -9.5671405    443.99321 0.0090773881 0.0074233003         3952 
 4077000   0.59248536   -9.5750264    443.17101 0.0090583559 0.0074201467         3951 
 4078000   0.60138428   -9.5809967    442.67866 0.0090460737 0.0074169945         3951 
 4079000   0.60337368   -9.5831831    443.27476 0.0090560341 0.0074138453         3965 
 4080000   0.59739785   -9.5949944    443.26811 0.0090536788 0.0074106982         3954 
 4081000   0.60776028   -9.5912527    442.72701 0.0090404111 0.0074075538         3957 
 4082000   0.59045344   -9.5864005    442.91792 0.0090420938 0.0074044101         3944 
 4083000    0.5960882   -9.5769448    443.66031 0.0090550313 0.0074012693         3960 
 4084000   0.60117164   -9.5745109    443.41989 0.0090479083 0.0073981274         3959 
 4085000   0.59766152   -9.5737873    441.79034 0.0090124508 0.0073949912         3954 
 4086000   0.60552342   -9.5767585     443.0132 0.0090351851 0.0073918543         3955 
 4087000   0.60151141   -9.5839614    443.98226 0.0090527335 0.0073887204         3956 
 4088000   0.58440849   -9.5833908    443.88723 0.0090485819 0.0073855894         3966 
 4089000    0.5966743   -9.5891038    443.32322 0.0090348745 0.0073824599         3957 
 4090000   0.60509901      -9.5985    442.48719 0.0090156314 0.0073793301         3953 
 4091000   0.58516768   -9.5816302    443.09462  0.009025801 0.0073762032         3956 
 4092000   0.59243647   -9.5831318    443.52374 0.0090323341 0.0073730763         3966 
 4093000   0.59468985    -9.594261    443.42623 0.0090281421 0.0073699502         3958 
 4094000   0.60210548   -9.5810696    443.57916 0.0090290498  0.007366826         3955 
 4095000   0.59092958   -9.6007364    443.49404 0.0090251127 0.0073637033         3961 
 4096000   0.58659728   -9.5785083    442.51674 0.0090030261 0.0073605839         3955 
 4097000   0.58437255   -9.5866004    444.13815 0.0090338082 0.0073574667         3957 
 4098000   0.59887444   -9.5779191    442.88784 0.0090061786 0.0073543521         3965 
 4099000   0.61062364   -9.5904653    442.73097 0.0090007922 0.0073512379         3957 
 4100000   0.60399266   -9.5816878     442.4116 0.0089921057 0.0073481282         3949 
 4101000   0.60809604   -9.5805113    443.26149 0.0090071831 0.0073450171         3960 
 4102000   0.58711023    -9.565902    443.37884 0.0090073713 0.0073419105         3956 
 4103000   0.58979686   -9.5787874    443.41078 0.0090058247  0.007338805         3962 
 4104000   0.59171091   -9.5942026    443.20388 0.0089994291 0.0073357012         3952 
 4105000   0.59151538   -9.5777211    443.83311 0.0090100103 0.0073325987         3949 
 4106000   0.60084493   -9.5672871    443.28281 0.0089966473 0.0073294972         3957 
 4107000   0.60981431   -9.5652126    443.59467 0.0090007847 0.0073264001         3961 
 4108000   0.59738252   -9.5772489    442.43903 0.0089751507 0.0073233045         3958 
 4109000   0.58706733   -9.5883627     443.0974 0.0089863186 0.0073202106         3955 
 4110000   0.58544229   -9.6051723     443.4985 0.0089922648 0.0073171136         3942 
 4111000   0.58941184   -9.5644383    442.21077 0.0089639741 0.0073140229         3956 
 4112000   0.60717782   -9.5850964    442.96768 0.0089771335 0.0073109314         3955 
 4113000   0.60994341   -9.5987129    443.33051 0.0089823023 0.0073078417         3952 
 4114000   0.59363862    -9.597331    443.22733 0.0089780288 0.0073047554         3961 
 4115000   0.58838166   -9.5705564    443.78784  0.008987198 0.0073016684         3970 
 4116000   0.59251485   -9.6071538    442.94503 0.0089679508 0.0072985826         3952 
 4117000    0.5854417    -9.598025    443.36804 0.0089743348 0.0072955016         3962 
 4118000   0.59452596   -9.5853328    443.34731 0.0089717361 0.0072924183         3951 
 4119000   0.60483034   -9.5731223    443.30448 0.0089686913 0.0072893399         3958 
 4120000   0.58996171   -9.5725693    442.55903 0.0089514368 0.0072862625         3953 
 4121000    0.6106302    -9.588784    443.97879 0.0089779744 0.0072831885         3956 
 4122000   0.59370874   -9.5998219    443.93849 0.0089749816 0.0072801155         3968 
 4123000   0.59825302     -9.59946    442.83675 0.0089505366 0.0072770471         3951 
 4124000   0.59366988    -9.599145    442.86522 0.0089489416 0.0072739789         3966 
 4125000   0.58440759   -9.5865682    442.90251 0.0089475255 0.0072709116         3955 
 4126000   0.58393625   -9.5933584    442.01623 0.0089274565 0.0072678476         3947 
 4127000   0.60492653   -9.5894918    442.30268 0.0089310774 0.0072647826         3963 
 4128000   0.57946067   -9.5977946     443.0425  0.008943849 0.0072617187         3961 
 4129000   0.59572422   -9.5755259    442.93016 0.0089394155 0.0072586581         3954 
 4130000   0.58975154   -9.5789167     443.8481 0.0089557728 0.0072556015         3951 
 4131000   0.58708262   -9.5914981    442.65064 0.0089294489 0.0072525436         3957 
 4132000   0.58869308   -9.6004227    442.55772 0.0089254138 0.0072494887         3957 
 4133000   0.58362916   -9.5926153    442.89362 0.0089300271 0.0072464372         3961 
 4134000    0.5768797   -9.5707966    442.64404 0.0089228359 0.0072433834         3959 
 4135000    0.5774042   -9.5899125    442.20008 0.0089117307 0.0072403332         3960 
 4136000   0.57653832   -9.6059379    443.32179 0.0089321767 0.0072372823         3950 
 4137000   0.59143646   -9.5841584    442.71855 0.0089178663 0.0072342333         3949 
 4138000   0.58492119   -9.5765652    443.61001 0.0089336639 0.0072311895         3959 
 4139000   0.59038753   -9.5667006    443.21371 0.0089235263 0.0072281472         3957 
 4140000   0.60262611   -9.6031788    442.54881 0.0089079873 0.0072251075         3958 
 4141000   0.59442182   -9.5835001    443.53528 0.0089256879 0.0072220698         3956 
 4142000   0.59464745   -9.5978422    443.04957 0.0089137608 0.0072190336         3952 
 4143000    0.5824493    -9.589826    442.84312 0.0089074568 0.0072159979         3960 
 4144000   0.60149924   -9.6110195    442.08536 0.0088900693 0.0072129618         3961 
 4145000   0.59409911   -9.5928737    442.45732 0.0088954025 0.0072099283         3949 
 4146000    0.5936232   -9.5854133    442.89707 0.0089020958 0.0072068983         3953 
 4147000   0.59902505   -9.5882166    442.41347 0.0088902312 0.0072038669         3961 
 4148000   0.58792454    -9.590782    443.15522 0.0089029899 0.0072008397         3942 
 4149000   0.59551599    -9.600451    442.71461 0.0088919943 0.0071978121         3959 
 4150000   0.59073067   -9.5830385     443.4535 0.0089046888 0.0071947852         3958 
 4151000   0.59689477   -9.5863098    442.00102 0.0088733844 0.0071917643         3957 
 4152000   0.58144435     -9.60831     442.6471 0.0088842145 0.0071887411         3959 
 4153000   0.58945149   -9.6225727    442.65396 0.0088822128 0.0071857242         3952 
 4154000    0.5780627    -9.603987    442.25927 0.0088721567 0.0071827037         3954 
 4155000   0.58469918   -9.5770063    442.74753  0.008879814  0.007179686         3943 
 4156000    0.5790359   -9.6109555     442.6005 0.0088747292 0.0071766712         3962 
 4157000   0.58078679    -9.603237    442.63996 0.0088733854 0.0071736566         3966 
 4158000    0.5931617   -9.6003435    442.22882 0.0088630116 0.0071706459         3963 
 4159000    0.5975144   -9.5910254    442.76023 0.0088715282 0.0071676379         3956 
 4160000   0.59717351   -9.5943884    442.60079 0.0088662018 0.0071646324         3951 
 4161000   0.58211093   -9.5962763    442.49741 0.0088620005 0.0071616284         3961 
 4162000   0.58340732   -9.6186105    442.42201 0.0088583616 0.0071586257         3960 
 4163000   0.57637632   -9.6045911    442.52813 0.0088583579 0.0071556228         3967 
 4164000   0.57233131   -9.6079606    442.61864  0.008858042 0.0071526223         3953 
 4165000   0.57485329   -9.6096965     443.3539 0.0088706263 0.0071496267         3954 
 4166000   0.59755459   -9.6093512    442.32701 0.0088479559 0.0071466307         3956 
 4167000   0.57751641   -9.5965288     442.6786 0.0088528638 0.0071436374         3957 
 4168000   0.57063327   -9.6044559    442.82114 0.0088535896  0.007140644         3957 
 4169000    0.5803961   -9.6032221    442.85572 0.0088521573 0.0071376535         3952 
 4170000   0.56679482   -9.5923173    441.93015 0.0088315378 0.0071346629         3950 
 4171000   0.58085099   -9.6023758    442.97148 0.0088502254 0.0071316732         3958 
 4172000   0.59190525   -9.6095062    442.79774 0.0088446337 0.0071286871         3962 
 4173000   0.60084038   -9.6120334    442.68112 0.0088401853 0.0071257013         3961 
 4174000   0.57615581   -9.6214905    442.67214 0.0088378881 0.0071227153         3947 
 4175000   0.57489212   -9.5937169    443.28438 0.0088479916 0.0071197326         3932 
 4176000   0.58869693   -9.5884062    443.18154 0.0088438207 0.0071167545         3947 
 4177000   0.58667294   -9.5733581    442.87269 0.0088355416 0.0071137766         3949 
 4178000    0.5777516   -9.6196937    442.23318 0.0088206714 0.0071107961         3955 
 4179000   0.59484501   -9.6070015    442.22383 0.0088183742 0.0071078181         3947 
 4180000   0.57906502   -9.6005008    442.48037  0.008821379 0.0071048426         3966 
 4181000    0.5804016   -9.6120716    442.45184 0.0088187004 0.0071018676         3959 
 4182000   0.57796616   -9.6149801    442.34619 0.0088144864  0.007098895         3961 
 4183000   0.58039049   -9.5961628    442.10267 0.0088075279  0.007095926         3963 
 4184000   0.60862482   -9.6142997    442.64767 0.0088162777 0.0070929578         3955 
 4185000   0.57365905   -9.6289013    442.19069 0.0088050715   0.00708999         3956 
 4186000   0.58562399    -9.606604    442.29157 0.0088049764 0.0070870243         3963 
 4187000   0.57412448   -9.6157396    443.19074 0.0088207695 0.0070840604         3959 
 4188000   0.58396613   -9.6082068    442.78884 0.0088106662 0.0070810981         3961 
 4189000   0.57739729   -9.5975536    442.84075 0.0088095957 0.0070781374         3962 
 4190000   0.57130486   -9.6100535    442.38073 0.0087983439 0.0070751791         3955 
 4191000   0.58403221   -9.6229519    442.51383 0.0087988911 0.0070722223         3957 
 4192000   0.58430859   -9.6000908    442.41151  0.008794758 0.0070692664         3947 
 4193000   0.58049285   -9.5845364    442.66273 0.0087976534 0.0070663131         3943 
 4194000   0.57310176   -9.6133679    442.71425 0.0087965794 0.0070633621         3955 
 4195000    0.5735077   -9.5947099    442.70783  0.008794355 0.0070604122         3947 
 4196000    0.5825848   -9.6059642    442.77291 0.0087935515 0.0070574644         3971 
 4197000   0.58659767   -9.5967281    442.03286 0.0087767624 0.0070545166         3950 
 4198000   0.57766979   -9.5855553      442.168 0.0087773543 0.0070515716         3954 
 4199000   0.58693709     -9.58853    443.54104 0.0088025133 0.0070486284         3945 
 4200000   0.58299961   -9.5926899    442.93636 0.0087884198 0.0070456877         3959 
 4201000   0.56702132   -9.6038083    442.25079 0.0087727285 0.0070427475         3955 
 4202000   0.58089215   -9.6169522     442.3108 0.0087718309 0.0070398076         3938 
 4203000   0.57158119   -9.6132016    442.70031 0.0087774667 0.0070368705         3947 
 4204000   0.57608656   -9.6208904    442.61335 0.0087736551 0.0070339336         3966 
 4205000   0.56587393   -9.6138078    442.96114 0.0087784609 0.0070309999         3957 
 4206000   0.58042832    -9.621641    442.66823 0.0087705703 0.0070280683         3950 
 4207000   0.56711812   -9.6104351    442.43314 0.0087638289 0.0070251373         3955 
 4208000   0.57320568   -9.6229574    442.16274 0.0087563915 0.0070222078         3951 
 4209000   0.57644082   -9.6060786    442.46519 0.0087602992 0.0070192815         3954 
 4210000   0.58534442   -9.5816893    443.40507 0.0087768225 0.0070163546         3958 
 4211000    0.5663731   -9.5844017    442.29265  0.008752724 0.0070134332         3959 
 4212000   0.57438444   -9.6150599    442.75463 0.0087597862 0.0070105119         3956 
 4213000   0.57175533   -9.5996084    442.68865 0.0087564019 0.0070075916         3953 
 4214000   0.57091476   -9.6012608    442.27222 0.0087460888 0.0070046726         3965 
 4215000   0.57482034   -9.6152148    442.78066  0.008754066 0.0070017579         3956 
 4216000   0.58369555   -9.5966495    443.04261 0.0087571673 0.0069988426         3949 
 4217000   0.57107736   -9.6020255    442.80247 0.0087503452   0.00699593         3958 
 4218000   0.59648946    -9.620529    442.57376 0.0087437522 0.0069930197         3962 
 4219000   0.57269824   -9.6072555    442.86876 0.0087475065 0.0069901082         3952 
 4220000   0.57804409   -9.6097922    442.81665 0.0087444047 0.0069871978         3951 
 4221000    0.5849387   -9.6131282    442.73037 0.0087406297 0.0069842879         3964 
 4222000   0.57606209   -9.6178433    442.14194  0.008726945 0.0069813829         3963 
 4223000   0.58012894   -9.6122492    442.15613 0.0087251584 0.0069784806         3947 
 4224000   0.58034484   -9.6184077    442.50725 0.0087300199 0.0069755793         3956 
 4225000   0.57126666   -9.6276888    441.73319 0.0087126862 0.0069726764         3948 
 4226000   0.56805246    -9.609462    442.39735 0.0087237212 0.0069697772         3956 
 4227000   0.56504865   -9.6243837     442.1677   0.00871713 0.0069668778         3953 
 4228000     0.564198   -9.6108196    442.84552  0.008728428 0.0069639827         3958 
 4229000   0.58846985   -9.6081711    442.06714 0.0087110258 0.0069610882         3954 
 4230000   0.57327108   -9.6013391    442.30545 0.0087136613 0.0069581967         3940 
 4231000   0.57710074    -9.617416    442.38278  0.008713125 0.0069553061         3948 
 4232000   0.58590456   -9.6161146    442.24767 0.0087084055 0.0069524177         3965 
 4233000   0.56991029     -9.61812    442.51972 0.0087117042 0.0069495304         3951 
 4234000   0.58717058   -9.6269308    441.98357 0.0086990939 0.0069466447         3966 
 4235000   0.58028922    -9.620123    441.55993 0.0086887039 0.0069437593         3946 
 4236000   0.57790564   -9.6163142     442.3153 0.0087015129 0.0069408743         3937 
 4237000   0.58195896   -9.6085799    442.89138 0.0087107894 0.0069379948         3935 
 4238000   0.56597648   -9.6143625    441.78535 0.0086869857 0.0069351136         3948 
 4239000   0.58090335   -9.6417042    441.47668 0.0086788684 0.0069322342         3950 
 4240000   0.57429369   -9.6238558    442.75687 0.0087019824 0.0069293577         3962 
 4241000   0.56846745    -9.611969    442.44824 0.0086938662 0.0069264795         3958 
 4242000   0.57574871   -9.6094507    442.44126 0.0086916797 0.0069236053         3943 
 4243000   0.57206389    -9.590924    442.56467 0.0086920549 0.0069207333         3962 
 4244000   0.57626142   -9.6084262    441.58248  0.008670721 0.0069178634         3958 
 4245000   0.57992448   -9.6119317    443.06455 0.0086977729  0.006914994         3957 
 4246000   0.57912376    -9.623966    442.40863  0.008682851 0.0069121269         3953 
 4247000   0.56622078   -9.6454155    442.56329 0.0086838413 0.0069092617         3952 
 4248000   0.57554376   -9.6406191    442.95604 0.0086895018 0.0069063955         3936 
 4249000    0.5708826   -9.6121225    441.86359 0.0086660311 0.0069035343         3948 
 4250000   0.55370166    -9.603916    442.01033 0.0086668693 0.0069006744         3953 
 4251000   0.56805564   -9.6139813    441.43855 0.0086536218 0.0068978159         3955 
 4252000   0.57063043   -9.6061911     442.4951 0.0086722934 0.0068949583         3949 
 4253000   0.56285168   -9.6332179    442.67272 0.0086737346 0.0068921029         3955 
 4254000   0.57312725   -9.6322556    442.41027 0.0086665545 0.0068892496         3956 
 4255000   0.56243685   -9.6477441    442.07703 0.0086579912 0.0068863965         3963 
 4256000    0.5735999   -9.6269843    442.74123  0.008668962 0.0068835451         3955 
 4257000   0.57202202   -9.6246927    442.09131  0.008654203 0.0068806989         3946 
 4258000    0.5757155   -9.6137287    442.83258  0.008666678 0.0068778531         3961 
 4259000   0.56992582   -9.6122618    442.06249 0.0086495753 0.0068750065         3957 
 4260000    0.5700427   -9.6112688    441.96335 0.0086456054 0.0068721641         3952 
 4261000   0.58253995   -9.6160841     441.8697  0.008641745  0.006869321         3951 
 4262000   0.57983513    -9.634152    442.37328 0.0086495636 0.0068664778         3960 
 4263000   0.57445941   -9.6389174    442.42115 0.0086484703 0.0068636411         3963 
 4264000   0.56240898   -9.6212486    442.21962 0.0086425036 0.0068608037         3940 
 4265000   0.57302643   -9.6262636    442.24105 0.0086408959 0.0068579681         3945 
 4266000   0.57521035   -9.6275979    442.41057 0.0086421818 0.0068551351         3957 
 4267000   0.56106224   -9.6392128    442.60644 0.0086439816 0.0068523041         3968 
 4268000   0.57050899   -9.6203634    441.94432 0.0086290285 0.0068494741         3960 
 4269000   0.57785868   -9.6347092    442.87927 0.0086452579 0.0068466427         3956 
 4270000   0.56851227   -9.6313502    442.60487 0.0086378781 0.0068438167         3950 
 4271000   0.56904309    -9.633703    441.85595 0.0086212432 0.0068409922         3960 
 4272000   0.57625658   -9.6447808    441.11996 0.0086048682 0.0068381664         3950 
 4273000   0.57252451   -9.6325937     442.0483 0.0086209592 0.0068353426         3955 
 4274000   0.57558342    -9.634153    442.59756 0.0086296513   0.00683252         3956 
 4275000   0.56054484   -9.6357277    442.48813 0.0086254997 0.0068296987         3967 
 4276000   0.56006268   -9.6220623    442.27805 0.0086193883 0.0068268806         3951 
 4277000   0.55901704   -9.6398514    442.43174 0.0086203675 0.0068240633         3962 
 4278000   0.56338811    -9.608508    442.55349 0.0086207241  0.006821251         3963 
 4279000    0.5647739   -9.6364769    442.16779 0.0086111978 0.0068184369         3957 
 4280000   0.56768435   -9.6228422     441.7664 0.0086013707 0.0068156216         3947 
 4281000   0.56880441    -9.653833    442.14866 0.0086068025   0.00681281         3956 
 4282000   0.56028148   -9.6225943     441.1978 0.0085862876 0.0068099983         3958 
 4283000   0.57556627   -9.6378692    442.49142 0.0086094524 0.0068071893         3952 
 4284000   0.56550469   -9.6513108     442.5346 0.0086082828 0.0068043808         3952 
 4285000   0.57398646   -9.6333833    442.01948 0.0085962559 0.0068015765         3955 
 4286000    0.5713009   -9.6264477    442.01102 0.0085940857 0.0067987727         3953 
 4287000   0.56669784   -9.6332626    442.24337 0.0085965977 0.0067959723         3939 
 4288000   0.56142604   -9.6398176    441.81633 0.0085862937 0.0067931704         3957 
 4289000   0.55814386   -9.6391677    442.06201 0.0085890653 0.0067903707         3944 
 4290000   0.58536728   -9.6347327    441.74456 0.0085808967 0.0067875729         3960 
 4291000   0.57082998   -9.6230762    442.38575 0.0085913492 0.0067847756         3955 
 4292000   0.55302409   -9.6256403    442.02159 0.0085822769 0.0067819823         3959 
 4293000   0.56442424   -9.6361037    442.76802 0.0085947671 0.0067791868         3962 
 4294000   0.55824555   -9.6256946     442.0725 0.0085792675 0.0067763947         3966 
 4295000   0.57132932   -9.6230648    442.77262 0.0085908542 0.0067736047         3947 
 4296000   0.56918681   -9.6466354    441.85682 0.0085710899 0.0067708191         3956 
 4297000   0.56862199   -9.6352855    441.69474 0.0085659518 0.0067680332         3949 
 4298000   0.55369299   -9.6259857    442.44009 0.0085784102 0.0067652477         3976 
 4299000   0.57140208   -9.6225896     441.7873  0.008563761 0.0067624652         3961 
 4300000   0.55523775   -9.6313433    442.01794 0.0085662392 0.0067596838         3953 
 4301000   0.56854944   -9.6306541    441.87534 0.0085614846 0.0067569036         3963 
 4302000   0.56607746   -9.6423457    442.47782 0.0085711649 0.0067541254         3966 
 4303000   0.55777847   -9.6370954    441.81143 0.0085562676 0.0067513456         3965 
 4304000   0.56538684   -9.6439375    442.10679 0.0085599982  0.006748569         3955 
 4305000    0.5578988   -9.6439953     441.3026 0.0085424428 0.0067457947         3960 
 4306000   0.56505691   -9.6402741    441.78088  0.008549715  0.006743021         3969 
 4307000   0.55650574   -9.6307255    442.22812 0.0085563834 0.0067402468         3965 
 4308000   0.56949074   -9.6167516    441.32048   0.00853684 0.0067374762         3956 
 4309000   0.57083357   -9.6278653    442.46985 0.0085570868 0.0067347076         3961 
 4310000   0.55836362   -9.6484427    442.39607  0.008553675 0.0067319396         3959 
 4311000   0.56299703   -9.6170928     441.9398 0.0085428709 0.0067291733         3958 
 4312000   0.57355047   -9.6233642    441.99882 0.0085420303 0.0067264104         3960 
 4313000   0.56831669   -9.6457559    441.95272 0.0085391592 0.0067236488         3950 
 4314000    0.5554701   -9.6413613    441.77144  0.008533678 0.0067208895         3966 
 4315000   0.56532151   -9.6368259    442.06009 0.0085372749 0.0067181287         3959 
 4316000   0.56814377   -9.6492152     442.2052 0.0085380986 0.0067153729         3957 
 4317000   0.56435345   -9.6250595    441.96671 0.0085315172 0.0067126186         3967 
 4318000   0.57573729   -9.6232107    441.80247 0.0085263716 0.0067098669         3954 
 4319000   0.55965271   -9.6456849    441.51993  0.008518946 0.0067071159         3963 
 4320000   0.56176097   -9.6361279     441.9077 0.0085244541 0.0067043653         3969 
 4321000   0.55091969   -9.6368828    441.32435 0.0085112309 0.0067016163         3954 
 4322000   0.56688908   -9.6428756    442.12282 0.0085246573 0.0066988676         3959 
 4323000   0.55240792   -9.6426997    441.69671 0.0085144712 0.0066961212         3951 
 4324000   0.55604097    -9.636532    441.17606  0.008502468 0.0066933765         3950 
 4325000   0.55987493   -9.6502585    441.80512 0.0085126228 0.0066906332         3972 
 4326000   0.55787503   -9.6205958    441.81333 0.0085108132 0.0066878902         3967 
 4327000   0.56062299   -9.6208507     441.3368 0.0084996687 0.0066851511         3956 
 4328000   0.54758792   -9.6133862    441.99019 0.0085102855 0.0066824132         3946 
 4329000   0.56420525   -9.6458544    442.27687 0.0085138383 0.0066796763         3953 
 4330000   0.56289141   -9.6573321    441.87579 0.0085041529 0.0066769403         3954 
 4331000   0.55436057   -9.6342843    442.09032 0.0085063173 0.0066742069         3960 
 4332000   0.54857187   -9.6421814    441.28506 0.0084888632 0.0066714726         3954 
 4333000   0.54766607   -9.6475868    442.32913 0.0085069839 0.0066687416         3962 
 4334000   0.56142307   -9.6188867    441.86782  0.008496151 0.0066660123         3951 
 4335000   0.56549096    -9.633061      441.655 0.0084901001 0.0066632856         3953 
 4336000   0.57183117   -9.6362713    442.01328 0.0084950276 0.0066605603         3949 
 4337000    0.5652472   -9.6444492    442.26903 0.0084979831 0.0066578343         3952 
 4338000   0.56073512   -9.6277033    442.08516 0.0084924919 0.0066551097         3965 
 4339000   0.54929498   -9.6473193     442.2263 0.0084932454 0.0066523887         3952 
 4340000   0.55289775   -9.6536068    441.56464 0.0084785837 0.0066496677         3950 
 4341000   0.55732944    -9.659358    441.86275 0.0084823533 0.0066469465         3958 
 4342000   0.55640887    -9.644367    442.33127 0.0084893918 0.0066442281         3955 
 4343000   0.56201906   -9.6342699    441.62611 0.0084739065 0.0066415131         3950 
 4344000    0.5607827   -9.6461713    441.40607 0.0084677347 0.0066387999         3950 
 4345000   0.54936136   -9.6384833    441.44366 0.0084665068 0.0066360879         3972 
 4346000   0.56289668   -9.6628409    441.90173  0.008473342 0.0066333755         3960 
 4347000   0.55260429   -9.6370491    441.04739 0.0084550147 0.0066306665         3958 
 4348000    0.5663703   -9.6607655    441.49846 0.0084617154  0.006627959         3964 
 4349000   0.54114282   -9.6580894    442.00555 0.0084694862 0.0066252533         3962 
 4350000   0.56647887   -9.6538542    442.33388  0.008473829 0.0066225485         3961 
 4351000    0.5650304   -9.6400893    442.33183 0.0084718423 0.0066198434         3963 
 4352000     0.552085   -9.6239787    441.73026 0.0084583766 0.0066171415         3962 
 4353000   0.56098458   -9.6441428    441.79099 0.0084575961 0.0066144395         3958 
 4354000   0.56573251   -9.6482969    441.50752 0.0084502281 0.0066117403         3964 
 4355000   0.55604811    -9.640582    441.70973  0.008452157 0.0066090402         3953 
 4356000   0.56107767   -9.6439056     442.2115 0.0084598159 0.0066063433         3959 
 4357000    0.5577072   -9.6347505    442.02719 0.0084543491 0.0066036504         3952 
 4358000   0.55857685   -9.6623091    441.84087 0.0084488464 0.0066009582         3954 
 4359000   0.55433145    -9.640119    441.83233 0.0084467449  0.006598268         3941 
 4360000   0.56170378   -9.6472763    441.48643 0.0084381963 0.0065955745         3966 
 4361000   0.55887478   -9.6338977    442.10103 0.0084480056  0.006592887         3957 
 4362000   0.56356158    -9.650114     441.5383 0.0084353183 0.0065901978         3947 
 4363000   0.56556274   -9.6542319    440.85429 0.0084203203 0.0065875119         3958 
 4364000   0.56296793   -9.6438208    442.41872 0.0084482646 0.0065848279         3958 
 4365000   0.55163908   -9.6233203     441.5264 0.0084292936 0.0065821456         3949 
 4366000   0.54600946   -9.6675979    441.98788 0.0084361712 0.0065794658         3948 
 4367000   0.55340573   -9.6396834    442.13179 0.0084369855 0.0065767866         3950 
 4368000   0.53410531    -9.649472    441.56761 0.0084242906 0.0065741095         3953 
 4369000   0.56124378    -9.647844    441.46431  0.008420392  0.006571432         3946 
 4370000   0.55316521   -9.6538366    441.76094 0.0084241216 0.0065687574         3960 
 4371000   0.54231351   -9.6351359    441.95499  0.008425894 0.0065660839         3952 
 4372000   0.55226967    -9.642078    441.04472 0.0084066164 0.0065634089         3967 
 4373000    0.5506527   -9.6433161    441.98424 0.0084225977 0.0065607374         3951 
 4374000   0.55983147   -9.6607102    441.08751 0.0084035877 0.0065580677         3955 
 4375000   0.55753982   -9.6538831    441.48832 0.0084093013 0.0065554007         3957 
 4376000   0.55768963   -9.6440433     441.1732 0.0084013787 0.0065527352         3952 
 4377000    0.5544814   -9.6426114    441.64156 0.0084083763 0.0065500708         3957 
 4378000   0.55150572   -9.6335568    441.42227 0.0084022816 0.0065474068         3951 
 4379000   0.54792418   -9.6593988    441.46308 0.0084011395 0.0065447427         3958 
 4380000   0.54574625   -9.6458707    440.97086 0.0083898566  0.006542082         3957 
 4381000   0.55212968   -9.6387306    441.59448 0.0083998037 0.0065394212         3961 
 4382000   0.56126942   -9.6479009     442.0953  0.008407411 0.0065367619         3958 
 4383000   0.56121895   -9.6415201    441.57587  0.008395617  0.006534106         3957 
 4384000   0.55248096   -9.6509086    441.43214 0.0083909698 0.0065314523         3937 
 4385000   0.54852044   -9.6635946    441.53661 0.0083910417 0.0065287996         3956 
 4386000   0.54926999   -9.6492589    441.58305 0.0083900109 0.0065261473         3958 
 4387000   0.55204186   -9.6556778    441.57947 0.0083880303 0.0065234984         3958 
 4388000   0.55527766   -9.6294592    441.71509 0.0083886944 0.0065208522         3948 
 4389000   0.55222031   -9.6524249    441.41421 0.0083810704 0.0065182056         3958 
 4390000   0.55793615   -9.6396839    441.56865 0.0083820929 0.0065155624         3954 
 4391000   0.55599948    -9.651292    442.19664  0.008392102 0.0065129212         3948 
 4392000   0.55786846   -9.6597593    441.68879 0.0083805553 0.0065102807         3954 
 4393000   0.55457187   -9.6496877    441.66925  0.008378277 0.0065076401         3957 
 4394000   0.54819691    -9.649253    441.90957  0.008380928 0.0065050017         3952 
 4395000   0.55052897   -9.6409818    442.26411 0.0083857435  0.006502365         3949 
 4396000   0.53093443   -9.6604187    440.66543 0.0083535302 0.0064997254         3943 
 4397000   0.56064961   -9.6887869     441.0995 0.0083598571 0.0064970888         3952 
 4398000   0.53921172   -9.6588986    441.78084 0.0083708662 0.0064944557         3958 
 4399000   0.54341048   -9.6652673    442.22831 0.0083774401 0.0064918257         3959 
 4400000   0.54725123   -9.6575165     441.3824 0.0083595152 0.0064891957         3957 
 4401000   0.53901178   -9.6663299    441.81028 0.0083657176 0.0064865661         3961 
 4402000   0.55768647   -9.6521469    441.33736 0.0083548645 0.0064839359         3957 
 4403000   0.54912254   -9.6524107    441.17362  0.008349868 0.0064813079         3948 
 4404000   0.56161384   -9.6634822    441.56442 0.0083553667 0.0064786833         3959 
 4405000   0.55712039   -9.6558835    441.60338 0.0083542069 0.0064760595         3957 
 4406000   0.55092026   -9.6699435    441.54689 0.0083512424 0.0064734382         3952 
 4407000   0.53657002   -9.6492504    441.53224 0.0083490704 0.0064708172         3939 
 4408000   0.54591814   -9.6494832    441.20112 0.0083409165 0.0064681956         3948 
 4409000   0.54933324   -9.6814504    440.74628 0.0083304278 0.0064655768         3964 
 4410000   0.54256489   -9.6491259    440.98539 0.0083330572 0.0064629602         3953 
 4411000   0.54290925   -9.6628007    441.66186 0.0083439482 0.0064603455         3944 
 4412000   0.53584442   -9.6532767    441.84435 0.0083455037  0.006457733         3955 
 4413000   0.54181076   -9.6623398    441.24006 0.0083322014 0.0064551201         3945 
 4414000   0.53846943   -9.6683302    441.44196 0.0083341256 0.0064525112         3958 
 4415000   0.54196062   -9.6711109    440.88205 0.0083216695 0.0064499018         3956 
 4416000   0.53695674   -9.6550174    441.46928 0.0083308666 0.0064472942         3953 
 4417000   0.54051774   -9.6695429    441.52449  0.008330022 0.0064446897         3953 
 4418000   0.54825434   -9.6709924    442.20933 0.0083410542 0.0064420868         3960 
 4419000   0.55123759    -9.657992    441.78521 0.0083311687 0.0064394838         3953 
 4420000   0.55128127   -9.6703408    441.10636 0.0083164849 0.0064368842         3955 
 4421000   0.53979883   -9.6490395    441.43991 0.0083208911 0.0064342832         3961 
 4422000    0.5435694   -9.6670264    441.39438 0.0083181512 0.0064316858         3950 
 4423000   0.53134291   -9.6295021    441.48318 0.0083179437 0.0064290901         3947 
 4424000   0.54610194   -9.6621857    441.83831 0.0083227529 0.0064264949         3960 
 4425000   0.54333534   -9.6695411    441.02638 0.0083055816 0.0064239016         3953 
 4426000   0.53260588   -9.6640073    441.97659 0.0083215957 0.0064213073         3942 
 4427000   0.55063932   -9.6529019     442.1495 0.0083229708 0.0064187182         3955 
 4428000   0.54117872   -9.6582442    441.31457 0.0083053781 0.0064161294         3943 
 4429000   0.53830982   -9.6430731    441.74986  0.008311693 0.0064135422         3940 
 4430000   0.54560302   -9.6504315    442.03369 0.0083151559 0.0064109551         3951 
 4431000   0.53706024    -9.680086    440.94793 0.0082928595 0.0064083707         3952 
 4432000    0.5399322   -9.6686803    441.35447 0.0082986325 0.0064057854         3953 
 4433000   0.53835104    -9.662234    441.79321  0.008305008 0.0064032049         3960 
 4434000   0.52952236   -9.6615795    441.54511 0.0082984722 0.0064006241         3939 
 4435000   0.52972975   -9.6690237    440.48884 0.0082767539 0.0063980432         3953 
 4436000   0.54252218    -9.654225    441.73857  0.008298365 0.0063954629         3936 
 4437000    0.5386902   -9.6659438    441.61288 0.0082941341 0.0063928863         3954 
 4438000   0.53598163   -9.6770479    440.93961 0.0082796231 0.0063903087         3965 
 4439000   0.53592078   -9.6691991    442.11578 0.0082998382 0.0063877337         3960 
 4440000   0.53473329   -9.6778801    440.97121 0.0082764868 0.0063851602         3948 
 4441000   0.55010696   -9.6739867    441.55231  0.008285527  0.006382588         3946 
 4442000   0.54461593   -9.6763734    440.91967 0.0082717934 0.0063800173         3940 
 4443000   0.53861031   -9.6783958    441.00859 0.0082715992 0.0063774495         3966 
 4444000   0.54047249   -9.6475258    441.93243 0.0082870618 0.0063748809         3965 
 4445000   0.52505211   -9.6862401    440.87124 0.0082653025 0.0063723132         3947 
 4446000   0.55371773    -9.662185    441.57098 0.0082765591 0.0063697469         3953 
 4447000   0.54011723    -9.683093    441.10903 0.0082660413 0.0063671813         3961 
 4448000   0.54102591   -9.6742311    441.87945 0.0082786167 0.0063646187         3955 
 4449000   0.54346778   -9.6760983    441.41224 0.0082680048 0.0063620595         3952 
 4450000   0.54741229   -9.6740572    441.12445 0.0082607574 0.0063595001         3958 
 4451000   0.53160546   -9.6821564    441.20889 0.0082604825 0.0063569402         3963 
 4452000   0.55150306   -9.6789778    441.13474  0.008257239 0.0063543832         3961 
 4453000   0.54241226   -9.6579778    441.23607  0.008257281 0.0063518299         3956 
 4454000   0.53204171   -9.6658353    441.37141 0.0082579592 0.0063492778         3949 
 4455000   0.53828556   -9.6615647    441.50856 0.0082586711 0.0063467254         3956 
 4456000   0.53799505   -9.6504738    441.00899 0.0082474751 0.0063441723         3963 
 4457000   0.54035032   -9.6555528    441.88541 0.0082620113 0.0063416236         3952 
 4458000   0.54212961   -9.6500504    441.32248 0.0082496351 0.0063390757         3968 
 4459000   0.55250035   -9.6492562    441.53647 0.0082517843   0.00633653         3963 
 4460000   0.54968128   -9.6598871    441.62849 0.0082516534 0.0063339861         3950 
 4461000   0.53325983    -9.676309    441.10476 0.0082400202   0.00633144         3957 
 4462000   0.53829241   -9.6757685    440.72565 0.0082310931 0.0063288988         3955 
 4463000   0.54289088   -9.6789233    441.23683 0.0082387936 0.0063263578         3959 
 4464000   0.54302998   -9.6739117    441.24595 0.0082371182 0.0063238182         3947 
 4465000   0.54222015   -9.6641185    442.13612 0.0082518872 0.0063212796         3955 
 4466000   0.53840848   -9.6607419    441.51644 0.0082384766 0.0063187423         3957 
 4467000   0.53095502   -9.6853263    441.47302 0.0082358223 0.0063162047         3959 
 4468000   0.54002106   -9.6638038    440.66792 0.0082189629 0.0063136697         3953 
 4469000   0.53264927   -9.6705082    441.16261 0.0082263483 0.0063111354         3960 
 4470000   0.52994879   -9.6591032    442.29374 0.0082455955 0.0063086022         3960 
 4471000   0.54090926   -9.6535973    441.44996 0.0082280244 0.0063060723         3953 
 4472000   0.53415838   -9.6874989     441.0962 0.0082195923 0.0063035408         3962 
 4473000   0.53464758   -9.6824907    441.28419  0.008221257 0.0063010134         3955 
 4474000   0.53239611   -9.6755111     441.2895 0.0082195182  0.006298487         3958 
 4475000    0.5454123   -9.6913898    441.11846 0.0082144964 0.0062959614         3951 
 4476000    0.5317362   -9.6687971    441.75882 0.0082245834  0.006293437         3960 
 4477000   0.53155485   -9.6620096    441.36965 0.0082155025 0.0062909157         3964 
 4478000   0.54356388   -9.6832893    440.96287 0.0082060977 0.0062883964         3940 
 4479000   0.55681364   -9.6801903    440.83294 0.0082018483 0.0062858762         3945 
 4480000   0.53908123   -9.6830305    441.15596  0.008206026  0.006283357         3942 
 4481000   0.52390129    -9.669862    440.64355 0.0081946654   0.00628084         3947 
 4482000   0.52937001    -9.673418      441.128 0.0082018444 0.0062783259         3959 
 4483000   0.53311022   -9.6731896    441.25523 0.0082023799 0.0062758134         3965 
 4484000   0.53814143   -9.6658874    440.76909  0.008191516 0.0062732988         3954 
 4485000   0.53311873   -9.6666708     441.7583 0.0082080696 0.0062707875         3954 
 4486000   0.53488538   -9.6487639    441.87192 0.0082083505 0.0062682792         3950 
 4487000   0.53429187   -9.6845341    441.64886 0.0082023783 0.0062657715         3957 
 4488000   0.52242611   -9.6806504    441.34836  0.008194971 0.0062632631         3961 
 4489000   0.53013668   -9.6740433    441.26866  0.008191666 0.0062607551         3958 
 4490000   0.53502613   -9.6832701    441.07292 0.0081862086 0.0062582512         3961 
 4491000   0.54606581   -9.6901704    440.78759 0.0081790913 0.0062557487         3951 
 4492000   0.52924778   -9.6797003    441.16482 0.0081842687 0.0062532473         3958 
 4493000   0.53846219   -9.6629625    441.89939 0.0081960715 0.0062507455         3952 
 4494000   0.52969583   -9.6691513    441.30044 0.0081831413 0.0062482469         3961 
 4495000   0.52323524   -9.6949289    440.95292  0.008174878 0.0062457476         3963 
 4496000   0.54292211   -9.6673883    440.91565  0.008172369 0.0062432519         3955 
 4497000   0.53444754   -9.6767086    440.46204 0.0081621458 0.0062407576         3953 
 4498000   0.52693881    -9.673811    441.31393  0.008176114 0.0062382649         3966 
 4499000   0.53112023   -9.6830848    441.05671 0.0081695323  0.006235772         3952 
 4500000   0.53227168   -9.6972154    440.80384 0.0081630341 0.0062332813         3963 
 4501000   0.53078318   -9.6894684    440.40445 0.0081538259 0.0062307906         3955 
 4502000     0.526943   -9.6875991    441.45191 0.0081714036 0.0062283015         3956 
 4503000   0.53107452    -9.680359    441.49374 0.0081703631 0.0062258149         3956 
 4504000   0.52320965   -9.6776001     440.3011 0.0081464828   0.00622333         3953 
 4505000   0.52545587   -9.6625438    441.49203 0.0081667043 0.0062208452         3963 
 4506000   0.53431066   -9.6824494    440.71043 0.0081504371 0.0062183624         3962 
 4507000   0.52798001   -9.6799833    440.91243 0.0081523636 0.0062158804         3959 
 4508000   0.52051164   -9.6846766    441.51388 0.0081616733 0.0062133985         3952 
 4509000    0.5328721   -9.6799193    440.86976 0.0081479589 0.0062109188         3953 
 4510000   0.53277938   -9.6834692     440.2295 0.0081343218 0.0062084416         3966 
 4511000   0.52572715   -9.6797064    440.91474 0.0081451774 0.0062059643         3961 
 4512000   0.53376539   -9.6722738    441.03015 0.0081455036 0.0062034893         3957 
 4513000   0.53691041   -9.6853343    440.73187 0.0081381909 0.0062010158         3965 
 4514000   0.52271029   -9.6898845    441.12487 0.0081436433 0.0061985434         3956 
 4515000   0.53158905   -9.6878465    440.57443 0.0081316801 0.0061960722         3956 
 4516000   0.52720154   -9.6824933    440.93319 0.0081364997 0.0061936003         3958 
 4517000   0.52317696   -9.6795071    441.30935  0.008141638 0.0061911301         3967 
 4518000    0.5331063   -9.6780303    441.21493 0.0081380945  0.006188661         3953 
 4519000   0.52968013   -9.6871281    441.71712 0.0081455543 0.0061861927         3972 
 4520000   0.53619417    -9.668323    440.77112 0.0081263113 0.0061837289         3962 
 4521000   0.50860949    -9.695577    440.06365 0.0081114733 0.0061812661         3957 
 4522000   0.53692443   -9.6971869    441.02948 0.0081274782 0.0061788031         3956 
 4523000   0.52241805   -9.6907188    441.01181 0.0081253558 0.0061763441         3952 
 4524000   0.52872383   -9.6739871    441.12464  0.008125638 0.0061738853         3960 
 4525000   0.52955423   -9.7010306    440.89012 0.0081195233 0.0061714269         3958 
 4526000   0.53830864    -9.686104    440.22555 0.0081054933 0.0061689709         3954 
 4527000   0.53277739   -9.7095327     441.5338 0.0081277852 0.0061665164         3942 
 4528000   0.53017559   -9.6778316    440.96045 0.0081154383  0.006164061         3955 
 4529000   0.53004347    -9.677326    442.05188 0.0081337285 0.0061616095         3957 
 4530000   0.52423538   -9.6926125    441.00765 0.0081127236 0.0061591585         3959 
 4531000   0.52640068   -9.6709861    440.70294 0.0081053289 0.0061567081         3961 
 4532000   0.52687845   -9.6733517    440.84134 0.0081060853 0.0061542597         3952 
 4533000   0.51849806   -9.6777292    440.92357 0.0081058088 0.0061518125         3954 
 4534000   0.52502529   -9.6987598    440.22186 0.0080911237 0.0061493652         3961 
 4535000    0.5301253   -9.6985653     440.0695 0.0080865399 0.0061469191         3956 
 4536000   0.52563053   -9.6852697    440.95385 0.0081010041 0.0061444768         3966 
 4537000   0.53419593   -9.6746371    441.19566 0.0081036599 0.0061420365         3947 
 4538000    0.5228073   -9.6796189    440.80985 0.0080947894 0.0061395949         3963 
 4539000   0.51881206   -9.6716013    440.94275  0.008095446 0.0061371549         3960 
 4540000   0.51664668   -9.6830681    441.02484 0.0080951695 0.0061347169         3950 
 4541000   0.51956177   -9.6685333    440.72584 0.0080878998 0.0061322811         3963 
 4542000   0.52834987   -9.6830673    440.85646 0.0080885157 0.0061298461         3966 
 4543000   0.53361588   -9.6952258    441.31836 0.0080952081 0.0061274121         3954 
 4544000   0.53337507   -9.6824542    440.45614 0.0080776141 0.0061249782         3969 
 4545000   0.52488967   -9.6923065    440.93412 0.0080846007  0.006122548         3946 
 4546000   0.52750195   -9.6865359    440.75425  0.008079525 0.0061201164         3949 
 4547000   0.52432748   -9.7032343    441.00455 0.0080823353 0.0061176866         3958 
 4548000   0.51602844   -9.6767463    441.48839 0.0080894238 0.0061152595         3956 
 4549000   0.52514697   -9.6856208     441.0471 0.0080795615 0.0061128341         3957 
 4550000    0.5241836   -9.6766214    441.17298 0.0080800912 0.0061104079         3965 
 4551000   0.52183545   -9.6859048    440.64899  0.008068721 0.0061079842         3960 
 4552000   0.52962618   -9.6720877    440.41755 0.0080627114 0.0061055635         3968 
 4553000   0.52232468   -9.6825373    441.49866 0.0080807282 0.0061031421         3966 
 4554000   0.52164771   -9.6787182    440.48332  0.008060374 0.0061007219         3964 
 4555000   0.52908143   -9.6919556    441.19365 0.0080715999 0.0060983036         3948 
 4556000   0.51809767   -9.6795803    440.70276 0.0080608494 0.0060958871         3950 
 4557000   0.52558847   -9.6938168    440.94135 0.0080634437 0.0060934725         3967 
 4558000   0.52133528   -9.6819374    440.61697 0.0080557439 0.0060910569         3962 
 4559000   0.52224191   -9.6968413    441.29786 0.0080664229 0.0060886435         3966 
 4560000   0.53158126   -9.6911905    440.44156 0.0080490052 0.0060862314         3964 
 4561000   0.51722572    -9.690761    440.96409 0.0080567875 0.0060838208         3954 
 4562000   0.52384286   -9.7057279    440.50711 0.0080466737 0.0060814115         3948 
 4563000   0.52928879   -9.6845689    440.66416 0.0080477785 0.0060790024         3951 
 4564000   0.53154487   -9.6941699    440.91589 0.0080506114 0.0060765962         3959 
 4565000   0.51950403   -9.7035505    439.90497 0.0080303937 0.0060741893         3960 
 4566000   0.51792181   -9.6863729    440.55716  0.008040538 0.0060717857         3958 
 4567000   0.51468358   -9.7153365    440.27843 0.0080336916 0.0060693822         3960 
 4568000   0.52626083   -9.6839167    441.43227 0.0080529821 0.0060669812         3964 
 4569000   0.52571203   -9.6868199    440.36391  0.008031734 0.0060645801         3955 
 4570000   0.52455899   -9.7053295    440.96563 0.0080409488 0.0060621821         3960 
 4571000   0.52700495   -9.6996034    441.26722 0.0080446879 0.0060597852         3954 
 4572000    0.5255169   -9.6924561    440.33179 0.0080258783 0.0060573889         3967 
 4573000   0.51488476   -9.6956705    440.52158 0.0080275818 0.0060549936         3960 
 4574000   0.51715761   -9.7078388     440.3802 0.0080232509 0.0060525977         3956 
 4575000   0.51808905   -9.7113494     440.1811 0.0080178706 0.0060502049         3958 
 4576000   0.51321203   -9.6972545    440.78973 0.0080272022 0.0060478137         3954 
 4577000   0.52095818   -9.6910838    440.93241 0.0080280462  0.006045422         3957 
 4578000   0.51894493   -9.6881829    440.92641 0.0080261834 0.0060430329         3954 
 4579000   0.51947826   -9.7027914    440.40513 0.0080149438 0.0060406455         3967 
 4580000   0.51249084   -9.6987785     440.5613 0.0080160352 0.0060382591         3952 
 4581000   0.51118696   -9.6997684    440.84552 0.0080194557 0.0060358749         3960 
 4582000   0.52395136   -9.7031124    440.96562 0.0080198897 0.0060334894         3946 
 4583000   0.52949474   -9.6832671    440.63742 0.0080121722 0.0060311067         3944 
 4584000   0.51707178   -9.7081369    440.39817  0.008006075 0.0060287258         3963 
 4585000   0.52429701   -9.6932486    440.58056 0.0080076437 0.0060263442         3959 
 4586000   0.52662724   -9.7079334    440.44675 0.0080034661 0.0060239639         3960 
 4587000   0.51711901   -9.6995509    441.12563 0.0080140547 0.0060215856         3960 
 4588000   0.52069073   -9.7001617    441.41814 0.0080176209   0.00601921         3957 
 4589000   0.52117201   -9.6946107    440.15365 0.0079929115 0.0060168367         3957 
 4590000   0.50371989   -9.7007476    441.03787 0.0080072236 0.0060144629         3963 
 4591000   0.50163939   -9.6940511    440.00869 0.0079867982 0.0060120889         3951 
 4592000   0.52539219   -9.7116624    441.15736 0.0080059045 0.0060097173         3965 
 4593000   0.50802927    -9.713088    440.49755 0.0079921901 0.0060073459         3960 
 4594000   0.51350451   -9.7086069    440.00218 0.0079814646 0.0060049774         3954 
 4595000   0.51779715    -9.692423    440.60303 0.0079906244 0.0060026101         3959 
 4596000   0.50918554   -9.6883123    441.57581  0.008006524 0.0060002425         3952 
 4597000   0.50791555   -9.7059427    440.17789 0.0079794411 0.0059978797         3958 
 4598000   0.52037702   -9.7043516    440.70016 0.0079871713 0.0059955159         3966 
 4599000   0.50687192    -9.691308     440.1455 0.0079753841 0.0059931542         3962 
 4600000   0.52074682   -9.7100929    440.08411 0.0079725382 0.0059907939         3958 
 4601000   0.51331801   -9.7251662    440.65402 0.0079811277 0.0059884325         3948 
 4602000   0.50583974    -9.710906    440.43685 0.0079754608 0.0059860734         3953 
 4603000   0.52036081   -9.7005076    440.41492 0.0079733312 0.0059837173         3971 
 4604000   0.51100834   -9.7018199     440.2871 0.0079692858 0.0059813616         3964 
 4605000   0.52026646   -9.7042836    440.60401 0.0079732902 0.0059790058         3960 
 4606000    0.5150169   -9.7056325    440.71353 0.0079735404 0.0059766539         3962 
 4607000   0.50624791    -9.706176    440.21843 0.0079628541 0.0059743001         3956 
 4608000   0.51051922   -9.7077365    440.31097 0.0079627996 0.0059719501         3965 
 4609000    0.5121906   -9.7024513    440.35016 0.0079617806 0.0059695991         3957 
 4610000   0.51150106   -9.6970071    440.32082 0.0079595232  0.005967249         3962 
 4611000   0.51804206   -9.7047673    441.12907 0.0079724042  0.005964901         3954 
 4612000   0.51163778   -9.7154648    440.88699 0.0079663015  0.005962556         3960 
 4613000   0.50450914   -9.7145737    440.71319  0.007961435 0.0059602126         3953 
 4614000    0.5078673   -9.6998635    440.60792 0.0079578081 0.0059578679         3962 
 4615000   0.51072238   -9.7137881    440.39549 0.0079522479 0.0059555254         3959 
 4616000   0.52071194   -9.7035786    440.55244 0.0079533586 0.0059531837         3966 
 4617000   0.50695541   -9.6967275    440.23993 0.0079459954 0.0059508434         3958 
 4618000   0.51256135   -9.7004689    441.33209 0.0079639832  0.005948506         3958 
 4619000   0.51794272   -9.7125668    440.48165 0.0079469158  0.005946171         3962 
 4620000   0.50092003   -9.6978347    440.67975 0.0079487689 0.0059438346         3961 
 4621000   0.52230146     -9.69862    440.54701  0.007944655 0.0059415015         3957 
 4622000   0.51324718    -9.702235    440.44648 0.0079411236 0.0059391692         3970 
 4623000   0.50962787   -9.7109818    440.18082 0.0079346171  0.005936838         3960 
 4624000    0.5163719   -9.7050869    440.76168 0.0079433693 0.0059345083         3953 
 4625000   0.51387265    -9.681781    440.37703 0.0079347212 0.0059321789         3967 
 4626000     0.507132    -9.710416    440.47184 0.0079347139 0.0059298526         3966 
 4627000   0.50298003   -9.7034898    440.71802 0.0079374328 0.0059275254         3962 
 4628000    0.5138657   -9.7055076    439.93596 0.0079216356 0.0059252004         3957 
 4629000   0.51643079   -9.7099997    440.29983  0.007926475 0.0059228765         3959 
 4630000   0.50993973   -9.6990038     440.4589  0.007927626 0.0059205543         3966 
 4631000   0.50094475   -9.7184729    440.66307  0.007929588  0.005918231         3955 
 4632000   0.51316725   -9.7054341    440.77988 0.0079299777 0.0059159092         3949 
 4633000   0.50063466    -9.697044    440.62045 0.0079253984 0.0059135875         3963 
 4634000   0.49627735   -9.7113653    440.53848 0.0079222141 0.0059112683         3958 
 4635000   0.50379073   -9.7100606    440.67178 0.0079229015 0.0059089506         3961 
 4636000   0.51209785   -9.7152928    440.07923 0.0079105412  0.005906635         3960 
 4637000   0.50389602   -9.7277058     440.3314 0.0079133671 0.0059043188         3957 
 4638000   0.51545053   -9.7129439    440.43876   0.00791359 0.0059020049         3958 
 4639000   0.50064066     -9.71192    439.71032 0.0078987985 0.0058996929         3967 
 4640000   0.50815078   -9.7014146    439.99338   0.00790218 0.0058973806         3961 
 4641000   0.50348659   -9.7225205    440.24346 0.0079049676 0.0058950716         3953 
 4642000   0.50449996   -9.7133735    440.62723 0.0079101542 0.0058927631         3958 
 4643000   0.51459863    -9.710802    440.09907  0.007898971 0.0058904558         3953 
 4644000   0.51259794   -9.7247712     439.6042 0.0078883901 0.0058881498         3967 
 4645000   0.50819168   -9.7181368      439.996 0.0078937208  0.005885844         3962 
 4646000   0.51063615    -9.711583     441.2147 0.0079138812 0.0058835406         3959 
 4647000    0.5037683   -9.7096471    440.24128  0.007894722 0.0058812377         3966 
 4648000   0.51021386    -9.721604     440.7725 0.0079025476  0.005878936         3965 
 4649000   0.52614149   -9.7104367    439.95613 0.0078862145 0.0058766354         3971 
 4650000   0.51465344   -9.7194073    440.17544 0.0078884487 0.0058743364         3971 
 4651000    0.5024946   -9.7102047    440.13093 0.0078859551 0.0058720387         3971 
 4652000   0.50686495   -9.7115911    440.15246 0.0078846457 0.0058697435         3966 
 4653000   0.50939527   -9.7155248     440.8967 0.0078962802 0.0058674476         3964 
 4654000   0.50760161   -9.7116951    440.20942 0.0078822772 0.0058651535         3951 
 4655000   0.50028856    -9.725405    440.81695 0.0078914599 0.0058628618         3961 
 4656000   0.50455447   -9.7180912    440.19851 0.0078786961 0.0058605714         3958 
 4657000   0.50162099   -9.7114633    440.78783 0.0078875497 0.0058582815         3956 
 4658000    0.5174533   -9.7122409    440.30892 0.0078772885 0.0058559929         3945 
 4659000   0.50311397   -9.7172929    439.79935 0.0078664833 0.0058537043         3961 
 4660000   0.49373241   -9.7188838    440.56177 0.0078784294  0.005851417         3963 
 4661000   0.50942636   -9.7079621     439.9488   0.00786578 0.0058491315         3951 
 4662000   0.50568101   -9.7224554    439.92875 0.0078637343 0.0058468453         3952 
 4663000   0.50418723     -9.71037     439.9026 0.0078615806 0.0058445634         3959 
 4664000   0.50394857    -9.720609    440.18907 0.0078650133 0.0058422821         3959 
 4665000   0.50103091   -9.7385384    440.42711 0.0078675796 0.0058400015         3960 
 4666000   0.51211837   -9.7222377    439.73774 0.0078535815 0.0058377214         3957 
 4667000   0.50260253   -9.7186448    440.25456 0.0078611271 0.0058354433         3960 
 4668000   0.51126756   -9.7142763    440.42763 0.0078625326 0.0058331655         3952 
 4669000     0.506949    -9.707485    440.09939 0.0078549902 0.0058308905         3960 
 4670000   0.51084982   -9.7230401     440.5475 0.0078613044 0.0058286163         3962 
 4671000   0.49507952   -9.7268368    439.42286 0.0078395572 0.0058263418         3966 
 4672000   0.51421848   -9.7221737    439.72153 0.0078432065 0.0058240681         3955 
 4673000   0.49270933   -9.7161631    440.42565 0.0078540846 0.0058217987         3964 
 4674000   0.50606638   -9.7195592    439.99455 0.0078447182   0.00581953         3962 
 4675000   0.50178032   -9.7075158    439.71579 0.0078380712 0.0058172605         3955 
 4676000   0.50620194   -9.7240359    441.04849 0.0078601456 0.0058149929         3952 
 4677000   0.50703038   -9.7252933    440.23135 0.0078439054 0.0058127253         3959 
 4678000    0.5042856   -9.7302428    440.07939 0.0078395216 0.0058104607         3959 
 4679000   0.50765364   -9.7215067    440.94164  0.007853203 0.0058081955         3943 
 4680000   0.49724167   -9.7320296    440.66176 0.0078465413 0.0058059339         3954 
 4681000   0.49637623   -9.7170899     440.2171  0.007836949 0.0058036742         3953 
 4682000   0.50123802   -9.7103699    439.96631 0.0078308115 0.0058014137         3958 
 4683000   0.48501988   -9.7258465    439.38612 0.0078188148 0.0057991546         3946 
 4684000   0.50010172   -9.7233634    439.95119 0.0078271989 0.0057968971         3955 
 4685000   0.50501376   -9.7086362    440.41752 0.0078338227 0.0057946394         3951 
 4686000   0.50738644   -9.7256349    439.46938 0.0078152899 0.0057923835         3962 
 4687000   0.49922526   -9.7174021    439.81243 0.0078197218 0.0057901304         3950 
 4688000   0.50108698   -9.7144086    439.12202  0.007805781 0.0057878778         3964 
 4689000   0.50938732   -9.7208786    439.77794 0.0078157735 0.0057856243         3958 
 4690000   0.50685323   -9.7352634      440.853 0.0078332089 0.0057833733         3961 
 4691000   0.49844635   -9.7207332    440.01462 0.0078166457 0.0057811241         3965 
 4692000   0.50241731   -9.7069625    440.38017 0.0078214723 0.0057788761         3956 
 4693000   0.49807168   -9.7148608    440.01052 0.0078132417 0.0057766278         3960 
 4694000   0.50185866   -9.7250687    440.53655 0.0078209159 0.0057743813         3956 
 4695000    0.5070314   -9.7072636     439.4635 0.0078002041 0.0057721359         3966 
 4696000   0.49833726   -9.7314006    440.66666 0.0078198939 0.0057698924         3963 
 4697000   0.50520065    -9.729953    439.82397 0.0078032782 0.0057676495         3964 
 4698000   0.50258227   -9.7205876    440.35158  0.007810976 0.0057654075         3950 
 4699000   0.51115911   -9.7188479     440.3326 0.0078089771 0.0057631668         3957 
 4700000   0.50270227   -9.7102823    440.55959 0.0078113402 0.0057609286         3967 
 4701000   0.51306476   -9.7185249    440.59335 0.0078102771 0.0057586905         3962 
 4702000   0.50756768   -9.7231979    439.57463 0.0077905613 0.0057564556         3964 
 4703000   0.50337494   -9.7304513    439.84007 0.0077936082 0.0057542196         3965 
 4704000   0.48437961   -9.7431173     439.5068 0.0077860473 0.0057519855         3949 
 4705000   0.49895117    -9.730383    440.04949 0.0077940045 0.0057497493         3962 
 4706000   0.49946754   -9.7240251    439.59043 0.0077842193 0.0057475181         3957 
 4707000   0.49745342     -9.71612    439.71804 0.0077848248 0.0057452869         3956 
 4708000   0.51019453   -9.7184149    440.46767 0.0077964399 0.0057430555         3952 
 4709000   0.50311045   -9.7307166    440.72578  0.007799352 0.0057408271         3950 
 4710000    0.4902129   -9.7177492    439.85212 0.0077822385  0.005738598         3953 
 4711000   0.49233804   -9.7213971    440.90265 0.0077991695 0.0057363715         3954 
 4712000   0.50876185   -9.7323954     440.2988  0.007786835 0.0057341463         3957 
 4713000   0.50192021   -9.7220292     440.1069 0.0077817897 0.0057319227         3969 
 4714000   0.49660615   -9.7295488    439.82499 0.0077751555 0.0057297004         3953 
 4715000   0.50109875   -9.7124154    440.14199 0.0077791091 0.0057274806         3957 
 4716000   0.50220748   -9.7199617    440.38982 0.0077818387 0.0057252609         3948 
 4717000   0.49111628   -9.7245471    440.50307 0.0077821898 0.0057230417         3948 
 4718000   0.49676127   -9.7264434    438.85711 0.0077514679 0.0057208243         3956 
 4719000   0.49606117     -9.73946     439.9492 0.0077691107 0.0057186072         3954 
 4720000   0.48994225   -9.7262894     439.8445 0.0077656162 0.0057163902         3964 
 4721000   0.49747158   -9.7436829    439.95212 0.0077658709 0.0057141767         3956 
 4722000   0.48926436   -9.7374027    439.78733 0.0077613182 0.0057119643         3959 
 4723000    0.4893148   -9.7124628     439.3629 0.0077521862 0.0057097521         3959 
 4724000   0.49669746    -9.721412    439.88671 0.0077597853 0.0057075429         3961 
 4725000   0.49476717   -9.7285827    439.96178 0.0077594669 0.0057053342         3955 
 4726000   0.49219922   -9.7396391    439.89044 0.0077565673 0.0057031263         3965 
 4727000   0.50031069   -9.7380149    439.60086 0.0077498212 0.0057009191         3960 
 4728000   0.50049435   -9.7260697    439.88121 0.0077531234 0.0056987134         3947 
 4729000    0.5041733    -9.727678    439.85453 0.0077510137 0.0056965084         3964 
 4730000   0.49201187   -9.7345894     440.0609 0.0077530108 0.0056943048         3961 
 4731000   0.49932783   -9.7455163    439.58795 0.0077430415 0.0056921019         3959 
 4732000   0.49687898   -9.7331631    440.39954 0.0077556977  0.005689902         3965 
 4733000   0.49569459   -9.7356012    439.83807 0.0077441734 0.0056877021         3955 
 4734000   0.49470742   -9.7273344    440.05365 0.0077463324 0.0056855019         3961 
 4735000   0.49418036   -9.7435584    439.86525 0.0077413808 0.0056833038         3963 
 4736000   0.48960989   -9.7468315    439.90721 0.0077404845 0.0056811064         3959 
 4737000   0.49685368   -9.7431256    440.06813 0.0077416813 0.0056789105         3952 
 4738000   0.49385267   -9.7205395    439.58597 0.0077315669 0.0056767163         3952 
 4739000     0.499924   -9.7267649    439.19386 0.0077230404 0.0056745201         3954 
 4740000   0.49833531   -9.7375725     439.7988 0.0077320464 0.0056723261         3955 
 4741000   0.49965349   -9.7368361    440.17706 0.0077370642 0.0056701349         3962 
 4742000   0.49288313   -9.7388491    439.24919 0.0077191268 0.0056679446         3954 
 4743000   0.49954013   -9.7411953    438.66377 0.0077072136 0.0056657552         3953 
 4744000   0.49966272   -9.7376029    439.17745 0.0077146123 0.0056635676         3954 
 4745000   0.49311117   -9.7441273     439.7918 0.0077237759 0.0056613816         3955 
 4746000    0.4947294   -9.7354201    439.44683 0.0077160912 0.0056591944         3959 
 4747000   0.49567713   -9.7530148    439.86066 0.0077217306 0.0056570098         3964 
 4748000   0.49095575   -9.7192039     440.3643 0.0077289438 0.0056548273         3947 
 4749000   0.48193809   -9.7229346    440.08003  0.007722328  0.005652644         3956 
 4750000   0.49173405   -9.7333746    439.99259 0.0077191682 0.0056504629         3955 
 4751000   0.49122854   -9.7339718    439.81998 0.0077145158 0.0056482834         3959 
 4752000   0.49048461   -9.7404132    439.78502 0.0077122794 0.0056461051         3955 
 4753000   0.48696434   -9.7462958     439.3309 0.0077026947  0.005643927         3967 
 4754000   0.49534657   -9.7357465    439.71937  0.007707884 0.0056417491         3953 
 4755000   0.48722665   -9.7331953    439.59598 0.0077041005 0.0056395734         3961 
 4756000   0.49182054   -9.7404714      440.042 0.0077102958 0.0056373984         3963 
 4757000   0.49551645   -9.7389801    439.37081 0.0076969171 0.0056352249         3957 
 4758000   0.49276944   -9.7365213    440.24536 0.0077106165 0.0056330515         3960 
 4759000    0.4921255   -9.7393777    439.33619  0.007693076 0.0056308806         3965 
 4760000   0.48066066   -9.7490397    439.78891 0.0076993856 0.0056287106         3957 
 4761000   0.48099542   -9.7516995    440.00877 0.0077016167 0.0056265419         3967 
 4762000   0.49097595   -9.7319241    439.57094 0.0076923376 0.0056243744         3955 
 4763000   0.49150744   -9.7267923    440.19191 0.0077015871 0.0056222077         3961 
 4764000   0.48071484   -9.7288761    439.89006 0.0076946904 0.0056200439         3957 
 4765000   0.50227858   -9.7480127    440.14623 0.0076975556 0.0056178792         3965 
 4766000   0.48874969    -9.715011    440.08486 0.0076948674 0.0056157153         3964 
 4767000   0.49436487   -9.7426946    439.97123 0.0076912669 0.0056135533         3961 
 4768000    0.4757455   -9.7269453    439.37451 0.0076792245 0.0056113909         3972 
 4769000   0.49402009    -9.747995    439.92635 0.0076872571 0.0056092307         3967 
 4770000   0.48674032   -9.7371744    440.12979 0.0076891997 0.0056070719         3954 
 4771000   0.49496955   -9.7506966    439.44617 0.0076756475 0.0056049151         3953 
 4772000    0.4909043    -9.747202    439.53433 0.0076755786 0.0056027582         3967 
 4773000   0.49223525   -9.7379609    439.42115 0.0076719944 0.0056006024         3968 
 4774000   0.49115531   -9.7353171    440.11739 0.0076825406 0.0055984488         3969 
 4775000     0.483689   -9.7353977    440.25811 0.0076833876 0.0055962962         3960 
 4776000   0.49280192   -9.7396247    439.11226 0.0076617856 0.0055941445         3971 
 4777000   0.48044763   -9.7290727    439.84167 0.0076729062 0.0055919933         3961 
 4778000   0.48885195    -9.732985    439.88949 0.0076721342 0.0055898423         3957 
 4779000   0.48826065    -9.740594    439.54812 0.0076645763 0.0055876955         3957 
 4780000   0.48452416   -9.7203291     439.3482 0.0076594874  0.005585547         3962 
 4781000   0.47787159   -9.7419286    439.88098 0.0076671717 0.0055834015         3955 
 4782000   0.48284828   -9.7336168    439.57426 0.0076602234 0.0055812571         3958 
 4783000   0.47856076   -9.7448808    440.07319 0.0076673146 0.0055791132         3952 
 4784000   0.48237066    -9.739855    440.12404 0.0076665977 0.0055769697         3959 
 4785000   0.48651857   -9.7387056     439.3528 0.0076515639 0.0055748289         3964 
 4786000    0.4919576   -9.7545521    439.43221 0.0076513479 0.0055726878         3967 
 4787000   0.47808544   -9.7305747      439.234 0.0076462991  0.005570548         3973 
 4788000   0.48790497   -9.7458305    439.43936 0.0076482763 0.0055684092         3966 
 4789000   0.48220308    -9.727866    439.73954 0.0076519025 0.0055662705         3960 
 4790000   0.47832833   -9.7311672    440.05145 0.0076557315 0.0055641353         3956 
 4791000   0.48053815   -9.7388723    439.44697 0.0076436194 0.0055620014         3959 
 4792000   0.49139009   -9.7325224    439.68573 0.0076461764 0.0055598667         3960 
 4793000   0.48028873   -9.7403788    439.68361 0.0076445443 0.0055577341         3960 
 4794000    0.4937587   -9.7397855    439.27241 0.0076358018 0.0055556032         3958 
 4795000   0.48969807   -9.7422833    440.09629 0.0076485277 0.0055534752         3954 
 4796000   0.48136731   -9.7430545    439.68788 0.0076398368 0.0055513464         3969 
 4797000   0.48303236   -9.7530914    439.60705 0.0076368399 0.0055492168         3966 
 4798000   0.48199971    -9.749944    439.52726 0.0076338623 0.0055470895         3952 
 4799000   0.48817103   -9.7421385    439.10411 0.0076249237 0.0055449632         3966 
 4800000   0.48458266   -9.7431897    440.03403 0.0076394796 0.0055428393         3965 
 4801000   0.48762433   -9.7515172    439.28136 0.0076248239 0.0055407152         3964 
 4802000   0.47826079   -9.7561513    439.66103  0.007629825 0.0055385924         3959 
 4803000    0.4846331   -9.7579311    438.98613 0.0076165266 0.0055364704         3961 
 4804000   0.48249815   -9.7706467    439.06675 0.0076163396 0.0055343495         3963 
 4805000   0.49020882   -9.7547597    440.30604 0.0076362476   0.00553223         3970 
 4806000   0.47739902   -9.7450316    439.28102 0.0076168854 0.0055301131         3964 
 4807000   0.49081543   -9.7415739     439.3381 0.0076162905  0.005527997         3965 
 4808000   0.49397394   -9.7540687    439.82676 0.0076231759 0.0055258824         3968 
 4809000   0.47572982   -9.7549672    439.20052 0.0076107389  0.005523766         3948 
 4810000   0.48042311   -9.7360316    439.04542 0.0076064694 0.0055216518         3957 
 4811000   0.48055018   -9.7400441     439.4683 0.0076122133 0.0055195378         3963 
 4812000   0.48295887   -9.7391901    439.62663 0.0076133733 0.0055174265         3961 
 4813000   0.47844382   -9.7551927    439.15539 0.0076036324 0.0055153162         3956 
 4814000   0.48033329   -9.7677142    439.93729  0.007615588 0.0055132075         3963 
 4815000    0.4787659   -9.7391139    439.42349  0.007605114 0.0055110998         3964 
 4816000   0.48808103   -9.7535689    439.15504 0.0075988897 0.0055089913         3964 
 4817000   0.47271789    -9.748178     439.7548 0.0076076881 0.0055068846         3958 
 4818000   0.47858675   -9.7610544    439.18946 0.0075963308 0.0055047803         3951 
 4819000    0.4741525   -9.7617124    438.82116 0.0075883856 0.0055026763         3963 
 4820000   0.48967881   -9.7573679     440.2397 0.0076113364 0.0055005744         3963 
 4821000   0.48137761    -9.740932    439.34123 0.0075942271 0.0054984726         3970 
 4822000    0.4825154   -9.7376159    439.74191 0.0075995767 0.0054963718         3966 
 4823000   0.47477512   -9.7552922     438.5589 0.0075775606 0.0054942721         3972 
 4824000   0.48008841   -9.7581652    439.33123 0.0075893317 0.0054921731         3960 
 4825000   0.48655933   -9.7572488    439.92195 0.0075979611 0.0054900768         3963 
 4826000   0.48761832     -9.75518    439.31733 0.0075859465 0.0054879809         3956 
 4827000   0.47770783   -9.7416025    439.41395  0.007586043 0.0054858865         3959 
 4828000   0.48935196   -9.7503571    439.42311 0.0075846298  0.005483793         3956 
 4829000   0.47935206   -9.7641392    439.76529  0.007588964 0.0054817008         3961 
 4830000   0.47895011   -9.7673474    439.45386 0.0075820197 0.0054796095         3963 
 4831000   0.47923986   -9.7573969    439.28977 0.0075776198 0.0054775194         3960 
 4832000   0.47968127   -9.7556401    439.97744 0.0075879112 0.0054754285         3969 
 4833000   0.47583217   -9.7535238    439.30385 0.0075747267 0.0054733386         3960 
 4834000   0.48078872   -9.7637277    438.53899 0.0075599744 0.0054712502         3953 
 4835000   0.46713073   -9.7776102    438.97012 0.0075658414  0.005469163         3971 
 4836000   0.47644445   -9.7494494    439.98476 0.0075817611 0.0054670776         3955 
 4837000   0.47186369      -9.7689    439.41273 0.0075703385 0.0054649924         3963 
 4838000   0.46722473   -9.7634717    439.33419 0.0075674209 0.0054629095         3965 
 4839000    0.4791265   -9.7494061    439.47098 0.0075682128 0.0054608282         3961 
 4840000   0.47758318    -9.765494    439.64398 0.0075696277 0.0054587473         3949 
 4841000   0.47794641   -9.7537149    439.76994 0.0075702324 0.0054566669         3948 
 4842000   0.48602192   -9.7649082    438.86565 0.0075531057 0.0054545877         3961 
 4843000   0.48556477    -9.759239    439.54837 0.0075632937   0.00545251         3960 
 4844000    0.4783637   -9.7608558    439.53413 0.0075614872 0.0054504327         3957 
 4845000   0.47571492   -9.7593321     438.9879 0.0075505316 0.0054483568         3962 
 4846000   0.47749972   -9.7568223    439.24581 0.0075534085 0.0054462828         3967 
 4847000   0.47950445   -9.7635343    439.77956 0.0075610268 0.0054442098         3959 
 4848000   0.47277545   -9.7689681    439.15116 0.0075486653  0.005442136         3960 
 4849000   0.47819901   -9.7654568    439.11024 0.0075464054  0.005440064         3965 
 4850000   0.48450896   -9.7711751    439.07928 0.0075443175 0.0054379938         3962 
 4851000   0.47608678   -9.7640519    439.37849 0.0075479023  0.005435926         3964 
 4852000   0.46824582   -9.7677513    438.43873 0.0075302062 0.0054338571         3956 
 4853000   0.47838793    -9.771454    439.55351 0.0075477971 0.0054317898         3954 
 4854000   0.48027809    -9.767459    439.07921 0.0075380993  0.005429725         3950 
 4855000   0.48450264   -9.7292999    440.10857  0.007554215 0.0054276621         3948 
 4856000   0.48094796   -9.7555855    439.59199 0.0075437945 0.0054256001         3963 
 4857000   0.47042466   -9.7656967    439.25215 0.0075364105 0.0054235376         3955 
 4858000   0.47276144   -9.7563969    438.62546  0.007524109 0.0054214762         3962 
 4859000   0.46720521   -9.7675518    439.48337 0.0075372739  0.005419416         3952 
 4860000   0.46908415   -9.7577014    438.99152 0.0075272895 0.0054173578         3965 
 4861000    0.4804293   -9.7544635    439.23551 0.0075299236 0.0054152997         3954 
 4862000   0.48018429   -9.7577103    439.18359 0.0075274851  0.005413241         3953 
 4863000   0.48071819   -9.7533918    439.47066 0.0075308564 0.0054111851         3962 
 4864000    0.4755057   -9.7825245    438.74941 0.0075169513 0.0054091311         3970 
 4865000   0.47536947   -9.7728357    439.23726 0.0075237626  0.005407076         3956 
 4866000   0.47475095   -9.7800463    439.43873 0.0075256668 0.0054050235         3960 
 4867000   0.47900242   -9.7586226    439.83706 0.0075309407 0.0054029709         3963 
 4868000   0.46349648   -9.7850035      439.381 0.0075215866 0.0054009202         3958 
 4869000   0.47026358   -9.7658489    439.10868  0.007515381 0.0053988685         3966 
 4870000   0.47070728   -9.7842739    438.84768 0.0075093717   0.00539682         3955 
 4871000   0.47627794    -9.762859    439.24315 0.0075145957 0.0053947711         3970 
 4872000    0.4672525   -9.7705012    439.81081 0.0075227628  0.005392724         3967 
 4873000   0.46904643   -9.7685853    438.87318 0.0075051846 0.0053906773         3963 
 4874000   0.47261091   -9.7671684    439.49082 0.0075142049 0.0053886327         3969 
 4875000   0.47228265   -9.7543968    438.73789 0.0074997931 0.0053865879         3948 
 4876000    0.4814155   -9.7813856    438.73562  0.007498216 0.0053845452         3963 
 4877000   0.47655975   -9.7764922    438.74193 0.0074967864 0.0053825033         3957 
 4878000   0.47270192   -9.7564103     440.2855 0.0075216192 0.0053804629         3956 
 4879000   0.47404787   -9.7698676    439.07816 0.0074994561 0.0053784229         3964 
 4880000   0.46269389   -9.7482738    438.94451 0.0074956371 0.0053763843         3960 
 4881000   0.46650796   -9.7722945    439.32599 0.0075006145 0.0053743458         3961 
 4882000   0.46082636   -9.7756423     439.3694  0.007499819 0.0053723096         3959 
 4883000   0.46551299    -9.759571    439.04371 0.0074927249 0.0053702748         3952 
 4884000   0.45555557   -9.7657397    438.79441 0.0074869371 0.0053682398         3967 
 4885000   0.47788575   -9.7601577    439.22475 0.0074927457 0.0053662059         3968 
 4886000   0.47014723   -9.7827888    439.14732 0.0074898915 0.0053641725         3961 
 4887000   0.47072371   -9.7612067     439.3702 0.0074921595 0.0053621408         3951 
 4888000    0.4741802   -9.7686306    439.04604 0.0074851003 0.0053601111         3968 
 4889000   0.47318424   -9.7811098    438.60952 0.0074761287  0.005358082         3958 
 4890000   0.46555527   -9.7560889    439.54295  0.007490507 0.0053560551         3963 
 4891000   0.46417577    -9.759297    439.09825 0.0074813986 0.0053540289         3958 
 4892000   0.48641637   -9.7577369    439.57503 0.0074879911 0.0053520032         3963 
 4893000   0.48102715   -9.7646769    438.90527 0.0074750541 0.0053499785         3966 
 4894000   0.46563822   -9.7826123    439.13986 0.0074775212 0.0053479527         3959 
 4895000   0.46033017   -9.7794801    438.99555 0.0074735367 0.0053459284         3961 
 4896000   0.46426441   -9.7673669    439.27026 0.0074766861 0.0053439058         3968 
 4897000     0.471352    -9.756451     439.0235 0.0074709601 0.0053418854         3969 
 4898000   0.47249044   -9.7867406    438.81384 0.0074658677 0.0053398651         3962 
 4899000   0.47710273   -9.7863347    438.71123 0.0074625983 0.0053378458         3962 
 4900000     0.480222    -9.788743    439.81215 0.0074797985 0.0053358284         3962 
 4901000   0.47142969   -9.7752777    439.01795 0.0074647683 0.0053338112         3956 
 4902000   0.45994765    -9.772983    439.87529 0.0074778201 0.0053317952         3959 
 4903000   0.46235091   -9.7682309    438.60305 0.0074546714 0.0053297819         3961 
 4904000   0.45901075   -9.7809622    438.98529 0.0074596466 0.0053277695         3958 
 4905000   0.46682623   -9.7753061    438.88847  0.007456481 0.0053257548         3955 
 4906000   0.46611488   -9.7791414    439.05696 0.0074578231  0.005323745         3957 
 4907000   0.46619263   -9.7748535    438.92038 0.0074539838 0.0053217331         3955 
 4908000   0.46305033   -9.7717134    438.11452 0.0074387823 0.0053197232         3965 
 4909000   0.46542707   -9.7852966    439.33388 0.0074579664 0.0053177153         3967 
 4910000   0.45710759   -9.7684316    438.88534 0.0074488347 0.0053157067         3964 
 4911000   0.45817181   -9.7770353    439.01376 0.0074494971 0.0053137001         3953 
 4912000   0.47451014   -9.7766418    438.60206 0.0074409959 0.0053116948         3965 
 4913000    0.4619451    -9.775197    439.00831  0.007446372 0.0053096906         3958 
 4914000    0.4752117   -9.7797496    439.42188 0.0074518701 0.0053076869         3966 
 4915000   0.47236868   -9.7863345    438.52608 0.0074351659 0.0053056843         3957 
 4916000   0.46079037   -9.7747026    438.82454 0.0074387127 0.0053036837         3965 
 4917000   0.46593456   -9.7724491    439.06862 0.0074413365 0.0053016841         3965 
 4918000   0.46723013   -9.7789652    439.20928 0.0074422069 0.0052996838         3961 
 4919000   0.46524011   -9.7699505    438.76995 0.0074332512 0.0052976855         3961 
 4920000   0.46665302   -9.7768559    438.56177 0.0074282143 0.0052956893         3969 
 4921000   0.47804209   -9.7706675    438.65057 0.0074282085 0.0052936946         3962 
 4922000   0.46410335   -9.7721034    439.16848  0.007435468 0.0052916999         3970 
 4923000   0.48375562   -9.7788026    439.42139 0.0074382387 0.0052897056         3958 
 4924000   0.46824395   -9.7744455    438.59326  0.007422713 0.0052877124         3960 
 4925000    0.4623042   -9.7758496    439.20995 0.0074316405 0.0052857201         3959 
 4926000   0.47098011    -9.772755    439.34252 0.0074323745   0.00528373         3965 
 4927000    0.4648557   -9.7622964      439.065 0.0074261722 0.0052817397         3960 
 4928000    0.4591117   -9.7769514    438.63888 0.0074174593 0.0052797513         3962 
 4929000   0.46434715   -9.7738113    437.94914 0.0074042932 0.0052777641         3963 
 4930000   0.46313104   -9.7809166    438.75364 0.0074163902 0.0052757768         3963 
 4931000   0.46602386   -9.7842228    438.85207 0.0074165495 0.0052737906         3961 
 4932000   0.46196797   -9.7852865    438.55408 0.0074100108  0.005271807         3955 
 4933000   0.46602677    -9.785465    438.41638 0.0074061826 0.0052698243         3961 
 4934000    0.4624552   -9.7742412    438.77667 0.0074107667 0.0052678425         3964 
 4935000   0.45943533   -9.7599672    438.71478 0.0074082199 0.0052658609         3962 
 4936000   0.46446293   -9.7773115    438.85619 0.0074091064 0.0052638792         3964 
 4937000    0.4727834   -9.7664297    439.01214  0.007410238 0.0052618997         3956 
 4938000   0.45901371     -9.75829    438.19974 0.0073950273 0.0052599205         3959 
 4939000   0.46425036   -9.7698581    439.14626 0.0074095003 0.0052579439         3959 
 4940000   0.46634195   -9.7757418    438.67874 0.0074001138 0.0052559667         3957 
 4941000   0.46413196   -9.7886864     438.4663 0.0073950331 0.0052539902         3963 
 4942000    0.4517526   -9.7839038    438.54396 0.0073948463 0.0052520161         3958 
 4943000   0.44946753   -9.7858566     438.9734   0.00740059 0.0052500424         3963 
 4944000   0.45913543   -9.7816695    438.75339 0.0073953848 0.0052480686         3965 
 4945000   0.46426959   -9.7775035    439.03572  0.007398647 0.0052460961         3970 
 4946000   0.45930563   -9.7680801     438.7702 0.0073926776 0.0052441255         3959 
 4947000   0.46126309    -9.786876    438.68988 0.0073898302 0.0052421553         3969 
 4948000   0.46150808   -9.7749442    439.68565 0.0074051072 0.0052401868         3963 
 4949000    0.4674102    -9.771101    438.98399 0.0073917961 0.0052382201         3961 
 4950000   0.45812432   -9.7872616    438.94825 0.0073897011 0.0052362524         3961 
 4951000    0.4582712   -9.7813911    438.14568 0.0073747001 0.0052342861         3954 
 4952000   0.45745896   -9.7904929    438.84651 0.0073850045 0.0052323217         3962 
 4953000   0.44761049   -9.7846792    438.17654 0.0073722413 0.0052303569         3964 
 4954000   0.46569362   -9.7926429    438.85771 0.0073822115 0.0052283942         3965 
 4955000   0.45701233   -9.7884378    438.52301 0.0073750926 0.0052264316         3954 
 4956000   0.45572022   -9.7858616    438.71583 0.0073768467 0.0052244712         3958 
 4957000   0.45927264    -9.783973    439.01632 0.0073804101 0.0052225109         3957 
 4958000   0.45162043   -9.7679121    438.64645 0.0073727049 0.0052205512         3957 
 4959000   0.46047281   -9.7764857    438.65858 0.0073714221 0.0052185937         3947 
 4960000   0.46048984   -9.7946642    439.18795 0.0073788298 0.0052166362         3971 
 4961000   0.45808785   -9.7991129    438.60256 0.0073675093 0.0052146806         3965 
 4962000   0.44722729   -9.7864065    439.37428  0.007378985 0.0052127259         3964 
 4963000   0.46889714   -9.7986292    438.38172 0.0073608322 0.0052107721         3956 
 4964000   0.44778016   -9.7811011    438.85949 0.0073673698 0.0052088202         3964 
 4965000    0.4594566   -9.7904416    438.49536 0.0073597745 0.0052068671         3961 
 4966000   0.45295832   -9.8076194     438.4721 0.0073579021 0.0052049164         3959 
 4967000   0.45795814    -9.788584    438.44408 0.0073559507 0.0052029657         3967 
 4968000   0.45473775   -9.8042756    438.26317 0.0073514353 0.0052010159         3971 
 4969000   0.45527045   -9.7766819    438.49434 0.0073538328  0.005199068         3966 
 4970000   0.45145238   -9.7964474    438.95956 0.0073601535 0.0051971209         3969 
 4971000   0.45858592   -9.7956955     438.5638 0.0073520385 0.0051951754         3965 
 4972000   0.45515547   -9.8006081    438.86737 0.0073556477 0.0051932315         3964 
 4973000   0.43967634   -9.7848988     438.3135 0.0073448874 0.0051912866         3953 
 4974000   0.45829702   -9.7782949      438.624 0.0073486127 0.0051893432         3950 
 4975000   0.44775525   -9.7871265    438.90229 0.0073517972  0.005187402         3954 
 4976000   0.45512436   -9.7909284    438.88342 0.0073500036 0.0051854612         3968 
 4977000   0.45623406   -9.7823979    438.65563 0.0073447128 0.0051835209         3961 
 4978000   0.44283448   -9.7890872    438.73343 0.0073445399 0.0051815804         3953 
 4979000   0.45152124   -9.7892178    438.63147 0.0073413582 0.0051796422         3964 
 4980000   0.45469741   -9.7824794    439.08117 0.0073474091 0.0051777052         3956 
 4981000    0.4567629   -9.7988702    438.61777 0.0073381813 0.0051757691         3962 
 4982000    0.4581753   -9.7854427    438.92538 0.0073418537 0.0051738329         3960 
 4983000   0.45621596   -9.7847303    438.33688 0.0073305384 0.0051718984         3971 
 4984000   0.44621777   -9.7951583    438.65964 0.0073344642 0.0051699632         3971 
 4985000   0.44213099   -9.7853333    438.49448 0.0073302321 0.0051680303         3968 
 4986000   0.46585496   -9.7878944     439.1941 0.0073404549 0.0051660998         3955 
 4987000   0.45229108   -9.7816959     438.4733 0.0073269384 0.0051641693         3962 
 4988000   0.46037661   -9.7921573    439.18667 0.0073373875 0.0051622395         3961 
 4989000   0.44514541   -9.7776341    439.17938 0.0073357951 0.0051603118         3967 
 4990000   0.44815533   -9.8028132    438.42061 0.0073216536 0.0051583842         3973 
 4991000   0.46813842   -9.7670624    438.91546 0.0073284489 0.0051564587         3963 
 4992000   0.45629473   -9.7960296    438.39341  0.007318266 0.0051545343         3968 
 4993000   0.44601351   -9.7798085    438.65635 0.0073211888 0.0051526096         3968 
 4994000   0.44869725   -9.7964612    438.51382 0.0073173444  0.005150686         3953 
 4995000   0.44372288   -9.7913376    438.41159  0.007314174 0.0051487636         3962 
 4996000   0.45517836   -9.8028637     438.6453 0.0073166082 0.0051468417         3964 
 4997000   0.45278872   -9.8040236    438.46785 0.0073121849 0.0051449202         3954 
 4998000   0.44618059   -9.7972691    438.78874 0.0073160721 0.0051430009         3966 
 4999000   0.45143691   -9.7825831    439.06184 0.0073191612 0.0051410824         3964 
 5000000   0.44460691   -9.7894461    438.15802 0.0073026337 0.0051391647         3965 
 5001000   0.45748758   -9.7836217    438.44963 0.0073060327 0.0051372478         3962 
 5002000   0.44296172   -9.8081482    438.97506 0.0073133257  0.005135332         3951 
 5003000    0.4481024   -9.7890001     438.6717 0.0073068109 0.0051334173         3961 
 5004000   0.45368031   -9.8005954    437.89162 0.0072923599 0.0051315044         3972 
 5005000   0.44451391    -9.793742    438.16977 0.0072955339  0.005129591         3960 
 5006000   0.44960979   -9.8040714    438.35146 0.0072971011 0.0051276803         3952 
 5007000   0.45691619   -9.7995246    438.02482 0.0072902074 0.0051257697         3964 
 5008000   0.45376531    -9.788837     439.1896 0.0073081336 0.0051238613         3966 
 5009000   0.44493819    -9.788203    437.33702 0.0072758538 0.0051219524         3962 
 5010000   0.44981055   -9.8030119    438.01834 0.0072857342 0.0051200433         3975 
 5011000   0.45183967   -9.8002902    438.77071 0.0072967922 0.0051181362         3956 
 5012000   0.45220846   -9.7943513     437.9502 0.0072816939  0.005116231         3969 
Loop time of 13169.3 on 48 procs for 5000000 steps with 4000 atoms

Performance: 65607.229 tau/day, 379.671 timesteps/s
99.4% CPU use with 48 MPI tasks x no OpenMP threads

MPI task timing breakdown:
Section |  min time  |  avg time  |  max time  |%varavg| %total
---------------------------------------------------------------
Pair    | 936.26     | 1044.6     | 1176.1     | 186.1 |  7.93
Neigh   | 92.89      | 96.599     | 101.93     |  23.4 |  0.73
Comm    | 815.56     | 957.98     | 1071.7     | 196.2 |  7.27
Output  | 18.884     | 18.889     | 18.987     |   0.3 |  0.14
Modify  | 10871      | 10923      | 10968      |  21.7 | 82.94
Other   |            | 128.2      |            |       |  0.97

Nlocal:        83.3333 ave          90 max          77 min
Histogram: 3 2 3 8 8 9 8 4 0 3
Nghost:        2436.94 ave        2458 max        2416 min
Histogram: 5 5 2 6 3 7 7 8 3 2
Neighs:        16898.4 ave       19297 max       13664 min
Histogram: 1 0 4 8 6 7 8 1 8 5
FullNghs:      33795.2 ave       36910 max       30205 min
Histogram: 3 1 3 7 8 5 8 7 4 2

Total # of neighbors = 1622172
Ave neighs/atom = 405.54300
Neighbor list builds = 265967
Dangerous builds = 0

#clear
#
#next RN
#
#jump SELF
Total wall time: 3:39:33
