
units lj                  # Use reduced LJ style units
atom_style atomic         # Uncharged point particles
atom_modify map hash      # Needed for indexing of clusters etc
                          # Used to be able to find where atoms are in relation to each other.

lattice fcc 1.0 spacing 1 1 1
Lattice spacing in x,y,z = 1.5874011 1.5874011 1.5874011
region box block 0 10 0 10 0 10 units lattice
create_box 2 box
Created orthogonal box = (0.0000000 0.0000000 0.0000000) to (15.874011 15.874011 15.874011)
  3 by 4 by 4 MPI processor grid
create_atoms 1 box
Created 4000 atoms
  using lattice units in orthogonal box = (0.0000000 0.0000000 0.0000000) to (15.874011 15.874011 15.874011)
  create_atoms CPU = 0.002 seconds
set type 1 type/fraction 2 0.66 78393
Setting atom values ...
  2654 settings made for type/fraction
mass 1 1.0
mass 2 1.0
pair_style lj/cut  3.5
pair_modify tail  yes
pair_coeff 1  1  1.0  1.0   # Intearaction between 1 and 1 set with epsilon = 1 and sigma = 1
pair_coeff 1  2  1.5  0.8
pair_coeff 2  2  0.5  0.88

write_data data.0
System init for write_data ...
Neighbor list info ...
  update every 1 steps, delay 10 steps, check yes
  max neighbors/atom: 2000, page size: 100000
  master list distance cutoff = 3.8
  ghost atom cutoff = 3.8
  binsize = 1.9, bins = 9 9 9
  1 neighbor lists, perpetual/occasional/extra = 1 0 0
  (1) pair lj/cut, perpetual
      attributes: half, newton on
      pair build: half/bin/atomonly/newton
      stencil: half/bin/3d
      bin: standard
WARNING: Not all mixed pair coeffs generated from mixing. Use write_data with 'pair ij' option to store all pair coeffs. (../write_data.cpp:312)


#############################
#   M E L T   S Y S T E M   #
#############################

velocity all create 2.4 3143649 mom yes dist gaussian # Assign velocities
                                                    # Temperature 2.4, random number seed, zero linear momentum
                                                                                # Gaussian distribution

timestep 0.002   # simulation timestep
thermo 1000       # output thermodynamic data every 1000 steps bf 100

# Define a fix  in this case with index 1 applied to all
# particles in the simulation. This fix is for simulations
# in the anisotropic NPT ensemble. Note that we use the MTK
# correction.
fix 1 all npt temp 2.4 2.4 0.1 iso 5.68 5.68 0.5 mtk yes tchain 5 pchain 5 # Use NPT ensemble
                                                                         # Set temperature and pressure and damping
                                                                         # Numbers of thermostats in chain and in barostat
run 10000          # run for 10000 steps
Per MPI rank memory allocation (min/avg/max) = 3.642 | 3.644 | 3.648 Mbytes
Step Temp E_pair E_mol TotEng Press Volume 
       0          2.4   -4.3965799            0  -0.79747995   -3.9040118         4000 
    1000    2.3824588     -3.99791            0  -0.42511531    6.1178812    3633.1905 
    2000    2.4697565   -4.0936479            0  -0.38993927    5.7494971    3621.5764 
    3000    2.3992046   -4.0053399            0   -0.4074327    5.5935143    3668.1632 
    4000    2.3845445   -4.1199888            0  -0.54406634    6.1909698    3563.4792 
    5000    2.3533511   -4.0512108            0  -0.52206669    5.6269067    3648.8158 
    6000    2.3740968   -4.1186005            0  -0.55834559    5.4271371    3631.0818 
    7000    2.4069457    -4.050077            0  -0.44056113    5.9386172    3627.2604 
    8000    2.4184583   -4.0935424            0  -0.46676184    5.8501783    3607.5574 
    9000    2.4134722   -4.1156517            0   -0.4963484    5.6684806    3629.5734 
   10000    2.3625463   -4.0816309            0  -0.53869734    5.7403699    3620.8634 
Loop time of 2.63107 on 48 procs for 10000 steps with 4000 atoms

Performance: 656767.991 tau/day, 3800.741 timesteps/s
99.6% CPU use with 48 MPI tasks x no OpenMP threads

MPI task timing breakdown:
Section |  min time  |  avg time  |  max time  |%varavg| %total
---------------------------------------------------------------
Pair    | 1.2035     | 1.2761     | 1.3313     |   2.9 | 48.50
Neigh   | 0.2143     | 0.22389    | 0.23279    |   0.8 |  8.51
Comm    | 0.81201    | 0.87603    | 0.95585    |   3.2 | 33.30
Output  | 0.00025179 | 0.00025737 | 0.0003275  |   0.0 |  0.01
Modify  | 0.21519    | 0.23906    | 0.26065    |   2.7 |  9.09
Other   |            | 0.01576    |            |       |  0.60

Nlocal:        83.3333 ave          92 max          74 min
Histogram: 2 4 2 6 6 7 11 5 3 2
Nghost:        1761.21 ave        1790 max        1738 min
Histogram: 2 7 5 10 5 6 5 5 1 2
Neighs:        10568.1 ave       11819 max        9108 min
Histogram: 3 2 1 6 8 7 9 7 2 3

Total # of neighbors = 507270
Ave neighs/atom = 126.81750
Neighbor list builds = 903
Dangerous builds = 183

# Equilibrate just above the melting temperature to avoid step fn in T

fix 1 all npt temp 1.25 1.25 0.1 iso 5.68 5.68 0.5 mtk yes tchain 5 pchain 5
run 2000
Per MPI rank memory allocation (min/avg/max) = 3.644 | 3.646 | 3.650 Mbytes
Step Temp E_pair E_mol TotEng Press Volume 
   10000    2.3625463   -4.0816309            0  -0.53869734    5.7403699    3620.8634 
   11000    1.2368948   -6.0138041            0   -4.1589258    5.7155982     2767.698 
   12000    1.2501247    -6.078019            0   -4.2033007    5.5959257    2756.4355 
Loop time of 0.665236 on 48 procs for 2000 steps with 4000 atoms

Performance: 519515.124 tau/day, 3006.453 timesteps/s
99.6% CPU use with 48 MPI tasks x no OpenMP threads

MPI task timing breakdown:
Section |  min time  |  avg time  |  max time  |%varavg| %total
---------------------------------------------------------------
Pair    | 0.29812    | 0.32908    | 0.35907    |   2.1 | 49.47
Neigh   | 0.041751   | 0.043561   | 0.047245   |   0.5 |  6.55
Comm    | 0.21007    | 0.24237    | 0.27295    |   2.7 | 36.43
Output  | 5.2176e-05 | 5.387e-05  | 6.9028e-05 |   0.0 |  0.01
Modify  | 0.040189   | 0.04513    | 0.049163   |   1.2 |  6.78
Other   |            | 0.005041   |            |       |  0.76

Nlocal:        83.3333 ave          91 max          77 min
Histogram: 2 1 14 3 7 7 6 6 1 1
Nghost:        2113.56 ave        2132 max        2096 min
Histogram: 2 3 1 11 8 8 10 2 1 2
Neighs:        13838.7 ave       15466 max       12500 min
Histogram: 3 3 4 12 8 4 7 3 2 2

Total # of neighbors = 664256
Ave neighs/atom = 166.06400
Neighbor list builds = 141
Dangerous builds = 11

#############################
# L I N E A R  Q U E N C H  #
#############################

# Define solid atoms. This closely follows ten Wolde  Ruiz-Montero and Frenkel  Faraday Discuss  1996  104  93-110
# Compute components of the per-atom q6 vector
compute q6 all orientorder/atom degrees 1 6 components 6 nnn NULL cutoff 1.3 # compute the Q6 parameter.
                                                                             # Use all neighbours within 1.3 unit cell.

# get number of connections
compute coord_number all coord/atom orientorder q6 0.5

# An atom is solid if it has 8 or more connections (of a possible 14)
variable is_solid atom c_coord_number>=8
group solid dynamic all var is_solid    # Must be dynamic to update
dynamic group solid defined

# do clustering
compute cluster solid cluster/atom 1.3 # Create a cluster where all atoms within are solid and max 1.3 units from another member

# define chunks one chunk per cluster
compute clus_chunks solid chunk/atom c_cluster nchunk every compress yes  # Says which atoms are in which chunk

# count the size of each chunk
compute size_chunks solid property/chunk clus_chunks count


# Find the maximum entry in the vector of chunk sizes
variable max_n equal max(c_size_chunks)


# Thermo style which includes this variable
# thermo_style custom step temp pe vol v_max_n

thermo ${N}  # Print the thermo information every 100 steps
thermo 1000  

# Reset the npt fix at a lower temperature (below freezing)
fix 1  all npt temp  ${temp} ${temp}  0.1  iso  5.68  5.68  0.5  mtk yes tchain  5  pchain  5
fix 1  all npt temp  0.45 ${temp}  0.1  iso  5.68  5.68  0.5  mtk yes tchain  5  pchain  5
fix 1  all npt temp  0.45 0.45  0.1  iso  5.68  5.68  0.5  mtk yes tchain  5  pchain  5

dump dmp2 all dcd ${N} traj.dcd
dump dmp2 all dcd 1000 traj.dcd


compute msd all msd com yes
variable twopoint equal c_msd[4]/6/(step*dt+1.0e-6)
fix 9 all vector 10 c_msd[4]
variable fit equal slope(f_9)/6/(10*dt)
thermo_style custom step temp pe c_msd[4] v_twopoint v_fit v_max_n

fix 1 all npt temp 1.25 ${temp} 0.1 iso 5.68 5.68 0.5 mtk yes tchain 5 pchain 5
fix 1 all npt temp 1.25 0.45 0.1 iso 5.68 5.68 0.5 mtk yes tchain 5 pchain 5
run 500000 # 5000000  # Run for this many steps
Neighbor list info ...
  update every 1 steps, delay 10 steps, check yes
  max neighbors/atom: 2000, page size: 100000
  master list distance cutoff = 3.8
  ghost atom cutoff = 3.8
  binsize = 1.9, bins = 8 8 8
  4 neighbor lists, perpetual/occasional/extra = 1 3 0
  (1) pair lj/cut, perpetual
      attributes: half, newton on
      pair build: half/bin/atomonly/newton
      stencil: half/bin/3d
      bin: standard
  (2) compute orientorder/atom, occasional
      attributes: full, newton on
      pair build: full/bin/atomonly
      stencil: full/bin/3d
      bin: standard
  (3) compute coord/atom, occasional
      attributes: full, newton on
      pair build: full/bin/atomonly
      stencil: full/bin/3d
      bin: standard
  (4) compute cluster/atom, occasional
      attributes: full, newton on
      pair build: full/bin/atomonly
      stencil: full/bin/3d
      bin: standard
Per MPI rank memory allocation (min/avg/max) = 9.846 | 9.853 | 9.857 Mbytes
Step Temp PotEng c_msd[4] v_twopoint v_fit v_max_n 
   12000    1.2501247    -6.078019 3.1595851e-30 2.1941563e-32 8.3333333e+20            3 
   13000    1.2383809    -6.012746   0.54609504 0.0035006091  0.044767111            1 
   14000    1.2527835   -6.0832298    1.1331968 0.0067452189  0.046795631            1 
   15000    1.2556615   -6.1196545    1.6384466 0.0091024807  0.045896333            2 
   16000    1.2552567    -6.122419    2.2464635   0.01170033   0.04629072            1 
   17000    1.2352299   -6.0794546    2.7295545  0.013380169  0.046133104            2 
   18000    1.2584115   -6.1468889    3.2562319  0.015075147  0.045246792            2 
   19000    1.2215158   -6.1925684    3.7836891  0.016595127  0.044963835            2 
   20000    1.2356548   -6.1117812    4.4022236  0.018342598  0.045059264            1 
   21000    1.2277785   -6.1501664    4.9083485  0.019477573  0.045202182            2 
   22000    1.2359122   -6.1247321    5.3515812  0.020271141  0.045060776            1 
   23000    1.2598053   -6.1519418    5.7884613  0.020972685  0.044538802            2 
   24000    1.2527898   -6.1226392    6.3046209  0.021891044  0.044034591            2 
   25000     1.241508   -6.1616438    6.7635156  0.022545051  0.043610487            1 
   26000    1.2055678   -6.1627951    7.2715015  0.023306094  0.043279622            2 
   27000    1.2359439   -6.1313099    7.8210721  0.024139111  0.043059563            5 
   28000    1.1789518   -6.1215083    8.2720372  0.024619158  0.042891621            3 
   29000     1.219028   -6.1878872    8.7540769  0.025155393  0.042720262            7 
   30000    1.2064516   -6.1391307    9.3032594  0.025842387  0.042599116            3 
   31000     1.200033   -6.1163558    9.7892891  0.026315293  0.042516279            4 
   32000    1.2158473   -6.1541981    10.236993  0.026658836  0.042400331            3 
   33000     1.225994   -6.1682012    10.649646  0.026893046  0.042244033            3 
   34000    1.2070125   -6.1593174     11.12345  0.027263357  0.042080386            1 
   35000    1.2044577   -6.1882514    11.506436  0.027396277  0.041856108            3 
   36000    1.2162283   -6.1964488    12.080249  0.027963539  0.041638687            5 
   37000    1.2218574   -6.1107122     12.69013  0.028581373  0.041538912            1 
   38000    1.2215557   -6.1914202    13.108882  0.028747548  0.041486217            2 
   39000    1.2119409   -6.1857104    13.565425  0.028985951  0.041396483            3 
   40000    1.2357646   -6.1767463    14.057932  0.029287358  0.041312417            3 
   41000    1.1960179   -6.2042464    14.570201   0.02961423  0.041251132            2 
   42000    1.1721594   -6.2048747    15.011271  0.029784267  0.041191155            4 
   43000    1.1849339   -6.2014865    15.376597  0.029799607  0.041101301            2 
   44000    1.2070479   -6.2071559    15.794097  0.029913063  0.040970832            2 
   45000    1.1951366   -6.2262998    16.292052  0.030170466  0.040883865            1 
   46000    1.2015132   -6.1963939    16.799644  0.030434138  0.040821348            4 
   47000    1.1938576   -6.2908277    17.149753  0.030407363  0.040730833            2 
   48000    1.1877772     -6.22476    17.659829  0.030659425  0.040629673            5 
   49000    1.1990064   -6.2361503    18.127275  0.030828698   0.04053367            3 
   50000    1.1786569   -6.2646314    18.533697  0.030889494  0.040435885            3 
   51000    1.1734127   -6.2315409    19.033999  0.031101306   0.04032413            1 
   52000     1.179192   -6.2417969    19.440424  0.031154526   0.04022151            3 
   53000    1.1918151   -6.2634749    19.684096  0.030949836  0.040094921            2 
   54000    1.1669694   -6.2027085    20.337122  0.031384448  0.039975791            4 
   55000     1.182805   -6.2045175    20.625982  0.031251488  0.039881895            3 
   56000    1.1846699   -6.2272772    20.919911   0.03113082  0.039751653            2 
   57000    1.1616168   -6.2508506    21.215332  0.031016568  0.039611587            3 
   58000    1.1718877   -6.2468239    21.736633  0.031230794  0.039467489            5 
   59000    1.1768927   -6.2709901    22.057253  0.031154312  0.039326471            6 
   60000    1.1945991    -6.255757     22.59746  0.031385361  0.039196736            3 
   61000    1.1665407   -6.2502613    23.024831  0.031454687  0.039064894            3 
   62000    1.1629713   -6.2894536    23.465627  0.031539821   0.03893945            8 
   63000    1.1653765   -6.2965423    23.898523  0.031611803  0.038824388            2 
   64000    1.1622743   -6.3057579    24.344602    0.0316987  0.038720384            7 
   65000    1.1731219   -6.2317426    24.781888  0.031771651  0.038614103            3 
   66000    1.1722098   -6.2707072    25.260374  0.031894412  0.038527105            3 
   67000    1.1652199   -6.2851647    25.426248  0.031624687  0.038434011            2 
   68000    1.1581311   -6.3031342    25.855671  0.031685871  0.038324546            2 
   69000    1.1684813   -6.3150387    26.351346  0.031825297  0.038218254            3 
   70000    1.1331343   -6.3050863    26.745173  0.031839492  0.038122657            6 
   71000    1.1622439   -6.3255614    27.230999  0.031961266  0.038042948            3 
   72000    1.1495193   -6.2889154    27.724618  0.032088678  0.037969102            6 
   73000    1.1546068   -6.3796851      28.0669  0.032039839  0.037897609            1 
   74000    1.1347294   -6.3144668    28.587735  0.032193395  0.037824026            2 
   75000    1.1664953   -6.3165074    28.824113  0.032026792  0.037751934            2 
   76000    1.1555154   -6.3772682    29.216852  0.032036021  0.037676367            6 
   77000    1.1272767   -6.3235783    29.728856  0.032174087  0.037598678            2 
   78000    1.1146258    -6.326678    29.871044  0.031913508  0.037518238            5 
   79000    1.1078008   -6.3225042    30.253325   0.03191279  0.037427445            3 
   80000    1.1476907   -6.3967416    30.569082  0.031842794   0.03733184            3 
   81000    1.1344614   -6.3321386    31.036218  0.031930265  0.037236113            1 
   82000    1.1357239   -6.3243112    31.417245  0.031928094  0.037134311            5 
   83000    1.1368239   -6.3717234    31.661477  0.031788632  0.037033557            2 
   84000    1.1472732   -6.3967811    32.061571  0.031807114  0.036939013            5 
   85000    1.1390749   -6.4225631    32.422553  0.031786816  0.036847226            6 
   86000    1.1251765   -6.4135758    32.948373  0.031926717  0.036762179            5 
   87000    1.1396106   -6.3850082    33.134818  0.031738331  0.036668244            3 
   88000    1.1142165   -6.3826728    33.564495   0.03178456  0.036568441            2 
   89000    1.1299832   -6.3381985    34.010862  0.031845376  0.036483202            3 
   90000    1.1450127   -6.4097803    34.211682  0.031677483  0.036388777            3 
   91000    1.1463833   -6.3692741    34.657439  0.031737581  0.036299207           10 
   92000    1.1003201   -6.3957333    34.925826  0.031635711  0.036205281            1 
   93000     1.118468   -6.3730165    35.295283  0.031626597  0.036107489            1 
   94000    1.1109084   -6.4295711    35.419471   0.03140024  0.036010451            3 
   95000    1.0992144   -6.3858608    35.993028  0.031572832  0.035914666            2 
   96000     1.107683    -6.423158    36.137521  0.031369376  0.035820992            3 
   97000    1.1322656   -6.4278098    36.495054  0.031353139  0.035725844            3 
   98000    1.1087843   -6.4243164    37.161251  0.031599703  0.035633386            2 
   99000    1.1108847   -6.3860028    37.326747   0.03141982  0.035546732            6 
  100000    1.1197372   -6.4248004    37.477065  0.031230888  0.035453212            3 
  101000    1.1180328   -6.4311735    37.870852  0.031246577  0.035356214            2 
  102000    1.1087418   -6.4443398    38.041197  0.031079409  0.035254927            2 
  103000    1.1098105   -6.4042973    38.594068  0.031224974  0.035156457            3 
  104000    1.1185395   -6.4185054    38.820598  0.031106249  0.035060178            3 
  105000     1.098604   -6.4521656    38.984329  0.030939943   0.03495756            8 
  106000    1.0871161   -6.4278422    39.241123  0.030849939  0.034857576            3 
  107000    1.1038029   -6.4467291    39.511092  0.030771878  0.034748628            4 
  108000    1.0968084   -6.4638929    39.813014  0.030719918  0.034635046            8 
  109000    1.0995697   -6.4515644    40.070934  0.030635271  0.034522955            3 
  110000    1.1083048   -6.4885063    40.180851  0.030440039  0.034404282            2 
  111000     1.095052   -6.4825226    40.475895  0.030387308  0.034287469            4 
  112000    1.0798536   -6.4590549    40.885217  0.030420548  0.034172647            2 
  113000    1.0860231   -6.4695518     41.31327  0.030467013  0.034064144            4 
  114000     1.095614   -6.4586458    41.719934  0.030497028  0.033959885            4 
  115000    1.1149299   -6.5129462    42.042609  0.030465658   0.03386335            7 
  116000    1.0886779   -6.4920339    42.315492   0.03039906  0.033770472            2 
  117000     1.062023   -6.4545416    42.745959   0.03044584   0.03367837            5 
  118000    1.1057945   -6.5116779    42.756765  0.030195455  0.033581476            1 
  119000    1.0878672   -6.4941479    43.157402   0.03022227  0.033480606            4 
  120000    1.0620299   -6.5134537     43.36359  0.030113604  0.033382049            1 
  121000    1.0652342   -6.5304886    43.654275  0.030064928  0.033285403            2 
  122000    1.0713398   -6.5172127    43.895929  0.029983558  0.033187322            5 
  123000    1.0583219   -6.5093691    44.202607  0.029947566  0.033088986            3 
  124000    1.0740379   -6.4998747    44.569317  0.029952498  0.032992347            4 
  125000    1.0875215   -6.5132064    44.874085  0.029916056  0.032895202            3 
  126000    1.0477632   -6.5265563    45.262781  0.029935702  0.032801968            7 
  127000    1.0653445   -6.5511623    45.552122  0.029889844  0.032715499            5 
  128000    1.0698211   -6.5349917    45.912675  0.029891065  0.032632817            3 
  129000    1.0766735   -6.5416109    45.922251  0.029665537   0.03254504            3 
  130000    1.0578724   -6.5834445    46.062423  0.029527194  0.032452397            4 
  131000    1.0653973    -6.604206    46.346565  0.029482548  0.032354013            3 
  132000    1.0429017   -6.5468686    46.744171  0.029510209  0.032259336            2 
  133000    1.0397782   -6.5381801    47.000294  0.029448805  0.032169377            5 
  134000    1.0640071   -6.5218004    47.172709  0.029336261  0.032078025            7 
  135000    1.0580953   -6.5668335    47.546932  0.029349958  0.031984352            3 
  136000    1.0596058   -6.6143095    47.583579  0.029156604  0.031893811            4 
  137000    1.0543761   -6.6368213    47.840029  0.029099774  0.031798403           10 
  138000    1.0407521   -6.5239598    48.192364  0.029101669  0.031702559            3 
  139000    1.0384148   -6.5620352    48.333397  0.028976857  0.031606854            6 
  140000    1.0584369   -6.5663972    48.758317  0.029022808  0.031514337            4 
  141000    1.0671181   -6.6167601     48.76316  0.028819835  0.031420147            6 
  142000    1.0335863    -6.631722     48.96715  0.028736591   0.03132259            2 
  143000      1.02733   -6.6144169    49.073586  0.028597661  0.031222624            4 
  144000    1.0458584   -6.6187695    49.268495   0.02851186  0.031123931            3 
  145000    1.0334665   -6.5733299    49.519571  0.028459524  0.031022944            3 
  146000    1.0390328   -6.6238829    49.899939    0.0284817   0.03092508            3 
  147000    1.0418708   -6.5907558    50.011616  0.028351256  0.030829675            2 
  148000    1.0240747   -6.6203877    50.476295  0.028421337  0.030732942            3 
  149000     1.010042   -6.6102042    50.700583   0.02835603  0.030640966            4 
  150000    1.0388828   -6.6369941    50.725984  0.028181102  0.030542862            3 
  151000    1.0212939   -6.5840405    50.948126  0.028117067  0.030447757            5 
  152000    1.0387773   -6.6224045    51.330682  0.028141821  0.030354343            3 
  153000     1.045869    -6.620895    51.698717  0.028158342   0.03026292            4 
  154000    1.0178717   -6.6361885    51.678844  0.027964743  0.030172274            2 
  155000    1.0274477   -6.6133583    52.159017  0.028042482  0.030082887            6 
  156000    1.0114862   -6.6490992    52.329822  0.027953964   0.02999334            5 
  157000    1.0149669   -6.6397855    52.717556  0.027981718  0.029907562            3 
  158000     1.018861   -6.6558685    53.043553  0.027976558  0.029824062            2 
  159000    1.0161303   -6.6790094    53.107446  0.027834091  0.029740026            5 
  160000    1.0156886   -6.6803521    53.155058  0.027684926  0.029654242            4 
  161000     1.008979   -6.6615955    53.360125  0.027619112  0.029565314            2 
  162000    1.0034855   -6.7111001    53.606218  0.027575215   0.02947805            4 
  163000    1.0070467   -6.6952875    53.742409  0.027475669  0.029391833            5 
  164000   0.99739389   -6.6914837    54.068622  0.027473893  0.029303901            5 
  165000   0.99257593   -6.7074569     54.01431  0.027279954  0.029217339            7 
  166000    1.0049479    -6.682047     54.49898  0.027358926  0.029131418            3 
  167000   0.99735173   -6.7499532    54.588157  0.027239599  0.029046534            6 
  168000   0.99957902   -6.6925694    54.860063  0.027212333  0.028962344            5 
  169000    1.0053952   -6.6936799    55.172358  0.027205305  0.028879876            6 
  170000   0.99273876   -6.7246314    55.279514  0.027097801  0.028797398            4 
  171000   0.98964001   -6.7073091    55.650453  0.027120104  0.028716213            8 
  172000   0.98396087   -6.6957015    55.970028  0.027117261  0.028638418            7 
  173000    0.9905543   -6.7659509    55.950127  0.026950928  0.028557935            2 
  174000   0.97659452   -6.7492287    56.067825  0.026852407   0.02847643            3 
  175000   0.98746345   -6.7922972    56.252421  0.026786867  0.028395132            7 
  176000   0.98318067   -6.7443989    56.615209  0.026806443  0.028314048            9 
  177000    0.9810743   -6.7511343    56.682076  0.026686476  0.028233987            4 
  178000    1.0091482   -6.7389727    56.730346  0.026559151  0.028150927            3 
  179000   0.97835383   -6.7283069    57.186815  0.026623285  0.028067754            4 
  180000   0.98865927   -6.7493133    57.102776   0.02643647  0.027986414            6 
  181000     0.985033   -6.7247523    57.451697  0.026451057  0.027903933            5 
  182000   0.97895364    -6.797898    57.269481   0.02622229  0.027820532            4 
  183000   0.96822375   -6.7866326    57.524152  0.026194969  0.027737021            8 
  184000   0.95319119   -6.7635046    57.674392  0.026120648  0.027652347            6 
  185000   0.99232959   -6.7875787    57.884446  0.026074075   0.02756888            6 
  186000   0.96382288   -6.7742239    58.211889  0.026080595  0.027485161            6 
  187000   0.96412197   -6.7940721    58.099394  0.025890996  0.027401523            5 
  188000   0.96931016    -6.829419    58.069743  0.025740134  0.027317355            7 
  189000   0.97109128   -6.7787752    58.441544  0.025767877  0.027232428            4 
  190000   0.95622569   -6.8171426    58.421646  0.025623529  0.027146513            6 
  191000   0.94833969   -6.8244136    58.569151  0.025553731  0.027059169            4 
  192000   0.94295444   -6.7856939    58.773362  0.025509272  0.026972352            4 
  193000   0.95805181   -6.8345589    59.055259  0.025498816  0.026887385            4 
  194000   0.94935664   -6.8172126    59.280608  0.025464179  0.026802704           14 
  195000   0.95614334   -6.7870434     59.47219  0.025415466  0.026721094            8 
  196000   0.94817486   -6.8276881    59.616739  0.025347253  0.026639947            4 
  197000   0.93889358   -6.7947948    59.848995  0.025316834  0.026558234            5 
  198000   0.97869054   -6.8622367    60.106612  0.025297395  0.026478439            4 
  199000   0.96827955   -6.8321222    60.478224  0.025325889  0.026400872            7 
  200000   0.94186145   -6.8439749    60.358734  0.025149472  0.026322866            3 
  201000   0.94910776   -6.8385553    60.583821   0.02511767  0.026245824            5 
  202000   0.96603437   -6.8255566    60.946949  0.025143131  0.026170729            3 
  203000   0.92282922   -6.8702878    61.046409  0.025060102  0.026094875            5 
  204000   0.93285257   -6.8850433    61.090001  0.024955066  0.026018798           10 
  205000   0.95454624   -6.8319595    61.339181  0.024934626  0.025942747            3 
  206000   0.92434075   -6.8808464    61.698521  0.024958949  0.025868627            5 
  207000   0.92833702   -6.8690689    61.676561  0.024829533   0.02579453            7 
  208000   0.93935009   -6.8530801    61.820486  0.024767823  0.025720075            4 
  209000   0.95024714    -6.854466     61.88025  0.024673146  0.025645117            4 
  210000   0.92510092   -6.8757723    62.068437  0.024630332  0.025570625            3 
  211000   0.93334696   -6.9166956    62.079844  0.024518106  0.025496237           13 
  212000   0.92492666   -6.8984445    62.317919  0.024496037  0.025421421            7 
  213000   0.93248658   -6.8972154    62.438479    0.0244282  0.025347179            4 
  214000   0.92054452   -6.9417493    62.434397   0.02431246    0.0252723            4 
  215000   0.90423933   -6.9007714     62.52295  0.024233701  0.025196494            4 
  216000   0.91055508   -6.9536537    62.731564  0.024201992  0.025121584            6 
  217000   0.91132777   -6.9068215    62.916477  0.024161473  0.025047469            6 
  218000    0.9284832   -6.9438975    62.914647  0.024049941  0.024972545            7 
  219000   0.91522166   -6.9527719    62.987621  0.023967892  0.024897266            6 
  220000   0.90547009   -6.9737221    63.012399  0.023868333  0.024822034           11 
  221000   0.90675551   -6.9584567    63.593225  0.023979346  0.024746616            6 
  222000   0.92065184   -6.9511401    63.466087  0.023823606  0.024671232            6 
  223000   0.91917495   -6.9389797    63.577644  0.023758462  0.024596503            6 
  224000   0.89272638   -6.9191563    63.708619  0.023701123  0.024522419            6 
  225000   0.92584286   -6.9398309    63.979291  0.023696034  0.024448817            7 
  226000   0.92221518   -6.9715938    64.078758   0.02362786  0.024376642            5 
  227000   0.89739025   -6.9607073    64.286767  0.023600135  0.024303971            8 
  228000   0.90571751   -6.9767145    64.417968  0.023544579  0.024231414            4 
  229000   0.90602501   -6.9696191    64.564925  0.023495242  0.024159581            6 
  230000   0.89330384   -6.9845432    64.668749  0.023430706   0.02408798            6 
  231000   0.90026911   -6.9919394    64.754794  0.023360315  0.024017084            5 
  232000   0.89412833   -6.9998433    64.875222  0.023302881  0.023946782            9 
  233000   0.90036676   -6.9567506    65.088034  0.023278982  0.023877139            6 
  234000    0.8971971   -6.9889634    65.104522  0.023185371  0.023807646            5 
  235000   0.87532083   -6.9872065     65.35446   0.02317534  0.023737581            4 
  236000   0.89895419   -7.0433315    65.269075   0.02304699  0.023668254            5 
  237000    0.8744115   -7.0175759    65.510141  0.023034508  0.023597953            7 
  238000   0.88548245   -7.0206976    65.570662  0.022958915  0.023528135            6 
  239000   0.86443935   -7.0263028    65.377574  0.022795528  0.023458113            5 
  240000   0.90531979   -7.0433125    65.453833  0.022727025   0.02338683            6 
  241000   0.90048657   -7.0298459    65.867064   0.02277561  0.023316517            7 
  242000   0.88153895   -7.0494091    65.920646  0.022699947  0.023246337           11 
  243000   0.87368073   -7.0356151    65.994009   0.02263169   0.02317628           15 
  244000   0.86236448   -7.0626602    66.206544  0.022611525  0.023107551            8 
  245000   0.87543411   -7.0226743    66.284242  0.022545661  0.023038624            6 
  246000   0.87490674   -7.0293616    66.510553  0.022530675  0.022969538            7 
  247000   0.88605672   -7.0416748    66.468493  0.022425267  0.022900692            7 
  248000   0.86227134   -7.0485052    66.606936  0.022381363  0.022832162            5 
  249000   0.87261889   -7.0997555    66.620709  0.022296087  0.022763393            5 
  250000   0.87779338   -7.0122714    66.899985  0.022299995  0.022694926            5 
  251000   0.86428499   -7.0524502    66.890659  0.022208054  0.022626689            6 
  252000   0.86001942   -7.0713274    66.917617  0.022128842  0.022558734            5 
  253000   0.87077412   -7.1025418    67.074766  0.022093138  0.022490574            7 
  254000   0.86656993   -7.1131131    66.758612  0.021902432  0.022422311            9 
  255000   0.86694947   -7.1208839    67.204151  0.021962141   0.02235479            8 
  256000   0.84987075   -7.1149824    67.194811  0.021873311  0.022287119           12 
  257000   0.84199463   -7.1198195    67.384552  0.021849725   0.02221931            9 
  258000   0.85798763   -7.1285195    67.471184  0.021793018  0.022152097           13 
  259000   0.85044563   -7.1042105    67.491107  0.021715285   0.02208465           11 
  260000   0.85765116   -7.1340085     67.26174   0.02155825  0.022016138           10 
  261000   0.84239936   -7.1127708    67.607117  0.021585925  0.021947245           12 
  262000   0.83544382   -7.0915451    67.693717  0.021531081  0.021878682           11 
  263000   0.85045036   -7.1164307    67.555487  0.021405414  0.021810744           13 
  264000   0.84504674   -7.1389918    67.701102  0.021370297  0.021742528           10 
  265000   0.85330643   -7.1456871    67.698207  0.021288744  0.021673985            5 
  266000   0.84110066   -7.1687452     67.87821  0.021265103  0.021605776            3 
  267000   0.84294943   -7.1174611     67.81627  0.021166127  0.021538046            7 
  268000   0.82758525   -7.1306683    67.867576  0.021103102  0.021469929            7 
  269000   0.85028764   -7.1467994    68.007045  0.021067858  0.021401841           14 
  270000   0.82858824   -7.1970502    68.057332  0.021005349  0.021333944            5 
  271000   0.83364002   -7.1564529    68.298819  0.021002097  0.021267362           10 
  272000   0.82021431   -7.2040377     68.24607  0.020908722    0.0212001           14 
  273000   0.83062459   -7.1618522    68.358957  0.020866593  0.021133646           10 
  274000   0.82545382   -7.1923723    68.432494  0.020812802  0.021067545           23 
  275000   0.82003447   -7.1999759    68.448865   0.02074208  0.021001467            8 
  276000   0.83265551   -7.2295096    68.505705   0.02068409  0.020935676            5 
  277000   0.81864896    -7.209812    68.553755  0.020623873  0.020869386           15 
  278000   0.82132457    -7.201127    68.786228  0.020619373  0.020803591           14 
  279000   0.80599449   -7.1961376    68.896616   0.02057844   0.02073929           10 
  280000   0.80310476   -7.2184143    68.878612  0.020499587  0.020674563           10 
  281000   0.83852415   -7.2026985    69.001453  0.020463064  0.020610202            6 
  282000   0.81283761   -7.2329893     68.97143  0.020381628  0.020546263           16 
  283000   0.82816236     -7.23758    69.049041  0.020332462  0.020482564           10 
  284000   0.79544803   -7.2533983    69.086898  0.020271977   0.02041848           11 
  285000   0.81426033   -7.2401909    69.328205  0.020271405  0.020354764           14 
  286000   0.82547118   -7.2230229    69.257593  0.020179951  0.020292035           11 
  287000   0.80413495   -7.2776751    69.244752  0.020105909  0.020228726            9 
  288000   0.82117444   -7.2608034    69.544937  0.020122956  0.020165163           13 
  289000   0.81479498   -7.2514029     69.42824  0.020019677  0.020101502            5 
  290000    0.8126787   -7.3176223    69.325695  0.019921177  0.020037824            7 
  291000   0.81288319   -7.2769983    69.626981  0.019938998  0.019974064           10 
  292000   0.78193809   -7.3063648    69.260655  0.019766169  0.019909859           11 
  293000   0.81106371   -7.3056643    69.428191  0.019746357  0.019845285           10 
  294000   0.81120162   -7.3269497    69.341971  0.019654754  0.019780817           18 
  295000   0.78948514   -7.2895448    69.639049  0.019672048  0.019716699           21 
  296000   0.81853756   -7.2909041     69.45234  0.019553024  0.019652438           22 
  297000   0.78494057   -7.3285343    69.320753  0.019450267  0.019588009           30 
  298000   0.79163037   -7.3151593    69.515493  0.019439455  0.019523322           31 
  299000    0.7877297   -7.3207179    69.569529  0.019389501  0.019459212           14 
  300000    0.7837123   -7.3328794    69.638772  0.019344103  0.019394823           18 
  301000   0.77580164   -7.3461689    69.470708  0.019233308  0.019330356           33 
  302000   0.79853231   -7.3327936    69.400633  0.019150285  0.019265881           15 
  303000    0.7975902   -7.3259568    69.483857  0.019109972  0.019201987           14 
  304000   0.77726937   -7.3144077    69.711853  0.019109609  0.019138116           10 
  305000   0.76741188   -7.3591003    69.560775  0.019005676  0.019074125           19 
  306000   0.79468025   -7.3496878    69.696679  0.018980577  0.019010081           10 
  307000    0.7747453   -7.3602384    69.703384  0.018920571  0.018946782           12 
  308000   0.78211371   -7.3513732    69.860465  0.018901641   0.01888376            8 
  309000   0.77453563   -7.3681569     69.66406  0.018787503  0.018820946           23 
  310000   0.79897479   -7.3431963    69.914713  0.018794278  0.018758016            6 
  311000   0.78250883   -7.3507239    69.761901    0.0186929  0.018695162           13 
  312000   0.76928649   -7.3515611    69.732706  0.018625189  0.018632309           16 
  313000   0.76643039   -7.3942224    69.803246  0.018584464  0.018569695           19 
  314000   0.77880843   -7.3651806    69.984106  0.018573277  0.018507067           19 
  315000   0.74840074   -7.3781365     69.88093  0.018487019  0.018444441           11 
  316000   0.76106221   -7.4228268     69.79457  0.018405741  0.018382153           13 
  317000   0.77681122   -7.4153627    69.899755   0.01837533  0.018320152           13 
  318000   0.77355694    -7.422605    69.855875  0.018306047  0.018258257           23 
  319000   0.75418587   -7.4211218    69.976839  0.018280261  0.018196547           11 
  320000   0.73857832   -7.4192151    70.012561  0.018232438  0.018135115           13 
  321000   0.72713082   -7.4520622    69.871779  0.018139091  0.018073888           26 
  322000   0.76964141   -7.4270982      70.2394  0.018177899  0.018012967           20 
  323000   0.75840231   -7.4413385     70.16214  0.018101687  0.017952673           14 
  324000   0.73425514   -7.4401503    70.158532   0.01804489  0.017892046           16 
  325000   0.75473118   -7.4366615    70.185313  0.017996234  0.017831415           16 
  326000   0.74106895   -7.4560011    70.262647  0.017960799  0.017771032           20 
  327000    0.7512267   -7.4508098     69.97046  0.017831412  0.017711044           32 
  328000   0.75748893   -7.4663689    70.167809  0.017827187  0.017651038           28 
  329000    0.7387077   -7.4516146    70.117153   0.01776017  0.017591271           14 
  330000   0.74382223    -7.491114    70.322644  0.017758243  0.017531689           14 
  331000   0.73319999    -7.506995     70.12924  0.017655901  0.017471937           29 
  332000   0.74514168   -7.4925239    70.160386  0.017610539  0.017412519           11 
  333000   0.73321513   -7.4431093    70.284064  0.017588604  0.017353061           12 
  334000    0.7466261   -7.5042791    70.251008  0.017527697  0.017293856           24 
  335000   0.73036802   -7.5068405    70.389625  0.017509857  0.017235079           25 
  336000   0.73187994   -7.5110194    70.171582  0.017403666  0.017176165           23 
  337000   0.74218915   -7.5085876    70.166418  0.017350746  0.017117537           64 
  338000   0.75013744   -7.5213708    70.339012  0.017341965  0.017059057           57 
  339000   0.71256204   -7.5093575    70.370053   0.01729844  0.017000683           23 
  340000   0.72667189   -7.5076865    70.396325  0.017254001  0.016942532           30 
  341000   0.72482191   -7.5168709    70.267546  0.017171932  0.016884281           17 
  342000   0.74186713   -7.5375073    70.285342  0.017126058  0.016825933           17 
  343000   0.70835338   -7.5223051    70.214578  0.017058935   0.01676772           21 
  344000   0.74238617   -7.5045247    70.208054  0.017007765  0.016709867           36 
  345000    0.7219743    -7.517598    70.339359  0.016990183  0.016652346           16 
  346000   0.70134605   -7.5390848    70.375594  0.016949806  0.016594807           27 
  347000   0.71719744   -7.5587695    70.088578  0.016832031   0.01653746           39 
  348000    0.7266891   -7.5176942    70.315895  0.016838097  0.016480166           27 
  349000   0.70773273   -7.5703965    70.366261  0.016801877  0.016423139           24 
  350000   0.70164356   -7.5640108    70.241524  0.016724172  0.016366233           73 
  351000   0.71128192   -7.5461813    70.390982  0.016712009   0.01630943           19 
  352000   0.70381405   -7.5592855    70.237877  0.016628285  0.016252676           38 
  353000   0.70078154   -7.5793244    70.183574   0.01656836  0.016196034           28 
  354000   0.69599387   -7.5671577    70.412023  0.016575335  0.016139686           27 
  355000   0.70305685   -7.5876889    70.198217  0.016478455  0.016083461           25 
  356000   0.70022283   -7.6014286    70.196411  0.016431744  0.016027356           32 
  357000   0.69803938   -7.5859418    70.365198  0.016425116  0.015971512           22 
  358000   0.69286707   -7.6203421    70.181331  0.016336436  0.015915692           13 
  359000   0.69174424   -7.6040714    70.224412  0.016300931  0.015859979           36 
  360000   0.70162448   -7.5906913    70.220688  0.016254789  0.015804408           13 
  361000   0.68758418    -7.605428    70.250305  0.016216598   0.01574911           20 
  362000   0.69894168   -7.6036665    70.172978  0.016154001  0.015694081           11 
  363000    0.6933137   -7.6286476    70.161264   0.01610681  0.015639195           20 
  364000   0.67928199   -7.6110934    70.301305  0.016094621  0.015584517           26 
  365000   0.68749601   -7.6008818    70.354245  0.016062613  0.015530065           26 
  366000   0.69463411   -7.6377379    70.283598  0.016002641  0.015475475           37 
  367000   0.67959782     -7.61941    70.104443  0.015918357  0.015421055           33 
  368000   0.68086054   -7.6407641    70.250129  0.015908091  0.015366823           14 
  369000   0.67294854   -7.6580593      70.2158  0.015857227  0.015312568           51 
  370000   0.67425071   -7.6363241    70.176169  0.015805443  0.015258506           36 
  371000   0.66517341   -7.6183268    70.226081  0.015774052  0.015204613           45 
  372000   0.68653803   -7.6726831    70.149047  0.015714392  0.015150884           21 
  373000   0.66867313   -7.6631374    70.088339  0.015658699  0.015097382           28 
  374000   0.67647113   -7.6603898    70.147913  0.015630105  0.015044156           45 
  375000   0.66504506   -7.6599017    70.222047  0.015604899  0.014991106           27 
  376000   0.66057681   -7.6540382    70.134678  0.015544033  0.014938248           52 
  377000   0.65593081    -7.667069    70.099565  0.015495041  0.014885448           44 
  378000   0.66787348   -7.6754353    70.223319  0.015481331  0.014832958           39 
  379000   0.66278516   -7.7161113    70.122344  0.015418281  0.014780517           59 
  380000   0.66324712   -7.6867988    70.243553  0.015404288   0.01472831           50 
  381000   0.66261722   -7.6706985    70.129936  0.015339006  0.014676208           47 
  382000   0.66606553   -7.6993924     70.03387  0.015277895  0.014624563           38 
  383000   0.66738671   -7.7046666    70.094543  0.015251206  0.014573141           68 
  384000   0.65231696   -7.6908644    70.046629  0.015201091  0.014521749           48 
  385000   0.65300372    -7.707972    70.127667  0.015179149  0.014470578           64 
  386000   0.63911849   -7.7195802    70.137725  0.015141996  0.014419292           52 
  387000   0.64182079   -7.7230228    70.017232  0.015076923   0.01436829           79 
  388000   0.66170264   -7.7215455    70.099728  0.015055784  0.014317486           69 
  389000    0.6478019   -7.7176426    70.082469  0.015013382  0.014266855           40 
  390000   0.64063824   -7.7348644    70.028487  0.014963352  0.014216427           86 
  391000   0.62719611   -7.7256222    69.995829  0.014918122  0.014166066           71 
  392000   0.63614037   -7.7404408    69.989512  0.014878723  0.014115734           71 
  393000    0.6415499   -7.7482863    69.965157  0.014835699  0.014065622           73 
  394000    0.6334647    -7.728118    70.078008  0.014821914  0.014015732           52 
  395000   0.62995818   -7.7492731    70.005531  0.014769099  0.013966009           99 
  396000   0.63651513   -7.7315329    70.055742   0.01474237  0.013916495           85 
  397000   0.61338075   -7.7626416    69.955904  0.014684279  0.013867022          152 
  398000   0.61751913   -7.7600434    69.938807  0.014643804  0.013817643           54 
  399000   0.61988789   -7.7757312    69.960008   0.01461153  0.013768424           80 
  400000   0.64197345   -7.7588669    69.902027  0.014562922  0.013719382           81 
  401000   0.63252757   -7.7716195    69.963357  0.014539351  0.013670469           70 
  402000   0.63067302   -7.7730716    69.878527  0.014485598  0.013621754          176 
  403000   0.61608212   -7.7744237    69.902907  0.014454695  0.013573266           86 
  404000   0.62699253   -7.8019216    69.861723  0.014410421  0.013524955          146 
  405000   0.61769608    -7.747199    70.054442  0.014414494   0.01347702          104 
  406000   0.61241089   -7.7770996    69.826688  0.014332243  0.013429278           71 
  407000   0.61189942   -7.7880193    69.754252  0.014282197   0.01338171          214 
  408000   0.60341427   -7.7864597    69.887714  0.014274451  0.013334324           93 
  409000   0.62096673   -7.7941438    69.858355  0.014233569  0.013286999           87 
  410000   0.61837367    -7.806785    69.933223   0.01421407   0.01323998          180 
  411000   0.61260628   -7.7954984    69.809022  0.014154303  0.013193052           95 
  412000   0.59979716   -7.8026462    69.841811   0.01412658  0.013146287          120 
  413000    0.6152402    -7.823304     69.76983  0.014077851  0.013099803          156 
  414000   0.60309933   -7.8077983    69.941302  0.014078362  0.013053558          281 
  415000   0.61198971   -7.8139174    69.948547  0.014045893  0.013007457          241 
  416000   0.60412253   -7.8331444    69.804589  0.013983291   0.01296157          204 
  417000   0.60112987   -7.8347044     69.81986   0.01395281  0.012915889          194 
  418000   0.59323084   -7.8362771     69.69668  0.013894872  0.012870355          182 
  419000   0.60608507   -7.8487602    69.762833  0.013874867  0.012824992          145 
  420000   0.59305279   -7.8229292     69.78274  0.013845782  0.012779814          145 
  421000   0.59347992   -7.8323308    69.819668  0.013820203  0.012734904           89 
  422000   0.59857664   -7.8458489     69.83072  0.013789637  0.012690311           97 
  423000   0.59666028   -7.8569429    69.747645  0.013740671  0.012645676           98 
  424000   0.58465339   -7.8549782    69.652187  0.013689502  0.012601209          152 
  425000   0.58877855   -7.8874144     69.53682  0.013634671  0.012556791          114 
  426000   0.58064436   -7.8597107    69.713592  0.013637244  0.012512521          134 
  427000   0.59153649   -7.8704591    69.679499  0.013598653  0.012468463          151 
  428000   0.58268262   -7.8896414    69.681111  0.013567194  0.012424549          122 
  429000   0.59201032   -7.8611753    69.647485  0.013529038  0.012380768           99 
  430000   0.57345839   -7.8568857    69.748369  0.013517126  0.012337205          200 
  431000   0.58422099   -7.8833858    69.609322  0.013458879  0.012293745          164 
  432000   0.57822402   -7.8688156    69.698027  0.013444835  0.012250517          121 
  433000   0.57612809   -7.8683131    69.745814  0.013422982  0.012207564          121 
  434000   0.58944671   -7.9019998    69.812212  0.013404803  0.012164789          273 
  435000   0.57037373   -7.8902621    69.573932  0.013328339  0.012122163           84 
  436000   0.57830498    -7.907047    69.600583  0.013302864  0.012079664          200 
  437000   0.56632643   -7.8914594    69.513732   0.01325586  0.012037436          132 
  438000   0.55521168   -7.8986611    69.656923  0.013252839  0.011995383          328 
  439000   0.54968497   -7.9143012    69.685205  0.013228019  0.011953538          135 
  440000   0.56158696   -7.8949025    69.642744  0.013189914  0.011911763          177 
  441000    0.5557488   -7.9101153     69.45387  0.013124314  0.011870156           89 
  442000   0.55906061   -7.9204478    69.437291  0.013091495  0.011828676          126 
  443000   0.57414235   -7.9200279     69.68574  0.013108679  0.011787425           76 
  444000   0.55931017   -7.9282035    69.421306  0.013029524  0.011746372          186 
  445000   0.55997368   -7.9293208    69.511842  0.013017199   0.01170535          259 
  446000     0.565241   -7.9348245    69.498903  0.012985595  0.011664561          129 
  447000   0.54543338   -7.9244998    69.568733  0.012969562  0.011623971          132 
  448000   0.55266296   -7.9388809    69.601486  0.012946705   0.01158351          165 
  449000   0.55129562   -7.9430463    69.491292  0.012897419    0.0115432          105 
  450000   0.55480841   -7.9266969    69.556373   0.01288081  0.011503081          201 
  451000   0.54815224   -7.9428959    69.540398  0.012849298  0.011463267          228 
  452000   0.54477467   -7.9365971    69.504849  0.012814316  0.011423465          306 
  453000    0.5487257   -7.9286884    69.484851  0.012782349  0.011383891          146 
  454000   0.54929381   -7.9526925    69.640138  0.012782698  0.011344432          140 
  455000   0.53705723   -7.9575875    69.506656  0.012730157  0.011305206          175 
  456000   0.53440845   -7.9507978    69.395844  0.012681989  0.011266163          217 
  457000   0.53641409   -7.9816227     69.46857    0.0126675  0.011227294          125 
  458000    0.5386873   -7.9317845    69.456969  0.012637731  0.011188581          164 
  459000   0.53625214   -7.9503437    69.505637  0.012619034  0.011149943          362 
  460000   0.53444311   -7.9624621    69.443095  0.012580271  0.011111426          290 
  461000   0.52759046   -7.9667782    69.462022  0.012556403  0.011073122          312 
  462000   0.53277296   -7.9731741    69.367101  0.012512103   0.01103499          311 
  463000   0.51919161    -7.986513    69.364058  0.012484532  0.010996994          131 
  464000   0.53536685   -7.9977075    69.350892  0.012455261  0.010959108          346 
  465000   0.50130437   -7.9935824    69.370948  0.012432069  0.010921415          204 
  466000   0.52395482   -7.9941618    69.202698  0.012375304  0.010883857          232 
  467000   0.51526704   -7.9775667    69.324494  0.012370538  0.010846442          188 
  468000   0.52406065    -8.010931    69.296419  0.012339106  0.010809138          377 
  469000   0.52397931   -7.9930003    69.495511  0.012348172  0.010772038          318 
  470000   0.52481094   -7.9945268     69.33355  0.012293183  0.010735108          295 
  471000    0.5146781   -8.0076986    69.217649  0.012246576  0.010698249          253 
  472000   0.50877424   -8.0079904    69.312356  0.012237351  0.010661633          331 
  473000   0.51120586   -7.9915656    69.429517  0.012232121  0.010625211          156 
  474000   0.49806588    -8.023732    69.243713  0.012173649  0.010588856          211 
  475000   0.49500168   -8.0164965    69.320055  0.012161413  0.010552678          307 
  476000    0.5141879    -8.031012    69.222888  0.012118853   0.01051675          302 
  477000   0.50236496   -8.0313238    69.248257  0.012097879  0.010480906          148 
  478000   0.49983704   -8.0151975    69.173171  0.012059479  0.010445189          321 
  479000   0.50005919   -8.0282454    69.239436  0.012045831  0.010409607          426 
  480000   0.50506761   -8.0290685    69.210435  0.012015701  0.010374151          354 
  481000   0.49564318   -8.0346513    69.167324  0.011983251   0.01033886          365 
  482000   0.49687659   -8.0390037    69.319578  0.011984713  0.010303747          220 
  483000   0.49840016   -8.0150845     69.27291  0.011951848  0.010268848          242 
  484000   0.49561215   -8.0359252    69.194011  0.011913569  0.010234114          298 
  485000   0.50207922   -8.0375872    69.154153  0.011882157  0.010199525          388 
  486000   0.49661169   -8.0365994     69.21415  0.011867996  0.010165034          328 
  487000   0.49235077   -8.0331614    69.098994  0.011823921  0.010130722          311 
  488000   0.48408961   -8.0375241    69.219765  0.011820315  0.010096538          328 
  489000   0.48597814    -8.058247    69.296509  0.011809221  0.010062489          263 
  490000   0.48603753   -8.0525896    69.158524  0.011761654  0.010028586          409 
  491000   0.49855176   -8.0475068    69.161333  0.011738176 0.0099948405          276 
  492000   0.48638978   -8.0461943    69.288457   0.01173585 0.0099612219          291 
  493000   0.49422278   -8.0633216    69.210547  0.011698875 0.0099277627          305 
  494000   0.48889619    -8.067404      69.0422  0.011646795 0.0098943879          204 
  495000    0.4761157   -8.0680197    69.106253  0.011634049  0.009861122          356 
  496000   0.47890693   -8.0639256     69.07672  0.011605632 0.0098280886          361 
  497000   0.47727153   -8.0545124    69.128581  0.011590976 0.0097951975          366 
  498000   0.45820883   -8.0744653    69.147987  0.011570948  0.009762459          218 
  499000   0.46339149    -8.062583    69.105383  0.011540645 0.0097298826          372 
  500000    0.4716083    -8.087324    69.038547  0.011506424 0.0096974037          430 
  501000   0.47799278   -8.0882312    69.158009  0.011503328 0.0096650737          392 
  502000   0.46338162     -8.08902    69.070526  0.011465891  0.009632874          306 
  503000     0.466845   -8.0897021    68.973454  0.011427014 0.0096008201          318 
  504000   0.46115727   -8.0997822    69.215958  0.011444438 0.0095689128          346 
  505000   0.45782558   -8.0981274    69.062943  0.011396525 0.0095371513          334 
  506000   0.45650416   -8.0895645    69.057539  0.011373112 0.0095054906          269 
  507000   0.45449393   -8.0867922    69.125885  0.011361914 0.0094739658          322 
  508000   0.46201164   -8.1029328    68.936647  0.011308505 0.0094425395          365 
  509000   0.45093158   -8.0945992    69.024118  0.011300609 0.0094112798          369 
  510000   0.46042821   -8.1101547    69.057538  0.011283911 0.0093801384          379 
  511000   0.44069556   -8.0970588    68.999032  0.011252288 0.0093491423          311 
  512000   0.44961668   -8.1209144      68.9365  0.011220133 0.0093183239          373 
Loop time of 1312.9 on 48 procs for 500000 steps with 4000 atoms

Performance: 65808.691 tau/day, 380.837 timesteps/s
99.4% CPU use with 48 MPI tasks x no OpenMP threads

MPI task timing breakdown:
Section |  min time  |  avg time  |  max time  |%varavg| %total
---------------------------------------------------------------
Pair    | 90.718     | 100.77     | 107.24     |  34.6 |  7.68
Neigh   | 9.18       | 9.5244     | 9.8851     |   5.9 |  0.73
Comm    | 83.486     | 90.138     | 100.16     |  39.4 |  6.87
Output  | 0.98538    | 0.9866     | 1.0285     |   0.6 |  0.08
Modify  | 1096.4     | 1099.4     | 1104.3     |   5.4 | 83.74
Other   |            | 12.04      |            |       |  0.92

Nlocal:        83.3333 ave          89 max          78 min
Histogram: 4 3 4 8 10 2 7 5 1 4
Nghost:        2424.25 ave        2447 max        2401 min
Histogram: 1 2 4 7 8 11 4 10 0 1
Neighs:        16812.2 ave       18637 max       14450 min
Histogram: 3 2 5 5 9 2 1 8 6 7
FullNghs:      33626.2 ave       36161 max       31431 min
Histogram: 3 4 4 8 10 4 7 4 1 3

Total # of neighbors = 1614057
Ave neighs/atom = 403.51425
Neighbor list builds = 26648
Dangerous builds = 0

#clear
#
#next RN
#
#jump SELF
Total wall time: 0:21:56
