
units lj                  # Use reduced LJ style units
atom_style atomic         # Uncharged point particles
atom_modify map hash      # Needed for indexing of clusters etc
                          # Used to be able to find where atoms are in relation to each other.

lattice fcc 1.0 spacing 1 1 1
Lattice spacing in x,y,z = 1.5874011 1.5874011 1.5874011
region box block 0 10 0 10 0 10 units lattice
create_box 2 box
Created orthogonal box = (0.0000000 0.0000000 0.0000000) to (15.874011 15.874011 15.874011)
  3 by 4 by 4 MPI processor grid
create_atoms 1 box
Created 4000 atoms
  using lattice units in orthogonal box = (0.0000000 0.0000000 0.0000000) to (15.874011 15.874011 15.874011)
  create_atoms CPU = 0.009 seconds
set type 1 type/fraction 2 0.67 78393
Setting atom values ...
  2693 settings made for type/fraction
mass 1 1.0
mass 2 1.0
pair_style lj/cut  3.5
pair_modify tail  yes
pair_coeff 1  1  1.0  1.0   # Intearaction between 1 and 1 set with epsilon = 1 and sigma = 1
pair_coeff 1  2  1.5  0.8
pair_coeff 2  2  0.5  0.88

write_data data.0
System init for write_data ...
Neighbor list info ...
  update every 1 steps, delay 10 steps, check yes
  max neighbors/atom: 2000, page size: 100000
  master list distance cutoff = 3.8
  ghost atom cutoff = 3.8
  binsize = 1.9, bins = 9 9 9
  1 neighbor lists, perpetual/occasional/extra = 1 0 0
  (1) pair lj/cut, perpetual
      attributes: half, newton on
      pair build: half/bin/atomonly/newton
      stencil: half/bin/3d
      bin: standard
WARNING: Not all mixed pair coeffs generated from mixing. Use write_data with 'pair ij' option to store all pair coeffs. (../write_data.cpp:312)


#############################
#   M E L T   S Y S T E M   #
#############################

velocity all create 2.4 5833274 mom yes dist gaussian # Assign velocities
                                                    # Temperature 2.4, random number seed, zero linear momentum
                                                                                # Gaussian distribution

timestep 0.002   # simulation timestep
thermo 1000       # output thermodynamic data every 1000 steps bf 100

# Define a fix  in this case with index 1 applied to all
# particles in the simulation. This fix is for simulations
# in the anisotropic NPT ensemble. Note that we use the MTK
# correction.
fix 1 all npt temp 2.4 2.4 0.1 iso 5.68 5.68 0.5 mtk yes tchain 5 pchain 5 # Use NPT ensemble
                                                                         # Set temperature and pressure and damping
                                                                         # Numbers of thermostats in chain and in barostat
run 10000          # run for 10000 steps
Per MPI rank memory allocation (min/avg/max) = 3.642 | 3.644 | 3.648 Mbytes
Step Temp E_pair E_mol TotEng Press Volume 
       0          2.4   -4.3445498            0  -0.74544977   -3.8717164         4000 
    1000     2.429843   -4.0633725            0  -0.41951916    5.5673336    3623.7161 
    2000    2.3934797   -3.9612193            0   -0.3718973     5.924762    3651.8239 
    3000     2.401488    -4.019226            0  -0.41789452    5.4229375    3657.2662 
    4000    2.4432382   -3.9564779            0  -0.29253685    5.8669154    3654.5591 
    5000     2.337798   -4.0547252            0  -0.54890488    5.1727561    3652.9801 
    6000    2.3241703   -4.0624644            0  -0.57708048    5.9352612    3579.5623 
    7000    2.4563786   -4.0482209            0  -0.36457413    5.9912254    3597.9275 
    8000    2.3861421    -4.044223            0  -0.46590459    5.5349266    3635.4886 
    9000    2.3955623    -4.021346            0  -0.42890083    5.8726126      3616.32 
   10000    2.3873559   -4.0739006            0  -0.49376196     5.783295    3591.9494 
Loop time of 2.63495 on 48 procs for 10000 steps with 4000 atoms

Performance: 655800.314 tau/day, 3795.141 timesteps/s
99.6% CPU use with 48 MPI tasks x no OpenMP threads

MPI task timing breakdown:
Section |  min time  |  avg time  |  max time  |%varavg| %total
---------------------------------------------------------------
Pair    | 1.1983     | 1.2692     | 1.3413     |   2.9 | 48.17
Neigh   | 0.21873    | 0.22501    | 0.2352     |   0.7 |  8.54
Comm    | 0.7891     | 0.88531    | 0.94332    |   3.7 | 33.60
Output  | 0.00024801 | 0.00025226 | 0.00032672 |   0.0 |  0.01
Modify  | 0.20919    | 0.23982    | 0.25892    |   2.7 |  9.10
Other   |            | 0.01533    |            |       |  0.58

Nlocal:        83.3333 ave          95 max          74 min
Histogram: 4 2 4 4 16 7 9 0 1 1
Nghost:        1765.85 ave        1795 max        1737 min
Histogram: 2 4 5 5 4 10 9 5 2 2
Neighs:        10629.2 ave       12274 max        9133 min
Histogram: 3 1 6 5 12 6 9 3 2 1

Total # of neighbors = 510202
Ave neighs/atom = 127.55050
Neighbor list builds = 910
Dangerous builds = 227

# Equilibrate just above the melting temperature to avoid step fn in T

fix 1 all npt temp 1.25 1.25 0.1 iso 5.68 5.68 0.5 mtk yes tchain 5 pchain 5
run 2000
Per MPI rank memory allocation (min/avg/max) = 3.644 | 3.646 | 3.649 Mbytes
Step Temp E_pair E_mol TotEng Press Volume 
   10000    2.3873559   -4.0739006            0  -0.49376196     5.783295    3591.9494 
   11000    1.2627141     -5.93134            0   -4.0377424    5.5230839    2779.8332 
   12000    1.2379728   -5.9745243            0   -4.1180293    5.5460071    2762.6292 
Loop time of 0.663762 on 48 procs for 2000 steps with 4000 atoms

Performance: 520668.746 tau/day, 3013.129 timesteps/s
99.6% CPU use with 48 MPI tasks x no OpenMP threads

MPI task timing breakdown:
Section |  min time  |  avg time  |  max time  |%varavg| %total
---------------------------------------------------------------
Pair    | 0.28554    | 0.3258     | 0.37311    |   2.6 | 49.08
Neigh   | 0.041012   | 0.044164   | 0.049043   |   0.7 |  6.65
Comm    | 0.19182    | 0.24457    | 0.2913     |   3.4 | 36.85
Output  | 4.8881e-05 | 5.0863e-05 | 7.9156e-05 |   0.0 |  0.01
Modify  | 0.040305   | 0.044335   | 0.047558   |   1.0 |  6.68
Other   |            | 0.004839   |            |       |  0.73

Nlocal:        83.3333 ave          90 max          73 min
Histogram: 1 1 3 0 8 11 5 11 5 3
Nghost:        2108.08 ave        2129 max        2089 min
Histogram: 3 3 5 5 8 8 7 5 2 2
Neighs:        13819.0 ave       15153 max       11690 min
Histogram: 1 1 1 3 9 7 10 5 5 6

Total # of neighbors = 663312
Ave neighs/atom = 165.82800
Neighbor list builds = 144
Dangerous builds = 16

#############################
# L I N E A R  Q U E N C H  #
#############################

# Define solid atoms. This closely follows ten Wolde  Ruiz-Montero and Frenkel  Faraday Discuss  1996  104  93-110
# Compute components of the per-atom q6 vector
compute q6 all orientorder/atom degrees 1 6 components 6 nnn NULL cutoff 1.3 # compute the Q6 parameter.
                                                                             # Use all neighbours within 1.3 unit cell.

# get number of connections
compute coord_number all coord/atom orientorder q6 0.5

# An atom is solid if it has 8 or more connections (of a possible 14)
variable is_solid atom c_coord_number>=8
group solid dynamic all var is_solid    # Must be dynamic to update
dynamic group solid defined

# do clustering
compute cluster solid cluster/atom 1.3 # Create a cluster where all atoms within are solid and max 1.3 units from another member

# define chunks one chunk per cluster
compute clus_chunks solid chunk/atom c_cluster nchunk every compress yes  # Says which atoms are in which chunk

# count the size of each chunk
compute size_chunks solid property/chunk clus_chunks count


# Find the maximum entry in the vector of chunk sizes
variable max_n equal max(c_size_chunks)


# Thermo style which includes this variable
# thermo_style custom step temp pe vol v_max_n

thermo ${N}  # Print the thermo information every 100 steps
thermo 1000  

# Reset the npt fix at a lower temperature (below freezing)
fix 1  all npt temp  ${temp} ${temp}  0.1  iso  5.68  5.68  0.5  mtk yes tchain  5  pchain  5
fix 1  all npt temp  0.45 ${temp}  0.1  iso  5.68  5.68  0.5  mtk yes tchain  5  pchain  5
fix 1  all npt temp  0.45 0.45  0.1  iso  5.68  5.68  0.5  mtk yes tchain  5  pchain  5

dump dmp2 all dcd ${N} traj.dcd
dump dmp2 all dcd 1000 traj.dcd


compute msd all msd com yes
variable twopoint equal c_msd[4]/6/(step*dt+1.0e-6)
fix 9 all vector 10 c_msd[4]
variable fit equal slope(f_9)/6/(10*dt)
thermo_style custom step temp pe c_msd[4] v_twopoint v_fit v_max_n

fix 1 all npt temp 1.25 ${temp} 0.1 iso 5.68 5.68 0.5 mtk yes tchain 5 pchain 5
fix 1 all npt temp 1.25 0.45 0.1 iso 5.68 5.68 0.5 mtk yes tchain 5 pchain 5
run 5000000 # 5000000  # Run for this many steps
Neighbor list info ...
  update every 1 steps, delay 10 steps, check yes
  max neighbors/atom: 2000, page size: 100000
  master list distance cutoff = 3.8
  ghost atom cutoff = 3.8
  binsize = 1.9, bins = 8 8 8
  4 neighbor lists, perpetual/occasional/extra = 1 3 0
  (1) pair lj/cut, perpetual
      attributes: half, newton on
      pair build: half/bin/atomonly/newton
      stencil: half/bin/3d
      bin: standard
  (2) compute orientorder/atom, occasional
      attributes: full, newton on
      pair build: full/bin/atomonly
      stencil: full/bin/3d
      bin: standard
  (3) compute coord/atom, occasional
      attributes: full, newton on
      pair build: full/bin/atomonly
      stencil: full/bin/3d
      bin: standard
  (4) compute cluster/atom, occasional
      attributes: full, newton on
      pair build: full/bin/atomonly
      stencil: full/bin/3d
      bin: standard
Per MPI rank memory allocation (min/avg/max) = 9.846 | 9.851 | 9.856 Mbytes
Step Temp PotEng c_msd[4] v_twopoint v_fit v_max_n 
   12000    1.2379728   -5.9745243 8.4960319e-31 5.9000219e-33 8.3333333e+20            3 
   13000    1.2583024   -5.9804431   0.59055295 0.0037855957  0.047951328            4 
   14000    1.2414748   -5.9859281    1.1117498 0.0066175583  0.045760874            1 
   15000    1.2471525   -5.9987393    1.6790138 0.0093278539  0.046538627            3 
   16000    1.2690823   -5.9725052    2.2430275  0.011682434   0.04590864            2 
   17000    1.2484741   -6.0035768     2.808128  0.013765333  0.046352152            1 
   18000    1.2410387   -6.0147932    3.3989791  0.015736014  0.046732457            3 
   19000    1.2466134   -5.9862645    3.9377184  0.017270694  0.047039977            2 
   20000    1.2154581   -5.9783437    4.4232994  0.018430414  0.046676142            1 
   21000    1.2167347   -6.0037364    5.0139139  0.019896483  0.046471553            4 
   22000    1.2860348   -5.9862301    5.6043346   0.02122854  0.046447276            3 
   23000    1.2810057    -5.984302    6.2019195  0.022470722  0.046544949            1 
   24000      1.22678   -5.9473933    6.6990956  0.023260748  0.046532375            2 
   25000    1.2421732   -5.9634476    7.3178645  0.024392881  0.046537192            2 
   26000    1.2269577   -6.0015367    7.9325221   0.02542475  0.046694851            3 
   27000    1.2431546   -6.0196582    8.4958571  0.026221781  0.046872679            5 
   28000    1.2671091   -5.9815357    9.1197962   0.02714225  0.047078681            3 
   29000    1.2483981   -5.9746524     9.838841  0.028272531  0.047348078            2 
   30000    1.2499061   -5.9814587    10.328042  0.028689004  0.047600006            3 
   31000    1.2630894   -6.0016974    10.948297  0.029430905  0.047799167            1 
   32000    1.2437414   -6.0040235    11.560967  0.030106686  0.047970746            4 
   33000    1.2823758   -5.9953122    11.933612  0.030135383  0.047983197            8 
   34000    1.2590598   -5.9460147    12.394629  0.030378993  0.047829888            2 
   35000    1.2445853   -6.0221924    12.866046  0.030633442  0.047625001            2 
   36000     1.264678   -6.0278453    13.503192  0.031257389  0.047490158            2 
   37000    1.2673981    -6.021635    14.099248  0.031755062  0.047414249            2 
   38000     1.259082   -6.0037765    14.739393   0.03232323  0.047415354            2 
   39000    1.2415789    -6.009582    15.234037  0.032551361  0.047373659            4 
   40000    1.2337025   -6.0506785    15.707809  0.032724602  0.047311266            3 
   41000    1.2349291   -5.9660389    16.238066    0.0330042  0.047208601            5 
   42000    1.2148486    -6.034266    16.646823   0.03302941  0.047069159            2 
   43000    1.2464681   -5.9832881    17.338037  0.033600846  0.046960561            3 
   44000    1.2679364   -5.9533644     17.83694  0.033782083  0.046844056            1 
   45000    1.2440773   -6.0041019    18.387466  0.034050863  0.046735687            2 
   46000    1.2432156   -5.9568063    19.040589  0.034493821  0.046650904            2 
   47000    1.2423067   -5.9885734    19.425904  0.034443093  0.046575387            4 
   48000    1.2469435   -5.9824444    20.133749  0.034954424  0.046531927            5 
   49000    1.2543252   -5.9976087    20.771732  0.035326074  0.046546476            1 
   50000    1.2203583   -6.0300541    21.467348  0.035778913  0.046578229            2 
   51000    1.2491422   -6.0421053    21.776085  0.035581837  0.046590616            4 
   52000    1.2568637   -6.0139454    22.303483  0.035742761  0.046561081            3 
   53000    1.2676658   -5.9919975    22.840266  0.035912367  0.046519537            3 
   54000     1.256574   -5.9954878     23.51893  0.036294645  0.046514655            1 
   55000    1.2339818   -6.0030481    24.247198  0.036738178  0.046521445            2 
   56000    1.2369945   -6.0056937    24.798411  0.036902397  0.046540493            2 
   57000    1.2261873   -6.0054557    25.219296  0.036870316  0.046549964            2 
   58000    1.2698376   -6.0041908    25.842408  0.037129896   0.04656724            2 
   59000    1.2537669   -6.0403479    26.326028  0.037183655  0.046562981            3 
   60000     1.205445    -6.019716    26.931015  0.037404187  0.046574536            3 
   61000     1.238352    -6.035475    27.593831   0.03769649  0.046590546            2 
   62000    1.2385345   -6.0017076     28.10876  0.037780591  0.046618282            2 
   63000    1.2538763   -5.9582813     28.65004  0.037896877  0.046623206            6 
   64000    1.2325757   -5.9796833    29.074514  0.037857439  0.046610496            2 
   65000     1.210724    -6.044431    29.365148  0.037647625  0.046568729            3 
   66000     1.255976   -6.0442101    29.958437  0.037826309  0.046529505            1 
   67000    1.2154051   -5.9874816    30.292971  0.037677824  0.046471748            2 
   68000    1.2682972   -6.0040782    30.818221  0.037767427  0.046401561            2 
   69000    1.2393271   -5.9688553    31.337397  0.037847097  0.046322408            1 
   70000    1.2123453   -6.0423259    31.817769  0.037878296  0.046231188            4 
   71000    1.2307317   -5.9886941    32.400804  0.038029112   0.04615611            2 
   72000    1.2578646   -5.9948702    32.766297  0.037923955  0.046088468            3 
   73000    1.2548744   -6.0026417    33.353178  0.038074403  0.046015645            2 
   74000     1.221339   -6.0282535    33.758376  0.038016189  0.045949413            3 
   75000    1.2285405   -5.9858767    34.420251  0.038244723   0.04588232            4 
   76000    1.2804626   -6.0158387    34.811244  0.038170224  0.045815994            2 
   77000    1.2408663   -5.9924986    35.414528  0.038327411  0.045742085            1 
   78000     1.223522   -5.9752315    35.994392  0.038455547  0.045677997            4 
   79000    1.2078705   -6.0182467    36.461162  0.038461142  0.045624547            2 
   80000    1.2498155   -6.0289162    37.043564  0.038587046  0.045566362            1 
   81000    1.2521373   -5.9642541    37.628396  0.038712341  0.045517839            1 
   82000    1.2501761   -5.9932554     38.07048  0.038689512  0.045474725            2 
   83000     1.237482   -6.0062927    38.779491  0.038935232  0.045438195            3 
   84000    1.2430345   -5.9695015     38.95961  0.038650406  0.045387399            3 
   85000    1.2324858   -5.9843928    39.478228  0.038704144  0.045333852            1 
   86000    1.2264157   -6.0678132    39.939304  0.038700876  0.045281526            2 
   87000    1.2551448   -6.0317224    40.704142  0.038988641  0.045234622            2 
   88000    1.2377002   -6.0159927    41.206368  0.039021182  0.045193323            3 
   89000    1.2327067   -6.0018666    42.066526  0.039388132  0.045169414            5 
   90000    1.2580045   -6.0612803    42.349398  0.039212406  0.045150474            1 
   91000    1.2417256   -5.9833458    42.989372  0.039367557  0.045128126            3 
   92000    1.2663518   -6.0152083    43.528182    0.0394277  0.045104024            3 
   93000    1.2370416   -6.0076253    43.886699  0.039324998  0.045072336            2 
   94000    1.2596919   -6.0153089    44.580618  0.039521824  0.045049697            5 
   95000    1.2339663   -6.0124448    44.987151  0.039462413  0.045030239            3 
   96000    1.2464882   -5.9823069    45.354395  0.039370134  0.045002357            2 
   97000    1.2270913   -6.0188723    45.927304  0.039456447  0.044975235            2 
   98000    1.2162843   -5.9866195     46.42791  0.039479516  0.044943636            2 
   99000    1.2525561   -5.9936801    46.863234  0.039447167  0.044913897            1 
  100000    1.2163808   -5.9949846    47.745392  0.039787826  0.044891596            3 
  101000    1.2371222   -6.0393039    48.022794  0.039622767  0.044864499            6 
  102000    1.2316195   -6.0093203    48.546915  0.039662512  0.044835072            3 
  103000    1.2279712   -6.0099035    49.282537  0.039872602  0.044805823            3 
  104000     1.205658   -6.0029578    49.793215  0.039898409  0.044792164            5 
  105000    1.2218843   -5.9965159    50.326648  0.039941784  0.044773642            3 
  106000    1.2174884   -5.9961351    50.938281  0.040045818  0.044759403            2 
  107000    1.2036107   -6.0730151    51.436169  0.040059321  0.044747495            2 
  108000    1.2788976   -6.0122697    52.135985  0.040228383  0.044747833            3 
  109000    1.2133036   -6.0278067    52.753988  0.040331795  0.044748309            4 
  110000    1.2169403   -6.0446447    52.900338  0.040076014  0.044746623            5 
  111000    1.2285623   -6.0492421    53.413279  0.040100059  0.044741186            2 
  112000    1.2403844   -6.0248074    54.245758  0.040361427  0.044734794            4 
  113000    1.2446877   -6.0360814    54.876993  0.040469759  0.044734711            2 
  114000    1.2297054   -6.0079289    55.329014  0.040445186  0.044736381            5 
  115000    1.2379391   -6.0336173    55.905847  0.040511483  0.044742003            1 
  116000    1.2257196   -6.0055995    56.583843  0.040649312  0.044754046            1 
  117000    1.2546822   -6.0249246    57.106179  0.040673916  0.044762693            3 
  118000    1.1958656   -6.0337112    57.703951  0.040751378   0.04476804            2 
  119000    1.2202959   -6.0073589    58.357083  0.040866304  0.044778209            3 
  120000    1.2393396    -5.988041    58.747118  0.040796609  0.044788046            9 
  121000     1.214021   -6.0229628    59.181814  0.040758825  0.044795918            4 
  122000    1.2322818   -6.0501603    59.573933  0.040692577  0.044796929            1 
  123000    1.2239254   -6.0075794    60.026032  0.040668043  0.044793113            3 
  124000    1.2095544   -6.0417152    60.780135  0.040846865  0.044787009            4 
  125000    1.2319393     -6.05109    60.842907  0.040561938  0.044778236            2 
  126000    1.2461104   -6.0237774    61.456823  0.040646047  0.044765854            2 
  127000    1.2524696   -6.0037893    61.989356   0.04067543  0.044746267            2 
  128000    1.2203516   -6.0015986    62.233485  0.040516591   0.04472715            2 
  129000    1.2401602   -5.9997695    63.010357  0.040704365  0.044707809            6 
  130000    1.2215046   -6.0095743    63.881446  0.040949645  0.044703504            2 
  131000    1.1937438   -6.0250565     64.60999  0.041100502   0.04470371            2 
  132000    1.2216502   -6.0080537    65.277657  0.041210642  0.044704789            4 
  133000    1.2385169   -6.0379254    65.290406  0.040908775  0.044700284            3 
  134000     1.228191   -5.9894704    66.156009  0.041141797  0.044699099            2 
  135000    1.2548401   -6.0094643    66.623036   0.04112533  0.044701291            2 
  136000    1.2505836   -6.0404259    66.973538  0.041037707  0.044698137            2 
  137000    1.2353456   -6.0082305    67.473517  0.041042285  0.044696326            2 
  138000    1.2111492   -6.0493015    67.922885  0.041016235  0.044692165            3 
  139000    1.2430054   -6.0056999    68.378895  0.040994541   0.04468091            2 
  140000    1.2390778   -6.0334178    68.988924  0.041064835  0.044672314            2 
  141000     1.221633   -6.0318372    69.621934  0.041147715  0.044664148            3 
  142000    1.2208048   -6.0714444    70.133185  0.041157972  0.044663957            7 
  143000    1.2480632   -6.0543208    70.416594  0.041035311  0.044654994            1 
  144000    1.2109828   -6.0344358    70.835129  0.040992552  0.044644472            2 
  145000    1.2180899   -6.0102335    71.547729  0.041119384  0.044630254            2 
  146000    1.2103483   -6.0184723    72.004175  0.041098273   0.04461447            3 
  147000    1.2268868   -6.0183479    72.293878  0.040982924  0.044598428            2 
  148000     1.186846   -6.0416442    72.754919  0.040965607  0.044582204            3 
  149000    1.2224326   -6.0455737    73.236768  0.040960161   0.04456556            3 
  150000    1.2460711   -6.0936975     73.64907   0.04091615  0.044545471            2 
  151000    1.2554715    -6.030848    74.177238  0.040936666  0.044527905            2 
  152000    1.2480184   -6.0436328    74.624592  0.040912605  0.044511957            3 
  153000     1.237699   -6.0172771    75.127309  0.040919013   0.04449237            6 
  154000    1.2119908   -6.0731067    75.446146  0.040825836  0.044476527            2 
  155000    1.2168833     -6.02886    76.146297  0.040938869  0.044454283            5 
  156000    1.2379244    -6.008882    76.787628  0.041019032  0.044435083            2 
  157000    1.2323769    -5.993752    77.734556   0.04126038  0.044423633            5 
  158000    1.2090452   -6.0096115    78.051355  0.041166326  0.044410697            2 
  159000    1.2367338   -6.0255719    78.444368    0.0411134  0.044395253            1 
  160000     1.229031   -5.9956991    79.015046   0.04115367  0.044383527            1 
  161000     1.225654   -5.9708252    79.713491  0.041259571  0.044370837            2 
  162000    1.2087382   -6.0567009    79.927585  0.041115013  0.044355503            2 
  163000    1.1966121   -6.0214739    80.442058  0.041125796  0.044341501            2 
  164000    1.2109802   -6.0625087    80.865061   0.04108997  0.044325789            1 
  165000    1.2048073   -6.0343532    81.462327  0.041142589  0.044310201            1 
  166000    1.2273464   -6.0630397    81.740671  0.041034473   0.04429254            2 
  167000     1.219737   -6.0483532    82.140949  0.040988497  0.044270823            6 
  168000     1.232037   -6.0493466     82.95948  0.041150535  0.044252894            1 
  169000    1.2273143   -6.0377731    83.258981  0.041054724  0.044233036            2 
  170000    1.1838768   -6.0658278    83.839337  0.041097714  0.044217085            2 
  171000    1.2128743   -6.0510557    84.151602  0.041009553  0.044202642            2 
  172000    1.2495155    -6.068563    84.923482  0.041145098  0.044189681            2 
  173000    1.2413434   -6.0307464    85.888799  0.041372254  0.044179354            1 
  174000    1.2300988   -6.0045116    86.363176  0.041361674  0.044171198            6 
  175000    1.2153359   -6.0290068    86.945385  0.041402564  0.044164163            2 
  176000    1.2293619   -6.0601917    86.858413  0.041126142  0.044151304            3 
  177000    1.2081927   -5.9874375    88.117863  0.041486753    0.0441385            1 
  178000    1.2016605    -6.036614    88.341381  0.041358324  0.044126677            1 
  179000    1.2141542   -6.0202084    88.842062  0.041360364  0.044116528            1 
  180000    1.2456807   -6.0551438    89.028957   0.04121711  0.044106524            2 
  181000    1.2175372   -6.0660995    89.904836   0.04139265  0.044095428            2 
  182000    1.2212285   -6.0455242    90.019327   0.04121764  0.044083557            2 
  183000    1.2139049   -6.0429689    90.443434  0.041185535  0.044070108            3 
  184000      1.20776   -6.0735966    91.472835  0.041427914  0.044053479            2 
  185000    1.2233844   -6.0569388     91.07164  0.041023261  0.044038935            2 
  186000    1.2223579   -6.0942528    91.979569  0.041209484  0.044024782            3 
  187000    1.2175299   -6.0096719    92.755239  0.041334777  0.044013381            2 
  188000    1.1925036   -6.0395752    93.485996  0.041438828  0.044004882            3 
  189000    1.2241562   -6.0784634    93.857039  0.041383174  0.043994811            2 
  190000    1.2310908   -5.9996266    94.488626   0.04144238  0.043985642            3 
  191000    1.2254905   -6.0647143    94.590458  0.041269833  0.043973495            2 
  192000    1.2379676   -6.0832295    95.411147  0.041411088   0.04395902            3 
  193000    1.2124897   -6.0385808    95.449701   0.04121317  0.043948471            6 
  194000    1.2236735   -6.0486031     96.37465  0.041398046  0.043938684            1 
  195000     1.224113   -6.0167438    97.230848  0.041551644  0.043929258            3 
  196000    1.2275586   -6.0224585     97.76411  0.041566373    0.0439224            2 
  197000    1.1892262   -6.0612303    98.193426  0.041536982   0.04391719            5 
  198000    1.2299303   -6.0404591    99.110155  0.041713028  0.043914985            1 
  199000    1.2219888   -6.0659656    99.670182  0.041737932  0.043914416            2 
  200000     1.196248   -6.0506088     100.3828  0.041826166  0.043916438            2 
  201000    1.2287633   -6.0925136    100.47535  0.041656445  0.043916314            2 
  202000    1.2121923   -6.0823645     101.1324  0.041721288  0.043917776            2 
  203000    1.2362116   -6.0596855     102.0569  0.041895279  0.043920054            1 
  204000    1.2025254   -6.0065678    102.63619  0.041926549  0.043922719            1 
  205000    1.2295026    -6.044209    102.27001  0.041573176  0.043919407            2 
  206000    1.2023999   -6.0842133    102.41433  0.041429746  0.043910959            3 
  207000    1.2256067   -6.0449757    103.12521  0.041515786  0.043903248            1 
  208000    1.2242218   -6.0727942    104.00036  0.041666812  0.043898951            1 
  209000     1.229795   -6.0433645    104.65932   0.04173019   0.04389308            1 
  210000    1.2231067   -6.0436953    105.38529  0.041819558  0.043890131            2 
  211000    1.2393965   -6.0412116    105.42024  0.041635165  0.043887932            4 
  212000    1.1922643   -6.0804797    106.28821  0.041779957  0.043887334            5 
  213000     1.216175   -6.0697673     106.9053  0.041825236  0.043886066            1 
  214000    1.1963116   -6.0441823    107.02732  0.041677305  0.043881396            3 
  215000    1.2311324   -6.0764888    107.46892  0.041654618  0.043874522            2 
  216000    1.2399561   -6.0412481    108.24175  0.041759935  0.043870469            2 
  217000    1.2216998   -6.0970737    108.42825  0.041639113  0.043866606            2 
  218000    1.2263036   -6.0358919    109.68563  0.041928759  0.043863498            6 
  219000    1.2377301   -6.0918201    109.46331  0.041652707  0.043858886            8 
  220000    1.2347777   -6.0278665    110.29808  0.041779574  0.043855455            2 
  221000    1.1947503   -6.0819085    110.46672  0.041654118  0.043852721            1 
  222000    1.1918217   -6.0215743     111.4968  0.041853153  0.043850151            3 
  223000    1.2122902   -6.0408196    112.29184  0.041962572  0.043847573            2 
  224000    1.2174996   -6.0534758    112.42384  0.041824346  0.043845754            4 
  225000    1.2350373   -6.0375603    113.01852  0.041858711  0.043843887            2 
  226000     1.239035   -6.0593694    113.01919  0.041673742    0.0438401            3 
  227000    1.1905684   -6.0390738    114.06322   0.04187343  0.043834557            1 
  228000    1.2224875   -6.0732978    113.77399   0.04158406  0.043826216            3 
  229000    1.2390563   -6.1064492    114.22348  0.041566039  0.043817407            4 
  230000    1.2202549   -6.0931627    114.75169    0.0415767  0.043808471            5 
  231000    1.2140276   -6.0575097    115.54225  0.041681907  0.043801704            3 
  232000      1.24973   -6.0756023    115.95949  0.041652116  0.043791662            3 
  233000    1.2325819   -6.0649669    116.19865  0.041558889  0.043780439            2 
  234000    1.1819308   -6.0375754    116.88557  0.041625914  0.043770757            5 
  235000    1.2211231   -6.0179485    117.25816  0.041580907   0.04376081            2 
  236000    1.2258296   -6.0824677    117.98122  0.041660035  0.043751393            4 
  237000     1.232349   -6.1071809    118.04994  0.041508418  0.043742467            5 
  238000    1.2155641   -6.0506948    118.53139  0.041502587  0.043731336            4 
  239000    1.2154611   -6.0681481    119.26162   0.04158355  0.043720336            1 
  240000    1.1961374   -6.0362441    119.61294  0.041532272  0.043707857            2 
  241000    1.2179158   -6.1144065    119.67802  0.041382441  0.043694068            2 
  242000    1.2151449    -6.039661    120.75006  0.041580599  0.043679849            3 
  243000    1.2060361   -6.0385956    120.91492  0.041466023  0.043665962            1 
  244000    1.2352579   -6.0401955    121.90842  0.041635388  0.043652588            5 
  245000    1.1939712   -6.0530539    121.90265  0.041463485  0.043641518            2 
  246000    1.2209529   -6.1175658    122.27052  0.041419553  0.043629584            4 
  247000    1.2404759   -6.0684268    122.98553  0.041493094   0.04361588            2 
  248000    1.1877069   -6.0466467    123.30781  0.041434075  0.043602408            2 
  249000    1.2177718   -6.1215227    123.43305  0.041309588  0.043588737            4 
  250000    1.2154415   -6.0624088    124.01721  0.041339069   0.04357349            5 
  251000    1.2304293   -6.0822227    124.87318  0.041458559  0.043559953            3 
  252000    1.2276847   -6.0401608    125.03895   0.04134886  0.043545014            2 
  253000    1.2132079   -6.0942882    125.06734  0.041194777  0.043529564            4 
  254000    1.2106897   -6.0940481    125.60392  0.041208635  0.043513788            3 
  255000    1.2154279   -6.0872783    126.70329  0.041406303   0.04349809            3 
  256000    1.2164602   -6.0466587    127.08225  0.041367919  0.043483818            2 
  257000    1.2398176   -6.0570469    127.95409  0.041489654  0.043470015            3 
  258000    1.2143696   -6.0927188    128.04272  0.041357467  0.043456823            3 
  259000    1.1995379   -6.1130867    128.85737  0.041459901   0.04344572            2 
  260000    1.2035485   -6.0700658    129.33085  0.041452195  0.043434492            2 
  261000    1.2034205   -6.0634103    130.26841  0.041592724   0.04342544            2 
  262000    1.2283623   -6.1626956    129.93939  0.041329324  0.043413929            5 
  263000      1.22532   -6.0542175    131.51435  0.041671214  0.043404001            2 
  264000    1.2061234   -6.0730289    131.27422  0.041437569  0.043393393            3 
  265000    1.2243443   -6.0549305    131.39817  0.041320181   0.04338124            2 
  266000    1.2192066    -6.075931    131.79762   0.04128998  0.043366622            1 
  267000    1.1925025   -6.0542177    132.11969  0.041235859  0.043352702            2 
  268000    1.2371357   -6.0126175    132.94156  0.041337551  0.043338565            4 
  269000    1.2223378    -6.058429    133.00043  0.041202115  0.043322595            4 
  270000    1.1896726   -6.0672547    133.86963  0.041317786  0.043306912            3 
  271000     1.220143   -6.0810928     134.7903   0.04144843  0.043292347            2 
  272000    1.2224766   -6.0702386    134.74967  0.041283599  0.043279732            3 
  273000    1.1947078    -6.057963    135.43425  0.041341346  0.043264838            2 
  274000    1.2128377   -6.1158458     135.3594    0.0411677  0.043250824            4 
  275000    1.2372247   -6.0822765    136.25259  0.041288664  0.043235229            2 
  276000      1.19831   -6.0792149    136.76898   0.04129498   0.04321958            2 
  277000    1.2148489   -6.0683559    137.27179  0.041297169   0.04320595            3 
  278000    1.2199452   -6.0892379    137.51007  0.041220044  0.043192051            6 
  279000    1.2084284   -6.1239131    137.82424   0.04116614  0.043176244            3 
  280000    1.2238277    -6.091718    138.35097  0.041175884  0.043159522            6 
  281000     1.218946   -6.1111623    138.12556  0.040962504  0.043142037            2 
  282000    1.2049491   -6.0863338    138.82256  0.041023214  0.043124999            2 
  283000    1.1788891   -6.0743694    139.21526  0.040993894  0.043108593            2 
  284000    1.1850365   -6.0899385    139.72282  0.040998481  0.043092025            5 
  285000    1.2204741   -6.0962996    140.86917  0.041189816  0.043077238            2 
  286000     1.219421   -6.0912212    141.11803  0.041118308    0.0430621            4 
  287000    1.2140299   -6.0826317    142.12161  0.041266436  0.043047933            5 
  288000    1.2281246   -6.0507317    141.64779   0.04098605  0.043032904            4 
  289000    1.2106709   -6.0475576      142.604  0.041119954  0.043017274            3 
  290000    1.1999689   -6.0664336    143.45268  0.041222036  0.043001248            2 
  291000     1.199443   -6.1141161    142.90536  0.040923642  0.042983375            3 
  292000    1.1970474   -6.0923356    143.97817  0.041089659   0.04296601            5 
  293000    1.2032251   -6.1139559    144.15034   0.04099839  0.042950411            7 
  294000    1.1660446   -6.0850088    145.07407  0.041120768  0.042934757            2 
  295000    1.2011672   -6.0730628    145.46813  0.041092691  0.042920396            1 
  296000    1.1769073   -6.1027431    146.40529  0.041217706  0.042906974            3 
  297000    1.1907108   -6.1239744    146.70345  0.041162584  0.042894545            5 
  298000    1.2026435   -6.0912032     148.0264  0.041394408  0.042883816            3 
  299000     1.201979   -6.1202589    148.49018  0.041385223  0.042875903            2 
  300000     1.183365   -6.0784143    149.32387  0.041478853  0.042868898            7 
  301000    1.2013525   -6.0384507    150.12495  0.041562831  0.042860943            2 
  302000    1.1740857   -6.1410949    150.23688  0.041456093  0.042854779            1 
  303000    1.1965802    -6.131628    150.08684  0.041278009  0.042847166            2 
  304000    1.1914981   -6.1177922    150.78123  0.041332573   0.04283996            1 
  305000    1.1950305   -6.0945328    151.70198  0.041448629  0.042831855            2 
  306000    1.1957732   -6.0861198    151.89585  0.041365973  0.042822255            1 
  307000    1.1802998   -6.1014445     152.2076  0.041315852  0.042812728            2 
  308000    1.1976625   -6.0661187    152.95517  0.041383974  0.042804343            4 
  309000    1.1887217   -6.1033873    153.35676  0.041358349   0.04279741            3 
  310000    1.2143762   -6.0820628    154.06514  0.041415361  0.042789132            2 
  311000    1.2004396   -6.1235282    153.77221  0.041203702  0.042780503            4 
  312000    1.1636868    -6.117243    155.37798  0.041500528  0.042773519            3 
  313000    1.2090707   -6.0880613    155.57853  0.041421334  0.042766579            5 
  314000    1.2020449   -6.0553927    156.04618  0.041413529  0.042759891            3 
  315000    1.1778365   -6.0438324     156.8614  0.041497726  0.042751888            6 
  316000    1.2065234   -6.0850203    156.51443  0.041274904  0.042745091            3 
  317000    1.1851188   -6.1162491    157.23327  0.041333668   0.04273667            2 
  318000     1.187122   -6.0987718    157.47457  0.041266921  0.042726995            4 
  319000    1.2180241   -6.1173036    157.88789  0.041245531  0.042718355            2 
  320000    1.1747319   -6.1045902    158.52673  0.041283002  0.042709225            3 
  321000    1.2040103   -6.1229239    159.05486    0.0412915  0.042702146            4 
  322000    1.2213196   -6.0980952    160.23285  0.041468128  0.042695007            2 
  323000     1.185479   -6.0828404    160.49893  0.041408394  0.042688821            3 
  324000    1.1908891   -6.1428865    160.57964  0.041301347  0.042682147            1 
  325000     1.214542   -6.0840435    161.37365  0.041377858  0.042676033            2 
  326000    1.1839015   -6.1305972    161.99108  0.041408762  0.042670311            3 
  327000    1.2054947   -6.1379448    162.27497  0.041354477  0.042664899            3 
  328000    1.2005234   -6.1396161    162.87179  0.041380029  0.042659316            2 
  329000    1.2102874   -6.1229366    163.27076  0.041355309   0.04265451            2 
  330000    1.2187087   -6.0905867    164.11373  0.041442862  0.042648969            3 
  331000    1.1904121   -6.1224178    164.70168  0.041465679  0.042642259            4 
  332000    1.2077958   -6.0875584    165.18614  0.041462384  0.042636805            2 
  333000    1.2133608     -6.15936    165.40067  0.041391559  0.042632034            5 
  334000    1.2131311   -6.1187125    165.22206   0.04122307  0.042625769            2 
  335000    1.2033178   -6.0702896    167.49248  0.041664795  0.042620247            2 
  336000     1.198255   -6.0763599    167.02853  0.041425727  0.042615045            1 
  337000    1.1640458   -6.1180386    167.63157  0.041451921  0.042609368            3 
  338000    1.1742563   -6.1026478    167.62937  0.041328739  0.042603467            4 
  339000    1.2124081   -6.1171928    168.59941  0.041445282  0.042599173            6 
  340000    1.1898012   -6.0945608    169.53565  0.041552855  0.042595177            2 
  341000    1.1841186   -6.0901549     170.2382  0.041602688  0.042591337            4 
  342000    1.1657371   -6.0791013    170.95217  0.041655012  0.042588344            2 
  343000      1.18367   -6.1010598    170.60306  0.041448751  0.042585071            2 
  344000    1.1856757   -6.1858213    170.42344  0.041284748  0.042579688            3 
  345000    1.1978951   -6.1624696    171.21614  0.041356555  0.042575604            2 
  346000     1.190748   -6.1103611    171.32843  0.041264073  0.042570149            2 
  347000    1.2022058   -6.1022737    172.63704  0.041459423  0.042564726            1 
  348000    1.1875405   -6.1289612    172.33756  0.041268573  0.042558378            4 
  349000    1.1979308   -6.1143081    173.01663  0.041312472  0.042552869            1 
  350000    1.1946021   -6.1514089    172.84973  0.041154697  0.042544826            2 
  351000    1.1682579   -6.1190123    173.80857  0.041265093  0.042536315            2 
  352000    1.2159311   -6.1030567    173.67884   0.04111715  0.042528189            3 
  353000    1.1947293   -6.1395931    174.30594  0.041148711  0.042520314            5 
  354000    1.2015744   -6.0932781    175.64505  0.041347706    0.0425123            3 
  355000    1.2172165   -6.0977278    175.30145  0.041150576  0.042502937            2 
  356000    1.2070436   -6.1122899    176.02623  0.041204642  0.042494553            3 
  357000    1.1854057    -6.112324    176.36212  0.041167629  0.042487028            2 
  358000    1.2031543   -6.1089805    177.01375  0.041204318   0.04247971            4 
  359000     1.216652   -6.1047911    177.47262  0.041196058  0.042472788            2 
  360000    1.1851466   -6.1280095    177.80337  0.041158187  0.042462962            1 
  361000     1.174425   -6.1011021    178.26468  0.041150666  0.042453883            4 
  362000    1.1713489   -6.1256612     178.8313  0.041167426  0.042444654            1 
  363000    1.2085851   -6.0868491    179.38175  0.041180383   0.04243611            6 
  364000    1.2059417   -6.0801883    180.24269  0.041264351  0.042427777            7 
  365000    1.2069132    -6.170634    179.85353   0.04106245  0.042417735            4 
  366000    1.2014988   -6.0940345    180.90664  0.041190036  0.042409265            2 
  367000    1.2073955   -6.1446544     181.1667  0.041136852  0.042400423            2 
  368000    1.1856245   -6.1400935     181.8065   0.04116995  0.042391483            5 
  369000    1.2006617   -6.1312785    182.05258  0.041113953  0.042382871            7 
  370000    1.1942585   -6.1134655    183.12362  0.041244059  0.042374543            3 
  371000    1.2021501   -6.1563589    183.14518  0.041137732  0.042366952            2 
  372000    1.1678258   -6.1213211    184.04873  0.041229554   0.04235867            2 
  373000    1.1697487   -6.1320115    184.51564  0.041223334  0.042351888            5 
  374000    1.1734299   -6.1039369    185.27122  0.041281465  0.042344347            6 
  375000    1.2020438    -6.094124    185.35486  0.041189968  0.042337119            5 
  376000    1.1855084   -6.1226449    186.07663  0.041240387  0.042330267            2 
  377000    1.1909269   -6.1379029    186.51312   0.04122748  0.042323128            4 
  378000    1.2104364   -6.1181928    186.80068  0.041181807  0.042316795            3 
  379000    1.1986837   -6.0991315    186.96717  0.041109755  0.042310625            5 
  380000    1.1968898   -6.1539425     187.2362  0.041060571  0.042303225            6 
  381000    1.1859415   -6.1189076    188.26924   0.04117875  0.042295291            2 
  382000     1.176224   -6.1284192    188.61573  0.041146537  0.042287936            2 
  383000    1.1905477    -6.158419    188.40252  0.040992714  0.042278392            2 
  384000    1.1858447   -6.1489463    188.75261  0.040961937   0.04226914            2 
  385000     1.209104   -6.0932753    190.62144  0.041260052  0.042260339            2 
  386000    1.1604015   -6.1285557    190.12437  0.041045848  0.042251235            3 
  387000    1.1700292   -6.1273824    190.15153  0.040945634  0.042242528            2 
  388000    1.1894732   -6.0820028    191.13398  0.041051112  0.042233068            1 
  389000    1.2073542   -6.0857247    191.58436  0.041042066  0.042223873            4 
  390000    1.1823237   -6.1224789    191.70539   0.04096269  0.042213526            3 
  391000    1.1936569   -6.1067448    192.26427  0.040977039  0.042204308            1 
  392000    1.1856062   -6.0887407    193.74097  0.041186431  0.042195058            3 
  393000    1.1753597   -6.1367057    193.26461  0.040980621  0.042186234            2 
  394000    1.1823449   -6.1099583    194.13128  0.041059916  0.042176914            2 
  395000    1.1606203   -6.1736413    193.91431  0.040910193  0.042168315            2 
  396000    1.1944883   -6.1463921    194.61507   0.04095435  0.042158927            2 
  397000    1.1940259   -6.0869093    195.77725  0.041095141    0.0421501            3 
  398000    1.2138348   -6.1572517    195.76564  0.040989456  0.042142039            2 
  399000    1.1719478    -6.166548    195.58689  0.040849392  0.042132751            6 
  400000    1.1583072   -6.1832173    195.80854  0.040793445  0.042122485            5 
  401000    1.2148084   -6.1449904    196.38975  0.040812499  0.042112615            1 
  402000    1.1727048   -6.1277395    197.40698  0.040921844  0.042102718            6 
  403000    1.1964381   -6.0904591     198.1934   0.04098292  0.042092753            2 
  404000    1.1735083   -6.0937269    198.67202  0.040980202  0.042083908            4 
  405000    1.1805332   -6.1171159    199.45045  0.041039187  0.042075088            2 
  406000    1.1656229   -6.1021182    200.26766  0.041105841  0.042066706            5 
  407000    1.1788015   -6.1463655    200.43439  0.041038982   0.04206027            2 
  408000    1.2081595   -6.1677803    200.77588  0.041008145  0.042052959            1 
  409000    1.1780602   -6.1306831     201.5239   0.04106029  0.042046173            5 
  410000    1.2187406   -6.1245265    201.38114  0.040931126  0.042039459            3 
  411000    1.1941933   -6.1293614    202.33154  0.041024238  0.042032264            5 
  412000    1.1759364   -6.1173925    202.55844  0.040970558  0.042024973            1 
  413000    1.1683274   -6.1464144    203.10748   0.04098214  0.042017485            3 
  414000    1.1835722   -6.1456098    203.33594  0.040929134  0.042009781            1 
  415000    1.1640599    -6.131912    203.70271  0.040904158  0.042001328            1 
  416000    1.1880917   -6.1259908    204.06163   0.04087773  0.041991668            5 
  417000    1.1773395   -6.1306024    203.28843  0.040625187   0.04198171            2 
  418000    1.1376492    -6.204466    204.02211  0.040674264  0.041969881            4 
  419000    1.2102684   -6.1094893    204.74535  0.040721033  0.041957885            2 
  420000    1.1683539   -6.1400371     205.5604  0.040785794  0.041946641            4 
  421000    1.1904882   -6.1137928    206.45693  0.040866376   0.04193759            4 
  422000    1.1665161   -6.1280751    206.30894  0.040740313  0.041927697            1 
  423000    1.1801094   -6.1435808    206.74141  0.040729198  0.041918021            3 
  424000    1.1825888   -6.1489344    206.93209  0.040670615  0.041908181            5 
  425000    1.1818341   -6.1807363    207.43249  0.040673037  0.041897992            4 
  426000    1.1596702   -6.1647178    207.59828  0.040609991  0.041887622            2 
  427000     1.214036   -6.1390859    208.54778   0.04070019  0.041875964            5 
  428000    1.2133786   -6.1124847     209.1931  0.040730744  0.041865439            2 
  429000    1.1826031   -6.1451379    209.21282  0.040639632  0.041855436            3 
  430000    1.1768988   -6.1301119    210.64128  0.040821953  0.041844483            3 
  431000    1.1872301   -6.1425999    210.57447  0.040714322  0.041834797            3 
  432000    1.1807646   -6.1369338    211.51477  0.040801461  0.041824574            3 
  433000    1.1978327    -6.172266    210.31552  0.040476428  0.041813134            5 
  434000    1.1888453   -6.1626843    211.86798  0.040681256  0.041802223            2 
  435000    1.1837478   -6.1452575    211.94339  0.040602182  0.041791627            3 
  436000    1.1910084   -6.1613653    213.32717  0.040773542  0.041782437            3 
  437000     1.165666   -6.1538106    213.50207   0.04071359   0.04177247            4 
  438000    1.1690781   -6.1145657    213.94144  0.040704231  0.041763024            1 
  439000    1.1746354   -6.1675862    213.86773  0.040597519  0.041753043            1 
  440000    1.1806812   -6.1281788    214.16812  0.040562144  0.041741202            3 
  441000    1.1747983   -6.1580169    212.92747  0.040235728  0.041729384            2 
  442000    1.1950118   -6.1530814    214.49719  0.040440646   0.04171652            4 
  443000    1.1779334   -6.1870688    214.25176   0.04030319   0.04170407            6 
  444000    1.1516648   -6.1847639    214.95174  0.040343795  0.041691345            3 
  445000    1.1769403   -6.1313579    216.24129  0.040494624  0.041678818            3 
  446000     1.184698   -6.1569723    216.57058  0.040465354  0.041666678            3 
  447000    1.1709122    -6.135798    217.20029  0.040492225   0.04165531            2 
  448000    1.1892717   -6.1517254    216.69223  0.040307334  0.041644395            3 
  449000    1.1650596   -6.1318051    217.97135  0.040454965  0.041633349            1 
  450000     1.165337   -6.1691538    217.74248  0.040322682  0.041621605            1 
  451000    1.1632399    -6.156599    218.27647  0.040331942  0.041609643            3 
  452000    1.1965884   -6.1632552    218.72943  0.040326222  0.041598006            4 
  453000     1.187633   -6.1395425    220.04909  0.040479966  0.041586762            4 
  454000    1.1687058   -6.1355356    221.39733  0.040638277  0.041575574            3 
  455000    1.1898073    -6.173299    220.35691  0.040358407  0.041563425            2 
  456000    1.1653858   -6.1853575    220.50157  0.040296339  0.041551534            4 
  457000    1.1882028   -6.1281038    221.76842  0.040439172  0.041539487            7 
  458000    1.1619706   -6.1656566     222.5498  0.040493049  0.041529188            2 
  459000    1.1814641   -6.1599868    222.57252  0.040408954  0.041518358            4 
  460000    1.1894779    -6.178256    223.03154  0.040404264  0.041507579            5 
  461000    1.1781434   -6.1272368    223.90952  0.040475328  0.041496208            3 
  462000    1.1759902   -6.1447536    222.80806  0.040189045  0.041484619            3 
  463000    1.1765576   -6.1892045    223.16536  0.040166551  0.041471956            4 
  464000    1.1915034   -6.1738454    223.64501   0.04016613   0.04145943            2 
  465000     1.155223    -6.234587    223.16167  0.039993131  0.041445944            2 
  466000    1.1721481   -6.1078583    224.90123  0.040218388   0.04143303            3 
  467000    1.1988784   -6.1309915     225.4865  0.040236706  0.041420487            2 
  468000    1.1871992   -6.1411004    226.91071  0.040404329  0.041407913            3 
  469000    1.1655675   -6.1857621    226.10422  0.040174879  0.041395445            3 
  470000    1.1676103   -6.2189935    226.86404  0.040224121  0.041383047            4 
  471000     1.164314   -6.2055477    227.09829  0.040180165  0.041370776            1 
  472000      1.14166   -6.2201697    227.05836  0.040087987  0.041357762            2 
  473000    1.1701793   -6.1621311      228.585  0.040272199  0.041345558            4 
  474000    1.1712705    -6.148168    228.96004  0.040253172  0.041333676            4 
  475000     1.189816   -6.0949993    230.20851  0.040387458   0.04132246            5 
  476000    1.1854456   -6.1649872    229.31843  0.040146784  0.041311064            2 
  477000    1.1932529   -6.1329611    229.57898  0.040108138  0.041298119            3 
  478000    1.1752838   -6.1268336    230.58661  0.040199898  0.041286555            3 
  479000    1.1884727   -6.1932925    229.74813  0.039970098  0.041275381            5 
  480000    1.1707789   -6.1373822    230.96051  0.040097311  0.041262551            2 
  481000    1.1837851   -6.1937841    230.77051   0.03998103  0.041248503            2 
  482000    1.1608342   -6.1437005    232.05816  0.040120706  0.041234943            2 
  483000    1.1752647    -6.168421    232.54226  0.040121163  0.041222798            5 
  484000     1.181342   -6.1448164    233.63093  0.040225711   0.04121074            4 
  485000    1.1608786   -6.1764698    232.07232   0.03987497  0.041197414            3 
  486000    1.1686882   -6.1728121    233.33572  0.040009554   0.04118526            3 
  487000    1.1583225   -6.1880688    233.28252  0.039918295  0.041172775            5 
  488000    1.1890137    -6.181234    234.71181  0.040080568      0.04116            6 
  489000    1.1620876   -6.1581289     234.5709  0.039974591  0.041147724            4 
  490000    1.1845368   -6.1565319    235.77935   0.04009853  0.041136268            7 
  491000    1.1844007    -6.197114    235.30403   0.03993619  0.041124424            4 
  492000    1.1550856   -6.2213571    235.26405  0.039848248  0.041111189            3 
  493000    1.1841249   -6.1907849    235.44213   0.03979752  0.041098218            2 
  494000    1.1884628   -6.1871105    236.59766  0.039911887  0.041086356            4 
  495000    1.1677283    -6.184948    238.13493  0.040090056  0.041075214            3 
  496000    1.1621352    -6.206481    238.24116  0.040027076  0.041064684            2 
  497000    1.1935892   -6.1449622    238.92763  0.040061641  0.041054015            3 
  498000    1.1729435   -6.1706616    239.76257  0.040120913   0.04104406            3 
  499000    1.1499798   -6.2189586    239.24682  0.039954379  0.041034324            2 
  500000    1.1779131   -6.1684811    240.42003  0.040070006  0.041023536            5 
  501000    1.1883744   -6.1463826     241.0295    0.0400914  0.041013308            5 
  502000    1.1534697   -6.1845409    239.89229  0.039822757  0.041002596            7 
  503000    1.1742404   -6.1538473    241.41304  0.039995534  0.040991061            3 
  504000    1.1562437   -6.1313265    241.91837   0.03999973   0.04097978            2 
  505000    1.1738137   -6.1508753    242.87162  0.040077824  0.040968608            2 
  506000    1.1937118   -6.1675543    242.23817  0.039894297  0.040956284            1 
  507000    1.1797514     -6.14956    242.38076  0.039839047  0.040943982            4 
  508000    1.1564813   -6.1653284     242.7346  0.039818668  0.040930532            2 
  509000    1.1686315   -6.1995953    243.21632  0.039819305   0.04091882            2 
  510000    1.1669589   -6.1797186    243.44817  0.039779113  0.040907852            7 
  511000    1.1770798   -6.1798782    244.66342  0.039899449  0.040896113            2 
  512000    1.1665571   -6.1983705    244.21263  0.039748149  0.040883378            2 
  513000    1.1739014   -6.1166116    245.80044  0.039928596   0.04087144            5 
  514000    1.1632395    -6.171651    245.60012  0.039818437  0.040858661            1 
  515000     1.160449   -6.1713323    245.61453  0.039743451  0.040846375            3 
  516000    1.1598008   -6.2333087    245.26627  0.039610186  0.040833462            3 
  517000    1.1890153   -6.1512563    246.94182  0.039803647  0.040820962            3 
  518000    1.1927045   -6.1998943    246.92239   0.03972368  0.040809545            3 
  519000    1.1582164   -6.1530673    248.02592  0.039824329  0.040797909            2 
  520000     1.198957   -6.1950212    248.26352   0.03978582  0.040785444            2 
  521000    1.1782752    -6.144638     248.6509  0.039771418  0.040772973            3 
  522000    1.1707907   -6.1820605    249.10769   0.03976815  0.040759722            5 
  523000    1.1653271   -6.1930499    249.10612  0.039691861   0.04074681            2 
  524000    1.1400371   -6.1610532     250.0383   0.03976436  0.040734452            2 
  525000    1.1731446   -6.1787541    250.23999  0.039720634  0.040722549            2 
  526000    1.1906344    -6.166511    250.92151  0.039753092  0.040710303            2 
  527000     1.164276    -6.183142    250.65958   0.03963624  0.040698858           11 
  528000    1.1418364    -6.222428    250.38686  0.039518129  0.040687592            3 
  529000    1.1693255   -6.2195893    251.67467  0.039646294  0.040675591            1 
  530000    1.1531971   -6.1425104    252.61123  0.039718746  0.040663726            2 
  531000    1.1574011   -6.1539331    252.48854  0.039624692  0.040651463            3 
  532000    1.1422917   -6.2031479    252.42355   0.03954003  0.040639182            2 
  533000    1.1815037   -6.1471436     252.9385  0.039546357  0.040627005            2 
  534000    1.1597461   -6.1626526    253.74145  0.039597604  0.040614505            2 
  535000    1.1830328   -6.1960628     252.8732  0.039388348  0.040601548            3 
  536000    1.1789652   -6.1970472    254.04176  0.039496541  0.040589324            4 
  537000    1.1302853    -6.145728    254.98173   0.03956886  0.040577221            2 
  538000    1.1879792   -6.1411678    255.90055  0.039637632  0.040565306            4 
  539000    1.1545157   -6.1935089    254.41172  0.039333908  0.040553415            1 
  540000    1.1770207    -6.195584    256.51143  0.039585097  0.040541494            4 
  541000    1.1991909   -6.2161326    256.29741   0.03947896  0.040529396            3 
  542000    1.1823311   -6.2090489    256.76759  0.039478412   0.04051761            3 
  543000    1.1196391   -6.1719527    257.71046  0.039550408  0.040505354            2 
  544000     1.157274   -6.1654789    258.69696  0.039628824  0.040492909            2 
  545000    1.1786013   -6.1867123    257.80291  0.039419405  0.040480606            2 
  546000    1.1470152   -6.2300811    258.32023  0.039426164  0.040467702            2 
  547000    1.1308222   -6.2151375    259.44641  0.039525657  0.040455917            3 
  548000    1.1840407    -6.181955    260.28234  0.039580648  0.040444365            2 
  549000    1.1744857   -6.1669718    259.96984  0.039461118  0.040432741            2 
  550000    1.1585489   -6.2054458    260.32861  0.039443729  0.040421243            2 
  551000    1.1617987   -6.1742254    260.13743  0.039343229  0.040409124            2 
  552000    1.1638916    -6.182491    260.58987  0.039340258  0.040396066            2 
  553000    1.1799268   -6.1957415    260.92037  0.039318923  0.040383113            2 
  554000    1.1783413   -6.1619835    262.36693  0.039465543  0.040370833            2 
  555000    1.1778292   -6.2168263    261.31394  0.039236328  0.040358291            4 
  556000    1.1641423   -6.2159008    262.05312  0.039276546  0.040345921            2 
  557000    1.1671293   -6.1894724    262.47806  0.039269608  0.040333661            1 
  558000    1.1531854   -6.2149472    262.97806  0.039273904  0.040320638            3 
  559000    1.1372669   -6.1786468    263.90727  0.039342169  0.040308201            3 
  560000     1.145058    -6.180072     264.4852  0.039357916  0.040296461            3 
  561000    1.1666213   -6.1641074    264.36029  0.039269205   0.04028305            3 
  562000    1.1518427   -6.1471858    265.04153  0.039300345  0.040270226            2 
  563000     1.126136   -6.2272587    265.15999  0.039248074  0.040256805            2 
  564000    1.1831175   -6.2328413    264.24675   0.03904355  0.040242986            3 
  565000     1.154782     -6.21051    264.83925  0.039061836  0.040229871            4 
  566000    1.1542877   -6.2256385    265.75625  0.039127834  0.040216424            2 
  567000    1.1737638    -6.193456    266.61267  0.039184695  0.040203213            2 
  568000    1.1738215   -6.1539639    266.90522  0.039158629  0.040190229            3 
  569000    1.1730139   -6.2082436    266.66922  0.039055246  0.040177257            4 
  570000    1.1566159   -6.1801539    267.41519  0.039095788  0.040162835            2 
  571000    1.1438078   -6.2111813    266.96269   0.03896128  0.040148262            2 
  572000     1.150676   -6.2357142    266.86101  0.038878353  0.040133675            3 
  573000    1.1543356   -6.1798933    268.13926  0.038996402  0.040120314            2 
  574000    1.1403869   -6.1954526    267.82232   0.03888245  0.040106286            3 
  575000    1.1499221   -6.1932405    268.63347  0.038932386  0.040091891            2 
  576000    1.1511558   -6.2060734    268.85944  0.038897488  0.040077407            3 
  577000    1.1342424   -6.2162705    269.67537  0.038947916  0.040062663            3 
  578000    1.1663139   -6.2261731    269.67561  0.038880566   0.04004794            3 
  579000    1.1700697   -6.1843829    270.46369  0.038926841  0.040032765            2 
  580000    1.1717664   -6.1873479    271.23345  0.038970323     0.040018            2 
  581000    1.1596098   -6.2159276    270.91815  0.038858025  0.040003122            7 
  582000    1.1603613   -6.2411307    271.00498  0.038803692  0.039987842            4 
  583000    1.1653641   -6.2240124     270.9452  0.038728588  0.039973358            2 
  584000    1.1541096   -6.1600961    273.12552   0.03897339   0.03995905            2 
  585000    1.1839566   -6.2230808    272.31277  0.038790993  0.039944242            3 
  586000    1.1720002   -6.1926017    272.79075  0.038792769  0.039929398            4 
  587000    1.1603934   -6.1978245    273.06775  0.038766007  0.039914462            4 
  588000    1.1265764   -6.2113498    272.46849  0.038615149  0.039898534            2 
  589000    1.1677464   -6.1645301    273.50712  0.038696537  0.039882897            4 
  590000    1.1603171   -6.1718447    274.57137  0.038781267  0.039867132            4 
  591000     1.185711   -6.2034846    273.28768  0.038534642  0.039851437            1 
  592000    1.1477423   -6.2336648    273.94627  0.038562257  0.039835767            5 
  593000     1.151995   -6.1816996    275.13251  0.038663927  0.039819644            3 
  594000    1.1630212   -6.1392566    275.64811  0.038671171  0.039804046            3 
  595000    1.1554779   -6.2024556    275.29535  0.038556772  0.039788321            2 
  596000     1.129995   -6.1867152    276.41527  0.038648667  0.039772786            4 
  597000    1.1654225   -6.2036281     276.5464  0.038602233   0.03975807            1 
  598000    1.1519003   -6.2168533    277.23415  0.038633522  0.039743285            4 
  599000    1.1650859   -6.1936058    277.93995  0.038667216  0.039728553            2 
  600000    1.1638728   -6.1925897    277.05605  0.038480007  0.039713656            1 
  601000    1.1647214   -6.2056151    277.87844  0.038530011  0.039698396            2 
  602000     1.152547   -6.1821348     279.0442   0.03862738  0.039683094            5 
  603000    1.1647311    -6.222155    278.34069  0.038466098  0.039668055            4 
  604000    1.1631843   -6.2330946     279.0137  0.038495268  0.039652694            2 
  605000    1.1604457   -6.2072999    279.94586  0.038560035  0.039637794            3 
  606000    1.1318284   -6.1616078    281.35673  0.038690419  0.039623279            4 
  607000    1.1552982   -6.1753826    281.79885  0.038687377  0.039609659            2 
  608000    1.1749158   -6.2386238    280.95422   0.03850798  0.039595882            3 
  609000    1.1865477    -6.205655    281.80511  0.038561181  0.039581373            3 
  610000     1.169618    -6.200619    281.94884  0.038517601  0.039567072            5 
  611000    1.1736658    -6.241201    282.44175  0.038521787  0.039552755            2 
  612000     1.153766   -6.2607989    282.43556  0.038458002  0.039538915            3 
  613000     1.155074    -6.203428    282.79466  0.038444081  0.039525174            3 
  614000       1.1488   -6.2152674    283.80494  0.038518586  0.039512324            2 
  615000    1.1616821   -6.2182312    283.88567  0.038466892  0.039499013            5 
  616000    1.1201443   -6.2044984    286.20718  0.038718504  0.039486514            2 
  617000    1.1681802   -6.2386071    286.56157  0.038703615  0.039474431            4 
  618000    1.1649881   -6.2176201    286.54365  0.038638572  0.039462827            3 
  619000    1.1534568   -6.2220308    286.71407  0.038599094  0.039450684            4 
  620000    1.1788167   -6.2279146    287.37494  0.038625664  0.039438544            2 
  621000    1.1664292   -6.2403855     287.0267  0.038516734  0.039426287            2 
  622000     1.148513   -6.2417005    287.82198  0.038561358  0.039414538            2 
  623000    1.1560483   -6.2043664    287.90847  0.038511031   0.03940248            2 
  624000     1.171487   -6.2143259    288.11708  0.038477174  0.039389774            2 
  625000    1.1454412   -6.1701991    289.81867  0.038642489  0.039377112            2 
  626000    1.1708318   -6.2473681    289.23717  0.038503351  0.039364362            2 
  627000    1.1386341   -6.1788224    291.11824   0.03869195  0.039352295            5 
  628000    1.1451495   -6.2147667    291.37635   0.03866459   0.03934016            2 
  629000    1.1488245   -6.2193128    291.38402  0.038604136  0.039328073            2 
  630000    1.1321172   -6.2638296    291.20259  0.038518861  0.039315867            2 
  631000    1.1648963   -6.1918737    292.05615  0.038570543  0.039304164            2 
  632000    1.1380214   -6.2623686    291.89903  0.038488796  0.039292716            3 
  633000     1.164225   -6.2159493    292.48118  0.038504632  0.039281373            3 
  634000    1.1404541   -6.2169189    293.70157  0.038604307  0.039269364            2 
  635000     1.135477   -6.2033553    294.92029  0.038703451  0.039257985            3 
  636000    1.1615463   -6.2509237    293.34963  0.038436797  0.039246516            3 
  637000    1.1475418   -6.2257997    294.45866  0.038521541  0.039235234            3 
  638000    1.1272189   -6.2010836    295.98802  0.038660922  0.039223915            4 
  639000    1.1509379   -6.1944393    295.66273  0.038557998  0.039212445            4 
  640000    1.1508387   -6.1878152    297.20119  0.038698072  0.039201524            5 
  641000    1.1534014   -6.2399309    295.99873  0.038481375  0.039190261            4 
  642000     1.151746   -6.2458339     296.3811  0.038471067  0.039179345            4 
  643000     1.136117   -6.1835362    298.12788  0.038637621  0.039168623            1 
  644000    1.1266216   -6.2387295    298.02698  0.038564568  0.039158174            3 
  645000    1.1274034   -6.1939515    298.43782  0.038557858  0.039148166            1 
  646000    1.1608373     -6.20855    298.90954  0.038559023  0.039137755            3 
  647000    1.1174931     -6.23845    298.54138  0.038452007  0.039127627            5 
  648000    1.1345673   -6.2295269     298.7453  0.038418892  0.039116376            2 
  649000    1.1452863     -6.25086    299.35614  0.038438128  0.039105522            6 
  650000    1.1629992   -6.2740287    299.42853  0.038388273  0.039094686            2 
  651000    1.1658027   -6.2772236    300.35755  0.038448227  0.039083771            2 
  652000    1.1639961   -6.2606782    300.38245   0.03839244  0.039072437            3 
  653000    1.1451703   -6.2333916    300.97876  0.038409745  0.039061352            2 
  654000     1.142279   -6.2501703    301.14227  0.038371849  0.039050185            3 
  655000    1.1429218    -6.244739    301.26168  0.038328458  0.039038963            6 
  656000    1.1411508   -6.2484123    301.34993  0.038281241  0.039028177            4 
  657000    1.1420467   -6.2151551    302.21151  0.038332257  0.039016776            2 
  658000    1.1286642   -6.2166521    302.33812  0.038290035   0.03900556            3 
  659000    1.1161338   -6.2289744    302.87467  0.038299781  0.038993533            3 
  660000    1.1892869    -6.273639     302.6201  0.038209609  0.038981466            5 
  661000    1.1454618    -6.195209    304.48659  0.038387114  0.038969988            3 
  662000    1.1423602   -6.2275277    304.97727  0.038390895  0.038958909            3 
  663000    1.1360639    -6.224196    304.82179  0.038313447  0.038948511            5 
  664000    1.1423562   -6.2481304    305.15843  0.038297995  0.038937981            2 
  665000    1.1502374   -6.2090833    305.73649  0.038312843  0.038926763            5 
  666000    1.1430387   -6.2292229    306.36831  0.038334373  0.038916028            4 
  667000    1.1289808   -6.2158712    305.69188  0.038192389  0.038904983            3 
  668000    1.1475398   -6.2046229    307.83983  0.038403172  0.038893973            3 
  669000     1.194992   -6.2174803    306.88479  0.038226805  0.038883267            2 
  670000    1.1268035   -6.1931263    308.34434  0.038351286  0.038871997            2 
  671000    1.1641522   -6.2325509    308.15938   0.03827116  0.038860691            2 
  672000    1.1631825   -6.2346557    307.94826  0.038188028  0.038848573            3 
  673000     1.138852   -6.2057534    307.88693  0.038123691   0.03883679            3 
  674000    1.1285791   -6.2728437    307.53679  0.038023836  0.038825079            5 
  675000    1.1465139   -6.2253476    308.84323  0.038128794  0.038813812            2 
  676000    1.1249919    -6.254733    310.36519  0.038260009  0.038802225            4 
  677000    1.1664318    -6.258898    309.42908  0.038088267  0.038791214            2 
  678000    1.1413827   -6.2215774    310.93467  0.038217142  0.038779963            3 
  679000    1.1419133   -6.2421294    310.68312  0.038129985  0.038768877            9 
  680000      1.12449   -6.2371369    311.60126  0.038186429  0.038757804            4 
  681000    1.1306647   -6.2399032    311.87954  0.038164408  0.038746383            3 
  682000    1.1243163   -6.2430954    310.85945  0.037983804  0.038734625            1 
  683000    1.1598927   -6.2603974    312.38452  0.038114265  0.038722265            7 
  684000    1.1323345    -6.235574    311.84939  0.037993347  0.038710695            4 
  685000    1.1469427   -6.2162151    313.77998  0.038172747  0.038699083            6 
  686000    1.1459161   -6.2370867    312.35428  0.037943911  0.038687188            6 
  687000    1.1355976   -6.2713435     312.9356  0.037959195  0.038675115            3 
  688000     1.135272   -6.2248999    312.67902  0.037872943  0.038663469            3 
  689000    1.1333414   -6.2507497    313.55436  0.037923846  0.038651532            3 
  690000    1.1603511    -6.262726    314.22431  0.037949795  0.038639248            1 
  691000    1.1400465   -6.2277411    315.01656   0.03799042  0.038627512            4 
  692000    1.1503505   -6.2720867    314.80055  0.037909508  0.038615678            8 
  693000    1.1362468   -6.2365784    315.53965  0.037943681  0.038604403            5 
  694000    1.1259445   -6.1979261    316.92018  0.038054777  0.038592748            6 
  695000    1.1609398   -6.2166267    317.32614  0.038048698  0.038580952            2 
  696000    1.1409006   -6.1942624    317.30378  0.037991353  0.038568943            3 
  697000    1.1498597   -6.2478573    316.43278   0.03783271  0.038557203            6 
  698000       1.1149   -6.2230305     318.4548  0.038019914  0.038545172            4 
  699000    1.1575061   -6.2157047    317.53355  0.037855693  0.038533376            3 
  700000    1.1332754   -6.2242274    318.35735  0.037899684  0.038521957            3 
  701000    1.1209782   -6.2580494    317.61112  0.037756909  0.038509372            2 
  702000    1.1375796   -6.2339034    318.37795  0.037794154  0.038496833            1 
  703000    1.1410053   -6.1917559    319.10946  0.037827106  0.038484117            4 
  704000    1.1486218   -6.2470172    318.62593  0.037716138  0.038471355            2 
  705000    1.1371087   -6.2714402    318.92146  0.037697572  0.038459287            2 
  706000    1.1773769   -6.2304911    319.81952  0.037750179  0.038446562            2 
  707000    1.1275074   -6.2650198    319.64128  0.037675775  0.038433994            3 
  708000    1.1379033   -6.2423162    318.83135  0.037527231  0.038420957            3 
  709000    1.1250598   -6.2678144    319.02825  0.037497443  0.038407891            2 
  710000    1.1427811   -6.2181899    320.71287  0.037642355  0.038395123            3 
  711000    1.1238122   -6.2478945    321.09477  0.037634174  0.038382154            2 
  712000    1.1318629   -6.2848972    320.85732  0.037553526  0.038369567            2 
  713000    1.1127984   -6.2535778    321.56532  0.037583604  0.038356782            3 
  714000    1.1303694    -6.216426    321.71607  0.037548561  0.038343886            4 
  715000    1.1240106   -6.2443499    322.14027  0.037545485   0.03833086            5 
  716000    1.1233503   -6.2643381    321.69252  0.037440936  0.038317975            2 
  717000    1.1231942   -6.2912819    321.72771  0.037392807  0.038304521            9 
  718000    1.1577437   -6.2297145    324.41898  0.037653085  0.038291756            3 
  719000    1.1162483   -6.2503498    322.81484  0.037414794  0.038278481            5 
  720000    1.1170115   -6.2204875    323.93358  0.037492312  0.038266048            6 
  721000    1.1162246   -6.2944441    324.02112   0.03745043  0.038253171            4 
  722000    1.1411894   -6.2799949    325.73206  0.037596036  0.038240495            3 
  723000    1.1249083   -6.2534603    325.35095   0.03750011   0.03822783            1 
  724000    1.1310234   -6.2728631    323.85404  0.037276017  0.038215063            5 
  725000    1.1511275   -6.2824353    325.87124  0.037456465  0.038201921            4 
  726000    1.1500786   -6.2587193    326.56555  0.037484567  0.038189585            2 
  727000    1.1306955   -6.2948553    326.19292  0.037390293  0.038176709            3 
  728000     1.122333   -6.2884223     326.4694  0.037370582  0.038163855            1 
  729000    1.1193058   -6.2817903    326.15495  0.037283373  0.038150428            9 
  730000    1.1580515   -6.2561867    327.97088  0.037439598  0.038137348            3 
  731000    1.1547973   -6.2898704    327.83484  0.037372873  0.038124734            2 
  732000    1.1402389   -6.2534503    328.50823  0.037398478  0.038111849            2 
  733000    1.1249969   -6.2278194    329.83655   0.03749847  0.038099384            4 
  734000    1.1309673    -6.265823    329.48757  0.037407763   0.03808718            3 
  735000    1.1281576   -6.2612456     330.0002  0.037414989  0.038075049            3 
  736000    1.1488607   -6.2246087    331.23336  0.037503777  0.038062626            1 
  737000    1.1332104   -6.2598402    330.22649  0.037339042  0.038051145            4 
  738000    1.1350613   -6.2567341    330.82358  0.037355869  0.038038746            1 
  739000     1.100188    -6.278296    330.89681  0.037313578  0.038026228            5 
  740000    1.1297052    -6.231368     333.4497  0.037550642  0.038014307            4 
  741000    1.1413967   -6.2407126    333.02416   0.03745211  0.038002755            4 
  742000    1.1082197   -6.3073913    332.17319  0.037306063  0.037990831            7 
  743000    1.1182119   -6.3003381    333.00146   0.03734875  0.037979026            3 
  744000    1.1619221    -6.276715    334.16774  0.037429182  0.037967665            2 
  745000    1.1161385   -6.2311841    334.78174  0.037447622  0.037955826            3 
  746000    1.1226381   -6.2623118    335.27757  0.037452811  0.037944279            2 
  747000    1.1448159    -6.249421    336.09258  0.037493595  0.037933129            6 
  748000    1.1143507   -6.2536695    334.96303  0.037317628   0.03792168            2 
  749000    1.1429151   -6.2821693    336.00964   0.03738425  0.037910424            2 
  750000    1.1430793   -6.2891673    335.36568  0.037262853  0.037899364            2 
  751000     1.116634   -6.2291576     337.4857   0.03744848  0.037888201            2 
  752000    1.1096226   -6.2870651     336.2751  0.037264528  0.037876862            3 
  753000    1.1601035   -6.2757834    337.31586  0.037330219  0.037865242            3 
  754000    1.1449273   -6.2793838    337.05995  0.037252425  0.037854058            2 
  755000    1.1606374   -6.2906145    337.16245  0.037214399  0.037843038            2 
  756000    1.1241194   -6.2939677    338.63436  0.037327421  0.037831631            2 
  757000    1.1084871   -6.2526983    338.69559  0.037284851  0.037820823            6 
  758000    1.1062616   -6.2467548    339.95614  0.037374245  0.037810054            3 
  759000    1.1429365   -6.2675991    339.03386  0.037223744   0.03779897            2 
  760000    1.1285159    -6.228104    340.57264  0.037343491  0.037787761            4 
  761000     1.127797   -6.2497446    340.93809  0.037334438  0.037776561            2 
  762000    1.1454896   -6.2704681    341.41544  0.037337647  0.037765623            3 
  763000    1.1396109   -6.2296227    341.45757  0.037293313  0.037754855            3 
  764000    1.1203177   -6.2614601    341.89842  0.037292585  0.037744473            3 
  765000    1.0981802   -6.2578933    341.47953  0.037198205  0.037733512            3 
  766000    1.1304861   -6.2432007    342.43293  0.037253364  0.037722868            5 
  767000    1.1132152   -6.2795409    344.24471  0.037401641  0.037712887            2 
  768000    1.1398778   -6.2573529    344.68486  0.037400701  0.037702646            3 
  769000    1.1134461   -6.2439339    344.72623  0.037356548  0.037692331            5 
  770000    1.1250257   -6.2827466    345.08567  0.037346934  0.037682316            2 
  771000    1.1525634    -6.224863     346.3757  0.037437927  0.037672794            1 
  772000    1.1403164   -6.2924645    344.48487  0.037185327  0.037662899            2 
  773000    1.1445894   -6.2798017    346.97759  0.037405949  0.037652475            4 
  774000    1.1482386   -6.2937016    345.72196  0.037222434  0.037642575            2 
  775000    1.1222478   -6.3049832    344.98413  0.037095067   0.03763242            2 
  776000    1.1376535   -6.2686102    346.72171   0.03723386  0.037622371            6 
  777000    1.1418459   -6.2758634    347.89409  0.037311679  0.037612506            6 
  778000    1.1328627   -6.2597467    347.17874  0.037187097  0.037602725            5 
  779000    1.1105364    -6.266709     349.1609  0.037351402  0.037592637            2 
  780000    1.1086428   -6.2169375    349.43853  0.037333176  0.037583161            1 
  781000    1.1396345   -6.2537952    349.78349  0.037322182  0.037573792            6 
  782000    1.1237297   -6.2537911     349.5056  0.037244842  0.037564647            4 
  783000    1.1458833   -6.2996199    348.64233  0.037105399  0.037554985            3 
  784000    1.1013921   -6.3192756     350.4803  0.037253434   0.03754511            3 
  785000    1.1194581     -6.30188    351.10297  0.037272077  0.037535241            3 
  786000    1.1093013   -6.2266485    351.42444  0.037258741  0.037525756            2 
  787000    1.1162732    -6.302691    350.36296     0.037099  0.037516203            5 
  788000    1.1189402   -6.3108686    351.09813  0.037129667  0.037506673            5 
  789000    1.1037418   -6.2728551    352.44356   0.03722471  0.037497071            5 
  790000    1.1012271   -6.2821795    352.59924  0.037194012  0.037487572            3 
  791000    1.1229553   -6.2649216    352.56527  0.037143413  0.037478015            2 
  792000    1.1218376   -6.2444474    353.60429  0.037205838  0.037468719            2 
  793000    1.1150787   -6.2661211    354.68356  0.037272337  0.037459806            3 
  794000    1.1208499    -6.277007    354.46218   0.03720216  0.037450357            2 
  795000    1.1111778   -6.2769871    352.87481  0.036988973  0.037440951            3 
  796000    1.0975227   -6.2792985     353.6038  0.037018824  0.037431492            1 
  797000    1.1421105   -6.2878161    354.12667  0.037027046  0.037421484            3 
  798000    1.1179671   -6.2709521    356.74626  0.037254204  0.037411913            5 
  799000    1.1239591   -6.2736962    355.55661  0.037083501  0.037402375            2 
  800000     1.127559   -6.2637999    356.37338  0.037122227  0.037392987           10 
  801000    1.1310645   -6.2481105    357.87563  0.037232171  0.037384298            2 
  802000    1.1521002   -6.2712599    356.60392  0.037053607  0.037375177            3 
  803000    1.1205757   -6.2281551    358.58116  0.037212657  0.037366218            3 
  804000    1.1082253   -6.2828427    358.58631  0.037166906  0.037357081            2 
  805000     1.120051   -6.2406031    359.08989  0.037172867  0.037348315            5 
  806000     1.110184   -6.2748743    358.06381  0.037020658  0.037339253            1 
  807000    1.1278715   -6.2547965    360.26765   0.03720236  0.037330545            3 
  808000    1.1061809   -6.2905345    359.78482   0.03710652  0.037321735            1 
  809000    1.1110823   -6.3387542     357.8372  0.036860033  0.037312449            1 
  810000    1.0972126   -6.3224828     359.9939   0.03703641  0.037303062            3 
  811000    1.1459036    -6.316469    360.12257  0.037003963  0.037294006            6 
  812000    1.1131473   -6.3003098    361.19849   0.03706881  0.037285139            8 
  813000     1.120585   -6.3058564    360.75646  0.036977907  0.037276134            3 
  814000    1.1018177   -6.2922625    361.39675  0.036998029  0.037266979            3 
  815000    1.1226506   -6.2988498    361.28402  0.036941107  0.037257255            3 
  816000    1.1347391   -6.2781073    362.18793  0.036988146  0.037247528            5 
  817000    1.1308328    -6.297304     362.0486  0.036928662  0.037237959            3 
  818000    1.1154362   -6.2276433    363.67429  0.037049133  0.037228621            6 
  819000    1.1423152   -6.2779284    363.78778  0.037015444  0.037219852            3 
  820000    1.1116935   -6.3081854    363.03809  0.036894115  0.037210599            2 
  821000    1.1340376     -6.30195     362.7357  0.036818483  0.037201208            4 
  822000    1.1321529   -6.2752877    365.22144  0.037025693  0.037192583            2 
  823000    1.1092679   -6.2987769    364.72708  0.036930648  0.037183613            4 
  824000    1.1206175   -6.2787085    365.28215  0.036941965  0.037174233            3 
  825000    1.1241357   -6.2426525    366.68315  0.037038702  0.037164944            2 
  826000    1.1141233   -6.2917418    366.41881  0.036967192  0.037155657            2 
  827000    1.0940963   -6.3315349    365.35761  0.036815559  0.037146271            2 
  828000    1.1364634   -6.2570017    366.66086  0.036902261   0.03713693            4 
  829000    1.1075983    -6.291839    367.57637  0.036949775  0.037127857            4 
  830000    1.1051712   -6.3329323     367.0318  0.036850582  0.037118861            5 
  831000    1.1153054   -6.3219982    365.88413  0.036691148  0.037109824            3 
  832000     1.125741   -6.2950836     368.5071  0.036909765  0.037101107            3 
  833000    1.1195962   -6.2730429     369.1163    0.0369264  0.037092664            2 
  834000    1.1247369   -6.3208848    369.68991  0.036939439  0.037083856            5 
  835000    1.1049791   -6.2723051    369.79339  0.036905528  0.037075386            3 
  836000    1.1118632    -6.257129    370.70448  0.036952201  0.037067005            3 
  837000    1.1194748   -6.2641131     370.9052  0.036928037  0.037058251            2 
  838000    1.1228462   -6.2962882    370.80108  0.036873616  0.037049013            3 
  839000    1.1090226   -6.2830577    370.00178  0.036750276  0.037040045            2 
  840000    1.0817183   -6.2808219    371.37382   0.03684264  0.037030868            6 
  841000    1.1274621   -6.3115317     371.4158  0.036802993  0.037021699            1 
  842000    1.1299616   -6.3251479    372.06188  0.036823226   0.03701244            3 
  843000    1.1042128   -6.2944978    373.05521  0.036877739  0.037003278            2 
  844000    1.1140663   -6.3189547    371.56575  0.036686982  0.036994191            5 
  845000    1.1062431   -6.2612439    372.52097  0.036737769  0.036985164            4 
  846000    1.1207401   -6.3343777     372.3765  0.036680112  0.036976332            4 
  847000    1.1396777   -6.2959221    374.50623  0.036846343  0.036967663            2 
  848000     1.115323    -6.292249    373.71906  0.036725536  0.036959158            3 
  849000    1.1399033   -6.3027276    374.41123  0.036750218  0.036950449            2 
  850000    1.1244842   -6.3337006    375.03134  0.036767778  0.036941702            3 
  851000    1.1203817   -6.2438754    375.69769  0.036789825  0.036933092            4 
  852000    1.0988778   -6.3035211     375.1474  0.036692821  0.036924247            3 
  853000    1.1083509   -6.2397753    376.50702  0.036782632  0.036915443            4 
  854000    1.1127841   -6.3016641    376.05205  0.036695165  0.036906947            4 
  855000    1.1226697   -6.3092547    376.95115  0.036739878  0.036898121            4 
  856000    1.1152623    -6.281833    378.17447  0.036816051  0.036889347            2 
  857000    1.1284495   -6.2779666    378.83709  0.036837524  0.036880559            3 
  858000    1.1260753   -6.2823629    377.26067  0.036641479  0.036871693            3 
  859000    1.1325675    -6.330149    378.21515   0.03669142  0.036862739            7 
  860000     1.096504     -6.30506    377.81739  0.036610213  0.036853772            3 
  861000    1.1102589   -6.3189019    377.29826  0.036517447  0.036844462            6 
  862000    1.1016485   -6.2924441     377.6015  0.036504399  0.036834836            3 
  863000    1.1315656   -6.2997777    378.95105  0.036592415  0.036825303            3 
  864000    1.1052693   -6.3305124    377.89254  0.036447968  0.036816132            2 
  865000     1.115957   -6.3312343    379.29802  0.036541235  0.036806832            2 
  866000     1.102725    -6.225836    380.86201  0.036649539  0.036797671            1 
  867000    1.1307595   -6.3297659    379.62395  0.036488269  0.036788852            3 
  868000    1.0962604   -6.3178801    381.14164  0.036591939  0.036779931            3 
  869000    1.1096031   -6.2870458    381.48156  0.036582428  0.036770999            3 
  870000    1.0962291   -6.3038942    381.94021  0.036584311  0.036762169            2 
  871000    1.1057356   -6.3163736    382.37238  0.036583656  0.036753377            3 
  872000    1.1128279   -6.3398977    382.25981  0.036530945  0.036744518            1 
  873000    1.1003322   -6.3435893    381.37625  0.036404759  0.036735298            4 
  874000    1.1225632   -6.3204502    382.99412  0.036517364  0.036726191            3 
  875000    1.1224586   -6.3015378    384.12469  0.036583304  0.036717143            3 
  876000    1.0958959   -6.3180717    384.65166  0.036591673  0.036708544            2 
  877000    1.1190194   -6.3231074      385.422  0.036623147  0.036700423            3 
  878000    1.1338556   -6.3295964     385.0257  0.036543822  0.036691826            2 
  879000    1.1351971   -6.3323373    384.68359  0.036469813  0.036683091            5 
  880000    1.1345094   -6.3240836    385.15232  0.036472757  0.036674027            4 
  881000    1.1246746   -6.3151727    385.95949  0.036507708  0.036665296            3 
  882000    1.0990205   -6.2742393    387.06883  0.036571129  0.036656414            2 
  883000    1.1126851   -6.2781858    386.74626  0.036499269  0.036647587            6 
  884000      1.12653   -6.3345619    386.57603  0.036441933   0.03663835            2 
  885000    1.1242751   -6.3038689    387.24128  0.036463397  0.036629221            6 
  886000     1.133227   -6.3060672    386.39454  0.036342601   0.03662024            2 
  887000    1.1195936   -6.3162283     387.3883  0.036394993  0.036611285            4 
  888000    1.1041484   -6.3483908    387.67219  0.036380648  0.036602314            3 
  889000    1.1066773   -6.3245953    388.03772   0.03637399  0.036593487            3 
  890000    1.0986769    -6.327832    388.56361  0.036382361  0.036584505            5 
  891000    1.1181293   -6.3154031    389.29191  0.036409644  0.036575955            3 
  892000    1.1065055   -6.3005915    389.42226  0.036381004  0.036567204            2 
  893000    1.0929387   -6.3069895     390.9599  0.036483754  0.036558489            3 
  894000    1.1250441   -6.3450644    388.41981  0.036206172  0.036549767            3 
  895000    1.0869871   -6.3305789    390.89173  0.036395878  0.036540938            2 
  896000    1.1105121   -6.3368958    391.90593  0.036449584  0.036532217            3 
  897000      1.11191    -6.339428    391.46355  0.036367851  0.036523346            2 
  898000    1.1233337    -6.348843    391.42936   0.03632418  0.036514576            2 
  899000    1.0993857   -6.3568148    391.87623  0.036325198  0.036506006            2 
  900000     1.119528   -6.2976165    392.44674  0.036337661  0.036497442            6 
  901000    1.1007337   -6.3348084    393.70419  0.036413632  0.036488948            2 
  902000    1.0671816     -6.30599    393.95444  0.036396382  0.036480395            4 
  903000    1.1114391   -6.3645443    393.25689  0.036291703  0.036471964            2 
  904000    1.1244689   -6.3234965    395.65359  0.036472492  0.036463567            3 
  905000    1.1167309   -6.3090118    394.96489  0.036368775  0.036455563            3 
  906000    1.0891673   -6.3121584    396.23157  0.036445141  0.036447703            6 
  907000    1.1171205   -6.3165296    396.72787  0.036450558  0.036440291            6 
  908000    1.1111713    -6.315529    395.69193  0.036315338  0.036432459            2 
  909000    1.1350704   -6.3492267     396.7464  0.036372057  0.036424679            6 
  910000    1.0993175   -6.3349243    395.05166  0.036176892  0.036416953            4 
  911000    1.0901124   -6.3744292    396.59217  0.036278098   0.03640879            5 
  912000    1.1088397   -6.2953528    399.76079   0.03652785  0.036400974            3 
  913000    1.1013386   -6.3638562    398.68252  0.036389423  0.036393572            3 
  914000    1.1081166   -6.3422663    398.78866  0.036359287  0.036385842            4 
  915000    1.0944747   -6.3087138    400.68128   0.03649192  0.036378526            5 
  916000    1.0993059   -6.3345669    399.99634  0.036389769  0.036371139            3 
  917000    1.1037959    -6.326262    401.33666  0.036471888  0.036364134            2 
  918000    1.1182095     -6.34345    401.38713   0.03643674  0.036356978            3 
  919000    1.1183419    -6.329319    400.86966  0.036350168  0.036349942            4 
  920000    1.0908282   -6.3345265    402.06831  0.036419231  0.036343007            7 
  921000    1.0863373   -6.3277901    403.05593  0.036469049  0.036335981            2 
  922000    1.1179569    -6.379413    402.51541   0.03638064  0.036328884            3 
  923000    1.1384863    -6.333017    403.03384  0.036388031  0.036321902            5 
  924000    1.1296282   -6.3213659    404.61959  0.036491666  0.036315431            3 
  925000    1.1371356   -6.3474844    404.24939  0.036418864  0.036308643            3 
  926000    1.0944964    -6.357414    403.63292  0.036324057  0.036301646            3 
  927000    1.1078773    -6.340418    404.18517  0.036334517  0.036294396            3 
  928000     1.103252    -6.295373    405.76933  0.036437619  0.036287192            3 
  929000    1.1217609    -6.367556    405.06674  0.036335373  0.036279819            2 
  930000    1.0870683   -6.3653337    404.93506  0.036284504   0.03627268            2 
  931000    1.1037125   -6.3722737    405.46078  0.036292587   0.03626536            3 
  932000    1.1207181   -6.3500807    406.31051  0.036329624  0.036258065            3 
  933000    1.1184699   -6.3470189    407.06375  0.036357963  0.036251081            4 
  934000    1.1134282   -6.3351878     408.5611  0.036452632  0.036244036            2 
  935000    1.0988898   -6.3384899     408.2556  0.036386417   0.03623706            6 
  936000    1.1242015   -6.3578685    407.55265  0.036284958  0.036229593            3 
  937000    1.1229764   -6.3351224    409.19559   0.03639235  0.036222369            4 
  938000    1.0787963   -6.3419709    408.20569  0.036265608  0.036215258            5 
  939000    1.1180003   -6.3799169    407.47773  0.036162383  0.036207601            5 
  940000    1.1176724    -6.359339     409.4165  0.036295789  0.036199974            4 
  941000    1.0875638   -6.3209671    409.68028  0.036280577  0.036193033            3 
  942000    1.1040002   -6.3694598    409.38521  0.036215959  0.036185565            7 
  943000    1.0938398   -6.3598486     410.9121  0.036312487  0.036178558            3 
  944000    1.0625266   -6.3384602    410.13509  0.036205428  0.036171465            4 
  945000    1.1031168   -6.3530466    412.29061  0.036357196   0.03616394            3 
  946000    1.0875096   -6.3555188    411.68777   0.03626566  0.036156919            3 
  947000     1.118156   -6.3047353    413.10631  0.036352192  0.036150608            5 
  948000    1.0863592   -6.2887104     414.3778  0.036425615  0.036143947            1 
  949000    1.1333623   -6.3615395    413.35363  0.036297298  0.036137426            4 
  950000    1.0924263    -6.329825    415.53492  0.036450431  0.036130801            4 
  951000    1.1324092    -6.383221    411.81705  0.036086317  0.036124082            4 
  952000     1.086026   -6.3101045    414.33435  0.036268763  0.036117568            2 
  953000    1.1035275   -6.3410218    414.25324  0.036223613   0.03611082            3 
  954000    1.0798369   -6.3709956    414.23698  0.036184222  0.036104104            5 
  955000    1.0932969    -6.328691    414.52909  0.036171823  0.036097718            2 
  956000    1.1220278   -6.3690027    414.78081  0.036155928  0.036091103            5 
  957000    1.1087105   -6.3191176    416.89068   0.03630187  0.036084153            2 
  958000      1.10333   -6.3297678    416.36675  0.036218402  0.036077597            4 
  959000    1.1095022   -6.2808646    419.45963  0.036449395  0.036071036            5 
  960000    1.0663424   -6.3364426    416.20232  0.036128674  0.036064366            3 
  961000    1.1063699   -6.3416331      418.104  0.036255983  0.036057457            6 
  962000    1.0869185   -6.3696914    416.18606  0.036052153  0.036050404            1 
  963000    1.0930685   -6.3623773    417.05681  0.036090067  0.036043536            2 
  964000     1.120569   -6.3698215    417.75719  0.036113173  0.036036889            5 
  965000    1.0819734   -6.3530405    418.31514  0.036123933   0.03603032            6 
  966000    1.0910204   -6.3857407     418.4189  0.036095488  0.036023483            2 
  967000    1.0980581    -6.381034    416.43372  0.035887084  0.036016365            2 
  968000    1.1142254   -6.3745957    419.59569  0.036122219  0.036009183            2 
  969000    1.1202712   -6.3683048    418.67506  0.036005767  0.036001919            3 
  970000    1.0881328   -6.3558186    421.08797  0.036175942  0.035995069            3 
  971000    1.1026754   -6.3614152    419.10724  0.035968696  0.035988182            5 
  972000    1.1161864   -6.3347976    421.20679  0.036111693   0.03598117            3 
  973000    1.0848044   -6.3999489    421.42826  0.036093548  0.035974043            2 
  974000    1.0984923   -6.3596503    421.41449  0.036055313  0.035967127            2 
  975000    1.0932816   -6.3548081     421.4382  0.036020359  0.035960269            5 
  976000     1.084389   -6.3444981    423.25247   0.03613836  0.035953366            3 
  977000    1.0868391   -6.3432463    423.49254  0.036121848  0.035946631            4 
  978000    1.0975176   -6.3247855    424.32058  0.036155468   0.03593985            2 
  979000    1.0711721   -6.3649786    422.93368  0.036000483  0.035932892            4 
  980000    1.1007575   -6.3519388    423.97015  0.036051883  0.035925915            3 
  981000    1.0957856   -6.3188446    424.76193  0.036082393  0.035919212            3 
  982000    1.0914126   -6.3488289    423.67062   0.03595304  0.035912178            3 
  983000    1.0749893   -6.3452564    425.61804  0.036081557  0.035905237            3 
  984000    1.0837928   -6.3898693    423.43053  0.035859631  0.035898435            8 
  985000    1.1121743   -6.3796851    424.93902  0.035950848  0.035891473            3 
  986000     1.104716   -6.3584651    424.63718  0.035888876  0.035884418            4 
  987000    1.0842037   -6.3096938    426.54929  0.036013955  0.035877581            5 
  988000    1.0967768   -6.3452348    426.48489  0.035972072  0.035871143            6 
  989000     1.089148   -6.3760592    426.87746  0.035968778  0.035864527            3 
  990000    1.0861051   -6.3576099    426.94658  0.035938264  0.035857647            6 
  991000    1.0860665   -6.3763593    427.24228  0.035926865  0.035850451            3 
  992000    1.1108078   -6.3592396    428.34974  0.035983681  0.035843341            2 
  993000    1.1120195   -6.3754485    428.18024   0.03593322  0.035836402            4 
  994000    1.0799435   -6.3443581    428.18106  0.035897138  0.035829221            4 
  995000    1.1030675   -6.3417363      428.151  0.035858543  0.035822193            6 
  996000    1.0775787    -6.354032    430.66838  0.036033164  0.035815179            5 
  997000    1.0892938   -6.3260838    429.95177  0.035937125  0.035808205            5 
  998000     1.090147   -6.3306605    429.65606  0.035876425  0.035801084            4 
  999000    1.0914063   -6.3389064    430.44577  0.035906387  0.035794015            2 
 1000000    1.0984925   -6.3300354    431.37817  0.035948181  0.035786644            3 
 1001000    1.0885708   -6.3320844    429.33296  0.035742005  0.035779302            3 
 1002000    1.0968651   -6.3563249    429.89843  0.035753362  0.035772041            5 
 1003000    1.0886005   -6.4105205    430.60196  0.035776168  0.035764276            4 
 1004000    1.0802251   -6.3621617    429.69614   0.03566535  0.035756496            2 
 1005000    1.0975054   -6.3280148    429.63036  0.035624408  0.035749354            3 
 1006000    1.0823484   -6.4004161     431.4855  0.035742669  0.035741819            6 
 1007000    1.0884125   -6.3423612    433.22002  0.035850714  0.035734448            6 
 1008000    1.0592689   -6.3781546    431.58269  0.035679786  0.035726796            8 
 1009000    1.0974938   -6.3801103    431.79806  0.035662212  0.035719211            3 
 1010000    1.1171626   -6.3997651    432.52179  0.035686616   0.03571158            4 
 1011000    1.0829715   -6.4002418    431.67904  0.035581853  0.035703592            4 
 1012000    1.1066273   -6.3989577    433.83722  0.035724409  0.035695551            5 
 1013000    1.0576029    -6.381851    432.97328  0.035618072  0.035687593            6 
 1014000    1.0768349   -6.4041813    432.63086  0.035554804  0.035679779            4 
 1015000    1.0806548   -6.3785882    434.72018  0.035691312  0.035671938            3 
 1016000    1.0986422   -6.3826248    434.84425  0.035666359  0.035664121            3 
 1017000    1.0939655   -6.3301414     435.4237   0.03567877  0.035656286            1 
 1018000     1.094377    -6.391191    434.33049  0.035554232  0.035648557            2 
 1019000     1.088898   -6.3958946     436.0116   0.03565682   0.03564062            2 
 1020000    1.0956421   -6.3676091    435.46182  0.035576946  0.035633356            3 
 1021000    1.1253405   -6.3832273    436.15115  0.035598363  0.035625755            3 
 1022000     1.104538   -6.3940567    436.45658  0.035588436  0.035618131            4 
 1023000    1.0888052   -6.4096718    435.73197  0.035494621  0.035610369            1 
 1024000    1.0490032   -6.3722905    438.01525  0.035645772   0.03560233            2 
 1025000    1.0805052   -6.3231303    439.16217  0.035704242  0.035594757            1 
 1026000    1.1122986   -6.4321472    436.48981  0.035452389  0.035587119            3 
 1027000    1.0686267   -6.3461917    438.90426  0.035613783   0.03557926            3 
 1028000    1.1093308   -6.3831426     438.2338  0.035524789  0.035571239            6 
 1029000    1.0816189   -6.3562306    438.75921  0.035532816  0.035563527            3 
 1030000    1.0987641   -6.3619017    440.39441  0.035630616  0.035556104            3 
 1031000    1.0811169   -6.3371343    440.38714  0.035595469  0.035548466            5 
 1032000    1.0718928   -6.3809575    438.92998  0.035443312  0.035540831            6 
 1033000    1.0883073   -6.3805187    438.97087    0.0354123  0.035533169            5 
 1034000    1.0929458   -6.3716656    441.64807  0.035593816  0.035525369            3 
 1035000    1.0942031   -6.3950978      440.238  0.035445893  0.035517465            5 
 1036000    1.0645702   -6.3813627    442.70444  0.035610074  0.035510126            2 
 1037000    1.0993899   -6.3474985    440.28323  0.035381166  0.035502492            3 
 1038000    1.0834291   -6.3929368    442.15723   0.03549753   0.03549485            4 
 1039000     1.077071   -6.3806778    441.96786  0.035448176  0.035486878            3 
 1040000    1.0956298   -6.3716987    441.46551  0.035373839  0.035478807            4 
 1041000    1.0642216   -6.3527511    442.92502  0.035456694  0.035470778            4 
 1042000    1.0831709   -6.3610494    442.48217  0.035387249  0.035462694            3 
 1043000    1.0797507   -6.3600904    443.59351  0.035442115  0.035454337            3 
 1044000    1.0747918   -6.3967662    440.70416  0.035177535  0.035445776            3 
 1045000    1.0902465   -6.3739907    443.57902  0.035373127  0.035437286            3 
 1046000    1.0959274   -6.3574822    443.68151  0.035347476  0.035429199            3 
 1047000    1.0559253   -6.3660633    445.35595  0.035446988  0.035421064            5 
 1048000    1.0684289   -6.3951391     445.5273  0.035426789  0.035412938            2 
 1049000    1.0791755    -6.398965    444.07578  0.035277707  0.035405026            4 
 1050000    1.0879953    -6.372276    444.73969  0.035296801  0.035396697            2 
 1051000    1.0818032   -6.3628755    446.55207   0.03540692  0.035388324            4 
 1052000    1.0690659   -6.3390507    446.48891   0.03536826  0.035380434            3 
 1053000    1.0581681   -6.3456069    445.77358  0.035278061  0.035372312            2 
 1054000    1.0867911   -6.3436976    447.25493  0.035361711  0.035364106            3 
 1055000    1.0679668   -6.4132748    446.15875  0.035241608  0.035355851            5 
 1056000    1.0642472   -6.3578116    446.91812   0.03526816  0.035347381            2 
 1057000    1.1046872   -6.3933959    449.05086  0.035402938  0.035339115            4 
 1058000    1.0918444   -6.3724563    448.58772  0.035332997  0.035330875            4 
 1059000    1.0605479   -6.3844304    447.56189  0.035218908  0.035322588           11 
 1060000    1.0934946   -6.3925258    448.91987  0.035292443  0.035314459            4 
 1061000    1.1221319   -6.3965967    448.62006  0.035235631  0.035306589            3 
 1062000    1.0630164   -6.4099806    448.17299  0.035167372  0.035298951            4 
 1063000    1.0443505   -6.3853443    449.51335  0.035239366  0.035291026            5 
 1064000    1.0910547   -6.3821917     448.9812  0.035164567  0.035283228            2 
 1065000    1.0749129   -6.3802924    448.59101  0.035101018  0.035275053            2 
 1066000    1.0901317   -6.4196068     450.4674  0.035214775  0.035266939            4 
 1067000    1.0657318    -6.393142    450.18336  0.035159587  0.035258671            3 
 1068000    1.0848488   -6.3989215    451.72498  0.035246955  0.035250673            2 
 1069000    1.0709935   -6.4287838    449.89743  0.035071518  0.035242395            6 
 1070000    1.1123113   -6.4103469    449.76979    0.0350288  0.035234258            2 
 1071000    1.0612661   -6.3637899    452.38915  0.035199903  0.035226274            4 
 1072000    1.0939625   -6.4048501    450.67654  0.035033935  0.035218183            5 
 1073000    1.0792389   -6.4057619    451.10224  0.035034346  0.035209798            3 
 1074000    1.0803398   -6.4339322    451.15975  0.035006188  0.035201208            5 
 1075000    1.0745428   -6.4023168    452.37397   0.03506775  0.035192957            2 
 1076000    1.0675935   -6.3655304     453.8368  0.035148451  0.035184285            3 
 1077000    1.0628784   -6.4031432    453.45154  0.035086006  0.035175979            1 
 1078000    1.0353176   -6.4070606    452.42132  0.034973819  0.035167675            5 
 1079000    1.0905386   -6.3686595    454.77974  0.035123551  0.035159602            3 
 1080000    1.0765716   -6.3524816    455.83633  0.035172556  0.035151444            3 
 1081000     1.092578   -6.3987278     454.3758  0.035027428   0.03514305            4 
 1082000    1.0832814   -6.3647183    455.56377  0.035086551  0.035134666            2 
 1083000    1.0773231   -6.4145351    452.73066  0.034836155  0.035126379            4 
 1084000      1.06179   -6.3791189    454.34051  0.034927776  0.035117863            4 
 1085000    1.0885974   -6.3938531    455.74946  0.035003799  0.035109671            5 
 1086000    1.0547169    -6.372058    455.97172  0.034988622    0.0351015            4 
 1087000    1.0811354   -6.3888633     457.1871  0.035049609  0.035093197            4 
 1088000    1.0695167   -6.3869409    456.40376  0.034957396  0.035084771            3 
 1089000    1.0806049   -6.3773705    457.32179  0.034995546  0.035076388            3 
 1090000    1.0624662   -6.4398508    456.72305  0.034917665  0.035068013            5 
 1091000    1.0843923   -6.3704987    458.20853  0.034999124   0.03505986            2 
 1092000    1.0577385   -6.3914868    458.53732  0.034992164   0.03505181            4 
 1093000    1.0645811   -6.4098462    458.95387  0.034991909  0.035043447            2 
 1094000    1.0861808   -6.3609711    458.56398  0.034930224  0.035035073            3 
 1095000    1.0767337   -6.3752076    458.02228  0.034857099  0.035026932            4 
 1096000    1.1019335   -6.4256534    458.30787  0.034847009  0.035018851            5 
 1097000    1.0892444   -6.4466581    459.07264  0.034873339  0.035010378            2 
 1098000    1.0617141   -6.4259923    459.97992  0.034910437  0.035002198            5 
 1099000    1.0676223   -6.4057345    458.82322  0.034790963  0.034993413            4 
 1100000    1.0775786   -6.4253844    459.23117   0.03479024  0.034985155            5 
 1101000    1.0756472   -6.4021472    461.69005  0.034944751  0.034977115            2 
 1102000    1.0904239   -6.3502866    463.53418  0.035052494  0.034969254            4 
 1103000    1.0617116   -6.3963903    461.69547  0.034881797  0.034961513            2 
 1104000    1.0707749   -6.3924655    463.18268   0.03496246  0.034953335            2 
 1105000    1.0883348   -6.4603596    460.94384  0.034761979  0.034945027            3 
 1106000    1.0779637   -6.3695167    464.73956  0.035016543  0.034936935            5 
 1107000    1.0624724   -6.4214431    461.89167  0.034770526  0.034928918            2 
 1108000    1.0730872   -6.4261071     462.8294  0.034809672  0.034920613            2 
 1109000    1.0606716   -6.3993908    464.74948  0.034922564  0.034912707            3 
 1110000    1.0765532   -6.3924667    463.69498  0.034811935  0.034904915            5 
 1111000    1.0659608   -6.4080528    465.17521   0.03489163   0.03489661            2 
 1112000    1.0727446   -6.3582826    465.47017  0.034882357  0.034888538            3 
 1113000    1.0578936   -6.4302734    464.77894  0.034799262  0.034880523            2 
 1114000    1.0740671   -6.4299967    464.87292  0.034775054  0.034872241            3 
 1115000    1.0810057   -6.4391933    463.42277  0.034635484  0.034863749            2 
 1116000    1.0744879   -6.4253522    465.61033  0.034767796  0.034855147            3 
 1117000     1.063382    -6.389775    467.41904  0.034871608  0.034846935            5 
 1118000    1.0629103   -6.4117498     465.0606  0.034664624  0.034838745            3 
 1119000    1.0773159   -6.4027308    465.76909  0.034686408  0.034830459            2 
 1120000    1.0859473   -6.3870807    467.28686  0.034768368  0.034822192            3 
 1121000    1.0638607   -6.3997845    467.75193  0.034771925  0.034813988            4 
 1122000    1.0803641   -6.3533274    469.66795  0.034883241  0.034806263            3 
 1123000    1.0634927   -6.3587206    470.47944  0.034912395  0.034798341            3 
 1124000    1.0563671   -6.4264393    467.86017  0.034687142  0.034790484            4 
 1125000    1.0512346    -6.427916    468.09628  0.034673799  0.034782644            3 
 1126000    1.0865512   -6.3875317    469.74457  0.034764992  0.034774445            3 
 1127000    1.0696265   -6.4016872    468.42951  0.034636906   0.03476636            4 
 1128000    1.0679227   -6.4691503    467.81704  0.034560951  0.034758049            2 
 1129000    1.0742607   -6.4114632    470.81404  0.034751553  0.034749915            2 
 1130000    1.0867975   -6.4506221    469.85342  0.034649957  0.034741815            3 
 1131000    1.0795854   -6.3986452     470.0895  0.034636715  0.034733743            4 
 1132000    1.0812829   -6.4246241    471.21545  0.034689005  0.034725515            5 
 1133000    1.0810336   -6.3879027    472.66317  0.034764869  0.034717562            3 
 1134000    1.0882083   -6.3983927    471.55389  0.034652696  0.034709528            2 
 1135000    1.0470481     -6.44671    471.36937  0.034608618   0.03470152            7 
 1136000    1.0593845   -6.4219398    472.81162  0.034683951  0.034693488            3 
 1137000    1.0732472   -6.3929443    473.26206   0.03468646  0.034685706            3 
 1138000    1.0649602   -6.4390233    471.75947  0.034545948  0.034677902            5 
 1139000    1.0604116   -6.4200739    472.27645  0.034553442  0.034669779            4 
 1140000    1.0840085   -6.4370462    472.87693  0.034567027  0.034661345            7 
 1141000    1.0542446   -6.3937278    472.63761  0.034519253  0.034653305            4 
 1142000    1.0609776   -6.4059646    474.60679   0.03463272  0.034645039            2 
 1143000    1.0928319   -6.4263355     472.4659  0.034446333  0.034636775            2 
 1144000    1.0809134   -6.4289702    474.04423  0.034531194  0.034628314            4 
 1145000    1.0772774   -6.4062954     473.3781  0.034452554  0.034619621            5 
 1146000    1.0796208   -6.4452141    472.84107   0.03438344  0.034611137            3 
 1147000    1.0634711   -6.4218993    474.20604  0.034452633   0.03460285            3 
 1148000     1.053876   -6.4113932    473.72556  0.034387744  0.034594205            6 
 1149000    1.0810339   -6.4464006     474.0082  0.034378315  0.034585623            4 
 1150000    1.0739379   -6.4132485    475.78231  0.034476979  0.034577095            4 
 1151000    1.0579026   -6.3978179    475.22946  0.034406998  0.034568632            3 
 1152000    1.0550982   -6.4104353    477.92124  0.034571849  0.034560311            3 
 1153000    1.0697531   -6.4066527    477.01878  0.034476639  0.034551982            1 
 1154000    1.0689129   -6.4585107    474.49637  0.034264614  0.034543386            4 
 1155000    1.0780445   -6.4277343    476.06915  0.034348423   0.03453485            3 
 1156000    1.0630526   -6.4481833    478.37257  0.034484759  0.034526284            8 
 1157000    1.0709024   -6.4130482    479.01437  0.034501179  0.034517688            4 
 1158000    1.0585812   -6.3871916    478.85273  0.034459753   0.03450926            3 
 1159000    1.0671309   -6.4581229    477.53877  0.034335546  0.034500594            3 
 1160000    1.0627711   -6.4518769    478.41143  0.034368637  0.034491745            4 
 1161000    1.0647642    -6.473152    476.53193  0.034204129  0.034483241            6 
 1162000    1.0907371   -6.4111294      479.224  0.034367757  0.034474618            2 
 1163000     1.067856   -6.4710327    476.85593  0.034168524  0.034466242            3 
 1164000    1.0696414   -6.4247636     480.7086  0.034414991  0.034457825            2 
 1165000    1.0672538   -6.4888438    478.93237  0.034258395   0.03444921            2 
 1166000     1.049476    -6.431479    480.55348  0.034344874  0.034440511            2 
 1167000    1.0669038   -6.4128305    481.16395  0.034359037  0.034432035            3 
 1168000    1.0514384   -6.3967051    481.37112    0.0343444  0.034423803            4 
 1169000     1.062267   -6.4354754    480.87622  0.034279742   0.03441547            2 
 1170000    1.0781794   -6.4411239    480.71926  0.034239264  0.034406811            3 
 1171000    1.0548906   -6.4403858    481.67012  0.034277691   0.03439834            1 
 1172000    1.0360132   -6.4019132    482.31445  0.034294258  0.034390096            3 
 1173000    1.0691451    -6.437903    481.78547  0.034227442  0.034381949            3 
 1174000    1.0705688   -6.4742896    482.37204  0.034239923  0.034373734            8 
 1175000    1.0642743   -6.4268684    482.78934  0.034240379   0.03436501            4 
 1176000    1.0492259   -6.4309255    484.21544  0.034312318   0.03435647            3 
 1177000    1.0970872   -6.4243676    483.44724  0.034228776  0.034348043            3 
 1178000     1.050171   -6.4656602    484.25872  0.034257125  0.034339332            2 
 1179000    1.0800007   -6.4295453     484.0813  0.034215529   0.03433045            4 
 1180000    1.0561712   -6.4437384    482.27623  0.034059056   0.03432162            3 
 1181000    1.0896258   -6.4430482    483.45003  0.034113042  0.034312837            3 
 1182000    1.0464421   -6.4412561    486.51278  0.034300111  0.034303989            9 
 1183000    1.0543128   -6.4139663    485.23122  0.034180841  0.034295426            7 
 1184000     1.054246   -6.3833608    486.49867  0.034241179  0.034287018            2 
 1185000    1.0670763   -6.4202328    485.15939  0.034118101  0.034278433            3 
 1186000    1.0772322    -6.466608    485.30134  0.034099307  0.034269887            4 
 1187000    1.0790496   -6.4871137    485.37983   0.03407609  0.034261295            6 
 1188000    1.0394736   -6.4510148    486.34946  0.034115423  0.034252376            6 
 1189000    1.0469177   -6.3991185    487.15293  0.034143043  0.034243606            2 
 1190000    1.0569459    -6.436922    485.19882  0.033977508  0.034234848            5 
 1191000     1.045974   -6.4479069     486.7176  0.034055248  0.034226151            2 
 1192000    1.0503841   -6.4103236      488.001  0.034116401  0.034217429            4 
 1193000    1.0627599   -6.4549699     486.9975  0.034017707  0.034208744            5 
 1194000    1.0634241   -6.4359518    487.33306  0.034012636  0.034200064            3 
 1195000    1.0496665   -6.4437392    488.89734  0.034093259  0.034191273            3 
 1196000    1.0445941   -6.4442706    487.78069  0.033986949  0.034182629            3 
 1197000    1.0874737   -6.4442965     488.6349  0.034018024   0.03417388            3 
 1198000    1.0516476   -6.4461065    488.82303  0.034002715  0.034165142            3 
 1199000     1.059177   -6.3964463    489.06077  0.033990879  0.034156542            3 
 1200000    1.0803541   -6.4511511    488.00606   0.03388931  0.034147837            3 
 1201000    1.0713113   -6.4562108    487.75981  0.033844006  0.034139021            4 
 1202000    1.0261034   -6.4306616    489.90124  0.033964312  0.034130435            2 
 1203000    1.0616525   -6.4369872    490.39971  0.033970609  0.034121764            5 
 1204000    1.0626817   -6.4510778    489.91414  0.033908786  0.034113052            5 
 1205000    1.0788721   -6.4498164    489.42002  0.033846474  0.034104142           14 
 1206000    1.0582536   -6.3860617    491.40403  0.033955502  0.034095209            2 
 1207000    1.0484024   -6.4476147    491.12393  0.033908032  0.034086546            5 
 1208000    1.0799912   -6.4283107    491.03822   0.03387405   0.03407765            8 
 1209000    1.0569855   -6.4691078    490.08325  0.033780207  0.034068728            4 
 1210000    1.0474868   -6.4858641    491.41024   0.03384368  0.034059688            6 
 1211000    1.0522675   -6.4371539     491.2138  0.033802215  0.034050696            4 
 1212000    1.0556484   -6.4971894    490.17126  0.033702644  0.034041497            2 
 1213000    1.0689741   -6.4592271    492.64508  0.033844811   0.03403232            3 
 1214000    1.0482236    -6.483284    491.08926  0.033710136   0.03402301            3 
 1215000    1.0673441   -6.4543869    492.32179  0.033766926  0.034014032            7 
 1216000      1.04659   -6.4272546    492.48926  0.033750635  0.034005127            4 
 1217000     1.047233   -6.4115145    495.01833  0.033896079  0.033996199            5 
 1218000    1.0764485   -6.4320266    495.07765  0.033872308  0.033987659            5 
 1219000    1.0755497   -6.4455884    494.97502  0.033837505   0.03397922            3 
 1220000    1.0526445   -6.4658174    496.25011  0.033896865   0.03397089            4 
 1221000    1.0529071   -6.4453769    495.66894  0.033829439  0.033962073            3 
 1222000    1.0664293   -6.4791943    494.68286   0.03373451  0.033953594            6 
 1223000    1.0404349   -6.4394485    497.07241  0.033869747  0.033944973            6 
 1224000    1.0531634   -6.4562882     495.9633  0.033766564  0.033936399            4 
 1225000    1.0353576   -6.4328715    498.31588  0.033899039  0.033927672            3 
 1226000    1.0653122   -6.4019912    498.06452  0.033854304  0.033919129            3 
 1227000    1.0727703   -6.4291195    499.78052  0.033943257  0.033910696            2 
 1228000    1.0581979   -6.4491937    500.04474  0.033933547  0.033902257            2 
 1229000    1.0395372      -6.4559    498.61176  0.033808771  0.033893897            2 
 1230000    1.0492906   -6.4644602    497.86374  0.033730606  0.033885303            2 
 1231000    1.0650739   -6.4726489    499.07669  0.033785316  0.033876887            6 
 1232000    1.0802693    -6.447625    499.61752  0.033794475  0.033868516           11 
 1233000    1.0421233   -6.3911347    502.01225  0.033928916  0.033860376            7 
 1234000    1.0764388   -6.4538635      499.754   0.03374892  0.033852005            8 
 1235000    1.0599799   -6.4627451    500.59182  0.033778126  0.033843736            5 
 1236000    1.0468919   -6.4735651    501.09401  0.033784655  0.033835569            4 
 1237000    1.0451087   -6.4496693     502.0696  0.033823067  0.033827338            3 
 1238000     1.067801   -6.4245665    500.90873  0.033717604  0.033819295            4 
 1239000    1.0612096   -6.4577883    501.19307  0.033709515  0.033811309            4 
 1240000    1.0511729   -6.4462259    503.85533  0.033861245  0.033803325            5 
 1241000     1.054428   -6.4299219    502.87404  0.033768066  0.033795268            2 
 1242000    1.0450009   -6.4878404    502.47418  0.033714049  0.033786996            4 
 1243000    1.0507878   -6.4744596    503.33498  0.033744636  0.033778769            5 
 1244000    1.0469566   -6.4455653    504.08553  0.033767787  0.033770548            6 
 1245000    1.0525071   -6.4690548     502.3827  0.033626687  0.033762437            4 
 1246000    1.0723484   -6.4708098    503.13656  0.033650118  0.033754189            6 
 1247000    1.0448792   -6.4886294    503.37167  0.033638845  0.033745907            4 
 1248000    1.0769513   -6.4603427    503.92354  0.033648741  0.033737485            3 
 1249000    1.0497418   -6.4798839    504.81487  0.033681269  0.033729284            4 
 1250000    1.0621474   -6.4661235    502.82895   0.03352193   0.03372083            5 
 1251000    1.0476247   -6.4406959    504.57866  0.033611688  0.033712473            6 
 1252000    1.0639141   -6.4315307    507.83754  0.033801753  0.033704355            4 
 1253000    1.0591065   -6.4476986    504.84592  0.033575813  0.033696333            2 
 1254000     1.052216   -6.4894581    506.47116  0.033657041  0.033688087            2 
 1255000    1.0622796   -6.4837109    506.20736  0.033612707  0.033679843            6 
 1256000    1.0599473   -6.4856366    505.76408  0.033556534  0.033671663            3 
 1257000     1.061109   -6.4714578    506.73118  0.033593953  0.033663325            7 
 1258000    1.0550845   -6.4389551    508.89169  0.033710366  0.033655116            3 
 1259000    1.0781505    -6.415485    505.88017  0.033484258   0.03364683            7 
 1260000    1.0332076   -6.4515157    506.81415  0.033519454  0.033638487            3 
 1261000     1.053196   -6.4726869     508.5919  0.033610356  0.033630135            8 
 1262000    1.0463569   -6.4702286    507.81706  0.033532558  0.033621839            3 
 1263000    1.0336282   -6.4676075    507.80564  0.033505255  0.033613486            5 
 1264000    1.0839851   -6.4896643    508.61972  0.033532418  0.033605372            3 
 1265000    1.0177808   -6.4685536     509.5827  0.033569348   0.03359743            4 
 1266000    1.0687332   -6.4542814    509.09509  0.033510735  0.033589251            2 
 1267000    1.0660609    -6.469973    509.19195  0.033490657  0.033581016            8 
 1268000     1.043664   -6.4422025    509.72187  0.033499071  0.033572874            3 
 1269000     1.056966   -6.4644327      509.541  0.033460796  0.033564475            5 
 1270000    1.0324815   -6.3941066    511.39261  0.033555946  0.033556089            2 
 1271000    1.0557368    -6.465147    509.04003  0.033375297   0.03354764            5 
 1272000    1.0551254   -6.4638751    511.05722  0.033481212  0.033539246            9 
 1273000    1.0539372   -6.4268449    513.65731  0.033625118  0.033530825            6 
 1274000    1.0556519   -6.4577549    511.85342  0.033480731  0.033522606            2 
 1275000    1.0361345   -6.5123357    510.17234  0.033344598  0.033514048            6 
 1276000    1.0421775   -6.4608848    512.20671  0.033451327   0.03350547            3 
 1277000    1.0255553   -6.5153945     509.7057  0.033261922  0.033497108            5 
 1278000    1.0383124   -6.4973666    512.97707  0.033449209   0.03348882            2 
 1279000    1.0294824   -6.4919884     511.5945  0.033332975   0.03348047            4 
 1280000    1.0546486   -6.4668063    513.57205   0.03343568  0.033472055            5 
 1281000    1.0338865   -6.4825977    513.30659   0.03339231  0.033463841            5 
 1282000    1.0541142   -6.4651566    513.85276  0.033401766  0.033455425            3 
 1283000    1.0493325   -6.4726409    514.52008  0.033419075  0.033446979            2 
 1284000     1.036944   -6.4734745    514.92791  0.033419517  0.033438458            4 
 1285000     1.057638    -6.480627    514.07925  0.033338473  0.033430117            2 
 1286000    1.0501593   -6.4843859    513.37831  0.033267127  0.033421663            8 
 1287000    1.0724028   -6.5036971    512.91194  0.033211081  0.033413192            4 
 1288000    1.0314883   -6.5095728     513.7179  0.033237442   0.03340467            3 
 1289000    1.0452019   -6.4340083    516.61371  0.033398869  0.033396356            6 
 1290000    1.0488471   -6.4700352    514.61101  0.033243605  0.033387964            3 
 1291000    1.0497098   -6.4744165    517.19164  0.033384433  0.033379763            6 
 1292000    1.0665822   -6.4813074    514.92603  0.033212463   0.03337151            7 
 1293000    1.0360723   -6.4964058     515.8208  0.033244444  0.033363368            6 
 1294000    1.0677681   -6.4473469    516.52511  0.033264111  0.033355206            2 
 1295000    1.0555693   -6.4864032    517.51162  0.033301906  0.033347029            6 
 1296000    1.0334581   -6.5044315    516.46253  0.033208753  0.033338733            4 
 1297000    1.0333257   -6.4808296    519.44555   0.03337481  0.033330386            3 
 1298000    1.0574083   -6.4849908    518.35061  0.033278802  0.033322169            5 
 1299000     1.043054   -6.4684642    519.07853   0.03329988  0.033314115            4 
 1300000    1.0564834   -6.5170969    519.02479   0.03327082  0.033305766            9 
 1301000    1.0507178    -6.476901    520.08363  0.033313069  0.033297574            3 
 1302000    1.0168405    -6.492225    519.61625  0.033257568  0.033289395            2 
 1303000    1.0470871   -6.4953682    519.61089  0.033231702  0.033280989            3 
 1304000    1.0270745   -6.4821828    519.69399  0.033211528  0.033272595            2 
 1305000     1.044451    -6.499784    519.61619  0.033181111  0.033264491            3 
 1306000    1.0451708   -6.4826146    520.93948   0.03324014  0.033256489            3 
 1307000    1.0550501   -6.4914342    520.21096  0.033168258  0.033248247            2 
 1308000    1.0401155   -6.4775591     521.6932  0.033237334  0.033239987            4 
 1309000    1.0413627   -6.4713854    522.60983  0.033270297  0.033232053            6 
 1310000    1.0238488   -6.4676109    522.05394  0.033209538  0.033223903            6 
 1311000    1.0472505   -6.4937069    519.54718  0.033024866  0.033215775            4 
 1312000    1.0505219   -6.4993133    523.10542    0.0332257  0.033207827            3 
 1313000     1.051338   -6.4913856    522.74463  0.033177496  0.033199529            3 
 1314000    1.0415898   -6.4959048    522.52529  0.033138336  0.033191319            3 
 1315000    1.0341926   -6.4977009    522.12841  0.033087985  0.033183178            3 
 1316000    1.0470435   -6.4627064    523.51794  0.033150832  0.033174977            2 
 1317000     1.043025   -6.4357997     524.9863  0.033218571  0.033166851            5 
 1318000    1.0557369   -6.4810137    523.84005  0.033120893  0.033158624            4 
 1319000    1.0474358   -6.4690931    524.94401   0.03316553   0.03315022            3 
 1320000    1.0469012   -6.5060673    523.29835  0.033036512   0.03314194            4 
 1321000    1.0384854   -6.5515863    523.12991  0.033000878  0.033133645            3 
 1322000    1.0102113   -6.4962613    524.47287  0.033060569  0.033125121            2 
 1323000    1.0516079   -6.5270758    525.07682  0.033073622  0.033116762            5 
 1324000    1.0452589   -6.4892882     526.2465  0.033122262   0.03310856            4 
 1325000    1.0039226   -6.4849487    525.68982  0.033062253  0.033100306            4 
 1326000     1.057196   -6.4856955     526.2265  0.033071047  0.033092102            7 
 1327000    1.0271341   -6.5102116     526.2928  0.033050289  0.033083865            4 
 1328000    1.0207595   -6.4763271    525.67832  0.032986842  0.033075578            3 
 1329000    1.0241314   -6.5033086    524.97695  0.032918043  0.033067107            4 
 1330000    1.0214635    -6.493833    525.81416  0.032945749  0.033058659            5 
 1331000    1.0390695     -6.47224    527.04532  0.032998079  0.033050331            5 
 1332000    1.0614948   -6.5022636    527.96631  0.033030925  0.033042067            5 
 1333000     1.034927   -6.5066261    526.14393  0.032892218   0.03303354            4 
 1334000    1.0412629   -6.4658989    528.10524  0.032990082  0.033025186            2 
 1335000    1.0338771   -6.5269239    527.52386   0.03292908  0.033016613            4 
 1336000    1.0381187    -6.493163    527.98462  0.032933172  0.033007983            4 
 1337000    1.0250876   -6.5173248     528.2074  0.032922426  0.032999481            5 
 1338000    1.0365619   -6.4824135    528.85208  0.032937972  0.032991073            5 
 1339000    1.0479781   -6.4896927    527.52657  0.032830879  0.032982687            3 
 1340000     1.035763   -6.4891665     529.7734  0.032946107  0.032974424            4 
 1341000    1.0450292   -6.5043965    529.14775  0.032882659  0.032965996            6 
 1342000    1.0317721   -6.4654451    531.27064   0.03298998  0.032957598            5 
 1343000    1.0395572   -6.5255509    527.93384  0.032758367  0.032949305            3 
 1344000    1.0212698   -6.5073022     529.6971  0.032843322  0.032940931            3 
 1345000    1.0534879   -6.4694114    529.54332  0.032809375  0.032932706            5 
 1346000    1.0434575   -6.5008137    529.98819  0.032812543  0.032924345            3 
 1347000    1.0271649   -6.5092904    530.83631  0.032840653  0.032916072            1 
 1348000    1.0291548   -6.4818838    531.98851  0.032887519  0.032907746            4 
 1349000    1.0295725   -6.5083871    532.50336  0.032894944  0.032899568            4 
 1350000     1.024747   -6.5024599    530.46027  0.032744461  0.032891284            4 
 1351000    1.0551066   -6.4892173    532.51084  0.032846709  0.032882953            5 
 1352000    1.0413028   -6.4782813     533.2325  0.032866895  0.032874784            3 
 1353000    1.0214472   -6.4945499    532.37121  0.032789555  0.032866582            3 
 1354000    1.0206351   -6.4835922    532.51583  0.032774239  0.032858486            4 
 1355000    1.0343311   -6.4842455    532.91799  0.032774784  0.032850223            2 
 1356000    1.0433318    -6.522926     533.0275  0.032757344  0.032841916            3 
 1357000     1.027128   -6.4860799    533.61493  0.032769279  0.032833477            2 
 1358000    1.0359931   -6.5065462    533.09033  0.032712956  0.032825031            6 
 1359000    1.0442529   -6.5279652    533.35038  0.032704831  0.032816576            4 
 1360000    1.0443463   -6.5071652     533.4247  0.032685337  0.032807827           12 
 1361000    1.0334791   -6.5274353    532.89963  0.032629172  0.032799131            3 
 1362000    1.0309611   -6.4914083    534.05796  0.032676087  0.032790577            4 
 1363000    1.0363375   -6.5102514    534.89703  0.032703413   0.03278207            4 
 1364000    1.0153493    -6.494019    535.22266  0.032699332  0.032773576            4 
 1365000    1.0539611   -6.5294974    534.64228  0.032639944  0.032765065            7 
 1366000    1.0249334   -6.4777128    536.64196  0.032738041  0.032756706            2 
 1367000      1.02927   -6.5145274    534.84531  0.032604566  0.032748326            8 
 1368000    1.0181371   -6.5061357     536.6476  0.032690522  0.032740087            4 
 1369000    1.0467801    -6.517554    534.43843  0.032532166  0.032731721            6 
 1370000    1.0350688   -6.4917603    536.22067  0.032616829  0.032723416            2 
 1371000    1.0281917   -6.4983715    537.90367  0.032695336  0.032715211            4 
 1372000    1.0277938   -6.5266361    537.54816  0.032649912  0.032706942            4 
 1373000    1.0364969   -6.4960578    538.65093  0.032693064  0.032698738            3 
 1374000    1.0181064   -6.4792007    538.62943  0.032667966  0.032690723            4 
 1375000    1.0414954   -6.5197514    537.99432  0.032605716  0.032682501            2 
 1376000    1.0499329   -6.4987973    538.96363  0.032640724  0.032674272            3 
 1377000    1.0364142   -6.5059523    538.88902  0.032612504  0.032666246            6 
 1378000    1.0198293   -6.4830136    539.31949   0.03261487  0.032658204            3 
 1379000    1.0385476   -6.4990194    539.49411  0.032601772  0.032650021            8 
 1380000    1.0163154   -6.5396988     539.6402  0.032586969  0.032641817            3 
 1381000    1.0434124   -6.4965427     540.4029  0.032609395  0.032633693            2 
 1382000    1.0399355   -6.4866524    539.98188  0.032560412  0.032625235            5 
 1383000     1.035804   -6.4969943    540.42675  0.032563675  0.032616889            4 
 1384000    1.0398222    -6.497532    540.84488  0.032565323  0.032608499            4 
 1385000    1.0103508   -6.4968506    541.40621  0.032575584  0.032600284            4 
 1386000    1.0274037   -6.5422543    540.98583  0.032526806  0.032592097            5 
 1387000    1.0082789   -6.5118182    542.18907  0.032575647  0.032583765            4 
 1388000    1.0155204   -6.5357718    541.38043  0.032503628  0.032575496            7 
 1389000    1.0544327   -6.5164123    540.75358  0.032442619  0.032567172            4 
 1390000    1.0196367   -6.5490473    542.78224  0.032540902  0.032558937            6 
 1391000    1.0396197    -6.522512    542.36406  0.032492455  0.032550506            3 
 1392000    1.0236812   -6.5135949    542.94911  0.032504138  0.032542497            7 
 1393000   0.99730746   -6.5208341    542.75204  0.032469014  0.032534253            3 
 1394000    1.0320871   -6.5017974    543.21964  0.032473675  0.032525987            4 
 1395000    1.0514902   -6.4932804    544.43394  0.032522936  0.032517753            6 
 1396000    1.0044634    -6.487833    545.60562  0.032569581  0.032509602            5 
 1397000    1.0377554   -6.5223943    543.77962  0.032437343  0.032501308            5 
 1398000    1.0339711   -6.5336921    544.71576  0.032469943  0.032492928            2 
 1399000     1.016927   -6.5064633    544.27713  0.032420606  0.032484531            6 
 1400000     1.010834   -6.5582472    543.54027  0.032353588  0.032475905            3 
 1401000    1.0295126   -6.5578331    544.90422  0.032411624  0.032467503            3 
 1402000    1.0043676   -6.5669805    546.23859  0.032467819  0.032459141            7 
 1403000    1.0500358   -6.5611246    544.40968  0.032336047  0.032450712            4 
 1404000    1.0152693   -6.5258445    544.54731  0.032321184  0.032442464            3 
 1405000    1.0420505    -6.497693    545.55561  0.032357984  0.032434378            2 
 1406000    1.0398217   -6.5353249    547.80528  0.032468307  0.032426307            6 
 1407000    1.0274839    -6.533305    546.49631  0.032367704  0.032418148            2 
 1408000    1.0215628   -6.5205013    547.88509  0.032426911  0.032409829            3 
 1409000    1.0287074   -6.5327742    547.41797   0.03237627  0.032401511            4 
 1410000    1.0357442   -6.5103813    547.04546  0.032331292  0.032393069            5 
 1411000    1.0166581   -6.5073223    548.60583  0.032400533   0.03238483            4 
 1412000     1.038002   -6.5304868    549.05791  0.032404267  0.032376644            3 
 1413000    1.0425883    -6.537482    548.63232  0.032356235  0.032368248            5 
 1414000    1.0270108   -6.5269631    548.51295  0.032326317  0.032359958            3 
 1415000    1.0239343   -6.5383874    548.19584  0.032284796  0.032351613            4 
 1416000    1.0228317   -6.5285886    549.00168  0.032309421  0.032343096            7 
 1417000    1.0459286   -6.5045225    550.68855  0.032385824  0.032334949            4 
 1418000    1.0229326   -6.4688651    550.78393   0.03236859  0.032326928            5 
 1419000    1.0311284   -6.5120308    550.20082  0.032311535  0.032318764            6 
 1420000    1.0326273   -6.5350808    550.81098  0.032324588  0.032310384            7 
 1421000    1.0283362   -6.4850702     551.2183  0.032325727  0.032302161            4 
 1422000    1.0276915   -6.5581231    549.79605  0.032219647  0.032293862            5 
 1423000    1.0126563    -6.532339    550.45035  0.032235321  0.032285465            2 
 1424000   0.99976741   -6.5283588    549.11785  0.032134705  0.032277028            4 
 1425000    1.0269439   -6.5194442    550.15079  0.032172561  0.032268482            3 
 1426000    1.0085239   -6.5507583    550.25526  0.032156105   0.03225985            4 
 1427000    1.0162444   -6.5454842    548.74969  0.032045649  0.032251163            6 
 1428000     1.034285   -6.5198719    551.68713  0.032194627  0.032242588            2 
 1429000    1.0192766   -6.5160999    553.38118  0.032270887  0.032234027            3 
 1430000    1.0366529   -6.5861829    548.94663  0.031989897   0.03222532            3 
 1431000    1.0393309   -6.5192635    551.24227  0.032101227   0.03221665            5 
 1432000    1.0024682    -6.513222     552.6873  0.032162902  0.032208258            5 
 1433000     1.019727   -6.5396968    552.97974  0.032157463  0.032199871            7 
 1434000    1.0146399   -6.5537072    553.36186  0.032157245  0.032191319            3 
 1435000    1.0268479   -6.4896354    553.23248  0.032127322   0.03218292            7 
 1436000    1.0283729   -6.5316222    552.79124  0.032079343  0.032174451            8 
 1437000    1.0153433   -6.5354801    551.78892  0.031998893  0.032165963            5 
 1438000    1.0125408   -6.5795146    552.12579  0.031996163  0.032157252            3 
 1439000     1.012614   -6.5662131     552.5249  0.031997041  0.032148348            5 
 1440000   0.98949842   -6.5268291    551.82095  0.031934082  0.032139758            6 
 1441000    1.0085217     -6.53211    554.07184  0.032042091  0.032131041            2 
 1442000    1.0180955   -6.5527786    553.66216  0.031996195  0.032122511            5 
 1443000   0.99935715   -6.5714603    553.72478  0.031977638  0.032113828            3 
 1444000    1.0219403   -6.5512036    553.75697   0.03195735  0.032105152            6 
 1445000    1.0299709   -6.5258895    554.29197  0.031966088  0.032096461            2 
 1446000    1.0230462   -6.5697721    554.64079  0.031964084  0.032087865            3 
 1447000    1.0184925   -6.5713934    554.16357  0.031914511  0.032079325            5 
 1448000     1.050386   -6.5663442    553.84508  0.031874141   0.03207094            3 
 1449000    1.0250624   -6.5503072    554.93011  0.031914545  0.032062415            5 
 1450000     1.016803   -6.5400114    558.70289  0.032109361   0.03205399            2 
 1451000    1.0218112   -6.5310244    556.10221  0.031937871  0.032045595            3 
 1452000    1.0228422   -6.5627768    556.41164  0.031933634  0.032037052            2 
 1453000   0.99114751   -6.5689756    555.83224  0.031878427  0.032028395            3 
 1454000    1.0107074   -6.5294724    557.33999  0.031942916  0.032019799            3 
 1455000    1.0046481   -6.5386365     556.0688  0.031848156  0.032011062            2 
 1456000    1.0267521   -6.5463019    557.01219  0.031880277  0.032002253            3 
 1457000    1.0220665   -6.5616234    557.20194  0.031869248  0.031993479           11 
 1458000    1.0251116   -6.5709854    558.68502  0.031932157  0.031984798            3 
 1459000    1.0071106   -6.5567387    556.79741  0.031802456  0.031976064            5 
 1460000    1.0247081   -6.5777491    556.78839  0.031780159  0.031967296            4 
 1461000    1.0258483   -6.5652893    556.85567  0.031762244  0.031958435            3 
 1462000    1.0141339   -6.5100094    559.03811  0.031864917    0.0319498           11 
 1463000    1.0134898   -6.5322212    559.53821  0.031871623  0.031941104            6 
 1464000    1.0038667   -6.5525312    559.05204  0.031822179  0.031932353            3 
 1465000    1.0187219   -6.5808564    557.05011  0.031686582   0.03192364            5 
 1466000    1.0226801   -6.5080469    559.41101  0.031799171  0.031914753            3 
 1467000    1.0153941   -6.5507834    560.13858  0.031818824  0.031906124            2 
 1468000   0.99489145   -6.5375133     559.8856  0.031782788  0.031897554            4 
 1469000    1.0245847   -6.5668816    558.31392  0.031671994  0.031888786            2 
 1470000    1.0046369   -6.5689141    560.06609  0.031749779  0.031879974            9 
 1471000    1.0152666   -6.5809911     559.5402  0.031698403  0.031871086            2 
 1472000     1.043543   -6.5723507    558.92787  0.031642203  0.031862244            4 
 1473000    1.0140637   -6.6087927    560.72715  0.031722513  0.031853473            3 
 1474000   0.99295553   -6.4993053    560.83479  0.031707077  0.031844954            4 
 1475000    1.0281498   -6.5165127    563.42518  0.031831931  0.031836593            3 
 1476000    1.0156206   -6.5623067    562.19622  0.031740979  0.031828117            5 
 1477000    1.0022631   -6.5596784     561.9878   0.03170773   0.03181976            4 
 1478000    1.0150655   -6.5480873    562.03921  0.031689175  0.031811267            5 
 1479000    1.0166874   -6.5258398    563.17361  0.031731666   0.03180282            2 
 1480000    1.0266949   -6.5309448    563.80253  0.031745638  0.031794174            4 
 1481000    1.0156822   -6.5349615    562.56764  0.031654718  0.031785597            3 
 1482000    1.0136386   -6.5338735    562.26259  0.031616205  0.031777094            3 
 1483000    1.0166364   -6.5951532    562.90745  0.031631122  0.031768523            6 
 1484000     1.032042   -6.5538059    562.60257  0.031592687  0.031759847            5 
 1485000    1.0121919   -6.5579023    562.79667  0.031582305  0.031751204            6 
 1486000     1.020913   -6.5608198    563.13199  0.031579856  0.031742616            6 
 1487000    1.0176487   -6.5717211     564.0135   0.03160802  0.031733908            7 
 1488000   0.98540722   -6.5914207    563.50642  0.031558379  0.031725219            5 
 1489000    1.0105648   -6.5294078    565.88071  0.031670064  0.031716775            4 
 1490000    1.0104064    -6.605114    564.56938  0.031575468  0.031708219            4 
 1491000    1.0209939   -6.5611861    565.52113  0.031607485  0.031699511            4 
 1492000    1.0207595   -6.6041066    566.02924   0.03161468  0.031690848            3 
 1493000    1.0355663   -6.6016059    563.78816  0.031468417  0.031682184            3 
 1494000   0.99807621   -6.5725336    565.37023    0.0315356  0.031673533            3 
 1495000   0.99293771   -6.5685932    565.21837  0.031506041  0.031664839            5 
 1496000    1.0150433   -6.5519356     565.6301  0.031507916  0.031656239            6 
 1497000    1.0538026   -6.5407848     568.1464  0.031626942  0.031647785            5 
 1498000    1.0132595   -6.5656979    566.62502  0.031521196  0.031639486            3 
 1499000    1.0161453   -6.5656995    566.51555  0.031494082  0.031631208            3 
 1500000    1.0101004   -6.5757527    568.24403  0.031569113  0.031622669            5 
 1501000    1.0130877   -6.5515055     568.9578  0.031587708  0.031614048            4 
 1502000     1.014447   -6.5674938    567.44395  0.031482687   0.03160568            3 
 1503000    1.0248506   -6.5884508    567.46955   0.03146316  0.031597248            2 
 1504000    1.0043718   -6.5590337    569.59107  0.031559789  0.031588733            7 
 1505000    1.0044869   -6.5865059    567.80393  0.031439863  0.031580195            3 
 1506000    1.0023144   -6.5536893     569.3067  0.031502141  0.031571617            6 
 1507000    1.0138923     -6.53588    569.78742   0.03150782   0.03156313            5 
 1508000    1.0213798   -6.5658317    570.06404  0.031502212  0.031554514            4 
 1509000   0.99091186   -6.5511544    569.64498  0.031458194  0.031546078            4 
 1510000    1.0043509    -6.555747    570.43626   0.03148103  0.031537675            7 
 1511000    1.0162274   -6.5463094    571.21899  0.031503364  0.031529338            3 
 1512000    1.0012706   -6.5866913    572.90751   0.03157559  0.031521035            8 
 1513000    1.0133479   -6.5630745    569.86327   0.03138705  0.031512531           14 
 1514000    1.0095714   -6.5747792    570.70772  0.031412798  0.031503968            6 
 1515000   0.97199496   -6.5605857    573.37855  0.031538974  0.031495499            2 
 1516000    1.0217331   -6.5940663    571.16042  0.031396241  0.031486952            3 
 1517000   0.98182339   -6.5596566    571.93674  0.031418191  0.031478488           10 
 1518000    1.0055293   -6.5736369    571.78026  0.031388903  0.031469892            5 
 1519000    1.0117155   -6.5619294    572.14983  0.031388514  0.031461411            4 
 1520000    1.0088064   -6.5835863    570.07822  0.031254288  0.031452881            5 
 1521000    1.0005887   -6.6199915    571.32194  0.031301881  0.031444154            7 
 1522000    1.0011258   -6.6025766    573.13916  0.031380812  0.031435594            4 
 1523000   0.98764863   -6.5975285    572.43195  0.031321512  0.031426915            3 
 1524000    1.0060924   -6.5610754     573.9293  0.031382836  0.031418432            5 
 1525000    1.0118497   -6.5705606    573.69175  0.031349276  0.031410025            4 
 1526000     1.008167    -6.589283    573.30954   0.03130786  0.031401579            3 
 1527000    1.0238432   -6.6096716    573.16704  0.031279581  0.031393018            3 
 1528000    1.0293295    -6.540269    574.92294  0.031354872  0.031384696            4 
 1529000    1.0049594   -6.5793134    573.33693  0.031247925  0.031376355            6 
 1530000    1.0068624   -6.5498745     574.7971  0.031307031  0.031367811            3 
 1531000    1.0089247   -6.5618022     572.5831  0.031166073   0.03135928            6 
 1532000     1.010484   -6.5291134    575.72113  0.031316423  0.031350744            5 
 1533000   0.99863079   -6.5759396    572.71792  0.031132742  0.031342302            5 
 1534000    1.0143579   -6.5642547    574.46217  0.031207202  0.031333907            2 
 1535000   0.99053323   -6.5922013    575.42087  0.031238918  0.031325334            2 
 1536000   0.98452617   -6.5590738    575.65909  0.031231504  0.031316669            4 
 1537000    1.0227393   -6.5737036    575.35152  0.031194509  0.031308001            4 
 1538000    1.0153186   -6.5779086    576.25393  0.031223121  0.031299412            4 
 1539000    1.0371733   -6.5993256    573.79237  0.031069546  0.031290799            3 
 1540000    1.0069777   -6.5573914    576.09042  0.031173724  0.031281976            4 
 1541000    1.0133781   -6.5890969    576.14716  0.031156563  0.031273148            5 
 1542000    1.0124156   -6.5262424    577.00812  0.031182886  0.031264458            3 
 1543000   0.99554109   -6.5728265    575.67481  0.031090668  0.031255841            2 
 1544000     1.003173   -6.5887472    577.26355   0.03115628  0.031247309            6 
 1545000    0.9935504   -6.5912602    575.56149  0.031044309  0.031238732            2 
 1546000    1.0071754    -6.589325    576.71785  0.031086559  0.031230067            2 
 1547000    1.0029607   -6.5851714    578.25215  0.031149114  0.031221454            3 
 1548000   0.99984927    -6.608392    575.46552  0.030978979   0.03121279            5 
 1549000     1.017609   -6.5749083    578.99954  0.031149104  0.031204173            3 
 1550000     1.015662   -6.6139271    576.71264  0.031006056  0.031195628            8 
 1551000    1.0122476   -6.5861076    577.30757   0.03101803  0.031187038            6 
 1552000    1.0242478   -6.5718809    578.52277  0.031063293   0.03117845            4 
 1553000   0.97946002   -6.6064505    578.39691  0.031036537  0.031169825            3 
 1554000   0.99517946   -6.5725246    580.89474  0.031150512  0.031161059            4 
 1555000   0.99591998   -6.5932979    581.38261  0.031156625  0.031152555            2 
 1556000    1.0035665   -6.5828116    580.56903  0.031093029  0.031144009            4 
 1557000   0.99070126   -6.5770471    579.73591  0.031028469  0.031135602            4 
 1558000   0.98093868   -6.5904484     581.3353    0.0310941   0.03112708            6 
 1559000    1.0033861   -6.6035658    580.64091  0.031037038  0.031118605            2 
 1560000    1.0102965    -6.587782    582.65325   0.03112464  0.031110097            3 
 1561000   0.99209429   -6.6068836    582.50777  0.031096934  0.031101576            5 
 1562000    0.9701894   -6.5616149    582.56274  0.031079958   0.03109288            2 
 1563000    1.0028593   -6.5972905    582.28139  0.031045073  0.031084309            7 
 1564000    1.0162508   -6.6065009    582.07289  0.031014114  0.031075733            3 
 1565000   0.99653223   -6.5509008    582.10234  0.030995865  0.031067078            4 
 1566000    1.0009471     -6.59237    581.56067  0.030947247  0.031058554            5 
 1567000    1.0123184   -6.6169237     580.8886  0.030891757  0.031049946            3 
 1568000   0.98929402   -6.5990535    580.98303  0.030877074  0.031041214            6 
 1569000    1.0173518   -6.6045329    579.68562  0.030788486  0.031032415            7 
 1570000    1.0105299   -6.6464492    580.81516   0.03082883  0.031023582            5 
 1571000    1.0114118   -6.5984646    581.66602   0.03085434  0.031014722            3 
 1572000   0.99782925   -6.6303267    580.63666  0.030780145  0.031006106            5 
 1573000   0.99644879   -6.5964106     580.3226  0.030743939  0.030997342            5 
 1574000    1.0061757   -6.5676627    582.52565  0.030841045   0.03098871            2 
 1575000    1.0024047   -6.5952793    582.65413  0.030828261  0.030980126            7 
 1576000    1.0060126   -6.6207933    583.06215  0.030830275  0.030971384            3 
 1577000   0.98616412   -6.6170334    583.10244  0.030812853  0.030962618            5 
 1578000    1.0021336   -6.5978848    582.97996  0.030786859  0.030953856            2 
 1579000   0.97798027   -6.5662208    583.36648   0.03078776  0.030945021            6 
 1580000   0.99896401   -6.5969067    583.70271  0.030786008  0.030936253            2 
 1581000     0.968849   -6.6063131     584.8776  0.030828463  0.030927495            6 
 1582000   0.98578099   -6.6080454    583.87701  0.030756269    0.0309187            8 
 1583000    1.0060305   -6.6433908    583.23051  0.030702807  0.030909869            7 
 1584000   0.99290004   -6.6300688    582.57754  0.030649071  0.030900997           10 
 1585000   0.99873459   -6.6204927    584.14689  0.030712244  0.030891993            5 
 1586000    1.0210548   -6.6124105    584.38985  0.030705646  0.030883224            3 
 1587000   0.98815435   -6.6062861    586.47209  0.030795636  0.030874416            5 
 1588000   0.99903733   -6.6471427    583.73678  0.030632702  0.030865552            6 
 1589000   0.98604207   -6.6560095     582.4734  0.030547168  0.030856664            2 
 1590000    1.0135762   -6.5932679    586.85503  0.030757601  0.030847896           12 
 1591000    0.9959448   -6.5769173    586.96705  0.030744136  0.030839381            4 
 1592000   0.99849682   -6.6037958    586.16214  0.030682691  0.030830786            3 
 1593000    1.0065611   -6.6342767    585.53471  0.030630608  0.030821968           10 
 1594000    1.0047575    -6.621398    587.07303  0.030691814  0.030813348            8 
 1595000   0.99311434   -6.5887073    588.00235  0.030721126  0.030804884            6 
 1596000   0.97968181    -6.625494    587.46639  0.030673893  0.030796321            5 
 1597000    1.0010079   -6.6490475     588.7776  0.030723106  0.030787892            5 
 1598000    1.0135098   -6.5804463    588.81846  0.030706011  0.030779286            5 
 1599000   0.96999818   -6.5947474    590.09177  0.030753167  0.030770837            2 
 1600000    1.0048981   -6.6028785     588.0067  0.030625349  0.030762562            3 
 1601000    1.0047378   -6.6104854    588.91678  0.030653591  0.030754141            5 
 1602000   0.97749257   -6.6618715    588.04479  0.030589096  0.030745663            3 
 1603000   0.98563097   -6.5855823    590.93699  0.030720368  0.030737058            5 
 1604000   0.99498409   -6.6085668    590.22182   0.03066406  0.030728625            4 
 1605000   0.98663803    -6.615821    589.51323  0.030608163  0.030720011            6 
 1606000    1.0141206   -6.6286578    589.13089  0.030569266  0.030711341            4 
 1607000   0.96817331   -6.6280331    589.79024  0.030584435  0.030702763            5 
 1608000   0.97515087   -6.5922678    591.32505  0.030644955  0.030694104            2 
 1609000   0.99065348   -6.5861086    593.36106  0.030731358  0.030685642            4 
 1610000   0.99621016   -6.6027464    591.57979  0.030620072  0.030677267            4 
 1611000   0.98235365   -6.5997334    594.69015  0.030761957  0.030668911            2 
 1612000    1.0116425   -6.6009459    592.91646  0.030651182  0.030660577            8 
 1613000   0.99411032   -6.6653136    590.22126  0.030492935  0.030652139            5 
 1614000    1.0036017   -6.6088939    591.93085  0.030562312  0.030643748            3 
 1615000    1.0138768   -6.5898753    592.09657  0.030551939   0.03063543            5 
 1616000    1.0001243    -6.606033    592.87739  0.030573298  0.030626969            3 
 1617000    0.9981673   -6.6319252    593.48556  0.030585733  0.030618472            5 
 1618000    0.9943974    -6.614187    591.85514  0.030482856  0.030610167            5 
 1619000   0.98952424   -6.5967621    593.22305  0.030534438  0.030601751            6 
 1620000    1.0062074    -6.588015    592.47014  0.030476859  0.030593301            5 
 1621000    1.0201957   -6.6520675    594.18088  0.030546005  0.030584845            4 
 1622000   0.97920779   -6.6240202     592.4982  0.030440721  0.030576336            6 
 1623000    1.0123643   -6.6059324    594.35926  0.030517522  0.030567856            4 
 1624000    1.0199223     -6.60065     593.1138  0.030434822  0.030559433            3 
 1625000   0.98160226   -6.6184022     593.1853  0.030419759  0.030551123            3 
 1626000   0.98414569   -6.5973641    596.36361  0.030563941  0.030542826            2 
 1627000   0.97663605   -6.6189579    594.52763  0.030451118  0.030534497            6 
 1628000   0.97624051   -6.5795204    597.79562  0.030599694   0.03052634            4 
 1629000   0.99815926   -6.6105177    597.12837  0.030546776  0.030518133            4 
 1630000   0.99283736   -6.6173029     595.8572  0.030463047  0.030509829            4 
 1631000    1.0066881   -6.6426799    595.40537  0.030421284  0.030501405            1 
 1632000   0.98072066   -6.6258557    596.07638  0.030436907  0.030492917            7 
 1633000   0.99222574   -6.6152241    597.14493  0.030472797  0.030484437            8 
 1634000   0.97566428   -6.6000865    596.81594  0.030437369  0.030475957            4 
 1635000    0.9945728    -6.638025      598.641  0.030511774  0.030467428            3 
 1636000   0.99824154   -6.6175978    597.63499   0.03044188  0.030458967            4 
 1637000   0.98883236   -6.6106575    597.89093  0.030436313  0.030450629            5 
 1638000   0.99648522   -6.5549487    600.55401  0.030553216  0.030442428            3 
 1639000   0.98828921    -6.617934    598.88388  0.030449659  0.030434095            5 
 1640000    1.0003497   -6.5995848    598.80132  0.030426896   0.03042571            6 
 1641000    0.9858594   -6.6137807    599.05854  0.030421417  0.030417318            5 
 1642000   0.97788563   -6.5810095    599.67548    0.0304342  0.030409008            1 
 1643000   0.99529813   -6.6037526     599.5719  0.030410423  0.030400687            4 
 1644000   0.97345309   -6.6299635    598.88162  0.030356935  0.030392304            4 
 1645000   0.97349979   -6.5870319    599.51076  0.030370352  0.030384068            4 
 1646000   0.98841318   -6.6180874    598.16767  0.030283904  0.030375666            5 
 1647000   0.98664399   -6.6484593    598.07847  0.030261004  0.030367222            3 
 1648000    0.9836252   -6.5970754    600.50839  0.030365513  0.030358803            3 
 1649000   0.97925862   -6.6134113    600.15307  0.030329142  0.030350377            4 
 1650000   0.98410715   -6.6331929    599.68938  0.030287343  0.030341999            7 
 1651000     0.984998   -6.6342495    601.49152   0.03035996  0.030333573            5 
 1652000   0.98839218   -6.6370531    600.08005  0.030270382  0.030325132            6 
 1653000   0.99905377   -6.6227492    600.34684  0.030265519  0.030316631            9 
 1654000   0.96848197   -6.6086464    600.56099   0.03025801  0.030308158            4 
 1655000   0.99405087   -6.6315082    600.04006  0.030213497  0.030299669            4 
 1656000   0.97244656   -6.6094993    602.06783  0.030297294    0.0302912            6 
 1657000   0.99643464   -6.6482816    599.77181  0.030163539   0.03028278            2 
 1658000   0.97372494   -6.6342679    600.94061  0.030204092  0.030274391            5 
 1659000    1.0048709   -6.6180754    603.95537   0.03033732  0.030266023            3 
 1660000   0.99559573   -6.6184992    603.58922  0.030300664  0.030257707            6 
 1661000   0.96613408   -6.6412358    603.73263  0.030289616  0.030249301            3 
 1662000   0.99679603   -6.5824898    604.22345  0.030296001  0.030240987            3 
 1663000   0.99059241    -6.668121    601.94989  0.030163855  0.030232617            4 
 1664000    1.0097701   -6.6289383    603.82405  0.030239586  0.030224395            5 
 1665000   0.98161452   -6.6366406    603.71913  0.030216172  0.030216186           11 
 1666000   0.97930528   -6.6149839    602.72339  0.030148229  0.030207853           12 
 1667000   0.98949064   -6.6285807    603.09801  0.030148871  0.030199627            5 
 1668000     1.006352   -6.6294845    602.81961  0.030116887   0.03019122            5 
 1669000   0.96606673   -6.6475344     603.3935  0.030127497  0.030182975            4 
 1670000   0.99562642   -6.6349539    605.80664  0.030229872  0.030174697            7 
 1671000    0.9710456   -6.6884566    604.24135   0.03013372  0.030166482            6 
 1672000   0.98240984   -6.6337262    606.23632  0.030215128  0.030158135           12 
 1673000   0.99298456   -6.6013141    604.99991  0.030135481  0.030149947            3 
 1674000   0.98565228   -6.6182557    605.22453   0.03012866  0.030141768            4 
 1675000   0.97722534   -6.6352512    606.35382  0.030166856  0.030133537            7 
 1676000    1.0047414   -6.6469451    605.89068   0.03012583  0.030125284            4 
 1677000   0.96950704   -6.6245956    607.25342  0.030175582  0.030117149            4 
 1678000   0.98240626   -6.6333833    606.46866  0.030118627  0.030108821            4 
 1679000   0.97372878   -6.6269892    607.24848  0.030139392  0.030100516            7 
 1680000   0.99903317   -6.6590799    605.95767  0.030057424  0.030092247            3 
 1681000   0.95623409   -6.6242913    606.37795  0.030060378  0.030083868            4 
 1682000   0.98219331   -6.6629945    606.16257  0.030031836  0.030075469            6 
 1683000   0.98674338   -6.6807798    605.34039  0.029973281  0.030067022            6 
 1684000    1.0203147   -6.6310923    607.27985  0.030051457  0.030058607            4 
 1685000   0.96564603   -6.6567759    607.75735  0.030057238  0.030050259            3 
 1686000   0.97937317   -6.6182935    608.10214  0.030056452  0.030041941            5 
 1687000   0.97597385   -6.6198502    609.68181  0.030116667  0.030033555            3 
 1688000    0.9778436   -6.5978935    608.33984  0.030032575  0.030024986            3 
 1689000   0.98830053   -6.6529605    606.79351    0.0299385   0.03001648            4 
 1690000   0.96456443   -6.6521451    606.97925  0.029929943   0.03000794            7 
 1691000    0.9804203   -6.6644765    608.42584  0.029983532  0.029999386            6 
 1692000   0.97239495   -6.6630189    607.61528   0.02992589  0.029991006            4 
 1693000    1.0018337   -6.6772253    608.14937  0.029934503  0.029982554            1 
 1694000   0.98758962   -6.6315906    610.98361  0.030056258  0.029974146            3 
 1695000   0.98213674     -6.64892     609.0898  0.029945418   0.02996582            3 
 1696000   0.96738689   -6.6560873    607.28163  0.029838916  0.029957591            5 
 1697000   0.98352099   -6.6056314    611.30058  0.030018689  0.029949299            4 
 1698000    0.9999941   -6.6408685    611.77897  0.030024488  0.029941026            4 
 1699000   0.97410995   -6.6899513    609.79878  0.029909691  0.029932531            4 
 1700000   0.97121379   -6.6254174    609.33615  0.029869419  0.029924077            3 
 1701000   0.98753329    -6.675601    608.78047  0.029824636  0.029915617            7 
 1702000   0.97957622    -6.630185    611.45739   0.02993818  0.029907137            5 
 1703000   0.98775669   -6.6665912    610.06545  0.029852488  0.029898677            4 
 1704000   0.98310528   -6.6735558     608.2206  0.029744748   0.02989026            4 
 1705000   0.98843855   -6.6262457    611.61721  0.029893314  0.029881943            3 
 1706000   0.97914515   -6.6207239    611.50303  0.029870214  0.029873674            4 
 1707000   0.97655082   -6.6343043    612.97303  0.029924479  0.029865585            6 
 1708000   0.99612958   -6.6561288    610.88017  0.029804848  0.029857312            7 
 1709000   0.99774627   -6.6805655    612.96656  0.029889144  0.029849137            3 
 1710000   0.97029558   -6.6490426    611.43279   0.02979692  0.029840913            3 
 1711000   0.97270434   -6.6855004    612.36993  0.029825148  0.029832713            7 
 1712000   0.98225526   -6.6834623    614.19145  0.029896391  0.029824416            3 
 1713000    1.0005439   -6.6550051    614.32014  0.029885198  0.029816421            4 
 1714000    0.9903992    -6.667592    614.28999  0.029866297  0.029808516            4 
 1715000   0.98309144   -6.6810866    613.95767  0.029832734  0.029800365            8 
 1716000   0.98467762   -6.6532938     614.1191  0.029823188  0.029792254            4 
 1717000    1.0041483   -6.6635195    614.09489  0.029804644  0.029784283            4 
 1718000   0.96165792   -6.6321804    616.02207  0.029880775  0.029776251            4 
 1719000   0.94631047   -6.6360068    615.76245  0.029850807  0.029768179            8 
 1720000   0.96939716   -6.6775632    615.20535  0.029806461  0.029760075            6 
 1721000    0.9983378   -6.6404562    617.08401  0.029880109  0.029751975            2 
 1722000   0.98546552    -6.675049    614.78365  0.029751435  0.029744008            7 
 1723000   0.97336348   -6.6719454    614.72042  0.029731109  0.029735829            3 
 1724000   0.95859138   -6.6644413    616.11353  0.029781203   0.02972759            3 
 1725000   0.97655676   -6.6607299     615.1656  0.029718145  0.029719508            7 
 1726000   0.97065083   -6.6864883    615.14469  0.029699917  0.029711351            3 
 1727000   0.98942911   -6.6568578    615.09292  0.029680222  0.029703235            3 
 1728000   0.96051907   -6.7061226     617.1798  0.029763686  0.029695095            2 
 1729000   0.98905929   -6.6764392    615.39048  0.029660231  0.029686846            3 
 1730000   0.96311931   -6.6504579    618.45827  0.029790861  0.029678727            4 
 1731000   0.97008308   -6.6470537    617.95313  0.029749332   0.02967078            9 
 1732000   0.95944188   -6.6479213    618.96997   0.02978108    0.0296628            9 
 1733000   0.97868016   -6.6526089    619.37902  0.029783565  0.029654824            6 
 1734000   0.96524728   -6.6616607    616.04596  0.029606207  0.029646736            4 
 1735000   0.98877278   -6.6814386    616.46914  0.029609469  0.029638537            3 
 1736000   0.94973762   -6.6944653    618.15943  0.029673552  0.029630303            4 
 1737000   0.96240634   -6.7152428     616.6891  0.029585929   0.02962201            4 
 1738000   0.97855595   -6.6434912    619.75907  0.029716104  0.029613843            2 
 1739000    0.9755583    -6.651685    620.97472   0.02975727   0.02960567            4 
 1740000   0.98637802   -6.6776611    617.38081  0.029568046  0.029597485            6 
 1741000   0.96871796   -6.6766016    616.45547  0.029506771  0.029589246            4 
 1742000   0.93766101    -6.686292    617.27014  0.029528805  0.029580863            9 
 1743000   0.97112554   -6.6724628    617.30339  0.029513453  0.029572389            6 
 1744000   0.95962115   -6.6795386    618.56428  0.029556779  0.029563879            3 
 1745000   0.98998148   -6.6913511    618.68513  0.029545613  0.029555408           10 
 1746000   0.95694028   -6.7176376    616.90266  0.029443617   0.02954698            5 
 1747000   0.97086088   -6.6936639    620.98845  0.029621659  0.029538692            3 
 1748000   0.98725171   -6.6387411    621.47646  0.029627978  0.029530411            5 
 1749000   0.96554577   -6.6549027     619.9914   0.02954028  0.029522197            3 
 1750000   0.97507088   -6.6549305    618.20168  0.029438175  0.029513988            3 
 1751000   0.97385298   -6.6456953    620.92944  0.029551182  0.029505573            4 
 1752000   0.94891868   -6.6939021    617.75686  0.029383412  0.029497164           10 
 1753000   0.97111594   -6.6754756     620.5598  0.029499895  0.029488753            6 
 1754000   0.96301927   -6.6304776    620.21251  0.029466577  0.029480427            4 
 1755000   0.96293051   -6.6627517     620.8169  0.029478485  0.029472121            5 
 1756000   0.98034548   -6.6887959    621.78109  0.029507455  0.029463821            3 
 1757000   0.96584949   -6.6436098    620.40077  0.029425193  0.029455346            4 
 1758000   0.95111416   -6.6907286    620.23613  0.029400651  0.029446974            7 
 1759000   0.98943834    -6.718732    619.56843  0.029352304  0.029438456            3 
 1760000   0.95672336   -6.6560172    621.58277  0.029431003  0.029430123            2 
 1761000   0.95887525   -6.6591159    621.44865  0.029407943  0.029421596            7 
 1762000   0.97009598   -6.6553871    622.38302  0.029435443   0.02941326            2 
 1763000   0.97868438   -6.6505933    620.74352  0.029341252  0.029404908           10 
 1764000   0.97721776   -6.6645869    621.15972   0.02934428  0.029396554            5 
 1765000     0.981146    -6.655976    622.36305  0.029384469  0.029388218            2 
 1766000   0.99045766   -6.6818008    620.94034  0.029300695  0.029379818            5 
 1767000   0.95785944   -6.6824103    622.86932  0.029375086  0.029371605            4 
 1768000   0.96811268   -6.6565582     623.2486  0.029376348  0.029363341            3 
 1769000   0.98850663   -6.6536289    623.32323  0.029363258   0.02935518            7 
 1770000   0.97152733   -6.6939994    623.53043  0.029356423  0.029346849            3 
 1771000    0.9730643    -6.678586    622.44312  0.029288684  0.029338504            5 
 1772000   0.95777098   -6.6539134    623.25531  0.029310351  0.029330118            5 
 1773000   0.97911443   -6.6850237    625.00883  0.029376237  0.029321813            5 
 1774000   0.96524981   -6.6888019    624.30488   0.02932661  0.029313554            7 
 1775000   0.98571077   -6.6581814    624.08474  0.029299753  0.029305185            4 
 1776000   0.96900055   -6.6636826    624.03668     0.029281  0.029296822            4 
 1777000   0.96151253   -6.6911928     623.7938  0.029253133  0.029288353            3 
 1778000      0.97393     -6.65066     625.6515  0.029323749  0.029279863            8 
 1779000   0.95078552   -6.6565454     624.3339  0.029245545  0.029271421            4 
 1780000   0.96931197   -6.6857966    624.31986  0.029228458  0.029262939            6 
 1781000   0.96774225   -6.6586524    625.10797  0.029248922  0.029254522            4 
 1782000   0.97652674   -6.6673031    624.31598  0.029195473   0.02924614            4 
 1783000   0.98186075   -6.6904043    623.94521  0.029161769  0.029237739            8 
 1784000   0.96631633   -6.6936014    623.93262  0.029144835  0.029229346            4 
 1785000   0.99450401   -6.7023802    623.98423  0.029130916  0.029220817            6 
 1786000   0.97025836   -6.6984097    623.74502  0.029103445  0.029212299            4 
 1787000   0.99230894   -6.6908339    625.15367  0.029152848   0.02920381            5 
 1788000   0.95650543   -6.6669398     626.2856  0.029189299  0.029195483            4 
 1789000   0.96395706   -6.6975231    625.29311  0.029126752  0.029187082            4 
 1790000   0.97763014   -6.6767182    627.19316  0.029198937  0.029178702            3 
 1791000   0.96389209    -6.688994    625.43221  0.029100698  0.029170312            3 
 1792000   0.97368994   -6.7280445    624.21673  0.029027936  0.029161735            4 
 1793000   0.95522615   -6.7088287    623.95252  0.028999466  0.029153232            7 
 1794000   0.97500237   -6.7178091    624.01735  0.028986313  0.029144577            4 
 1795000   0.97173117   -6.6747421    627.46777  0.029130352  0.029136036            5 
 1796000   0.94129956   -6.7406371    624.94546  0.028997098  0.029127497            8 
 1797000    0.9801498   -6.7116152    626.19678   0.02903899  0.029118865           10 
 1798000   0.96531792   -6.7114617     626.3091  0.029028045   0.02911049            5 
 1799000   0.94972987   -6.6979526    626.97152  0.029042594  0.029102055            5 
 1800000   0.96173686   -6.6881628    629.04384    0.0291224  0.029093678            6 
 1801000   0.98998991   -6.7027509    627.80465  0.029048892  0.029085383            3 
 1802000   0.97097317   -6.7046518    627.81853  0.029033413  0.029077143            4 
 1803000    0.9611526    -6.738717     627.9985  0.029025628   0.02906875            4 
 1804000   0.96138229   -6.6804739    630.03287  0.029103514  0.029060576            3 
 1805000   0.94035183    -6.706299    631.12125  0.029137638  0.029052332            4 
 1806000   0.97323769   -6.6947335     629.4473  0.029044264   0.02904406            6 
 1807000   0.96981983   -6.7238439    628.42615  0.028981099  0.029035767            3 
 1808000   0.97968639   -6.6954652    629.80399  0.029028576   0.02902736            6 
 1809000    0.9708426    -6.678692    632.05089  0.029116035  0.029019002            3 
 1810000   0.95550027   -6.7022864    630.88966  0.029046485  0.029010799            7 
 1811000   0.96828638   -6.6704346    630.79079  0.029025897  0.029002566            7 
 1812000   0.96722396   -6.6733514    631.58158  0.029046246  0.028994354            6 
 1813000   0.97784048   -6.6969301     630.6355  0.028986739  0.028986136            6 
 1814000   0.98165538    -6.705566    632.09776  0.029037935  0.028977837           16 
 1815000   0.99267166   -6.6761092    632.47686  0.029039342  0.028969616            4 
 1816000   0.97231355   -6.6582169    633.02744  0.029048616  0.028961501            6 
 1817000   0.96926633   -6.7192135    630.16842  0.028901505  0.028953308            7 
 1818000   0.95907994   -6.7206989    628.99528  0.028831834  0.028945082            4 
 1819000   0.96647582   -6.6809676    633.47703  0.029021304   0.02893699           12 
 1820000   0.96807274   -6.7143176    631.75307  0.028926423  0.028928842            4 
 1821000   0.95008181   -6.6701777    632.65391  0.028951762  0.028920754            5 
 1822000   0.96325777   -6.6844134    634.31718  0.029011946  0.028912597            3 
 1823000   0.93995199   -6.6576095     635.2637  0.029039299  0.028904573            4 
 1824000   0.98703317   -6.6998253    631.03328  0.028830102   0.02889641            7 
 1825000   0.95236242   -6.6979684     633.5053  0.028927183  0.028888157            6 
 1826000   0.95914561   -6.7164574    633.67003  0.028918859  0.028879946            5 
 1827000   0.96965133   -6.7093121    633.67057  0.028903054  0.028871738            7 
 1828000   0.96807945   -6.7368031    633.22087  0.028866743  0.028863494            2 
 1829000   0.94014668   -6.7490323    632.77798  0.028830781  0.028855223            3 
 1830000   0.95560721   -6.6934704    630.87598  0.028728415  0.028846903            5 
 1831000   0.96673276   -6.7095079    632.69675  0.028795592  0.028838629            5 
 1832000   0.95429643     -6.69069    632.18496  0.028756594  0.028830261            3 
 1833000   0.96194359   -6.7464276    632.29626  0.028745966  0.028821811            6 
 1834000   0.95069105   -6.7137068    633.59787  0.028789434  0.028813462           10 
 1835000   0.95653271   -6.6888257    634.73654  0.028825456   0.02880526            5 
 1836000   0.92567991   -6.7089118     633.5568  0.028756209  0.028797036            3 
 1837000   0.95445502   -6.7213643    632.74861  0.028703893  0.028788652            4 
 1838000   0.94636182   -6.7046791    635.57196  0.028816284  0.028780415            9 
 1839000   0.95505102    -6.741606    633.79744  0.028720203  0.028772125           11 
 1840000   0.96470777   -6.6855838    633.23046  0.028678916  0.028763738            5 
 1841000   0.98766164   -6.7478963    633.82728  0.028690353  0.028755427           15 
 1842000   0.94156328   -6.7410186    633.43706  0.028657124  0.028747141            5 
 1843000   0.98110359   -6.6874036    637.10143  0.028807263  0.028738732            6 
 1844000   0.95871392   -6.7353993    635.20459   0.02870592  0.028730435            5 
 1845000   0.96527072   -6.7083098    637.18764  0.028779929  0.028722107            2 
 1846000   0.96531748   -6.7023662    637.14794  0.028762547  0.028713742            3 
 1847000   0.96022394   -6.7351194    636.58666  0.028721651   0.02870548           12 
 1848000   0.96186178    -6.687101    638.18175  0.028778037  0.028697227            4 
 1849000    0.9623708   -6.7289586    638.64473  0.028783339  0.028689054            3 
 1850000   0.93067308   -6.7542034    636.07934  0.028652222  0.028680821            4 
 1851000   0.94253573   -6.7136519    637.94461  0.028720719   0.02867266            3 
 1852000    0.9500369   -6.6726413    638.60602  0.028734972   0.02866458            3 
 1853000   0.95049399   -6.7445966     638.6422  0.028721092  0.028656382            3 
 1854000   0.93639581   -6.6977448    638.48889   0.02869871  0.028648207            3 
 1855000   0.95551356     -6.71272    638.72033  0.028693636  0.028640075            4 
 1856000   0.94929286   -6.7326097    637.80378  0.028637023  0.028631807            6 
 1857000   0.95639189   -6.7471782    637.60428  0.028612649  0.028623458            4 
 1858000    0.9535063    -6.709967    640.69044  0.028735667  0.028615351            4 
 1859000   0.98894005   -6.7230672    640.35501  0.028705174  0.028607318            5 
 1860000   0.93408782   -6.7341802    638.56899  0.028609722  0.028599062            5 
 1861000   0.95574312   -6.7427774    637.56013  0.028549173  0.028590763            7 
 1862000   0.93842219   -6.7362794    639.50995  0.028621104  0.028582555           15 
 1863000   0.95809604   -6.7166765    640.78375  0.028662719  0.028574401            6 
 1864000   0.96585958   -6.7184632    640.48131  0.028633821  0.028566332            4 
 1865000   0.96056371   -6.7129941    639.55472  0.028577065  0.028558239            8 
 1866000   0.97043196    -6.721676    640.02819  0.028582895  0.028550105            7 
 1867000   0.96561302   -6.7139016     642.0578  0.028658177  0.028541969            5 
 1868000   0.97081802   -6.7072841    640.50886  0.028573736  0.028533827            8 
 1869000   0.95459454   -6.7201113    642.06473  0.028627819  0.028525782            6 
 1870000    0.9447658   -6.7210481    641.49017  0.028586906  0.028517773            5 
 1871000    0.9526711   -6.7062845    641.49774  0.028571964  0.028509579            5 
 1872000   0.96135719   -6.7213889    641.87002  0.028573274  0.028501635            4 
 1873000   0.95749599   -6.6981314    641.94108   0.02856118  0.028493563            8 
 1874000   0.96608745   -6.7539213    642.40104  0.028566393  0.028485491            2 
 1875000   0.92289122   -6.7310365    643.49901  0.028599956  0.028477502            4 
 1876000   0.95494525   -6.7493441    642.33979  0.028533217  0.028469462            5 
 1877000   0.94789692   -6.7364673    641.61277  0.028485738  0.028461405            4 
 1878000   0.96342579   -6.7256692    641.93484  0.028484862   0.02845332            6 
 1879000   0.96347075   -6.7539503    641.40993  0.028446422  0.028445224            6 
 1880000   0.95870697   -6.7445798    643.00133  0.028501832  0.028437111            6 
 1881000   0.98284342    -6.684298    642.93448  0.028483718  0.028429067            6 
 1882000   0.95597572   -6.7020564     643.6681  0.028501067  0.028421131            4 
 1883000   0.93191999    -6.726149    644.05178  0.028502911  0.028413151            2 
 1884000   0.94267148   -6.7395404    642.57369  0.028422403  0.028405153            6 
 1885000   0.96147277   -6.7109251    644.88784   0.02850963  0.028397115            4 
 1886000   0.94402309   -6.7532591    645.46563  0.028520044  0.028389052            5 
 1887000    0.9434711   -6.7370698    645.82251   0.02852069  0.028381106            3 
 1888000   0.93986638   -6.7207568    644.34902  0.028440546  0.028373073            6 
 1889000   0.95261635   -6.6899825    645.20081  0.028463067  0.028365185            6 
 1890000   0.92725124   -6.7006181    644.61476  0.028422167  0.028357235            6 
 1891000   0.92088098   -6.7120249    645.79854  0.028459304  0.028349175           13 
 1892000   0.94083677   -6.7417302    644.65931  0.028394085  0.028341114            7 
 1893000    0.9463082   -6.7177077    646.17388   0.02844576  0.028333108            5 
 1894000   0.93894107   -6.7738364    644.61562   0.02836218  0.028325082            7 
 1895000    0.9461506   -6.7759241    645.24589  0.028374929  0.028316943            3 
 1896000   0.93780691   -6.7410926    646.07336  0.028396333  0.028308959            5 
 1897000   0.93051024   -6.7140809    647.32083  0.028436164  0.028301027           14 
 1898000   0.96185478    -6.779524    645.27684  0.028331438  0.028292989            4 
 1899000   0.93592778   -6.7050684    649.17612   0.02848763  0.028285001            4 
 1900000   0.94839844   -6.7549233    647.77438  0.028411157  0.028277092            2 
 1901000   0.95512875    -6.720604    648.24072  0.028416655  0.028269235            3 
 1902000   0.95047238    -6.703594    648.91526  0.028431268  0.028261438            6 
 1903000   0.95476362    -6.680061    651.12682  0.028513173  0.028253621            6 
 1904000   0.95137504   -6.7088886    650.00662  0.028449169  0.028245791            6 
 1905000   0.95087075   -6.7344758    648.51508  0.028368989  0.028238047            5 
 1906000   0.95429539   -6.7024195    649.02351  0.028376334  0.028230274            5 
 1907000   0.96631048   -6.6921057    651.34349  0.028462834  0.028222452            6 
 1908000   0.93293507   -6.7706134    650.41257  0.028407258  0.028214723            7 
 1909000   0.95849284   -6.6977147    651.46949  0.028438514  0.028206924            4 
 1910000   0.94808793   -6.7561148    649.59204  0.028341712  0.028199201            4 
 1911000    0.9584852   -6.7721632     649.7443  0.028333521  0.028191335            5 
 1912000   0.95822479   -6.7392381     650.5884  0.028355491  0.028183582            2 
 1913000   0.97011498   -6.7346006    650.80208  0.028349978   0.02817597            6 
 1914000   0.94857723   -6.7281824    651.38186  0.028360408  0.028168296            8 
 1915000   0.94652454   -6.7378409    649.20999  0.028251088  0.028160567            4 
 1916000   0.93931492   -6.7312058    650.65504  0.028299193  0.028152723            4 
 1917000   0.92392197    -6.755527    650.48652  0.028277105  0.028144963            7 
 1918000   0.94406558   -6.7327314    652.07261  0.028331274  0.028137233            8 
 1919000    0.9471431   -6.7141576    653.04926  0.028358922  0.028129563            2 
 1920000   0.94414708   -6.7254602    652.09097   0.02830256  0.028122005            2 
 1921000   0.95365029    -6.713155    653.07939  0.028330704  0.028114474            2 
 1922000   0.94699356   -6.7508492    652.80824  0.028304208  0.028106793            6 
 1923000   0.94084213   -6.7470691    651.35633   0.02822657  0.028099083            5 
 1924000   0.93137591     -6.70091     655.0816   0.02837325  0.028091383           10 
 1925000   0.93964261   -6.7704572    653.27087  0.028280124  0.028083825            5 
 1926000   0.94119628   -6.7161464    654.90859  0.028336301  0.028076113           11 
 1927000   0.96644045   -6.7754693    652.03273  0.028197229   0.02806847            5 
 1928000   0.93808609   -6.7748592    652.82788  0.028216973  0.028060747            9 
 1929000   0.92833436   -6.7597647    654.88403  0.028291171  0.028053037            5 
 1930000    0.9330583   -6.7274102    654.45701  0.028258075  0.028045374            7 
 1931000   0.95060197   -6.7031872    655.03363  0.028268325  0.028037825            4 
 1932000     0.966447   -6.7117111    653.61703  0.028192591  0.028030244            3 
 1933000   0.96116121    -6.728185    654.71426  0.028225309  0.028022558            4 
 1934000   0.94459437   -6.7364235    655.23631  0.028233209  0.028014857            7 
 1935000   0.95068602   -6.7603938    654.90613  0.028204398  0.028007185            7 
 1936000   0.93660312   -6.7531947    654.98156  0.028193077  0.027999513            4 
 1937000    0.9216178    -6.752129    654.36204  0.028151869  0.027991763            6 
 1938000   0.94135353   -6.7632795    654.70403  0.028152048  0.027984118            6 
 1939000   0.96893368   -6.7587778    655.36243  0.028165826  0.027976509            5 
 1940000   0.95391212   -6.7381711     656.3674  0.028194476  0.027968869            3 
 1941000   0.94032955   -6.7652736    655.85432  0.028157922  0.027961276            4 
 1942000   0.94046661   -6.7265051    656.85106  0.028186194  0.027953705            5 
 1943000   0.95121827   -6.7485796    655.42663  0.028110595  0.027946101            4 
 1944000   0.95295145    -6.767955    657.50358  0.028185167  0.027938435            6 
 1945000   0.93247609   -6.7607081    653.66299  0.028006126  0.027930801            4 
 1946000   0.94157033   -6.7492226    656.63626  0.028119059  0.027923255            8 
 1947000   0.94196318   -6.6798224    659.69488  0.028235528  0.027915727            5 
 1948000   0.91751047   -6.7518407    659.05512  0.028193665  0.027908198            4 
 1949000   0.91481331   -6.7387563    658.34165  0.028148694  0.027900581            5 
 1950000   0.92322696     -6.77055    657.14165  0.028082977  0.027893062            4 
 1951000   0.96705929   -6.7344596    659.47004  0.028168035  0.027885373            3 
 1952000    0.9331068   -6.7524795    656.06829   0.02800838  0.027877806            4 
 1953000   0.91583519   -6.7976816    657.36303  0.028049284  0.027870181            7 
 1954000   0.92412901   -6.7865135    656.65347  0.028004669  0.027862459           13 
 1955000     0.934327    -6.767308    658.72216  0.028078523  0.027854746            7 
 1956000     0.942398   -6.7874997    658.14557  0.028039603  0.027847015           10 
 1957000   0.93833403    -6.799298    657.82974  0.028011827  0.027839306            6 
 1958000   0.93906548   -6.8146341    654.92825  0.027874032  0.027831469            3 
 1959000   0.94645487   -6.7202174    660.96187  0.028116465  0.027823648            3 
 1960000   0.92476443   -6.7566184    660.32165    0.0280749  0.027815943           10 
 1961000   0.92460861   -6.7607946    660.03114  0.028048238  0.027808228            6 
 1962000   0.92351488   -6.7586613    657.78459  0.027938523  0.027800499            6 
 1963000   0.93294034   -6.7430726    660.50334  0.028039707  0.027792782           10 
 1964000   0.92523442   -6.7420788    657.97354   0.02791809  0.027785104            4 
 1965000   0.94072815   -6.7685341    658.49752  0.027926103  0.027777367            6 
 1966000   0.93641354   -6.7891623    657.95382  0.027888853  0.027769675           16 
 1967000   0.93694317    -6.720124    661.27084  0.028015203  0.027762009            7 
 1968000   0.94089055   -6.7760401    658.37784  0.027878465  0.027754381            5 
 1969000   0.94811024   -6.7623054     660.1188  0.027937989  0.027746675            4 
 1970000   0.93803575   -6.7610738     660.6878  0.027947877  0.027739014            5 
 1971000   0.93435166   -6.7661901    660.71889  0.027935012   0.02773131            8 
 1972000    0.9361653   -6.8194881    656.37501  0.027737281  0.027723536            4 
 1973000   0.92734527   -6.7939685    660.76808  0.027908772  0.027715743            5 
 1974000   0.94670374   -6.7692305    661.11766  0.027909391  0.027708102            6 
 1975000   0.96120219   -6.7660728    663.21136  0.027983602  0.027700384            5 
 1976000   0.93691868   -6.7571321     662.0918  0.027922225  0.027692764            5 
 1977000   0.93873533   -6.7787126    661.30625  0.027874989  0.027685153            4 
 1978000   0.94979078   -6.7466175    662.49075    0.0279108  0.027677578            4 
 1979000   0.97513078   -6.8060628     659.7501  0.027781291  0.027669919            7 
 1980000   0.93778224   -6.8184042    660.98458  0.027819216  0.027662125            4 
 1981000   0.92052867   -6.7599719    662.66523  0.027875872  0.027654464            7 
 1982000   0.93422304   -6.7515573     663.1124  0.027880609  0.027646768           11 
 1983000   0.91726166   -6.7705326    663.02303  0.027862793   0.02763921            4 
 1984000   0.93795532   -6.7749337    662.79264  0.027839073  0.027631644           10 
 1985000   0.92562077   -6.7591141    663.96183  0.027874132  0.027624069            9 
 1986000   0.91800254   -6.7981153    661.58579  0.027760397  0.027616503            2 
 1987000   0.92792772    -6.753039    663.21967   0.02781495  0.027608929            6 
 1988000   0.93193968   -6.7704495    663.34818  0.027806346   0.02760132            4 
 1989000   0.93432611   -6.7862952    663.56657  0.027801515  0.027593837            7 
 1990000   0.91765296    -6.708589    665.79813  0.027880994  0.027586358            5 
 1991000   0.92292826   -6.7629746    665.70446   0.02786307  0.027578945            4 
 1992000   0.95498747   -6.7821198    663.87291  0.027772461  0.027571424           12 
 1993000   0.94380322   -6.7490281    667.66392   0.02791704  0.027564035            7 
 1994000   0.93210464   -6.7551511    664.90469  0.027787725  0.027556632            3 
 1995000    0.9454128    -6.791742     664.1129  0.027740723  0.027549187            5 
 1996000   0.94733644   -6.7694995    666.24458  0.027815823  0.027541684            4 
 1997000   0.92162639    -6.786453    665.10679  0.027754415  0.027534168            4 
 1998000   0.95045382   -6.7646782    664.49582  0.027715041  0.027526623            6 
 1999000   0.93484893   -6.7782178    664.47142  0.027700159  0.027519118            3 
 2000000    0.9370285   -6.7877506     664.8661  0.027702754  0.027511585            5 
 2001000   0.93602836   -6.7907279    664.94327  0.027692124  0.027503978            5 
 2002000   0.92144368   -6.7722672    667.49607  0.027784552  0.027496447            3 
 2003000   0.92758147    -6.769767    667.00363  0.027750192  0.027488994            5 
 2004000   0.93387293   -6.7474527    670.78297  0.027893504  0.027481563            8 
 2005000   0.91412877   -6.7502164    668.62259    0.0277898  0.027474057            5 
 2006000   0.91022411   -6.7466937     668.7096  0.027779561   0.02746661            3 
 2007000   0.93643726   -6.7812093    666.87764  0.027689654  0.027459083           12 
 2008000   0.93239834   -6.7244184    669.36188  0.027778962  0.027451694           12 
 2009000   0.94654029   -6.7499759    670.96076  0.027831457  0.027444382            5 
 2010000   0.95867131    -6.759715     668.4551  0.027713727  0.027436991            5 
 2011000   0.94164488   -6.7153156    670.23756  0.027773809  0.027429625            6 
 2012000   0.91497858    -6.779931    667.65791  0.027653161  0.027422111           10 
 2013000   0.92426408   -6.7810944    668.41461  0.027670749  0.027414549            6 
 2014000   0.94854506   -6.8008552    667.86042  0.027634079  0.027407013            5 
 2015000   0.92993047    -6.814618    666.50784  0.027564427  0.027399488            4 
 2016000   0.93052217   -6.8007643    668.26598  0.027623428  0.027391931            9 
 2017000   0.94140778   -6.8023869    667.88129  0.027593839  0.027384415            5 
 2018000   0.94190903   -6.8355771    665.62927  0.027487169   0.02737697           11 
 2019000   0.93096929   -6.7742021    668.97792  0.027611768  0.027369427            3 
 2020000    0.9399788   -6.7714046    669.39354  0.027615245   0.02736191            6 
 2021000   0.94768643   -6.8188754    666.08855  0.027465304  0.027354374            4 
 2022000   0.93728661    -6.808226    669.02679  0.027572815   0.02734678            6 
 2023000   0.93371472   -6.7919284    668.52351  0.027538454  0.027339181            4 
 2024000   0.94449515   -6.8316771    668.01398  0.027503869  0.027331668            5 
 2025000   0.93143128    -6.796845    668.31217  0.027502558  0.027324101            5 
 2026000   0.92158174    -6.804283    670.41107  0.027575316  0.027316589            5 
 2027000   0.91823978   -6.7887217    669.07977   0.02750698  0.027309121            3 
 2028000   0.93210137   -6.7769829    672.26846  0.027624443  0.027301737           11 
 2029000   0.94026219   -6.7802821    669.67565  0.027504339  0.027294345            5 
 2030000   0.94847964   -6.8300447    671.17115  0.027552182  0.027286771           13 
 2031000   0.91916258   -6.7994997    669.97457   0.02748952  0.027279254            5 
 2032000   0.91479231    -6.788996     669.9797  0.027476202   0.02727169            5 
 2033000   0.92819159   -6.7749918    670.72449  0.027493216  0.027264081            6 
 2034000   0.91100082   -6.7738672    669.35162  0.027423452  0.027256446            4 
 2035000   0.90203946   -6.8252485    670.49129  0.027456646  0.027248825            8 
 2036000   0.91550321   -6.7756677    670.70453  0.027451888  0.027241262            5 
 2037000   0.89599992   -6.8339767    669.38992  0.027384631   0.02723362            3 
 2038000   0.93582164    -6.829431    671.18103  0.027444432  0.027226022            5 
 2039000   0.92617293   -6.7900685    671.44873  0.027441913  0.027218511            4 
 2040000   0.92328852   -6.7602958    670.57326  0.027392699  0.027211049            4 
 2041000   0.92650704   -6.8089255    670.55039  0.027378344  0.027203416            4 
 2042000   0.93264007   -6.7778961    672.50935   0.02744488  0.027195813            5 
 2043000   0.92394191   -6.8006971    673.94703  0.027490089  0.027188144            8 
 2044000   0.90505769    -6.777272    673.38573  0.027453756  0.027180654            8 
 2045000    0.9174717   -6.8073323    672.37192  0.027399019   0.02717313            6 
 2046000   0.92429579   -6.8209109    671.11542   0.02733445  0.027165699           11 
 2047000    0.9100836   -6.8009099    673.18428   0.02740532  0.027158157            3 
 2048000   0.92416437   -6.7886568    673.61117  0.027409309  0.027150581           14 
 2049000   0.93866725   -6.7964211    672.38672  0.027346133  0.027143107            8 
 2050000   0.91348601   -6.8106824    671.07629  0.027279524   0.02713562            4 
 2051000   0.92426324   -6.8013991    673.56236  0.027367234  0.027128038            4 
 2052000   0.92739516   -6.7999114    675.06405  0.027414882  0.027120608            5 
 2053000   0.92856862   -6.7584172    674.19641   0.02736631  0.027113098            2 
 2054000   0.92325551   -6.8051333    673.51322  0.027325268  0.027105577            6 
 2055000   0.90638174   -6.7914678    673.65294  0.027317637   0.02709804            5 
 2056000   0.91237534   -6.7772536    675.89567  0.027395252  0.027090587            4 
 2057000   0.92043296   -6.8193435    673.38114  0.027280066  0.027083056            8 
 2058000   0.94917849   -6.8108507    671.70013  0.027198742  0.027075577            5 
 2059000   0.93187681   -6.7948789    674.72531  0.027307969  0.027068102            3 
 2060000   0.92061199   -6.8421874    676.22068  0.027355205  0.027060594            8 
 2061000   0.90214821   -6.7714322    678.13613  0.027419381  0.027053176            4 
 2062000   0.90304153   -6.7828068    676.96272  0.027358661  0.027045814            6 
 2063000   0.91748988   -6.8279624    675.96684  0.027305172  0.027038393            5 
 2064000   0.91775115   -6.8380696    675.39991  0.027269053  0.027030891            4 
 2065000   0.92817723   -6.7708947    676.76525  0.027310946  0.027023493            4 
 2066000   0.91651754   -6.7752637     676.8989  0.027303118  0.027016129            5 
 2067000   0.92723946   -6.7934909    678.11146  0.027338795   0.02700874            4 
 2068000   0.92117445   -6.8269631    677.08208  0.027284094  0.027001436            3 
 2069000   0.91579724    -6.789924    677.96704  0.027306551    0.0269941            2 
 2070000    0.9147979      -6.8126    677.89765  0.027290566  0.026986813            4 
 2071000   0.92566568   -6.8261943    676.75582  0.027231443  0.026979482            5 
 2072000   0.93246919     -6.81995    679.17049  0.027315416  0.026972176            6 
 2073000   0.89024174   -6.8055366     680.5766  0.027358763  0.026964855            8 
 2074000   0.90545067   -6.8211412     677.7493  0.027231971  0.026957544            6 
 2075000   0.93542035   -6.8478016    679.00779  0.027269389  0.026950229            7 
 2076000   0.90825968   -6.8053145    678.40887  0.027232212  0.026942879            6 
 2077000   0.90052196   -6.7802101    679.41983  0.027259663  0.026935511           10 
 2078000   0.93571263   -6.8112056    678.19726  0.027197516  0.026928187            7 
 2079000   0.91454978   -6.8163198    678.19382  0.027184296  0.026920845            3 
 2080000   0.92243675    -6.809949    677.70042  0.027151459  0.026913564            6 
 2081000   0.92820341   -6.8126927    678.50554  0.027170653  0.026906302            3 
 2082000     0.908245   -6.8219928    679.74687  0.027207288  0.026898998            5 
 2083000   0.88852453    -6.810992    679.26584  0.027174982  0.026891583            2 
 2084000   0.89862293   -6.7983381    679.55205  0.027173387   0.02688428           11 
 2085000   0.91864418   -6.7968407    680.28184  0.027189522  0.026877068            4 
 2086000   0.92178049   -6.7729107    681.19191  0.027212844  0.026869918            5 
 2087000   0.93516305   -6.7857861     681.2307  0.027201354  0.026862747            7 
 2088000   0.92797128   -6.8396915     678.9643  0.027097873  0.026855456            8 
 2089000   0.92544675   -6.8247187     681.0726  0.027169004  0.026848101            4 
 2090000   0.91399045   -6.8179005    681.20519  0.027161291  0.026840816            5 
 2091000   0.91827413     -6.81374    681.25857  0.027150429  0.026833498           17 
 2092000   0.90748541   -6.7968352     682.2533  0.027177076  0.026826205           11 
 2093000   0.91763215   -6.8335538    679.02165  0.027035422  0.026818914            6 
 2094000   0.90432824   -6.8241792    680.98116  0.027100492  0.026811643            6 
 2095000   0.91876555   -6.8190483    681.09992   0.02709228  0.026804289            7 
 2096000   0.90889958   -6.8089806    680.93031  0.027072611  0.026796917            7 
 2097000   0.92207454   -6.7973876    680.85677  0.027056778  0.026789661            5 
 2098000   0.92638163    -6.809782    680.96477  0.027048172  0.026782375            3 
 2099000   0.91494575   -6.8476712    678.54936   0.02693939   0.02677497            2 
 2100000   0.91829894   -6.8237899    681.86845  0.027058272  0.026767606            7 
 2101000   0.90535561   -6.8315726    680.46678  0.026989798  0.026760259            4 
 2102000   0.92655384   -6.8366752    680.78606  0.026989615  0.026752833            5 
 2103000   0.91145922   -6.8414536    680.94775  0.026983189  0.026745376            4 
 2104000   0.90467344   -6.8439646    680.80731  0.026964801  0.026737832            4 
 2105000   0.91617823   -6.8396979    682.34553  0.027012887  0.026730417            5 
 2106000    0.9113138   -6.8253351    683.42639   0.02704283  0.026723055            5 
 2107000   0.89894705   -6.7933197    684.20797  0.027060907  0.026715721            5 
 2108000   0.93075709   -6.8437455    681.69625  0.026948777  0.026708346            6 
 2109000   0.91494719   -6.8042263    683.78423  0.027018501  0.026700904            5 
 2110000   0.92342911   -6.8256226    684.65847  0.027040224  0.026693485           10 
 2111000    0.9266666   -6.8725563    681.11712  0.026887617  0.026686012            7 
 2112000   0.91843586   -6.8253816    681.51658  0.026890648  0.026678536            5 
 2113000   0.92789086   -6.8610464    682.81437  0.026929104  0.026670984           10 
 2114000   0.89449051   -6.8223091    681.07871  0.026847947  0.026663441            5 
 2115000   0.92842024   -6.8351207     685.2096  0.026998014  0.026655986            6 
 2116000   0.91124302   -6.7939918    684.31462  0.026950009  0.026648519            5 
 2117000   0.92475168   -6.8365566     683.8613  0.026919434  0.026641096            9 
 2118000   0.91793194   -6.8549318    681.65192  0.026819795   0.02663364            7 
 2119000   0.92190577   -6.8423188    683.20888  0.026868369  0.026626161            5 
 2120000    0.9097755   -6.8085791    682.83251  0.026840901  0.026618734            6 
 2121000   0.91533285   -6.7968309    684.64858  0.026899598  0.026611279            4 
 2122000   0.90003241   -6.8446139    683.04828  0.026824076  0.026603832           10 
 2123000   0.92164404   -6.8454877     683.8383  0.026842452  0.026596411            6 
 2124000   0.91042736   -6.8366623    683.32487   0.02680967  0.026588933            6 
 2125000   0.89319909   -6.8384437     683.4164  0.026800643  0.026581421            5 
 2126000   0.92227419   -6.8448814    685.78911  0.026881041   0.02657396            4 
 2127000   0.92228645   -6.8180101    684.06868  0.026800998  0.026566546            4 
 2128000   0.89799469   -6.8137359    685.88932  0.026859701  0.026559115            6 
 2129000   0.90738273   -6.8418325    683.84629  0.026767117  0.026551697           10 
 2130000   0.92297865   -6.8368667     685.5124  0.026819734  0.026544183           16 
 2131000   0.91363444     -6.86304    683.33706  0.026722081  0.026536634            5 
 2132000   0.92213673   -6.8776909    681.80999  0.026649859  0.026529106            6 
 2133000   0.91232774   -6.8811075    681.75442  0.026635194  0.026521493            5 
 2134000   0.91593987   -6.8713523    685.46538  0.026767627  0.026513889            5 
 2135000   0.91268399   -6.8337251    686.78744  0.026806692  0.026506371            8 
 2136000   0.90657119   -6.8541667    685.94249  0.026761177  0.026498897           11 
 2137000   0.91774999   -6.8468804    686.29009  0.026762209  0.026491434           10 
 2138000   0.89692241   -6.8447809    685.66168  0.026725198  0.026484075            5 
 2139000   0.89081481   -6.8431705    687.09678  0.026768614  0.026476704            4 
 2140000   0.91987185   -6.8755953    684.40573  0.026651313  0.026469305            5 
 2141000    0.9177413   -6.8311782    687.24807  0.026749497  0.026461895            4 
 2142000   0.89321299    -6.845278    685.16042   0.02665579   0.02645451            4 
 2143000   0.90626261   -6.8066905    690.03316  0.026832834  0.026447159           10 
 2144000   0.91260329    -6.859209    687.29099  0.026713736  0.026439864           12 
 2145000   0.92642209   -6.8342911    686.94078  0.026687676  0.026432489            7 
 2146000   0.89301933   -6.8432297    688.47108  0.026734664  0.026425154            8 
 2147000   0.89579828   -6.8090471     688.7443  0.026732817  0.026417869            6 
 2148000   0.89646039    -6.833802    687.20724   0.02666074  0.026410505            6 
 2149000   0.90550709   -6.8667819    687.55407  0.026661783  0.026403072            3 
 2150000   0.90806634   -6.8241676    688.60866  0.026690258  0.026395622           14 
 2151000   0.89755765   -6.8722926    686.76893  0.026606575  0.026388157            4 
 2152000   0.89784672    -6.858499    688.19684  0.026649506  0.026380704            6 
 2153000   0.93061634   -6.8507629    686.21851  0.026560555  0.026373285            4 
 2154000   0.92585137   -6.8484088    688.91646  0.026652602  0.026365764            5 
 2155000   0.90506991   -6.8587358    689.65686  0.026668865  0.026358362            4 
 2156000   0.90317652   -6.8413277    687.20206  0.026561613  0.026350918            6 
 2157000   0.89172355     -6.84372    687.63997  0.026566217  0.026343546            4 
 2158000   0.88828934   -6.8751133    687.56385  0.026550967  0.026336207            6 
 2159000   0.91302674   -6.8567864    688.21399  0.026563764  0.026328809           11 
 2160000   0.91873907   -6.8342369    690.71862  0.026648095  0.026321415            6 
 2161000    0.9279902   -6.8246174    691.45031  0.026663979  0.026314133            7 
 2162000   0.89069418   -6.8863621    687.98223  0.026517971  0.026306778            4 
 2163000   0.91704015    -6.834608    689.66118  0.026570395  0.026299369            3 
 2164000   0.89418189    -6.870061    689.26737  0.026542952  0.026292038            9 
 2165000   0.90745186   -6.8805754     688.6858  0.026508306  0.026284633            7 
 2166000    0.8954092   -6.8675524    689.92521  0.026543752  0.026277247            7 
 2167000    0.8964886   -6.8655423     690.1056   0.02653844  0.026269842            4 
 2168000   0.90813886   -6.8396402    688.39068  0.026460281  0.026262412            9 
 2169000   0.90781812   -6.8558449    691.45839  0.026565944  0.026254952            4 
 2170000   0.90960061   -6.8807428    686.33583  0.026356983  0.026247371           20 
 2171000   0.88619015   -6.8756475    687.00806  0.026370646  0.026239838            5 
 2172000   0.92378458    -6.872283    690.45468  0.026490741  0.026232355            6 
 2173000   0.90415603   -6.8879954    687.21851  0.026354445  0.026224848            9 
 2174000    0.9001621    -6.855565    691.33545  0.026500132  0.026217373           12 
 2175000   0.90629637   -6.8651876    690.96559  0.026473777  0.026209836            9 
 2176000   0.90651139   -6.8527208    690.91119  0.026459528  0.026202457            7 
 2177000   0.91080451   -6.8501406    690.66202  0.026437836  0.026195066            9 
 2178000   0.90724069   -6.8609006    691.53261  0.026459007  0.026187658            8 
 2179000   0.89626903     -6.83978    691.97994  0.026463972  0.026180357            4 
 2180000   0.89433692   -6.8539104    693.17289  0.026497435  0.026173118           10 
 2181000   0.89398962   -6.8398183    692.83709  0.026472455  0.026165769            7 
 2182000   0.88662716   -6.8566944    692.43589     0.026445  0.026158469           10 
 2183000   0.89251148   -6.8777994    692.63081  0.026440327  0.026151153            9 
 2184000   0.89588614   -6.8830411    691.33785  0.026378886  0.026143759            5 
 2185000   0.87007341   -6.8615817    690.22245  0.026324273  0.026136297            5 
 2186000   0.88963808   -6.8535181    691.34607  0.026355065  0.026128825            6 
 2187000   0.88744086   -6.8643319    691.69784  0.026356418  0.026121489            5 
 2188000   0.88991663   -6.8634003    691.89036  0.026351705  0.026114084            5 
 2189000   0.91487404   -6.8655294     691.4381  0.026322449   0.02610666            4 
 2190000   0.90865882   -6.8585708     693.4049   0.02638527  0.026099233            8 
 2191000   0.88686991   -6.8657124    693.42952  0.026374164  0.026091785            5 
 2192000   0.87956883   -6.8302948    694.06992  0.026386478  0.026084392            5 
 2193000   0.90607046   -6.8335925    694.55571  0.026392906  0.026076963           11 
 2194000   0.91452106   -6.8783785    693.46846   0.02633958  0.026069677            6 
 2195000   0.90111003   -6.8487305     692.1244  0.026276553  0.026062221            5 
 2196000   0.90815538   -6.8742745    693.23357  0.026306677  0.026054798           10 
 2197000   0.91073403    -6.874955    694.43759  0.026340373  0.026047288            4 
 2198000   0.91947773   -6.8705595    695.45301  0.026366887  0.026039755            7 
 2199000   0.90166495   -6.8841896    692.23696  0.026233021  0.026032305           11 
 2200000   0.89661392   -6.8917163    693.27098  0.026260264  0.026024828            9 
 2201000   0.89069203   -6.8835579    694.25516  0.026285596  0.026017354            9 
 2202000   0.89962319   -6.8392714    694.30644    0.0262756  0.026009897            3 
 2203000   0.90673612   -6.8950686    695.42931  0.026306147  0.026002441            7 
 2204000   0.91518423   -6.8759982    693.80193   0.02623268  0.025994985            7 
 2205000   0.91648146   -6.8965161    694.87508  0.026261341  0.025987548            6 
 2206000   0.90794342   -6.9074764    692.93166  0.026176022  0.025980089            7 
 2207000   0.91738198   -6.8525031    698.46528  0.026373104  0.025972701            5 
 2208000   0.88842591    -6.879369    694.08268  0.026195753   0.02596531            3 
 2209000   0.89841461   -6.8598561    694.54246   0.02620124  0.025957871            5 
 2210000   0.90254373   -6.8809371    693.26303   0.02614114   0.02595045            8 
 2211000   0.90299798   -6.8712554    696.22175  0.026240832   0.02594307            4 
 2212000   0.85264013   -6.9012161    694.66735  0.026170409  0.025935595           11 
 2213000   0.88154139   -6.8651843    695.88724   0.02620452  0.025928166            3 
 2214000    0.9064658   -6.8732012    695.37342  0.026173344  0.025920726           15 
 2215000   0.88977414   -6.8564461    696.20474  0.026192804  0.025913327            3 
 2216000   0.90212986   -6.8552985    695.74215  0.026163589  0.025905892            4 
 2217000   0.89313774   -6.8760718     696.5424  0.026181867  0.025898472           11 
 2218000   0.89980514   -6.8903739    696.90273  0.026183601  0.025891058            8 
 2219000   0.90562218   -6.8581083    694.30059   0.02607408  0.025883663            7 
 2220000    0.8872011   -6.8725795    696.00779  0.026126418  0.025876128            4 
 2221000   0.88350078   -6.8663326    696.06994  0.026116987   0.02586864            2 
 2222000   0.88544091   -6.8626728    696.59613  0.026124967   0.02586112            4 
 2223000   0.88336778   -6.9277218    694.85416  0.026047914  0.025853639           14 
 2224000   0.89302994   -6.8722493    696.62947  0.026102723  0.025846121            7 
 2225000   0.88718087   -6.8982555    694.13145  0.025997433  0.025838608            6 
 2226000   0.91107641   -6.9055269    696.04629  0.026057438  0.025831065            4 
 2227000   0.88837875   -6.9162746    695.43709  0.026022942   0.02582347            5 
 2228000   0.89269157    -6.895422    694.15569  0.025963334  0.025815868            9 
 2229000   0.87886813   -6.8926357    698.12751  0.026100176  0.025808407            6 
 2230000   0.89845855   -6.8868287    696.80836  0.026039176  0.025800924            7 
 2231000   0.88297545   -6.8814201    695.78277  0.025989196  0.025793426            7 
 2232000   0.90664499    -6.899952      695.786  0.025977673  0.025785957            7 
 2233000   0.88755226   -6.8608519    695.87104  0.025969213  0.025778482            9 
 2234000   0.89292717   -6.8443429    697.07325  0.026002434  0.025771089            8 
 2235000   0.89291356   -6.8791376    698.36718  0.026039045  0.025763669            3 
 2236000   0.89491765   -6.9094887    696.39861  0.025954033  0.025756182            6 
 2237000   0.90043184   -6.8755705    697.12554  0.025969511  0.025748709            5 
 2238000   0.89339996   -6.8817731    696.88415  0.025948918  0.025741183            8 
 2239000    0.8941857   -6.8651516    699.24153  0.026025068  0.025733741            5 
 2240000   0.89259709   -6.9017536    695.20289  0.025863203  0.025726246            3 
 2241000   0.88572164   -6.8817914     696.1646  0.025887424  0.025718745            2 
 2242000   0.88910459   -6.9229874    695.74418  0.025860251   0.02571119            6 
 2243000   0.88447694   -6.9182598     697.9922  0.025932241  0.025703587            8 
 2244000   0.89189002   -6.9245775    695.32057  0.025821471  0.025696001            8 
 2245000   0.89570201   -6.8736909    697.30888  0.025883774   0.02568847           14 
 2246000   0.90320942   -6.9031564    697.35971  0.025874136  0.025680883            8 
 2247000   0.89528668   -6.8661941    699.47862  0.025941204  0.025673347            4 
 2248000    0.9045207   -6.8920152    697.26804  0.025847718   0.02566573            9 
 2249000   0.89389131   -6.8842609    696.61417  0.025811997  0.025658119            3 
 2250000   0.88718133   -6.8718391    697.73006  0.025841854  0.025650473            4 
 2251000    0.8860862   -6.8855347    697.63655  0.025826912   0.02564283            6 
 2252000   0.88140262   -6.8576451    697.11339  0.025796085  0.025635248            3 
 2253000   0.89985717   -6.8995075    696.57592  0.025764755  0.025627616           11 
 2254000   0.88752587   -6.8750668    697.79586  0.025798427  0.025619965            6 
 2255000   0.89349557   -6.8981741    696.62169  0.025743595  0.025612371            3 
 2256000   0.90372774   -6.9109931    700.35619  0.025870131  0.025604778            7 
 2257000   0.89213988   -6.8887239    698.19842  0.025778999  0.025597212            6 
 2258000   0.88579196   -6.9176212    696.84693  0.025717705  0.025589623            5 
 2259000   0.88862249    -6.878737     698.9347  0.025783337  0.025582039            6 
 2260000    0.8813195   -6.8742694    699.36547  0.025787812  0.025574488            5 
 2261000   0.91594832   -6.9135095    696.78465  0.025681286  0.025566913           10 
 2262000   0.90151499   -6.9664928    698.11703  0.025719018   0.02555933            5 
 2263000   0.89211559   -6.9066841    700.89397  0.025809912  0.025551763           10 
 2264000   0.88993975   -6.8945361    699.76746  0.025757047  0.025544205            5 
 2265000   0.87519753   -6.8973358    700.86458   0.02578604  0.025536735            4 
 2266000   0.89172782   -6.8887552     700.7267   0.02576959  0.025529352            9 
 2267000    0.9036594   -6.8949628    700.98285  0.025767639  0.025521991            9 
 2268000   0.90567462   -6.8765917    699.78476  0.025712256  0.025514581            3 
 2269000   0.88230597   -6.9054248     701.6931  0.025771011  0.025507083            9 
 2270000   0.89599207   -6.8936508     700.0639   0.02569985    0.0254996            8 
 2271000   0.89291608   -6.8905001    699.98207   0.02568553  0.025492052            9 
 2272000   0.88831335   -6.9141111    700.46826  0.025692058  0.025484634            9 
 2273000   0.88723781   -6.8867387     700.7429  0.025690823  0.025477112            6 
 2274000   0.88213648   -6.9342623    700.67774  0.025677138  0.025469592            7 
 2275000   0.88512163   -6.9518754    699.63776  0.025627757  0.025462063            7 
 2276000   0.88495505   -6.8969077    701.52688  0.025685665  0.025454518            7 
 2277000   0.87243101   -6.8978815    703.04918  0.025730097  0.025446981           12 
 2278000   0.86954394    -6.918068    702.27792  0.025690588  0.025439423            8 
 2279000   0.89689791   -6.9471512    699.84751  0.025590446  0.025431759            6 
 2280000   0.88304811    -6.916424    701.10996  0.025625364  0.025424145           15 
 2281000    0.8878019   -6.8846711    702.39155  0.025660951  0.025416596            3 
 2282000   0.87706784   -6.9009486    701.49456   0.02561695  0.025409058            9 
 2283000   0.89465134   -6.9318526    702.29455   0.02563493  0.025401566            5 
 2284000   0.90269774   -6.9153072    701.32789  0.025588437  0.025394124            3 
 2285000   0.89592459   -6.9051376    702.75507  0.025629288  0.025386647            6 
 2286000    0.8884383   -6.8872006    705.01799  0.025700568  0.025379205            5 
 2287000   0.89314422   -6.9104501    703.52858   0.02563506  0.025371797           10 
 2288000   0.88918192   -6.9108867    703.64672  0.025628158  0.025364383            6 
 2289000   0.85711771   -6.8938466    704.43428  0.025645634  0.025357051            6 
 2290000   0.90015664   -6.8995561     705.1484  0.025660422  0.025349636            6 
 2291000   0.87835943   -6.8934542    704.24583  0.025616391   0.02534225            6 
 2292000   0.87768589   -6.8978353    703.77901  0.025588242  0.025334857            5 
 2293000    0.8838317   -6.9147746    704.32743  0.025597014   0.02532753            6 
 2294000   0.87039557   -6.8695828    705.45123  0.025626679  0.025320183            3 
 2295000   0.87611957   -6.9246727     703.6247   0.02554919    0.0253128           19 
 2296000    0.8798222   -6.9539839    701.34483  0.025455315  0.025305333           13 
 2297000   0.89064634   -6.9576767    702.16168  0.025473867  0.025297812            6 
 2298000   0.87471128   -6.8956135    704.72904  0.025555883  0.025290383           14 
 2299000   0.89246383   -6.9161593    703.76482  0.025509817   0.02528293            9 
 2300000   0.88255887   -6.9111051    703.45684  0.025487567  0.025275409            4 
 2301000   0.87847311   -6.8575767    705.45354  0.025548803  0.025267949            7 
 2302000   0.89335212   -6.8985228    705.10068   0.02552493  0.025260559            7 
 2303000   0.88519286   -6.9255292    704.91662  0.025507187  0.025253068            6 
 2304000   0.86519389   -6.9346757    703.10994   0.02543077  0.025245575            3 
 2305000   0.87664264   -6.9333295    703.67823  0.025440283  0.025238054           11 
 2306000   0.89524168   -6.9319085    704.28112  0.025451038  0.025230486            6 
 2307000   0.90138158   -6.9339647    704.58005  0.025450804  0.025222937           12 
 2308000   0.87752915   -6.9274058    703.54546  0.025402421  0.025215382            4 
 2309000   0.88737333   -6.9046198    706.07392  0.025482674  0.025207921            7 
 2310000   0.89861973   -6.9339654    705.39444   0.02544713  0.025200497            7 
 2311000   0.86515647   -6.8895752    705.35576  0.025434724  0.025193055            3 
 2312000   0.87536239   -6.9382489    704.08162  0.025377798  0.025185565           12 
 2313000   0.87586657   -6.9279197    706.55152  0.025455812  0.025178069            7 
 2314000   0.89497248   -6.9631498    703.22556  0.025325035  0.025170564            4 
 2315000   0.88461843   -6.9330489    704.63943   0.02536499  0.025163041            6 
 2316000   0.90017257   -6.9302332    707.46734  0.025455791  0.025155553            8 
 2317000   0.88188136   -6.8892535    708.74674  0.025490819  0.025148196            4 
 2318000   0.86758994   -6.8913037    707.20544  0.025424412  0.025140926            4 
 2319000   0.88256561   -6.9269846    706.50218  0.025388177  0.025133581            4 
 2320000   0.86779158   -6.9384856    706.63188  0.025381892  0.025126247           10 
 2321000   0.86711854   -6.9385029    707.24226  0.025392872  0.025118824            4 
 2322000   0.87979744   -6.9536854    705.94152  0.025335254  0.025111426            9 
 2323000   0.88830621   -6.9371073    707.36002  0.025375234   0.02510397            6 
 2324000   0.86892969   -6.9291836    707.66553   0.02537527  0.025096552            7 
 2325000   0.87714301   -6.9194813    707.37527  0.025353952  0.025089186            8 
 2326000   0.88892651   -6.9160637    708.71934  0.025391206  0.025081801            5 
 2327000   0.87707382   -6.9154869    708.96165  0.025388972  0.025074459            4 
 2328000   0.88093134   -6.9556695    705.88888  0.025268073  0.025067063            5 
 2329000    0.8852189   -6.9201746    709.98698  0.025403857  0.025059658           17 
 2330000   0.89116426   -6.9150242    708.43816  0.025337559  0.025052299            7 
 2331000   0.89297974   -6.9228667    711.23649   0.02542673  0.025044956           10 
 2332000   0.88570463   -6.9219779    708.13756  0.025305087  0.025037566            4 
 2333000   0.88800328   -6.9186403    708.29829  0.025299982  0.025030237            6 
 2334000   0.89267721   -6.9344206    709.47737   0.02533124  0.025022845            8 
 2335000   0.89519736   -6.9293639    708.89796  0.025299713  0.025015475            5 
 2336000   0.88913498   -6.9174804    710.59324  0.025349359  0.025008188            5 
 2337000   0.85251701   -6.9365894    708.02793  0.025247038  0.025000844            7 
 2338000   0.86856618   -6.9669013    708.56344  0.025255326  0.024993491           13 
 2339000   0.88245461   -6.9385648    708.96204   0.02525873  0.024986174            7 
 2340000   0.87943081   -6.9630153    707.72231  0.025203786  0.024978872           18 
 2341000   0.87353261   -6.9091332    711.45939   0.02532605  0.024971638            4 
 2342000   0.87006587    -6.968933    708.04879   0.02519388   0.02496437            8 
 2343000   0.87322118   -6.9156614    710.21927  0.025260324  0.024957058            6 
 2344000   0.86393339   -6.9829354    707.71602  0.025160552  0.024949734           13 
 2345000   0.88307623   -6.9387436    709.72099  0.025221073  0.024942399            5 
 2346000   0.88865682   -6.9482924    710.42184  0.025235217  0.024935115           16 
 2347000   0.87488189   -6.9826269    706.46596  0.025084006  0.024927677           10 
 2348000   0.87710274   -6.9380699    710.46971  0.025215421  0.024920248            4 
 2349000   0.88406493   -6.9300169    709.22743  0.025160615  0.024912879            5 
 2350000   0.87220318   -6.9553181    709.35036  0.025154268  0.024905566            6 
 2351000   0.86789408   -6.9477821    710.57772  0.025187074  0.024898242           10 
 2352000   0.86320989    -6.963985    712.99326  0.025261949  0.024890957            9 
 2353000   0.87226254   -6.9561593    710.01306  0.025145667  0.024883667            4 
 2354000   0.88990539   -6.9571153    710.17017  0.025140547   0.02487639            4 
 2355000   0.87275925   -6.9408291    711.02446  0.025160101    0.0248691            4 
 2356000   0.86634595    -6.960974    710.83051  0.025142562  0.024861888            6 
 2357000   0.86978961   -6.9495666    710.88872  0.025133953  0.024854597            9 
 2358000   0.87867208   -6.9424722    712.61184   0.02518419  0.024847323            8 
 2359000   0.87720341   -6.9178051    712.77429  0.025179253  0.024840106            4 
 2360000   0.89232029   -6.9363815    713.11962  0.025180778  0.024832955            5 
 2361000   0.87425468   -6.9698505    711.22756   0.02510333  0.024825674            7 
 2362000   0.87078439    -6.931329    712.72677  0.025145596   0.02481846            8 
 2363000   0.87091459   -6.8969792    713.35826  0.025157224  0.024811294            5 
 2364000   0.88436773   -6.9110855    713.77744  0.025161359  0.024804182            5 
 2365000   0.86046941   -6.9499412    712.91713  0.025120406  0.024797036            4 
 2366000    0.8672156   -6.9383925    712.17306  0.025083582  0.024789781            7 
 2367000   0.85759353   -6.9250666     712.4323  0.025082112  0.024782516           12 
 2368000   0.88581119   -6.9263178    714.33836  0.025138597  0.024775295            7 
 2369000   0.88181887   -6.9454271    712.08019   0.02504855  0.024768055            6 
 2370000   0.86718397   -6.9503451    713.09455  0.025073648  0.024760878            4 
 2371000   0.87343292   -6.9247049    713.75274  0.025086206  0.024753643            7 
 2372000   0.88089656   -6.9602382    712.15454  0.025019482   0.02474635            5 
 2373000   0.87297623   -6.9490768    714.05183  0.025075567  0.024739071            8 
 2374000   0.86280064   -6.9293727    713.55613  0.025047603  0.024731809            6 
 2375000   0.87211802   -6.9444531    713.64081  0.025040029  0.024724545            5 
 2376000   0.88084607   -6.9581879    711.38621  0.024950414  0.024717288            7 
 2377000   0.88200232   -6.9286992    715.96669  0.025100501  0.024710036           10 
 2378000   0.85709985   -6.9928295    710.92321  0.024913205  0.024702749            5 
 2379000   0.88544212   -6.9818249     712.6356  0.024962716   0.02469541            5 
 2380000   0.86493222    -6.963071      712.577  0.024950175  0.024688165            3 
 2381000   0.89700389   -6.9158205     713.2545  0.024963408   0.02468089            3 
 2382000   0.86886515   -6.9488657    715.84119  0.025043422  0.024673639           13 
 2383000   0.89150897   -6.9653128    713.39007  0.024947198  0.024666409            9 
 2384000   0.87770145   -6.9450663    714.84373  0.024987547  0.024659162            5 
 2385000   0.86495151    -6.938494     715.0482  0.024984214  0.024651924            7 
 2386000   0.88952446   -6.9748037    714.64467  0.024959649  0.024644715            5 
 2387000   0.86330828   -6.9596125    715.24513  0.024970155  0.024637486            6 
 2388000   0.87008637   -6.9521598    715.99608  0.024985904  0.024630194           10 
 2389000   0.88613364   -6.9709192    713.06013  0.024873034  0.024622932            7 
 2390000   0.86944857   -6.8958021     712.5982   0.02484652  0.024615623            6 
 2391000   0.88067982    -6.958931    714.44383  0.024900454  0.024608293            8 
 2392000    0.8808365   -6.9537607     714.6057  0.024895684  0.024601019            5 
 2393000   0.88172078   -6.9675115    714.70505   0.02488874  0.024593667            4 
 2394000   0.85734188   -6.9293114    716.77564  0.024950419   0.02458643            4 
 2395000   0.87595559   -6.9116017    716.62334  0.024934702  0.024579191            6 
 2396000   0.87469281   -6.9541283    714.64032  0.024855326  0.024571945            6 
 2397000   0.86045819   -6.9224178    716.96695  0.024925843  0.024564709            9 
 2398000   0.84785925   -6.9447781    716.17673  0.024887988  0.024557406            6 
 2399000   0.87866343   -6.9723037    713.54109   0.02478606  0.024550149           10 
 2400000   0.86939951   -6.9860261    714.72272  0.024816761  0.024542833            4 
 2401000   0.87756995   -6.9644353     716.7252  0.024875927    0.0245355            3 
 2402000   0.86294917   -6.9627135    715.55329  0.024824913  0.024528223            5 
 2403000   0.86848078    -6.968085    714.63653   0.02478279  0.024520933           13 
 2404000   0.87353952   -6.9794831    715.67936   0.02480863  0.024513609            6 
 2405000   0.86260016    -6.975367    714.61175  0.024761322  0.024506317           12 
 2406000   0.87195256    -6.934538     717.6143  0.024855026  0.024499128            7 
 2407000   0.87755602   -6.9983532    715.32918  0.024765586   0.02449189            7 
 2408000   0.86513771   -6.9655177    715.57266  0.024763727  0.024484593            7 
 2409000   0.87118814   -6.9682154    717.26112  0.024811855  0.024477314           11 
 2410000   0.88156939   -6.9732132    715.91393  0.024754977  0.024470081           10 
 2411000   0.87054758   -6.9714868    714.25904   0.02468751  0.024462807            7 
 2412000   0.87456497   -6.9586806    717.77104  0.024798613  0.024455532           11 
 2413000   0.86843545   -6.9954106    717.13602  0.024766405  0.024448265            3 
 2414000   0.86788378   -6.9488776    717.50629  0.024768927   0.02444103            6 
 2415000    0.8671613   -6.9619646    717.73182  0.024766453  0.024433799            6 
 2416000   0.86508612    -6.973667    717.38842  0.024744358  0.024426517            6 
 2417000   0.86872062   -6.9556164     718.1648  0.024760888  0.024419324            7 
 2418000   0.87387958   -6.9758734    716.44888  0.024691511  0.024412037            8 
 2419000   0.85691774   -6.9893579    716.27016  0.024675147  0.024404751           11 
 2420000   0.83823179   -6.9441037    719.17592  0.024765011  0.024397466            5 
 2421000   0.86848856    -6.963306    717.60725  0.024700786  0.024390178           11 
 2422000   0.87156346    -7.011848    716.86248  0.024664963  0.024382905           12 
 2423000    0.8558503   -6.9453112    717.87755  0.024689694  0.024375637            5 
 2424000   0.85391397   -6.9939947    716.69183  0.024638745  0.024368425            8 
 2425000   0.85963968   -6.9956332    716.70022  0.024628873  0.024361169            6 
 2426000    0.8789459   -6.9670511    716.63102  0.024616345   0.02435394           13 
 2427000   0.84793863   -6.9560199    719.92278  0.024719227  0.024346746            4 
 2428000   0.84464002   -6.9541183    717.94751  0.024641252  0.024339536            6 
 2429000   0.86096727   -6.9948749    719.12407  0.024671472  0.024332304           13 
 2430000   0.85686912   -6.9775568    718.26291  0.024631787  0.024325106            7 
 2431000   0.84637497   -6.9920276    717.87137  0.024608233  0.024317933           10 
 2432000   0.89253949   -6.9635529    718.10535  0.024606132  0.024310704            5 
 2433000   0.85723444   -6.9950319    719.50912  0.024644099  0.024303523           11 
 2434000   0.85945466   -6.9677631    719.00602  0.024616749  0.024296326           10 
 2435000   0.85040745   -6.9886594     719.2577  0.024615253  0.024289113            8 
 2436000   0.87060703   -6.9789255    718.05326  0.024563946  0.024281865            9 
 2437000   0.86789582   -6.9893535    717.42101  0.024532246  0.024274561            4 
 2438000   0.85275054   -6.9785913    719.89766  0.024606838  0.024267313            5 
 2439000   0.86167165   -6.9868696    717.57491  0.024517388  0.024260099            7 
 2440000   0.85805993   -6.9757347    719.04938  0.024557697  0.024252888            5 
 2441000   0.87273763   -7.0165553    716.97323  0.024476759  0.024245617            9 
 2442000   0.85296725   -6.9882869    718.76614  0.024527919  0.024238294            7 
 2443000   0.86699414     -7.02216    716.89898  0.024454188  0.024230964            7 
 2444000   0.86633289   -6.9742494    719.20371  0.024522767  0.024223657            8 
 2445000   0.87063751   -6.9952205    718.48233   0.02448815  0.024216359            4 
 2446000   0.85545806   -6.9997783    718.26648  0.024470785  0.024209042            8 
 2447000   0.86176061   -7.0140313    717.64835  0.024439734  0.024201716            9 
 2448000   0.84225886   -6.9883067    719.72697  0.024500509  0.024194492            8 
 2449000    0.8557523   -6.9707122    718.86688  0.024461238  0.024187226            5 
 2450000   0.87109571   -7.0051293    716.93087  0.024385404  0.024179925           10 
 2451000    0.8451924   -7.0127501    718.42268  0.024426176  0.024172641           12 
 2452000   0.86566983    -6.975484    720.68631  0.024493145  0.024165378            5 
 2453000   0.87286394   -7.0301639    717.86441  0.024387295   0.02415809           16 
 2454000   0.86296054   -7.0073604     719.6391  0.024437622  0.024150776            8 
 2455000   0.84485988   -7.0162506    719.00585  0.024406173  0.024143466           15 
 2456000   0.86160815   -7.0073633    719.25929  0.024404835  0.024136211            6 
 2457000   0.86994241   -6.9913562    720.97107   0.02445296  0.024128924           11 
 2458000   0.85561875   -6.9966482    720.05625  0.024411996  0.024121632            6 
 2459000   0.84313816   -6.9913831    721.48557  0.024450507   0.02411434            6 
 2460000   0.86068083   -6.9723178    722.16076   0.02446344  0.024107074            7 
 2461000   0.88761453   -6.9933699    722.35123   0.02445995  0.024099812           11 
 2462000   0.86420602   -6.9760154       721.04  0.024405632  0.024092584           19 
 2463000   0.86945445   -6.9395637    722.70082  0.024451916  0.024085411            9 
 2464000   0.85021771   -6.9952625    720.84878  0.024379355  0.024078219            7 
 2465000   0.87942059   -6.9989435    721.20392  0.024381471  0.024070992           10 
 2466000   0.87172649   -6.9811192    720.28563  0.024340553  0.024063804            9 
 2467000   0.85692549   -6.9776521    722.07949  0.024391281  0.024056619            9 
 2468000    0.8506293   -6.9695354    721.77332   0.02437106  0.024049401            7 
 2469000   0.83322676   -6.9950219    721.90111  0.024365503  0.024042233            8 
 2470000   0.85801579   -6.9734614    721.28338  0.024334797  0.024035044            5 
 2471000   0.86848877   -6.9860653    722.93366  0.024380604  0.024027881            5 
 2472000   0.86060242   -6.9972118    722.61921  0.024360141  0.024020663            8 
 2473000   0.85632535   -7.0346783    721.71608  0.024319857  0.024013436            5 
 2474000   0.84125947   -7.0034341    722.13654   0.02432419  0.024006243            6 
 2475000   0.87152799   -7.0089866    723.20724  0.024350412  0.023999039            9 
 2476000   0.85504605   -7.0170115    724.17558  0.024373168  0.023991886            9 
 2477000   0.85711749   -7.0154955    722.97688  0.024323001  0.023984737            8 
 2478000   0.84566833   -7.0021865    722.28073  0.024289774  0.023977475            8 
 2479000   0.85296267    -7.000312    723.85316  0.024332834  0.023970281            9 
 2480000   0.84280786   -7.0399833     720.1231  0.024197685  0.023963033            8 
 2481000    0.8518344   -7.0303834    722.26082  0.024259735  0.023955782           13 
 2482000   0.84467868   -7.0133178     722.9513  0.024273143  0.023948568            4 
 2483000   0.84719371   -7.0068428    723.65636   0.02428703  0.023941369           11 
 2484000   0.84903455   -7.0165174    723.76435  0.024280876  0.023934153            7 
 2485000    0.8449043   -7.0159603    724.80272  0.024305926  0.023926939           14 
 2486000   0.86597747    -7.034578    720.85353  0.024163768  0.023919679           13 
 2487000   0.85297354   -7.0135824    725.08598  0.024295871  0.023912475            7 
 2488000   0.83708352   -7.0418562    722.43712  0.024197385  0.023905288           10 
 2489000    0.8558387    -7.026838    724.52033   0.02425741  0.023898094           13 
 2490000   0.84752195   -7.0145615    726.11501  0.024301038  0.023890935            5 
 2491000   0.86348538   -7.0235824    722.61661  0.024174248  0.023883717            8 
 2492000   0.85869069    -7.043057    722.13807  0.024148544  0.023876471           19 
 2493000   0.85248534   -7.0316035    722.46572   0.02414981  0.023869222            9 
 2494000   0.85932897   -7.0080124    723.28782  0.024167596  0.023861975            6 
 2495000   0.83557795   -7.0365824    722.08885  0.024117864  0.023854696            8 
 2496000   0.85919003    -7.024752    723.64292  0.024160087  0.023847406            7 
 2497000   0.86099727   -7.0462284    722.45505  0.024110768  0.023840157           12 
 2498000    0.8586477   -7.0396921    721.43688   0.02406715  0.023832853           10 
 2499000   0.85144238   -7.0303775    721.81876  0.024070253  0.023825563            5 
 2500000   0.84341989   -7.0356289    723.02728  0.024100909    0.0238182           14 
 2501000   0.83626381   -7.0694441    721.58716  0.024043288  0.023810902            7 
 2502000   0.85521648   -7.0142765    722.69225  0.024070485  0.023803546            6 
 2503000   0.83323535   -7.0131251    723.37263  0.024083521  0.023796219            7 
 2504000   0.86535653   -7.0241663    723.03018  0.024062506  0.023788848            7 
 2505000    0.8539164   -7.0656547    721.13644  0.023989901  0.023781596            8 
 2506000   0.84216538    -7.021896    722.50461  0.024025825  0.023774299           13 
 2507000   0.86215344   -7.0396945     722.2864  0.024008988  0.023767004            6 
 2508000   0.85256135   -7.0237825    723.50917  0.024040044  0.023759709            5 
 2509000   0.83927909   -7.0077879    723.27541  0.024022699   0.02375237           11 
 2510000   0.85681798   -6.9730556    726.10388  0.024107035  0.023745086            6 
 2511000   0.85039144   -7.0431076    722.60914  0.023981453  0.023737843            9 
 2512000   0.83997184   -7.0246003    722.63881   0.02397289  0.023730601           13 
 2513000   0.86776873   -7.0244781    724.61986  0.024029044    0.0237233            6 
 2514000    0.8463596   -7.0373276    723.55807   0.02398429  0.023715974            8 
 2515000   0.84328607   -7.0196331    724.69789  0.024012521  0.023708681            7 
 2516000   0.83942527   -7.0029954    724.55658  0.023998297  0.023701449            4 
 2517000   0.85989984   -6.9998484    724.70893  0.023993807  0.023694246            5 
 2518000   0.84500728   -7.0097683    726.28437  0.024036417   0.02368705           10 
 2519000   0.86779049     -7.03128    723.18054  0.023924194  0.023679864           10 
 2520000   0.84853622   -6.9905216    726.08853  0.024010864  0.023672659           13 
 2521000   0.85919545   -6.9836048    726.57278  0.024017347  0.023665511           11 
 2522000   0.83908359   -7.0147372    724.70913  0.023946244   0.02365832            8 
 2523000    0.8356974   -7.0052754    725.18721  0.023952544  0.023651127            8 
 2524000   0.85144534   -7.0416884    723.79529  0.023897097  0.023643902            9 
 2525000   0.84566519   -7.0319451    726.00289  0.023960491  0.023636669            8 
 2526000   0.84271313    -7.039961    725.24595  0.023926034  0.023629372            7 
 2527000   0.85889337   -7.0064456    725.85033  0.023936497  0.023622077           60 
 2528000   0.86207442   -7.0284558    724.64909   0.02388743  0.023614822           15 
 2529000   0.86954294   -6.9768405    728.59376  0.024007966   0.02360766           10 
 2530000   0.84001557   -7.0246104    725.31888  0.023890609  0.023600453           12 
 2531000    0.8544785   -7.0117708    725.86327  0.023899094  0.023593267            4 
 2532000   0.83807442    -6.996189    725.91162  0.023891246  0.023586043            2 
 2533000   0.85892223    -7.018985    726.71771  0.023908334  0.023578831            6 
 2534000   0.86310929   -7.0090237    725.15442  0.023847488  0.023571625            5 
 2535000   0.85727783    -7.002056    728.02025   0.02393229  0.023564402            4 
 2536000   0.83974018   -7.0070768    727.14894  0.023894221  0.023557198           14 
 2537000    0.8470138   -7.0555922    726.38432  0.023859687  0.023549979           11 
 2538000   0.83426693   -6.9798969    726.15013  0.023842597  0.023542725           16 
 2539000   0.85261139    -7.006486    727.35869  0.023872873   0.02353547           17 
 2540000   0.86336543   -7.0601594    726.28271  0.023828173  0.023528199            5 
 2541000   0.84458973   -7.0007987    729.01686  0.023908463  0.023520915            5 
 2542000   0.86743247   -7.0291543    726.53697  0.023817761  0.023513681           10 
 2543000   0.84483438   -7.0152513    725.30833  0.023768133  0.023506434            9 
 2544000   0.85150724   -7.0190518    726.55386  0.023799589   0.02349918            3 
 2545000    0.8461485   -7.0061024    726.57829  0.023791038  0.023491914            3 
 2546000   0.84770203   -7.0069608    727.71467  0.023818888  0.023484606            8 
 2547000   0.83420954    -7.018486     725.0403  0.023722036   0.02347738           16 
 2548000   0.83332009   -7.0048625    724.84253  0.023706258    0.0234701            5 
 2549000   0.86179986   -7.0460738     725.2777  0.023711184  0.023462848           12 
 2550000   0.85224875   -6.9936613    727.59619  0.023777653   0.02345559           23 
 2551000   0.81253821   -7.0432276    726.22089  0.023723406  0.023448377           10 
 2552000    0.8361448   -7.0526732    726.65693  0.023728348  0.023441051           12 
 2553000    0.8257658   -7.0372503    727.58611  0.023749384  0.023433745            5 
 2554000   0.84232372   -7.0609895    725.38149  0.023668151  0.023426401            6 
 2555000   0.84876101   -7.0601753    724.45915  0.023628805  0.023419003            8 
 2556000   0.85224774   -7.0698411    724.15818  0.023609748  0.023411581           10 
 2557000    0.8470678   -7.0482635    724.49163  0.023611381  0.023404152           16 
 2558000   0.83712533   -7.0463145    726.40691  0.023664546  0.023396743           12 
 2559000   0.84871899   -7.0418372    727.21178  0.023681509   0.02338934            7 
 2560000   0.85475279   -7.0594247    727.01024  0.023665698  0.023381924           13 
 2561000   0.84790537   -7.0379213    726.10304  0.023626937  0.023374546           19 
 2562000   0.86469874   -7.0596977    725.88234  0.023610537  0.023367181            9 
 2563000   0.85788351   -7.0715244    725.58787   0.02359175  0.023359789            4 
 2564000   0.84258496   -7.0195424    725.51939  0.023580323  0.023352408           13 
 2565000    0.8545879   -7.0645271    725.68486  0.023576506  0.023345052            6 
 2566000   0.83242961   -7.0528455    729.28164  0.023684127  0.023337689            5 
 2567000   0.84768995   -7.0505701    725.05422  0.023537665  0.023330351           15 
 2568000   0.84498452   -7.0357602    727.00063  0.023591661  0.023323005           11 
 2569000   0.84440176   -7.0381513     727.9691  0.023613893  0.023315637            7 
 2570000   0.84012447   -7.0540087    727.45956  0.023588183  0.023308265            5 
 2571000   0.84682779   -7.0594747    727.25122  0.023572255  0.023300904            7 
 2572000   0.84754989   -7.0527415    726.86154  0.023550465  0.023293537           13 
 2573000   0.84131685   -7.0658669    726.87619  0.023541786   0.02328621            7 
 2574000   0.83619599   -7.0538857    725.99194  0.023504013  0.023278935            8 
 2575000   0.85643199   -7.0214589    728.81642  0.023586292  0.023271652            8 
 2576000   0.87227875   -7.0506714    725.97934  0.023485356  0.023264399            5 
 2577000   0.84871231   -7.0624568    726.92872  0.023506943  0.023257129            8 
 2578000   0.84077482   -7.0520986    729.03272  0.023565837  0.023249822           24 
 2579000   0.84243977   -7.0447476    728.96624  0.023554551   0.02324249           15 
 2580000   0.84546561   -7.0636467    727.07663  0.023484387  0.023235189            4 
 2581000   0.81725029   -7.0211387    727.90579   0.02350206  0.023227909           10 
 2582000   0.82810171   -7.0605358    728.53761  0.023513349  0.023220617           12 
 2583000   0.82295663   -7.0322328    726.89378  0.023451212  0.023213289           18 
 2584000    0.8259145   -7.0594973     725.3967  0.023393856  0.023205926            5 
 2585000   0.84895687   -7.0874966    726.43352  0.023418231  0.023198585            4 
 2586000   0.83793195   -7.0370513    727.71382  0.023450432  0.023191234            7 
 2587000   0.85151382   -7.0986889    725.68856  0.023376129   0.02318389           12 
 2588000   0.84493699   -7.0622152    727.98757  0.023441125  0.023176528            6 
 2589000   0.84537861   -7.0587237    729.35636  0.023476129   0.02316928            9 
 2590000    0.8363924    -7.071935    728.67539  0.023445154  0.023162003            4 
 2591000   0.83960649   -7.0769263    728.23193  0.023421843  0.023154727            7 
 2592000   0.82559892   -7.0512726    729.89006  0.023466116   0.02314738            7 
 2593000   0.83444243   -7.0692706     727.6445  0.023384898    0.0231401           17 
 2594000   0.83449055   -7.0112358    729.51554  0.023435991  0.023132846           10 
 2595000   0.83723197    -7.053086    728.57144  0.023396642  0.023125607            8 
 2596000   0.82803296   -7.0687571    728.32792  0.023379813  0.023118368           12 
 2597000     0.849111   -7.0633114    729.80052  0.023418063  0.023111066           11 
 2598000   0.84386322   -7.0601359    729.89335  0.023412027  0.023103824            8 
 2599000   0.82295566   -7.0433888    729.31624  0.023384515   0.02309658           13 
 2600000   0.83806998   -7.0416085     728.6333  0.023353631  0.023089336            5 
 2601000   0.85506638   -7.0467962    732.59969  0.023471732  0.023082094            9 
 2602000   0.82873934   -7.0506929    729.19421  0.023353645  0.023074842           11 
 2603000   0.84737437   -7.0868548    728.28677  0.023315622  0.023067536            5 
 2604000   0.83363957   -7.0533337    730.75324    0.0233856  0.023060304            5 
 2605000   0.84470292   -7.0733444    727.50767  0.023272798   0.02305305            5 
 2606000   0.83117161     -7.05483    730.18272  0.023349409  0.023045831            9 
 2607000   0.84257275   -7.0447158     730.7619  0.023358966  0.023038623            7 
 2608000   0.83488737   -7.0795999    727.80093  0.023255398   0.02303135           11 
 2609000    0.8404941   -7.0598058    728.61178  0.023272383  0.023024108            8 
 2610000   0.81103378   -7.0453957    729.46287  0.023290641  0.023016835            7 
 2611000   0.82112075   -7.0958692    727.66865  0.023224456   0.02300963            6 
 2612000     0.837242   -7.0526262    730.36158   0.02330148  0.023002395           16 
 2613000   0.83335464   -7.0831416    730.14064  0.023285516  0.022995169            6 
 2614000   0.80571634    -7.068357    728.38857  0.023220753  0.022987906           17 
 2615000   0.83513033   -7.0771148    731.42724  0.023308707  0.022980601           15 
 2616000   0.84205618   -7.0507705    731.46621  0.023301039  0.022973323           10 
 2617000   0.83937739   -7.0742117    731.34418  0.023288249  0.022966087            8 
 2618000   0.84821249   -7.0841292    729.82274  0.023230925  0.022958865           19 
 2619000   0.82484086   -7.0811076    728.94093  0.023193997  0.022951591           18 
 2620000   0.84239491   -7.0703501    731.59671  0.023269615  0.022944432           13 
 2621000   0.83492011   -7.0449594    731.45938  0.023256371  0.022937229           12 
 2622000   0.82793637   -7.0448846    731.42915   0.02324654  0.022930025           11 
 2623000   0.82434691   -7.0870444    730.87079  0.023219939  0.022922808           19 
 2624000   0.84976212   -7.1146156    729.09592  0.023154723  0.022915512            9 
 2625000   0.84027499   -7.0730801    730.43867  0.023188529  0.022908224            8 
 2626000   0.82502989   -7.0733325    730.93413  0.023195422  0.022901001           21 
 2627000   0.84969288   -7.0965102    731.73314  0.023211938  0.022893778            7 
 2628000   0.83296916   -7.0513924    732.83493  0.023238043  0.022886595            8 
 2629000   0.82808857    -7.077944    732.35472  0.023213983  0.022879403            7 
 2630000   0.82018003   -7.0822981    731.27908  0.023171074  0.022872194           12 
 2631000   0.83680977   -7.0698836    730.61952  0.023141376  0.022864945            4 
 2632000   0.83845581   -7.0829736    731.25264  0.023152629  0.022857707            9 
 2633000   0.82046341   -7.0402571    732.78791  0.023192427  0.022850477            8 
 2634000   0.80834478   -7.0863509    732.62084  0.023178336  0.022843312           14 
 2635000   0.85107416   -7.0601072     730.9207  0.023115772  0.022836117            8 
 2636000   0.82577706   -7.0425597     732.9304  0.023170536  0.022828985            8 
 2637000   0.85509654   -7.0944819    732.23294  0.023139709  0.022821851           10 
 2638000   0.83225356   -7.0561047    734.06919  0.023188943  0.022814671           12 
 2639000   0.81185597   -7.0777056    732.04508   0.02311624  0.022807536            7 
 2640000   0.80764663   -7.0781169     734.0765  0.023171607  0.022800353           12 
 2641000   0.84454637   -7.0797633    731.42958  0.023079313  0.022793183           14 
 2642000   0.83912848   -7.0951521    732.88565  0.023116504  0.022786067           11 
 2643000   0.81598192   -7.0773886    733.92695   0.02314059  0.022778891           14 
 2644000    0.8435998   -7.0555875    733.44874  0.023116766  0.022771707            5 
 2645000   0.83838091   -7.0902303    732.94524  0.023092163  0.022764572           11 
 2646000   0.82743408   -7.0528813    732.87396   0.02308119  0.022757371           15 
 2647000    0.8139732   -7.0930946    733.22726  0.023083593  0.022750259           16 
 2648000    0.8249536     -7.09227    733.67692  0.023089027  0.022743105            8 
 2649000   0.81812213   -7.0761843     735.1703   0.02312729  0.022735978            5 
 2650000   0.81403059   -7.0760593    734.78988    0.0231066  0.022728846            5 
 2651000   0.81703894   -7.0900691    733.63599  0.023061612   0.02272174           14 
 2652000   0.84343507    -7.052336    734.17592  0.023069882  0.022714641           11 
 2653000   0.83995726   -7.0987059    732.44447  0.023006799  0.022707498           23 
 2654000    0.8196369   -7.0806332    732.77461  0.023008497  0.022700303           17 
 2655000   0.84516431   -7.0973015    733.26538  0.023015235  0.022693142           10 
 2656000   0.81104668   -7.0894879    732.93423  0.022996179  0.022685961            7 
 2657000   0.84870667   -7.1348717    731.09799  0.022929933  0.022678742           14 
 2658000   0.83523272   -7.0814687    733.61107  0.023000096  0.022671559            8 
 2659000    0.8252845   -7.0851696    734.35797  0.023014854  0.022664434           10 
 2660000   0.82776468   -7.0942401     732.2892  0.022941391  0.022657295            8 
 2661000   0.82928591   -7.0995114    733.49725  0.022970601   0.02265016            8 
 2662000   0.81017025   -7.0912042    733.09392  0.022949346  0.022642968            8 
 2663000   0.82572906   -7.0715064     735.1644   0.02300552  0.022635786           19 
 2664000   0.80317169   -7.1141441    731.99734  0.022897815  0.022628634           12 
 2665000   0.82357371   -7.0852318    732.96435  0.022919461  0.022621486            5 
 2666000   0.82050768   -7.0715705    733.89705  0.022940018  0.022614322            9 
 2667000   0.83427624   -7.1116794    732.68693  0.022893605  0.022607164           10 
 2668000   0.82143108   -7.0992525    733.45974  0.022909162  0.022600006           26 
 2669000   0.81971036   -7.0774804    732.65701  0.022875515  0.022592831           16 
 2670000   0.82745281   -7.1092719    734.24555  0.022916528  0.022585651           13 
 2671000    0.8396137   -7.0767302    734.73737  0.022923292  0.022578493           14 
 2672000   0.82522549   -7.0999922    733.90709  0.022888819   0.02257132           12 
 2673000   0.82186668   -7.0661008    736.40393  0.022958097   0.02256418           12 
 2674000   0.81846671   -7.0863927     734.7034  0.022896516  0.022557083           14 
 2675000   0.83140963   -7.1122407    732.96244  0.022833721  0.022549918            6 
 2676000   0.81591911   -7.0811597    734.93024  0.022886467  0.022542845            6 
 2677000   0.83139436   -7.1135968    732.89705  0.022814626  0.022535694            9 
 2678000   0.83350401   -7.1244062    733.63167  0.022828967  0.022528539            5 
 2679000   0.81319826   -7.0744701    737.36615   0.02293661  0.022521473            9 
 2680000   0.83200963   -7.0577728    736.33438   0.02289597  0.022514468           16 
 2681000   0.82331413   -7.0686871    736.35399  0.022888039  0.022507431            6 
 2682000   0.80602853     -7.09912    733.98305  0.022805837  0.022500369           13 
 2683000   0.80640342   -7.1208688    734.93237  0.022826822  0.022493252            8 
 2684000   0.81725325   -7.0865579    735.82414  0.022846005  0.022486188            8 
 2685000   0.86524157   -7.0939051     735.0585  0.022813734   0.02247911            6 
 2686000   0.81144111   -7.0888967    735.58858  0.022821686  0.022472069           17 
 2687000   0.84311233   -7.0951885     735.3045  0.022804382  0.022465017           20 
 2688000   0.83077111   -7.0849291    735.92615  0.022815171   0.02245794            9 
 2689000   0.82156854   -7.0844789    736.75656  0.022832421   0.02245087            7 
 2690000    0.8078369   -7.0931125    736.79966  0.022825268   0.02244378            9 
 2691000    0.8132418   -7.0836125    737.19163  0.022828924  0.022436723            3 
 2692000   0.81627414    -7.058025    737.36159  0.022825705  0.022429645            9 
 2693000   0.80874163   -7.1060106    735.90916  0.022772285  0.022422626            6 
 2694000     0.826586   -7.1289253    734.83182  0.022730507  0.022415542           12 
 2695000    0.8322308   -7.1037983     735.7132  0.022749326  0.022408391           10 
 2696000   0.82544028   -7.0943666    735.90967   0.02274696  0.022401256           15 
 2697000    0.8030425   -7.1166892    736.04039  0.022742565  0.022394159           11 
 2698000   0.82361822   -7.1112852    736.05403  0.022734558  0.022387055           19 
 2699000   0.81339199   -7.1286605    737.14499  0.022759818  0.022379961           10 
 2700000   0.80892287    -7.115043    735.66416  0.022705684  0.022372893            8 
 2701000   0.81570405   -7.0979366    735.27905  0.022685396  0.022365801           13 
 2702000   0.82862354   -7.1032058    736.70358  0.022720934  0.022358731           12 
 2703000   0.79146523   -7.1091321     736.8232  0.022716217  0.022351689            9 
 2704000   0.80696436   -7.1212554     736.3521  0.022693297  0.022344662           12 
 2705000   0.82461224   -7.0696705    738.89944  0.022763384  0.022337611            5 
 2706000   0.81417392   -7.1137358    738.17686  0.022732719  0.022330521           10 
 2707000   0.82665406   -7.0934494    739.35271  0.022760519  0.022323425            6 
 2708000   0.81910588   -7.0902487    738.34548  0.022721119  0.022316342            7 
 2709000   0.82134787    -7.120685    735.84883  0.022635931  0.022309283           30 
 2710000   0.83985123   -7.1459008    737.02096  0.022663621  0.022302174            6 
 2711000   0.82666416   -7.0879491    736.24156  0.022631303  0.022295098           11 
 2712000   0.80728305    -7.102243    736.92471   0.02264395  0.022288024            4 
 2713000   0.81406111   -7.1104907    737.01737   0.02263845   0.02228094            9 
 2714000   0.80977608   -7.1081113    738.04086  0.022661535  0.022273883            6 
 2715000    0.8266136   -7.1247405    738.69233  0.022673184  0.022266822           14 
 2716000   0.80466959   -7.0942321    737.28709   0.02262172  0.022259719           12 
 2717000   0.81686442   -7.1413888     734.7783  0.022536447  0.022252616            8 
 2718000   0.80723313   -7.1334224    736.29476  0.022574649  0.022245517           13 
 2719000   0.80069372   -7.1272462    737.05409  0.022589619  0.022238419            5 
 2720000   0.81366545   -7.0961041    739.94341  0.022669835  0.022231302            9 
 2721000   0.81309458   -7.1160356    735.88505  0.022537212  0.022224183           10 
 2722000   0.82020335   -7.1416168    735.49637  0.022517033  0.022217063            8 
 2723000   0.82065729   -7.1246401    737.03942  0.022555987  0.022209952           11 
 2724000   0.80311831   -7.0900664    738.02459  0.022577845  0.022202879            7 
 2725000   0.80375137   -7.1519929    737.03126  0.022539182  0.022195742           14 
 2726000   0.81589146   -7.1415492    736.76733  0.022522846  0.022188583            6 
 2727000   0.82292471   -7.1093089    739.41382   0.02259546  0.022181524            8 
 2728000   0.82704915   -7.1171587     737.2105  0.022519871  0.022174451            6 
 2729000   0.81346004   -7.1152536    736.70463  0.022496172  0.022167368            6 
 2730000    0.8051704   -7.1216067    736.77394  0.022490047  0.022160275            7 
 2731000   0.81813496   -7.1186131    738.34268   0.02252968  0.022153214           11 
 2732000    0.7983189   -7.1158159      736.559  0.022467027  0.022146187           16 
 2733000   0.81072626   -7.1295566    738.06111  0.022504607  0.022139116            6 
 2734000   0.82743978   -7.1457953    737.12589   0.02246787  0.022132025           46 
 2735000    0.8209109   -7.1217703    739.52403  0.022532725  0.022124981           14 
 2736000   0.80288235   -7.1383435    738.30194  0.022487267  0.022118003            7 
 2737000    0.8061909   -7.1052147    740.03115    0.0225317  0.022111029           15 
 2738000   0.80273202   -7.1227395    738.62473  0.022480665  0.022104057           21 
 2739000   0.80961405   -7.0868416    740.69744  0.022535519  0.022097138            8 
 2740000     0.826916    -7.152927    739.26301  0.022483668  0.022090159           11 
 2741000   0.81744209   -7.1055592    739.40322  0.022479728  0.022083186           22 
 2742000   0.81145481   -7.0765264    740.89097  0.022516745  0.022076304           10 
 2743000   0.81911404   -7.1056877      738.834  0.022446045  0.022069387           10 
 2744000   0.79620231   -7.1039298    737.43833  0.022395479  0.022062389            6 
 2745000   0.83411242   -7.1070205    741.44918  0.022509082  0.022055426           23 
 2746000   0.81454998   -7.1183417    738.30069  0.022405338  0.022048492            7 
 2747000   0.83294759   -7.1422541    739.91564  0.022446173  0.022041538           13 
 2748000   0.80082702   -7.1477478    740.40857  0.022452953  0.022034563            8 
 2749000   0.81332596   -7.1256231    740.71206  0.022453985  0.022027559           11 
 2750000   0.80654539   -7.1579725    740.13765  0.022428414  0.022020588           17 
 2751000   0.81213249   -7.1258633     740.9834   0.02244588  0.022013623           11 
 2752000   0.79654381   -7.1181271    741.15949  0.022443056  0.022006661           29 
 2753000   0.79695996   -7.1330158    741.66527  0.022450214  0.021999699           10 
 2754000   0.82237913   -7.1327078    741.32059  0.022431632  0.021992718            8 
 2755000   0.81676457   -7.1377452    740.70992  0.022405019  0.021985707           16 
 2756000   0.81194258   -7.1769932    738.78568  0.022338706  0.021978672           17 
 2757000   0.80230504   -7.1254617    740.78792  0.022391123  0.021971618           16 
 2758000   0.82163476   -7.1094802     739.0106  0.022329303  0.021964663           35 
 2759000   0.81257871   -7.0963985    741.43049    0.0223943  0.021957705            6 
 2760000   0.80486165   -7.1277591    740.84058  0.022368375  0.021950795           18 
 2761000   0.81403984   -7.1245912      739.448  0.022318242  0.021943799           30 
 2762000   0.80159083   -7.1419576    738.85947  0.022292405  0.021936776           25 
 2763000   0.79783367   -7.1579712    740.47786  0.022333148  0.021929783           13 
 2764000    0.8132684     -7.12142    742.47204  0.022385192  0.021922809           14 
 2765000   0.79234686   -7.1755109     739.5183  0.022288074  0.021915839            6 
 2766000    0.7936405   -7.1231507    740.78141  0.022318071  0.021908872           16 
 2767000   0.79316339   -7.1281604    741.76099  0.022339507  0.021901942            7 
 2768000   0.80913888   -7.1441157    741.10908   0.02231181  0.021894992           13 
 2769000   0.81561836   -7.1554634    740.91864  0.022298021   0.02188803            9 
 2770000   0.79835205   -7.1375777    743.19148  0.022358348  0.021881059            9 
 2771000   0.81043542   -7.1122687    742.03824  0.022315597  0.021874145           11 
 2772000   0.79982268   -7.1244535    741.48575  0.022290938  0.021867247            5 
 2773000   0.80897152    -7.175316    740.44002  0.022251473  0.021860357           12 
 2774000    0.8013832    -7.124084    742.72544  0.022312108  0.021853448            4 
 2775000   0.80238069   -7.1502908    740.24718  0.022229645  0.021846556           17 
 2776000   0.78930215   -7.1340404    741.39895  0.022256213  0.021839664            8 
 2777000   0.79736874    -7.140347    743.33913   0.02230642  0.021832753           19 
 2778000   0.80797631   -7.1351333    743.90342  0.022315317  0.021825836            9 
 2779000   0.80498594   -7.1239393    742.35037  0.022260716  0.021818957           10 
 2780000   0.82107571   -7.1202571    742.43536  0.022255257  0.021812041           16 
 2781000   0.79543582    -7.123232    741.63643  0.022223314  0.021805138            7 
 2782000   0.80929393   -7.1315047    743.77512  0.022279389  0.021798244           10 
 2783000   0.80873414   -7.1262577    741.73451   0.02221028  0.021791368            8 
 2784000   0.80533197   -7.1688063    741.90352  0.022207361  0.021784462           26 
 2785000   0.80796988   -7.1486485     741.1852  0.022177893  0.021777526            5 
 2786000   0.79071817    -7.138845    742.86565  0.022220198  0.021770595           10 
 2787000    0.8184395   -7.1510475    741.49753  0.022171317  0.021763663            8 
 2788000   0.80924992   -7.1571297    740.61472  0.022136977  0.021756713           34 
 2789000   0.80531714    -7.139696    741.26777  0.022148553  0.021749768           14 
 2790000   0.78978313   -7.1397584    740.84369  0.022127948  0.021742839            8 
 2791000   0.80573054   -7.1484223    741.60917  0.022142875   0.02173591            9 
 2792000   0.81760646   -7.1546609    743.22114  0.022183057  0.021728929           10 
 2793000   0.82356162   -7.1373361    743.46998  0.022182539   0.02172202            6 
 2794000   0.81658992    -7.118514    744.42877  0.022203197  0.021715132            8 
 2795000   0.79734706   -7.1677126    742.20935   0.02212908  0.021708187           24 
 2796000   0.81157629   -7.1562395    740.81527  0.022079616  0.021701215           10 
 2797000   0.81254028   -7.1275924    741.69799  0.022098021  0.021694294           10 
 2798000   0.78706264   -7.1672839    743.21073  0.022135178  0.021687364           14 
 2799000   0.81418254   -7.1833081    740.14954   0.02203613  0.021680411           13 
 2800000    0.8311668    -7.115601    743.78032  0.022136319  0.021673514            8 
 2801000   0.83026428   -7.1682623    740.71402   0.02203719  0.021666615           10 
 2802000   0.80679584   -7.1399549    741.81881  0.022062182  0.021659696            8 
 2803000   0.80632124    -7.171078    742.87545  0.022085725  0.021652789           10 
 2804000   0.80110805    -7.156655    741.31508  0.022031475  0.021645846            5 
 2805000   0.79579322   -7.1643185    742.71182  0.022065116  0.021638951           11 
 2806000    0.7949489     -7.13554    744.23713  0.022102552   0.02163208            8 
 2807000   0.81030342   -7.1320966    744.65613  0.022107117  0.021625223            6 
 2808000   0.81286144   -7.1712855    741.03095  0.021991659  0.021618323           11 
 2809000   0.78153058   -7.1466402    742.44374  0.022025743  0.021611455           12 
 2810000   0.80862014   -7.1495859    744.35434  0.022074565  0.021604576           25 
 2811000   0.79944366   -7.1783579    741.88404  0.021993479  0.021597699           21 
 2812000   0.80749992   -7.1793058    742.52066  0.022004524  0.021590753           21 
 2813000   0.79530195   -7.1331915    743.94401  0.022038867  0.021583905           13 
 2814000   0.80392922    -7.122611    744.33674  0.022042666  0.021577063            6 
 2815000   0.80442229   -7.1515968    744.25283  0.022032351  0.021570216           24 
 2816000   0.80937441    -7.117559    744.31826  0.022026464  0.021563378            8 
 2817000   0.80204164    -7.147649    743.61343  0.021997794  0.021556551           13 
 2818000   0.80583311   -7.1407659    745.62321  0.022049421  0.021549688            6 
 2819000   0.80554595   -7.1644617    742.08352  0.021936961  0.021542808           11 
 2820000   0.79987583   -7.1474297    743.85431   0.02198151  0.021535942            9 
 2821000   0.79523472   -7.1603207    743.87936  0.021974458  0.021529066            8 
 2822000   0.79741041   -7.1448772    744.08302  0.021972686  0.021522194           20 
 2823000   0.79034898   -7.1518835     743.8093  0.021956822  0.021515345           21 
 2824000   0.79869896   -7.1387004    743.19395  0.021930888  0.021508478           15 
 2825000   0.79086667   -7.1516147    744.99298  0.021976194  0.021501623            7 
 2826000    0.8014498   -7.1412624    742.32078   0.02188962  0.021494717            7 
 2827000   0.80041336   -7.1604841    741.75962  0.021865335  0.021487791            6 
 2828000   0.79928782   -7.1768474    744.40905  0.021935674  0.021480885            9 
 2829000   0.78633156   -7.1706671    741.24901  0.021834836  0.021473951            7 
 2830000   0.82004791   -7.1663111     744.1379  0.021912188   0.02146707           11 
 2831000    0.8027906   -7.1828676    742.88993  0.021867712  0.021460135           12 
 2832000   0.79950124    -7.169003     744.8428  0.021917455  0.021453258           12 
 2833000   0.79825896   -7.1532624    744.48901  0.021899312  0.021446426            9 
 2834000   0.79239107   -7.1492906    744.35963   0.02188778  0.021439571            9 
 2835000   0.80075597   -7.1700445    745.67444  0.021918708  0.021432725           22 
 2836000   0.79484711   -7.1445023    743.37923  0.021843536  0.021425848            7 
 2837000   0.79797303   -7.1626059    743.84959  0.021849653  0.021418986           17 
 2838000   0.78687626   -7.1810539    743.54347  0.021832965  0.021412163           16 
 2839000   0.78115451   -7.1411809     745.8772  0.021893777  0.021405313            7 
 2840000   0.79964789   -7.1852774    743.45099  0.021814876  0.021398464           16 
 2841000   0.78521451    -7.191732    744.21277  0.021829543  0.021391587           13 
 2842000   0.80559482   -7.1633141    744.09131    0.0218183  0.021384726            9 
 2843000   0.79054157   -7.1652451    744.33187  0.021817677  0.021377902            6 
 2844000   0.80149032   -7.1351097    745.22632  0.021836214  0.021371084            5 
 2845000   0.79127155   -7.1836152    742.53041  0.021749573  0.021364246            9 
 2846000   0.78716717   -7.1486514    745.42324  0.021826635  0.021357442            5 
 2847000   0.79655662   -7.1921563    743.81611  0.021771927  0.021350608           12 
 2848000   0.79102525   -7.1664208     747.3759  0.021868443   0.02134377            7 
 2849000    0.7971302   -7.1771333    743.52858  0.021748233  0.021336953           12 
 2850000     0.811515   -7.1975503    745.84582  0.021808357  0.021330182            8 
 2851000   0.78399157    -7.192081    743.71673  0.021738476  0.021323417           14 
 2852000   0.80590901   -7.1814085    746.17558  0.021802699  0.021316594           18 
 2853000    0.7916495   -7.1747691    743.07941  0.021704621  0.021309761           19 
 2854000   0.77166423   -7.1657926    745.60809  0.021770851  0.021302944           11 
 2855000   0.79485058   -7.1780921    746.05387  0.021776237  0.021296129           20 
 2856000   0.77721886   -7.1937409    745.60809  0.021755605  0.021289298           13 
 2857000   0.81297217   -7.1571011    747.08453  0.021791055  0.021282517            9 
 2858000   0.80385074   -7.1477142    746.66287  0.021771136  0.021275775           14 
 2859000   0.79119897   -7.1984451    747.46136  0.021786795  0.021269003            8 
 2860000   0.78315711   -7.1944567    745.37546  0.021718399  0.021262257           17 
 2861000    0.7971346   -7.1547999    747.22815  0.021764772  0.021255511           16 
 2862000   0.79191788   -7.1602397    746.86063  0.021746466  0.021248704            5 
 2863000   0.79135995   -7.2021123    745.11926  0.021688184  0.021241913            6 
 2864000   0.79910357   -7.1547906    745.25426   0.02168454  0.021235116            8 
 2865000   0.77544074   -7.1780309    745.70179  0.021689988  0.021228348            8 
 2866000   0.80272003   -7.1878125    745.92157  0.021688811  0.021221563           10 
 2867000   0.78833573   -7.1583849    746.99934  0.021712572  0.021214766           15 
 2868000   0.79606111   -7.1838224    745.28996  0.021655334     0.021208           11 
 2869000   0.78838542    -7.211337    745.45594  0.021652607  0.021201191           13 
 2870000   0.79427412   -7.1962587    745.35905  0.021642249  0.021194349           11 
 2871000   0.78370573   -7.1970155    746.93789  0.021680538  0.021187535           12 
 2872000   0.78844349   -7.2024399    744.99485   0.02161661  0.021180728            9 
 2873000   0.78539283   -7.1706565    747.48469  0.021681305  0.021173927            9 
 2874000   0.78171958   -7.1970423    746.42929   0.02164316  0.021167116           18 
 2875000   0.79546225   -7.1759605    747.14322  0.021656325  0.021160304            8 
 2876000   0.80693377   -7.1709138    746.28267   0.02162386  0.021153525            7 
 2877000    0.8066326   -7.1963608    747.13727  0.021641098  0.021146773           18 
 2878000   0.78222404   -7.2223301     744.6061  0.021560288  0.021139983           13 
 2879000   0.77907844   -7.2056307    746.13705  0.021597113  0.021133136            9 
 2880000   0.78110317   -7.2177326    744.79764  0.021550858  0.021126299            7 
 2881000    0.7846719   -7.2091334    745.91341  0.021575651  0.021119507            9 
 2882000   0.78592696   -7.1783563    747.38239  0.021610641  0.021112726           10 
 2883000   0.79109502   -7.1909889    746.14521  0.021567384  0.021105949            7 
 2884000   0.77798888   -7.2332495    745.62547  0.021544888  0.021099151            8 
 2885000   0.78004144   -7.2040227    745.88265  0.021544848  0.021092314            7 
 2886000   0.76873469   -7.1665645    747.00278  0.021569727  0.021085488            8 
 2887000   0.77128643   -7.2515941    744.64352  0.021494155  0.021078663            7 
 2888000   0.77155402   -7.1935383    745.17502  0.021502049  0.021071821           13 
 2889000   0.78209156   -7.2222888    745.67649  0.021509072  0.021064992           11 
 2890000   0.79536134   -7.2395108    745.20897  0.021488148  0.021058148            6 
 2891000   0.79978366   -7.2239727    744.70126   0.02146608  0.021051275           39 
 2892000     0.772513   -7.2127848    745.73634  0.021488484   0.02104442           33 
 2893000   0.79317428   -7.2246259    745.11497  0.021463157  0.021037539           37 
 2894000   0.77296043   -7.2335872    744.77687  0.021446005  0.021030677           45 
 2895000   0.78888737   -7.2228668    743.26593  0.021395105  0.021023779           25 
 2896000   0.78162755   -7.2159295    746.11506  0.021469701  0.021016914           22 
 2897000   0.78579693    -7.209303    746.80622  0.021482172  0.021010048           19 
 2898000   0.79229057   -7.2404157    744.88087  0.021419395  0.021003231           30 
 2899000   0.78365279   -7.1953223    746.53634  0.021459593  0.020996421           24 
 2900000   0.80641417   -7.2045466    747.65289  0.021484279  0.020989581           25 
 2901000   0.78017455   -7.2240196    744.92297  0.021398454  0.020982742           32 
 2902000   0.79088236   -7.2332624    746.94548  0.021449158  0.020975911            9 
 2903000   0.79019681   -7.1855476    747.48496  0.021457256  0.020969084            9 
 2904000    0.7790242   -7.2164517     746.0785  0.021409507  0.020962256           16 
 2905000   0.77548218   -7.2382481    746.02767  0.021400679  0.020955452           12 
 2906000   0.77308198    -7.198801    749.22988  0.021485142  0.020948672           16 
 2907000    0.7995666     -7.20943     746.9142  0.021411369  0.020941919           24 
 2908000   0.78502426   -7.2088322    745.69678  0.021369119  0.020935128           14 
 2909000    0.7823696   -7.2106525    749.52831  0.021471534  0.020928363           17 
 2910000   0.77351344   -7.1726579     749.4683  0.021462437  0.020921626           18 
 2911000   0.78172152    -7.194535    745.46558  0.021340478  0.020914873           14 
 2912000   0.79293069   -7.1838367    748.64358  0.021424095  0.020908131           23 
 2913000   0.78026468   -7.2144988    746.33226   0.02135062  0.020901377           11 
 2914000     0.783906   -7.1726556    747.30538  0.021371122  0.020894645            9 
 2915000   0.79923497   -7.1882732    746.47643  0.021340092   0.02088792            9 
 2916000   0.78024484   -7.2016481    748.47826  0.021389982  0.020881174           11 
 2917000    0.7852541   -7.2206363    745.87083   0.02130816  0.020874384           11 
 2918000   0.77584479   -7.2009352    748.48292  0.021375455  0.020867577           11 
 2919000     0.763767    -7.244485    745.55852  0.021284644  0.020860775           13 
 2920000   0.76597673   -7.2179104    747.73088  0.021339352  0.020853995           15 
 2921000   0.80207412    -7.238151    747.42143  0.021323218  0.020847228           11 
 2922000    0.7836956   -7.1992633    747.67434  0.021323133  0.020840465           21 
 2923000   0.78365074   -7.2029099     745.7804  0.021261843  0.020833733           11 
 2924000   0.78794306    -7.169825    749.55322  0.021362096  0.020827013           18 
 2925000   0.77971582   -7.2100917    748.86769  0.021335262  0.020820284           15 
 2926000   0.77560087   -7.1825809    748.91743  0.021329387  0.020813572           20 
 2927000   0.75637363   -7.2403749    747.20919  0.021273465  0.020806815           13 
 2928000   0.80138701   -7.2442236    746.76391  0.021253527  0.020800043           11 
 2929000   0.78040757   -7.2269557    747.81044  0.021276045  0.020793254           14 
 2930000   0.77837557   -7.2057585    750.11882  0.021334437  0.020786516           28 
 2931000   0.77429001   -7.2366383    746.40452  0.021221555  0.020779776           18 
 2932000   0.78652875   -7.2338898    746.20647  0.021208688  0.020772992           35 
 2933000   0.77006236   -7.2407911    746.07934  0.021197845  0.020766186           56 
 2934000   0.78222345   -7.2421563    747.02574    0.0212175  0.020759381           19 
 2935000   0.77731366   -7.2087823    747.89476  0.021234945   0.02075255           12 
 2936000   0.78213693   -7.2184186    747.26008  0.021209698  0.020745765           11 
 2937000   0.77443768   -7.2483015    747.20587  0.021200938  0.020738951           15 
 2938000    0.7732655   -7.2204517    747.30451   0.02119652  0.020732144           17 
 2939000    0.7626467   -7.2447953    745.89241  0.021149269  0.020725315           23 
 2940000    0.7911025   -7.2353078    747.20423  0.021179258   0.02071851            7 
 2941000    0.7737798   -7.2581227    746.32772  0.021147221   0.02071171           16 
 2942000   0.76976341   -7.2200688    746.41202  0.021142421  0.020704917           13 
 2943000   0.76169524   -7.2711121    745.23082   0.02110179  0.020698102           16 
 2944000     0.769441   -7.2323449    745.82002    0.0211113  0.020691268           11 
 2945000   0.78519952   -7.2555012    747.17361  0.021142434  0.020684466           23 
 2946000   0.78341921   -7.2109803    748.15372  0.021162981  0.020677715           23 
 2947000    0.7840281   -7.2146473    747.22993  0.021129678  0.020670929            9 
 2948000   0.79331875   -7.2650751    746.65591  0.021106284  0.020664126           19 
 2949000   0.78408965   -7.2452376    748.10491  0.021140073  0.020657325           19 
 2950000   0.78104674   -7.2478236    748.78316  0.021152067  0.020650554           19 
 2951000    0.7862772   -7.2351201    749.21335  0.021157047   0.02064377           45 
 2952000   0.77826535   -7.2471791    745.74164  0.021051876  0.020636985           19 
 2953000   0.77744947   -7.2372881    747.87553  0.021104965  0.020630201            9 
 2954000   0.78102127   -7.2300789    748.35806  0.021111432  0.020623438           12 
 2955000   0.77292329    -7.199455    748.91608  0.021120025  0.020616676            6 
 2956000   0.78841906   -7.2348094    747.24519  0.021065775   0.02060996           14 
 2957000   0.78208918   -7.2271182    746.38746  0.021034479  0.020603204           16 
 2958000   0.78156811   -7.2254947    747.23629  0.021051281  0.020596454           18 
 2959000   0.78359051   -7.2443323    748.76853  0.021087319  0.020589703           12 
 2960000   0.77631566   -7.2467127    748.48202  0.021072129  0.020582932           13 
 2961000   0.78782941    -7.278274      748.295  0.021059749  0.020576155           10 
 2962000   0.78145054   -7.2317412    747.98527  0.021043925  0.020569392           23 
 2963000   0.78158582   -7.2180753     747.0872  0.021011565  0.020562666            6 
 2964000   0.76675449   -7.2419186    748.96118  0.021057163   0.02055599           10 
 2965000   0.76455287    -7.187893    750.06212  0.021081004  0.020549285           12 
 2966000   0.76741563   -7.2280296    747.45038  0.021000517  0.020542572           10 
 2967000   0.76599672   -7.2409798    749.02859  0.021037765  0.020535843           14 
 2968000   0.77773413   -7.2247059     748.2943   0.02101006  0.020529152            9 
 2969000   0.77575027   -7.2538608    749.13889  0.021026689  0.020522424           18 
 2970000   0.78021217   -7.2513153    747.43587  0.020971826  0.020515657            7 
 2971000   0.76444213   -7.2398182    746.86224  0.020948677  0.020508895           13 
 2972000   0.79961456   -7.2476319    746.34326  0.020927077  0.020502121            7 
 2973000   0.77155068    -7.199258    749.77538   0.02101624  0.020495375           14 
 2974000   0.76297724   -7.2292151    750.22658  0.021021816  0.020488644           11 
 2975000   0.77284393   -7.2343832    749.45011     0.020993  0.020481901           10 
 2976000   0.79092096   -7.2371661    748.77157  0.020966946  0.020475146           12 
 2977000    0.7735153   -7.2509421    749.33912   0.02097579  0.020468365           15 
 2978000   0.78380631   -7.2445186    748.00919  0.020931531   0.02046157           12 
 2979000   0.77622942   -7.2461306    748.05227   0.02092571  0.020454807            9 
 2980000   0.76601978    -7.264067    747.15278  0.020893534  0.020448045           20 
 2981000   0.76991623   -7.2578782    746.01958  0.020854847  0.020441253           11 
 2982000   0.77083405   -7.2386141    749.16102  0.020935642  0.020434437           19 
 2983000    0.7754064   -7.2379267    748.06159   0.02089791  0.020427647            6 
 2984000   0.76768393   -7.2468865    747.95977  0.020888063  0.020420833            5 
 2985000   0.79183072   -7.2425043    747.86315  0.020878368  0.020414083           24 
 2986000   0.77372598   -7.2436143    748.17613  0.020880111  0.020407348           22 
 2987000   0.77174628   -7.2307165     749.6431  0.020914047  0.020400589           42 
 2988000   0.76469401   -7.2326911    749.86911  0.020913351  0.020393862           17 
 2989000    0.7652568     -7.22223    748.98075  0.020881587  0.020387105           17 
 2990000   0.77451463   -7.2196714    749.97908  0.020902427  0.020380407           15 
 2991000   0.77535854    -7.234605    749.26606  0.020875573  0.020373693           10 
 2992000    0.7910303   -7.2543449    748.56608    0.0208491  0.020366965           18 
 2993000   0.77060425   -7.2383453    750.10467  0.020884972  0.020360262           23 
 2994000   0.77189155   -7.2725864    746.40048  0.020774897  0.020353514           31 
 2995000   0.75682571     -7.21913    746.44835  0.020769292  0.020346785           20 
 2996000   0.77057174   -7.2223585    750.27313  0.020868745  0.020340056           19 
 2997000   0.77105704   -7.2348161    749.21563  0.020832378  0.020333306           13 
 2998000   0.77531496   -7.2258554    747.56676  0.020779596  0.020326559           24 
 2999000   0.78954485   -7.2755912    747.76292  0.020778118  0.020319805           11 
 3000000   0.76832073   -7.2486974    748.60274   0.02079452  0.020313076           11 
 3001000   0.77110899   -7.2770134     749.2388  0.020805254  0.020306372           12 
 3002000   0.75688696   -7.2499441      749.969  0.020818593  0.020299648           13 
 3003000   0.77621198   -7.2628669    750.84958  0.020836097  0.020292929           13 
 3004000   0.75361025   -7.2205274    749.93195  0.020803705  0.020286194           12 
 3005000   0.77240444   -7.2428699    748.54637  0.020758357  0.020279477           11 
 3006000   0.77495798   -7.2342172    748.04127  0.020737449  0.020272765            9 
 3007000   0.76402836   -7.2429862    748.82448  0.020752258   0.02026604           14 
 3008000   0.76874113   -7.2425228    748.66765  0.020741014  0.020259333           17 
 3009000   0.76652871   -7.2267389    750.45058  0.020783499  0.020252611           28 
 3010000   0.76546887   -7.2624583    746.83898  0.020676605  0.020245896           10 
 3011000   0.76150623   -7.2625686    748.87944  0.020726211  0.020239224           11 
 3012000   0.77908457   -7.2673722    748.99974  0.020722658  0.020232539           13 
 3013000   0.77098416   -7.2415756    749.21412  0.020721709  0.020225845           12 
 3014000   0.77495223    -7.272991    745.77799  0.020619829  0.020219113           25 
 3015000   0.75678765   -7.2760736    748.55479   0.02068974  0.020212394           19 
 3016000   0.75998717   -7.2359979    750.81454  0.020745318  0.020205719           11 
 3017000   0.75031878   -7.2735045    749.99304  0.020715751  0.020199059            7 
 3018000   0.75670616    -7.272411    748.43967  0.020665995  0.020192359           14 
 3019000   0.77293967   -7.2719122    748.26389  0.020654297   0.02018568           15 
 3020000   0.76665551   -7.2793095    748.43814  0.020652267  0.020178978           13 
 3021000   0.75581221   -7.2356781    748.58255  0.020649414  0.020172298            6 
 3022000   0.77172399   -7.2589047    749.17882  0.020659023  0.020165658           10 
 3023000   0.78193943   -7.2410557    750.57701  0.020690733  0.020158976           14 
 3024000   0.77573156   -7.2480543    749.81658  0.020662935  0.020152308            7 
 3025000   0.77184839   -7.2454265    749.12899  0.020637162  0.020145672           13 
 3026000    0.7659462    -7.227865    752.18236  0.020714429   0.02013904           11 
 3027000   0.76719776     -7.25846    751.42816  0.020686823  0.020132435           14 
 3028000   0.76899813   -7.2108395    753.43057  0.020735099  0.020125846            8 
 3029000   0.76503797   -7.2711349    749.59317   0.02062268  0.020119233            8 
 3030000   0.77025309   -7.2518032    751.60779  0.020671281  0.020112628           19 
 3031000   0.76207896   -7.2587558    750.35435      0.02063  0.020105971           22 
 3032000   0.77813487    -7.287772    748.63132  0.020575839  0.020099307           10 
 3033000   0.74652684   -7.2995338    750.14143  0.020610546   0.02009261           47 
 3034000   0.77145803    -7.308877    748.83983  0.020568002  0.020085894           16 
 3035000   0.77501098    -7.271534    750.63684  0.020610567  0.020079192           12 
 3036000   0.75878324     -7.27782     751.5838  0.020629771  0.020072533           10 
 3037000   0.78160552   -7.3090508    749.44558  0.020564306  0.020065874           16 
 3038000   0.78002496   -7.3005292     748.9339  0.020543502  0.020059173           14 
 3039000   0.75634225   -7.2957733    749.41172  0.020549844  0.020052465           24 
 3040000   0.76877004   -7.3015194    750.00752  0.020559417  0.020045791           47 
 3041000   0.75740048   -7.2492395    751.34294  0.020589251  0.020039147           86 
 3042000    0.7524396   -7.2627044    748.40281   0.02050194  0.020032526           11 
 3043000   0.75995262   -7.2847424    751.26438  0.020573567  0.020025894           19 
 3044000   0.76119073   -7.2841749    750.40523  0.020543288  0.020019281           17 
 3045000   0.75752259   -7.2832572    750.75463  0.020546104  0.020012641           15 
 3046000   0.76946807   -7.3090518    748.76829  0.020485015     0.020006           15 
 3047000   0.76913439   -7.2583852    752.08283  0.020568943  0.019999358           46 
 3048000   0.77542286   -7.2753438    750.14414   0.02050919  0.019992722            8 
 3049000    0.7757006   -7.2731674    750.59891  0.020514893  0.019986069           23 
 3050000   0.76911188   -7.2531567     751.7926  0.020540781  0.019979427           23 
 3051000   0.77252602   -7.2705063    751.14413  0.020516337  0.019972777           21 
 3052000   0.75682277   -7.3117826    749.09555  0.020453679  0.019966143           27 
 3053000    0.7728111   -7.2986752    748.90732  0.020441842  0.019959471           13 
 3054000   0.75538941   -7.2778039    750.98676  0.020491889  0.019952855            9 
 3055000    0.7774347   -7.2793895      751.207  0.020491189  0.019946231           13 
 3056000    0.7578753   -7.3005785    748.37081  0.020407145  0.019939579           14 
 3057000   0.75636947    -7.291113    750.15594  0.020449131  0.019932916           20 
 3058000   0.76439695   -7.2972327    750.12954  0.020441725  0.019926293           32 
 3059000   0.76243413   -7.2959106    750.12206  0.020434839  0.019919663           20 
 3060000   0.75749683   -7.3203419    748.84483  0.020393378  0.019912974           35 
 3061000   0.75980552   -7.3139623    750.01408  0.020418547  0.019906284           14 
 3062000   0.76859577   -7.2846808    750.95232  0.020437414   0.01989966           30 
 3063000   0.76838786    -7.298072     749.5296  0.020392034  0.019893003           10 
 3064000   0.77685101   -7.2990483    749.84458  0.020393945  0.019886342           31 
 3065000   0.74658441   -7.2713943    751.71159  0.020438053   0.01987969           37 
 3066000    0.7612987   -7.2845578    751.53014  0.020426455  0.019873052           28 
 3067000   0.76421154   -7.2806284    750.71546   0.02039766  0.019866402           27 
 3068000   0.73869403   -7.2776327    750.46169  0.020384118  0.019859781           11 
 3069000   0.76568877   -7.2848058    753.15774  0.020450683  0.019853137           16 
 3070000   0.75267716   -7.2863977    750.49283  0.020371684   0.01984652           26 
 3071000   0.75446344   -7.2772136    751.01668  0.020379265  0.019839928           23 
 3072000   0.77365909   -7.3098871     751.9129  0.020396943   0.01983332           18 
 3073000    0.7619756   -7.2820783    750.36131  0.020348229  0.019826696            9 
 3074000    0.7805594   -7.3102432    750.67354  0.020350074  0.019820113           20 
 3075000   0.75940589   -7.3043463     751.2175  0.020358198  0.019813539           37 
 3076000   0.76313654    -7.291415    749.96133  0.020317548  0.019806939           12 
 3077000   0.74741978   -7.2992536    749.90085  0.020309307  0.019800337           31 
 3078000   0.76232501   -7.2998658    750.40338  0.020316314  0.019793727           57 
 3079000   0.76022204   -7.3126929    749.58982  0.020287697  0.019787115           31 
 3080000    0.7543792   -7.3159225    750.49202   0.02030552  0.019780473           10 
 3081000   0.74881789   -7.3118134    749.57964  0.020274252  0.019773824           29 
 3082000   0.77039071   -7.2944429    751.63732  0.020323311  0.019767216           27 
 3083000    0.7429585   -7.2917015    751.27472  0.020306917   0.01976057           18 
 3084000   0.77280989   -7.3488436    749.40728  0.020249872  0.019753942           30 
 3085000   0.74820754   -7.3119381    750.08411  0.020261591  0.019747317           18 
 3086000   0.73968117   -7.3185346    753.15095  0.020337842  0.019740698           53 
 3087000   0.75403805   -7.3123962    750.44441  0.020258191  0.019734088           22 
 3088000   0.75434597   -7.3080587    752.44708  0.020305675  0.019727493           10 
 3089000   0.78151046   -7.2881224    750.91117  0.020257666  0.019720905           12 
 3090000   0.74968053   -7.3114181    750.23602  0.020232902  0.019714313           12 
 3091000   0.77311071   -7.2880189    751.26619   0.02025413   0.01970772           12 
 3092000   0.77161443   -7.2902312    752.28095  0.020274929  0.019701152           14 
 3093000   0.75930799   -7.3100641    750.45535  0.020219187   0.01969459            8 
 3094000   0.75467959   -7.2733401    752.24563  0.020260871  0.019688033            9 
 3095000   0.74895423   -7.3081452    749.85759  0.020190027  0.019681494           12 
 3096000    0.7323974   -7.3216026    750.60103  0.020203516  0.019674886            8 
 3097000   0.75898969   -7.3052966    751.92192  0.020232535  0.019668312           13 
 3098000   0.77065606   -7.3032079    750.76044  0.020194761  0.019661743           12 
 3099000   0.76592254    -7.305199     752.1207  0.020224822  0.019655222           19 
 3100000     0.760318   -7.3011179      752.526  0.020229194  0.019648688           17 
 3101000   0.74718386   -7.3097393    752.62507  0.020225332  0.019642142           13 
 3102000   0.76799928   -7.2829033    754.59955  0.020271855  0.019635614           16 
 3103000   0.77685529   -7.2946544    751.51546  0.020182497  0.019629079           18 
 3104000   0.76728876   -7.2945539    753.26818   0.02022305  0.019622552           20 
 3105000   0.76505297     -7.32728     751.6236  0.020172399  0.019616046           21 
 3106000   0.75367025   -7.2919112     752.6075  0.020192303  0.019609518           14 
 3107000   0.74617603   -7.3099119    749.85362  0.020111941  0.019602989           15 
 3108000   0.74719605   -7.2957727    751.44074  0.020148025  0.019596448           16 
 3109000   0.75412437   -7.3122842    751.39353  0.020140279  0.019589941           18 
 3110000   0.75731641   -7.3265035    751.67819  0.020141431  0.019583404           31 
 3111000   0.76074717   -7.3171987    750.11724  0.020093144  0.019576857           17 
 3112000   0.74450716   -7.3344801    752.03705  0.020138096    0.0195703           26 
 3113000   0.76983531   -7.3474086    751.97014  0.020129836  0.019563729           22 
 3114000   0.75298969   -7.3224512    753.91876  0.020175518  0.019557158           17 
 3115000   0.73408061   -7.3404596    750.55755  0.020079121  0.019550596           23 
 3116000   0.74098742   -7.3680839     750.9014  0.020081873  0.019543996           23 
 3117000   0.74121623    -7.343298    751.36313  0.020087775   0.01953744           27 
 3118000   0.74254033   -7.3334578    751.22454  0.020077628  0.019530898           39 
 3119000   0.76583895    -7.328043    750.50758  0.020052035  0.019524373           12 
 3120000   0.76652727   -7.3087476    749.69728  0.020023966   0.01951785            8 
 3121000   0.74760561   -7.3383765    751.25683  0.020059191  0.019511314           23 
 3122000   0.76747675    -7.325449    751.72621  0.020065295  0.019504814           23 
 3123000   0.76993083   -7.2967983    755.21143  0.020151869  0.019498335           55 
 3124000   0.75292865   -7.3329965    752.03208  0.020060608  0.019491831           42 
 3125000   0.75163719   -7.3201359     752.2298  0.020059461  0.019485309           12 
 3126000   0.74696073   -7.3100795    752.20465  0.020052374  0.019478809           21 
 3127000   0.75896642   -7.3140639    750.91833  0.020011681  0.019472297           51 
 3128000   0.75125458   -7.3528486    751.13358  0.020011018  0.019465755           36 
 3129000   0.74166295   -7.3109219    751.15695  0.020005245  0.019459244           36 
 3130000   0.75673967   -7.3173604     751.5743  0.020009965   0.01945271           39 
 3131000   0.75457355   -7.3241847    752.67556  0.020032885   0.01944619           23 
 3132000   0.74223531   -7.3343312    751.82632  0.020003893  0.019439652           20 
 3133000   0.75072709   -7.3267433    752.63728  0.020019079  0.019433128           19 
 3134000   0.75189199   -7.2899317    753.43031  0.020033778  0.019426617           19 
 3135000   0.75396227    -7.312202    752.49301  0.020002472  0.019420135           16 
 3136000   0.75259314   -7.2954374    752.23678  0.019989285  0.019413659           26 
 3137000   0.73874561   -7.3061664     752.5401  0.019990971  0.019407191           19 
 3138000   0.75362867   -7.2831895    756.07419  0.020078452  0.019400772           19 
 3139000   0.75061559    -7.306465    752.34042  0.019972932  0.019394335           26 
 3140000   0.72938615   -7.3234268    752.66046  0.019975065  0.019387891           27 
 3141000   0.74305418   -7.2837642    752.77626  0.019971778  0.019381439           19 
 3142000   0.74552872   -7.2901865    754.71217  0.020016767  0.019374998           19 
 3143000   0.73860374   -7.3002994    754.04092  0.019992601  0.019368582           23 
 3144000   0.74077661   -7.3333974    753.64054  0.019975629  0.019362151           42 
 3145000   0.74803474   -7.3245167    752.56477  0.019940773  0.019355715           29 
 3146000   0.74634293   -7.3436223    752.90221  0.019943373  0.019349266           15 
 3147000   0.75357731   -7.3502008    751.49329  0.019899727  0.019342798           24 
 3148000   0.74437137   -7.3568997    751.84304  0.019902664  0.019336319           22 
 3149000   0.76264019   -7.3149233    753.21263  0.019932588  0.019329839           16 
 3150000   0.74941632   -7.3195265    753.42701  0.019931931  0.019323389           13 
 3151000   0.74607153   -7.3461882    751.62677  0.019877996  0.019316931           13 
 3152000   0.72531827   -7.3351533    754.65798  0.019951829  0.019310464            9 
 3153000     0.733334   -7.3282027    752.28022  0.019882657   0.01930401           21 
 3154000   0.74742862   -7.3289223    752.85215  0.019891465  0.019297561           13 
 3155000   0.73540515   -7.3324422    752.80149  0.019883822  0.019291089           15 
 3156000   0.75573154   -7.3270602    752.52802    0.0198703  0.019284638           21 
 3157000   0.73719799   -7.3273758    753.22637   0.01988244  0.019278206           32 
 3158000   0.74918216    -7.328308    754.72711  0.019915746  0.019271772           30 
 3159000   0.75368899   -7.3374564    752.85624  0.019860089  0.019265325           23 
 3160000   0.74295372   -7.3529269    752.92299  0.019855564  0.019258855           23 
 3161000   0.76131532   -7.3438658    753.82686  0.019873111  0.019252396           33 
 3162000   0.73513467   -7.3286649    753.49856  0.019858174  0.019245936           11 
 3163000   0.74653557   -7.3420984    754.56612  0.019880022  0.019239479           46 
 3164000   0.74573591   -7.3205662    754.36221  0.019868368  0.019233042           17 
 3165000   0.75251584   -7.3375176    754.37158  0.019862338  0.019226608           33 
 3166000    0.7422248   -7.3391962    752.04179  0.019794741  0.019220164           21 
 3167000    0.7368816   -7.3492126    752.52549  0.019801218    0.0192137           16 
 3168000   0.75066192   -7.3169446    752.76202   0.01980119  0.019207261           18 
 3169000   0.72874589   -7.3473481    752.57982   0.01979015  0.019200832           22 
 3170000   0.74891002   -7.3604853    752.13034  0.019772091  0.019194373           13 
 3171000   0.75074595   -7.3472174    751.65844  0.019753454  0.019187871           16 
 3172000   0.74454497   -7.3477335    754.17736  0.019813403  0.019181384           11 
 3173000   0.75388254   -7.3371945    752.09469   0.01975246   0.01917493           14 
 3174000    0.7480312   -7.3557352     752.2289  0.019749761  0.019168479           17 
 3175000    0.7417947   -7.3623282    752.84521  0.019759717  0.019162044           15 
 3176000   0.73882495   -7.3214558    750.96755  0.019704228   0.01915562           16 
 3177000   0.75105419   -7.3388927      753.301  0.019759233  0.019149163           14 
 3178000   0.73707805   -7.3504338    754.43297  0.019782698  0.019142734           12 
 3179000   0.76021151   -7.3388774    754.32209  0.019773569    0.0191363           15 
 3180000   0.74292624   -7.3423688      753.976  0.019758281  0.019129893           15 
 3181000   0.76379137   -7.3375165    754.76853  0.019772832  0.019123497           23 
 3182000   0.72394255    -7.376895    752.93731   0.01971866  0.019117044           20 
 3183000   0.73537103   -7.3365368    753.79382  0.019734889  0.019110625           21 
 3184000   0.73969168   -7.3635906    752.49044  0.019694578  0.019104183           28 
 3185000   0.75623798   -7.3723183    752.89753  0.019699046  0.019097748           21 
 3186000   0.73449435    -7.353072    751.91764  0.019667233  0.019091291           12 
 3187000   0.73640583    -7.330457    753.77972  0.019709751  0.019084846           16 
 3188000   0.74611633   -7.3779654    752.24361  0.019663415  0.019078383           18 
 3189000   0.73587179   -7.3602747    751.33076  0.019633395  0.019071944            9 
 3190000   0.74623388   -7.3716888    753.25648  0.019677546  0.019065485           17 
 3191000   0.74352451   -7.3581044    751.02387  0.019613075  0.019059025           26 
 3192000   0.73353902   -7.3382546    752.78522  0.019652914  0.019052588           22 
 3193000   0.73164254   -7.3976588    751.20896  0.019605621  0.019046151           41 
 3194000   0.73521741   -7.3824029    752.35933  0.019629496  0.019039656           36 
 3195000   0.71759958   -7.3621146    752.19153  0.019618976  0.019033186           26 
 3196000   0.74612023   -7.3844115    753.91862   0.01965787  0.019026728           27 
 3197000   0.74290843   -7.3664065    752.78057  0.019622056  0.019020279           24 
 3198000   0.73147613   -7.3660809    753.43772  0.019633045  0.019013837           42 
 3199000   0.74797841   -7.3666808    752.53256  0.019603328  0.019007405           22 
 3200000   0.74009819   -7.3335564    751.67879  0.019574968  0.019001027           25 
 3201000   0.76136734   -7.3464846    751.79034  0.019571757   0.01899465           56 
 3202000   0.74834172   -7.3467761    753.06102  0.019598715  0.018988287          108 
 3203000   0.72696422   -7.3521477    754.70412  0.019635345  0.018981886           54 
 3204000   0.75947983   -7.3589513    754.89636  0.019634217   0.01897549           39 
 3205000   0.73037542    -7.360147    753.87079  0.019601425  0.018969105           49 
 3206000   0.74449531   -7.3602912    753.66655  0.019590002  0.018962707           84 
 3207000   0.73049779   -7.3315595    754.91323  0.019616288  0.018956326           59 
 3208000   0.72376299   -7.3666436    754.48198  0.019598971  0.018949951           35 
 3209000   0.72826056   -7.3489572    753.12307  0.019557574  0.018943578           22 
 3210000   0.73875855   -7.3706251    752.67269  0.019539789  0.018937183           61 
 3211000   0.74035372   -7.3849908    751.40717  0.019500861  0.018930757           62 
 3212000   0.73557258   -7.3236595    752.83134  0.019531739  0.018924359           55 
 3213000   0.73467892   -7.3648687    753.25614  0.019536677  0.018917963           33 
 3214000   0.73394464   -7.3453683    753.74068  0.019543162  0.018911554           34 
 3215000   0.73595925    -7.378678    750.74039  0.019459316  0.018905127           56 
 3216000   0.74387364   -7.3620991    752.95358  0.019510613  0.018898688           42 
 3217000   0.75436773   -7.3523569    752.32699  0.019488317  0.018892247           78 
 3218000   0.72866724   -7.3409116    754.23288  0.019531616  0.018885818           39 
 3219000   0.73094008   -7.3630195    752.15319  0.019471709  0.018879407           82 
 3220000   0.74697263   -7.3799082    753.23491  0.019493657   0.01887301           27 
 3221000    0.7540784   -7.3698745    753.87095  0.019504061  0.018866633           42 
 3222000   0.74734383   -7.3695081    753.09592  0.019477962  0.018860256           26 
 3223000   0.74260391   -7.3477934     753.8982  0.019492662  0.018853866           38 
 3224000   0.73713699   -7.3827244    753.34761  0.019472384  0.018847482           37 
 3225000   0.74422397   -7.3585002    753.42269  0.019468287  0.018841087           44 
 3226000   0.74964164   -7.3400778    753.51224  0.019464565  0.018834732           55 
 3227000   0.73271591   -7.3680172    753.75256  0.019464739  0.018828369          102 
 3228000   0.73063582   -7.3296979    753.37932  0.019449074  0.018822025           37 
 3229000   0.72491297   -7.3670645    752.49013  0.019420103  0.018815643           67 
 3230000   0.73810671   -7.3967138     753.2773  0.019434399  0.018809262           25 
 3231000   0.73938021   -7.3778389    754.41523  0.019457733  0.018802882           34 
 3232000   0.74419032   -7.3514075    753.81234  0.019436168  0.018796542           20 
 3233000   0.72240911     -7.35317    751.52395  0.019371171  0.018790189           22 
 3234000    0.7460848   -7.3799657    755.23988  0.019460933  0.018783814           72 
 3235000   0.72007256   -7.3648477    752.20494  0.019376737  0.018777438           35 
 3236000   0.73662726   -7.3866508    754.31795  0.019425164  0.018771075           33 
 3237000   0.73095368   -7.4051614    752.14767  0.019363291  0.018764672           40 
 3238000   0.73951313   -7.3654053    754.04433  0.019406123  0.018758294           20 
 3239000   0.73517583   -7.3753428    752.50534  0.019360537  0.018751909           19 
 3240000   0.73791712   -7.3956978     753.0894  0.019369583   0.01874551           32 
 3241000   0.74788158   -7.3754401    753.69273   0.01937912  0.018739127           26 
 3242000   0.74047207   -7.3966198    753.92689  0.019379161  0.018732756           21 
 3243000   0.73241726   -7.3841524    751.31182  0.019305988  0.018726398           47 
 3244000   0.72710024   -7.3837203    753.23713  0.019349495  0.018720041           38 
 3245000   0.72308839   -7.3812349    750.78414  0.019280538  0.018713661           31 
 3246000   0.72663696   -7.3819002    752.71097  0.019324065   0.01870728           66 
 3247000   0.73052138   -7.3551633    754.07008  0.019352995  0.018700922           91 
 3248000   0.73791358   -7.3645972    752.61238  0.019309636  0.018694564           74 
 3249000   0.73299781   -7.3729754    753.35974  0.019322862  0.018688188           88 
 3250000   0.73181698   -7.3975579    752.25994  0.019288717    0.0186818           38 
 3251000   0.72594376   -7.4071862    752.88695  0.019298855  0.018675395           51 
 3252000   0.73267323   -7.4055422    751.85985  0.019266601  0.018668981           41 
 3253000   0.73824043   -7.4212386    751.38199  0.019248437  0.018662576           42 
 3254000   0.72028716   -7.3953016    752.68208  0.019275816   0.01865617           39 
 3255000   0.71962072   -7.4144676    752.56269  0.019266838  0.018649756           30 
 3256000   0.72428435   -7.4007364    753.03595  0.019273033  0.018643367           29 
 3257000   0.73230769   -7.4195949    750.71798  0.019207808  0.018636973           35 
 3258000   0.72764904   -7.4102769    752.76655  0.019254311  0.018630569           38 
 3259000   0.73482775   -7.4098993    751.56315  0.019217632  0.018624192           83 
 3260000   0.73677232   -7.4078943    750.55173  0.019185883  0.018617813           28 
 3261000    0.7258826   -7.4226858    749.77857  0.019160242  0.018611392           60 
 3262000   0.75051711   -7.4173188    752.81358  0.019231902  0.018604982           25 
 3263000   0.73121572   -7.3983996    753.48079  0.019243048  0.018598589           46 
 3264000   0.72348396   -7.3882023    752.77546  0.019219145  0.018592226           29 
 3265000   0.73745941   -7.3880304    751.14963  0.019171762  0.018585879           28 
 3266000   0.72440179   -7.4266137    752.22365  0.019193296  0.018579509           12 
 3267000   0.74764774   -7.4139404    750.68015   0.01914805  0.018573132           33 
 3268000   0.72830516   -7.3954549     751.2214  0.019155992  0.018566724           46 
 3269000   0.73220658   -7.4123346    752.97025  0.019194714  0.018560316           31 
 3270000   0.72400272   -7.4076572    751.90633  0.019161731  0.018553905           25 
 3271000   0.72850314   -7.4275313    750.71473  0.019125515  0.018547515           84 
 3272000   0.73627419   -7.4439178    751.74906  0.019146013  0.018541111           42 
 3273000   0.71911167   -7.4208477    752.92717  0.019170159  0.018534695           46 
 3274000   0.73092135   -7.3962886    753.78542  0.019186149   0.01852825           69 
 3275000   0.73166684   -7.4164366    750.23128  0.019089854  0.018521828           77 
 3276000     0.735656   -7.4433514     751.0374  0.019104533  0.018515425           71 
 3277000     0.727204   -7.4384184    751.32584  0.019106038  0.018509039           71 
 3278000   0.72932423   -7.4131821    754.11756  0.019171181   0.01850265           45 
 3279000   0.73966293   -7.4222874    753.55831  0.019151121  0.018496272           52 
 3280000   0.72678412   -7.4080807    753.81225  0.019151734  0.018489927           59 
 3281000   0.73224646   -7.4304322    751.68794  0.019091942  0.018483549           59 
 3282000   0.74517196    -7.409768    752.32797  0.019102376  0.018477183           30 
 3283000   0.73833168   -7.4183194     751.5215  0.019076086  0.018470816           77 
 3284000   0.71870469   -7.4103103    751.99136  0.019082201  0.018464417           66 
 3285000   0.73822375   -7.4286171    749.29585  0.019008012  0.018458029           68 
 3286000   0.72560942   -7.3851453    754.41429  0.019132032   0.01845165           62 
 3287000   0.72795625   -7.4065796    753.31763  0.019098409  0.018445312           45 
 3288000   0.73436447   -7.4293997    752.20705  0.019064453  0.018438929           73 
 3289000   0.73746398   -7.4005947    753.43641  0.019089805  0.018432567           61 
 3290000   0.70272067   -7.4433614    750.42635   0.01900776  0.018426199           85 
 3291000   0.71992648    -7.403163    751.09811  0.019018994  0.018419831           73 
 3292000   0.72615563   -7.4230067    752.42181  0.019046725  0.018413458          102 
 3293000   0.72361034   -7.4243413    753.12649  0.019058773  0.018407082          146 
 3294000   0.73568363   -7.4173557    751.59032  0.019014125  0.018400711          101 
 3295000   0.72069148   -7.4028056    753.40487  0.019054245  0.018394376           76 
 3296000   0.71545687   -7.4170635    753.18561  0.019042921  0.018388008           42 
 3297000   0.72213984   -7.3687168    753.49389  0.019044937  0.018381677          104 
 3298000   0.72167049   -7.4232686    753.85582  0.019048308  0.018375382           80 
 3299000   0.71300982   -7.4129294    751.79747  0.018990539  0.018369063           74 
 3300000   0.71723088   -7.4030451     752.2387  0.018995927  0.018362728           92 
 3301000   0.72043835   -7.3963126    752.03695  0.018985079  0.018356386          102 
 3302000   0.71853004   -7.4118243    752.71887  0.018996539  0.018350036           97 
 3303000   0.73067868   -7.4179149     751.2741  0.018954337    0.0183437           80 
 3304000   0.72968759   -7.4099893    753.14606  0.018995815   0.01833735          136 
 3305000   0.72884225   -7.4089032    753.10559  0.018989047  0.018331016           61 
 3306000   0.72985432   -7.4141722    752.24397  0.018961584  0.018324662           86 
 3307000   0.72416134   -7.4348153    750.86486  0.018921098  0.018318329          111 
 3308000   0.74284953   -7.4264442    751.42378  0.018929458  0.018311983          126 
 3309000   0.71145213   -7.4321681    751.63194   0.01892898  0.018305638          115 
 3310000   0.70309902   -7.4278418    750.41179  0.018892543  0.018299283          151 
 3311000   0.71598892   -7.4183511     751.4368  0.018912635  0.018292951          180 
 3312000   0.72166115   -7.4292644    752.83384  0.018942075  0.018286606          120 
 3313000   0.72596274    -7.426855    751.74587  0.018908992  0.018280269          177 
 3314000   0.72122869   -7.4296123    752.55039  0.018923516  0.018273928          167 
 3315000   0.72146117   -7.4013158    754.26227  0.018960841  0.018267605          101 
 3316000   0.72355256   -7.4590404    751.48288  0.018885275  0.018261267          174 
 3317000    0.7129987   -7.4219139    753.27341  0.018924566   0.01825493          168 
 3318000   0.70191906   -7.4598827    751.32449  0.018869914  0.018248595          215 
 3319000   0.72832302   -7.4409209    752.00334  0.018881273  0.018242253          196 
 3320000   0.72786371   -7.4508483    750.46001  0.018836848  0.018235901          199 
 3321000   0.70683022   -7.4250508    751.66451    0.0188614   0.01822957          183 
 3322000   0.71890001   -7.4168445    752.71608  0.018882101  0.018223249          215 
 3323000   0.73455844   -7.4186292    751.94813   0.01885716  0.018216925          214 
 3324000   0.72107509   -7.4166652    752.20924  0.018858034  0.018210607          174 
 3325000   0.71481369   -7.4523074    751.30423   0.01882968  0.018204273          227 
 3326000    0.7265721   -7.4349838    750.72185  0.018809427  0.018197946          167 
 3327000   0.73710507   -7.4460621    750.58158   0.01880026  0.018191636          239 
 3328000   0.72261935   -7.4053184    753.36097  0.018864207  0.018185332          258 
 3329000   0.72197643   -7.4591911    750.01191  0.018774705  0.018179024          231 
 3330000   0.72242286   -7.4428824    752.81757  0.018839279  0.018172706          260 
 3331000   0.72946434   -7.4496135    751.75038  0.018806924  0.018166374          219 
 3332000   0.71841034   -7.4606768    749.87851  0.018754465  0.018160036          299 
 3333000   0.72240595   -7.4283336    752.18761  0.018806571  0.018153723          133 
 3334000   0.71207061   -7.4199062    752.62823  0.018811943  0.018147426          164 
 3335000   0.73496825   -7.4343328    753.11315  0.018818419  0.018141101          216 
 3336000   0.72534013   -7.4373196     752.3983  0.018794922  0.018134775          182 
 3337000    0.7265008   -7.4384082    750.54517  0.018743012  0.018128452          237 
 3338000   0.72820449    -7.418346     752.4686  0.018785415   0.01812213          117 
 3339000   0.69954032   -7.4583613    751.97996  0.018767594  0.018115833          258 
 3340000   0.71859119    -7.459033    752.07309  0.018764299  0.018109523          196 
 3341000   0.70829048   -7.4812841     750.7742  0.018726285  0.018103216          186 
 3342000   0.71715736   -7.4601829    749.87591  0.018698282   0.01809687          123 
 3343000   0.71375802   -7.4592109    752.67619  0.018762494  0.018090558          214 
 3344000   0.70840754   -7.4243687    752.44927  0.018751228  0.018084241           82 
 3345000   0.73300962   -7.4455604    751.01379   0.01870986  0.018077951          149 
 3346000   0.70476219   -7.4513765     753.6543  0.018770031  0.018071658          228 
 3347000    0.7140694   -7.4634667    751.58007  0.018712779  0.018065332          217 
 3348000   0.70956224   -7.4556665    751.44395  0.018703802  0.018059007          120 
 3349000   0.71122018   -7.4852819     752.3015  0.018719555  0.018052693           92 
 3350000   0.71292534   -7.4625671    751.84347  0.018702574  0.018046394          169 
 3351000   0.70469132   -7.4369877    752.41467  0.018711197  0.018040096          192 
 3352000   0.73240808   -7.4538278    751.04217  0.018671494  0.018033834          128 
 3353000   0.71967788   -7.4228699    752.38068  0.018699192  0.018027562          165 
 3354000   0.72303107   -7.4603486    753.10545  0.018711624  0.018021285          230 
 3355000   0.72362962   -7.4663499     751.2635  0.018660296  0.018014995          170 
 3356000   0.71278166   -7.4767478    749.14042  0.018602017  0.018008689          166 
 3357000   0.72194415   -7.4651904    752.85685  0.018688731  0.018002371          206 
 3358000   0.70562465   -7.4495021    750.89651  0.018634517  0.017996076          187 
 3359000   0.70885784   -7.4708278    750.35162  0.018615451  0.017989768          259 
 3360000   0.71167629   -7.4660279    749.76719  0.018595416  0.017983438          154 
 3361000   0.71048929   -7.4722909    750.49541  0.018607939  0.017977136          235 
 3362000   0.70657092   -7.4555275    751.94836  0.018638418  0.017970823          204 
 3363000   0.69602187   -7.4716389    750.60742  0.018599649  0.017964532          238 
 3364000   0.69980958   -7.4766738    748.93223  0.018552622  0.017958218          212 
 3365000   0.71943604   -7.4949808    749.91482  0.018571442  0.017951907          243 
 3366000   0.72990029   -7.4865222    752.41791  0.018627894  0.017945596          243 
 3367000   0.70819429   -7.4884997    749.99034  0.018562279  0.017939294          247 
 3368000    0.7097568   -7.4909499    751.48105  0.018593652   0.01793299          309 
 3369000   0.72147661     -7.47775    750.25671  0.018557849  0.017926708          299 
 3370000   0.69859687   -7.4632445    752.54212  0.018608856   0.01792042          210 
 3371000    0.7028983   -7.4359143    751.39984  0.018575097  0.017914141          284 
 3372000    0.7032571   -7.4581374    749.41287  0.018520484  0.017907858          210 
 3373000     0.696695   -7.4838768    750.99494   0.01855408  0.017901593          270 
 3374000    0.7392468   -7.4544634    751.02238  0.018549259  0.017895309          294 
 3375000   0.72247953   -7.4711315    751.51834  0.018556008  0.017889017          346 
 3376000    0.7207715    -7.480017    751.51795  0.018550502  0.017882726          324 
 3377000   0.70832732    -7.495434    750.03543  0.018508425  0.017876448          389 
 3378000   0.71035256   -7.4721855     749.6283  0.018492903  0.017870187          326 
 3379000   0.69875553    -7.484359    752.25009  0.018552089  0.017863919          282 
 3380000   0.72197439   -7.4816036    750.87303  0.018512649  0.017857656          317 
 3381000   0.72287962   -7.4599816    753.77426  0.018578681    0.0178514          312 
 3382000   0.71343653    -7.464313    752.60017  0.018544258  0.017845153          327 
 3383000   0.71415975   -7.4656767    750.77684  0.018493862  0.017838921          248 
 3384000   0.70810143   -7.4679733    752.46716  0.018530023  0.017832685          172 
 3385000   0.72198446   -7.4930329    750.24923  0.018469947  0.017826469          252 
 3386000   0.71097855   -7.4565081    751.14139  0.018486449  0.017820244          286 
 3387000   0.70735267    -7.472645    750.47484  0.018464591  0.017813986          263 
 3388000   0.73017059   -7.5139375    750.84741  0.018468305  0.017807744          289 
 3389000      0.70555   -7.4559091    751.48202   0.01847846  0.017801495          310 
 3390000   0.71755359   -7.4901462    750.26827  0.018443173  0.017795248          259 
 3391000   0.71066112    -7.508735    750.35585  0.018439886     0.017789          303 
 3392000   0.71036205   -7.4974341    750.96079  0.018449312  0.017782771          346 
 3393000     0.710878   -7.4752342    749.79625  0.018415273  0.017776546          337 
 3394000   0.70741142   -7.4805032    751.45311  0.018450528  0.017770322          303 
 3395000   0.72773439   -7.4707676    752.41433  0.018468688  0.017764099          375 
 3396000   0.69783823   -7.4938638    751.24807  0.018434631  0.017757881          353 
 3397000   0.71476315   -7.5168516    752.17323  0.018451899  0.017751641          278 
 3398000   0.72056005   -7.4873808    751.07241  0.018419472  0.017745408          397 
 3399000   0.70615415   -7.4684588    751.78922  0.018431627  0.017739192          394 
 3400000   0.71349979   -7.5050244    750.83597  0.018402842  0.017732963          387 
 3401000   0.70857097   -7.4713821     750.6497  0.018392867  0.017726736          445 
 3402000   0.69990692   -7.5011744    749.89814  0.018369051  0.017720491          482 
 3403000   0.69484914   -7.4852223    752.15883  0.018419013  0.017714262          401 
 3404000   0.72343918   -7.4929866    751.57632  0.018399342  0.017708026          388 
 3405000   0.71657603   -7.5025796    750.51462  0.018367954   0.01770177          374 
 3406000   0.70726405   -7.5238844    750.55988  0.018363669  0.017695518          352 
 3407000   0.69954164   -7.5101383    749.83062  0.018340442  0.017689286          459 
 3408000   0.70262479   -7.5002061    751.24651  0.018369682  0.017683071          528 
 3409000   0.70813175   -7.4967143    751.04663  0.018359407  0.017676819          398 
 3410000   0.70497042   -7.4729167    750.52894  0.018341372  0.017670582          469 
 3411000   0.70295801   -7.4529596     752.0879  0.018374081  0.017664357          404 
 3412000   0.70869928   -7.4956935    752.04356  0.018367613  0.017658134          439 
 3413000   0.71219212   -7.5066669    749.98741  0.018312028  0.017651912          549 
 3414000   0.70740757   -7.4883923    752.83726  0.018376227  0.017645691          450 
 3415000   0.70583638   -7.4693465    752.41568  0.018360558    0.0176395          500 
 3416000   0.69810018   -7.4910689    752.37414   0.01835417  0.017633325          493 
 3417000   0.71169338    -7.489383    751.23338  0.018320978  0.017627151          515 
 3418000   0.69023381   -7.4818287    751.26223  0.018316321  0.017620954          523 
 3419000   0.71984223    -7.495579    752.86001  0.018349908  0.017614781          518 
 3420000   0.69352415   -7.4694586    753.81067  0.018367706  0.017608615          422 
 3421000   0.70572633   -7.4880243    752.03298  0.018319034  0.017602449          458 
 3422000   0.70972166   -7.4920654    751.28972   0.01829558  0.017596268          466 
 3423000   0.70056431   -7.4814557    752.50647  0.018319858  0.017590082          526 
 3424000   0.70973401   -7.5125077    750.04042  0.018254488  0.017583903          500 
 3425000   0.70903232    -7.496313    750.70739  0.018265387  0.017577695          482 
 3426000   0.70674785   -7.5053524    750.13684  0.018246177  0.017571482          601 
 3427000   0.70269861   -7.4983194    750.85846    0.0182584  0.017565271          613 
 3428000    0.7086396   -7.5361205    749.41204  0.018217912  0.017559044          602 
 3429000   0.70502725   -7.5154365    749.85277   0.01822331  0.017552849          573 
 3430000   0.71104234   -7.4795591    751.77472  0.018264692  0.017546654          550 
 3431000   0.69617941   -7.5189875    748.93978  0.018190512  0.017540464          566 
 3432000   0.70986611   -7.4941323    750.88589  0.018232466  0.017534285          655 
 3433000   0.68211143    -7.487282    752.22069  0.018259557  0.017528113          598 
 3434000   0.71030249   -7.5046244      750.305  0.018207751  0.017521936          621 
 3435000   0.68842016    -7.496908    751.37273  0.018228354  0.017515743          645 
 3436000   0.68537948    -7.537197    749.52808   0.01817831   0.01750956          743 
 3437000   0.70073009   -7.5222649    750.08791  0.018186595  0.017503377          740 
 3438000   0.72513689   -7.5139305    750.70682  0.018196307  0.017497182          699 
 3439000   0.69997458   -7.4922772    749.82078  0.018169545  0.017490981          755 
 3440000   0.71166383    -7.520743    750.79472  0.018187857  0.017484782          816 
 3441000   0.70545968   -7.4988138    751.95941  0.018210777   0.01747858          857 
 3442000   0.70275747   -7.5264115    749.40647  0.018143678  0.017472371          844 
 3443000   0.71034052   -7.5185672    750.60171  0.018167337  0.017466162          814 
 3444000   0.69614063    -7.561339    748.17802  0.018103417   0.01745995          823 
 3445000   0.70454387   -7.5414397    749.28297   0.01812489  0.017453744          864 
 3446000   0.70936499   -7.5315688    748.80734  0.018108129  0.017447528          867 
 3447000    0.6951185   -7.5530678    750.76261  0.018150145  0.017441317          932 
 3448000    0.6960873   -7.5567476    748.49781  0.018090144    0.0174351          983 
 3449000   0.68824915   -7.5595619    750.89044  0.018142709  0.017428889          994 
 3450000   0.68548776   -7.5150475    750.68639  0.018132522  0.017422677          996 
 3451000   0.69629724   -7.5278626    749.12815  0.018089639   0.01741645         1064 
 3452000   0.70835869   -7.5476526     749.2974  0.018088485  0.017410223          969 
 3453000   0.71039837   -7.5527968    749.69627  0.018092873  0.017403998          962 
 3454000   0.69305702   -7.5543567    749.36073  0.018079539  0.017397748          996 
 3455000   0.70105622   -7.5859732    748.51577  0.018053926  0.017391522         1038 
 3456000   0.71512471   -7.5709402    748.29663  0.018043418  0.017385275         1101 
 3457000   0.71281436   -7.5541103    748.50062  0.018043116  0.017379049         1047 
 3458000   0.68686472   -7.5544285    750.30835  0.018081462  0.017372834          998 
 3459000   0.70128621   -7.5752107    748.82736  0.018040555   0.01736663         1119 
 3460000   0.70568507   -7.5530203    750.78157  0.018082408  0.017360426         1019 
 3461000   0.69995834   -7.5705738    747.51824  0.017998609  0.017354195         1151 
 3462000   0.70335254   -7.5379549    750.14153  0.018056555  0.017347986         1134 
 3463000    0.6942932   -7.5421193    749.00119    0.0180239  0.017341763         1148 
 3464000   0.68369444   -7.5724758    748.37405   0.01800361  0.017335549         1135 
 3465000   0.69933193   -7.5688128    746.64034  0.017956718  0.017329331         1167 
 3466000   0.70484381    -7.582825     748.7089  0.018001272  0.017323115         1192 
 3467000   0.69615163   -7.5818831    749.07499  0.018004879  0.017316903         1170 
 3468000   0.68943887    -7.560473    748.14115  0.017977248  0.017310666         1303 
 3469000   0.69958844   -7.5874523    748.90575  0.017990433  0.017304447         1241 
 3470000   0.68372764   -7.5802754    747.23985  0.017945241  0.017298216         1261 
 3471000   0.70303207   -7.6091405    746.56441  0.017923855  0.017291985         1329 
 3472000   0.69422213   -7.5828242    749.39986  0.017986748  0.017285748         1320 
 3473000   0.69788649   -7.5927335    746.85158  0.017920424  0.017279503         1367 
 3474000   0.70409532   -7.5979011    746.10254  0.017897298  0.017273256         1495 
 3475000   0.70423879   -7.5986467    747.99526  0.017937536  0.017267012         1377 
 3476000   0.70633237   -7.5923717    747.21346  0.017913633  0.017260767         1494 
 3477000   0.68564343   -7.5717097    748.09647  0.017929644  0.017254534         1424 
 3478000   0.69871849   -7.5855908    746.11886  0.017877105  0.017248295         1453 
 3479000   0.68956417   -7.5972355    747.24826  0.017899019  0.017242055         1447 
 3480000   0.69756778   -7.6165914    747.74768  0.017905835  0.017235826         1358 
 3481000   0.69897483   -7.6249513    745.97472  0.017858248  0.017229581         1433 
 3482000   0.68845475   -7.5956789    746.25761  0.017859889  0.017223346         1465 
 3483000   0.69917658   -7.5896182    746.79197  0.017867547  0.017217102         1368 
 3484000   0.71065728   -7.5984116    748.24142  0.017897087   0.01721086         1388 
 3485000   0.70486297   -7.5928436    747.50214  0.017874274  0.017204629         1466 
 3486000   0.71147186   -7.5921369    747.71007  0.017874117  0.017198402         1523 
 3487000    0.7131835   -7.5958589    746.72856  0.017845535  0.017192172         1577 
 3488000   0.69171492   -7.6114793    747.87448  0.017867796   0.01718594         1511 
 3489000   0.70309203   -7.5877527    747.67573  0.017857928  0.017179698         1553 
 3490000   0.70360518   -7.6078031    748.77669    0.0178791  0.017173464         1602 
 3491000   0.69739843   -7.6076044      747.469  0.017842762  0.017167194         1560 
 3492000   0.69829996   -7.6076529    746.83856  0.017822608  0.017160945         1620 
 3493000   0.68596016   -7.6063734    747.12633  0.017824371  0.017154713         1600 
 3494000   0.69422261    -7.635268    747.28068  0.017822951  0.017148488         1579 
 3495000   0.68578852   -7.6448174    745.78223  0.017782123  0.017142249         1646 
 3496000   0.68902557   -7.6528351    746.34758  0.017790513  0.017136014         1717 
 3497000   0.70148757   -7.6450998    745.28321  0.017760061  0.017129766         1748 
 3498000   0.68736857   -7.6470488    744.50768  0.017736509  0.017123513         1848 
 3499000   0.70189498   -7.6229525     747.5671  0.017804304  0.017117246         1778 
 3500000   0.68844206   -7.6529313    745.61886   0.01775283  0.017110988         1827 
 3501000   0.68281733   -7.6512671    745.79089  0.017751854  0.017104738         1793 
 3502000    0.6901395   -7.6673809    746.00027  0.017751767   0.01709848         1766 
 3503000   0.69190379   -7.6460886    744.09417  0.017701355  0.017092223         1773 
 3504000   0.69079316   -7.6363927    743.55543  0.017683491  0.017085967         1891 
 3505000   0.69461218   -7.6459916    745.44773  0.017723436  0.017079704         1840 
 3506000    0.6928394   -7.6594898    744.36057  0.017692541   0.01707344         1821 
 3507000   0.68409283   -7.6647677    746.12312  0.017729377  0.017067181         1788 
 3508000   0.70618298   -7.6510738    746.09601  0.017723679  0.017060923         1844 
 3509000   0.70604035   -7.6382369    743.38995  0.017654364  0.017054653         1768 
 3510000   0.68687721    -7.642328     744.6447  0.017679124  0.017048408         1757 
 3511000   0.68260876   -7.6305149    746.08522  0.017708279  0.017042172         1798 
 3512000   0.67396021   -7.6646829    744.68229  0.017669948  0.017035923         1836 
 3513000   0.69665608   -7.6613557    745.18146  0.017676759  0.017029655         1937 
 3514000   0.68754384   -7.6518966     744.9584  0.017666439  0.017023411         1900 
 3515000   0.69634442   -7.6465192     745.3015  0.017669547  0.017017163         1923 
 3516000   0.68910007   -7.6565745    745.05108  0.017658586  0.017010918         1931 
 3517000    0.6878392   -7.6593875    745.41605  0.017662213  0.017004673         1913 
 3518000   0.68406887   -7.6513592    744.46416  0.017634645  0.016998424         1813 
 3519000   0.69803164   -7.6749106    744.05363  0.017619912  0.016992181         1914 
 3520000   0.67771695   -7.6777214    744.95401  0.017636222  0.016985929         1886 
 3521000   0.67484116    -7.644534    744.94823  0.017631076  0.016979694         1936 
 3522000   0.69520533    -7.668067    743.81154  0.017599175  0.016973438         1943 
 3523000   0.67728043   -7.6730041    744.79814  0.017617517  0.016967193         1970 
 3524000   0.69530539   -7.6669345    745.78185   0.01763578  0.016960949         1993 
 3525000   0.68745114   -7.6487616    744.93789  0.017610825  0.016954713         1892 
 3526000   0.69387995   -7.6702146    743.11294    0.0175627  0.016948485         1864 
 3527000   0.68039817   -7.6874288    744.09318   0.01758088  0.016942248         1979 
 3528000   0.68666558   -7.6619002    742.95227  0.017548948  0.016936014         1972 
 3529000   0.67823369   -7.6487199    744.71768  0.017585664   0.01692979         1916 
 3530000   0.67396778    -7.651643    746.22972  0.017616377  0.016923571         2008 
 3531000   0.69772938   -7.6430506    745.81084  0.017601502  0.016917356         2009 
 3532000   0.69248767   -7.6515337    745.79936  0.017596248   0.01691114         1955 
 3533000   0.69243822   -7.6621851     745.2136  0.017577451  0.016904939         2089 
 3534000   0.69401645   -7.6651744    744.33109  0.017551667  0.016898723         2050 
 3535000   0.69978038   -7.6945469    744.81762  0.017558171  0.016892498         2179 
 3536000   0.68836155   -7.6873913    744.62231  0.017548603  0.016886265         2158 
 3537000   0.69844471   -7.6991222    744.50319  0.017540835  0.016880036         2170 
 3538000     0.692723   -7.6812986    743.98449  0.017523659  0.016873787         2152 
 3539000   0.66821381   -7.6652065    744.91918  0.017540717  0.016867552         2166 
 3540000   0.68676055   -7.6841629    744.34256  0.017522188  0.016861312         2331 
 3541000   0.69390511   -7.7001861    743.18484  0.017489994  0.016855083         2155 
 3542000   0.68606787   -7.6963324    742.84753  0.017477121  0.016848847         2138 
 3543000   0.67860368    -7.683813    744.75338  0.017517014  0.016842615         2170 
 3544000   0.68378938    -7.693993    744.48791  0.017505829  0.016836395         2200 
 3545000    0.6896154   -7.6768835    743.96422  0.017488581  0.016830164         2251 
 3546000   0.68139474   -7.7113254    740.76371  0.017408435  0.016823924         2385 
 3547000   0.69865781   -7.6950019    743.31936  0.017463569  0.016817683         2397 
 3548000   0.68995632   -7.7048719    743.13142  0.017454233  0.016811431         2441 
 3549000   0.68008196   -7.7206497    741.65315  0.017414604  0.016805183         2592 
 3550000   0.70547325   -7.7264696    742.15859  0.017421563  0.016798895         2691 
 3551000    0.6884448   -7.7201487    741.03909  0.017390385  0.016792603         2655 
 3552000   0.67341275   -7.7248215    741.43494  0.017394776  0.016786308         2629 
 3553000   0.69112458   -7.7185351    741.92961  0.017401483  0.016780008         2730 
 3554000   0.69855191   -7.7224617    740.80479  0.017370212  0.016773708         2633 
 3555000   0.69208535   -7.7365016    742.09841   0.01739565  0.016767411         2794 
 3556000   0.68962743   -7.7421994    739.40793  0.017327707  0.016761092         2846 
 3557000   0.67481062   -7.7312533    740.76677  0.017354671   0.01675477         2896 
 3558000   0.69461349   -7.7299217    741.44302  0.017365632  0.016748449         2926 
 3559000   0.67374212   -7.7530633    741.67916  0.017366282   0.01674213         2904 
 3560000    0.6913627    -7.768683    740.68995  0.017338248  0.016735817         2951 
 3561000   0.67613822    -7.743801    740.90627  0.017338441  0.016729499         2948 
 3562000    0.6872168   -7.7287807    741.94915  0.017357972  0.016723197         2872 
 3563000   0.67256214   -7.7364291    741.08529  0.017332896    0.0167169         2914 
 3564000   0.66911474   -7.7332921    740.07931  0.017304511  0.016710588         3052 
 3565000   0.66374529     -7.77542    741.29554  0.017328087  0.016704261         3087 
 3566000   0.67925151   -7.7702122    739.30066  0.017276609  0.016697939         3118 
 3567000   0.67536808       -7.751    742.01551  0.017335191  0.016691622         3078 
 3568000   0.67498108   -7.7368873    739.75896  0.017277629  0.016685313         3128 
 3569000   0.67389776   -7.7247483    740.64848  0.017293558  0.016678998         3065 
 3570000   0.69798984    -7.801245    739.45116  0.017260765  0.016672683         3178 
 3571000     0.673672   -7.7829887    740.10449  0.017271177  0.016666367         3140 
 3572000   0.68087038   -7.7686505    740.48707  0.017275268  0.016660046         3041 
 3573000   0.67405575   -7.7839023    739.81502  0.017254758  0.016653729         3221 
 3574000   0.67309141   -7.7566421    739.93826  0.017252804  0.016647416         3177 
 3575000   0.68458181   -7.7696198    739.16218  0.017229888  0.016641099         3263 
 3576000   0.68455481   -7.7592504     739.8858  0.017241932  0.016634771         3243 
 3577000   0.67371752   -7.7994535    740.37721   0.01724856  0.016628451         3333 
 3578000   0.67373333   -7.7904062    740.78261  0.017253182   0.01662212         3362 
 3579000   0.68562687   -7.7686606    738.78014  0.017201736  0.016615783         3255 
 3580000   0.68261411   -7.8008271    738.97192  0.017201395  0.016609459         3314 
 3581000   0.67728699   -7.7986447     739.9168   0.01721858  0.016603132         3414 
 3582000    0.6798502   -7.7770194    738.53947   0.01718173  0.016596793         3290 
 3583000   0.68474774   -7.7842788    738.69928  0.017180651  0.016590463         3412 
 3584000   0.69396421   -7.7876151    739.08334  0.017184787  0.016584144         3431 
 3585000   0.68017791   -7.8011516    738.14418  0.017158163  0.016577823         3452 
 3586000    0.6634866   -7.7832485    738.74694  0.017167386  0.016571488         3408 
 3587000   0.68230722   -7.7969485    740.20132  0.017196388  0.016565165         3412 
 3588000   0.68121445   -7.8160735    737.16016  0.017120962  0.016558837         3490 
 3589000   0.67925365   -7.8105907    738.59696  0.017149553  0.016552513         3493 
 3590000   0.66932104   -7.8262846    738.48184  0.017142104  0.016546188         3524 
 3591000   0.67741383   -7.8086421    738.25557   0.01713208  0.016539875         3431 
 3592000   0.68126883   -7.8149087    738.86085  0.017141352  0.016533558         3484 
 3593000   0.68117877   -7.8400067    737.83139  0.017112705  0.016527247         3423 
 3594000   0.68341379    -7.791449    737.11463  0.017091324  0.016520923         3473 
 3595000    0.6692247   -7.8055512    737.03003  0.017084609  0.016514614         3531 
 3596000   0.66806633   -7.8043486    737.17567  0.017083233  0.016508297         3486 
 3597000     0.679633   -7.8240475    736.91634  0.017072476  0.016501981         3466 
 3598000   0.68399923   -7.8094235    737.63583  0.017084395  0.016495665         3565 
 3599000   0.68416578   -7.8066857    738.80967  0.017106828  0.016489354         3479 
 3600000   0.68352335   -7.8005324    739.49362  0.017117908  0.016483043         3543 
 3601000   0.69164462   -7.7967453    738.19813  0.017083174  0.016476735         3581 
 3602000   0.66350787   -7.8025928    739.52849   0.01710921  0.016470434         3542 
 3603000   0.67680362   -7.8238431    739.71964  0.017108882  0.016464139         3543 
 3604000    0.6711082   -7.8326332    735.92619  0.017016421  0.016457837         3611 
 3605000   0.69066125   -7.8195183     738.3815  0.017068458  0.016451522         3536 
 3606000   0.66255002   -7.8313903    737.47662  0.017042813  0.016445219         3619 
 3607000    0.6812055   -7.8271937    736.71901  0.017020585  0.016438918         3521 
 3608000   0.66996515   -7.8207322    737.92421  0.017043704  0.016432631         3423 
 3609000   0.67250197    -7.824103    738.71289  0.017057193  0.016426344         3474 
 3610000   0.65996059    -7.817361     738.0767  0.017037782  0.016420059         3491 
 3611000   0.67838179   -7.8374446    736.40785   0.01699455  0.016413775         3472 
 3612000   0.68614599   -7.8004967    737.90151  0.017024306  0.016407488         3472 
 3613000    0.6760174   -7.8445266    736.55875  0.016988623  0.016401201         3611 
 3614000   0.68563343   -7.8285966    738.11492  0.017019805  0.016394899         3552 
 3615000   0.69434003   -7.8408783    736.81332  0.016985093  0.016388608         3602 
 3616000   0.67745037   -7.8378499    736.79004  0.016979859  0.016382309         3590 
 3617000   0.67591146   -7.8426717    737.98545  0.017002706  0.016376024         3614 
 3618000    0.6732204   -7.8303257    736.43364  0.016962264  0.016369728         3614 
 3619000   0.66721782    -7.836349    736.74315  0.016964704  0.016363445         3648 
 3620000   0.65504673    -7.850622    737.90215  0.016986698  0.016357162         3586 
 3621000    0.6590908   -7.8188438    736.24287   0.01694382  0.016350876         3662 
 3622000   0.68021474    -7.835586    736.88685  0.016953958  0.016344591         3646 
 3623000   0.67294184   -7.8543078    736.97336  0.016951269  0.016338303         3601 
 3624000   0.66322421   -7.8316214    737.09017  0.016949277  0.016332021         3634 
 3625000   0.67022238   -7.8579313    736.27457  0.016925852  0.016325743         3596 
 3626000    0.6624197   -7.8210699    738.60309  0.016974699  0.016319467         3579 
 3627000   0.67166799   -7.8344108    737.32564  0.016940668  0.016313197         3563 
 3628000   0.67994764   -7.8280463     736.1938  0.016910001  0.016306932         3521 
 3629000   0.65779862   -7.8187377    739.38228  0.016978559  0.016300659         3663 
 3630000   0.65707266   -7.8408966    736.97258  0.016918562   0.01629439         3636 
 3631000   0.66251751   -7.8294849    737.15822  0.016918164  0.016288126         3545 
 3632000   0.65197154   -7.8176051     736.9799  0.016909414  0.016281859         3619 
 3633000    0.6807907   -7.8263578    737.25425  0.016911053  0.016275593         3565 
 3634000   0.67636633   -7.8307329    735.32361  0.016862126  0.016269324         3610 
 3635000   0.67671982   -7.8346001    736.95124  0.016894801  0.016263061         3637 
 3636000   0.66442342    -7.844268    737.45607  0.016901725  0.016256794         3641 
 3637000   0.67161716   -7.8442306    736.32033  0.016871055  0.016250536         3566 
 3638000   0.67523948   -7.8504285    736.30287  0.016866018  0.016244278         3623 
 3639000   0.67176433   -7.8669679    735.00059  0.016831561  0.016238016         3687 
 3640000    0.6676437   -7.8522091    734.26526  0.016810102  0.016231756         3665 
 3641000   0.66619168   -7.8546501    735.39257  0.016831286  0.016225502         3663 
 3642000   0.66625172   -7.8491333    737.71362  0.016879773  0.016219265         3633 
 3643000   0.67277508   -7.8426391    736.23198  0.016841248  0.016213034         3695 
 3644000   0.68420431   -7.8476208    736.24142  0.016836842  0.016206798         3649 
 3645000    0.6615838   -7.8372168    738.19764  0.016876947  0.016200572         3648 
 3646000   0.67006926   -7.8589851    737.54701  0.016857447   0.01619434         3639 
 3647000   0.67144994   -7.8502075     736.4062  0.016826757  0.016188107         3674 
 3648000   0.66427485   -7.8564945    736.47015  0.016823605  0.016181874         3607 
 3649000    0.6698095   -7.8543731    735.83906  0.016804583  0.016175638         3726 
 3650000   0.66595469   -7.8178808    734.96434  0.016780008  0.016169412         3677 
 3651000   0.65519395    -7.849781    735.74924  0.016793327  0.016163187         3644 
 3652000   0.66479897   -7.8480128    736.58631  0.016807829  0.016156965         3596 
 3653000    0.6653355   -7.8292262    736.98481  0.016812319  0.016150746         3637 
 3654000   0.67200273   -7.8585037    735.93314  0.016783733  0.016144519         3670 
 3655000   0.67305029   -7.8654399    734.54695  0.016747537   0.01613831         3648 
 3656000   0.64998131   -7.8521062    736.82112  0.016794792  0.016132105         3678 
 3657000   0.67121091   -7.8471359    738.61437  0.016831063  0.016125898         3590 
 3658000    0.6612222   -7.8453631    737.98929  0.016812222  0.016119695         3654 
 3659000    0.6668101   -7.8511036    735.44674  0.016749721  0.016113495         3664 
 3660000   0.66817673   -7.8522055    736.63266  0.016772146  0.016107289         3670 
 3661000   0.65171197   -7.8531023    736.41953  0.016762713  0.016101091         3663 
 3662000   0.67346189   -7.8596945    735.53573  0.016738024  0.016094896         3615 
 3663000     0.667888   -7.8289728    739.00204  0.016812313  0.016088706         3655 
 3664000   0.65753156   -7.8972682    735.01523  0.016717049  0.016082515         3683 
 3665000   0.66663497   -7.8204364    736.07599  0.016736607  0.016076323         3626 
 3666000   0.66663802   -7.8785213    735.50443   0.01671905  0.016070139         3644 
 3667000   0.65649168   -7.8356861     736.0813    0.0167276   0.01606396         3700 
 3668000   0.66663777   -7.8683526    735.91954  0.016719364  0.016057778         3655 
 3669000     0.682652   -7.8345385    736.46595  0.016727218  0.016051612         3615 
 3670000    0.6639146   -7.8513915     736.2605  0.016717995  0.016045445         3675 
 3671000   0.67242392   -7.8380353    736.82111  0.016726167  0.016039266         3681 
 3672000    0.6775316    -7.876958    734.11428  0.016660183  0.016033088         3693 
 3673000    0.6746702   -7.8537551    737.18188  0.016725245  0.016026915         3693 
 3674000   0.66757926   -7.8454911    735.05357  0.016672418  0.016020745         3674 
 3675000   0.66226687    -7.842019    737.42955  0.016721758  0.016014577         3688 
 3676000    0.6620986    -7.884324    735.18443  0.016666314  0.016008409         3697 
 3677000     0.664824     -7.85724    735.28666  0.016664098  0.016002236         3701 
 3678000   0.66012479   -7.8671056    735.82453  0.016671754  0.015996062         3686 
 3679000   0.64423779   -7.8873341    734.56651  0.016638727  0.015989899         3723 
 3680000   0.65900059   -7.8733195    735.16938  0.016647857  0.015983736         3703 
 3681000   0.65633913   -7.8808966    735.41106  0.016648806  0.015977575         3710 
 3682000   0.66554217   -7.8856656    735.92857  0.016655997  0.015971412         3675 
 3683000   0.67194745   -7.8697068    735.60219   0.01664409  0.015965258         3650 
 3684000   0.66088147   -7.8884417    734.96984  0.016625268  0.015959108         3719 
 3685000   0.64409217   -7.8866493    736.15285  0.016647509  0.015952962         3662 
 3686000   0.65232019   -7.8644086    734.75359  0.016611358  0.015946805         3655 
 3687000   0.64374381    -7.856352    736.50162  0.016646362  0.015940656         3614 
 3688000   0.65339444   -7.8866961    734.25312  0.016591041  0.015934504         3720 
 3689000   0.65763468   -7.8924923    734.91469  0.016601488  0.015928356         3647 
 3690000   0.65934378    -7.875637    735.46795  0.016609484  0.015922209         3702 
 3691000   0.64927127   -7.8845494    735.14254  0.016597637  0.015916065         3672 
 3692000   0.66079396   -7.8821273    734.67987  0.016582698  0.015909926         3705 
 3693000   0.64956627   -7.8768303     735.7613  0.016602611  0.015903793         3692 
 3694000   0.65005796   -7.8583343    734.73806  0.016575033  0.015897668         3632 
 3695000   0.65733373   -7.9070075     734.7066  0.016569838  0.015891547         3730 
 3696000      0.65347   -7.8693193     734.7652  0.016566676  0.015885406         3687 
 3697000   0.66103616     -7.88985     736.1031  0.016592352  0.015879269         3668 
 3698000   0.66048423   -7.8914354     734.6422  0.016554944  0.015873145         3684 
 3699000   0.66839141   -7.8676253    736.08302  0.016582928  0.015867021         3706 
 3700000   0.67132232   -7.8978805    735.08446  0.016555956  0.015860908         3687 
 3701000    0.6685107   -7.8879544    734.01938  0.016527501  0.015854778         3665 
 3702000   0.65131013   -7.8770884    736.46458  0.016578079  0.015848654         3687 
 3703000   0.65776048   -7.8940372      735.618   0.01655455   0.01584254         3701 
 3704000   0.66473835   -7.8977946    734.30965  0.016520645  0.015836415         3683 
 3705000   0.64600081   -7.8834318    735.19306  0.016536056  0.015830306         3696 
 3706000   0.65641302   -7.8836403    735.34641  0.016535043  0.015824189         3714 
 3707000   0.64527078   -7.9009209    735.29789  0.016529491  0.015818074         3743 
 3708000   0.66409747   -7.8928493    733.12434  0.016476185   0.01581196         3742 
 3709000   0.65438125   -7.9136035     735.0472  0.016514946  0.015805853         3675 
 3710000    0.6494403   -7.9096869     733.7726  0.016481864  0.015799739         3759 
 3711000    0.6621754   -7.9028919    733.99186  0.016482347   0.01579364         3673 
 3712000   0.66863128   -7.8834364    735.67256  0.016515638  0.015787539         3680 
 3713000   0.63480293   -7.8890979    734.30031  0.016480391  0.015781442         3724 
 3714000   0.65269833   -7.8955017    734.38349   0.01647782  0.015775345         3685 
 3715000   0.65840475    -7.873916    735.97135  0.016509003  0.015769246         3736 
 3716000    0.6652224   -7.8982498    734.33721  0.016467914  0.015763156         3711 
 3717000   0.65970649   -7.8873741    736.02981  0.016501431  0.015757064         3660 
 3718000   0.65417772   -7.9036486    733.89201  0.016449077  0.015750981         3723 
 3719000   0.65078152   -7.8942494    734.13039  0.016449995  0.015744896         3676 
 3720000   0.65857146   -7.8870655    734.83025  0.016461251   0.01573881         3756 
 3721000   0.65215808   -7.9011626    735.54374  0.016472806  0.015732731         3715 
 3722000   0.66920132    -7.888527    736.23813  0.016483927  0.015726656         3739 
 3723000   0.66051784   -7.9056239    735.29645  0.016458422  0.015720573         3692 
 3724000   0.64289946   -7.8995817    734.33471  0.016432481  0.015714496         3634 
 3725000   0.66333444   -7.8829738    736.72427  0.016481527  0.015708424         3713 
 3726000   0.66252603   -7.8905794    735.04372  0.016439518  0.015702348         3726 
 3727000   0.65343927   -7.8782877    734.76519  0.016428879  0.015696285         3709 
 3728000   0.65973063   -7.8893105    736.02826  0.016452706  0.015690225         3730 
 3729000   0.64799195    -7.899035    735.29709  0.016431954  0.015684168         3686 
 3730000    0.6646496   -7.9206924     733.1335  0.016379211  0.015678101         3731 
 3731000    0.6523041   -7.9147743    733.81265   0.01638999   0.01567204         3752 
 3732000   0.64812107   -7.8798229    734.71604  0.016405771   0.01566599         3651 
 3733000   0.67037772   -7.8756022    734.25246  0.016391027  0.015659938         3729 
 3734000   0.64180953   -7.8807797    735.76543  0.016420403  0.015653884         3670 
 3735000   0.64201162   -7.9105979    735.34145  0.016406547  0.015647834         3731 
 3736000   0.65936591    -7.910303    733.39094  0.016358649   0.01564179         3728 
 3737000   0.65385051   -7.8969571    732.43294  0.016332908  0.015635753         3695 
 3738000   0.65505157   -7.8981686    735.80742  0.016403768  0.015629715         3688 
 3739000   0.65741759   -7.9047174    733.56871  0.016349485  0.015623682         3732 
 3740000   0.65612518   -7.9006565    733.53253  0.016344308  0.015617644         3698 
 3741000   0.66134167   -7.8991523     734.4288  0.016359904  0.015611617         3726 
 3742000   0.65044818   -7.8942516    734.34967   0.01635377  0.015605586         3721 
 3743000   0.65464242   -7.9081076    733.02245  0.016319851  0.015599566         3742 
 3744000    0.6561036   -7.9201293    733.84775  0.016333862   0.01559354         3716 
 3745000   0.66232732     -7.90289    734.92324  0.016353432  0.015587524         3698 
 3746000   0.63993759   -7.8802806    733.84852  0.016325158  0.015581498         3732 
 3747000   0.64114173   -7.9010291    734.09485   0.01632628  0.015575485         3702 
 3748000   0.66411892   -7.9216375     734.8466  0.016338638  0.015569469         3738 
 3749000   0.65184375   -7.9197924    734.85955  0.016334568  0.015563453         3757 
 3750000   0.65144415   -7.9232641    734.12618  0.016313915  0.015557447         3740 
 3751000   0.63958864   -7.9155438    733.54827  0.016296727  0.015551435         3724 
 3752000   0.65990592   -7.8986727    734.98353  0.016324261  0.015545434         3694 
 3753000    0.6606077   -7.9168063    734.07319  0.016299698  0.015539431         3677 
 3754000   0.65236496   -7.8775201    734.32229  0.016300885  0.015533435         3718 
 3755000    0.6480183   -7.9162439    734.19053   0.01629362  0.015527437         3749 
 3756000    0.6453643    -7.901371     732.5812  0.016253577  0.015521447         3725 
 3757000   0.64464442   -7.9210046    734.91132  0.016300934  0.015515458         3682 
 3758000   0.66245622   -7.8775713    735.31831  0.016305622  0.015509469         3694 
 3759000   0.63837226   -7.9219595     734.0068  0.016272209  0.015503482         3733 
 3760000     0.655798   -7.9409245    734.19136  0.016271972  0.015497501         3667 
 3761000   0.65721731   -7.9286128     734.6111  0.016276945   0.01549152         3721 
 3762000   0.64114257   -7.9011435    733.35242  0.016244737  0.015485543         3668 
 3763000   0.65204092   -7.9105601    733.77942  0.016249876  0.015479572         3696 
 3764000   0.64593256   -7.9077766    735.34154  0.016280144  0.015473599         3707 
 3765000   0.66071713   -7.9016552    734.54957  0.016258291   0.01546763         3623 
 3766000   0.63855263   -7.9291116    734.32396  0.016248981  0.015461662         3776 
 3767000   0.64818447   -7.9081868    734.41822  0.016246753  0.015455695         3662 
 3768000   0.65752962   -7.9168808     734.2724  0.016239216  0.015449735         3748 
 3769000   0.64462373   -7.9281886    733.08692  0.016208696  0.015443782         3725 
 3770000   0.65427458   -7.9133653       734.66  0.016239169  0.015437821         3700 
 3771000   0.63700532   -7.9240712    733.60233   0.01621149  0.015431866         3666 
 3772000   0.65386262   -7.9096754    734.72298   0.01623195  0.015425919         3692 
 3773000    0.6531105   -7.9179568    732.97548  0.016189051  0.015419961         3737 
 3774000   0.65028851    -7.931299    734.71775  0.016223232  0.015414006         3680 
 3775000   0.65928061   -7.9326724      733.426  0.016190419  0.015408052         3713 
 3776000   0.64731733   -7.8982632     734.1283  0.016201631  0.015402113         3696 
 3777000   0.64305804   -7.9197822    733.44166  0.016182192  0.015396175         3731 
 3778000   0.65824607   -7.9303769    734.15008  0.016193535  0.015390228         3697 
 3779000   0.63511726   -7.9263782     733.5014  0.016174945  0.015384287         3690 
 3780000   0.63785123   -7.8949386    732.15836  0.016141057  0.015378352         3697 
 3781000   0.63408425   -7.9329639    732.48874   0.01614407  0.015372416         3688 
 3782000   0.64016274    -7.928352    734.19122  0.016177314  0.015366476         3681 
 3783000    0.6504889   -7.9190069    733.87545  0.016166082   0.01536054         3706 
 3784000    0.6442544   -7.9249612    732.93448  0.016141087  0.015354606         3719 
 3785000   0.64885929    -7.925585    733.20897  0.016142866  0.015348673         3670 
 3786000   0.65838301   -7.9264543    732.81599  0.016129952   0.01534275         3682 
 3787000   0.63975453   -7.9266418     734.0132  0.016152038   0.01533683         3673 
 3788000   0.64240427   -7.9062266    731.63609  0.016095479   0.01533091         3674 
 3789000   0.64278289   -7.9093339    733.06022  0.016122553  0.015324995         3733 
 3790000   0.63768647    -7.926861    733.17265  0.016120771  0.015319077         3715 
 3791000   0.63193462   -7.9018846     732.5399  0.016102609  0.015313165         3702 
 3792000   0.65982184   -7.9264469      733.707  0.016124011  0.015307257         3702 
 3793000   0.64655863   -7.9115729    733.56185  0.016116571  0.015301348         3678 
 3794000   0.65268077    -7.925154    734.18863   0.01612609  0.015295443         3752 
 3795000   0.62958165   -7.9263847    733.39566  0.016104428  0.015289546         3712 
 3796000   0.64856327    -7.913048    733.91288   0.01611154  0.015283644         3646 
 3797000   0.62987725   -7.9440691    733.43098  0.016096721  0.015277751         3719 
 3798000   0.65870333   -7.8983131    733.20418  0.016087506  0.015271857         3686 
 3799000   0.63782616   -7.9113063    733.41767  0.016087955  0.015265974         3676 
 3800000   0.64807204    -7.918975    732.73023  0.016068645  0.015260081         3694 
 3801000   0.64587648    -7.928853     734.1758  0.016096111  0.015254198         3679 
 3802000   0.62425341   -7.9608761    733.08992  0.016068076  0.015248312         3705 
 3803000   0.63816192   -7.9246704      734.406   0.01609269  0.015242427         3695 
 3804000   0.64552573   -7.9405363    733.01127  0.016057905  0.015236547         3738 
 3805000   0.64295764   -7.9164755    732.59316  0.016044528  0.015230677         3745 
 3806000   0.64376987   -7.9377756     733.5479  0.016061217  0.015224797         3671 
 3807000   0.64811968   -7.9214356    731.47284  0.016011576  0.015218927         3779 
 3808000   0.64278825   -7.9144881    733.63575  0.016054704   0.01521305         3741 
 3809000   0.64469459   -7.9283785    733.81445  0.016054399  0.015207184         3683 
 3810000    0.6486925   -7.9040368     734.6813  0.016069145  0.015201321         3655 
 3811000   0.63136894   -7.9411548    732.39614   0.01601496  0.015195448         3751 
 3812000    0.6364267   -7.9296324    733.17372  0.016027757  0.015189589         3699 
 3813000   0.64050502   -7.9201651    733.57466  0.016032316   0.01518372         3701 
 3814000   0.62813527   -7.9533357    732.99181  0.016015378  0.015177856         3733 
 3815000   0.62948456   -7.9237892    734.20257  0.016037627  0.015171996         3735 
 3816000   0.63413127   -7.9309738    733.57203  0.016019655  0.015166139         3749 
 3817000   0.64134354   -7.9498577    733.90309  0.016022686  0.015160284         3712 
 3818000   0.62437706   -7.9595643    731.65406  0.015969401  0.015154432         3737 
 3819000   0.65021708   -7.9455455     733.1624  0.015998132  0.015148579         3682 
 3820000   0.63318198   -7.9259048    731.97969  0.015968143  0.015142727         3660 
 3821000   0.63088826   -7.9388335     732.9811  0.015985804  0.015136886         3711 
 3822000   0.63756269   -7.9235627    733.42309  0.015991259  0.015131041         3682 
 3823000   0.63899184   -7.9258843     733.4982  0.015988713  0.015125207         3704 
 3824000   0.65678719   -7.9471179     731.4499  0.015939895  0.015119369         3741 
 3825000   0.63927251   -7.9371357    734.64841  0.016005412  0.015113532         3755 
 3826000   0.63837181   -7.9060536    734.70982  0.016002566  0.015107701         3754 
 3827000   0.64935239   -7.9409344    733.64087  0.015975108  0.015101871         3712 
 3828000   0.65491404   -7.9364691    733.86462  0.015975806  0.015096041         3727 
 3829000    0.6525045   -7.9421642    733.42472   0.01596206  0.015090209         3675 
 3830000   0.63531803   -7.9233193    734.86487  0.015989227  0.015084388         3655 
 3831000   0.63758338   -7.9374295    732.94448   0.01594328  0.015078573         3748 
 3832000    0.6393687   -7.9222353    732.71139  0.015934051   0.01507276         3676 
 3833000   0.65667167   -7.9119134    732.97322  0.015935586  0.015066952         3668 
 3834000   0.64276884   -7.9374823    732.51532  0.015921477  0.015061143         3692 
 3835000   0.63656341   -7.9276146    734.51201  0.015960713  0.015055323         3711 
 3836000   0.64122896   -7.9454403    731.23736  0.015885414  0.015049521         3711 
 3837000   0.62015443   -7.9393389    733.59771  0.015932537   0.01504371         3724 
 3838000   0.64375841    -7.950624    733.24017  0.015920622  0.015037914         3683 
 3839000   0.63358942   -7.9315861    733.60747  0.015924448  0.015032112         3738 
 3840000   0.63354593   -7.9352814    733.68843  0.015922058  0.015026322         3695 
 3841000   0.64188148   -7.9475819    732.80915  0.015898836  0.015020528         3743 
 3842000   0.63903877   -7.9473572    732.05191  0.015878273  0.015014738         3677 
 3843000   0.62649413    -7.939972    732.22223  0.015877835  0.015008949         3716 
 3844000   0.64256261   -7.9420512     733.2905  0.015896863  0.015003159         3698 
 3845000   0.64106964   -7.9503764    731.77681  0.015859922  0.014997377         3633 
 3846000   0.63753028    -7.940998    732.54146  0.015872367  0.014991596         3685 
 3847000   0.65027306   -7.9443335    733.32366  0.015885185  0.014985818         3729 
 3848000   0.64424921   -7.9505859    732.17116  0.015856098  0.014980042         3750 
 3849000   0.63825161   -7.9461391    732.11085  0.015850672   0.01497427         3739 
 3850000   0.63574083   -7.9519787    732.38825   0.01585256  0.014968495         3728 
 3851000   0.63354564   -7.9550303    732.52184  0.015851334   0.01496272         3692 
 3852000   0.63192066   -7.9472977    733.20671  0.015862035  0.014956954         3705 
 3853000   0.63407332   -7.9490293    733.67707  0.015868091  0.014951184         3689 
 3854000   0.62591426   -7.9470329    732.04327  0.015828647  0.014945424         3727 
 3855000   0.63946316    -7.933264    732.67426  0.015838181  0.014939666         3764 
 3856000   0.63689422   -7.9412619    732.63963  0.015833325  0.014933912         3798 
 3857000    0.6352645   -7.9458764    732.08051   0.01581714  0.014928165         3683 
 3858000       0.6327   -7.9259167    731.14033  0.015792732  0.014922415         3709 
 3859000   0.63122524   -7.9563223    732.62654  0.015820734  0.014916668         3727 
 3860000   0.64299147   -7.9732698    731.05652   0.01578274  0.014910919         3725 
 3861000   0.62762212   -7.9400252    732.95839  0.015819701  0.014905172         3710 
 3862000   0.62322815   -7.9377933    731.86921  0.015792103  0.014899434         3718 
 3863000   0.62931815   -7.9564162    732.54861  0.015802671    0.0148937         3691 
 3864000   0.63889432   -7.9348652    732.90842  0.015806341  0.014887963         3700 
 3865000   0.63517969   -7.9579909    733.53074  0.015815669  0.014882234         3685 
 3866000   0.63520246   -7.9463978    730.57478  0.015747861  0.014876502         3724 
 3867000   0.62681491   -7.9644927    733.54262  0.015807745  0.014870765         3751 
 3868000    0.6363738   -7.9425728    731.72347  0.015764466   0.01486504         3732 
 3869000   0.62229109   -7.9456769     731.6317  0.015758415  0.014859316         3711 
 3870000   0.63919084   -7.9589976    733.68868  0.015798637  0.014853593         3727 
 3871000   0.62720983   -7.9488401     732.2248  0.015763041  0.014847874         3726 
 3872000   0.63721559   -7.9347102    733.42482  0.015784797  0.014842157         3746 
 3873000   0.62045164   -7.9607873    733.02553   0.01577213  0.014836439         3689 
 3874000    0.6229689   -7.9386777    731.92002  0.015744279  0.014830727         3696 
 3875000   0.62643458    -7.950956    733.34421  0.015770843  0.014825017         3703 
 3876000   0.63846362   -7.9500008    733.50038  0.015770132  0.014819308         3703 
 3877000   0.62170336   -7.9433587    731.97066  0.015733184  0.014813603         3738 
 3878000   0.64200292   -7.9625936    731.74245  0.015724223  0.014807901         3739 
 3879000   0.63487689   -7.9336641    732.53074  0.015737105  0.014802203         3698 
 3880000   0.63766313   -7.9471779    733.42994  0.015752361  0.014796501         3767 
 3881000   0.63518994   -7.9528543    733.23606  0.015744139  0.014790809         3756 
 3882000   0.62655328   -7.9469633    729.11408  0.015651599  0.014785112         3782 
 3883000   0.63978293   -7.9577452    732.81294   0.01572695  0.014779416         3794 
 3884000   0.63039306    -7.945699    733.11861  0.015729459  0.014773732         3754 
 3885000   0.62611697   -7.9758805    731.97583  0.015700897  0.014768044         3746 
 3886000   0.62178939   -7.9483801    732.48421  0.015707759  0.014762361         3710 
 3887000     0.637671   -7.9597481    731.10917  0.015674238  0.014756679         3741 
 3888000   0.62519288   -7.9672508    730.62876   0.01565991  0.014750997         3718 
 3889000   0.64447083    -7.932006    731.76836  0.015680302  0.014745323         3719 
 3890000    0.6175507   -7.9544529    731.27916  0.015665792  0.014739649         3716 
 3891000   0.61198171   -7.9525709    733.47398  0.015708772  0.014733981         3726 
 3892000   0.63438609   -7.9506525    732.35114  0.015680694  0.014728308         3714 
 3893000   0.61211119   -7.9543481    732.15787  0.015672529  0.014722647         3712 
 3894000   0.64237061    -7.976926    732.15924  0.015668534  0.014716981         3748 
 3895000   0.63856371   -7.9539093    732.76167    0.0156774  0.014711318         3709 
 3896000   0.64037599   -7.9430275    733.49222  0.015689002  0.014705658         3768 
 3897000   0.62068654   -7.9526657    733.21562  0.015679061  0.014700005         3764 
 3898000   0.62557598   -7.9577676    731.48395  0.015638018  0.014694359         3758 
 3899000   0.62621951   -7.9403495    732.20885  0.015649501   0.01468871         3788 
 3900000   0.62306122   -7.9701686    730.85273  0.015616511   0.01468306         3754 
 3901000   0.61879998   -7.9811459    732.05026   0.01563809  0.014677415         3763 
 3902000   0.63099018   -7.9672291    733.55481  0.015666214  0.014671773         3680 
 3903000   0.63405172   -7.9595053    731.41947  0.015616608  0.014666135         3714 
 3904000   0.62622285   -7.9697099    732.68449  0.015639611  0.014660507         3765 
 3905000   0.62259079   -7.9584535    732.67093  0.015635316  0.014654875         3751 
 3906000   0.64006142   -7.9656117    731.24978  0.015600994   0.01464924         3736 
 3907000   0.64598326   -7.9359256    732.10239  0.015615186  0.014643615         3759 
 3908000   0.63062352   -7.9981274     731.5149  0.015598663  0.014637986         3745 
 3909000   0.63236177   -7.9570617    730.54376  0.015573969  0.014632355         3727 
 3910000   0.60855388   -7.9757698    731.01141  0.015579953  0.014626734         3702 
 3911000   0.62145115    -7.980641    732.39989  0.015605555   0.01462111         3742 
 3912000   0.61153743   -7.9793891    731.23587  0.015576769  0.014615489         3723 
 3913000   0.62991779   -7.9392491    732.52658  0.015600276  0.014609875         3694 
 3914000   0.63497902   -7.9654266     731.4561  0.015573499  0.014604262         3770 
 3915000   0.63084501   -7.9528626    732.13689  0.015584012  0.014598647         3739 
 3916000   0.63286395    -7.959913    730.70334  0.015549526  0.014593035         3730 
 3917000   0.62819938   -7.9882995    731.69186  0.015566587  0.014587432         3712 
 3918000   0.60806137   -7.9535849     730.6956  0.015541424   0.01458183         3700 
 3919000   0.61501162   -7.9608244    733.36185  0.015594153  0.014576229         3747 
 3920000   0.61181985   -7.9522737    731.94338  0.015560021  0.014570625         3696 
 3921000   0.61224426   -7.9546866    733.53387  0.015589855   0.01456503         3702 
 3922000   0.62392301   -7.9774177    730.88274   0.01552955  0.014559434         3708 
 3923000   0.61774318   -7.9724788    733.09526   0.01557259  0.014553846         3729 
 3924000   0.60845559   -7.9494359    732.59935   0.01555809  0.014548257         3741 
 3925000   0.61800434   -7.9650586    730.43339   0.01550814  0.014542678         3722 
 3926000   0.62021241   -7.9569676    731.14861  0.015519371  0.014537094         3698 
 3927000   0.62082094   -7.9757324    731.39361  0.015520618  0.014531516         3730 
 3928000   0.63039526   -7.9531624    731.51409  0.015519223  0.014525943         3710 
 3929000   0.61686015   -7.9784034    730.44993  0.015492702  0.014520367         3731 
 3930000   0.64246774   -7.9516136    732.59285  0.015534199  0.014514794         3726 
 3931000   0.61600381   -7.9782972    731.41635  0.015505307  0.014509224         3727 
 3932000   0.62346801   -7.9789856    730.71166  0.015486429  0.014503656         3731 
 3933000   0.61764434    -7.962648    732.15691  0.015513114  0.014498086         3678 
 3934000   0.61077025   -7.9596576    730.96386  0.015483898  0.014492524         3766 
 3935000   0.62386317   -7.9774097    731.49674  0.015491248  0.014486966         3742 
 3936000   0.61865676   -7.9816371    731.92136  0.015496303  0.014481409         3725 
 3937000   0.61427539   -7.9756574    731.51608  0.015483788  0.014475855         3731 
 3938000   0.61928037   -7.9712689    731.94008  0.015488828  0.014470307         3711 
 3939000   0.61620519   -7.9643822    732.01752  0.015486535  0.014464756         3767 
 3940000    0.6226741    -7.958836    731.19882  0.015465288  0.014459215         3723 
 3941000   0.61018922   -7.9752526    732.34269  0.015485551  0.014453667         3752 
 3942000   0.63166654   -7.9595706    731.34125  0.015460452  0.014448129         3718 
 3943000   0.61778717   -7.9822251    730.65231  0.015441971  0.014442599         3698 
 3944000   0.62278726   -7.9703228    731.77279  0.015461731  0.014437063         3754 
 3945000   0.61941524   -7.9553566    732.31147   0.01546919  0.014431527         3752 
 3946000   0.62827645    -7.957923    730.29485  0.015422682  0.014425993         3804 
 3947000   0.61394758   -7.9549814    731.04415  0.015434595  0.014420464         3768 
 3948000    0.6295429   -7.9659343    731.19924  0.015433959  0.014414939         3740 
 3949000    0.6124388    -7.966978    731.20575  0.015430188  0.014409416         3791 
 3950000   0.62304136   -7.9546492    732.76167  0.015459107  0.014403897         3769 
 3951000   0.62937819   -7.9742761    732.33855   0.01544627  0.014398378         3733 
 3952000    0.6208416   -7.9724769     730.8033  0.015409989  0.014392858         3769 
 3953000    0.6109244   -7.9662571    731.51856  0.015421169  0.014387342         3767 
 3954000   0.61712888   -7.9681713    731.31973  0.015413078  0.014381832         3795 
 3955000   0.62247445   -8.0016552     731.0268  0.015403009  0.014376313         3788 
 3956000   0.63053057   -7.9682014    731.04242  0.015399444    0.0143708         3766 
 3957000    0.6073682    -7.950604    731.71619  0.015409742  0.014365295         3794 
 3958000   0.61399195   -7.9758097     730.7143  0.015384755   0.01435979         3794 
 3959000   0.62519962   -7.9694092    732.14468  0.015410977  0.014354286         3782 
 3960000   0.62451564    -7.982434    731.25262  0.015388313  0.014348785         3745 
 3961000   0.62417931   -7.9934747    729.45774  0.015346666  0.014343286         3772 
 3962000   0.62025519   -7.9840064    730.48741   0.01536445  0.014337789         3777 
 3963000   0.60871026   -7.9937214    730.57867  0.015362492  0.014332298         3825 
 3964000   0.61065747   -7.9782578    730.95864  0.015366604  0.014326802         3778 
 3965000   0.63345203    -7.992436    731.67463  0.015377777  0.014321318         3799 
 3966000   0.61986853   -7.9781939     730.8638  0.015356863  0.014315837         3801 
 3967000   0.61980742   -7.9683998    730.45863   0.01534448  0.014310352         3787 
 3968000   0.62870473   -7.9723609     732.9164   0.01539223  0.014304875         3716 
 3969000   0.61468793   -7.9682272    732.30261  0.015375464  0.014299406         3755 
 3970000   0.60297732   -7.9679859    731.50942  0.015354942  0.014293932         3790 
 3971000    0.6137515   -7.9812248    730.78563  0.015335886   0.01428846         3760 
 3972000   0.62589928   -7.9603482    732.18661  0.015361418  0.014282992         3769 
 3973000   0.62188874    -7.978979    729.58086  0.015302896  0.014277522         3823 
 3974000   0.62396025   -7.9847398     731.2661  0.015334384  0.014272054         3804 
 3975000   0.60590552   -7.9853972    731.31415  0.015331534  0.014266588         3751 
 3976000   0.60913328   -7.9728789    730.38364  0.015308175  0.014261124         3791 
 3977000   0.60368203   -7.9599415     731.1491  0.015320365  0.014255666         3804 
 3978000   0.61537149   -7.9956212    730.24806  0.015297638  0.014250209         3769 
 3979000   0.60490468   -7.9779296    730.63807  0.015301962  0.014244754         3779 
 3980000   0.61454001   -7.9723601    731.11688  0.015308142  0.014239305         3792 
 3981000   0.60334049   -7.9891029    731.49666  0.015312247  0.014233852         3774 
 3982000   0.61905344   -7.9964618     731.4394  0.015307203  0.014228406         3785 
 3983000   0.62262475   -7.9663121    730.71292   0.01528816  0.014222962         3753 
 3984000   0.61415043   -7.9713824    730.78476  0.015285826  0.014217524         3772 
 3985000   0.61363856   -7.9837901    732.55505   0.01531901  0.014212091         3787 
 3986000   0.61807579   -7.9860009    729.71544    0.0152558  0.014206655         3783 
 3987000   0.60329325   -7.9632956    731.85246   0.01529664  0.014201223         3748 
 3988000   0.62668952   -7.9881782    730.67803  0.015268264  0.014195793         3773 
 3989000   0.59800258   -7.9614348    730.96338  0.015270397  0.014190365         3804 
 3990000   0.61632875   -7.9837628    731.73854   0.01528276  0.014184938         3772 
 3991000   0.60400401    -7.967476    730.62893  0.015255761  0.014179515         3810 
 3992000   0.60240493   -7.9963726     731.0749   0.01526125  0.014174091         3783 
 3993000   0.60381984   -7.9872405    730.69437  0.015249486  0.014168667         3800 
 3994000   0.60024367   -7.9899983    732.14661  0.015275968  0.014163253         3767 
 3995000   0.61328693   -7.9796572    730.83751  0.015244838  0.014157839         3779 
 3996000   0.59917939   -7.9681051    730.91684  0.015242677  0.014152424         3790 
 3997000   0.60934998   -7.9832193    731.36526  0.015248212  0.014147015         3793 
 3998000   0.61194002   -7.9624452    730.88127   0.01523431  0.014141611         3740 
 3999000    0.6167838   -7.9788825    732.18502  0.015257669  0.014136213         3808 
 4000000    0.6185289   -7.9786006    731.75215  0.015244837  0.014130813         3772 
 4001000   0.61184655   -7.9604166    731.05075  0.015226417  0.014125414         3776 
 4002000   0.60857673   -7.9713148    729.01972  0.015180321  0.014120022         3796 
 4003000   0.61778125   -7.9914107    731.51503  0.015228475  0.014114625         3836 
 4004000   0.61128975   -7.9642964    731.79615  0.015230523  0.014109231         3783 
 4005000   0.60977169   -7.9968378    732.11094   0.01523327  0.014103846         3838 
 4006000   0.60926154   -7.9799582    730.16565  0.015189001  0.014098458         3842 
 4007000   0.60666684   -8.0027224    730.25546  0.015187078  0.014093076         3751 
 4008000   0.60926735   -7.9834051    730.16673  0.015181444   0.01408769         3817 
 4009000     0.614018   -7.9948275    729.12344  0.015155971   0.01408231         3804 
 4010000   0.60818864   -7.9787717    730.34892  0.015177658  0.014076933         3765 
 4011000   0.60458849   -7.9811094    730.85331  0.015184354  0.014071555         3793 
 4012000   0.60313363   -8.0160553    730.05731  0.015164035  0.014066183         3818 
 4013000   0.60573548   -7.9938608     730.7744  0.015175148  0.014060812         3803 
 4014000   0.61146369   -7.9977737    730.58132  0.015167358  0.014055448         3803 
 4015000   0.60254892   -7.9761334    731.74037  0.015187637  0.014050083         3766 
 4016000   0.61575743   -7.9857457    729.73954  0.015142338  0.014044723         3808 
 4017000   0.59648376     -7.99668    730.45322  0.015153374  0.014039366         3815 
 4018000   0.61388212   -7.9513257    732.16688  0.015185144  0.014034008         3785 
 4019000   0.58911711    -7.985498    729.56051  0.015127323  0.014028656         3816 
 4020000   0.61388016    -8.005189    730.47483  0.015142513  0.014023304         3765 
 4021000   0.60167211   -8.0004564     730.5857  0.015141045  0.014017956         3759 
 4022000   0.60520319   -8.0024388    729.44228  0.015113589  0.014012608         3779 
 4023000    0.6103398   -7.9937467    730.54674  0.015132711  0.014007265         3789 
 4024000   0.61227963   -7.9942458    730.39375  0.015125782  0.014001923         3800 
 4025000   0.61819504   -8.0079866    731.20886    0.0151389  0.013996585         3768 
 4026000   0.59242782    -7.977995    729.43791  0.015098483  0.013991248         3813 
 4027000   0.62165744   -8.0004787    730.93752  0.015125766  0.013985913         3763 
 4028000   0.61445451   -7.9828825    731.16387  0.015126694  0.013980576         3766 
 4029000   0.60709051   -8.0119513    731.01389  0.015119837  0.013975251         3791 
 4030000   0.61003173   -7.9905935    730.45897  0.015104611  0.013969922         3774 
 4031000   0.59739247   -7.9801085    730.06732  0.015092767  0.013964589         3778 
 4032000    0.6052185   -7.9988011    730.10993  0.015089904  0.013959266         3814 
 4033000   0.62511078    -7.996775    730.29511  0.015089989  0.013953944         3800 
 4034000   0.60456034    -7.996664    729.97599  0.015079656  0.013948622         3799 
 4035000   0.59788759   -8.0023773    731.90714  0.015115802  0.013943306         3776 
 4036000   0.59128242   -7.9885042    730.99289   0.01509318  0.013937994         3784 
 4037000   0.61186598   -7.9902871    730.00078  0.015068962  0.013932681         3827 
 4038000   0.60271753   -7.9781672    731.10444  0.015088006  0.013927374         3818 
 4039000   0.60227584   -7.9908377     731.5243  0.015092934   0.01392207         3793 
 4040000   0.60529907    -8.007117    730.15053  0.015060861  0.013916769         3775 
 4041000   0.59169987   -7.9940271    729.84662  0.015050867  0.013911472         3778 
 4042000   0.59830299    -8.012645    729.93581  0.015048982  0.013906174         3822 
 4043000   0.59814481   -7.9946583    729.72063  0.015040824  0.013900879         3806 
 4044000   0.60253999   -7.9947861    730.13071  0.015045555  0.013895587         3773 
 4045000   0.62265333   -8.0279846    730.32052  0.015045746  0.013890296         3774 
 4046000   0.61281752   -8.0126788    729.92186  0.015033817  0.013885011         3818 
 4047000   0.61085426   -8.0117813    730.66049  0.015045311  0.013879723         3780 
 4048000   0.59677337    -8.005422    731.51047  0.015059092  0.013874443         3785 
 4049000   0.60939193   -8.0022022    730.23926   0.01502921  0.013869166         3809 
 4050000   0.60420225   -7.9985045    730.25534   0.01502583  0.013863887         3807 
 4051000    0.5991993   -8.0068662    729.16139  0.014999617  0.013858611         3799 
 4052000   0.60222774   -7.9985108    731.00897  0.015033913  0.013853342         3782 
 4053000   0.60819317   -8.0009537    729.45819  0.014998318  0.013848071         3778 
 4054000   0.59916424   -8.0235405    729.87417  0.015003169  0.013842805         3831 
 4055000   0.60085314   -7.9987919    730.88894  0.015020323  0.013837535         3796 
 4056000   0.60748355   -8.0045089    730.23941  0.015003275  0.013832273         3797 
 4057000   0.60500128   -7.9999772    729.21543  0.014978544  0.013827014         3779 
 4058000    0.6027931   -8.0017345    731.43237  0.015020379  0.013821755         3752 
 4059000   0.59889908   -7.9958157    729.95202  0.014986286  0.013816495         3798 
 4060000   0.60097737   -8.0184956    730.75269  0.014999029  0.013811242         3796 
 4061000   0.60266229   -7.9802238    730.26557   0.01498534  0.013805992         3791 
 4062000   0.59320874   -8.0096338    731.04946  0.014997732  0.013800743         3798 
 4063000   0.61547767   -8.0067468    730.57606  0.014984331  0.013795494         3787 
 4064000   0.61253686   -7.9855149    730.61146   0.01498137  0.013790252         3756 
 4065000   0.61126727   -7.9915651    729.16774  0.014948088  0.013785009         3759 
 4066000   0.59431741   -7.9994717    729.13369  0.014943714  0.013779775         3744 
 4067000   0.59958475   -8.0077754    728.97136  0.014936713   0.01377454         3822 
 4068000   0.60676311   -8.0054652    729.70375  0.014948045   0.01376931         3768 
 4069000   0.58930003   -8.0120613    729.29297  0.014935958  0.013764078         3757 
 4070000   0.59900088   -7.9791029    731.36806  0.014974776  0.013758845         3765 
 4071000    0.6056971   -8.0162686    729.31223  0.014929015  0.013753615         3805 
 4072000   0.61485685   -8.0178783    730.83138  0.014956438  0.013748389         3785 
 4073000   0.58944418   -8.0341115    730.04952  0.014936769  0.013743166         3805 
 4074000   0.59263807   -8.0045442    730.87115  0.014949909  0.013737946         3793 
 4075000   0.60613882   -8.0014478    729.20713  0.014912211  0.013732723         3787 
 4076000   0.60113979   -8.0119004    728.85845  0.014901424  0.013727507         3793 
 4077000   0.60374961   -7.9980416    729.65713  0.014914094  0.013722286         3801 
 4078000   0.59819068    -8.015855    730.28957  0.014923361  0.013717079         3836 
 4079000    0.5926601   -8.0198666    729.46515  0.014902859  0.013711869         3806 
 4080000   0.61313876   -7.9807867    729.23639  0.014894534  0.013706663         3788 
 4081000   0.59422264   -8.0127127    729.89092   0.01490425  0.013701461         3833 
 4082000   0.59924383   -7.9892813    729.80992  0.014898945  0.013696257         3846 
 4083000   0.60785485   -8.0045866    729.95679  0.014898294  0.013691058         3793 
 4084000   0.59833314   -8.0039095    729.81201  0.014891691   0.01368586         3800 
 4085000   0.59758377   -8.0023916    729.53278   0.01488235  0.013680668         3782 
 4086000   0.60180036   -8.0107248    729.37141  0.014875416  0.013675475         3787 
 4087000   0.59854919   -8.0238221     729.0553  0.014865331  0.013670283         3794 
 4088000   0.59812847    -8.014668    729.54742  0.014871727  0.013665096         3805 
 4089000   0.59096372   -8.0204966     730.0215  0.014877751  0.013659909         3781 
 4090000   0.59710651   -7.9973491    730.24724  0.014878713  0.013654725         3791 
 4091000   0.57903992   -8.0369534    728.94745    0.0148486   0.01364954         3795 
 4092000    0.6062283   -8.0176591    730.48086  0.014876199  0.013644361         3794 
 4093000   0.60636542   -8.0095153    730.63516  0.014875706  0.013639186         3741 
 4094000   0.60011834   -7.9796113    731.79752  0.014895732  0.013634012         3790 
 4095000   0.59356116   -8.0044533    729.65158  0.014848424  0.013628838         3775 
 4096000   0.59546946   -8.0132309    730.52924  0.014862656  0.013623672         3778 
 4097000   0.59755194   -8.0198383    729.93098  0.014846859  0.013618504         3728 
 4098000   0.60179589   -7.9847913     728.8864  0.014821995  0.013613337         3768 
 4099000   0.59132207   -8.0096109    730.35649  0.014848266  0.013608182         3801 
 4100000   0.60754523   -8.0051799    729.75003  0.014832318   0.01360302         3785 
 4101000   0.59761953   -8.0235561    730.69687  0.014847941  0.013597861         3766 
 4102000   0.60852384   -8.0060199    730.69042   0.01484419  0.013592707         3766 
 4103000   0.60392565   -8.0338165    730.29652  0.014832572  0.013587555         3804 
 4104000   0.59678783   -8.0149234    729.15157  0.014805709  0.013582399         3786 
 4105000   0.58708157   -8.0154633    728.41462  0.014787142  0.013577253         3768 
 4106000   0.57622193   -8.0173297    730.52721  0.014826417  0.013572103         3749 
 4107000   0.58792769   -8.0167876     729.7516  0.014807069  0.013566956         3804 
 4108000   0.60182122   -8.0270601    729.87666  0.014806002  0.013561815         3761 
 4109000   0.59755251   -8.0188571    729.74466  0.014799721  0.013556678         3802 
 4110000    0.6051522   -8.0096392    729.70222   0.01479526  0.013551544         3779 
 4111000   0.60655422   -8.0076678    728.97895     0.014777   0.01354641         3806 
 4112000   0.59691437   -8.0152705    729.71031  0.014788228  0.013541281         3808 
 4113000   0.59885893   -8.0128573    729.45886  0.014779538  0.013536154         3782 
 4114000    0.5950701   -8.0211297    728.91096  0.014764847  0.013531031         3806 
 4115000   0.60200673    -8.007017    729.52768  0.014773748  0.013525908         3783 
 4116000   0.59430803   -8.0191119    728.99634  0.014759401  0.013520791         3800 
 4117000   0.58173418   -8.0163398    728.83294  0.014752509  0.013515673         3801 
 4118000   0.58541329   -8.0236786     729.6448  0.014765355  0.013510554         3821 
 4119000   0.60220441   -8.0242421    730.24743  0.014773963   0.01350544         3801 
 4120000   0.60290043   -8.0280761    729.26097  0.014750424  0.013500326         3845 
 4121000   0.59223654   -8.0091796    730.82759  0.014778524  0.013495219         3771 
 4122000   0.59479169   -8.0252399    729.79426  0.014754048  0.013490109         3778 
 4123000   0.59924251   -8.0344092    729.23799  0.014739227  0.013484998         3780 
 4124000   0.59384434   -8.0241735    729.72054  0.014745404  0.013479897         3760 
 4125000   0.59474962    -8.019103    730.70137  0.014761644  0.013474802         3816 
 4126000   0.58714448   -8.0081215    730.48835  0.014753764  0.013469705         3802 
 4127000   0.60811038   -8.0328912    728.00704  0.014700086  0.013464605         3810 
 4128000   0.59216649   -8.0338348     729.4351  0.014725353  0.013459511         3788 
 4129000   0.59718096    -8.002158    729.56678  0.014724445  0.013454424         3732 
 4130000    0.5804975    -8.028208    729.82472  0.014726084  0.013449339         3763 
 4131000   0.58260396   -8.0342475    729.37483  0.014713444  0.013444252         3780 
 4132000   0.58406335   -8.0232593    730.26798  0.014727896  0.013439171         3800 
 4133000   0.59082833   -8.0278526    728.25776    0.0146838  0.013434089         3824 
 4134000   0.58544201   -8.0160828     728.5361  0.014685859  0.013429009         3793 
 4135000    0.5866307   -8.0215143    730.71177  0.014726154  0.013423931         3776 
 4136000   0.58876785   -8.0197981    728.86218  0.014685328  0.013418853         3772 
 4137000   0.58526122   -8.0329761    729.62926   0.01469723  0.013413781         3773 
 4138000   0.58879173   -8.0127761    730.25089  0.014706196  0.013408716         3780 
 4139000   0.59352805   -8.0264707    731.25706  0.014722901  0.013403649         3780 
 4140000   0.58223849   -8.0158393    729.30397  0.014680032  0.013398585         3771 
 4141000   0.58947459   -8.0235703    728.54783   0.01466127  0.013393522         3772 
 4142000   0.57539979   -8.0145332    729.99169   0.01468678  0.013388464         3774 
 4143000   0.59198015   -8.0048276    729.92355  0.014681864  0.013383404         3770 
 4144000   0.58176071   -8.0199442    729.91242  0.014678097   0.01337835         3770 
 4145000   0.58317522   -8.0435038    729.37792   0.01466381  0.013373294         3805 
 4146000   0.59686614   -8.0448583    729.29048  0.014658516  0.013368238         3838 
 4147000   0.58151267   -8.0412749    728.73264  0.014643771  0.013363192         3833 
 4148000   0.59796329   -8.0336158    728.93117   0.01464423  0.013358142         3822 
 4149000   0.58285989   -8.0104997    730.76866  0.014677606  0.013353103         3819 
 4150000   0.58582692   -8.0322033    728.62581   0.01463104  0.013348064         3805 
 4151000   0.58470335   -8.0344439    729.59553  0.014646983  0.013343026         3786 
 4152000   0.57954583   -8.0153211    728.36296  0.014618717   0.01333799         3815 
 4153000   0.58764358   -8.0286053    728.95308  0.014627038  0.013332957         3791 
 4154000   0.59366801   -8.0260377    730.07683  0.014646061  0.013327923         3817 
 4155000   0.58502217   -8.0349601    729.43328  0.014629629  0.013322891         3792 
 4156000   0.60037809   -8.0109544    728.89321  0.014615279  0.013317866         3806 
 4157000   0.58096466   -8.0284908    729.04044  0.014614715  0.013312837         3793 
 4158000   0.58398616    -8.015385    728.77473  0.014605875  0.013307815         3776 
 4159000   0.57414571   -8.0298082    727.72645  0.014581359  0.013302794         3786 
 4160000   0.58128699   -8.0241929    729.24936  0.014608361  0.013297781         3821 
 4161000   0.59019809   -8.0299133    729.18924  0.014603646  0.013292762         3758 
 4162000    0.5850944   -8.0337081    730.02075  0.014616786  0.013287753         3797 
 4163000   0.57258731   -8.0209853    730.12741   0.01461541  0.013282747         3797 
 4164000   0.58205578    -8.018019    729.37288    0.0145968   0.01327774         3780 
 4165000   0.59915052   -8.0325828    728.84053  0.014582644  0.013272732         3774 
 4166000   0.58415745   -8.0225876    730.90969  0.014620533  0.013267725         3810 
 4167000   0.56744427   -8.0041564    730.08659  0.014600564  0.013262726         3758 
 4168000    0.5828556   -8.0298368     728.4557  0.014564453  0.013257733         3803 
 4169000   0.56915982   -8.0172468    729.50471  0.014581928  0.013252742         3784 
 4170000   0.56954734   -8.0339934    728.45882   0.01455753   0.01324775         3810 
 4171000   0.58533501   -8.0462436    728.94674  0.014563789  0.013242758         3768 
 4172000   0.60068686   -8.0164945    730.73911  0.014596099  0.013237764         3774 
 4173000   0.59141367   -8.0461634    727.87508  0.014535408  0.013232781         3782 
 4174000   0.59423612   -8.0224434    729.09156  0.014556212  0.013227794         3745 
 4175000   0.58528558     -8.02532    728.96387  0.014550177  0.013222812         3748 
 4176000    0.5711771   -8.0403883      728.591  0.014539252   0.01321783         3813 
 4177000   0.59667326   -8.0321334    728.57692   0.01453549  0.013212853         3818 
 4178000   0.58744814   -8.0495757    729.73302  0.014555071  0.013207878         3825 
 4179000   0.57044344   -8.0316739    728.63809  0.014529754  0.013202901         3824 
 4180000   0.57507538    -8.046293    728.01109  0.014513778  0.013197928         3806 
 4181000   0.59271997   -8.0307312    728.44312  0.014518917  0.013192959         3808 
 4182000   0.57508949   -8.0440369    728.75524  0.014521665  0.013187992         3813 
 4183000   0.58702717   -8.0391861      729.609  0.014535202  0.013183027         3783 
 4184000    0.5647531   -8.0197384    729.38501  0.014527267  0.013178065         3788 
 4185000   0.58585857    -8.037701    728.29193   0.01450203  0.013173103         3835 
 4186000   0.57480956   -8.0271955     729.0034  0.014512729  0.013168145         3804 
 4187000   0.57285335   -8.0242888    727.45524   0.01447845  0.013163192         3824 
 4188000   0.58910061   -8.0482328     727.8009  0.014481871  0.013158239         3848 
 4189000   0.56987642   -8.0299253    729.83903  0.014518959  0.013153288         3803 
 4190000   0.58802853   -8.0370664    728.51874  0.014489235   0.01314834         3731 
 4191000   0.58191931   -8.0441386    729.57457  0.014506772  0.013143397         3786 
 4192000   0.56966735   -8.0332187    728.73379  0.014486597  0.013138451         3814 
 4193000   0.59009023   -8.0158243    729.43674  0.014497113   0.01313351         3809 
 4194000   0.58983619   -8.0398163    728.48145  0.014474675  0.013128574         3823 
 4195000   0.58172584   -8.0338866    728.33631  0.014468342  0.013123634         3824 
 4196000   0.58607902   -8.0325406    727.68346  0.014451928  0.013118704         3799 
 4197000   0.57697517   -8.0217947    729.37648    0.0144821  0.013113773         3780 
 4198000   0.57714792   -8.0499487    729.79025  0.014486864  0.013108844         3817 
 4199000   0.58548638   -8.0077509     730.5441  0.014498375  0.013103919         3790 
 4200000   0.58776368   -8.0496437    727.47689  0.014434065  0.013098996         3793 
 4201000   0.58350375   -8.0323982    727.73977  0.014435844  0.013094074         3824 
 4202000   0.58834676   -8.0307576    729.87141  0.014474683   0.01308916         3792 
 4203000   0.57385031   -8.0231045    729.69997   0.01446784   0.01308424         3801 
 4204000   0.58534084   -8.0454205    728.54062  0.014441417  0.013079327         3786 
 4205000   0.57184428   -8.0365501    729.15548  0.014450168  0.013074411         3781 
 4206000   0.57136006   -8.0564804    728.40902  0.014431943  0.013069497         3840 
 4207000   0.57732405   -8.0475372    726.91698  0.014398958  0.013064589         3845 
 4208000   0.58701606   -8.0314915    728.19473   0.01442084  0.013059679         3842 
 4209000   0.57489306   -8.0337887    729.38584  0.014440996  0.013054772         3827 
 4210000   0.57230846   -8.0661318    727.26092  0.014395505  0.013049867         3840 
 4211000   0.57495793   -8.0242722    728.19083  0.014410489  0.013044967         3809 
 4212000   0.56593758   -8.0352231    728.32217  0.014409666  0.013040066         3809 
 4213000   0.57872063   -8.0588722    727.84122  0.014396733  0.013035167         3789 
 4214000   0.58765639   -8.0456764    728.59879  0.014408298  0.013030275         3810 
 4215000   0.58234827   -8.0576055     729.4914  0.014422527  0.013025384         3829 
 4216000   0.56472854   -8.0588423    727.32413  0.014376268  0.013020492         3816 
 4217000   0.57893758   -8.0594599    728.87195  0.014403445  0.013015604         3776 
 4218000   0.58662712   -8.0534581    728.77245  0.014398065  0.013010716         3813 
 4219000   0.58659978   -8.0536305    727.59986  0.014371491  0.013005827         3830 
 4220000   0.58060809    -8.056994    728.87167    0.0143932  0.013000947         3813 
 4221000   0.58581654   -8.0315432    728.49134  0.014382282  0.012996073         3832 
 4222000   0.57065781    -8.036823    730.32685  0.014415104  0.012991196         3825 
 4223000   0.57396327   -8.0356174    728.18804  0.014369485  0.012986321         3764 
 4224000   0.57968453   -8.0274004    729.35119  0.014389031   0.01298145         3814 
 4225000   0.57785098   -8.0491797    727.47645  0.014348648  0.012976581         3808 
 4226000    0.5787124   -8.0265619    729.12342  0.014377729  0.012971717         3795 
 4227000   0.58043373   -8.0537955     728.2438  0.014356987  0.012966856         3798 
 4228000   0.57708134   -8.0418962      729.765  0.014383574  0.012961993         3803 
 4229000   0.57151613   -8.0394637    728.54101  0.014356054  0.012957134         3808 
 4230000   0.58079965    -8.040159    729.21917   0.01436602  0.012952277         3801 
 4231000   0.56860469   -8.0471547     728.7251  0.014352893  0.012947428         3798 
 4232000   0.56916893   -8.0586638    729.07804  0.014356452  0.012942577         3824 
 4233000   0.58201507   -8.0499479    728.33419  0.014338416  0.012937729         3762 
 4234000   0.59428498   -8.0566561    728.53365  0.014338955  0.012932882         3827 
 4235000   0.57748491   -8.0267765    729.32809  0.014351202  0.012928037         3822 
 4236000   0.56600866     -8.04384    728.94042  0.014340188  0.012923187         3828 
 4237000   0.56155208   -8.0568327    728.94435   0.01433688  0.012918342         3818 
 4238000   0.56290096    -8.036904     727.8805  0.014312579  0.012913496         3839 
 4239000   0.57989899   -8.0580819    727.68845  0.014305427  0.012908658         3834 
 4240000   0.57262344   -8.0539263     728.7662  0.014323235  0.012903822         3840 
 4241000   0.56387232   -8.0621713    728.79723  0.014320467  0.012898984         3805 
 4242000    0.5910349    -8.047193    728.63574  0.014313919  0.012894155         3776 
 4243000   0.56310474   -8.0443306    729.77121  0.014332846  0.012889324         3833 
 4244000   0.57492181   -8.0407194    729.24259   0.01431909  0.012884501         3807 
 4245000   0.56918236   -8.0524341     728.3714  0.014298614  0.012879671         3777 
 4246000   0.56845071   -8.0668588    727.66519  0.014281386  0.012874847         3837 
 4247000   0.55384388   -8.0540897    727.82923  0.014281242  0.012870026         3802 
 4248000   0.56588864    -8.045814    727.30873   0.01426767  0.012865206         3841 
 4249000   0.56220515   -8.0549195    728.26932  0.014283151  0.012860387         3818 
 4250000   0.57229568   -8.0593935    729.04202  0.014294942  0.012855571         3818 
 4251000   0.56588587    -8.063288    728.12248  0.014273553  0.012850757         3784 
 4252000   0.56437509   -8.0548149    729.65396  0.014300211  0.012845948         3828 
 4253000   0.57657512   -8.0456961    728.08238  0.014266055  0.012841141         3796 
 4254000   0.57732171   -8.0594593    728.57988  0.014272447  0.012836339         3811 
 4255000   0.56475363   -8.0549776    728.94957  0.014276333  0.012831536         3819 
 4256000   0.56764769   -8.0778863    728.81718  0.014270387  0.012826736         3797 
 4257000   0.57853397   -8.0541766    727.86416  0.014248378   0.01282194         3850 
 4258000   0.56508012   -8.0399001    727.73899  0.014242582   0.01281715         3796 
 4259000   0.57066703   -8.0470835    727.86378   0.01424168  0.012812353         3820 
 4260000   0.55800938   -8.0450902    728.24872  0.014245867  0.012807562         3791 
 4261000   0.55677242    -8.050758    728.47826  0.014247013  0.012802775         3806 
 4262000   0.56792199    -8.045188    729.13064  0.014256426  0.012797985         3823 
 4263000   0.57571467   -8.0763855     727.2931  0.014217161  0.012793197         3834 
 4264000    0.5671989    -8.057624    727.69221  0.014221627  0.012788414         3843 
 4265000   0.56343031   -8.0591585    727.21504  0.014208969  0.012783628         3835 
 4266000    0.5652876   -8.0627183    728.04256  0.014221803  0.012778848         3807 
 4267000   0.57043723   -8.0569198    728.69227  0.014231159  0.012774074         3798 
 4268000   0.55642994    -8.042721    728.88167  0.014231523  0.012769307         3819 
 4269000    0.5560452    -8.062029    727.49878  0.014201194  0.012764534         3834 
 4270000   0.57598086   -8.0502621    728.16493  0.014210869  0.012759762         3806 
 4271000     0.564444    -8.035707    728.84673  0.014220845  0.012754995         3818 
 4272000   0.57440226   -8.0900469    727.70902  0.014195323  0.012750234         3793 
 4273000   0.57315476   -8.0483758    728.31836  0.014203884  0.012745473         3828 
 4274000   0.57753159   -8.0516224    727.37474  0.014182162  0.012740715         3828 
 4275000   0.55092435   -8.0922495    728.28018  0.014196495  0.012735952         3835 
 4276000   0.57127041   -8.0708828    728.18375  0.014191295  0.012731193         3784 
 4277000   0.56165643   -8.0776719     728.8045  0.014200072  0.012726441         3842 
 4278000   0.57565991   -8.0592876    728.63133   0.01419338  0.012721693         3815 
 4279000   0.55304233   -8.0481396    729.32149  0.014203503  0.012716941         3793 
 4280000   0.57878625   -8.0533526    727.55731  0.014165835  0.012712192         3802 
 4281000   0.57969303   -8.0443284    728.10105  0.014173111  0.012707445         3803 
 4282000   0.56696862   -8.0583444    727.92918  0.014166456  0.012702706         3817 
 4283000   0.57150584   -8.0615247    727.06036  0.014146244  0.012697964         3829 
 4284000   0.56353936    -8.057593    727.84243  0.014158155   0.01269323         3821 
 4285000   0.55906754   -8.0731752     727.6196  0.014150517  0.012688492         3863 
 4286000   0.57312757   -8.0590527    726.98214  0.014134822  0.012683757         3859 
 4287000   0.56338817   -8.0626378    727.84292  0.014148257  0.012679025         3811 
 4288000   0.57044072   -8.0625478    727.09061  0.014130337  0.012674294         3816 
 4289000   0.57199201   -8.0777557    727.55344  0.014136035  0.012669568         3807 
 4290000   0.57157153   -8.0554454    728.42569  0.014149683  0.012664843         3816 
 4291000   0.56843165   -8.0564315    726.47384   0.01410848  0.012660122         3821 
 4292000   0.56656954   -8.0829825    727.17657  0.014118837  0.012655399         3787 
 4293000    0.5620469   -8.0455172    728.93763  0.014149733   0.01265068         3813 
 4294000   0.57003872   -8.0492136    728.16782  0.014131498  0.012645971         3814 
 4295000   0.56153523   -8.0636427    727.91083  0.014123221  0.012641254         3848 
 4296000   0.56208313   -8.0589009    726.86342  0.014099616  0.012636543         3852 
 4297000   0.55813061   -8.0559275    726.69159  0.014093003  0.012631833         3825 
 4298000   0.56488738   -8.0677368    728.09509  0.014116936   0.01262713         3791 
 4299000   0.55943004   -8.0561401    726.48279  0.014082399  0.012622422         3850 
 4300000   0.56135769   -8.0718415    728.39717  0.014116224  0.012617718         3842 
 4301000   0.56447102   -8.0540664    728.25946  0.014110274  0.012613016         3836 
 4302000   0.56846505   -8.0470812    728.73823  0.014116268  0.012608317         3850 
 4303000    0.5669633   -8.0716533    727.77592  0.014094351  0.012603621         3874 
 4304000   0.56327468   -8.0567796    727.80037   0.01409155  0.012598922         3839 
 4305000   0.55833165   -8.0755135    726.29595  0.014059155  0.012594224         3850 
 4306000   0.55557941   -8.0512019    727.59053  0.014080944  0.012589533         3817 
 4307000   0.56487299   -8.0801018    727.67615  0.014079331  0.012584841         3828 
 4308000    0.5560274   -8.0596538    726.56393  0.014054548  0.012580152         3796 
 4309000   0.55772886   -8.0829371    728.36929  0.014086201  0.012575469         3864 
 4310000   0.56224295   -8.0702487    727.53725  0.014066846  0.012570787         3815 
 4311000   0.55422458   -8.0557926    728.35781  0.014079444  0.012566109         3804 
 4312000   0.55281936   -8.0805628     726.9589  0.014049144  0.012561431         3816 
 4313000   0.56554074   -8.0546556    727.26133   0.01405173  0.012556753         3830 
 4314000   0.56243268   -8.0658953    727.06861   0.01404475  0.012552078         3822 
 4315000   0.56718332   -8.0769607    728.74734  0.014073915  0.012547412         3818 
 4316000   0.55386163   -8.0691355    728.97627  0.014075075  0.012542742         3793 
 4317000    0.5608943   -8.0637203    727.37067  0.014040821  0.012538078         3793 
 4318000   0.56811968   -8.0606198    727.17377  0.014033769   0.01253341         3839 
 4319000   0.57016883   -8.0666477    729.84813   0.01408212  0.012528751         3776 
 4320000   0.55009687   -8.0981973    727.12872  0.014026403  0.012524086         3865 
 4321000   0.54645934   -8.0634102    727.07983  0.014022214  0.012519427         3774 
 4322000   0.57003323   -8.0803302    727.69023  0.014030739  0.012514773         3833 
 4323000   0.57189411   -8.0483078    728.55671  0.014044196  0.012510122         3802 
 4324000   0.57063639   -8.0745866    728.55957  0.014041003  0.012505476         3835 
 4325000   0.55041362   -8.0675166    727.73984  0.014021962  0.012500826         3872 
 4326000   0.56668915    -8.078945    727.99733  0.014023681  0.012496185         3838 
 4327000   0.56645857   -8.0711003    728.42092  0.014028598  0.012491541         3850 
 4328000   0.55859009   -8.0860775    727.28387  0.014003463  0.012486895         3865 
 4329000   0.56644771    -8.055753     727.4863  0.014004125  0.012482259         3859 
 4330000   0.56236703   -8.0732439    727.40074  0.013999244  0.012477622         3852 
 4331000   0.56482552   -8.0612549     727.6806  0.014001397  0.012472983         3850 
 4332000   0.55814758   -8.0876465    727.32546  0.013991333  0.012468348         3834 
 4333000    0.5709868   -8.0630438    726.91554   0.01398022  0.012463716         3818 
 4334000   0.56352689   -8.0830037     726.0028  0.013959445  0.012459084         3852 
 4335000   0.56989756   -8.0686179    727.89757  0.013992648  0.012454456         3844 
 4336000   0.55362626    -8.061676    727.32534  0.013978424  0.012449833         3784 
 4337000   0.54910976   -8.0714194    725.67276  0.013943447  0.012445205         3803 
 4338000   0.56153266   -8.0684332    727.37839  0.013972998   0.01244058         3809 
 4339000   0.56297148   -8.0719187    727.72542  0.013976443   0.01243596         3806 
 4340000   0.54631569   -8.0509288    727.42553  0.013967464   0.01243134         3831 
 4341000   0.55759901   -8.0811933    726.74696   0.01395122  0.012426722         3808 
 4342000   0.56493318   -8.0862247    726.85173  0.013950018  0.012422108         3848 
 4343000   0.55638368   -8.0546468    728.75699  0.013983364  0.012417501         3823 
 4344000   0.55551837   -8.0774885    727.21389  0.013950543  0.012412891         3819 
 4345000    0.5704483   -8.0496785    728.44153  0.013970877  0.012408289         3807 
 4346000   0.55020467   -8.0617207    727.40962  0.013947876  0.012403684         3814 
 4347000   0.54910372   -8.0756502    727.24063  0.013941428   0.01239908         3826 
 4348000   0.55565918   -8.0825636    727.76131  0.013948201  0.012394478         3847 
 4349000   0.55651922    -8.079996    727.66944  0.013943233  0.012389884         3826 
 4350000   0.56767507   -8.0608881     726.4529  0.013916722  0.012385288         3829 
 4351000   0.55338497   -8.0593893    728.20178  0.013947019    0.0123807         3831 
 4352000   0.54539487   -8.0595061    727.08531  0.013922436  0.012376105         3810 
 4353000   0.55163653   -8.0856554    727.61125  0.013929306  0.012371514         3870 
 4354000   0.56743159   -8.0765594    726.59459  0.013906649  0.012366928         3804 
 4355000   0.55396171   -8.0716227    726.59777  0.013903516  0.012362345         3845 
 4356000   0.54841435    -8.062792    728.29814  0.013932854  0.012357761         3827 
 4357000   0.55424829    -8.083746    727.68064  0.013917846  0.012353181         3822 
 4358000   0.54247016   -8.0509094     726.6778  0.013895476  0.012348603         3816 
 4359000   0.55542458   -8.0543103    728.04109  0.013918351  0.012344026         3846 
 4360000   0.55843248   -8.0821421    727.60772  0.013906875  0.012339448         3846 
 4361000   0.56600815   -8.0811307    727.34378  0.013898643   0.01233488         3801 
 4362000   0.55175516   -8.0796234    726.64066  0.013882024   0.01233031         3842 
 4363000   0.56242659   -8.0608306    727.42988  0.013893916  0.012325739         3820 
 4364000   0.55559702   -8.0866892    727.84218  0.013898606  0.012321172         3812 
 4365000    0.5520859   -8.0852551    727.41857  0.013887334  0.012316609         3807 
 4366000   0.56027063    -8.083044    726.70839  0.013870598  0.012312047         3842 
 4367000   0.54811817   -8.0813087    727.25606  0.013877873  0.012307492         3850 
 4368000    0.5513328   -8.0677798    727.65124  0.013882235  0.012302936         3816 
 4369000   0.55120169    -8.086572    725.94743   0.01384656  0.012298383         3776 
 4370000   0.54023067   -8.0759449    726.09745  0.013846252   0.01229383         3819 
 4371000   0.55587056   -8.0823724    727.69565  0.013873554  0.012289277         3840 
 4372000   0.56790838   -8.0772188    727.25826  0.013862044  0.012284732         3810 
 4373000    0.5541339   -8.0860972     726.2251  0.013839186  0.012280186         3815 
 4374000   0.55470176   -8.0732061    727.00845  0.013850946   0.01227564         3803 
 4375000   0.55253381   -8.0745498    726.99999  0.013847619  0.012271097         3844 
 4376000   0.55219877   -8.0983694    728.07659  0.013864956  0.012266557         3823 
 4377000   0.55940821   -8.0712295    727.02894  0.013841843  0.012262017         3846 
 4378000   0.55141953   -8.0603945    726.87433  0.013835738  0.012257481         3824 
 4379000   0.56378002   -8.0958876     725.5034  0.013806489  0.012252948         3814 
 4380000   0.55669977   -8.0896661    727.13116  0.013834307  0.012248417         3819 
 4381000   0.54285764   -8.0813224    727.28144  0.013834007  0.012243889         3818 
 4382000   0.54799389   -8.0825531    727.69749  0.013838763  0.012239358         3819 
 4383000   0.54608231    -8.081986    726.58408  0.013814436   0.01223483         3797 
 4384000   0.55227564   -8.0933443    727.62463  0.013831064  0.012230307         3836 
 4385000   0.54937899   -8.0750117    726.92621  0.013814637  0.012225784         3848 
 4386000   0.54843546   -8.0935624    728.36551  0.013838834  0.012221264         3820 
 4387000   0.55036433     -8.09885    725.58783  0.013782916  0.012216746         3818 
 4388000   0.54391741   -8.1023461    725.84209  0.013784604  0.012212232         3837 
 4389000   0.55167573   -8.0943579    727.00124  0.013803472  0.012207715         3820 
 4390000   0.55537744   -8.0819704    726.02767  0.013781846  0.012203206         3850 
 4391000   0.55322082   -8.0898043    727.87104  0.013813692  0.012198698         3839 
 4392000   0.56044778   -8.0883008     726.0852  0.013776662  0.012194191         3801 
 4393000   0.55020065   -8.0855915    726.42508  0.013779973   0.01218969         3813 
 4394000   0.56313426   -8.0671646    726.86242  0.013785132  0.012185192         3834 
 4395000   0.54107259   -8.0955914    727.09874  0.013786476  0.012180694         3838 
 4396000   0.53600972   -8.0739021    728.13971  0.013803073  0.012176199         3834 
 4397000   0.55009421   -8.0737193    726.84004  0.013775302  0.012171707         3809 
 4398000   0.54710585   -8.0979087    727.86588  0.013791608  0.012167218         3786 
 4399000   0.53965457   -8.0902628    726.52425  0.013763057  0.012162727         3813 
 4400000   0.55018355   -8.0908473    727.51151  0.013778627   0.01215824         3832 
 4401000   0.54868504   -8.0965147    725.90906  0.013745154  0.012153748         3823 
 4402000   0.53378533   -8.0733364    726.53775  0.013753933  0.012149267         3817 
 4403000   0.54006875   -8.1005449     726.5413  0.013750876  0.012144782         3824 
 4404000   0.54540742   -8.0969783    727.02981  0.013756998  0.012140301         3843 
 4405000   0.54693981   -8.0793421    727.20784  0.013757243  0.012135823         3805 
 4406000   0.54446436   -8.0777398    728.58269  0.013780123  0.012131346         3834 
 4407000   0.53396511   -8.0842219    726.01614  0.013728465   0.01212687         3817 
 4408000   0.52681404    -8.080942    727.58305  0.013754973  0.012122396         3812 
 4409000   0.54592487   -8.0932296    727.15542  0.013743771  0.012117926         3829 
 4410000   0.54207521   -8.0702519    726.70629  0.013732167  0.012113459         3803 
 4411000   0.54883936   -8.0878109    726.05702  0.013716788  0.012108993         3824 
 4412000   0.53906439   -8.0965832    725.86598  0.013710071  0.012104529         3799 
 4413000   0.54136338   -8.0884615    726.48125  0.013718582  0.012100066         3831 
 4414000   0.55673833   -8.0786189    725.63235  0.013699448  0.012095605         3790 
 4415000   0.55731726   -8.1013296    726.44016  0.013711592  0.012091145         3838 
 4416000   0.56118893   -8.0744195    726.35487  0.013706878  0.012086689         3855 
 4417000   0.54386678   -8.0791395    726.01188  0.013697304  0.012082233         3846 
 4418000   0.55596537   -8.0803029    727.21018  0.013716806  0.012077782         3835 
 4419000   0.55087795   -8.0824514    726.55933  0.013701428  0.012073331         3848 
 4420000   0.54779156    -8.105355    726.81184  0.013703089  0.012068885         3803 
 4421000   0.53297567   -8.1099593    726.95799  0.013702744   0.01206444         3830 
 4422000   0.55129589   -8.0951502    725.66271  0.013675236  0.012059994         3816 
 4423000    0.5361867   -8.0916156    726.25342  0.013683273  0.012055555         3814 
 4424000    0.5281432   -8.1030433    726.75366  0.013689603  0.012051112         3835 
 4425000   0.53949073   -8.0847418    726.54203  0.013682524  0.012046672         3827 
 4426000   0.54024771   -8.1132279    725.70185  0.013663614  0.012042236         3819 
 4427000   0.54169954   -8.0915362      726.548  0.013676455  0.012037801         3817 
 4428000    0.5330654   -8.0866085    725.62403  0.013655978  0.012033373         3859 
 4429000   0.53348616   -8.0998398    725.56757  0.013651832  0.012028944         3812 
 4430000   0.54213794   -8.0708965    727.13316  0.013678201  0.012024517         3840 
 4431000   0.54979249   -8.0962299    725.66553  0.013647512  0.012020086         3832 
 4432000   0.53783437   -8.0984117    726.62236  0.013662424   0.01201566         3839 
 4433000   0.53645439   -8.0980949    726.20619  0.013651519  0.012011242         3850 
 4434000   0.53848772   -8.0956073    727.91519  0.013680559   0.01200682         3848 
 4435000       0.5431   -8.1228819     725.9245  0.013640069  0.012002399         3838 
 4436000   0.54772071   -8.0949662     725.9018  0.013636568  0.011997981         3827 
 4437000   0.54060912   -8.0993488    725.17921  0.013619924  0.011993573         3868 
 4438000   0.53167957   -8.0946158    725.93342  0.013631017  0.011989158         3846 
 4439000   0.53428764   -8.1052922    725.30051  0.013616064  0.011984746         3815 
 4440000   0.53776029   -8.0926506    725.09419  0.013609125  0.011980338         3877 
 4441000   0.54497356   -8.0927193    725.46632  0.013613044  0.011975931         3824 
 4442000   0.53789428   -8.1188488     725.7896  0.013616044   0.01197153         3866 
 4443000   0.54620309   -8.1097118    726.76711  0.013631314  0.011967125         3875 
 4444000   0.53774706   -8.1034721    725.46736  0.013603873  0.011962725         3855 
 4445000   0.53536186   -8.1129879    726.07252  0.013612158  0.011958326         3854 
 4446000   0.53838602   -8.0773969     726.7495  0.013621786  0.011953931         3828 
 4447000   0.53199662   -8.0931015    726.10145  0.013606578  0.011949539         3821 
 4448000   0.55727205   -8.0881205    725.24457  0.013587466  0.011945147         3834 
 4449000   0.53876303   -8.1015582    727.02148  0.013617695  0.011940753         3830 
 4450000   0.53900266   -8.0927614    726.33574  0.013601793  0.011936365         3847 
 4451000   0.53284769   -8.0917976    725.49653  0.013583025  0.011931983         3784 
 4452000   0.53874812    -8.115738    725.00308  0.013570738    0.0119276         3850 
 4453000   0.54408371   -8.1011263    725.06558   0.01356886  0.011923217         3861 
 4454000   0.53706054   -8.1074863    726.64137  0.013595296  0.011918838         3847 
 4455000   0.53935752    -8.094155    726.32554  0.013586336  0.011914462         3838 
 4456000    0.5392206   -8.1013955    725.68433  0.013571296  0.011910084         3829 
 4457000   0.54358482   -8.0914622    725.86207  0.013571574   0.01190571         3832 
 4458000   0.53574117   -8.1051455    726.42621  0.013579075  0.011901343         3855 
 4459000   0.54484258   -8.1085272    725.78038   0.01356396   0.01189697         3858 
 4460000    0.5377059   -8.0949446    725.58488  0.013557266  0.011892599         3855 
 4461000   0.53429525   -8.1013029    725.86258  0.013559415  0.011888232         3878 
 4462000   0.53371716   -8.0945269    724.92205   0.01353881  0.011883871         3812 
 4463000   0.53737397    -8.094757    726.46688  0.013564622  0.011879511         3830 
 4464000   0.53577511   -8.1044531    725.34531  0.013540646  0.011875151         3863 
 4465000   0.52513847   -8.0950888    727.40357  0.013576028  0.011870796         3870 
 4466000   0.55321793   -8.1111644    726.44751  0.013555148   0.01186644         3831 
 4467000   0.53137294   -8.0917516    726.33884  0.013550087  0.011862087         3832 
 4468000   0.54015587   -8.1164061    725.92747  0.013539381  0.011857736         3855 
 4469000   0.53895717   -8.1023941    726.77316  0.013552121  0.011853383         3815 
 4470000   0.53760817   -8.1206508    726.10224  0.013536582  0.011849034         3850 
 4471000   0.54488812   -8.1087318    725.59147  0.013524034   0.01184469         3871 
 4472000   0.52987689   -8.0966294    726.05851  0.013529713  0.011840346         3859 
 4473000   0.54688183   -8.1059644    725.42782  0.013514938  0.011836002         3836 
 4474000   0.53278754   -8.1175646    726.23297  0.013526914  0.011831662         3844 
 4475000   0.54045671   -8.0972116    727.02194  0.013538584  0.011827326         3866 
 4476000   0.53606992   -8.0886739     725.0981  0.013499741  0.011822988         3846 
 4477000    0.5292932   -8.1018248    725.72533  0.013508401  0.011818658         3872 
 4478000   0.52730063   -8.1035763    727.59328  0.013540146  0.011814326         3841 
 4479000   0.53348418   -8.1060848    725.42818   0.01349684  0.011809996         3840 
 4480000   0.53704591   -8.1015292     726.9289  0.013521743  0.011805671         3835 
 4481000   0.53649046   -8.1103792    724.13457  0.013466759  0.011801344         3851 
 4482000   0.53799301   -8.1165954    725.69217  0.013492715   0.01179702         3853 
 4483000   0.53353147   -8.0971407    726.92627  0.013512645  0.011792702         3812 
 4484000   0.54154372   -8.1020021    724.74631  0.013469118  0.011788382         3818 
 4485000   0.53478897     -8.11476    725.14558  0.013473534  0.011784066         3827 
 4486000   0.52397355     -8.09538    725.98473  0.013486119  0.011779752         3828 
 4487000   0.53263355   -8.1196959     725.9179  0.013481872  0.011775436         3852 
 4488000     0.531815   -8.1155819    727.13475  0.013501462  0.011771131         3828 
 4489000   0.53683784   -8.0946043    725.21892  0.013462889  0.011766822         3800 
 4490000   0.54220122   -8.1062495    724.61451  0.013448673  0.011762512         3826 
 4491000   0.52423938   -8.1143847    726.95531  0.013489114  0.011758208         3793 
 4492000   0.52687301   -8.1184205    725.17733  0.013453127  0.011753905         3852 
 4493000    0.5361792   -8.1218054    725.28345    0.0134521  0.011749601         3843 
 4494000   0.53202841   -8.1150368    726.41073  0.013470011  0.011745301         3837 
 4495000   0.53167741   -8.1164741    725.57557  0.013451531  0.011741006         3819 
 4496000   0.54401151   -8.1341362    726.20907  0.013460281  0.011736715         3841 
 4497000   0.53845168   -8.1108744    727.25178   0.01347661  0.011732426         3832 
 4498000   0.52663874   -8.1171169     725.6711  0.013444329  0.011728136         3868 
 4499000   0.53418623   -8.1141185    725.70627  0.013441992  0.011723846         3863 
 4500000   0.52850368   -8.1034541    725.85439  0.013441748  0.011719554         3827 
 4501000   0.52506375   -8.1224956    725.36239  0.013429653  0.011715266         3831 
 4502000    0.5255685   -8.1250325    725.44157  0.013428135  0.011710979         3823 
 4503000   0.52865965   -8.1182784    725.88645  0.013433386  0.011706696         3866 
 4504000    0.5350096   -8.1154173    723.32357  0.013382985  0.011702417         3829 
 4505000   0.53919434   -8.1295666    724.59015  0.013403443  0.011698135         3849 
 4506000    0.5299323   -8.1255457    725.46709  0.013416687   0.01169386         3855 
 4507000   0.52437118   -8.1054326    725.72348  0.013418451  0.011689582         3850 
 4508000   0.52658851   -8.1075512    725.00684  0.013402226  0.011685311         3848 
 4509000   0.53611031   -8.1168537    725.51338  0.013408616  0.011681038         3826 
 4510000   0.53509808   -8.1121142    724.42652   0.01338556  0.011676766         3855 
 4511000   0.53698095    -8.131851    725.65267  0.013405244  0.011672502         3854 
 4512000   0.53859504   -8.1164825    725.90026  0.013406846  0.011668237         3860 
 4513000   0.51376291   -8.1185131    726.09616  0.013407493  0.011663972         3825 
 4514000   0.52642096   -8.1326699    725.45872  0.013392754  0.011659711         3860 
 4515000   0.52962302   -8.1089391    727.68608  0.013430898  0.011655453         3812 
 4516000   0.52815569   -8.1274122    725.23062  0.013382614  0.011651198         3843 
 4517000   0.53315138   -8.1188807    727.39273   0.01341954  0.011646943         3851 
 4518000   0.52700337   -8.1190064    725.99955  0.013390873  0.011642691         3858 
 4519000    0.5155523   -8.1308958    725.80611  0.013384342  0.011638436         3845 
 4520000   0.53198772   -8.1137654    725.23502  0.013370852  0.011634185         3853 
 4521000   0.52321242    -8.099924    725.63845  0.013375331  0.011629941         3826 
 4522000   0.54549365     -8.12761     724.0465  0.013343036  0.011625694         3851 
 4523000   0.52585571   -8.1124917    725.54801   0.01336775  0.011621449         3815 
 4524000   0.51965103   -8.1099574      724.612  0.013347554  0.011617209         3844 
 4525000   0.53879056   -8.1145835    726.15568  0.013373033  0.011612971         3841 
 4526000    0.5360322   -8.1324043    724.81035  0.013345308  0.011608733         3864 
 4527000   0.52825065    -8.123251    725.33103  0.013351944  0.011604498         3860 
 4528000   0.53290801    -8.121161    725.48936   0.01335191  0.011600266         3855 
 4529000   0.52465822   -8.1152594    724.43895  0.013329634  0.011596036         3857 
 4530000   0.52477953   -8.1243083    724.80994  0.013333516  0.011591807         3849 
 4531000   0.52431362   -8.1061639    725.37013  0.013340876   0.01158758         3844 
 4532000   0.52648621   -8.1245407    724.63322  0.013324383  0.011583354         3815 
 4533000   0.52026891   -8.1206977    723.93765  0.013308656  0.011579133         3868 
 4534000   0.51987566   -8.1104494    725.53399  0.013335061  0.011574912         3825 
 4535000   0.51819278   -8.1457809    725.47264  0.013330993  0.011570693         3848 
 4536000   0.52392095   -8.0986254    725.77194  0.013333553  0.011566476         3811 
 4537000   0.52426684   -8.1368823    724.71922  0.013311278   0.01156226         3889 
 4538000   0.53792435    -8.133417    725.85842  0.013329264  0.011558048         3846 
 4539000   0.53327155   -8.1116948    726.05067  0.013329857  0.011553838         3839 
 4540000   0.52709657   -8.1221791    724.88639   0.01330555  0.011549629         3851 
 4541000   0.52093911   -8.1180066    726.09176  0.013324741  0.011545416         3847 
 4542000   0.52711546   -8.1191116    722.87966  0.013262874  0.011541207         3839 
 4543000   0.53214963   -8.1192632    725.51055  0.013308213  0.011537005         3852 
 4544000   0.52493548   -8.1295026    724.96011   0.01329519  0.011532805         3841 
 4545000   0.51880986   -8.1240616    726.04876  0.013312225  0.011528605         3856 
 4546000   0.51807106   -8.1324175     725.9796  0.013308029  0.011524406         3834 
 4547000   0.51410866   -8.1131607    723.16099  0.013253445   0.01152021         3864 
 4548000   0.51865216   -8.1164657    725.38834  0.013291343  0.011516018         3841 
 4549000   0.51963143   -8.1202323     725.0392  0.013282025  0.011511822         3837 
 4550000    0.5162294   -8.1293078    725.26989  0.013283331  0.011507631         3829 
 4551000   0.53730828   -8.1330233    724.70109  0.013269997  0.011503442         3881 
 4552000   0.52963257   -8.1391451    724.64419   0.01326604  0.011499257         3855 
 4553000   0.51102954   -8.1357046    724.52393  0.013260926  0.011495074         3856 
 4554000   0.52317368    -8.102128    726.23791  0.013289378  0.011490894         3844 
 4555000   0.52252657   -8.1220194    725.35848  0.013270371  0.011486713         3858 
 4556000   0.50588923   -8.1384438    726.29303  0.013284552  0.011482534         3842 
 4557000   0.53061286   -8.1347352    725.78349  0.013272319  0.011478358         3841 
 4558000   0.51848438   -8.1234819    723.91174  0.013235186  0.011474182         3861 
 4559000   0.52295697   -8.1174571    723.95892  0.013233145  0.011470008         3839 
 4560000   0.52120897   -8.1105133    724.77289  0.013245119  0.011465837         3882 
 4561000   0.52739143   -8.1169517    724.47242  0.013236725  0.011461665         3836 
 4562000   0.52083299   -8.1197786    725.77692  0.013257652  0.011457498         3864 
 4563000   0.52563719   -8.1219316    724.98769  0.013240333  0.011453334         3864 
 4564000   0.51115839   -8.1387275    724.14948  0.013222128  0.011449172         3894 
 4565000   0.52051792   -8.1358006      726.259   0.01325774  0.011445008         3885 
 4566000    0.5211513   -8.1299854    724.17054   0.01321672   0.01144085         3866 
 4567000   0.51868962   -8.1304578    725.18066  0.013232258   0.01143669         3857 
 4568000   0.52518075   -8.1378441    724.71981  0.013220954  0.011432532         3870 
 4569000   0.51843672   -8.1291217    724.49186  0.013213903   0.01142838         3828 
 4570000   0.52488801    -8.120784    725.32877  0.013226272  0.011424225         3853 
 4571000   0.53700327   -8.1292631     724.5378  0.013208959  0.011420074         3842 
 4572000   0.50889075    -8.130845    725.31435  0.013220224  0.011415929         3871 
 4573000   0.52594742   -8.1353408    725.54916  0.013221612  0.011411782         3851 
 4574000   0.52370103    -8.134384    726.46773  0.013235456  0.011407637         3853 
 4575000   0.52978894   -8.1372583    723.83572  0.013184622  0.011403496         3848 
 4576000   0.52095228   -8.1287855    723.82009  0.013181456  0.011399358         3871 
 4577000    0.5152232    -8.138651    725.14934  0.013202777  0.011395218         3890 
 4578000   0.52426518   -8.1271964    723.46827  0.013169293   0.01139108         3849 
 4579000   0.51568678     -8.11657    724.79476  0.013190558  0.011386943         3850 
 4580000   0.51456155   -8.1132883    725.26175  0.013196175   0.01138281         3859 
 4581000   0.51090092   -8.1434114    724.08414  0.013171872  0.011378679         3829 
 4582000   0.52223544   -8.1308738    725.47671  0.013194324  0.011374556         3846 
 4583000    0.5168007   -8.1469007    724.97814  0.013182379  0.011370429         3889 
 4584000   0.52024982   -8.1422324    723.69632  0.013156201  0.011366303         3867 
 4585000   0.51949512   -8.1279005    725.14736  0.013179705  0.011362183         3849 
 4586000   0.51436585   -8.1327452    724.08815  0.013157584  0.011358061         3834 
 4587000   0.52864731   -8.1411912    724.97305  0.013170792  0.011353942         3835 
 4588000   0.51318271   -8.1389526    724.81434  0.013165038  0.011349824         3848 
 4589000   0.52286137    -8.129244    724.86528  0.013163094  0.011345711         3829 
 4590000   0.52622311   -8.1310904    724.00857  0.013144673    0.0113416         3855 
 4591000   0.51939274   -8.1430796    724.34431  0.013147904  0.011337492         3846 
 4592000   0.50729587   -8.1415247    723.27814  0.013125692  0.011333382         3883 
 4593000   0.51648002   -8.1243609    724.71678  0.013148936   0.01132927         3841 
 4594000   0.51396144   -8.1269512    724.77039  0.013147047  0.011325167         3837 
 4595000   0.51556954   -8.1169171    724.00892  0.013130376  0.011321062         3861 
 4596000   0.52682898   -8.1306862    724.70947  0.013140221  0.011316961         3853 
 4597000    0.5171154   -8.1373398    723.59989  0.013117248  0.011312861         3860 
 4598000   0.52538097   -8.1354871    724.25921  0.013126345  0.011308764         3838 
 4599000   0.51036245   -8.1286951    724.32759   0.01312473  0.011304669         3863 
 4600000   0.51182114    -8.119077    725.71046  0.013146929  0.011300574         3814 
 4601000   0.52322513   -8.1392048    723.45286  0.013103182  0.011296484         3836 
 4602000   0.51160627   -8.1526796    724.67729  0.013122506  0.011292393         3858 
 4603000   0.51884454   -8.1380763    724.48641    0.0131162  0.011288305         3831 
 4604000   0.51436796   -8.1166486    724.34709  0.013110829  0.011284218         3845 
 4605000   0.52449023   -8.1423007    723.66591  0.013095655  0.011280133         3850 
 4606000   0.51485462   -8.1370871    723.86693  0.013096449  0.011276048         3859 
 4607000   0.51209248   -8.1348059    725.21356  0.013117965  0.011271967         3844 
 4608000   0.51376615    -8.141064    724.97847  0.013110866  0.011267891         3876 
 4609000    0.5171327    -8.133004    725.05764  0.013109453  0.011263811         3847 
 4610000   0.50383205   -8.1501174    724.95171  0.013104695  0.011259733         3845 
 4611000   0.50542566   -8.1377445    723.28245  0.013071685  0.011255658         3858 
 4612000   0.51882116   -8.1447677    724.67923  0.013094088  0.011251587         3882 
 4613000   0.51226423   -8.1329497     724.3078   0.01308454  0.011247515         3858 
 4614000   0.51407814   -8.1453902    722.51036  0.013049241  0.011243441         3843 
 4615000   0.52188215   -8.1320403    723.91756  0.013071823  0.011239373         3875 
 4616000   0.51940423   -8.1433956    724.53149  0.013080075  0.011235312         3814 
 4617000    0.5046801   -8.1579944    725.45844  0.013093972  0.011231252         3882 
 4618000    0.5192204   -8.1325916    723.67118  0.013058885   0.01122719         3860 
 4619000   0.51594767   -8.1507015    724.37431  0.013068743  0.011223132         3860 
 4620000   0.51510779   -8.1498391    725.85703  0.013092659  0.011219076         3889 
 4621000   0.51328872   -8.1380621    724.70102  0.013068979   0.01121502         3874 
 4622000   0.51779814   -8.1368484    723.37596  0.013042261  0.011210968         3878 
 4623000   0.50801389    -8.149636    724.51363  0.013059947  0.011206916         3858 
 4624000   0.50110254   -8.1438641    725.81922  0.013080652  0.011202867         3862 
 4625000   0.50697295   -8.1309439    724.38616  0.013052003  0.011198817         3874 
 4626000   0.51015161   -8.1377564    724.55343  0.013052195   0.01119477         3863 
 4627000    0.5105538   -8.1330257    725.19488  0.013060926  0.011190728         3843 
 4628000   0.51527625   -8.1303083     726.4483  0.013080674  0.011186687         3852 
 4629000   0.51796185   -8.1332754    724.45537   0.01304197  0.011182649         3870 
 4630000   0.51528093   -8.1643858    724.42017   0.01303852  0.011178613         3839 
 4631000   0.50869236   -8.1591917     725.1186  0.013048272  0.011174577         3867 
 4632000   0.51648134   -8.1340174    724.21257  0.013029155  0.011170545         3839 
 4633000    0.5099906    -8.125944    725.10848  0.013042458  0.011166512         3842 
 4634000    0.5169665   -8.1536025    724.00081  0.013019724  0.011162484         3873 
 4635000   0.51335431   -8.1530993     724.1258  0.013019162  0.011158455         3838 
 4636000   0.50921037   -8.1403304    724.29159  0.013019334  0.011154429         3853 
 4637000    0.5150111   -8.1456437    724.63426  0.013022685  0.011150403         3857 
 4638000   0.51247336   -8.1250116    724.49478  0.013017371   0.01114638         3865 
 4639000   0.51738913   -8.1341085    723.75268  0.013001234   0.01114236         3855 
 4640000   0.51308667   -8.1385513    724.13037  0.013005215  0.011138339         3855 
 4641000    0.5122421   -8.1413018    723.70719  0.012994814  0.011134321         3871 
 4642000   0.50007711    -8.147307    722.85633   0.01297674  0.011130305         3856 
 4643000   0.50685702   -8.1503422    724.04717  0.012995319  0.011126291         3847 
 4644000   0.50415804   -8.1519321    723.43764  0.012981583  0.011122278         3889 
 4645000   0.50472314   -8.1461486    723.87082  0.012986559  0.011118268         3846 
 4646000   0.50160211   -8.1649691    724.09232  0.012987737  0.011114261         3859 
 4647000   0.50657289   -8.1388168    724.53574  0.012992894  0.011110254         3827 
 4648000   0.50009363    -8.141925    724.31254  0.012986097   0.01110625         3860 
 4649000   0.50880715   -8.1477241    724.00498   0.01297779  0.011102247         3849 
 4650000   0.50429885   -8.1470603    724.31115  0.012980487  0.011098246         3822 
 4651000   0.51068182   -8.1321703    724.52045  0.012981446  0.011094246         3844 
 4652000   0.50878828   -8.1479311    723.16183  0.012954318  0.011090253         3871 
 4653000   0.51716574   -8.1599613    723.80014  0.012962966  0.011086258         3824 
 4654000   0.49238579   -8.1342027    723.55516  0.012955794  0.011082267         3869 
 4655000   0.50548764   -8.1560216    723.94391   0.01295997  0.011078277         3846 
 4656000   0.50523664   -8.1748636    724.48653  0.012966898  0.011074291         3863 
 4657000   0.49397953   -8.1513794    723.77201  0.012951328  0.011070302         3850 
 4658000   0.50187613   -8.1565209    724.79366  0.012966825  0.011066319         3855 
 4659000   0.50865114   -8.1420844    724.58117  0.012960241  0.011062338         3834 
 4660000   0.51016573   -8.1341833    723.88887   0.01294508  0.011058359         3845 
 4661000   0.51113212   -8.1462364    724.22211  0.012948261  0.011054382         3866 
 4662000   0.49112607    -8.160242    724.66606  0.012953419  0.011050404         3871 
 4663000   0.49250979   -8.1477462    724.71286  0.012951477  0.011046427         3844 
 4664000   0.50965951   -8.1491754    723.11067  0.012920073  0.011042453         3838 
 4665000   0.49966019   -8.1519491    725.20562  0.012954727  0.011038484         3821 
 4666000   0.51396553    -8.165993    723.12392  0.012914772  0.011034516         3836 
 4667000   0.50384495   -8.1612803    724.20779  0.012931358  0.011030549         3887 
 4668000   0.51348044   -8.1616767    723.99755  0.012924835  0.011026583         3843 
 4669000   0.50358084   -8.1511326    723.79285  0.012918413  0.011022618         3850 
 4670000   0.50360014   -8.1404175     723.4188  0.012908972  0.011018658         3856 
 4671000   0.50340894   -8.1385325       723.11  0.012900699  0.011014698         3849 
 4672000   0.51129668   -8.1570831    725.15222  0.012934365  0.011010737         3837 
 4673000   0.51310248   -8.1786136    723.63876  0.012904607  0.011006781         3865 
 4674000   0.49975366   -8.1562902     723.6163  0.012901446  0.011002825         3874 
 4675000   0.51606175    -8.150528    723.44568  0.012895645  0.010998874         3847 
 4676000   0.50405272   -8.1443485    724.11993  0.012904903  0.010994924         3868 
 4677000   0.51148182    -8.160943    723.39222  0.012889178  0.010990974         3830 
 4678000   0.49725627   -8.1733824    723.77964  0.012893324  0.010987029         3851 
 4679000   0.51059365    -8.163402    723.53234  0.012886164  0.010983079         3837 
 4680000   0.49644644   -8.1532305    723.55694  0.012883849  0.010979138         3827 
 4681000   0.50470657   -8.1582268     724.2601  0.012893614  0.010975196         3868 
 4682000   0.49769022   -8.1519225    723.97069  0.012885709  0.010971255         3841 
 4683000   0.49999187    -8.144583    723.54044  0.012875301  0.010967314         3844 
 4684000   0.50890768   -8.1496682    724.66271  0.012892519   0.01096338         3831 
 4685000    0.4991195   -8.1549431    725.01972  0.012896117  0.010959446         3837 
 4686000   0.50021266   -8.1500529    724.84919  0.012890333  0.010955512         3850 
 4687000   0.50207126   -8.1437031    723.77102  0.012868413  0.010951581         3867 
 4688000   0.50250584   -8.1602136    724.65103  0.012881311  0.010947653         3833 
 4689000   0.49715564   -8.1619026    723.90101  0.012865234  0.010943725         3839 
 4690000   0.50337199   -8.1635541    723.73728  0.012859582  0.010939797         3859 
 4691000   0.50564852    -8.157059    723.39084  0.012850686  0.010935872         3871 
 4692000   0.50627461    -8.151014     723.6595  0.012852719  0.010931954         3849 
 4693000   0.49747986    -8.154165    723.71548  0.012850974  0.010928033         3867 
 4694000   0.49970392   -8.1723701    723.85029   0.01285063  0.010924118         3842 
 4695000   0.50159403   -8.1517242    724.73584  0.012863611  0.010920198         3870 
 4696000   0.49371453   -8.1427735    723.73472  0.012843106  0.010916284         3828 
 4697000   0.50663806   -8.1755525    722.64786  0.012821089  0.010912371         3866 
 4698000   0.50057423   -8.1726953    723.99383  0.012842235  0.010908461         3859 
 4699000   0.49770884   -8.1590884    723.98408  0.012839329  0.010904551         3869 
 4700000   0.50695328   -8.1571973    723.37196  0.012825744  0.010900642         3851 
 4701000   0.49946825   -8.1563423    724.62312  0.012845195  0.010896736         3846 
 4702000   0.49572097   -8.1497427    723.90456  0.012829728  0.010892832         3852 
 4703000   0.50519165   -8.1623026    723.13517  0.012813367  0.010888931         3848 
 4704000   0.49019271   -8.1409641      724.283  0.012830977  0.010885035         3865 
 4705000   0.48878976   -8.1648158    723.84894  0.012820562  0.010881136         3889 
 4706000    0.5027416   -8.1521134    722.87726  0.012800631   0.01087724         3850 
 4707000   0.51026118   -8.1595807     724.2972  0.012823051  0.010873346         3835 
 4708000   0.47562823   -8.1565304    722.63609  0.012790925  0.010869455         3856 
 4709000   0.49496682   -8.1578705    724.60015  0.012822966  0.010865562         3872 
 4710000   0.51191163    -8.164038    723.97998  0.012809271  0.010861671         3853 
 4711000   0.49803413   -8.1786756    722.68528   0.01278365  0.010857781         3870 
 4712000   0.49764145   -8.1706746     724.2401  0.012808434  0.010853892         3833 
 4713000   0.49418158   -8.1581009    723.31182  0.012789303   0.01085001         3865 
 4714000   0.50487777   -8.1745821    723.16805  0.012784048  0.010846125         3853 
 4715000   0.49075395   -8.1598484    723.98253  0.012795732  0.010842244         3838 
 4716000   0.50663165   -8.1751962    722.53947   0.01276752  0.010838367         3870 
 4717000   0.49473922    -8.175282    722.93921  0.012771875  0.010834491         3846 
 4718000   0.50049712   -8.1807285    723.67637  0.012782188  0.010830613         3844 
 4719000   0.49537041   -8.1639776       722.78   0.01276365  0.010826737         3870 
 4720000   0.48145839   -8.1657566     723.7606  0.012778259  0.010822866         3850 
 4721000   0.49330645   -8.1739668    723.52441  0.012771383  0.010818997         3853 
 4722000   0.49792701   -8.1691269    722.66506  0.012753513  0.010815129         3866 
 4723000   0.49383962   -8.1737424    724.45279  0.012782356  0.010811263         3853 
 4724000   0.49375128   -8.1741566    722.18503  0.012739646  0.010807397         3870 
 4725000   0.49852968   -8.1737776    723.12968   0.01275361  0.010803536         3877 
 4726000    0.4890377    -8.170704    723.89144  0.012764343  0.010799675         3855 
 4727000   0.48971472   -8.1719341     723.0433  0.012746691  0.010795818         3879 
 4728000   0.49286888   -8.1545947    723.53294  0.012752625  0.010791959         3839 
 4729000   0.50178728   -8.1662832    723.88733  0.012756173  0.010788103         3824 
 4730000   0.50290597    -8.163781    722.97429  0.012737391  0.010784247         3858 
 4731000   0.48815615   -8.1615241    724.07963  0.012754168  0.010780392         3877 
 4732000    0.4986117   -8.1684015    722.32266  0.012720532   0.01077654         3849 
 4733000   0.49817615   -8.1737456    724.11989  0.012749487  0.010772687         3855 
 4734000   0.49344751   -8.1605144    723.43758  0.012734784  0.010768838         3809 
 4735000   0.50115781   -8.1632007    723.08983  0.012725974  0.010764994         3819 
 4736000   0.49039784   -8.1747666    723.47289  0.012730027  0.010761152         3854 
 4737000   0.49714268   -8.1620556    722.29318  0.012706586  0.010757312         3869 
 4738000   0.49406472   -8.1763858    723.03086  0.012716879  0.010753475         3884 
 4739000   0.49849411   -8.1584899    723.67267  0.012725481  0.010749635         3858 
 4740000    0.4930051   -8.1857751    723.86749  0.012726222  0.010745803         3859 
 4741000   0.49465126   -8.1616993     724.3135  0.012731377  0.010741965         3837 
 4742000   0.48975395   -8.1753912    723.40628  0.012712749  0.010738135         3849 
 4743000   0.49442506   -8.1614591    723.03702  0.012703581  0.010734304         3858 
 4744000   0.48207656   -8.1607144    724.02637  0.012718282  0.010730472         3881 
 4745000   0.49457007   -8.1644766    723.67669  0.012709461  0.010726647         3843 
 4746000   0.48657706   -8.1785184    723.13316  0.012697239   0.01072282         3873 
 4747000   0.50021906   -8.1805173    722.93798  0.012691138  0.010718997         3876 
 4748000   0.49157805   -8.1782009    724.07007  0.012708335  0.010715176         3849 
 4749000   0.49586919   -8.1775149    722.69649  0.012681556  0.010711356         3868 
 4750000   0.49465187   -8.1734279    723.36997  0.012690701  0.010707539         3889 
 4751000   0.48628463    -8.176425    723.18787  0.012684836  0.010703723         3842 
 4752000   0.49355323   -8.1534464    723.94939  0.012695521  0.010699906         3890 
 4753000   0.49987334   -8.1761635    723.87281  0.012691507  0.010696093         3857 
 4754000   0.49280753   -8.1744158    722.94044  0.012672494   0.01069228         3861 
 4755000    0.4931802    -8.180157    722.44592  0.012661162  0.010688471         3862 
 4756000   0.49835277   -8.1819247    722.50171  0.012659478   0.01068466         3866 
 4757000   0.49233303   -8.1797862    723.69391  0.012677701  0.010680854         3859 
 4758000   0.48384198   -8.1747165    722.82487  0.012659816  0.010677051         3862 
 4759000   0.48272086   -8.1838423    722.40314  0.012649771  0.010673247         3868 
 4760000   0.49445224   -8.1800792    724.59234   0.01268544  0.010669448         3851 
 4761000   0.50008494   -8.1779601    722.10241  0.012639194  0.010665651         3867 
 4762000   0.49165375    -8.158483    723.05473  0.012653205  0.010661851         3843 
 4763000   0.49889912   -8.1584111    722.99171  0.012649445  0.010658056         3866 
 4764000   0.49402208   -8.1685579    723.23017  0.012650962  0.010654262         3848 
 4765000   0.48519661   -8.1715761    722.35932  0.012633077  0.010650468         3890 
 4766000   0.48767619   -8.1750122    722.02455  0.012624573  0.010646678         3839 
 4767000   0.48739295    -8.169348    723.15494  0.012641685   0.01064289         3846 
 4768000    0.4854651   -8.1615303    723.79941  0.012650297  0.010639103         3820 
 4769000   0.49676042   -8.1855119    723.23587  0.012637797  0.010635324         3877 
 4770000   0.48587341   -8.1762403    722.88406  0.012629002  0.010631543         3828 
 4771000   0.48609549   -8.1801098    722.83531  0.012625503  0.010627761         3817 
 4772000   0.49258141   -8.1794775    721.05549  0.012591777  0.010623981         3851 
 4773000   0.49188997   -8.1922968    722.27017  0.012610346  0.010620201         3864 
 4774000    0.4874746   -8.1694872     722.8989  0.012618679  0.010616425         3850 
 4775000   0.48684255   -8.1779148     723.5247  0.012626958  0.010612648         3877 
 4776000   0.48960275   -8.1778702    722.08574  0.012599207  0.010608875         3846 
 4777000   0.49382852   -8.1772524    721.92074  0.012593691  0.010605103         3867 
 4778000   0.48457619   -8.1784753    723.56289  0.012619696  0.010601333         3853 
 4779000   0.49058023   -8.1740619    722.18754  0.012593073  0.010597566         3875 
 4780000   0.48579901   -8.1752445    722.70839  0.012599519    0.0105938         3864 
 4781000   0.48864603   -8.1908924    723.20717  0.012605577  0.010590035         3860 
 4782000   0.48638279   -8.1774376    724.09975  0.012618496  0.010586271         3874 
 4783000   0.48666415   -8.1706034     722.9969  0.012596643   0.01058251         3882 
 4784000   0.47645956   -8.1735103    722.17563  0.012579704  0.010578749         3872 
 4785000   0.49536144    -8.174925    722.04102   0.01257473   0.01057499         3858 
 4786000   0.48682928    -8.172833    722.94772   0.01258789  0.010571236         3859 
 4787000   0.48977374   -8.1720503     722.2669  0.012573409   0.01056748         3844 
 4788000   0.48648306   -8.1902057    722.25349  0.012570549  0.010563729         3859 
 4789000   0.48579971   -8.1741722    723.88014   0.01259623  0.010559978         3854 
 4790000   0.48231089   -8.1847672    723.24098  0.012582481  0.010556229         3847 
 4791000   0.48348669   -8.1948693    722.04192  0.012558998   0.01055248         3857 
 4792000   0.49140692   -8.1755859    723.36252  0.012579343  0.010548735         3851 
 4793000   0.47545106   -8.1866059    723.93483  0.012586669  0.010544988         3867 
 4794000   0.48971512   -8.1625558    723.06837  0.012568981  0.010541247         3835 
 4795000   0.48968969    -8.171898       722.32  0.012553354  0.010537505         3857 
 4796000   0.48226843   -8.1905874    723.23652  0.012566662  0.010533765         3887 
 4797000   0.48691176   -8.1812873    722.14907  0.012545151  0.010530031         3874 
 4798000   0.48174621   -8.1891339    721.67974  0.012534385  0.010526295         3871 
 4799000   0.48333605   -8.1865771    723.00908  0.012554857  0.010522561         3884 
 4800000   0.48117671   -8.1861494    722.75224  0.012547782  0.010518828         3865 
 4801000   0.48897349    -8.205773    722.17305  0.012535115  0.010515102         3856 
 4802000    0.4909451   -8.1736186    721.91373  0.012528005  0.010511374         3843 
 4803000   0.48100834   -8.1630431    722.72722   0.01253951  0.010507647         3881 
 4804000   0.49796627   -8.1783843    722.63382   0.01253528  0.010503923         3841 
 4805000   0.48140735   -8.1883148    721.97163  0.012521187  0.010500198         3872 
 4806000   0.47845816   -8.1865502     722.6046  0.012529557  0.010496479         3856 
 4807000   0.49422452   -8.1810232    723.42012  0.012541088  0.010492757         3850 
 4808000   0.47912717   -8.1826011    722.54295  0.012523276  0.010489039         3845 
 4809000   0.48132946   -8.1953496    722.72882  0.012523893  0.010485322         3834 
 4810000   0.46657088   -8.1953516    721.40159  0.012498295  0.010481606         3844 
 4811000   0.47594207   -8.1968626    723.12783  0.012525598   0.01047789         3860 
 4812000   0.48199735   -8.1830501    722.36281  0.012509747  0.010474181         3859 
 4813000   0.47013225   -8.1790579     722.8416  0.012515437  0.010470473         3830 
 4814000   0.47367027   -8.1727914    722.45387  0.012506126  0.010466764         3824 
 4815000   0.47328511   -8.1744266    723.38518  0.012519647  0.010463056         3853 
 4816000   0.47393419   -8.1851857     723.0436  0.012511136   0.01045935         3869 
 4817000   0.48335246    -8.182861    723.26278  0.012512331  0.010455647         3868 
 4818000    0.4669927   -8.1856549    722.40529  0.012494903  0.010451944         3860 
 4819000   0.48414226   -8.1874318    723.19383  0.012505946  0.010448245         3879 
 4820000   0.47914874   -8.1789855    724.07239  0.012518541  0.010444547         3831 
 4821000   0.48841267   -8.2035501    723.34405  0.012503354   0.01044085         3888 
 4822000   0.46904323   -8.1833661    722.93595  0.012493709  0.010437153         3858 
 4823000   0.49286065   -8.1979542    721.78108  0.012471164  0.010433461         3862 
 4824000   0.48595384   -8.1880228    722.06629  0.012473506  0.010429773         3888 
 4825000    0.4747182   -8.1939659    723.01286  0.012487269  0.010426084         3881 
 4826000   0.47703423   -8.1704134    722.04214  0.012467919  0.010422397         3885 
 4827000   0.48209278   -8.1937938    722.09072  0.012466175   0.01041871         3874 
 4828000   0.47768929   -8.1897958    722.19325  0.012465363  0.010415025         3847 
 4829000   0.48041549   -8.1872775    722.59554  0.012469724  0.010411342         3838 
 4830000   0.49001901   -8.1776052    722.94549   0.01247318  0.010407661         3847 
 4831000   0.48515578   -8.1850714    721.96804  0.012453737  0.010403983         3841 
 4832000    0.4860814   -8.1877762    721.75039  0.012447406  0.010400307         3819 
 4833000   0.47175135   -8.1738182    722.71725  0.012461502  0.010396631         3874 
 4834000   0.47916133   -8.1909552    722.48713  0.012454957  0.010392957         3869 
 4835000   0.47048105   -8.1899689    722.43754  0.012451526  0.010389287         3851 
 4836000   0.48191766   -8.1840042    722.59045  0.012451586  0.010385616         3850 
 4837000   0.47477859   -8.1956776    722.78074   0.01245229  0.010381945         3858 
 4838000   0.46275743   -8.1996054    722.18328  0.012439425  0.010378278         3868 
 4839000   0.48503292   -8.2018255    722.84015  0.012448167  0.010374611         3852 
 4840000   0.47493656   -8.1872028    722.01196  0.012431335  0.010370945         3861 
 4841000   0.48234395   -8.1798102    722.54815  0.012437998  0.010367281         3867 
 4842000   0.48504099   -8.1957319     721.7308  0.012421362  0.010363622         3875 
 4843000    0.4715622   -8.1904923    722.21141  0.012427067  0.010359963         3830 
 4844000   0.47750636   -8.1912019    720.93263  0.012402502  0.010356306         3855 
 4845000   0.48765387   -8.1967272    722.24741  0.012422556  0.010352652         3846 
 4846000   0.48480123   -8.2047526    721.35932  0.012404721  0.010348996         3846 
 4847000     0.478024   -8.1843007    722.10832  0.012415039  0.010345345         3822 
 4848000   0.47768008   -8.2059703    722.56326  0.012420298  0.010341695         3866 
 4849000    0.4749689    -8.193696    722.64983  0.012419224  0.010338045         3858 
 4850000   0.48359184   -8.1902302    722.33294  0.012411219  0.010334395         3893 
 4851000   0.47917211   -8.2020501      722.728  0.012415447  0.010330751         3837 
 4852000   0.47151627   -8.1825966    723.40407    0.0124245   0.01032711         3837 
 4853000   0.46084963   -8.1859972    722.27857  0.012402613  0.010323468         3869 
 4854000   0.49036427   -8.1864202    721.58429  0.012388138  0.010319825         3862 
 4855000   0.47842403   -8.2010667    722.63758  0.012403666  0.010316185         3859 
 4856000   0.47960621   -8.1987682    721.65413  0.012384235  0.010312547         3866 
 4857000   0.47023079   -8.1964602    721.29689  0.012375556  0.010308913         3876 
 4858000   0.47071431   -8.1975263    721.51461  0.012376743   0.01030528         3869 
 4859000   0.45677938   -8.1942006    721.92266  0.012381194  0.010301646         3853 
 4860000    0.4819213   -8.1971959    723.36172  0.012403322  0.010298016         3873 
 4861000   0.46126174   -8.2104657    722.64394  0.012388465  0.010294386         3878 
 4862000   0.47784535   -8.2045201    721.39346  0.012364484  0.010290758         3856 
 4863000   0.48454388   -8.2009489    721.69427  0.012367096  0.010287131         3855 
 4864000   0.47323638   -8.2036202    723.14197  0.012389357  0.010283507         3847 
 4865000   0.46796334   -8.1908164    721.50856  0.012358831  0.010279883         3879 
 4866000   0.48014738   -8.1852714    721.83745  0.012361924  0.010276262         3851 
 4867000   0.46776469   -8.2039753    722.40699  0.012369135  0.010272641         3852 
 4868000   0.47524456   -8.1936629     722.3105  0.012364943  0.010269026         3864 
 4869000   0.47158622    -8.191481    722.24771  0.012361329   0.01026541         3864 
 4870000   0.46599496   -8.1961174    722.28264  0.012359388  0.010261797         3856 
 4871000   0.47267284   -8.1918393    721.63703  0.012345806  0.010258185         3873 
 4872000   0.47607845   -8.1957369    721.72526  0.012344781  0.010254575         3847 
 4873000    0.4824603   -8.1935473    722.33604  0.012352692  0.010250966         3868 
 4874000   0.46399148   -8.2032976    723.32022  0.012366985  0.010247357         3868 
 4875000   0.47435884   -8.2230698     722.0715  0.012343103  0.010243754         3884 
 4876000   0.47756168   -8.2035256    722.38344  0.012345902  0.010240149         3856 
 4877000    0.4645258   -8.2034065    722.78253   0.01235019  0.010236544         3881 
 4878000   0.48420254    -8.194919    721.98743  0.012334075   0.01023294         3879 
 4879000   0.47390369   -8.2028314    721.03278  0.012315242   0.01022934         3862 
 4880000   0.46869311   -8.1978979    722.25233  0.012333544  0.010225744         3860 
 4881000   0.45805395   -8.1947683    722.18088  0.012329797  0.010222147         3832 
 4882000   0.48201918   -8.2055254     721.2003  0.012310534  0.010218552         3881 
 4883000   0.47871818   -8.2093588    721.55739  0.012314107  0.010214959         3879 
 4884000   0.46722495   -8.2018086     721.6691  0.012313491  0.010211367         3859 
 4885000   0.47440355   -8.2100823    722.08674  0.012318095  0.010207777         3871 
 4886000   0.46442534   -8.2113717    721.33151  0.012302693  0.010204189         3871 
 4887000   0.46946604   -8.2158398    723.02928  0.012329126  0.010200602         3873 
 4888000   0.47073335   -8.2082452    720.84211  0.012289316  0.010197015         3851 
 4889000   0.46463362   -8.2076617    722.26831  0.012311112  0.010193437         3866 
 4890000     0.472509   -8.2092391    723.40022  0.012327884  0.010189855         3850 
 4891000   0.47059301   -8.2057619    721.41956  0.012291617  0.010186278         3856 
 4892000   0.46629754   -8.1985954    721.73221   0.01229443  0.010182699         3874 
 4893000   0.47402212   -8.2242197    721.36445  0.012285654  0.010179124         3867 
 4894000   0.47052371   -8.2117627    721.79067  0.012290401  0.010175548         3870 
 4895000   0.47244994   -8.2003253    721.32649  0.012279988  0.010171974         3859 
 4896000   0.47222978   -8.2088836    722.90695   0.01230438  0.010168406         3876 
 4897000   0.46070578   -8.1902636    722.56858   0.01229611  0.010164836         3878 
 4898000   0.46687552   -8.2018218    721.35071  0.012272879  0.010161266         3871 
 4899000   0.46719596   -8.2097924    720.94233  0.012263427  0.010157702         3898 
 4900000   0.45680623   -8.2003092    721.21805  0.012265613   0.01015414         3865 
 4901000   0.46670848   -8.2212515     722.4501  0.012284059  0.010150577         3848 
 4902000   0.46811925   -8.2143334      721.218  0.012260608  0.010147016         3867 
 4903000   0.47179575   -8.2029398    721.83517  0.012268597  0.010143454         3866 
 4904000   0.46597361   -8.2073725    722.38554  0.012275448  0.010139895         3860 
 4905000   0.46914775   -8.2054608     722.8389  0.012280647  0.010136337         3864 
 4906000   0.46664435   -8.2003884     722.3087  0.012269138  0.010132781         3855 
 4907000   0.45913682   -8.2112428    721.70642   0.01225641  0.010129229         3864 
 4908000   0.46475506   -8.2172795    722.29807  0.012263958  0.010125677         3860 
 4909000   0.46285927   -8.2212837    722.49618  0.012264823  0.010122127         3861 
 4910000   0.46642502   -8.2138614    722.34371  0.012259737  0.010118578         3851 
 4911000   0.47485905   -8.2152725     721.6321  0.012245166  0.010115032         3868 
 4912000   0.46222909   -8.1982585    721.05091  0.012232813   0.01011149         3849 
 4913000   0.46497186   -8.2123223    722.34872  0.012252336  0.010107943         3879 
 4914000   0.46256382   -8.2139399    720.94088  0.012225968  0.010104403         3858 
 4915000   0.46567548   -8.2221146    720.79525  0.012221011  0.010100862         3862 
 4916000   0.45204641    -8.210753     722.3458  0.012244809  0.010097323         3836 
 4917000   0.48214292   -8.2174602    722.16293   0.01223922  0.010093787         3858 
 4918000   0.45664102   -8.2088007    721.92965  0.012232778  0.010090252         3848 
 4919000   0.46560854   -8.2066163    721.65552  0.012225647  0.010086717         3849 
 4920000   0.45987625   -8.2069057    721.50362   0.01222059  0.010083184         3870 
 4921000   0.46402881   -8.2188312    722.25923  0.012230902   0.01007965         3852 
 4922000   0.45876874   -8.2182584    720.95976  0.012206416  0.010076123         3854 
 4923000   0.46242645   -8.2060229    721.31789  0.012209999  0.010072597         3857 
 4924000   0.46272859    -8.205168    721.74113  0.012214682   0.01006907         3839 
 4925000   0.46538496   -8.2082701    721.05617  0.012200612  0.010065547         3854 
 4926000   0.45084989   -8.2273076    720.18043   0.01218332  0.010062028         3858 
 4927000   0.45612835   -8.2168113    721.82338  0.012208636  0.010058505         3870 
 4928000   0.46366693   -8.2071745    721.61373  0.012202613  0.010054985         3876 
 4929000   0.45522727   -8.2187635     721.1014  0.012191476  0.010051468         3885 
 4930000   0.46505811   -8.2213385    722.59664  0.012214277  0.010047952         3855 
 4931000   0.45365189   -8.2066996    721.47764  0.012192889  0.010044438         3867 
 4932000    0.4628093   -8.2271287    720.62003  0.012175926  0.010040925         3869 
 4933000   0.46756831   -8.2122399    720.97834  0.012179511  0.010037411         3864 
 4934000   0.46278507   -8.2095059    721.36887  0.012183638  0.010033901         3884 
 4935000   0.46007817   -8.2094912    721.08372  0.012176355  0.010030392         3852 
 4936000   0.46753018   -8.1986842    721.11289   0.01217438  0.010026888         3867 
 4937000   0.46742721   -8.2250466    721.49561  0.012178374  0.010023383         3868 
 4938000   0.45870634   -8.2044454    721.46057  0.012175317  0.010019879         3886 
 4939000   0.45972605   -8.2167659    721.83091    0.0121791  0.010016376         3864 
 4940000    0.4564147   -8.2123391    721.77508  0.012175693  0.010012874         3848 
 4941000   0.46874016   -8.2209235    722.09972  0.012178704  0.010009375         3846 
 4942000   0.46935308   -8.2087243    722.45351  0.012182205  0.010005878         3873 
 4943000     0.461263   -8.2125642    721.91354  0.012170638  0.010002381         3867 
 4944000   0.45969634   -8.2221529     721.9451  0.012168708  0.009998887         3868 
 4945000   0.45610889   -8.2079456    721.67513  0.012161697 0.0099953984         3859 
 4946000   0.46806624   -8.2109775    721.18017  0.012150899 0.0099919062         3835 
 4947000   0.45525369   -8.2328567    720.26412  0.012133012 0.0099884164         3861 
 4948000   0.45737197   -8.2178521    721.62422  0.012153466 0.0099849282         3861 
 4949000   0.45277861   -8.2215478     721.9191  0.012155976 0.0099814415         3877 
 4950000   0.46781959   -8.2167765    721.72643  0.012150277  0.009977956         3857 
 4951000   0.45742594   -8.2271881     720.6878  0.012130341 0.0099744685         3885 
 4952000   0.45832894   -8.2238006     721.3194   0.01213852 0.0099709877         3876 
 4953000   0.46548402    -8.217035    720.12554  0.012115983 0.0099675058         3886 
 4954000   0.46210724   -8.2179078     722.7232  0.012157233 0.0099640292         3858 
 4955000   0.45776207    -8.214393    721.33362   0.01213141 0.0099605539         3866 
 4956000   0.45380721   -8.2144937    720.17766  0.012109525 0.0099570783         3888 
 4957000   0.46187206   -8.2251494     720.4179  0.012111121 0.0099536041         3886 
 4958000   0.46933912   -8.2260648     720.7062  0.012113524 0.0099501319         3860 
 4959000   0.46294277   -8.2250541    720.71584  0.012111243 0.0099466626         3855 
 4960000   0.44581906   -8.2039098    721.39589  0.012120227 0.0099431956         3866 
 4961000    0.4570374   -8.2047252    720.61377  0.012104646 0.0099397293         3844 
 4962000   0.44970718   -8.2209128     721.1584  0.012111353 0.0099362643         3870 
 4963000   0.46158635   -8.2200844    722.07248  0.012124261 0.0099328002         3876 
 4964000   0.45458109   -8.2257217    721.26563  0.012108273 0.0099293372         3857 
 4965000   0.45249879    -8.209749     719.9412  0.012083605 0.0099258754         3869 
 4966000   0.45150644   -8.2184715    721.47221  0.012106863 0.0099224185         3845 
 4967000   0.45460323   -8.2283726    721.53655  0.012105506 0.0099189627         3844 
 4968000   0.46238996   -8.2052356    721.34755  0.012099899 0.0099155068         3859 
 4969000    0.4590117   -8.2181777    721.57399  0.012101261 0.0099120542         3886 
 4970000     0.465322    -8.212107    720.23851  0.012076434 0.0099086033         3875 
 4971000   0.46135699   -8.2359793    720.45367  0.012077611 0.0099051511         3877 
 4972000   0.45409636   -8.2202606    720.74693  0.012080097 0.0099017033         3864 
 4973000   0.44957646   -8.2246388    720.13741  0.012067454 0.0098982579         3859 
 4974000   0.45267654   -8.2148738    720.72492  0.012074871 0.0098948124         3855 
 4975000   0.45464829   -8.2316167    721.10803  0.012078861 0.0098913684         3890 
 4976000   0.46285514   -8.2187367    721.94019   0.01209037 0.0098879262         3872 
 4977000   0.46929621   -8.2232707    721.69158  0.012083778 0.0098844847         3864 
 4978000   0.45067487   -8.2300622    721.75725   0.01208245 0.0098810456         3866 
 4979000    0.4440935   -8.2351542    720.26028  0.012054969 0.0098776079         3884 
 4980000   0.45286535   -8.2059035    721.61742  0.012075258 0.0098741705         3866 
 4981000   0.46199066   -8.2247017     721.4433  0.012069921 0.0098707335         3870 
 4982000   0.45246784    -8.228251    720.11366  0.012045257 0.0098672986         3868 
 4983000   0.45926745   -8.2244038    720.30464  0.012046034 0.0098638648         3857 
 4984000    0.4572945   -8.2238336    721.12074  0.012057262 0.0098604307         3881 
 4985000   0.44724109   -8.2106419     721.7726  0.012065741 0.0098569998         3862 
 4986000    0.4408635   -8.2494582     721.0151   0.01205066 0.0098535691         3889 
 4987000   0.45426996   -8.2194135     720.8925  0.012046195 0.0098501407         3840 
 4988000   0.46126808   -8.2258687    719.91449  0.012027441 0.0098467151         3854 
 4989000    0.4581686   -8.2237002    720.96913  0.012042646 0.0098432931         3874 
 4990000   0.45417911   -8.2248343     720.7924  0.012037281 0.0098398694         3859 
 4991000   0.45131318    -8.230141    720.66304   0.01203271 0.0098364507         3875 
 4992000   0.45587229    -8.211859     721.3831  0.012042319 0.0098330303         3852 
 4993000   0.44693398   -8.2225007    721.25771  0.012037815 0.0098296135         3880 
 4994000    0.4531827   -8.2366474    721.15574  0.012033703 0.0098261978         3871 
 4995000    0.4471636   -8.2312188    719.89668  0.012010288 0.0098227827         3860 
 4996000   0.45207197   -8.2234416    721.06175  0.012027318 0.0098193689         3864 
 4997000   0.44858846   -8.2221726    720.01943  0.012007528 0.0098159605         3859 
 4998000   0.45915031   -8.2156663    720.99556  0.012021401 0.0098125524         3879 
 4999000   0.45601023   -8.2381432    721.22608  0.012022839 0.0098091463         3864 
 5000000   0.45552547   -8.2267054    720.69153  0.012011526 0.0098057386         3862 
 5001000   0.44919595   -8.2356862    721.30408  0.012019331 0.0098023339         3854 
 5002000   0.44667815   -8.2423066    720.66168  0.012006225 0.0097989294         3881 
 5003000   0.45463074   -8.2317131    721.65404  0.012020355 0.0097955284         3873 
 5004000   0.45736965   -8.2271733    720.26367  0.011994799 0.0097921283         3884 
 5005000   0.44986205   -8.2158045    720.54238  0.011997043 0.0097887302         3858 
 5006000   0.44982571   -8.2370597    721.46218  0.012009958 0.0097853306         3881 
 5007000   0.46273308   -8.2299784    719.35847  0.011972546 0.0097819335         3857 
 5008000   0.44736711   -8.2410499    720.22697  0.011984607 0.0097785397         3863 
 5009000   0.45603952   -8.2376637    719.76861  0.011974589 0.0097751479         3860 
 5010000   0.45577558   -8.2370456    721.71998  0.012004657 0.0097717578         3891 
 5011000   0.45261848    -8.218385    720.08558  0.011975081 0.0097683678         3853 
 5012000   0.45370914   -8.2337066    721.39088  0.011994395 0.0097649812         3855 
Loop time of 13156.6 on 48 procs for 5000000 steps with 4000 atoms

Performance: 65670.268 tau/day, 380.036 timesteps/s
99.4% CPU use with 48 MPI tasks x no OpenMP threads

MPI task timing breakdown:
Section |  min time  |  avg time  |  max time  |%varavg| %total
---------------------------------------------------------------
Pair    | 957.72     | 1056.8     | 1134.9     | 126.5 |  8.03
Neigh   | 92.331     | 96.576     | 101.46     |  19.7 |  0.73
Comm    | 846.77     | 930.57     | 1035.3     | 138.3 |  7.07
Output  | 17.187     | 17.199     | 17.296     |   0.5 |  0.13
Modify  | 10887      | 10933      | 10960      |  16.6 | 83.10
Other   |            | 122.8      |            |       |  0.93

Nlocal:        83.3333 ave          89 max          78 min
Histogram: 1 6 6 4 7 8 7 6 1 2
Nghost:        2461.12 ave        2479 max        2447 min
Histogram: 3 2 7 10 3 11 10 0 1 1
Neighs:        17094.9 ave       20179 max       14883 min
Histogram: 4 2 8 7 12 6 4 3 1 1
FullNghs:      34188.4 ave       36945 max       31397 min
Histogram: 1 1 9 6 5 9 9 6 0 2

Total # of neighbors = 1641041
Ave neighs/atom = 410.26025
Neighbor list builds = 266623
Dangerous builds = 0

#clear
#
#next RN
#
#jump SELF
Total wall time: 3:39:20
