
units lj                  # Use reduced LJ style units
atom_style atomic         # Uncharged point particles
atom_modify map hash      # Needed for indexing of clusters etc
                          # Used to be able to find where atoms are in relation to each other.

lattice fcc 1.0 spacing 1 1 1
Lattice spacing in x,y,z = 1.5874011 1.5874011 1.5874011
region box block 0 10 0 10 0 10 units lattice
create_box 2 box
Created orthogonal box = (0.0000000 0.0000000 0.0000000) to (15.874011 15.874011 15.874011)
  3 by 4 by 4 MPI processor grid
create_atoms 1 box
Created 4000 atoms
  using lattice units in orthogonal box = (0.0000000 0.0000000 0.0000000) to (15.874011 15.874011 15.874011)
  create_atoms CPU = 0.044 seconds
set type 1 type/fraction 2 0.15 78393
Setting atom values ...
  634 settings made for type/fraction
mass 1 1.0
mass 2 1.0
pair_style lj/cut  3.5
pair_modify tail  yes
pair_coeff 1  1  1.0  1.0   # Intearaction between 1 and 1 set with epsilon = 1 and sigma = 1
pair_coeff 1  2  1.5  0.8
pair_coeff 2  2  0.5  0.88

write_data data.0
System init for write_data ...
Neighbor list info ...
  update every 1 steps, delay 10 steps, check yes
  max neighbors/atom: 2000, page size: 100000
  master list distance cutoff = 3.8
  ghost atom cutoff = 3.8
  binsize = 1.9, bins = 9 9 9
  1 neighbor lists, perpetual/occasional/extra = 1 0 0
  (1) pair lj/cut, perpetual
      attributes: half, newton on
      pair build: half/bin/atomonly/newton
      stencil: half/bin/3d
      bin: standard
WARNING: Not all mixed pair coeffs generated from mixing. Use write_data with 'pair ij' option to store all pair coeffs. (../write_data.cpp:312)


#############################
#   M E L T   S Y S T E M   #
#############################

velocity all create 2.4 2750902 mom yes dist gaussian # Assign velocities
                                                    # Temperature 2.4, random number seed, zero linear momentum
                                                                                # Gaussian distribution

timestep 0.002   # simulation timestep
thermo 1000       # output thermodynamic data every 1000 steps bf 100

# Define a fix  in this case with index 1 applied to all
# particles in the simulation. This fix is for simulations
# in the anisotropic NPT ensemble. Note that we use the MTK
# correction.
fix 1 all npt temp 2.4 2.4 0.1 iso 5.68 5.68 0.5 mtk yes tchain 5 pchain 5 # Use NPT ensemble
                                                                         # Set temperature and pressure and damping
                                                                         # Numbers of thermostats in chain and in barostat
run 10000          # run for 10000 steps
Per MPI rank memory allocation (min/avg/max) = 3.642 | 3.644 | 3.648 Mbytes
Step Temp E_pair E_mol TotEng Press Volume 
       0          2.4   -7.3553801            0   -3.7562801   -3.3553213         4000 
    1000    2.3300528   -4.7293962            0   -1.2351908     5.661227    4646.8663 
    2000    2.3993036   -4.7374572            0   -1.1394016    5.6686276    4636.2997 
    3000    2.4680751   -4.7675542            0   -1.0663671    5.8650547    4609.4791 
    4000     2.390478   -4.6854967            0   -1.1006761    5.7438861    4665.7102 
    5000    2.3133164   -4.7783917            0   -1.3092846    5.4769532    4639.8013 
    6000    2.4391566   -4.6947783            0   -1.0369581    5.8020752    4663.3796 
    7000    2.3961953   -4.7738762            0   -1.1804818    5.7058872    4619.9138 
    8000    2.4298685   -4.7212177            0   -1.0773261    5.7568857    4639.6843 
    9000    2.3924024   -4.7232052            0   -1.1354988    5.7055892    4650.7528 
   10000    2.4607529   -4.7156701            0   -1.0254635    5.6133682    4667.1374 
Loop time of 2.26967 on 48 procs for 10000 steps with 4000 atoms

Performance: 761345.216 tau/day, 4405.933 timesteps/s
99.5% CPU use with 48 MPI tasks x no OpenMP threads

MPI task timing breakdown:
Section |  min time  |  avg time  |  max time  |%varavg| %total
---------------------------------------------------------------
Pair    | 0.93838    | 0.99686    | 1.0681     |   3.2 | 43.92
Neigh   | 0.19124    | 0.20034    | 0.21632    |   1.1 |  8.83
Comm    | 0.66454    | 0.76521    | 0.86544    |   4.7 | 33.71
Output  | 0.00024479 | 0.00025122 | 0.00032138 |   0.0 |  0.01
Modify  | 0.25463    | 0.29245    | 0.31613    |   3.6 | 12.89
Other   |            | 0.01455    |            |       |  0.64

Nlocal:        83.3333 ave          94 max          75 min
Histogram: 2 4 4 8 12 11 3 1 2 1
Nghost:        1494.08 ave        1525 max        1465 min
Histogram: 5 3 6 4 6 6 4 5 7 2
Neighs:        8167.04 ave        9555 max        7082 min
Histogram: 3 4 6 7 9 10 5 0 3 1

Total # of neighbors = 392018
Ave neighs/atom = 98.004500
Neighbor list builds = 904
Dangerous builds = 179

# Equilibrate just above the melting temperature to avoid step fn in T

fix 1 all npt temp 1.25 1.25 0.1 iso 5.68 5.68 0.5 mtk yes tchain 5 pchain 5
run 2000
Per MPI rank memory allocation (min/avg/max) = 3.642 | 3.644 | 3.648 Mbytes
Step Temp E_pair E_mol TotEng Press Volume 
   10000    2.4607529   -4.7156701            0   -1.0254635    5.6133682    4667.1374 
   11000    1.2728079   -6.4177175            0   -4.5089829    5.5818559    3805.8895 
   12000    1.2580308    -6.403004            0   -4.5164296    5.5687002    3809.4782 
Loop time of 0.479741 on 48 procs for 2000 steps with 4000 atoms

Performance: 720389.107 tau/day, 4168.918 timesteps/s
99.7% CPU use with 48 MPI tasks x no OpenMP threads

MPI task timing breakdown:
Section |  min time  |  avg time  |  max time  |%varavg| %total
---------------------------------------------------------------
Pair    | 0.21351    | 0.233      | 0.25095    |   1.8 | 48.57
Neigh   | 0.030828   | 0.03319    | 0.035507   |   0.6 |  6.92
Comm    | 0.13741    | 0.16162    | 0.18647    |   2.4 | 33.69
Output  | 5.0852e-05 | 5.235e-05  | 6.6481e-05 |   0.0 |  0.01
Modify  | 0.040578   | 0.047334   | 0.053635   |   1.7 |  9.87
Other   |            | 0.004539   |            |       |  0.95

Nlocal:        83.3333 ave          94 max          76 min
Histogram: 4 7 3 11 7 6 6 2 1 1
Nghost:        1699.48 ave        1728 max        1680 min
Histogram: 3 5 3 11 11 9 3 1 1 1
Neighs:        10011.3 ave       11683 max        8812 min
Histogram: 3 3 6 10 10 8 4 2 1 1

Total # of neighbors = 480544
Ave neighs/atom = 120.13600
Neighbor list builds = 141
Dangerous builds = 9

#############################
# L I N E A R  Q U E N C H  #
#############################

# Define solid atoms. This closely follows ten Wolde  Ruiz-Montero and Frenkel  Faraday Discuss  1996  104  93-110
# Compute components of the per-atom q6 vector
compute q6 all orientorder/atom degrees 1 6 components 6 nnn NULL cutoff 1.3 # compute the Q6 parameter.
                                                                             # Use all neighbours within 1.3 unit cell.

# get number of connections
compute coord_number all coord/atom orientorder q6 0.5

# An atom is solid if it has 8 or more connections (of a possible 14)
variable is_solid atom c_coord_number>=8
group solid dynamic all var is_solid    # Must be dynamic to update
dynamic group solid defined

# do clustering
compute cluster solid cluster/atom 1.3 # Create a cluster where all atoms within are solid and max 1.3 units from another member

# define chunks one chunk per cluster
compute clus_chunks solid chunk/atom c_cluster nchunk every compress yes  # Says which atoms are in which chunk

# count the size of each chunk
compute size_chunks solid property/chunk clus_chunks count


# Find the maximum entry in the vector of chunk sizes
variable max_n equal max(c_size_chunks)


# Thermo style which includes this variable
# thermo_style custom step temp pe vol v_max_n

thermo ${N}  # Print the thermo information every 100 steps
thermo 1000  

# Reset the npt fix at a lower temperature (below freezing)
fix 1  all npt temp  ${temp} ${temp}  0.1  iso  5.68  5.68  0.5  mtk yes tchain  5  pchain  5
fix 1  all npt temp  0.45 ${temp}  0.1  iso  5.68  5.68  0.5  mtk yes tchain  5  pchain  5
fix 1  all npt temp  0.45 0.45  0.1  iso  5.68  5.68  0.5  mtk yes tchain  5  pchain  5

dump dmp2 all dcd ${N} traj.dcd
dump dmp2 all dcd 1000 traj.dcd


compute msd all msd com yes
variable twopoint equal c_msd[4]/6/(step*dt+1.0e-6)
fix 9 all vector 10 c_msd[4]
variable fit equal slope(f_9)/6/(10*dt)
thermo_style custom step temp pe c_msd[4] v_twopoint v_fit v_max_n

fix 1 all npt temp 1.25 ${temp} 0.1 iso 5.68 5.68 0.5 mtk yes tchain 5 pchain 5
fix 1 all npt temp 1.25 0.45 0.1 iso 5.68 5.68 0.5 mtk yes tchain 5 pchain 5
run 5000000 # 5000000  # Run for this many steps
Neighbor list info ...
  update every 1 steps, delay 10 steps, check yes
  max neighbors/atom: 2000, page size: 100000
  master list distance cutoff = 3.8
  ghost atom cutoff = 3.8
  binsize = 1.9, bins = 9 9 9
  4 neighbor lists, perpetual/occasional/extra = 1 3 0
  (1) pair lj/cut, perpetual
      attributes: half, newton on
      pair build: half/bin/atomonly/newton
      stencil: half/bin/3d
      bin: standard
  (2) compute orientorder/atom, occasional
      attributes: full, newton on
      pair build: full/bin/atomonly
      stencil: full/bin/3d
      bin: standard
  (3) compute coord/atom, occasional
      attributes: full, newton on
      pair build: full/bin/atomonly
      stencil: full/bin/3d
      bin: standard
  (4) compute cluster/atom, occasional
      attributes: full, newton on
      pair build: full/bin/atomonly
      stencil: full/bin/3d
      bin: standard
Per MPI rank memory allocation (min/avg/max) = 9.762 | 9.768 | 9.773 Mbytes
Step Temp PotEng c_msd[4] v_twopoint v_fit v_max_n 
   12000    1.2580308    -6.403004 1.7242527e-30 1.1973977e-32 8.3333333e+20            5 
   13000     1.262672   -6.4196824   0.54872295 0.0035174547  0.045742936            2 
   14000    1.2516937   -6.3670123     1.078047 0.0064169465  0.043391173            1 
   15000    1.2637346   -6.4113362    1.6136908 0.0089649488  0.043922137            2 
   16000    1.2653163   -6.4186103    2.1597199  0.011248541  0.044463852            3 
   17000     1.256641   -6.3877903    2.7136146  0.013302032  0.044840798            1 
   18000    1.2493822   -6.4273441    3.2659122  0.015119964  0.045185029            1 
   19000    1.2305435   -6.4179687    3.7324128  0.016370231  0.044757076            2 
   20000    1.2470419   -6.3861362    4.2613416   0.01775559  0.044488156            2 
   21000    1.2629218   -6.3705628    4.7479372   0.01884102  0.044113369            3 
   22000    1.2286093   -6.3989601    5.2949139  0.020056491  0.044094668            1 
   23000    1.2539378   -6.3774079    5.8522959   0.02120397  0.043995824            1 
   24000    1.2543725   -6.3944581    6.3300138  0.021979214  0.043952951            2 
   25000    1.2375453   -6.3998643    6.9479427  0.023159809  0.044041092            3 
   26000    1.2168322   -6.3537166    7.4678337  0.023935364  0.044120824            2 
   27000    1.2547922   -6.3688979    7.9718605  0.024604507   0.04409187            5 
   28000     1.238512   -6.3822631    8.4184564  0.025054929  0.043975229            3 
   29000    1.2471877   -6.3455696    9.0544614  0.026018567   0.04398813            2 
   30000    1.2493409   -6.3848885    9.6178105   0.02671614  0.044073794            5 
   31000    1.2429699    -6.384991    10.133474  0.027240521  0.044156712            2 
   32000    1.2753795   -6.3707662    10.646403  0.027725006  0.044220889            3 
   33000    1.2482863   -6.4033863     11.21205  0.028313256  0.044276372            3 
   34000    1.2393623   -6.3572726    11.784124  0.028882657  0.044320929            2 
   35000    1.2489938   -6.4074672    12.411548  0.029551304  0.044419519            1 
   36000    1.2568195   -6.3893081    12.904302  0.029871068  0.044522852            2 
   37000    1.2483987   -6.4428334    13.417835  0.030220348  0.044570645            1 
   38000    1.2499569   -6.3815051    13.905716  0.030494991  0.044611609            1 
   39000    1.2594524   -6.4094267    14.411366  0.030793516  0.044623442            2 
   40000    1.2403372   -6.3999144    14.732089  0.030691851  0.044518433            3 
   41000    1.2297971   -6.3732994    15.088296  0.030667267  0.044319415            2 
   42000    1.2283617   -6.4216593    15.559798  0.030872616  0.044127154            2 
   43000    1.2339907   -6.3975918    16.193068  0.031381914  0.043963224            1 
   44000      1.24133   -6.3509614    16.727021  0.031679965  0.043835046            1 
   45000    1.2531671   -6.4238219    17.362213  0.032152247  0.043774496            3 
   46000    1.2444865   -6.4111213    17.898488  0.032424797  0.043719761            3 
   47000    1.2500333   -6.4057616    18.315625  0.032474513  0.043688926            3 
   48000    1.2183996    -6.400046    18.845428  0.032717756  0.043651649            3 
   49000    1.2611345   -6.3869789    19.312036  0.032843598  0.043610261            4 
   50000    1.2549694   -6.4601968    19.681133  0.032801887  0.043531439            2 
   51000    1.2418806    -6.436036    20.234382  0.033062715  0.043466954            2 
   52000     1.223243   -6.3896665    20.843555  0.033403132  0.043403007            2 
   53000    1.2344277   -6.4334053    21.262795  0.033432067  0.043351873            1 
   54000    1.2617511   -6.4046657    21.629082  0.033378212   0.04328267            2 
   55000    1.2626227   -6.4147928    22.375926  0.033902918  0.043227359            1 
   56000    1.2336152   -6.3813206     22.95915  0.034165401  0.043211699            2 
   57000    1.2473053   -6.4198651     23.67944  0.034619064  0.043243397            2 
   58000    1.2486045   -6.4403477    24.308621  0.034926179  0.043288825            3 
   59000    1.2377365   -6.3841961     25.11247   0.03546959  0.043373934            1 
   60000    1.2703532   -6.3876634    25.658457  0.035636746  0.043479294            2 
   61000    1.2734175   -6.4013905    26.172711  0.035755069   0.04358474            2 
   62000    1.2536672   -6.4076216    26.724782  0.035920405  0.043681529            3 
   63000    1.2309496   -6.3888428    27.316852  0.036133402   0.04376794            3 
   64000    1.2327081    -6.411993    27.670291  0.036029025  0.043833924            2 
   65000    1.2281125   -6.4379106    28.112454  0.036041608   0.04388196            2 
   66000    1.2614695   -6.4044224    28.778647  0.036336675  0.043918871            6 
   67000    1.2324453   -6.4629061     29.31196  0.036457661  0.043971754            2 
   68000    1.2326415   -6.3840419    29.650529  0.036336432  0.044002639            2 
   69000    1.2154437    -6.366328    30.033869  0.036272788  0.044017027            3 
   70000    1.2381629   -6.4093622    30.443362  0.036242098  0.043996513            2 
   71000    1.2256037   -6.4218773    30.816758  0.036169903  0.043955493            3 
   72000    1.2373031    -6.412273    31.315536  0.036244833  0.043914831            3 
   73000    1.2126445   -6.4468796    31.841561  0.036348814  0.043879234            1 
   74000     1.261286   -6.4092295    32.414798   0.03650315  0.043850119            1 
   75000    1.2498256   -6.3348363    33.145423  0.036828248  0.043825902            5 
   76000    1.2386184   -6.4022178    33.578154  0.036818152     0.043802            3 
   77000    1.2258965   -6.4100751    34.026935  0.036825687  0.043786616            6 
   78000    1.2244768   -6.4176479    34.649192  0.037018367  0.043772075            1 
   79000    1.2804287   -6.3989465    34.897116  0.036811303  0.043753201            1 
   80000     1.250007    -6.436705     35.42504  0.036901083  0.043720584            3 
   81000    1.2428625   -6.4043078    36.022602   0.03706029  0.043692623            1 
   82000    1.2095389   -6.4340147    36.630428  0.037226044   0.04367255            3 
   83000    1.2076033    -6.430081    37.373412  0.037523506  0.043669942            1 
   84000    1.2402863   -6.4334492    37.899187  0.037598399  0.043679079            2 
   85000    1.2737212   -6.4113672    38.289856  0.037539075  0.043682833            2 
   86000     1.229708   -6.3829174    39.077573  0.037865865  0.043692896            2 
   87000    1.2407753   -6.4414272    39.578089  0.037910047  0.043713312            2 
   88000    1.2291289   -6.3699239    40.148823  0.038019719  0.043726769            2 
   89000    1.2544814   -6.4387417    40.774487  0.038178358  0.043747995            3 
   90000    1.2258132   -6.3935331     41.38613  0.038320491  0.043770093            1 
   91000    1.2595729   -6.4589302    41.764255  0.038245654  0.043796511            2 
   92000    1.2483233   -6.4422209    42.013642  0.038055835  0.043806817            3 
   93000      1.26599   -6.4309204    42.601221  0.038173137  0.043806794            2 
   94000    1.2511635   -6.3944554    43.539302  0.038598672  0.043824363            3 
   95000    1.2446907   -6.4528361    44.039752  0.038631361  0.043856107            3 
   96000    1.2083651   -6.4113436    44.529866  0.038654397  0.043877871            2 
   97000    1.2301352   -6.3665364    45.493017  0.039083348  0.043911826            1 
   98000    1.2491657   -6.4309218    46.026627  0.039138288  0.043959413            3 
   99000    1.2378306   -6.4390781    46.673111  0.039287131  0.044005622            2 
  100000    1.2418201   -6.4417233    47.155687  0.039296405  0.044047651            3 
  101000    1.2353324   -6.4464138    47.459162  0.039157724  0.044084792            3 
  102000    1.2538023     -6.39927    48.057227   0.03926244   0.04411278            1 
  103000    1.2105302   -6.3866969    48.435735  0.039187488  0.044140208            2 
  104000    1.2300985   -6.4497691    48.988712  0.039253776  0.044162751            3 
  105000    1.2297071   -6.4452359     49.42203  0.039223834  0.044179276            1 
  106000    1.2277466    -6.382304    50.135307  0.039414549   0.04419393            3 
  107000    1.2177552   -6.4293904    50.466007  0.039303744  0.044208735            2 
  108000    1.2245934    -6.408893    51.113049  0.039439081  0.044221164            2 
  109000    1.2338847   -6.3913841    51.455457  0.039339034  0.044227671            3 
  110000    1.2389546   -6.3909363    51.800541  0.039242834  0.044234002            1 
  111000    1.2445689   -6.3906471    52.617851  0.039502891    0.0442323            3 
  112000    1.2444587   -6.3815674    53.198606  0.039582296  0.044238253            4 
  113000    1.2314512    -6.400752    53.922843  0.039766109  0.044249531            1 
  114000    1.2515529   -6.4179245    54.729261  0.040006769  0.044269196            1 
  115000    1.2386576   -6.4406274    55.126156   0.03994649  0.044295854            1 
  116000    1.2203439   -6.4210192    55.312297  0.039735846  0.044319765            1 
  117000    1.2205535   -6.4182169    56.072011   0.03993733  0.044332714            1 
  118000    1.2317952   -6.4299848     56.71467  0.040052733  0.044347986            6 
  119000    1.2286843   -6.4085188    57.242219  0.040085588  0.044366569            2 
  120000      1.22337   -6.4644693    57.869872  0.040187411  0.044388939            3 
  121000     1.262679   -6.3925203    58.618802  0.040371076  0.044416324            2 
  122000    1.2178374   -6.4479332     58.93951  0.040259228  0.044436544            3 
  123000    1.2516213    -6.402389    59.513282  0.040320651  0.044455074            4 
  124000    1.2562017   -6.4479206    59.934263  0.040278402   0.04446911            1 
  125000    1.2102845   -6.4740589    60.359815  0.040239876  0.044480785            3 
  126000    1.2192593   -6.4191247     60.96925  0.040323578  0.044492165            3 
  127000    1.2445885   -6.3951299    61.782595   0.04053976  0.044508892            2 
  128000    1.2087859   -6.4569802    62.411868  0.040632727  0.044532203            2 
  129000    1.2216121    -6.416953    63.052598  0.040731652  0.044553628            2 
  130000    1.2472343   -6.4165488    63.458175  0.040678317  0.044578093            2 
  131000     1.245638   -6.4524836    64.182083  0.040828297  0.044601186            3 
  132000    1.2533396   -6.4569153     64.84685  0.040938668  0.044630943            1 
  133000    1.2039096   -6.4293878    65.395803  0.040974814  0.044658634            4 
  134000    1.2568504    -6.361519    66.017147   0.04105544  0.044687566            2 
  135000    1.2005847   -6.4503325    66.184469   0.04085461  0.044709938            7 
  136000    1.2248678   -6.3940382    67.094796  0.041112007  0.044733285            2 
  137000    1.2234257   -6.4289465    67.217493  0.040886553  0.044753216            2 
  138000    1.2280642   -6.4062992    67.818776  0.040953367  0.044769541            1 
  139000    1.2557657   -6.4500122    68.195384  0.040884523   0.04478108            2 
  140000    1.2199838   -6.3636546    68.857378  0.040986534  0.044790402            4 
  141000    1.2185108   -6.4419348    69.210937  0.040904809  0.044802758            2 
  142000    1.2312371   -6.4292535     69.73346  0.040923392  0.044809068            4 
  143000    1.2449305   -6.4259783    70.109052  0.040856091   0.04481009            2 
  144000    1.2553395   -6.4247197     70.44312  0.040765694  0.044808736            6 
  145000    1.2439093   -6.4174607    71.297577  0.040975619  0.044807079            5 
  146000    1.2239053   -6.4316019    71.168896  0.040621516  0.044802689            3 
  147000     1.233432   -6.4393168     71.87976  0.040748163  0.044796629            2 
  148000    1.2381951   -6.4563324    72.321264  0.040721432   0.04478478            3 
  149000    1.2457553   -6.4521205    72.871306  0.040755764  0.044773887            2 
  150000    1.2216649   -6.4542963    73.154785  0.040641547   0.04475967            4 
  151000    1.2324954   -6.4497383    73.780003  0.040717441  0.044746881            4 
  152000    1.2280713   -6.4613211     74.57548   0.04088568  0.044736341            3 
  153000    1.2248721   -6.4363152    74.993762  0.040846276  0.044728726            2 
  154000    1.2225226   -6.4177537    75.168883  0.040675802  0.044714732            2 
  155000     1.246292   -6.4597407    75.524672  0.040604662  0.044697666            3 
  156000    1.2180236   -6.4182108    76.346352  0.040783308  0.044689131            5 
  157000    1.2134836   -6.4136987    77.163825  0.040957444  0.044679343            1 
  158000    1.2295662   -6.4440075    77.689959  0.040975717  0.044672735            2 
  159000    1.2522874   -6.4438951    77.769664  0.040759782  0.044665821            1 
  160000    1.2369512   -6.4451944    78.402141  0.040834448  0.044652108            1 
  161000    1.2111243   -6.4416411    79.131533   0.04095835  0.044639555            3 
  162000    1.2149412   -6.4345575    79.812261   0.04105569  0.044630957            2 
  163000    1.1934369   -6.3933427     80.56838  0.041190378  0.044627249            1 
  164000    1.2304172   -6.3918788    81.335595  0.041329062  0.044626736            2 
  165000    1.2302302   -6.4440949    81.480859  0.041151949  0.044624871            2 
  166000    1.2274208   -6.4576069    81.445206  0.040886147  0.044618915            2 
  167000    1.2090015   -6.4107664    82.212667  0.041024285  0.044610956            3 
  168000    1.2215369   -6.4343147    82.950495  0.041146079  0.044603656            1 
  169000    1.2515116   -6.4415684    83.579765  0.041212902   0.04459997            2 
  170000    1.2196921   -6.4166246    84.469608  0.041406671  0.044598091            1 
  171000    1.2335836   -6.4299012    84.648272  0.041251594  0.044594911            2 
  172000    1.2393635     -6.46039    85.270925  0.041313432  0.044589534            3 
  173000    1.2501654   -6.4543736    85.568757  0.041218091  0.044584409            4 
  174000    1.1961918   -6.4447687    86.331245  0.041346382  0.044579152            2 
  175000     1.228134   -6.4488868    86.837578  0.041351227  0.044575055            3 
  176000    1.2362935   -6.4303783    86.864068   0.04112882  0.044567307            3 
  177000    1.2352773   -6.5004257    87.257192   0.04108154  0.044557437            5 
  178000    1.2072709   -6.4217073    87.755993  0.041084266  0.044544704            2 
  179000    1.2200221   -6.4569563    88.109912  0.041019512  0.044531788            8 
  180000    1.2279512   -6.4697837    89.091904  0.041246252  0.044519819            2 
  181000    1.2258909   -6.4073004    89.531455  0.041220744   0.04450779            1 
  182000     1.261213   -6.4655265     89.81411  0.041123677  0.044495045            3 
  183000    1.2301511   -6.4444568    90.501787  0.041212107  0.044480699            7 
  184000    1.2320967   -6.4707006    90.831918  0.041137644  0.044465518            3 
  185000    1.2170953   -6.4421513    90.977468  0.040980841  0.044450944            2 
  186000    1.2291499   -6.4586689    91.503567  0.040996221  0.044431655            1 
  187000    1.2531271    -6.394666    92.093942  0.041040081  0.044414416            2 
  188000    1.2265379   -6.4163273     92.80062  0.041135026  0.044397047            2 
  189000    1.2111863   -6.4520812    92.777236   0.04090707  0.044375425            2 
  190000    1.2274591   -6.4144931     93.67495  0.041085504  0.044355177            1 
  191000    1.2278059   -6.4389168    93.823185  0.040935072  0.044335945            5 
  192000    1.2232816   -6.4505973    94.103019  0.040843324  0.044315006            2 
  193000    1.2575156   -6.4573355     94.42629  0.040771282  0.044292356            3 
  194000    1.2247106   -6.4630586    94.971673  0.040795392  0.044265768            1 
  195000    1.2000214   -6.4348792    95.594866  0.040852507  0.044245054            3 
  196000    1.2259222   -6.4341461    96.381709  0.040978618  0.044223259            1 
  197000     1.212889   -6.4701598     96.39335  0.040775529  0.044203621            3 
  198000    1.2006254    -6.424207    97.650039  0.041098501  0.044184216            5 
  199000    1.2092767   -6.4486667    98.244075  0.041140735  0.044167943            2 
  200000     1.226363   -6.4544036    98.619739  0.041091558  0.044153925            2 
  201000    1.2212433   -6.4275943    98.825397  0.040972387   0.04414087            3 
  202000    1.2117091   -6.4349997    99.404848  0.041008601  0.044126119            1 
  203000    1.2230769   -6.4583536    99.887965  0.041004912  0.044110595            2 
  204000    1.1888404    -6.413599    100.72199  0.041144604  0.044094488            3 
  205000    1.1945491   -6.4356272    101.33839  0.041194467  0.044082689            3 
  206000    1.1965986   -6.4563723    101.97666  0.041252694  0.044071187            2 
  207000    1.2226115   -6.4486447     102.4367  0.041238609  0.044060706            3 
  208000    1.2154689   -6.4354073    103.38924  0.041421972  0.044049646            2 
  209000    1.2081189   -6.4703079    103.65834  0.041331076  0.044040668            1 
  210000    1.2245265   -6.4528891    104.33102  0.041401199  0.044032655            3 
  211000    1.2252911   -6.4582984    104.40651    0.0412348  0.044020251            5 
  212000    1.2062146   -6.4720161    104.96036  0.041258003  0.044007674            1 
  213000    1.2611043    -6.480749    105.16097  0.041142789   0.04399475            1 
  214000    1.2039191   -6.4723449    105.50935  0.041086196  0.043980145            2 
  215000    1.2131927   -6.4209236     105.9201  0.041054302  0.043965843            3 
  216000    1.2389664    -6.445196    106.82749  0.041214308  0.043952957            2 
  217000    1.2299045   -6.4397342     107.5019  0.041283373  0.043939223            6 
  218000    1.2323306   -6.4202289    107.81122  0.041212239  0.043926923            4 
  219000    1.2679614   -6.4493201     108.3255  0.041219747  0.043914232            4 
  220000    1.2002907   -6.4111745    108.54961  0.041117276  0.043901914            3 
  221000    1.2068498   -6.4117501    109.39766  0.041251003  0.043888355            2 
  222000    1.2241893   -6.4507909    109.27141  0.041017797  0.043873966            1 
  223000    1.2296739   -6.4453782    109.40289  0.040882994  0.043859638            1 
  224000    1.2127709   -6.4483855    110.47148  0.041098019  0.043842014            2 
  225000    1.2230312    -6.424451    110.95371  0.041093968  0.043825953            2 
  226000    1.2056736   -6.4890586    111.54185     0.041129  0.043810315            2 
  227000     1.224106    -6.424037    112.23824  0.041203465  0.043795508            1 
  228000    1.2189522   -6.4594628    112.36806  0.041070196  0.043781296            3 
  229000    1.2129681   -6.4475835    112.86384  0.041071266  0.043765805            2 
  230000    1.2358967    -6.440832    113.38567  0.041081763  0.043749218            2 
  231000    1.2110298    -6.410279    114.11294  0.041166283  0.043733669            3 
  232000    1.2525304   -6.4325733    113.89504  0.040910575   0.04371713            2 
  233000    1.2187918   -6.4340693    114.99045  0.041126769  0.043700543            1 
  234000    1.2059877   -6.4697724    115.17126  0.041015407  0.043683171            2 
  235000    1.1962091   -6.4319699    115.51609  0.040963154   0.04366625            2 
  236000    1.2287162   -6.4904661     115.8586  0.040910524  0.043645538            4 
  237000     1.234155   -6.4341843    116.79385  0.041066754  0.043626907            4 
  238000    1.1871656   -6.4579246    116.73146  0.040872361  0.043605895            2 
  239000    1.1977069   -6.5131446    116.85563  0.040744642  0.043583723            3 
  240000    1.1975398   -6.4812374    117.27342  0.040719938  0.043561122            1 
  241000    1.2200156   -6.4882975     117.7851  0.040727903  0.043539238            2 
  242000    1.2125672   -6.4714539    118.46007  0.040792036  0.043517224            2 
  243000     1.221211   -6.4782615    118.94155  0.040789284  0.043496096            2 
  244000    1.2188105   -6.4597183    119.54636  0.040828675  0.043476055            2 
  245000    1.2146621   -6.4886934    119.25712  0.040563645  0.043454646            3 
  246000    1.2028438   -6.4576611    119.87228  0.040607139  0.043433526            4 
  247000    1.2171651   -6.4414523    120.82148  0.040762983  0.043412558            4 
  248000    1.2161133   -6.4592979    121.27631  0.040751448  0.043392521            2 
  249000    1.2274056   -6.4444737    121.90738  0.040798988  0.043373109            1 
  250000    1.2012226   -6.4567887    122.19414  0.040731381  0.043353104            1 
  251000    1.2049492    -6.494484     122.9029  0.040804415  0.043332919            2 
  252000    1.2005174   -6.4610403    123.78784  0.040935132  0.043315469            3 
  253000    1.2410496   -6.4615401     123.9204  0.040816995  0.043299687            2 
  254000    1.2046055   -6.4732051    124.31712  0.040786458  0.043282602            2 
  255000    1.2315554   -6.4513782    125.14149  0.040895912  0.043266758            4 
  256000    1.2226936    -6.444972    125.76686  0.040939732  0.043252373            5 
  257000    1.2185653   -6.4461293    126.00669  0.040858201  0.043237618            2 
  258000    1.2246314   -6.4811264    126.55856  0.040878089  0.043222014            3 
  259000    1.2107163   -6.4513345     127.4569  0.041009299  0.043208111            3 
  260000    1.2267939   -6.4717069    127.84232  0.040975104  0.043194079            4 
  261000    1.2058311   -6.4427279    128.42492  0.041004126  0.043179549            2 
  262000     1.206599    -6.464952    128.35621  0.040825767  0.043163384            3 
  263000    1.1859363    -6.451011    128.86241  0.040830927    0.0431482            2 
  264000    1.1988945   -6.4882473     129.3869  0.040841823   0.04313208            3 
  265000    1.1808471   -6.4404595    129.98786  0.040876686  0.043116047            3 
  266000    1.2012567   -6.4180009     130.5017  0.040883992  0.043099573            2 
  267000      1.19449   -6.4393842    131.08329  0.040912387   0.04308498            2 
  268000    1.2258761   -6.4678583    130.72383  0.040647957  0.043070723            3 
  269000    1.2460991   -6.4769452    132.04561  0.040906321  0.043056637            2 
  270000    1.2244313   -6.4839912    132.39811  0.040863615  0.043041872            2 
  271000    1.2139741   -6.4307928    133.53331  0.041061902   0.04303054            2 
  272000    1.2256145    -6.475696    134.45303  0.041192718  0.043021072            2 
  273000    1.2272958   -6.5150166    133.72873  0.040820736    0.0430113            3 
  274000    1.2100819   -6.4537693    134.66298  0.040955893  0.042999842            2 
  275000    1.2069122   -6.4933961    135.38706  0.041026383  0.042990626            7 
  276000    1.2074254   -6.4779087    136.48515  0.041209285  0.042981719            3 
  277000    1.2387241   -6.4649872    136.23854  0.040986323  0.042972503            2 
  278000    1.2303874   -6.4919662    136.33982   0.04086925  0.042962237            3 
  279000     1.209607   -6.4767225    136.86058   0.04087831  0.042950474            3 
  280000     1.190788   -6.4799492    137.61025  0.040955431  0.042938778            1 
  281000    1.2189696   -6.4700173    137.77752  0.040859289  0.042927995            2 
  282000    1.2046247   -6.5023392    138.82978   0.04102535  0.042917368            1 
  283000    1.2352983   -6.5070772    138.58157  0.040807295  0.042905748            3 
  284000    1.2048798    -6.436292     139.3683  0.040894454    0.0428933            4 
  285000    1.2420531   -6.5195825    139.96294  0.040924837  0.042882179            4 
  286000    1.2066234   -6.4930202    140.31788  0.040885163  0.042871691            1 
  287000    1.2025634   -6.4447193    141.08141  0.040964406  0.042860753            2 
  288000    1.2276912   -6.5013145    141.51886  0.040948743  0.042849022            2 
  289000    1.2126998   -6.4708215    141.44075  0.040784531  0.042837265            3 
  290000    1.2058849   -6.4612356    143.14368  0.041133243  0.042827348            3 
  291000    1.2276788   -6.4603264    142.82277   0.04089999   0.04281672            3 
  292000    1.2149303    -6.448248    143.27141  0.040887959   0.04280568            3 
  293000    1.2072943   -6.4593275    143.21367  0.040731987  0.042793136            2 
  294000    1.1958515   -6.4654783    143.81142  0.040762875  0.042778282            1 
  295000    1.2078202   -6.4550205     144.4086  0.040793388  0.042763247            4 
  296000     1.226267   -6.4742891    144.65243  0.040724221   0.04274873            4 
  297000    1.2026571   -6.5040044    144.94154   0.04066822  0.042733382            2 
  298000    1.2073097   -6.4980928    146.35385  0.040926691  0.042719052            2 
  299000    1.1922166   -6.5176022    146.65807  0.040874601   0.04270671            2 
  300000    1.2375966   -6.4745863     146.7952  0.040776444  0.042694109            4 
  301000    1.1863962   -6.4779881    147.08254  0.040720526  0.042680251            2 
  302000    1.1901975   -6.5121523    147.83204  0.040792506  0.042667115            1 
  303000    1.1836073   -6.4337842    149.02882  0.040987023  0.042656364            3 
  304000     1.208281   -6.4746281    149.26852  0.040917905   0.04264653            5 
  305000    1.2135895   -6.4972951    150.14668  0.041023684  0.042636861            2 
  306000    1.2093937   -6.4586015    150.34759  0.040944333  0.042627758            1 
  307000    1.2187681   -6.5120767    150.54898   0.04086563  0.042617692            1 
  308000    1.1911981   -6.4420173     152.0329  0.041134442  0.042609749            2 
  309000    1.2447613   -6.4850817    151.89925  0.040965277  0.042601856            3 
  310000     1.201227   -6.5270784    152.29151  0.040938577   0.04259498            4 
  311000    1.2096035   -6.4846664    153.35483  0.041091863  0.042589453            2 
  312000    1.1991066   -6.4643894    154.08324  0.041154711  0.042583489            4 
  313000    1.2177164   -6.4979608    154.27561  0.041074444  0.042576893            2 
  314000    1.1964096   -6.4646595    154.56739  0.041021069  0.042568696            3 
  315000    1.2194935   -6.4766159    155.18526  0.041054302  0.042560621            2 
  316000    1.1953502   -6.4483027    155.42286   0.04098704  0.042552609            3 
  317000    1.1942876   -6.4760992     155.2583  0.040814483  0.042542909            2 
  318000    1.2036302   -6.4863893    155.91937  0.040859373  0.042532675            2 
  319000    1.1625837   -6.4964428    156.07815  0.040772767  0.042521738            2 
  320000    1.1805925   -6.4583539    157.36937  0.040981608  0.042510067            2 
  321000    1.1830005   -6.5128943    156.81716  0.040710582  0.042497897            2 
  322000    1.1977482   -6.5130537    157.20835  0.040685391  0.042485853            2 
  323000    1.1894685   -6.4586699    157.24999  0.040570174  0.042473217            3 
  324000    1.2006049   -6.4282513    158.10331   0.04066443  0.042458652            1 
  325000    1.1867908     -6.49414    158.44925  0.040628014  0.042444762            3 
  326000    1.1863351    -6.495378    158.50828  0.040518477  0.042428987            2 
  327000    1.2239851   -6.4641806    159.58983  0.040670191  0.042413192            3 
  328000    1.1958951   -6.5067225    159.62985  0.040556363  0.042398539            3 
  329000    1.2365515   -6.4910308    160.17432  0.040571002  0.042383467            3 
  330000    1.2610042   -6.4787252    160.27803  0.040474251  0.042368718            1 
  331000    1.2027655   -6.4672884    160.77634  0.040477428  0.042352707            1 
  332000    1.1888632   -6.5005444    161.05096  0.040424438  0.042336081            1 
  333000    1.2133471   -6.4825903    161.63569  0.040449373  0.042320217            3 
  334000    1.2120394   -6.4739441    162.34045  0.040504105   0.04230432            1 
  335000    1.1838624   -6.4755151    163.04296  0.040557951   0.04228983            3 
  336000    1.1897513   -6.5217719    162.95974  0.040416603  0.042274618            6 
  337000     1.201499   -6.4746512    163.79949  0.040504324  0.042259558            1 
  338000    1.1957895   -6.4957738    163.60526  0.040336602   0.04224489            1 
  339000    1.1919457   -6.5131136    164.77388  0.040504886  0.042230709            4 
  340000    1.2020519   -6.4872317    165.65402  0.040601476  0.042216593            1 
  341000    1.1941468   -6.5017258    165.41316  0.040423548  0.042203937            2 
  342000    1.2040671   -6.4549154    166.63036  0.040601939  0.042189948            4 
  343000    1.1884167     -6.50164    166.32381   0.04040909  0.042175413            2 
  344000    1.1972057   -6.4791433    167.42987  0.040559562  0.042161006            2 
  345000    1.1895781   -6.5193909     167.1626   0.04037744  0.042147489            4 
  346000    1.2125767    -6.506628    168.26205  0.040525542  0.042134763            3 
  347000    1.1925301   -6.5063393    168.09301  0.040368159  0.042121287            1 
  348000    1.2051202   -6.4911176     169.9471  0.040696144  0.042109265            2 
  349000    1.1774269   -6.5016047    169.72906  0.040527473  0.042097064            2 
  350000    1.1721223   -6.5155755    169.88471  0.040448741  0.042084022            4 
  351000    1.1919408   -6.4902526    170.51329  0.040482736  0.042071228            1 
  352000    1.2142261   -6.4761159    171.03848  0.040492063  0.042058489            3 
  353000    1.2051372   -6.5010991     170.7477  0.040308712  0.042044174            1 
  354000    1.2297294   -6.5035179     171.9307  0.040473328  0.042029973            2 
  355000    1.2007949   -6.4724122    171.57165  0.040275036  0.042016872            3 
  356000     1.207315   -6.4534954    172.54805  0.040390461  0.042003687            2 
  357000    1.1962959   -6.4771534    173.06053  0.040396949  0.041989781            3 
  358000    1.1967233   -6.4744573    173.04238  0.040279883  0.041976596            2 
  359000    1.1919186    -6.487672    173.47371  0.040267806  0.041962845            1 
  360000     1.216589   -6.5016507    174.33612  0.040355584  0.041948541            3 
  361000     1.185697   -6.4735046    174.36315  0.040250036   0.04193376            1 
  362000    1.2256009   -6.5291946    175.44515  0.040387927   0.04191987            2 
  363000    1.2171913   -6.4911738    175.74495  0.040345488  0.041905669            4 
  364000    1.1818384   -6.5044255    176.06212  0.040307262  0.041891387            6 
  365000    1.2275396   -6.4717159    175.90852  0.040161762  0.041876951            2 
  366000    1.2048118   -6.4741116    176.97757  0.040295439  0.041862198            2 
  367000    1.1863257   -6.5072428    176.75192  0.040134405  0.041847288            2 
  368000    1.2086905   -6.4923023    177.17209  0.040120492  0.041831805            2 
  369000    1.1873946   -6.4989974    178.42689  0.040295142   0.04181661            1 
  370000    1.2014343   -6.5459872    178.03826  0.040098706  0.041801627            2 
  371000    1.1899161   -6.4921806    178.79635  0.040160906  0.041786325            2 
  372000    1.1939961   -6.4868419    178.10763  0.039898662  0.041770902            5 
  373000    1.1685325   -6.4960563    180.03305  0.040221861   0.04175557            2 
  374000    1.2233838   -6.5038311    179.48331  0.039991824  0.041739813            1 
  375000    1.1802239   -6.5447012    180.74451  0.040165446  0.041725021            5 
  376000    1.1760466   -6.5521988     180.1543  0.039927814  0.041709979            1 
  377000    1.2048919   -6.5114308    181.35098  0.040086424  0.041694649            2 
  378000    1.1788807   -6.4797331    181.96752  0.040116295  0.041679519            1 
  379000    1.2052687   -6.5091019     182.3236  0.040088742  0.041663748            4 
  380000    1.1888429    -6.485159    182.45753  0.040012617  0.041648025            1 
  381000    1.1893731   -6.5020708    182.54256  0.039926193  0.041632699            2 
  382000    1.2004021   -6.5370465    183.35776  0.039999512  0.041616712            2 
  383000    1.2325349    -6.517691    183.47753  0.039921133  0.041600508            3 
  384000    1.1877683   -6.5190999    184.07363  0.039946535   0.04158509            2 
  385000    1.2045166   -6.5064356    184.19196  0.039868389  0.041569164            2 
  386000    1.1891555   -6.5259872     184.8012  0.039896633  0.041552977            2 
  387000    1.1842385   -6.5115254    185.50256  0.039944566  0.041536169            2 
  388000    1.2047686   -6.5021007    186.05248  0.039959726  0.041519885            2 
  389000    1.2230662   -6.5052197    186.50844  0.039954678  0.041504919            1 
  390000    1.2060895   -6.4887203    187.01486   0.03996044   0.04148973            1 
  391000    1.2094474   -6.5278083    186.85484  0.039824134  0.041474176            2 
  392000    1.2069237   -6.5183334    187.67251  0.039896366   0.04145924            3 
  393000      1.16492   -6.5136861    188.25519  0.039918402  0.041443269            2 
  394000    1.2088146   -6.5144678    188.35752  0.039838731  0.041426714            2 
  395000     1.183287   -6.4666205    189.22671  0.039921246  0.041409742            1 
  396000    1.2026852    -6.470918    188.83161  0.039737292   0.04139306            6 
  397000    1.1955273   -6.5369898    189.86804  0.039854753  0.041377636            2 
  398000    1.2100522   -6.5334644    190.18105  0.039820154  0.041361679            5 
  399000    1.1556601   -6.4935582    190.82954  0.039855793  0.041345773            3 
  400000    1.1958545   -6.4882315    191.09994  0.039812488  0.041330569            7 
  401000    1.1956627   -6.4813251    190.84343  0.039659899  0.041314321            2 
  402000    1.2238474   -6.5170769    191.75418  0.039750038  0.041298315            8 
  403000    1.2146683   -6.5465099    191.49196  0.039597179  0.041281992            2 
  404000    1.1788486   -6.5038344    193.25699  0.039863241  0.041266286            2 
  405000    1.2044028   -6.5052016    193.01723   0.03971548  0.041249829            4 
  406000    1.1871093   -6.4943696    193.50466  0.039717706  0.041233551            3 
  407000    1.2033607   -6.5212913    195.04196  0.039934882   0.04121793            1 
  408000    1.2098143   -6.5217149    194.01866  0.039627994  0.041202925            1 
  409000    1.1575569   -6.4831983    195.01163  0.039733422  0.041187547            2 
  410000    1.1823104   -6.5034169    195.49248  0.039734243  0.041173096            3 
  411000    1.1949547   -6.4939496    196.33435  0.039808262  0.041159547            2 
  412000    1.1953074   -6.4623535     197.0757   0.03986159  0.041146891            6 
  413000    1.1669324   -6.5053458    198.14291   0.03998041  0.041133998            3 
  414000    1.1780308   -6.5509472    198.01462  0.039858015  0.041121409            3 
  415000    1.2117496   -6.4855716    198.69373  0.039898339  0.041108133            2 
  416000      1.18524    -6.474443    198.97858   0.03985949  0.041095498            1 
  417000      1.19222   -6.5134268     199.9432  0.039956674  0.041083349            2 
  418000    1.1583935   -6.5463709    199.33681  0.039740193  0.041071405            2 
  419000    1.1587056   -6.5062127    200.13602  0.039804299  0.041059448            1 
  420000    1.1942772   -6.4995749    201.28851  0.039938195  0.041048409            2 
  421000    1.1604368   -6.5211139    201.50349  0.039885884  0.041036784            1 
  422000    1.1938272   -6.5167241    201.69915  0.039830005  0.041025394            2 
  423000    1.1939534   -6.4980503    202.69127  0.039931298  0.041014647            2 
  424000    1.1955963    -6.534442    202.71731  0.039842239  0.041003552            2 
  425000    1.2303602   -6.4939897    202.66815  0.039738853  0.040992902            3 
  426000    1.1573833   -6.5182637    203.78759  0.039864551  0.040981354            1 
  427000    1.1596493   -6.5103704    205.09003  0.040025376  0.040971018            2 
  428000    1.1883813   -6.5551451    204.92553  0.039899831   0.04096203            2 
  429000    1.1758652   -6.4738198    206.19134  0.040052708  0.040953336            4 
  430000    1.1755026   -6.4958508    207.40982  0.040195702  0.040945953            2 
  431000    1.1608144   -6.5137602    206.91351   0.04000648  0.040938919            3 
  432000    1.1519575   -6.4712534    207.46613  0.040020473  0.040932166            2 
  433000    1.1922921   -6.4901222    208.95533  0.040214651  0.040925227            2 
  434000    1.1889262   -6.4592114     209.2456  0.040177727   0.04091946            1 
  435000    1.1767243   -6.5229265    209.94196  0.040218766  0.040913127            2 
  436000    1.1841852   -6.4665293    210.52426  0.040237817  0.040907253            2 
  437000    1.1646533    -6.508998    210.62986  0.040165878  0.040902041            2 
  438000    1.2010149    -6.495134    211.25865  0.040193807  0.040896538            2 
  439000    1.1770861    -6.502094    211.62218  0.040171257  0.040891319            2 
  440000     1.177067   -6.5180593    212.36374  0.040220404  0.040886338            4 
  441000    1.1822402   -6.5102126    212.46846  0.040148991  0.040882072            3 
  442000    1.1903773    -6.523674    212.99893   0.04015817  0.040877172            5 
  443000    1.1737436   -6.5079262    213.10086  0.040086693  0.040871827            2 
  444000    1.1782209   -6.4926052    213.55873  0.040082345  0.040865504            2 
  445000    1.1963603   -6.4962894    213.80064  0.040037574  0.040859418            1 
  446000    1.1710705   -6.5210972    213.85906  0.039958718   0.04085281            4 
  447000    1.1847237   -6.5504813    215.29623  0.040137253   0.04084554            1 
  448000    1.1677934   -6.5449534    215.38141  0.040063507  0.040839301            3 
  449000    1.1932865   -6.4802891    216.02792  0.040094268  0.040832557            5 
  450000    1.1849617   -6.5011858    215.52872  0.039912726  0.040826721            4 
  451000    1.1656451   -6.5521109    216.43944  0.039992506  0.040820081            4 
  452000    1.1842983   -6.5087818    217.07634  0.040021448  0.040812843            4 
  453000    1.1910354   -6.5606615    217.37823  0.039988637  0.040806078            6 
  454000    1.1786254   -6.5052353    217.31005  0.039888042  0.040798118            5 
  455000    1.1581851   -6.5238382    217.28669  0.039796098  0.040789957            1 
  456000    1.1500178   -6.5391339    218.45892  0.039923048  0.040781192            3 
  457000    1.2047155   -6.5314143    218.40629  0.039826092  0.040772492            6 
  458000    1.1915664   -6.5163934    218.28435  0.039716949  0.040763934            3 
  459000      1.19167   -6.5455384    219.29934  0.039814695   0.04075514            2 
  460000    1.1743348   -6.5368419    218.91344  0.039658231  0.040745446            3 
  461000    1.2052823   -6.5235512    220.70754  0.039896519  0.040736781            3 
  462000    1.1453499   -6.5287224    219.72706  0.039633308  0.040726618            2 
  463000    1.1638388   -6.5558201    219.78866  0.039558794  0.040716328            4 
  464000    1.1878846    -6.554767    220.62737  0.039624168  0.040705846            1 
  465000    1.1736238    -6.526072    221.05076  0.039614832  0.040694813            2 
  466000    1.2152608   -6.5240222    222.40709   0.03977237   0.04068384            2 
  467000      1.19162   -6.5243804    222.94684  0.039783519  0.040673578            3 
  468000    1.1923695   -6.5140843    223.21737  0.039746683  0.040663514            2 
  469000    1.1818574   -6.5185911    223.16117   0.03965195  0.040653497            3 
  470000    1.1853978   -6.5158792    223.54474  0.039635592  0.040643722            4 
  471000    1.1899837   -6.5265178    224.49076  0.039718817  0.040634181            2 
  472000    1.1722956   -6.5405552    224.60618  0.039655046  0.040625516            1 
  473000    1.1871282   -6.4814951    225.52869  0.039733736  0.040616265            2 
  474000    1.1768883   -6.5117785    225.90327  0.039715765  0.040607588            2 
  475000    1.1837822   -6.5211137    226.19378   0.03968312  0.040599238            3 
  476000    1.1915835   -6.5697377    225.61098   0.03949772   0.04059011            3 
  477000    1.1545711   -6.5762831    226.50273  0.039570708  0.040579845            1 
  478000    1.1791966   -6.5335961     228.0044  0.039749721   0.04056966            4 
  479000    1.1850935   -6.5397026    227.91142  0.039650561   0.04056016            3 
  480000    1.1585122   -6.5291027    228.24927   0.03962661  0.040550736            2 
  481000    1.1789639    -6.524407    228.23677   0.03954206  0.040540322            3 
  482000    1.1929633   -6.5233268    229.58252  0.039692689  0.040530232            3 
  483000    1.1756649   -6.5208238    228.52467  0.039427996  0.040520047            2 
  484000     1.178963   -6.5166785    229.46783  0.039508923  0.040509855            1 
  485000    1.1677659   -6.4949276    230.36731  0.039582011  0.040499694            1 
  486000    1.1642893   -6.5289711    230.65692  0.039550227  0.040489116            2 
  487000    1.1650168   -6.5030095    231.22724  0.039566606  0.040479648            1 
  488000    1.2001636   -6.5064541    232.31457  0.039671204  0.040470371            3 
  489000    1.1632644   -6.5151652    232.68243  0.039652766  0.040461381            2 
  490000    1.1780054   -6.5578699    232.44232  0.039531008  0.040452694            1 
  491000    1.1745186   -6.5522719    233.37043  0.039608016  0.040444194            1 
  492000    1.1553072   -6.5533295    233.54745  0.039557495  0.040435449            2 
  493000    1.1666765   -6.5172589    234.48356   0.03963549   0.04042664            2 
  494000    1.1678306   -6.5228364    234.27927  0.039520794  0.040417944            4 
  495000    1.1556793   -6.5564608    235.36514  0.039623761  0.040409081            2 
  496000    1.1401443   -6.5585127    234.83617  0.039455002  0.040400165            3 
  497000    1.1877399   -6.5500598    235.35202   0.03946211  0.040390769            3 
  498000    1.1916255   -6.5438589    236.01679  0.039494108  0.040381584            1 
  499000    1.1684947   -6.5666131    236.85943  0.039555683  0.040372674            3 
  500000       1.1763   -6.5839268    236.62106  0.039436843  0.040363605            7 
  501000    1.2121339   -6.5690003    236.43373  0.039326967  0.040353722            1 
  502000    1.1801955   -6.5414211    237.18771   0.03937379  0.040344328            2 
  503000    1.1714106   -6.5146243    238.54397  0.039520207  0.040335736            1 
  504000    1.1647636   -6.4844835    237.93259  0.039340706  0.040327362            3 
  505000    1.1563168   -6.5368375    239.50367  0.039522058    0.0403182            6 
  506000       1.1686   -6.5206424    240.12143   0.03954569  0.040309676            2 
  507000    1.1591828   -6.5660373    239.79601  0.039414202   0.04030056            3 
  508000    1.1668136   -6.5466108    240.30912  0.039420787  0.040291935            6 
  509000    1.1555916   -6.5141493    241.42107  0.039525389    0.0402825            4 
  510000    1.1379065   -6.5370789    241.32357  0.039431955  0.040273183            2 
  511000    1.1905113   -6.5282657     241.5031  0.039384067  0.040263464            2 
  512000    1.1774206   -6.5232003     241.9413  0.039378467  0.040254667            2 
  513000     1.178518   -6.5242861     243.1261  0.039494168   0.04024569            4 
  514000     1.151515   -6.5379604    243.27462  0.039441411  0.040237278            1 
  515000    1.1445951   -6.5721414    243.53761   0.03940738  0.040228198            1 
  516000     1.187185   -6.5732907    243.01669  0.039246881    0.0402188            3 
  517000    1.1765004   -6.5501831    243.59851   0.03926475  0.040209372            3 
  518000    1.1863441   -6.5251449    244.98668  0.039412271  0.040200221            3 
  519000    1.1491171   -6.5716964    245.15312  0.039363056  0.040190566            2 
  520000     1.188978   -6.5099118     245.3391  0.039317163  0.040181748            1 
  521000    1.2052954   -6.5511707    246.45302  0.039419868  0.040173057            3 
  522000    1.1710829   -6.5029363     246.4037  0.039336479  0.040163813            2 
  523000    1.1680486   -6.4921386    247.16903   0.03938321    0.0401554            3 
  524000    1.1394194   -6.5159316    247.20459  0.039313707  0.040146667            3 
  525000     1.183015   -6.5689164    247.69177  0.039316154  0.040137593            3 
  526000     1.151311   -6.5614962    248.52859  0.039373985  0.040127997            2 
  527000    1.1635993   -6.5345204     249.6294   0.03947334   0.04011941            2 
  528000    1.1824242   -6.5621712    249.15162  0.039323172   0.04011144            3 
  529000    1.1457018    -6.548271    249.22721  0.039260745  0.040103312            3 
  530000    1.1489007   -6.5773979    250.66139  0.039412168   0.04009548            2 
  531000    1.1425445   -6.5437121    251.10979  0.039408316  0.040087658            2 
  532000    1.1715074   -6.5405956    250.77748  0.039282187  0.040079419            4 
  533000    1.1520566   -6.5283477    251.93158  0.039388928  0.040070722            3 
  534000    1.1495929   -6.5556754    251.97828  0.039322454  0.040062373            3 
  535000    1.1569986   -6.5488826    252.51935  0.039333233  0.040054506            4 
  536000    1.1838279   -6.5381374    253.68207   0.03944062  0.040046479            2 
  537000    1.1370477   -6.5362152    254.20619  0.039448509  0.040038922            3 
  538000    1.1537499   -6.5646009    253.98943  0.039341609  0.040031369            1 
  539000    1.1669989    -6.513701    255.03443  0.039430184   0.04002345            1 
  540000    1.1602443   -6.5412039     254.8558  0.039329599  0.040015706            2 
  541000    1.1508237   -6.5226626    254.96588  0.039273857    0.0400073            4 
  542000    1.1820569   -6.5427637     255.2909  0.039251368  0.039998917            1 
  543000    1.1452513   -6.5434135    255.84582  0.039264245  0.039990172            2 
  544000    1.1759487   -6.4819159    257.28606  0.039412693  0.039982285            3 
  545000     1.181919   -6.5957325    255.63273  0.039087574  0.039973901            3 
  546000    1.1812189   -6.5331713    256.82318  0.039197676  0.039965113            2 
  547000    1.1585581   -6.5344884    256.99682  0.039152471  0.039956899            3 
  548000    1.1801779   -6.5673597    257.41234  0.039144212  0.039948309            2 
  549000    1.2059704   -6.5780036    257.82122  0.039134976  0.039939874            5 
  550000    1.1731102    -6.547393    259.27113  0.039283505  0.039931517            2 
  551000    1.1927832   -6.5889124    260.15515   0.03934591  0.039924079            2 
  552000    1.1865579   -6.5525433    260.39988  0.039311575  0.039916823            2 
  553000    1.1438213    -6.538678    261.40477  0.039391918  0.039909816            1 
  554000    1.1828127   -6.5632839    261.03296  0.039264885  0.039902959            2 
  555000    1.1827933   -6.5392883    261.67122  0.039289974  0.039896003            2 
  556000    1.1775686   -6.5383877    261.87365  0.039249648  0.039888764            3 
  557000    1.1968103     -6.57684    262.03179  0.039202842  0.039881381            2 
  558000    1.1576762   -6.5176588    262.85989  0.039256257  0.039874561            2 
  559000    1.1768753   -6.5528657    263.45056  0.039274084  0.039867393            4 
  560000     1.171097    -6.524329    263.08413  0.039149424  0.039860193            1 
  561000    1.1595128   -6.5486684    264.01213  0.039217487  0.039852686            1 
  562000     1.167181   -6.5822109    264.16636  0.039170576  0.039845626            2 
  563000    1.1474201   -6.5272535    265.23101  0.039258586  0.039838669            3 
  564000    1.1651863   -6.5155098     264.7969  0.039124837  0.039831291            1 
  565000    1.1538565   -6.5538398    266.32015  0.039280259  0.039823809            3 
  566000    1.1587957   -6.5554883    266.98868  0.039309287  0.039816398            2 
  567000    1.1580769   -6.5303492    266.46593  0.039163129  0.039809436            3 
  568000    1.1613639   -6.5828991    267.61177   0.03926229  0.039802138            2 
  569000    1.1636828   -6.5536262    267.50427  0.039177544   0.03979533            1 
  570000    1.1597958   -6.5585746    267.92702  0.039170616  0.039788739            2 
  571000    1.1756838   -6.5449675    268.51297  0.039187531  0.039781298            6 
  572000    1.1586233   -6.5440969    269.28939  0.039232137  0.039774419            3 
  573000    1.1418781   -6.5851678    268.63953  0.039069158  0.039767134            1 
  574000    1.1509176    -6.542287    270.04656  0.039205366  0.039759769            1 
  575000     1.146753   -6.5447914    271.01331  0.039277292   0.03975311            5 
  576000    1.1388187   -6.5679401    270.76041  0.039172514  0.039746457            3 
  577000    1.1451149   -6.5938965    271.55356  0.039219174  0.039739481            2 
  578000    1.1604421   -6.5425711    271.70692  0.039173432   0.03973243            2 
  579000    1.1611053   -6.5491617    272.16262  0.039171361  0.039725893            1 
  580000    1.1381756   -6.5622007    272.56691  0.039161913  0.039719584            3 
  581000    1.1525085   -6.5553152    272.62642  0.039103044  0.039712525            2 
  582000    1.1551002   -6.5584284    273.78828  0.039202217   0.03970577            2 
  583000    1.1770764   -6.5692124    274.49677  0.039236246  0.039699169            1 
  584000    1.1583798   -6.5737865    274.34789  0.039147815  0.039692393            5 
  585000    1.1337199   -6.5382384    275.51881  0.039247694  0.039685405            2 
  586000    1.1683114   -6.5928815    275.79277  0.039219678   0.03967856            2 
  587000    1.1717302   -6.5762563    275.24784  0.039075502  0.039671539            2 
  588000     1.156058   -6.5720816    276.45656  0.039180351  0.039664821            3 
  589000    1.1645481   -6.5057291    277.90318  0.039318502  0.039658203            1 
  590000    1.1490879   -6.5561265    277.04591  0.039130778  0.039651212            3 
  591000     1.160019   -6.5240755    277.60086  0.039142817  0.039644136            1 
  592000    1.1366651   -6.5553668    277.44947  0.039055388  0.039637368            3 
  593000    1.1525475    -6.550207    277.24096  0.038960224  0.039629893            4 
  594000    1.1652063   -6.5616776    278.51464  0.039073323  0.039621969            2 
  595000    1.1604135   -6.5841428    278.38596   0.03898963  0.039614767            4 
  596000     1.137089   -6.4955565    279.59625  0.039093436  0.039607365            2 
  597000    1.1697783   -6.5289675    279.08142  0.038956088  0.039600166            1 
  598000    1.1592189   -6.5562648    279.11951  0.038896253  0.039592795            3 
  599000    1.1563646    -6.549664    279.88138   0.03893731  0.039584981            1 
  600000    1.1750611   -6.5454961    280.19864  0.038916478  0.039576401            4 
  601000    1.1813273   -6.5301574    280.47531  0.038890087  0.039567482            2 
  602000    1.1366329   -6.5830142    280.34209  0.038807044  0.039558596            1 
  603000    1.1442399    -6.578995    281.32262  0.038878195  0.039549465            4 
  604000    1.1745418   -6.5521556    281.15282    0.0387904  0.039540578            5 
  605000    1.1703364   -6.5367032    281.85248  0.038822655  0.039532151            3 
  606000    1.1442259   -6.6080018    282.34605  0.038826464  0.039523467            4 
  607000     1.150386   -6.5528335    284.22603  0.039020597  0.039514915            3 
  608000    1.1371915   -6.5671871    282.70154  0.038747469  0.039506277            2 
  609000    1.1435103   -6.5598997    282.81229     0.038699   0.03949739            3 
  610000    1.1609808   -6.5637783    284.05703  0.038805605   0.03948761            5 
  611000    1.1627256   -6.5553726    283.89464  0.038719946   0.03947752            3 
  612000    1.1616255   -6.5830257    283.62578  0.038620068  0.039467724            2 
  613000    1.1357692   -6.5661724     283.8068  0.038581674  0.039457489            2 
  614000    1.1604445   -6.5917688    284.90856  0.038668372  0.039446913            2 
  615000    1.1731714   -6.5570166    284.96768  0.038613507  0.039436915            2 
  616000    1.1641268   -6.5812449    285.51641  0.038625055  0.039426791            3 
  617000    1.1395094   -6.5523123    286.10218  0.038641569  0.039416901            5 
  618000    1.1359056   -6.5730069    285.65005  0.038518076  0.039407163            3 
  619000    1.1477564   -6.5958605    285.78541  0.038474072  0.039397047            2 
  620000    1.1287324   -6.5633527    286.63477  0.038526179  0.039386662            2 
  621000    1.1354746    -6.601833    287.77658  0.038617361  0.039376083            2 
  622000    1.1447321   -6.5880956    287.63312  0.038536055  0.039365715            1 
  623000    1.1516796   -6.5697349    288.07249   0.03853297  0.039354922            6 
  624000    1.1256831   -6.6035122    288.16628  0.038483744  0.039344225            1 
  625000    1.1507086   -6.5651088    289.45438  0.038593918  0.039333444            2 
  626000    1.1570904   -6.5628499     290.3419  0.038650413  0.039323571            3 
  627000    1.1345007   -6.5506088    290.80912  0.038650866  0.039314062            4 
  628000    1.1368977   -6.5745629    289.70696  0.038443068  0.039304308            2 
  629000    1.1670282    -6.611233    290.26208  0.038455495  0.039294227            3 
  630000    1.1597281   -6.5630592    291.17985  0.038515853  0.039284391            1 
  631000    1.1586802   -6.5582672     291.4969  0.038496685  0.039274734            3 
  632000     1.128196   -6.6160467    291.54457  0.038442058  0.039264623            3 
  633000    1.1586555   -6.5410995    292.63847  0.038525339  0.039255007            3 
  634000    1.1584293    -6.582103    293.20293  0.038538766  0.039245149            1 
  635000    1.1651855     -6.57449    293.52409  0.038520222  0.039235279            1 
  636000    1.1763176   -6.5607389    294.15665  0.038542538  0.039226397            3 
  637000    1.1259789   -6.5281594     294.7813   0.03856375  0.039217199            3 
  638000    1.1593341   -6.5855505    294.44162  0.038458937  0.039207762            2 
  639000    1.1346569   -6.5503259     295.3017  0.038510916  0.039198545            3 
  640000    1.1402895   -6.5569686    295.63801  0.038494533  0.039189274            4 
  641000      1.14452   -6.5802454     295.8869  0.038466835  0.039179856            3 
  642000    1.1550506   -6.5483695    297.40539  0.038604022  0.039170881            1 
  643000    1.1741695   -6.5939467    297.53657  0.038560986  0.039161561            1 
  644000    1.1405996   -6.5430579     298.1507  0.038580577   0.03915224            4 
  645000    1.1403449   -6.5870105     297.8724  0.038484806  0.039143288            3 
  646000    1.1471637    -6.598894    298.50634  0.038507009  0.039134307            1 
  647000    1.1435482   -6.5714221    298.06245  0.038390321  0.039125348            3 
  648000    1.1447793   -6.5839527    299.12069  0.038467167  0.039115973            4 
  649000    1.1555078   -6.5639666     299.5968  0.038469029  0.039107467            2 
  650000     1.136732   -6.6203771    299.73562  0.038427644  0.039098857            4 
  651000    1.1438272   -6.6287295    300.15649  0.038422489  0.039090073            4 
  652000    1.1271463   -6.5771206    300.77283  0.038442336  0.039081424            3 
  653000    1.1495217    -6.582583    301.24413   0.03844361  0.039072708            4 
  654000    1.1676423   -6.6008143    301.03621  0.038358335  0.039063515            4 
  655000    1.1466926   -6.5608439    302.27301  0.038457126  0.039054935            3 
  656000    1.1366964   -6.5740737    302.18711  0.038387591  0.039046368            1 
  657000    1.1409211   -6.5484239    303.12196  0.038447737  0.039037291            4 
  658000    1.1522006   -6.5261425    303.84883  0.038481361  0.039028083            2 
  659000    1.1694575   -6.6047992    302.79604  0.038289839    0.0390188            3 
  660000    1.1751744   -6.5574436    303.76268  0.038353874  0.039009518            4 
  661000    1.1371713   -6.5866541     304.4254    0.0383794  0.039000196            3 
  662000    1.1491935   -6.5720992    304.67375  0.038352688  0.038991055            3 
  663000    1.1392401   -6.5896526       304.42  0.038262946  0.038981494            2 
  664000    1.1485846   -6.5695754     305.9504   0.03839739  0.038972175            5 
  665000    1.1767764   -6.6086151    306.53505  0.038412913  0.038962983            5 
  666000    1.1568117   -6.6162028    306.03187  0.038292277  0.038954622            3 
  667000    1.1370009   -6.5958104    307.02588  0.038359055  0.038945945            2 
  668000    1.1449374   -6.6099979    306.69879  0.038260827  0.038937083            2 
  669000    1.1509551   -6.5314306    308.48633  0.038426299  0.038928556            2 
  670000    1.1210265   -6.5865781    307.46579  0.038242013  0.038919828            3 
  671000    1.1532819   -6.5817916    308.59519  0.038325285  0.038911009           10 
  672000    1.1460907    -6.579948    309.89387  0.038429299   0.03890237            3 
  673000    1.1525792   -6.5355085    309.08467  0.038271999  0.038893828            3 
  674000    1.1201638     -6.56449    310.53023  0.038393945  0.038885509            1 
  675000    1.1451555   -6.5961556    310.09985  0.038283932   0.03887708            1 
  676000    1.1486854   -6.5653787    310.22271  0.038242444  0.038868741            5 
  677000    1.1383517   -6.5882154    310.80658  0.038257826  0.038859828            2 
  678000     1.125634   -6.6112982    311.52489  0.038289686  0.038851254            2 
  679000    1.1510039   -6.5976567    311.00958  0.038170051  0.038842737            4 
  680000    1.1373788   -6.6038955    311.62369  0.038189178  0.038833846            2 
  681000    1.1193263   -6.5795443     312.3291   0.03821942  0.038825182            3 
  682000    1.1228356   -6.6158577    312.42522  0.038175124  0.038816332            2 
  683000    1.1496032    -6.630253    312.39306  0.038115308  0.038807376            2 
  684000    1.1367914   -6.6011506    312.85655  0.038116051  0.038798061            3 
  685000    1.1450513   -6.5344795     314.8788  0.038306424  0.038789152            1 
  686000    1.1216221   -6.5550875      315.135  0.038281705  0.038780966            1 
  687000    1.1565644   -6.5376564    316.18494  0.038353341  0.038772646            2 
  688000    1.1466923   -6.5900335    315.55133  0.038220849  0.038764367            2 
  689000    1.1364619   -6.6138264    316.60103  0.038292336  0.038756142            2 
  690000    1.1370091   -6.6250267    318.28012  0.038439628  0.038748477            8 
  691000    1.1369085   -6.5760616    317.92213  0.038340826  0.038740503            1 
  692000    1.1587558   -6.5541214    317.56014  0.038241828  0.038732371            3 
  693000    1.1480698   -6.5690604    317.92841   0.03823093  0.038724477            2 
  694000      1.14418   -6.5512355    318.95535  0.038299153  0.038717007            3 
  695000    1.1598269     -6.60147     319.2878  0.038283909  0.038709088            4 
  696000    1.1562933   -6.6091327    319.12644  0.038209583  0.038701442            1 
  697000    1.1485799   -6.6050886    319.87032  0.038243701  0.038693708            4 
  698000    1.1361688   -6.5953659    320.86158  0.038307257  0.038686236            2 
  699000    1.1715567   -6.6279174    319.84369  0.038131103  0.038678512            3 
  700000    1.1509129   -6.5687505    321.39369  0.038261153  0.038670674            1 
  701000    1.1560169   -6.5979769    321.54991  0.038225144  0.038662843            2 
  702000    1.1297976   -6.6115725    322.24143  0.038252782  0.038655064            2 
  703000    1.1625197   -6.5954046    322.98626  0.038286659   0.03864702            3 
  704000    1.1154552   -6.6071032    323.66987  0.038313195  0.038639659            3 
  705000    1.1419212   -6.5479739    324.48394  0.038355075  0.038632098            2 
  706000    1.1399286    -6.631005    322.88257   0.03811173  0.038624013            2 
  707000    1.1266796   -6.5773361    324.48861  0.038247125  0.038615588            7 
  708000    1.1261193   -6.6021195    323.91576  0.038125678  0.038607806            3 
  709000    1.1052334    -6.616465    324.04914  0.038087581  0.038599092            2 
  710000    1.1280981   -6.6250677    324.32862  0.038066739  0.038590212            2 
  711000    1.1299982    -6.652252    323.96093  0.037970104  0.038581322            4 
  712000    1.1318877   -6.5819605    324.61018  0.037992765  0.038572947            9 
  713000    1.1573355   -6.5840166    325.66333  0.038062568  0.038564927            2 
  714000    1.1467731   -6.5879911     327.4762  0.038220845  0.038557512            6 
  715000    1.1656284   -6.5901303    327.86131  0.038212274  0.038550072            4 
  716000    1.1177642   -6.6142072    326.29285  0.037976356  0.038541902            6 
  717000    1.1287163   -6.5565388    327.54916  0.038069405  0.038533765            3 
  718000    1.1581514    -6.601149    326.97001  0.037949166  0.038526023            1 
  719000    1.1682426   -6.5880401    328.11982   0.03802965  0.038517338            2 
  720000    1.1276889   -6.5982913    328.00793  0.037963881   0.03850915            1 
  721000    1.1392638   -6.6094603    328.55295   0.03797422  0.038500492            4 
  722000    1.1588874   -6.5715855    329.82851   0.03806885  0.038492545            1 
  723000    1.1192787   -6.6191865    329.67384  0.037998368  0.038484267            2 
  724000    1.1375594   -6.5663898    330.46655  0.038037126  0.038476529            1 
  725000    1.1268657   -6.6159946    331.28056  0.038078225  0.038468659            3 
  726000    1.1427133   -6.6473937    331.80748  0.038086258  0.038461406            3 
  727000    1.1376046   -6.6127316    331.21467  0.037965918  0.038453972            3 
  728000    1.1198799   -6.6361384    331.94142  0.037996958  0.038446762            1 
  729000    1.1476527   -6.6016046    331.96365  0.037947376  0.038439211            3 
  730000    1.1451233   -6.6002677    333.91031  0.038117615  0.038431591            2 
  731000    1.1202403   -6.6108953    333.24882  0.037990062  0.038423817            3 
  732000    1.1350135   -6.5756466    333.10351   0.03792162  0.038415574            1 
  733000    1.1370988   -6.6150775    334.52233  0.038031188  0.038407348           13 
  734000    1.1379037   -6.6105773    333.98814  0.037918726  0.038399264            2 
  735000    1.1365226   -6.6012403    335.53626   0.03804266  0.038391168            1 
  736000    1.1142499   -6.6117027    334.36557   0.03785842  0.038382646            2 
  737000    1.1034907   -6.5388378    334.65294  0.037839545  0.038374109            3 
  738000    1.1330347   -6.6258892    335.37442  0.037869741  0.038365851            2 
  739000    1.1206921   -6.6041945    336.00204  0.037889269  0.038357453            2 
  740000    1.1324484     -6.60443    335.55158   0.03778734   0.03834911            2 
  741000    1.1302354   -6.6022446    336.70585  0.037866155  0.038341076            2 
  742000     1.173073   -6.6170961    337.23921  0.037875023  0.038333339            2 
  743000    1.1367187   -6.5994797    337.85829  0.037893482  0.038325372            3 
  744000      1.11188   -6.6087028    338.87458  0.037956382  0.038317361            2 
  745000    1.1180382   -6.6223958    338.46136  0.037859213  0.038309596            4 
  746000    1.1434253   -6.6336168     338.4167  0.037803474  0.038301404            2 
  747000    1.1503631   -6.6325653    338.94163  0.037811427   0.03829358            6 
  748000    1.1306891   -6.6040083    339.10072  0.037778601  0.038285231            2 
  749000    1.1322573   -6.6298597    339.79609  0.037805529  0.038276637            2 
  750000    1.1171382   -6.6037946    340.03213  0.037781348  0.038267964            2 
  751000    1.1329522   -6.5847495     339.9889  0.037726243  0.038258937            2 
  752000    1.1221796    -6.655223     340.2961  0.037710117  0.038250309            2 
  753000    1.1464839   -6.6214704    340.95502  0.037732959  0.038241742            3 
  754000     1.139278   -6.6409153    341.91721  0.037789258  0.038232779            3 
  755000    1.1511698   -6.5982095    341.22293  0.037662575  0.038224267            3 
  756000    1.1186613   -6.6093404     341.3863  0.037630765  0.038215219            3 
  757000     1.149015   -6.6375946    341.89758  0.037637339  0.038206318            4 
  758000    1.1099095   -6.5908523    343.53142  0.037767306   0.03819728            4 
  759000    1.1397558   -6.6150815    343.19966  0.037681122  0.038188062            2 
  760000    1.1316455   -6.5974522    342.06374  0.037506989   0.03817851            4 
  761000    1.1348747   -6.6465026    342.84349  0.037543089  0.038168674            1 
  762000    1.1204582   -6.6338504    341.57953  0.037355592  0.038159171            2 
  763000     1.146634   -6.5885458    343.07564  0.037470035  0.038149301            1 
  764000    1.1179055   -6.6154177    343.68131  0.037487053  0.038139634            6 
  765000    1.1329605    -6.637831    343.52392  0.037420906  0.038130096            3 
  766000    1.1217241   -6.5793708      346.017  0.037643277  0.038120796            2 
  767000    1.1176309   -6.6291842    345.65475   0.03755484  0.038111175            2 
  768000    1.1224832   -6.5673735    345.65053  0.037505483  0.038101679            1 
  769000    1.1419794    -6.625564    345.52199  0.037442782  0.038092196            2 
  770000    1.1103988   -6.6115898    346.26843  0.037474938  0.038082628            1 
  771000    1.1096086   -6.5959402    346.89045  0.037493563  0.038073507            2 
  772000    1.1208562   -6.6510842    345.58031  0.037303574  0.038064039            1 
  773000    1.1567647   -6.6141501    348.23261  0.037541247  0.038054477            2 
  774000    1.1307394   -6.6110147     347.6489  0.037429899  0.038045074            2 
  775000     1.123379   -6.5937981    348.17947  0.037438652  0.038035805            2 
  776000     1.130459   -6.6016261    348.32718  0.037406269  0.038026373            1 
  777000    1.1274363   -6.6111258    348.31725  0.037357062  0.038016909            2 
  778000     1.132289   -6.6426879    348.37267  0.037314982  0.038006978            2 
  779000    1.1163534   -6.6080918    348.72387   0.03730465  0.037997082            3 
  780000     1.124167   -6.5791973    350.07053  0.037400698  0.037987524            5 
  781000    1.1356576   -6.6492994    349.56274  0.037298628  0.037978228            2 
  782000    1.1105773    -6.630993    351.40175  0.037446904  0.037968512            4 
  783000    1.1446567   -6.6731686    350.74745  0.037329444  0.037959345            3 
  784000    1.1230202   -6.6339153    351.00598  0.037309309  0.037950038            3 
  785000    1.1272224   -6.6157921    352.44338  0.037414372  0.037941041            6 
  786000    1.1061143   -6.5998457    353.70663  0.037500703   0.03793228            2 
  787000    1.1105877   -6.6099625    352.54294  0.037329833  0.037923591            3 
  788000    1.1178765   -6.6020458    353.81954  0.037417464  0.037915274            5 
  789000    1.1415782   -6.6140904    355.11467  0.037506831  0.037907079            1 
  790000      1.12275   -6.6228672      355.163  0.037464451  0.037898607            2 
  791000    1.1340914    -6.629487    355.66904    0.0374704  0.037890128            5 
  792000    1.1373561   -6.6242425    355.74122  0.037430684  0.037881451            3 
  793000    1.1323888   -6.6028267    356.16861  0.037428396  0.037873368            3 
  794000    1.1426447   -6.6212026    357.57029  0.037528368  0.037865442            2 
  795000    1.1380623   -6.6183823    358.02746  0.037529083   0.03785759            2 
  796000    1.1377689   -6.5997113    358.74519  0.037557076  0.037849784            2 
  797000    1.1100788   -6.6003385    358.57487  0.037492144  0.037842095            1 
  798000    1.1271292   -6.6199429    358.56643   0.03744428   0.03783442            2 
  799000    1.1184018   -6.6401636    358.38295   0.03737828  0.037826436            4 
  800000    1.1088088   -6.6565366    358.59173  0.037353305  0.037818627            3 
  801000     1.121365   -6.6071293    361.01445  0.037558724   0.03781076            3 
  802000    1.1467512    -6.634648    360.07881  0.037414672  0.037803038            4 
  803000    1.1532326    -6.634013    359.53144  0.037311274  0.037794861            3 
  804000     1.121354   -6.6426922     360.5632  0.037371808  0.037786601            3 
  805000    1.1273263   -6.5962533     361.9986  0.037473975  0.037778904            4 
  806000     1.128605   -6.5917432    361.34533  0.037359939  0.037771201            3 
  807000    1.1144772    -6.654493    362.10364   0.03739195   0.03776341            7 
  808000    1.1040987   -6.6186421    362.88995  0.037426769  0.037755892            3 
  809000    1.1212475   -6.6596564    361.46388  0.037233609  0.037748095            2 
  810000    1.1140755   -6.6655667    362.67206   0.03731194   0.03774032            3 
  811000    1.1295706   -6.6150779    363.92411  0.037394586  0.037733037            1 
  812000    1.1090606   -6.6152783    364.99367  0.037458299  0.037725721            4 
  813000    1.1320122   -6.6446155    364.86865  0.037399411  0.037718293            2 
  814000    1.1237767   -6.6151593    364.94567   0.03736135  0.037711063            5 
  815000    1.1329097    -6.637641    365.80938  0.037403822  0.037704033            2 
  816000    1.1489894   -6.6210045    366.76289  0.037455361  0.037696937            3 
  817000    1.1201372   -6.6238773    366.31172  0.037363497  0.037689341            4 
  818000    1.1262468   -6.6226018    366.69353  0.037356716  0.037681686            2 
  819000    1.1252769   -6.6265262    367.33208  0.037376076  0.037673827            2 
  820000    1.0957851   -6.5998531    367.22588  0.037319703  0.037665975            3 
  821000    1.1263606   -6.6565245    366.85402  0.037236502  0.037657714            1 
  822000    1.1277421   -6.6593497    366.04158  0.037108838   0.03764929            2 
  823000    1.1303993    -6.632624    366.33002  0.037092955  0.037640588            1 
  824000    1.1259547   -6.6155446    369.09693  0.037327764  0.037632177            4 
  825000    1.1085655   -6.6278515    367.49109  0.037120312  0.037623694            2 
  826000    1.1194263   -6.5873112    369.76892  0.037305178  0.037615493            1 
  827000    1.1374614   -6.6547004    368.29571   0.03711162  0.037606856            1 
  828000    1.1134856   -6.6419774    367.41204  0.036977862  0.037598332            2 
  829000    1.1318333   -6.6301799    368.32534  0.037025064   0.03758995            2 
  830000    1.1239499   -6.6566476    369.86929   0.03713547  0.037580887            3 
  831000    1.1226892   -6.6605561    370.07936  0.037111849  0.037571972            4 
  832000    1.1084458   -6.6330468    369.40972  0.037000172  0.037562639            2 
  833000    1.0983959     -6.66157    370.00535  0.037015341  0.037553421            2 
  834000    1.1034121   -6.6345935    371.75447  0.037145731  0.037544565            3 
  835000    1.1166132   -6.6165268    371.01108  0.037027054   0.03753604           11 
  836000    1.1133356    -6.626522    371.98674  0.037080018  0.037526987            3 
  837000    1.1049277   -6.6219833    371.59233  0.036996449  0.037518172            3 
  838000    1.1171326   -6.6091939    372.41458  0.037034068  0.037509561            3 
  839000    1.1240033   -6.6217034     371.8229  0.036931158  0.037500651            2 
  840000    1.1282995   -6.6441208    372.78297  0.036982438  0.037491616            5 
  841000     1.140784   -6.6077555    373.52671  0.037012159  0.037482921            3 
  842000    1.1005742   -6.6279693    373.60833   0.03697628  0.037474316            3 
  843000    1.1014122   -6.6162052    374.37745  0.037008447  0.037465511            1 
  844000    1.0865558   -6.6562606    375.81994  0.037107024  0.037456755            1 
  845000    1.1155369   -6.6249376    374.78515   0.03696106  0.037448017            3 
  846000    1.1132056   -6.6174696    376.24727  0.037061394  0.037439076            2 
  847000    1.1139484   -6.6174127    375.57885  0.036951874  0.037430443            1 
  848000     1.118591   -6.6828004     375.4859  0.036899164  0.037421957            3 
  849000    1.1249352   -6.6678953     375.8508  0.036891519   0.03741328            3 
  850000     1.137326   -6.6597523      377.298  0.036989999  0.037404928            2 
  851000    1.1258421    -6.671554    375.79593  0.036799444  0.037396294            3 
  852000    1.1257644   -6.6543698    377.67354  0.036939901  0.037387589            3 
  853000    1.0994674    -6.648618    378.87795  0.037014258  0.037378594            4 
  854000    1.1088637   -6.6175884    378.51516  0.036935515  0.037369716            2 
  855000     1.109627   -6.6234824     378.6173  0.036902271  0.037360965            2 
  856000    1.1003356   -6.6150511    379.30728  0.036926332   0.03735223            1 
  857000    1.1222838   -6.6105889     380.2489  0.036974806  0.037343496            1 
  858000    1.1065353   -6.6462074    378.78589  0.036789616  0.037334771            1 
  859000    1.1217478   -6.6180675    379.41844  0.036808153  0.037325855            4 
  860000    1.0871966   -6.6303651     379.7156  0.036794147  0.037316667            3 
  861000    1.1057708   -6.6254666    381.72312  0.036945714  0.037307731            3 
  862000    1.1323269   -6.6033547     380.9391  0.036827059  0.037298839            2 
  863000    1.1175633   -6.6745455    381.01852  0.036792055  0.037289566            3 
  864000    1.1131111   -6.6392142    382.29869  0.036872944  0.037280475            2 
  865000    1.1193462   -6.6665128    383.08946  0.036906499  0.037271398            4 
  866000    1.1150178   -6.6452514    382.48653  0.036805863   0.03726262            3 
  867000    1.1459544   -6.6699997    381.38183   0.03665723  0.037253515            3 
  868000    1.1277235   -6.6778252    381.82175  0.036657234  0.037244324            2 
  869000    1.1173972   -6.6559908    383.27508  0.036754419    0.0372355            3 
  870000    1.1186651   -6.6295597    385.33869  0.036909836   0.03722686            1 
  871000     1.134761   -6.6207476    384.59742  0.036796539  0.037218356            4 
  872000    1.0949878    -6.643499    383.58474  0.036657563  0.037210009            2 
  873000    1.1263412   -6.6553064    386.42289  0.036886492  0.037201625            3 
  874000     1.106125    -6.658471    384.47697   0.03665875   0.03719307            2 
  875000    1.1171555   -6.6420804    388.27733  0.036978793  0.037184651            3 
  876000    1.1149073   -6.6734954    384.48457  0.036575777  0.037175745            2 
  877000      1.10244   -6.6553357    386.06055  0.036683823  0.037166397            3 
  878000    1.1251258   -6.6292363    385.84808  0.036621875  0.037157159            2 
  879000    1.1119346   -6.6240142    386.04417  0.036598803  0.037147934            2 
  880000    1.1192624   -6.6598293    387.34249   0.03668016  0.037138605            2 
  881000     1.116277    -6.660583    387.10067  0.036615652  0.037128989            2 
  882000    1.1062728   -6.6826526    386.77476  0.036543344  0.037119115            2 
  883000     1.128298   -6.7062047    385.98204  0.036427146  0.037109492            4 
  884000    1.1076653   -6.6783155    387.32609  0.036512641  0.037099783            4 
  885000    1.0952834   -6.6629321    387.49189  0.036486995  0.037090265            3 
  886000     1.103118   -6.6786367    387.74348  0.036469477  0.037080628            3 
  887000    1.1163751   -6.6452108    388.97974  0.036544507  0.037071176            3 
  888000    1.0738861    -6.701913    388.08428  0.036419321  0.037061507            2 
  889000    1.1209062   -6.6780984    389.72634  0.036532277  0.037052028            3 
  890000    1.0933098   -6.6619642    389.73653  0.036492184  0.037042741            4 
  891000    1.1114466    -6.672645    390.94714  0.036564454  0.037033759            2 
  892000    1.0841213   -6.6467887    391.22184  0.036549126  0.037024822            4 
  893000    1.0917333   -6.6705428     392.0616  0.036586562  0.037015886            3 
  894000    1.0938446   -6.6487317    392.22264  0.036560649  0.037006731            4 
  895000    1.1133582    -6.627482    392.87885  0.036580899   0.03699784            5 
  896000    1.1171113   -6.6865177    391.46468  0.036408546  0.036988722            2 
  897000    1.1304357   -6.6525162    391.75509  0.036394936    0.0369793            1 
  898000    1.1188467   -6.6815403     392.2528  0.036400594   0.03696972            3 
  899000     1.113834   -6.6387489    392.16737  0.036352184  0.036960135            3 
  900000    1.1064987   -6.6595922    392.86315  0.036376217  0.036950239            3 
  901000     1.093475   -6.6532602    393.88975  0.036430794  0.036940435            6 
  902000    1.0923659    -6.630372    394.22167  0.036421071   0.03693083            5 
  903000    1.1244346   -6.6294636    394.98791   0.03645145  0.036921141            5 
  904000    1.0927226   -6.6649911    393.32553  0.036257884  0.036911288            2 
  905000    1.1062844   -6.6511517    393.41648  0.036226196  0.036901224            3 
  906000    1.1054904   -6.6391001    393.34102  0.036179269   0.03689127            1 
  907000    1.0786806   -6.7052562    394.71091  0.036265243  0.036881294            3 
  908000    1.1175095   -6.6263993    396.59199  0.036397944  0.036871494            4 
  909000    1.1111418   -6.6361687    396.05706  0.036308861  0.036861929            2 
  910000    1.1221074   -6.6821155    396.15514  0.036277943   0.03685228            1 
  911000    1.0829227   -6.6431856    396.38688   0.03625932  0.036842402            4 
  912000    1.1153832   -6.6705214    397.78756  0.036347548  0.036832747            2 
  913000    1.0959947   -6.6969547    396.65109  0.036204006  0.036822985            1 
  914000    1.0906484   -6.6680674    397.61169  0.036251978  0.036813358            4 
  915000    1.0987995   -6.6732166    398.31734  0.036276625  0.036803899            2 
  916000    1.1030722    -6.682329     399.7745  0.036369587  0.036794652            3 
  917000    1.1191421   -6.6544836    399.21587   0.03627916  0.036785138            7 
  918000    1.1065757   -6.6602245    400.23905  0.036332521  0.036776143            2 
  919000    1.0773003   -6.6885471     399.4271   0.03621936  0.036767237            3 
  920000    1.0866524   -6.6923705    399.66964   0.03620196  0.036758133            2 
  921000    1.1004312   -6.7081438    400.75101  0.036260497  0.036748867            1 
  922000    1.0962966   -6.6890755    401.01291   0.03624484  0.036739724            3 
  923000    1.0953171   -6.6570782    401.31031  0.036232423  0.036730732            2 
  924000    1.0728502   -6.6212818    402.21693  0.036274976  0.036721742            2 
  925000    1.1001926    -6.640507    402.96121  0.036302812  0.036712515            2 
  926000    1.1062514   -6.6783305    402.17114  0.036192508  0.036703549            1 
  927000    1.0890505   -6.6815848    402.80084  0.036210072  0.036694366            2 
  928000    1.1419329   -6.6590802    401.71786  0.036073802  0.036685031            2 
  929000    1.0961273   -6.6773921    402.77358  0.036129672  0.036675963            3 
  930000    1.1147681   -6.6340373    403.59364  0.036164304  0.036666763            2 
  931000    1.1083424   -6.6739073      403.471  0.036114483  0.036657677            1 
  932000    1.1104114   -6.6266496    404.27712  0.036147811  0.036648768            2 
  933000    1.0971908   -6.7007167    403.82573   0.03606875  0.036639412            2 
  934000    1.1046599   -6.6805449    406.42853   0.03626236  0.036629888            1 
  935000     1.097922    -6.659522    406.09782  0.036194102  0.036620891            6 
  936000    1.1187638   -6.6540978    404.47774  0.036011194  0.036611624            3 
  937000    1.0996281   -6.6734955    406.36412   0.03614053  0.036602209            3 
  938000    1.1066836   -6.6527225    406.33206  0.036099152  0.036592977            3 
  939000    1.0863794   -6.6592019    405.88322  0.036020875  0.036583566            3 
  940000    1.1101519   -6.6336262    407.90489  0.036161781  0.036573946            2 
  941000    1.1001704   -6.6610844    406.61618  0.036009226  0.036564759            2 
  942000    1.0960754   -6.7175062    406.50281   0.03596097  0.036555203            5 
  943000    1.0998426   -6.6795715    406.09966   0.03588721  0.036545237            1 
  944000    1.1185605   -6.6692996    407.45147  0.035968527  0.036535493            3 
  945000    1.1190868   -6.6687794    408.51595  0.036024334  0.036525597            2 
  946000    1.1163296   -6.6834845     408.0563  0.035945763   0.03651562            3 
  947000    1.0981756   -6.6983279    407.14827  0.035827901  0.036505805            2 
  948000    1.0773131   -6.6214599    409.13575  0.035964816  0.036495887            3 
  949000      1.07753   -6.6915452     408.7269  0.035891016  0.036486035            6 
  950000    1.0829586   -6.6876699    410.30851  0.035991974  0.036476203            2 
  951000    1.1057607   -6.6969195    410.18658  0.035943444  0.036466488            2 
  952000    1.0977253   -6.6724317    410.65652  0.035946824  0.036456831            2 
  953000     1.109427   -6.6670418    411.05804  0.035944214  0.036447132            3 
  954000    1.1143721   -6.6650902    410.92655  0.035895051  0.036437356            2 
  955000    1.1014574   -6.6596829    410.55124  0.035824715  0.036427328            3 
  956000    1.0998856   -6.6837181    412.12702  0.035924601  0.036417536            2 
  957000    1.1071585   -6.6484791    412.04328   0.03587977  0.036407743            3 
  958000    1.0883314   -6.6943142    411.90186  0.035830016  0.036397587            2 
  959000    1.0899643   -6.6848141     412.5311  0.035847332  0.036387678            4 
  960000    1.0871622   -6.6701358    411.91687  0.035756673  0.036377714            3 
  961000    1.1129696   -6.6581306    413.58558  0.035864168  0.036367909            3 
  962000    1.1020062   -6.6907268    412.13231  0.035700997   0.03635798            4 
  963000    1.0885608   -6.6731621    414.13607   0.03583732   0.03634801            3 
  964000    1.1077537   -6.6858922    413.21199  0.035720262  0.036338235            3 
  965000    1.0887951   -6.6735297    415.00403  0.035837999  0.036328515            3 
  966000    1.0707631   -6.6645522    414.84203  0.035786925   0.03631887            4 
  967000    1.0971877   -6.6671752    414.78485  0.035744989  0.036309363            4 
  968000    1.1028124    -6.653822    416.67054  0.035870397  0.036299968            4 
  969000    1.1177035   -6.6883048    417.35322   0.03589209  0.036290602            5 
  970000    1.0936745   -6.6777195    417.04468  0.035828581  0.036281113            3 
  971000    1.0768449   -6.6775243    416.88669  0.035778123  0.036271731            2 
  972000    1.1178071   -6.6736407    416.25419  0.035687088  0.036262577            2 
  973000    1.1077312   -6.6927772    417.55428  0.035761758  0.036253255            3 
  974000    1.1134499   -6.6744972    418.07693  0.035769758   0.03624408            4 
  975000    1.0996059   -6.6547518    418.65093  0.035782131  0.036234717            2 
  976000    1.1144767   -6.7127133    417.50209  0.035647378  0.036225418            4 
  977000    1.0815786   -6.6776884    417.22677  0.035587408  0.036215627            3 
  978000    1.1039083   -6.6419191    420.10921  0.035796627  0.036206092            6 
  979000    1.0760836   -6.6907412    420.27169  0.035773892  0.036196375            3 
  980000    1.0976287   -6.7265948    419.29177  0.035654062  0.036186765            2 
  981000    1.1053402   -6.6893262    419.23506    0.0356129  0.036177101            3 
  982000    1.1147247   -6.7088472    419.55621  0.035603888  0.036167089            3 
  983000    1.0932852   -6.6805618    419.94312  0.035600468  0.036157294            3 
  984000    1.1034505   -6.6597324    420.65133  0.035624266  0.036147495            4 
  985000    1.0886233   -6.7151079    420.21814   0.03555145  0.036137524            4 
  986000    1.0956349   -6.7116366    421.09241  0.035589284  0.036127371            2 
  987000    1.0832413   -6.6717809    421.37617  0.035577184  0.036117296            2 
  988000    1.0901232   -6.6929265    421.43752   0.03554635  0.036107274            5 
  989000    1.0963707   -6.6791519    422.66793  0.035614082  0.036097284            3 
  990000    1.1190595   -6.6709117    422.79257    0.0355886  0.036087281            4 
  991000      1.10471   -6.6872227    422.14307  0.035498072  0.036077196            3 
  992000    1.0668898   -6.6941749    422.90498  0.035526292  0.036067074            1 
  993000    1.0966215   -6.6897687    422.39664  0.035447855  0.036056947            1 
  994000    1.0787661    -6.675524     423.6487  0.035517162  0.036047026            2 
  995000    1.0870591   -6.7213341    422.27029  0.035366021   0.03603706            3 
  996000    1.0934024   -6.7245763    424.40453   0.03550908  0.036027251            3 
  997000    1.0878046   -6.7032603    423.29815  0.035380989  0.036017472            4 
  998000    1.0814871   -6.6765091    424.75632  0.035467294  0.036007638            2 
  999000    1.0748695    -6.712311    424.69784  0.035426913  0.035997892            4 
 1000000    1.0777361   -6.6880502     427.1882  0.035599017  0.035988225            2 
 1001000    1.0786846   -6.7038369    425.46923  0.035420349  0.035978457            2 
 1002000    1.0781207   -6.6477091    427.49839  0.035553758  0.035968915            2 
 1003000     1.105913   -6.7043953    426.86254  0.035465482  0.035959441            1 
 1004000    1.0805756   -6.6943088    427.00382  0.035441884  0.035949872            9 
 1005000    1.0914218   -6.7154199    426.67885  0.035379672  0.035940124            3 
 1006000     1.107548   -6.6730678    427.68609   0.03542794  0.035930196            2 
 1007000    1.0839194   -6.6946739    428.55402  0.035464583  0.035920369            2 
 1008000    1.0763531   -6.6456731    428.32485  0.035410454   0.03591078            1 
 1009000    1.1032864   -6.6816863    429.25819  0.035452444   0.03590122            2 
 1010000    1.0827426   -6.6864194    429.16767  0.035409874  0.035891841            3 
 1011000    1.1064118   -6.7064559    429.29056  0.035384978  0.035882397            2 
 1012000    1.0972308   -6.6605192    430.13177  0.035419283  0.035872841            4 
 1013000    1.0801257   -6.7032914    430.37631  0.035404435  0.035863293            2 
 1014000    1.0895234   -6.7282195    429.25443   0.03527732   0.03585345            4 
 1015000    1.0931961   -6.7120991    430.67348   0.03535907  0.035843643            3 
 1016000    1.0764442   -6.6945695    430.37361  0.035299673  0.035833841            3 
 1017000    1.0823731   -6.7078145     430.9985  0.035316167  0.035824098            2 
 1018000    1.0881372   -6.7220853    431.57437  0.035328616  0.035814512            4 
 1019000     1.085079   -6.7216046    431.91661  0.035321934  0.035804821            3 
 1020000    1.0843431   -6.6863319    433.11213  0.035384978  0.035795516            3 
 1021000     1.085833   -6.6924486    432.74847  0.035320639  0.035785902            2 
 1022000    1.0772087   -6.6669896    433.88374  0.035378648  0.035776576            4 
 1023000    1.0899769   -6.7074701    433.19996  0.035288365  0.035767148            2 
 1024000    1.1002131   -6.7245744      432.435   0.03519165  0.035757568            3 
 1025000    1.0656547   -6.7194746    432.69253  0.035178254  0.035747858            3 
 1026000     1.072177   -6.7002192    433.59153  0.035216986  0.035738028            2 
 1027000    1.0884223   -6.7315442    433.78873  0.035198696  0.035728265            6 
 1028000    1.0839805   -6.7121954    435.05636  0.035267214  0.035718601            5 
 1029000    1.1122869   -6.6897688    434.10368  0.035155789  0.035709187            2 
 1030000    1.0874197   -6.6608918    436.54932  0.035319524  0.035699545            4 
 1031000    1.0940193   -6.7021669    436.42041  0.035274847  0.035689987            2 
 1032000    1.0760284   -6.7115684    436.34932  0.035234926   0.03568025            3 
 1033000    1.0867078   -6.7143283    436.85473  0.035241589  0.035670495            2 
 1034000    1.0923671   -6.7065641    436.16773  0.035152138  0.035660988            2 
 1035000      1.07609   -6.7174447    435.51333  0.035065485  0.035651602            3 
 1036000    1.0802151   -6.6615971    437.27374  0.035173242  0.035641907            2 
 1037000     1.045233    -6.692427    438.10639  0.035206235  0.035632198            2 
 1038000    1.1185565   -6.7101862    436.34615  0.035031001   0.03562243            2 
 1039000     1.097492   -6.7011077    438.67495  0.035184067  0.035612846            3 
 1040000    1.0917307   -6.6604652    439.32867  0.035202618  0.035603183            6 
 1041000    1.0823034   -6.7133817    437.70939  0.035039176  0.035593571            3 
 1042000    1.1031255   -6.6922835    438.58364  0.035075467  0.035583697            6 
 1043000     1.089523   -6.6837936    439.86762  0.035144425  0.035573854            4 
 1044000    1.0939504   -6.6887065    438.58029  0.035008005  0.035563916            2 
 1045000    1.0694479   -6.6707614     440.3039  0.035111954  0.035553965            2 
 1046000    1.0902729   -6.6742193    440.85532  0.035122317  0.035544302            1 
 1047000     1.090075   -6.7037956    439.17853  0.034955311  0.035534452            3 
 1048000    1.0955817   -6.6865611    438.48081  0.034866477  0.035524388            2 
 1049000    1.0922632    -6.684586    441.99057  0.035112056  0.035514455            3 
 1050000    1.0966478   -6.7413578    439.64037  0.034892092   0.03550451            3 
 1051000    1.0880828   -6.7042321    441.12039  0.034976244  0.035494422            1 
 1052000    1.0790822   -6.7125568    441.13108  0.034943844  0.035484351            2 
 1053000     1.091262   -6.6742284    441.25381  0.034920372  0.035474409            3 
 1054000    1.0608711   -6.6996509    442.35161  0.034974036  0.035464284            2 
 1055000    1.0848406   -6.7455355    441.85601  0.034901738  0.035454091            2 
 1056000    1.0758247   -6.7224871    441.46736  0.034838018  0.035443786            2 
 1057000    1.0917844   -6.7125462    443.49228  0.034964702  0.035433695            3 
 1058000    1.0668737   -6.7062634    442.37643  0.034843764  0.035423653            1 
 1059000     1.073106   -6.7411807    441.60422  0.034750096  0.035413416            3 
 1060000    1.0734562    -6.690127    442.78471  0.034810119  0.035403188            3 
 1061000    1.0939787   -6.7051408    444.17575  0.034886565  0.035393345            2 
 1062000    1.1032166   -6.6998708    443.00632  0.034761952   0.03538318            2 
 1063000    1.0676192   -6.7046143     443.0369  0.034731648  0.035373039            6 
 1064000    1.0717147   -6.7170156    445.26243   0.03487331  0.035363114            2 
 1065000    1.0881833   -6.7418105    445.73449  0.034877503  0.035353154            2 
 1066000     1.098771   -6.7307931    445.80849   0.03485057  0.035343047            1 
 1067000    1.0760129   -6.7210098     444.1771  0.034690495  0.035332894            3 
 1068000    1.0929025   -6.7295431     444.6954  0.034698455  0.035322624            2 
 1069000    1.0512457   -6.6834229     445.9774  0.034765934  0.035312372            4 
 1070000    1.1057714   -6.6937118    448.52918  0.034932179   0.03530212            6 
 1071000    1.0747484   -6.7016346    446.71912  0.034758724  0.035291898            5 
 1072000    1.0690462   -6.7008984    447.13596  0.034758703  0.035281549            3 
 1073000    1.0631517   -6.7327936    445.40519  0.034591891  0.035271409            4 
 1074000    1.0874148   -6.7495036    448.22989  0.034778856  0.035261013            3 
 1075000     1.092699   -6.7088496    448.19689  0.034743945  0.035250792            3 
 1076000    1.0708205   -6.7590918    446.61232  0.034588935  0.035240429            4 
 1077000    1.0788919   -6.6903299    449.23786  0.034759971  0.035230104            2 
 1078000    1.0878129   -6.7228729    448.54834  0.034674423  0.035220108            2 
 1079000    1.1121788   -6.6853197    449.77389  0.034736939  0.035210379            4 
 1080000    1.0781136    -6.704515    450.41119   0.03475395  0.035200277            3 
 1081000    1.0710532   -6.7209523    448.47953   0.03457289  0.035190312            4 
 1082000     1.079657   -6.7148588    451.00475  0.034735425  0.035180425            6 
 1083000      1.09812   -6.7121767    451.27089   0.03472383  0.035170823            2 
 1084000    1.0963095   -6.7086353    452.13492   0.03475822  0.035161148            2 
 1085000    1.0854899   -6.7287973    450.80561  0.034624087  0.035151349            2 
 1086000    1.1038685   -6.7228283    452.05561  0.034688122  0.035141442            1 
 1087000    1.0826028   -6.7159981    450.91001  0.034568385  0.035131484            3 
 1088000    1.0660621   -6.7323681    451.36471  0.034571439  0.035121516            3 
 1089000     1.071402   -6.7482502    452.13343  0.034598518  0.035111643            6 
 1090000    1.0936094   -6.7174365    452.19292  0.034571324  0.035101415            4 
 1091000     1.078444   -6.7121731    453.16475  0.034613867  0.035091403            3 
 1092000     1.072724   -6.7578797    453.84914  0.034634397  0.035081655            1 
 1093000    1.0883416   -6.7082854    453.39144  0.034567814   0.03507213            3 
 1094000    1.0762627   -6.7456135    453.13593  0.034516753  0.035062569            6 
 1095000    1.0852044   -6.7180887    455.21694  0.034643603  0.035052987            5 
 1096000    1.0877826   -6.7555514    455.15633  0.034607385  0.035043476            1 
 1097000    1.0886137   -6.7413684    455.47427   0.03459999  0.035033847            2 
 1098000    1.0509841   -6.7120308    456.10191  0.034616113  0.035024214            4 
 1099000    1.0500285   -6.7039388    457.78593  0.034712309  0.035014831            3 
 1100000    1.0631793   -6.6865392    457.06985  0.034626504  0.035005342            4 
 1101000    1.0657423   -6.7336155     457.1625  0.034602066  0.034995833            1 
 1102000    1.0672961   -6.6895712    457.30301  0.034581292   0.03498652            2 
 1103000    1.0774227   -6.7412355    456.13002  0.034461319  0.034977052            2 
 1104000    1.0770181   -6.7330042    457.98858  0.034570394  0.034967768            3 
 1105000    1.0805107   -6.7187803    458.49319  0.034577163  0.034958171            1 
 1106000    1.0778455   -6.7304518    458.59659  0.034553691  0.034948935            3 
 1107000    1.0845225   -6.7333463    458.30142  0.034500257  0.034939532            2 
 1108000    1.0746654    -6.707065    461.14552  0.034683026  0.034930332            7 
 1109000    1.0608595   -6.7048339    459.37795  0.034518932  0.034921204            4 
 1110000    1.0717964   -6.7164861    458.88035  0.034450476  0.034911688            2 
 1111000    1.0482716   -6.7326767    460.77864  0.034561854  0.034902133            5 
 1112000     1.092345    -6.714128    460.14918  0.034483602  0.034892766            2 
 1113000    1.0874795   -6.7262035    461.07859  0.034522206  0.034883344            5 
 1114000    1.0912221    -6.752411    461.76418  0.034542503  0.034873987            2 
 1115000    1.0830487   -6.7392684    461.24632  0.034472819  0.034864777            8 
 1116000    1.0674472   -6.7139789    461.08707  0.034430038  0.034855269            6 
 1117000    1.0832336   -6.7050715    461.45106  0.034426369  0.034845683            4 
 1118000    1.0548831   -6.7372669    461.64461  0.034410004  0.034836102            3 
 1119000    1.0736845   -6.7597525    461.74152   0.03438647    0.0348265            2 
 1120000    1.0689853   -6.7030254    463.49423  0.034486178  0.034817065            2 
 1121000    1.0796944   -6.7366148    463.65752  0.034467552  0.034807814            1 
 1122000     1.083462   -6.7765365    462.83136  0.034375473  0.034798326            2 
 1123000    1.0641657   -6.7657576    462.98063  0.034355939  0.034788622            2 
 1124000    1.0577159   -6.7696421    463.50798  0.034364471  0.034779199            2 
 1125000    1.0591906    -6.734363    463.83797  0.034358368  0.034769958            4 
 1126000    1.0775883   -6.6839507    465.06079  0.034418353  0.034760619            3 
 1127000    1.0677174   -6.7246276     464.1737   0.03432222  0.034751397            3 
 1128000    1.0402451   -6.7685987    463.98752  0.034278038  0.034741768            5 
 1129000    1.0711345   -6.7208695     465.1245  0.034331598  0.034732142            4 
 1130000    1.0907275   -6.7211313    466.57594  0.034408255  0.034722891            2 
 1131000    1.0308136    -6.693119    467.77375  0.034466088  0.034713879            5 
 1132000    1.0621167   -6.7604235    465.36717  0.034258478  0.034704682            6 
 1133000    1.0625591   -6.7202997    467.47107  0.034382985  0.034695352            3 
 1134000    1.0666898   -6.7507105     467.4773  0.034353123  0.034685857            2 
 1135000    1.0757366   -6.7195858    467.26197  0.034307046  0.034676693            2 
 1136000    1.0736496   -6.7400752    468.94084  0.034400003  0.034667458            3 
 1137000    1.0687791   -6.6927354    469.90647  0.034440521  0.034658575            2 
 1138000    1.0745759   -6.7385783    468.29385  0.034292168  0.034649662            3 
 1139000    1.0472139   -6.7520352     468.8605  0.034303519  0.034640286            3 
 1140000    1.0847803   -6.7279483    469.34115  0.034308564   0.03463086            1 
 1141000    1.0599945   -6.7191081    468.77479  0.034237131  0.034621517            4 
 1142000    1.0794237   -6.7159114    470.83504   0.03435749  0.034612367            2 
 1143000    1.0757563   -6.7080766    469.55554  0.034234145  0.034603055            1 
 1144000    1.0793029    -6.709845    469.09876  0.034170947  0.034593782            2 
 1145000    1.0602759   -6.7478091    469.24775  0.034151947  0.034584419            4 
 1146000    1.0497464   -6.7301439    470.54091   0.03421618  0.034574967            2 
 1147000    1.0699552   -6.7324715    471.75433  0.034274508  0.034565342            3 
 1148000    1.0677763   -6.7026492    472.05377  0.034266389  0.034555924            2 
 1149000      1.07566   -6.7251584    471.76324  0.034215494  0.034546725            2 
 1150000    1.0570788   -6.7507929    471.17625  0.034143206  0.034537504            2 
 1151000    1.0654178   -6.7122869    471.83394   0.03416116  0.034528115            4 
 1152000    1.0583377   -6.7306855    471.45156  0.034103845  0.034518778            2 
 1153000    1.0795449   -6.7624551    472.09507  0.034120777  0.034509382            1 
 1154000    1.0477101   -6.7173296    473.48203  0.034191366   0.03450006            2 
 1155000    1.0668375   -6.7730362    472.63818  0.034100879  0.034490647            3 
 1156000    1.0694207   -6.7027984    475.85492  0.034303267  0.034481412            3 
 1157000    1.0468795   -6.7870085    472.97447  0.034066153  0.034472248            3 
 1158000    1.0699556   -6.7168541    474.16893  0.034122692  0.034463024            3 
 1159000    1.0638848   -6.7585655    473.39434  0.034037557  0.034453879            1 
 1160000    1.0528414   -6.7496409    474.69301  0.034101509  0.034444658            4 
 1161000    1.0853556   -6.7347772    475.81871  0.034152936  0.034435502            4 
 1162000    1.0928857   -6.7242008    476.45522  0.034169193  0.034426435            3 
 1163000    1.0719329   -6.7463849    475.88354  0.034098849  0.034417428            3 
 1164000    1.0844203   -6.7497667    475.66142  0.034053652  0.034408385            4 
 1165000     1.042718   -6.7642027     476.2898  0.034069371  0.034399147            2 
 1166000    1.0667464   -6.7355113    477.49503  0.034126288  0.034390097            2 
 1167000    1.0725168   -6.7335698    478.07105  0.034138178  0.034380858            7 
 1168000     1.060568   -6.7474966    476.59505  0.034003643  0.034371648            4 
 1169000    1.0566816   -6.7385716    478.42019  0.034104661  0.034362527            2 
 1170000    1.0767037    -6.748708    477.68434  0.034023101  0.034353456            2 
 1171000    1.0559504   -6.7225984    477.82422  0.034004001  0.034344217            2 
 1172000    1.0653286   -6.7317284    478.80338  0.034044609  0.034335005            3 
 1173000    1.0532056   -6.7065645    478.34379  0.033982935  0.034325822            2 
 1174000    1.0723226    -6.757286    478.33763  0.033953551  0.034316849            3 
 1175000    1.0603082   -6.6899806    481.11828  0.034121864  0.034307798            2 
 1176000    1.0657027    -6.741994     479.5512  0.033981803  0.034298709            1 
 1177000    1.0378924   -6.7021199    481.18754  0.034068786  0.034289487            2 
 1178000    1.0541182   -6.7700995    478.98297  0.033883912  0.034280405            2 
 1179000    1.0612505   -6.7896065    480.07425  0.033932305  0.034271102            4 
 1180000    1.0854886   -6.7097863    481.01169  0.033969752  0.034261721            3 
 1181000    1.0611267   -6.7526063    481.61509  0.033983565  0.034252355            3 
 1182000    1.0628996    -6.793879    480.62664  0.033885127  0.034242955            4 
 1183000    1.0594337   -6.7441814    481.25643  0.033900847  0.034233762            2 
 1184000     1.042386   -6.7413376    481.39783  0.033882167   0.03422475            3 
 1185000    1.0622129   -6.7086098    482.92641   0.03396107  0.034215855            2 
 1186000     1.055134   -6.7592674    484.78521  0.034063042  0.034206822            2 
 1187000    1.0652788   -6.7387431    483.31165  0.033930894  0.034197884            3 
 1188000    1.0733036     -6.77583    483.46337  0.033912975  0.034188993            5 
 1189000     1.056849   -6.7457689    482.20606  0.033796332  0.034179868            2 
 1190000    1.0756654   -6.7283636    485.50166  0.033998716  0.034170935            3 
 1191000    1.0569633   -6.7324827    485.25087  0.033952622  0.034162077            2 
 1192000    1.0686845   -6.7185032    485.59769  0.033948385  0.034153103            2 
 1193000    1.0800516   -6.7418778    484.01389  0.033809297  0.034144302            3 
 1194000    1.0587087   -6.7270308    484.55534   0.03381877  0.034135423            3 
 1195000     1.056303   -6.7363936    485.83738  0.033879873  0.034126794            5 
 1196000    1.0562491    -6.740733    484.97536  0.033791483  0.034117989            2 
 1197000    1.0765723   -6.7267042    488.34251  0.033997669  0.034109309            2 
 1198000    1.0445613   -6.7548073    484.65899  0.033713062    0.0341006            2 
 1199000    1.0599896   -6.7511844    485.94948  0.033774637  0.034091458            5 
 1200000    1.0531725   -6.7779059    486.74078  0.033801443  0.034082384            3 
 1201000    1.0677421   -6.7651015    487.73706  0.033842427  0.034073423            3 
 1202000    1.0785508   -6.7515704    487.18897  0.033776273  0.034064255            2 
 1203000    1.0795176   -6.7741492    487.50802  0.033770298   0.03405532            2 
 1204000    1.0764909   -6.7271211     488.7777  0.033830128  0.034046749            4 
 1205000    1.0640017   -6.7754558    487.11412  0.033687007  0.034037997            3 
 1206000    1.0444372   -6.7777623    488.86222  0.033779866  0.034029142            3 
 1207000    1.0663775   -6.7724648    489.18511  0.033774172  0.034020265            3 
 1208000    1.0683079   -6.7722004    486.55119  0.033564513  0.034011096            5 
 1209000    1.0676462   -6.7582533    487.83546  0.033625273  0.034001981            3 
 1210000    1.0580194   -6.7378438    490.19285  0.033759838  0.033992837            2 
 1211000    1.0627053   -6.7564241    492.09628  0.033862943  0.033983959            8 
 1212000    1.0638721   -6.7344662    489.90045  0.033684024  0.033975071            2 
 1213000    1.0677724   -6.7472933    491.93298  0.033795891   0.03396606            6 
 1214000    1.0516755   -6.7794336    490.50978  0.033670358  0.033957238            3 
 1215000    1.0595272    -6.751334    492.55918  0.033783208  0.033948309            3 
 1216000     1.070043   -6.7372573     490.9434  0.033644696  0.033939476            2 
 1217000    1.0205886   -6.7433277    491.88261  0.033681362  0.033930599            6 
 1218000    1.0753076   -6.7386171    492.52501   0.03369766  0.033921789            2 
 1219000    1.0680475   -6.7537413      493.721  0.033751778  0.033913147            7 
 1220000     1.025617   -6.7738346    494.43392  0.033772809  0.033904726            6 
 1221000    1.0291081   -6.8142856    494.10324   0.03372258  0.033896026            6 
 1222000    1.0602667   -6.7513341    494.78689  0.033741604   0.03388746            4 
 1223000    1.0498301   -6.7418027    494.61568  0.033702349  0.033879028            2 
 1224000    1.0459428   -6.7450917    495.75224  0.033752195  0.033870709            6 
 1225000    1.0505391   -6.7585827    496.34259  0.033764802  0.033862284            3 
 1226000    1.0571369   -6.7492112    496.48765  0.033747122  0.033854062            1 
 1227000    1.0632887   -6.7556325    496.44164  0.033716493   0.03384567            5 
 1228000    1.0503895   -6.7481305    497.84207  0.033784071  0.033837494            3 
 1229000    1.0606003   -6.7550636    496.02918  0.033633657  0.033829311            2 
 1230000    1.0659644   -6.7363692    496.86435  0.033662897   0.03382112            3 
 1231000    1.0543073   -6.7579413    498.16669  0.033723713  0.033812779            5 
 1232000    1.0687476   -6.7723083    497.68299  0.033663622  0.033804539            2 
 1233000    1.0594598   -6.7225298    498.53181  0.033693688  0.033796576            2 
 1234000    1.0259242   -6.7650688    499.96695    0.0337633   0.03378856            4 
 1235000    1.0491112   -6.7796955    499.71203   0.03371876  0.033780699            3 
 1236000    1.0573941   -6.7353835    501.72085  0.033826918  0.033772952            3 
 1237000    1.0484091   -6.8269584    500.60976  0.033724721  0.033765209            5 
 1238000    1.0808597   -6.7674257    501.95713  0.033788175  0.033757408            2 
 1239000     1.056983   -6.7423212    501.25983  0.033714005  0.033749724            2 
 1240000    1.0383096   -6.8075805    501.15927  0.033680058  0.033742151            5 
 1241000    1.0508613   -6.7660481    502.13679  0.033718559  0.033734512            5 
 1242000    1.0469391   -6.7357977    504.82628  0.033871865  0.033727102            6 
 1243000    1.0610066   -6.7596873    503.05063  0.033725572  0.033719619            2 
 1244000    1.0583643   -6.7696246    505.45035  0.033859214  0.033712146            2 
 1245000    1.0523695   -6.7789948    503.40443  0.033695075  0.033704786            1 
 1246000    1.0659232    -6.724919    505.18059  0.033786824  0.033697368            2 
 1247000    1.0670703   -6.7548614    506.26179  0.033831983  0.033690152            3 
 1248000    1.0435135   -6.7420682    506.35151  0.033810865  0.033682884            2 
 1249000    1.0691812   -6.7668374    505.02074  0.033695005  0.033675642            6 
 1250000    1.0402908   -6.7850332    504.53266  0.033635511  0.033668158            6 
 1251000    1.0304489   -6.7453253    506.04796  0.033709563  0.033660665            5 
 1252000    1.0616963   -6.7919649     504.5801  0.033584937  0.033653151            1 
 1253000     1.063817   -6.7608585    506.31766  0.033673694  0.033645625            3 
 1254000    1.0705289   -6.7650407    506.43148  0.033654404  0.033638183            3 
 1255000    1.0583064   -6.7781571    506.23644  0.033614638  0.033630545            2 
 1256000    1.0418452   -6.7488912    507.50278  0.033671893  0.033623122            3 
 1257000    1.0415298   -6.7351366    508.82752   0.03373293  0.033615595            2 
 1258000    1.0443179   -6.7599594    507.83369  0.033640281  0.033608094            2 
 1259000    1.0507591   -6.7656068    508.16526  0.033635508  0.033600734            2 
 1260000    1.0416253   -6.7701514    508.97121  0.033662117   0.03359341            4 
 1261000    1.0426895   -6.7679067    509.68671  0.033682706   0.03358605            4 
 1262000    1.0612471   -6.7504196    509.65264  0.033653767  0.033578581            4 
 1263000    1.0411415    -6.752518    508.50553  0.033551433  0.033571019            3 
 1264000    1.0425566   -6.7934589    508.81669  0.033545404  0.033563298            5 
 1265000    1.0524923   -6.7500197    510.00859  0.033597404  0.033555665            3 
 1266000    1.0143609   -6.7565082    509.85181  0.033560546  0.033548254            4 
 1267000    1.0616014   -6.7889411    509.24908  0.033494415  0.033540593            3 
 1268000    1.0424439    -6.770906    509.76738  0.033502063  0.033532979            3 
 1269000    1.0306454   -6.7918985    510.64214  0.033533106   0.03352536            2 
 1270000    1.0784633   -6.8060922    510.69343  0.033510068  0.033517547            8 
 1271000    1.0526392   -6.7924878    512.50227    0.0336023  0.033510026            2 
 1272000    1.0282622    -6.776679    510.94304  0.033473732  0.033502651            1 
 1273000    1.0588064   -6.7890223    512.38258  0.033541672  0.033495258            9 
 1274000    1.0427674   -6.7840547    512.02624  0.033492036  0.033488072            2 
 1275000    1.0401102   -6.7645978    515.21004  0.033673859   0.03348083            4 
 1276000     1.057089    -6.800079    513.58986  0.033541658   0.03347378            2 
 1277000    1.0409781   -6.8161401    514.69698  0.033587639   0.03346683            4 
 1278000    1.0406813   -6.7922986    514.38488  0.033541007  0.033459866            4 
 1279000    1.0227691   -6.7869628    515.97817  0.033618593  0.033452903            2 
 1280000    1.0631023   -6.8062673    516.39876  0.033619711  0.033445972            3 
 1281000    1.0485064   -6.8129302    515.90866  0.033561584  0.033439035            3 
 1282000    1.0523267   -6.7671085    517.18891  0.033618624  0.033432323            2 
 1283000    1.0432657   -6.7871526    516.40342  0.033541402  0.033425508            4 
 1284000    1.0513292   -6.7705735    516.63503  0.033530311  0.033418545            2 
 1285000    1.0335559   -6.7691179    517.76515  0.033577507  0.033411756            6 
 1286000    1.0326659   -6.7638476    517.73696   0.03354957  0.033404812            6 
 1287000    1.0571148   -6.7782218    518.16853  0.033551446  0.033397731            3 
 1288000    1.0294519   -6.7927063    518.14002  0.033523552  0.033390756            4 
 1289000    1.0457745   -6.8016316    518.68102   0.03353252  0.033383747            3 
 1290000     1.028569   -6.7663452     519.5801  0.033564606  0.033376678            1 
 1291000    1.0324682   -6.7814976    517.66488  0.033414981  0.033369766            6 
 1292000    1.0455542   -6.7791205    521.06028  0.033608119  0.033362817            3 
 1293000     1.036007   -6.7879964    519.84677  0.033503917  0.033355886            4 
 1294000    1.0744692   -6.8053466    518.62884   0.03339959  0.033348906            3 
 1295000    1.0556615   -6.7816345    519.01415  0.033398594  0.033342073            3 
 1296000    1.0456623   -6.7526707    520.78042  0.033486396  0.033335102            3 
 1297000    1.0405229   -6.7848638    519.87361  0.033402314  0.033328027            3 
 1298000    1.0447469    -6.751601    519.79123  0.033371291  0.033320848            2 
 1299000    1.0450082   -6.7797598     521.7191  0.033469278  0.033313611            2 
 1300000    1.0582426   -6.7668785    520.31572  0.033353572  0.033306399            3 
 1301000      1.05968    -6.776319    520.19447  0.033320169  0.033299111            1 
 1302000    1.0406613   -6.8014363    521.19911  0.033358878  0.033291921            3 
 1303000    1.0376138   -6.7766634    521.91519  0.033379073  0.033284723            2 
 1304000    1.0282389   -6.7939545    522.75791  0.033407331  0.033277535            4 
 1305000    1.0414903   -6.7928832    523.14166  0.033406236  0.033270545            5 
 1306000    1.0546996   -6.7587736    522.57141  0.033344271  0.033263423            3 
 1307000    1.0362231   -6.7653254    523.05551  0.033349624  0.033256328            3 
 1308000     1.026492   -6.7515053    521.71335  0.033238618   0.03324909            3 
 1309000    1.0217317   -6.8120615    522.61576  0.033270675  0.033241642            3 
 1310000    1.0661123   -6.7463032    524.17843  0.033344684  0.033234274            2 
 1311000    1.0292024   -6.8057542    522.93617  0.033240286  0.033226917            3 
 1312000    1.0193282   -6.7903266    525.28428  0.033364093  0.033219516            3 
 1313000     1.029511   -6.8084885    524.32266   0.03327765  0.033212161            3 
 1314000    1.0217915   -6.7831661    525.54871   0.03333008   0.03320491            4 
 1315000    1.0222138   -6.7681229    524.53713  0.033240629  0.033197564            2 
 1316000    1.0473183   -6.8076862    526.18439   0.03331968  0.033190384            3 
 1317000    1.0478022   -6.7788764    525.71601  0.033264744  0.033183082            4 
 1318000    1.0410481   -6.7650996    525.77128     0.033243  0.033175756            4 
 1319000    1.0315119   -6.8174826    525.10192  0.033175507  0.033168249            2 
 1320000    1.0223225   -6.7815576    526.08642  0.033212527  0.033160786            4 
 1321000    1.0335947   -6.7744609    527.21079  0.033258314   0.03315332            2 
 1322000    1.0344725   -6.7839427    526.46866  0.033186375  0.033145929            2 
 1323000    1.0359091   -6.8166274    526.69495  0.033175545  0.033138664            1 
 1324000    1.0333087   -6.7523416    527.87303  0.033224637   0.03313123            4 
 1325000    1.0447681   -6.7974492    527.65824  0.033186053   0.03312396            5 
 1326000    1.0498752   -6.7786226    527.01647  0.033120693   0.03311671            3 
 1327000    1.0363164   -6.8497826    527.51109  0.033126796  0.033109289            2 
 1328000    1.0428932   -6.7362859    530.33001  0.033278741  0.033102139            2 
 1329000    1.0443481   -6.7924337    528.74176  0.033154111   0.03309477            3 
 1330000    1.0356063   -6.8008828    529.01733  0.033146449  0.033087344            7 
 1331000     1.042482   -6.7852608    529.95773  0.033180424    0.0330802            3 
 1332000    1.0057823   -6.7846743    531.60187  0.033258376  0.033073074            2 
 1333000    1.0330558   -6.7817522    530.98811  0.033195056  0.033065952            3 
 1334000    1.0417837   -6.7956866    531.77498  0.033219327  0.033058864            6 
 1335000    1.0296437   -6.7919378    532.20778  0.033221459  0.033051624            5 
 1336000    1.0482729   -6.7917497    532.27721  0.033200923  0.033044563            2 
 1337000    1.0311478   -6.7783596    532.02662  0.033160472  0.033037288            2 
 1338000    1.0197068   -6.7978255    531.17926  0.033082913  0.033029994            2 
 1339000    1.0331322   -6.7746029    532.08851  0.033114794  0.033022739            2 
 1340000    1.0415741   -6.8241818    531.02542  0.033023969  0.033015375            5 
 1341000    1.0180135    -6.802389     531.8782  0.033052337   0.03300826            4 
 1342000     1.041497     -6.82898    533.37575    0.0331207  0.033001195            5 
 1343000    1.0446337   -6.7682945    533.73247  0.033118172  0.032994058            3 
 1344000    1.0294642   -6.8284505    533.25151  0.033063709  0.032986795            4 
 1345000    1.0306204   -6.8081408    533.86074  0.033076873  0.032979469            2 
 1346000    1.0446947   -6.7758027    535.53314  0.033155841  0.032972329            3 
 1347000    1.0414299   -6.8386837    532.91636  0.032969337  0.032965152            6 
 1348000    1.0665887   -6.7773837    534.75783  0.033058718  0.032957913            1 
 1349000     1.010794   -6.8145591    536.14573  0.033119949  0.032950768            2 
 1350000    1.0497784   -6.8374225    535.35672  0.033046711  0.032943447            4 
 1351000    1.0290476   -6.8183509    535.05986  0.033003939   0.03293608            3 
 1352000    1.0530385    -6.841634    534.48878  0.032944328  0.032928713            2 
 1353000    1.0522403   -6.7827231    536.89339  0.033068082  0.032921503            2 
 1354000    1.0273846   -6.7695419    536.76374   0.03303568  0.032914367            1 
 1355000    1.0387124   -6.8087295    536.79457  0.033013196  0.032907275            5 
 1356000    1.0001473   -6.7853995    538.42651  0.033089141  0.032900299            6 
 1357000    1.0273917   -6.7956238     536.9191  0.032972187  0.032893333            3 
 1358000    1.0503676   -6.7989668    539.73436  0.033120665    0.0328864            2 
 1359000     1.034313   -6.8172735    538.46972  0.033018747  0.032879612            2 
 1360000    1.0521667   -6.7776785    539.42059  0.033052732  0.032872666            2 
 1361000    1.0472733   -6.7622653    540.84461  0.033115639  0.032865791            2 
 1362000    1.0079198    -6.766245    538.21401  0.032930372  0.032858876            3 
 1363000    1.0153628   -6.7556099     539.2128  0.032967278  0.032851854            4 
 1364000    1.0265571   -6.8327047    538.12901  0.032876895  0.032844656            5 
 1365000    1.0286052   -6.8333762    538.87737  0.032898496  0.032837285            2 
 1366000    1.0251677   -6.8003626    540.24442   0.03295781  0.032830038            3 
 1367000    1.0368323   -6.7655507    540.98633  0.032978928  0.032822805            3 
 1368000    1.0522575   -6.7951622    540.14481  0.032903558  0.032815693            3 
 1369000     1.021529   -6.8049031    539.68537  0.032851557  0.032808371            3 
 1370000    1.0616715   -6.8345921    539.86064  0.032838238  0.032801095            4 
 1371000     1.038038   -6.8260958    540.69366   0.03286492  0.032793638            2 
 1372000     1.038403   -6.7756638    541.80017  0.032908173  0.032786241            1 
 1373000    1.0172218    -6.796051    541.09304  0.032841287  0.032778786            3 
 1374000    1.0162023   -6.7679092    541.99917  0.032872342  0.032771508            7 
 1375000    1.0215318   -6.7879445    540.69156  0.032769185   0.03276422            3 
 1376000    1.0317001   -6.8183638    542.88083  0.032877957  0.032756913            2 
 1377000    1.0256291   -6.7890185    543.55643  0.032894966  0.032749761            6 
 1378000    1.0113738   -6.7840338    542.54071   0.03280967  0.032742589            3 
 1379000    1.0294013    -6.785719    543.95341  0.032871248  0.032735465            2 
 1380000      1.02653   -6.8058075    543.26078  0.032805603  0.032728324            3 
 1381000    1.0595666   -6.8116682    544.66868  0.032866804  0.032721125            5 
 1382000    1.0389585   -6.7861149    544.10737  0.032809175  0.032713945            4 
 1383000    1.0319831    -6.830093    543.55635  0.032752251  0.032706732            4 
 1384000   0.98619256   -6.7877826    543.22059  0.032708369   0.03269937            4 
 1385000    1.0346214   -6.8490065    543.93523  0.032727751  0.032691868            4 
 1386000    1.0314997   -6.8301805    545.13505  0.032776278  0.032684461            2 
 1387000    1.0423209   -6.8294713    543.56588  0.032658368  0.032676856            3 
 1388000    1.0285168   -6.7902132    544.68981  0.032702318  0.032669557            5 
 1389000    1.0107793   -6.8313965    543.56029  0.032611009  0.032662151            2 
 1390000    1.0381454    -6.846307    545.83293  0.032723797  0.032654728            3 
 1391000    1.0318847   -6.8216812     544.8374   0.03264063  0.032647307            9 
 1392000    1.0309401   -6.8083911    546.01563  0.032687717  0.032639989            3 
 1393000    1.0380253   -6.8403856      545.424  0.032628859  0.032632521            3 
 1394000    1.0253905   -6.7900634    546.79893  0.032687645  0.032625128            2 
 1395000    1.0566887   -6.8021579     545.8577  0.032607987  0.032617629            4 
 1396000    1.0213395   -6.8492364    546.15595  0.032602433  0.032610008            4 
 1397000    1.0374231   -6.8137636      547.917  0.032684144   0.03260239           10 
 1398000    1.0485022   -6.8257961    547.26717   0.03262203  0.032594785            2 
 1399000    1.0223763   -6.8071157    548.19065   0.03265372  0.032587103            3 
 1400000     1.028165   -6.8232887    548.53688  0.032651005  0.032579643            3 
 1401000    1.0433765   -6.8271557    547.49794  0.032565902  0.032572111            2 
 1402000    1.0463908   -6.7997566    547.72487  0.032556162  0.032564676            2 
 1403000    1.0360398   -6.8411852    548.78285  0.032595797  0.032557123            5 
 1404000    1.0440681   -6.8614694    546.66051  0.032446612  0.032549467            2 
 1405000    1.0215754   -6.8339995    548.35787  0.032524192   0.03254186            6 
 1406000    1.0250197   -6.7917399    549.69028  0.032580031  0.032534336            2 
 1407000    1.0227804   -6.8421494    548.91694  0.032511072  0.032526873            2 
 1408000    1.0105612    -6.836188    549.35968  0.032514186  0.032519251            3 
 1409000    1.0382575    -6.773801    552.41653  0.032671903  0.032511794            1 
 1410000    1.0347346   -6.8363027    549.80609   0.03249445  0.032504318            3 
 1411000    1.0425974   -6.7890301    551.75034  0.032586247  0.032496921            4 
 1412000    1.0225511   -6.7906323    552.04807  0.032580741  0.032489664            2 
 1413000    1.0498916   -6.8260724    552.33786  0.032574773  0.032482477            7 
 1414000    1.0208014   -6.8065501    552.12757  0.032539343  0.032475226            2 
 1415000    1.0229496   -6.7761288    554.62109  0.032663197  0.032468048            2 
 1416000    1.0271855   -6.8823276    550.91332  0.032421923  0.032460801            2 
 1417000    1.0171789   -6.8340171    553.26279  0.032537214   0.03245333            5 
 1418000    1.0416654   -6.8408072    551.70941  0.032422979  0.032446039            2 
 1419000   0.99892487   -6.8100897    555.01534  0.032594276  0.032438748            3 
 1420000    1.0204993   -6.7778128    553.63472  0.032490301  0.032431551            2 
 1421000    1.0499355   -6.8165836    553.53036  0.032461316  0.032424311            2 
 1422000    1.0062679   -6.8344425    553.72482  0.032449884  0.032417319            3 
 1423000    1.0208043   -6.8138975    555.05051  0.032504715   0.03241029            3 
 1424000    1.0354985   -6.7943465    556.28049  0.032553868  0.032403133            3 
 1425000    1.0289945   -6.7910039    557.51737  0.032603355  0.032396002            4 
 1426000    1.0243889   -6.8142448    555.61631  0.032469396   0.03238887            2 
 1427000    1.0247954   -6.7925878    557.51615  0.032557588  0.032381677            4 
 1428000    1.0192776   -6.8177895    556.28056  0.032462685  0.032374551            3 
 1429000    1.0227024   -6.8365487    556.96605  0.032479942   0.03236732            5 
 1430000    1.0256272   -6.8395935    556.31228  0.032419131   0.03235998            6 
 1431000    1.0205757   -6.8365103    556.45177  0.032404599  0.032352689            2 
 1432000    1.0114341   -6.8228525    557.37009   0.03243541  0.032345443            2 
 1433000    1.0187995   -6.8570198    558.43142  0.032474495  0.032338328            4 
 1434000    1.0283328   -6.8242727    559.42483  0.032509579   0.03233118            3 
 1435000     1.039171   -6.8396622     558.7295  0.032446545  0.032324045            3 
 1436000      1.03746    -6.791626    558.58363  0.032415484  0.032316894            1 
 1437000    1.0228002   -6.8170927    559.43453  0.032442272  0.032309756            1 
 1438000    1.0447774   -6.8577346     557.7565  0.032322467  0.032302442            6 
 1439000    1.0130742   -6.8241704    559.97766  0.032428634  0.032295188            3 
 1440000    1.0248374   -6.8108765    558.58226  0.032325362  0.032288008            2 
 1441000   0.99544131   -6.8165244    560.21739   0.03239749  0.032280789            4 
 1442000    1.0329867   -6.8254696    560.65517  0.032400322  0.032273632            2 
 1443000    1.0326112   -6.8302579    560.00113  0.032340098  0.032266477            5 
 1444000     1.014538   -6.8117344     560.7163  0.032358974   0.03225933            3 
 1445000      1.02681   -6.8351306    561.34051  0.032372578  0.032252145            3 
 1446000   0.99868376   -6.8247637    560.22986  0.032286184  0.032244898            3 
 1447000    1.0274029   -6.8204018    560.80418  0.032296946  0.032237727            4 
 1448000    1.0161162   -6.8765448    561.53365  0.032316623  0.032230522            5 
 1449000    1.0475749   -6.8704682    560.90156  0.032257968  0.032223193            2 
 1450000    1.0226946   -6.8314973    561.89654  0.032292905   0.03221582            4 
 1451000    1.0155881   -6.8277673    562.00634  0.032276955  0.032208564            2 
 1452000    1.0064374    -6.857127     561.2502  0.032211329  0.032201411            2 
 1453000    1.0100455   -6.7979381    563.07602  0.032293876  0.032194211            4 
 1454000    1.0255295   -6.8282751    563.34875  0.032287297  0.032187044            3 
 1455000    1.0228358   -6.8311154    564.23982  0.032316141  0.032179907            6 
 1456000    1.0032501   -6.8003721    563.55947  0.032255006  0.032172726            3 
 1457000    1.0163715   -6.8506187    564.69929  0.032298061  0.032165737            4 
 1458000     1.004669   -6.8080369    566.18926  0.032361069  0.032158751            7 
 1459000    1.0071289   -6.8283633     566.1626  0.032337366  0.032151889            4 
 1460000    1.0269554   -6.8296275    565.89445  0.032299911  0.032144887            1 
 1461000    1.0008949   -6.8589593    563.98559  0.032168925   0.03213782            3 
 1462000    1.0102661   -6.8233797    566.82255  0.032308627  0.032130659            2 
 1463000    1.0537392   -6.8001879    567.38786  0.032318744  0.032123595            3 
 1464000    1.0268117   -6.8232003    567.16318  0.032283879  0.032116585            4 
 1465000    1.0039584   -6.8212779    566.16861  0.032205268  0.032109519            4 
 1466000    1.0398668   -6.8388831     566.6436    0.0322103  0.032102475            3 
 1467000    1.0224089   -6.8144002    568.75444  0.032308251  0.032095416            3 
 1468000    1.0159721   -6.8630243    567.05756  0.032189916  0.032088095            6 
 1469000    1.0139776   -6.8630013    566.62652  0.032143551  0.032080772            2 
 1470000    1.0152907   -6.8668417    568.05374  0.032202593  0.032073461           10 
 1471000    1.0094923   -6.8264642    567.46646  0.032147432  0.032066199            4 
 1472000    1.0056035    -6.847053    567.57576   0.03213178  0.032059043            3 
 1473000    1.0259978   -6.8511254    568.55905  0.032165595  0.032051858            2 
 1474000    1.0214032   -6.8467665    569.23776  0.032182144  0.032044534            3 
 1475000     1.015781   -6.8045003    569.73887  0.032188637  0.032037455            2 
 1476000    1.0000617   -6.8037409     569.0806  0.032129663  0.032030401            2 
 1477000    1.0072341   -6.8184249    569.93361  0.032156038  0.032023426            1 
 1478000    1.0294263   -6.8224605    570.53259  0.032168053  0.032016346            4 
 1479000    1.0086934   -6.8434434     569.7607  0.032102812  0.032009196            4 
 1480000    1.0194914   -6.7976569    571.16165  0.032160003  0.032002123            4 
 1481000    1.0063238    -6.810951    571.56368  0.032160909  0.031995102            2 
 1482000    1.0235839     -6.83796    571.48131  0.032134577   0.03198812            5 
 1483000    1.0219163   -6.8435754    569.36017  0.031993716  0.031980984            5 
 1484000    1.0123175   -6.8661941     568.6508  0.031932322  0.031973687            4 
 1485000    1.0273232   -6.8238498    570.87375  0.032035564  0.031966337            5 
 1486000    1.0286998   -6.8805272    571.25636  0.032035462    0.0319592            5 
 1487000     1.001235   -6.8406969    570.68793  0.031982063  0.031952022            3 
 1488000    1.0184676   -6.8183475    573.74097  0.032131551  0.031945043            2 
 1489000    1.0216065   -6.8308204     573.1469  0.032076724  0.031938114            2 
 1490000     1.012939   -6.8510164    573.39184  0.032068895  0.031931171            2 
 1491000    1.0256165   -6.8424633    572.88443  0.032019027   0.03192411            5 
 1492000    1.0342979   -6.8257705    573.35133  0.032023644  0.031917086            3 
 1493000    1.0036026     -6.83039    574.14071  0.032046255  0.031910095            4 
 1494000    1.0048709   -6.8514717    575.32935  0.032091106  0.031902992            2 
 1495000     1.002448   -6.8112766    574.50088   0.03202346  0.031896013            3 
 1496000    0.9951824   -6.8306629     575.3448  0.032049064  0.031889149            3 
 1497000    1.0110376   -6.8575517    574.53122  0.031982366  0.031882283            3 
 1498000    1.0121077   -6.8860374     575.3574  0.032006976  0.031875286            3 
 1499000    1.0107959   -6.8778361     574.8991  0.031960146   0.03186843            3 
 1500000     1.009064   -6.8593559    577.25516  0.032069731  0.031861655            2 
 1501000   0.99592709   -6.9037334    575.34713  0.031942434  0.031854671            3 
 1502000    1.0030919   -6.8850347    576.09218  0.031962504  0.031847608            2 
 1503000     1.010871    -6.874332     576.3913  0.031957823  0.031840609            2 
 1504000    1.0143972   -6.8306749    577.29039  0.031986391  0.031833791            3 
 1505000    1.0227492   -6.8190205    578.90205  0.032054377  0.031827023            5 
 1506000    1.0153558   -6.8274874    579.46008  0.032063971  0.031820244            2 
 1507000    1.0027188   -6.8372743    578.14371  0.031969902   0.03181339           10 
 1508000   0.98720946   -6.8314119    578.61638  0.031974822  0.031806571            2 
 1509000    1.0115763   -6.8605521    579.64869  0.032010641  0.031799773            2 
 1510000    1.0069256   -6.8334527    580.65718  0.032045098  0.031792997            7 
 1511000    1.0293491   -6.8581545    579.94746  0.031984749  0.031786233            3 
 1512000    1.0208189    -6.837059     580.5972  0.031999405   0.03177948            3 
 1513000     1.008739   -6.8599993     579.2833  0.031905888  0.031772741            3 
 1514000    1.0141735   -6.8789409    580.17784  0.031934051  0.031765987            3 
 1515000    1.0280592   -6.8411357    581.99032  0.032012669  0.031759377            2 
 1516000   0.99888411   -6.8627093    582.05713  0.031995225  0.031752629            2 
 1517000    1.0107135   -6.8628429    581.01886  0.031917099  0.031745986            5 
 1518000    1.0005298   -6.8219254    583.37561  0.032025451  0.031739426            3 
 1519000    1.0045988   -6.8337935    580.98135  0.031873017  0.031732761            4 
 1520000    1.0167131    -6.866814    582.44789   0.03193245  0.031726212            4 
 1521000    1.0173894   -6.8922381    580.86311  0.031824628  0.031719533            4 
 1522000    1.0045808   -6.8650786    584.01666  0.031976383  0.031712787            2 
 1523000   0.99342645   -6.8360154    584.49402  0.031981507  0.031706125            4 
 1524000    1.0167088   -6.8777606    583.50158  0.031906255  0.031699528            3 
 1525000   0.99760684   -6.8477157    586.20147  0.032032867  0.031692878            7 
 1526000    1.0301865   -6.8266974    586.12137  0.032007501  0.031686341            4 
 1527000    1.0162761   -6.8713912    586.40101  0.032001801  0.031679829            3 
 1528000   0.99257528   -6.8191531    584.44177  0.031874006  0.031673378            4 
 1529000    1.0068444   -6.8031596    586.94383  0.031989526   0.03166675            3 
 1530000    1.0126126   -6.8637941      585.174  0.031872222  0.031660169            4 
 1531000    1.0165764    -6.853475    585.85897  0.031888688  0.031653391            2 
 1532000   0.98671641   -6.8269287    585.27071  0.031835874  0.031646625            5 
 1533000    1.0113278   -6.8863805     585.7267  0.031839894   0.03163971            2 
 1534000     1.018984   -6.8646207    585.16262  0.031788495  0.031633034            2 
 1535000    1.0267011   -6.8511611    584.87103  0.031751956  0.031626302            4 
 1536000    1.0032624   -6.8311108    587.46344  0.031871931  0.031619692            2 
 1537000     1.001835   -6.8537753    586.03088  0.031773524  0.031613039            5 
 1538000    1.0001906   -6.8152282     587.2448  0.031818639  0.031606359            5 
 1539000    1.0120894    -6.825725     589.1391  0.031900536  0.031599706            2 
 1540000   0.99441571   -6.8581426    585.90533  0.031704834  0.031593048            2 
 1541000    1.0109786   -6.8389867    587.51318  0.031771208  0.031586348            3 
 1542000    1.0314332   -6.8605523    589.64154  0.031865626  0.031579771            1 
 1543000   0.99312762   -6.8445139    588.54388  0.031785692  0.031573142            3 
 1544000   0.98348572   -6.8640464    589.56305  0.031820113  0.031566547            4 
 1545000    1.0187556   -6.8644022    589.03223  0.031770886  0.031559892            5 
 1546000    1.0338379   -6.8675667    590.29174  0.031818227  0.031553377            3 
 1547000    1.0097209   -6.8415496    591.81804  0.031879877  0.031546947            4 
 1548000   0.98623224   -6.8519208    591.85631  0.031861343  0.031540641            8 
 1549000   0.99913198   -6.8472333    590.77247  0.031782466  0.031534312            4 
 1550000    1.0104644   -6.8682538    588.97206  0.031665165  0.031527809            5 
 1551000   0.98049008   -6.8658819    590.38043  0.031720419  0.031521215            3 
 1552000    1.0024483   -6.8524884    592.13701  0.031794298   0.03151464            3 
 1553000   0.99103058    -6.840605    592.00478   0.03176673  0.031508049            2 
 1554000    1.0078538   -6.8255115    592.58152  0.031777216  0.031501569            4 
 1555000   0.99856859    -6.874815    592.09415  0.031730662  0.031494906            5 
 1556000    1.0163161   -6.8598662    592.73443   0.03174456  0.031488349            6 
 1557000   0.99744349   -6.8607315    593.85844  0.031784331  0.031481724            2 
 1558000   0.99425832   -6.8726001    592.22417  0.031676517  0.031475186            3 
 1559000   0.99200239   -6.8372294    594.65846  0.031786319  0.031468679            4 
 1560000    1.0089377   -6.8642173    594.18014  0.031740392  0.031462176            4 
 1561000    1.0075764    -6.856947    593.62622  0.031690488  0.031455588            3 
 1562000    1.0131598   -6.8511154    596.30934  0.031813345  0.031449162            3 
 1563000   0.99174214   -6.8840342    592.41211  0.031585205  0.031442652            4 
 1564000    1.0060782   -6.8567676    593.32533  0.031613668  0.031436116            3 
 1565000   0.97507367   -6.8518039    594.91129  0.031677917  0.031429629            4 
 1566000   0.98693796   -6.9000358    595.24236  0.031675307  0.031423156            6 
 1567000    1.0040173   -6.8656405    595.04636  0.031644669  0.031416599            3 
 1568000    1.0021474    -6.879304    596.29296   0.03169074  0.031410126            3 
 1569000    1.0043767   -6.8378916    596.87067  0.031701225  0.031403658            7 
 1570000    1.0223989   -6.8449085    596.46544  0.031659524  0.031397269            2 
 1571000    1.0287821   -6.9031797    597.33628  0.031685565  0.031390804            2 
 1572000   0.99498434   -6.8697641    597.11568  0.031653715   0.03138427            4 
 1573000      1.00901   -6.8725252    596.87871  0.031621038  0.031377784            2 
 1574000   0.99153817   -6.8696502    598.16038  0.031668804  0.031371392            5 
 1575000   0.98200306   -6.8643642    597.78067  0.031628607  0.031365055            4 
 1576000    1.0073573   -6.8213441     599.8644  0.031718718   0.03135867            1 
 1577000   0.98631864   -6.8606414     597.7853  0.031588739  0.031352184            5 
 1578000    0.9752658   -6.8711641    599.45159  0.031656717  0.031345588            4 
 1579000   0.98470657   -6.8675486    599.00316  0.031613002  0.031339089            3 
 1580000   0.98290858   -6.8531473    599.52038  0.031620273  0.031332757            2 
 1581000   0.97951373   -6.8987345    599.80862  0.031615466  0.031326396            3 
 1582000   0.99827561     -6.91657    598.76512  0.031540514  0.031320006            4 
 1583000   0.98104597    -6.878398     599.7757  0.031573789  0.031313605            3 
 1584000    1.0101703   -6.9035865    600.15048  0.031573573  0.031307332            2 
 1585000   0.98064763    -6.870509     601.4468  0.031621809   0.03130116            2 
 1586000   0.99253889   -6.8806728     601.8466  0.031622877  0.031294896            3 
 1587000    0.9933426   -6.8635743    600.87371  0.031551865  0.031288745            4 
 1588000     0.984634   -6.8808216    601.36179  0.031557609  0.031282472            4 
 1589000    1.0157428   -6.8627961    602.26616  0.031585177  0.031276205            1 
 1590000   0.98674603   -6.8948383    602.43863  0.031574352  0.031269841            6 
 1591000    1.0061477   -6.8724354    604.33651  0.031653913  0.031263443            4 
 1592000    1.0221167   -6.8764564    602.21032  0.031522734  0.031257048            3 
 1593000    1.0147881    -6.916206    601.91347  0.031487418  0.031250669            3 
 1594000   0.98678457   -6.8723552    604.21313  0.031587889  0.031244316            4 
 1595000    1.0118602   -6.8429707    604.25454  0.031570247  0.031237981            4 
 1596000    1.0025425    -6.891769    602.22033  0.031444253  0.031231475            6 
 1597000   0.98382765   -6.8577436     604.4183  0.031539256  0.031224989            3 
 1598000    1.0067664   -6.8559475    603.39272  0.031466037  0.031218676            2 
 1599000    1.0012941   -6.8968836     604.5032  0.031504232  0.031212228            2 
 1600000   0.97978078   -6.8902629    604.81098  0.031500572  0.031205753            3 
 1601000   0.97229606   -6.8686446    604.21747  0.031450004   0.03119936            3 
 1602000   0.99309977   -6.8846383    605.94885  0.031520435  0.031192957            2 
 1603000    1.0008681   -6.8919914    603.89796  0.031394154  0.031186535            4 
 1604000    1.0073285    -6.894139    607.83866  0.031579315  0.031180145            4 
 1605000   0.98540628   -6.8583453    606.32443  0.031481019  0.031173849            3 
 1606000   0.97989159   -6.8685936    607.31574  0.031512855  0.031167556            4 
 1607000   0.98173781   -6.8866937    605.88385  0.031418992  0.031161219            3 
 1608000     1.006644   -6.8863974    606.65268  0.031439297  0.031154844            3 
 1609000    1.0007461   -6.8662064    607.15107   0.03144557  0.031148547            3 
 1610000    0.9813881   -6.8875767    607.44751  0.031441383  0.031142258            6 
 1611000   0.99846938   -6.8756424    607.49877  0.031424518  0.031135879            3 
 1612000   0.97965796   -6.8857082    607.99942  0.031430905  0.031129398            4 
 1613000    1.0345079   -6.8951694    607.99966  0.031411431  0.031123008            8 
 1614000    1.0041324     -6.86974    607.47901  0.031365087  0.031116738            2 
 1615000   0.98168035   -6.9170585    608.38059  0.031392188  0.031110424            3 
 1616000   0.98935571   -6.8924919    609.39645  0.031425147  0.031104121            9 
 1617000   0.98320493   -6.8976072    608.15623  0.031341797   0.03109771            4 
 1618000   0.98069286   -6.9089368    608.78071  0.031354589  0.031091287            2 
 1619000   0.99628669   -6.8976006    609.86003  0.031390778  0.031084762            4 
 1620000   0.99435196    -6.868375    610.29833  0.031393947  0.031078337            2 
 1621000   0.97983298   -6.8799221    608.16134   0.03126472  0.031071821            2 
 1622000    0.9825776   -6.8836375    608.06254  0.031240369  0.031065224            2 
 1623000   0.98641729   -6.8724987    608.77794  0.031257853  0.031058643            5 
 1624000    1.0049515   -6.8962313    609.50449  0.031275887  0.031052154            5 
 1625000    0.9907443   -6.8918683    609.66819  0.031265035  0.031045524            3 
 1626000   0.97674928   -6.8804996    609.38522  0.031231305  0.031038936            3 
 1627000   0.97616766   -6.9029993    609.60502  0.031223367  0.031032265            2 
 1628000    1.0159709   -6.8892664    610.38592   0.03124416  0.031025638            2 
 1629000   0.97355983   -6.8992836    610.45275  0.031228399  0.031018977            4 
 1630000   0.97116278   -6.8955211    609.97627  0.031184881   0.03101227            5 
 1631000   0.98986739    -6.898852    610.62415  0.031198863  0.031005505            2 
 1632000   0.98138517   -6.9147535    611.68674  0.031234004  0.030998807            2 
 1633000   0.98807648   -6.9150161    609.93499  0.031125484  0.030992082            2 
 1634000   0.98825322   -6.8800985    612.37543  0.031230897  0.030985349            2 
 1635000   0.98835288    -6.840308    611.86221  0.031185638  0.030978817            4 
 1636000   0.97879623    -6.905812      612.505  0.031199317  0.030972169            4 
 1637000     1.002203   -6.8952919    611.06457  0.031106932  0.030965369            2 
 1638000   0.98113726   -6.9273519    610.47445  0.031057919   0.03095858            5 
 1639000   0.96873381   -6.8451351    614.03086  0.031219792  0.030951751            5 
 1640000   0.99604578   -6.8419831    613.22958   0.03116004  0.030944995            3 
 1641000    0.9939724   -6.8887552    611.53532  0.031055013  0.030938123            2 
 1642000   0.99305521   -6.9061148    613.85178  0.031153663  0.030931331            3 
 1643000   0.99142461   -6.8868744    615.64493  0.031225651  0.030924554            4 
 1644000   0.99512512   -6.8754394    615.05316  0.031176661  0.030917862            3 
 1645000   0.99079633   -6.8920513    614.38025  0.031123619  0.030911204            2 
 1646000   0.99319251   -6.8610492    616.86659  0.031230589  0.030904521            7 
 1647000    1.0074878   -6.8935533    615.48563  0.031141754  0.030897889            4 
 1648000    1.0154917   -6.8994418    615.41373  0.031119222  0.030891312            2 
 1649000   0.99972605    -6.908817    616.83325  0.031172087  0.030884819            5 
 1650000   0.98243949   -6.9206168    616.09448  0.031115883  0.030878305            2 
 1651000   0.98511079   -6.8743273    616.20657  0.031102694  0.030871852            2 
 1652000   0.98096288   -6.9235983    615.40913  0.031043641  0.030865249            6 
 1653000    0.9797308   -6.8843774    617.70475   0.03114059  0.030858702            6 
 1654000   0.98581133   -6.8536666    616.75213  0.031073767  0.030852145            7 
 1655000   0.96570985   -6.8994993    617.46799  0.031091036  0.030845615            3 
 1656000   0.97857417   -6.8898671    616.68784  0.031033003  0.030839074            4 
 1657000    0.9935858   -6.9266282    616.19643  0.030989561   0.03083254            6 
 1658000   0.97950261   -6.8358049    618.10606  0.031066851  0.030826101            2 
 1659000   0.98853126   -6.9064561    618.36765  0.031061264  0.030819694            4 
 1660000      0.98164   -6.8963233     619.8723  0.031118087  0.030813295            4 
 1661000   0.97978855   -6.8663189    621.12006  0.031161954  0.030806892            2 
 1662000   0.97406687   -6.8697094    620.17118  0.031095627  0.030800552            5 
 1663000    0.9848948   -6.8891715    619.80842   0.03105875  0.030794118            3 
 1664000   0.97078849   -6.8975796    620.17564  0.031058476  0.030787675            3 
 1665000   0.98057181   -6.9060641     619.7855  0.031020295  0.030781311            3 
 1666000   0.96376761   -6.8782325    621.40627  0.031082746  0.030775001            4 
 1667000   0.97666635    -6.914863    620.19838  0.031003718  0.030768553            7 
 1668000   0.99827637   -6.8849004    620.57768  0.031004081  0.030762111            8 
 1669000    1.0074593   -6.9020432    621.19237  0.031016196  0.030755574            3 
 1670000   0.97178461   -6.8643934    620.68833  0.030972472  0.030749108            4 
 1671000    1.0048255   -6.8920557    620.74165  0.030956595  0.030742636            6 
 1672000    1.0032941   -6.9055731    622.59692  0.031030548  0.030736197            3 
 1673000   0.96746055   -6.8945198    624.28294  0.031095982  0.030729739            9 
 1674000   0.98762949     -6.91086    621.50737  0.030939236  0.030723171            4 
 1675000   0.96540571   -6.8799006    622.26969  0.030958691  0.030716648            3 
 1676000   0.97967671   -6.8789915    621.33011  0.030893502  0.030710164            5 
 1677000     1.000382   -6.9469083    621.59973  0.030888478  0.030703519            3 
 1678000   0.98338137   -6.9061077    623.15265  0.030947192   0.03069686            6 
 1679000   0.97165684   -6.8981956    624.06355   0.03097397   0.03069023            4 
 1680000   0.97875831    -6.915921     623.6109   0.03093308  0.030683725            2 
 1681000   0.98824746    -6.906571    623.01381  0.030885079  0.030677181            5 
 1682000   0.97642774   -6.8927577    623.99092  0.030915127  0.030670672            4 
 1683000   0.99117066   -6.8888574    623.77141  0.030885889  0.030664153            2 
 1684000   0.97725098   -6.9026471    622.93837  0.030826325  0.030657565            2 
 1685000   0.97708328   -6.8977438    624.29013  0.030874883  0.030650954            5 
 1686000   0.98351449   -6.9171477    624.81001  0.030882266  0.030644293            2 
 1687000   0.98072869   -6.8851305    625.47891  0.030897002  0.030637752            2 
 1688000   0.96513753   -6.9312174    625.10945  0.030860459  0.030631182            4 
 1689000   0.97547432   -6.8944761    626.62376  0.030916901  0.030624685            4 
 1690000   0.99954481    -6.902252    626.66492  0.030900637  0.030618212            5 
 1691000   0.97502612   -6.9126296    626.42163  0.030870374   0.03061168            1 
 1692000   0.96407504   -6.8988693     627.7968  0.030919858  0.030605279            3 
 1693000   0.98307631   -6.9082584    626.17248  0.030821642  0.030598724            5 
 1694000   0.95975935    -6.869262    626.12814  0.030801266  0.030592217            4 
 1695000   0.97944603   -6.9179971    624.95806  0.030725568  0.030585641            3 
 1696000   0.98965162   -6.8914126    626.06971  0.030762073  0.030579071            2 
 1697000   0.95076679    -6.924251    626.60932  0.030770444  0.030572362            2 
 1698000   0.98439225   -6.9038677    628.42514  0.030841438  0.030565693            2 
 1699000   0.97973128    -6.878458    627.46814  0.030776346  0.030559194            2 
 1700000   0.96456361   -6.9175545    629.57845  0.030861688  0.030552702            2 
 1701000   0.98601896   -6.9079649    626.78227  0.030706558  0.030546035            1 
 1702000   0.98439328   -6.8957288    629.55674   0.03082436  0.030539547            2 
 1703000   0.98001717   -6.9481596     626.5081  0.030657081  0.030532956            3 
 1704000   0.98438324   -6.9263409    627.56415  0.030690735  0.030526298            2 
 1705000    1.0007075   -6.9098588     629.3898  0.030761965  0.030519625            2 
 1706000    1.0014458   -6.9051109    627.82162  0.030667332  0.030512988            2 
 1707000   0.98108832   -6.9604605    628.22248  0.030668936  0.030506325            7 
 1708000   0.98793967   -6.8949843    629.77038  0.030726502  0.030499683            4 
 1709000   0.97492983   -6.9335566    628.66271  0.030654511  0.030493005            3 
 1710000    1.0013568   -6.8764013    630.93727   0.03074743   0.03048634            4 
 1711000   0.97607923   -6.9628416    628.69316  0.030620162  0.030479587            2 
 1712000   0.96169946   -6.9427676    628.62216   0.03059882  0.030472784            2 
 1713000   0.97618428   -6.9097934    630.60816  0.030677571  0.030465951            3 
 1714000   0.98520165   -6.9063706    629.02893  0.030582893  0.030459164            4 
 1715000   0.97213622   -6.9068552    630.67941  0.030645258    0.0304524            4 
 1716000   0.96639358   -6.9010901    630.65362  0.030626147  0.030445664            3 
 1717000   0.97720683    -6.921894    629.66135  0.030560151  0.030438972            7 
 1718000    1.0102428   -6.9057777    630.73582  0.030594481  0.030432095            3 
 1719000   0.97162364   -6.9296074    630.87418   0.03058339  0.030425209            3 
 1720000   0.99102773   -6.9286037    630.09228  0.030527727   0.03041836            8 
 1721000    0.9691772   -6.9278447    631.26982  0.030567007  0.030411519            2 
 1722000   0.95166743   -6.9357395    632.33719  0.030600909  0.030404553            5 
 1723000   0.98461672   -6.9135579    630.58974  0.030498633  0.030397518            2 
 1724000    0.9737782   -6.9207641    631.35109  0.030517744   0.03039052            4 
 1725000   0.99070496   -6.9421598    631.44267  0.030504477   0.03038357            6 
 1726000   0.97368162   -6.9185412    630.99308  0.030465097  0.030376492            3 
 1727000   0.96706881   -6.9223771    633.64978  0.030575651  0.030369557            5 
 1728000   0.98642098   -6.9100315    634.06891  0.030578169  0.030362657            5 
 1729000   0.98621269   -6.8975764    632.76834  0.030497799  0.030355765            5 
 1730000   0.96747401   -6.9501562    630.70249   0.03038066  0.030348744            3 
 1731000   0.98799611   -6.9421875    632.11921  0.030431312   0.03034182            2 
 1732000   0.97785416   -6.9330093    633.64698  0.030487249  0.030334799            3 
 1733000      0.95851   -6.9247696    633.52472  0.030463778  0.030327751            5 
 1734000    0.9722868   -6.9652782    632.20981  0.030383016  0.030320634            6 
 1735000   0.97882701   -6.9465098    632.98426  0.030402702  0.030313595            2 
 1736000   0.98813214   -6.9198797    635.58759  0.030510157  0.030306578            2 
 1737000   0.97317887   -6.9413893    634.76579  0.030453166  0.030299588            2 
 1738000   0.96939899   -6.9615754    633.66997  0.030383102  0.030292471            2 
 1739000   0.98712276   -6.9352226    635.15101  0.030436602   0.03028549            2 
 1740000    0.9775999   -6.9337117    634.55615   0.03039062  0.030278456            4 
 1741000   0.96900858   -6.9020452    635.65376  0.030425702  0.030271423            3 
 1742000   0.98739119   -6.9106775    634.25463  0.030341305  0.030264422            3 
 1743000   0.96130365   -6.9145292    635.09221  0.030363942  0.030257525            5 
 1744000    0.9964301   -6.9222923    635.64579  0.030372983   0.03025054            3 
 1745000   0.98988956   -6.9389523    636.06751  0.030375717  0.030243439            4 
 1746000   0.96067489   -6.9578852    635.75684  0.030343492  0.030236434            5 
 1747000   0.97725313    -6.920312    636.30849  0.030352437  0.030229426            4 
 1748000   0.95151505   -6.9106976    637.57645  0.030395521  0.030222466            5 
 1749000   0.98240656   -6.9022658    637.20077  0.030360243  0.030215419            5 
 1750000    0.9826957   -6.9205103    636.89639    0.0303284  0.030208523            2 
 1751000   0.95650018   -6.9151132    637.44636  0.030337253  0.030201636            2 
 1752000   0.97931241   -6.9196703    637.72641  0.030333258  0.030194717            2 
 1753000   0.97812025    -6.932835    638.59949  0.030357458  0.030187775            4 
 1754000    0.9649116   -6.9052352    637.95854  0.030309699  0.030180861            2 
 1755000   0.98514287   -6.8940562    640.25004  0.030401236  0.030174079            1 
 1756000   0.96647179   -6.9098016    638.37382  0.030294885  0.030167323            5 
 1757000   0.98107794    -6.903806    638.48561  0.030282945  0.030160457            4 
 1758000   0.96263222   -6.9268263    641.55112  0.030411032   0.03015365            6 
 1759000   0.95398906   -6.9412521     639.8174  0.030311607  0.030146868            4 
 1760000   0.95902956   -6.9455359    639.03131  0.030257164  0.030140075            2 
 1761000   0.96675633   -6.9316154      639.039  0.030240346  0.030133193            6 
 1762000   0.96592532    -6.935331    638.97348  0.030220085  0.030126226            4 
 1763000   0.97436969   -6.9235845    642.00234  0.030346112  0.030119379            3 
 1764000    0.9696973   -6.8880967     639.7241  0.030221282  0.030112557            6 
 1765000   0.95831062   -6.8903061    640.67996   0.03024929  0.030105734            4 
 1766000   0.98261763   -6.9760204    641.14374  0.030254046  0.030098823            2 
 1767000   0.99196547   -6.9312564    641.83052  0.030269313  0.030091837            6 
 1768000   0.97779014   -6.9475923    640.94259  0.030210341  0.030084843            3 
 1769000   0.98079425    -6.910861    640.40532  0.030167954  0.030077814            1 
 1770000   0.98661627    -6.908798    643.31443  0.030287873  0.030070923            2 
 1771000   0.94834169   -6.9328687    641.01441  0.030162545  0.030063952            2 
 1772000   0.96603871   -6.9298053     640.4817  0.030120471  0.030056947            8 
 1773000   0.96491059   -6.9352922    640.19285  0.030089906  0.030049942            5 
 1774000   0.95874486   -6.9558512     641.9645  0.030156168  0.030042812            5 
 1775000   0.97284198   -6.9407725    641.68517  0.030126064   0.03003577           10 
 1776000   0.96790236   -6.9246473    641.66982  0.030108381  0.030028614            9 
 1777000   0.94519532   -6.9076308    642.16707  0.030114757  0.030021495            5 
 1778000   0.94961759   -6.9472503    641.78324  0.030079829  0.030014431            3 
 1779000   0.96938599   -6.9421394    642.30898  0.030087548  0.030007321            4 
 1780000   0.98464458    -6.918247    640.67958  0.029994363  0.030000165            2 
 1781000    0.9607199    -6.942779    642.28607  0.030052689  0.029993098            7 
 1782000   0.96001496    -6.944252    641.96997  0.030021042  0.029985994            4 
 1783000   0.97700326   -6.9165357    641.80152  0.029996332  0.029978822            5 
 1784000   0.98142997   -6.9340136    644.34184   0.03009818  0.029971602            6 
 1785000   0.95215962   -6.9681585    640.32449  0.029893767  0.029964384            2 
 1786000   0.96692425   -6.9498718    641.94333  0.029952563  0.029957035            3 
 1787000    0.9547005   -6.9637861    645.38287  0.030096198  0.029949732            6 
 1788000   0.95812317   -6.9366935    642.48475  0.029944293  0.029942546            3 
 1789000   0.95846739   -6.9312189    643.02663  0.029952796  0.029935357            4 
 1790000   0.95856589   -6.9412986    644.09333  0.029985723  0.029928176            6 
 1791000   0.95080512     -6.94078    644.53504  0.029989533  0.029921036            2 
 1792000   0.96898177   -6.9389453     643.4143   0.02992068   0.02991392            3 
 1793000   0.95648954   -6.9376116    645.01564  0.029978418  0.029906806            4 
 1794000   0.97182217   -6.9194068    645.26396  0.029973242   0.02989974            2 
 1795000   0.96555975   -6.9589768    645.10713  0.029949263  0.029892581            2 
 1796000    0.9636298   -6.9387886    646.72561  0.030007684  0.029885375            3 
 1797000   0.97057105   -6.9543184    642.66118  0.029802503  0.029878131            6 
 1798000    0.9572658   -6.9316971    646.35538  0.029957146  0.029871006            1 
 1799000   0.94646041   -6.9313402    643.82487  0.029823276  0.029863697            6 
 1800000   0.95904971   -6.9433994     645.8584  0.029900852  0.029856445            3 
 1801000   0.95536267    -6.942245    645.49397  0.029867387  0.029849138            6 
 1802000   0.98327571   -6.9626069    644.89534  0.029823129  0.029841882            9 
 1803000   0.96606098   -6.9472637    645.52923  0.029835886  0.029834437            4 
 1804000   0.97399043   -6.9342772    646.79266   0.02987771  0.029827194            2 
 1805000   0.95823854   -6.9608772    644.77251  0.029767891  0.029819835            2 
 1806000   0.96469297   -6.9937055    644.85243  0.029755095  0.029812342            3 
 1807000   0.95124865   -6.9446449    646.42793  0.029811286  0.029804881            9 
 1808000   0.99054072   -6.9588728      644.857  0.029722391  0.029797535            2 
 1809000   0.99401651   -6.9338242    646.45865  0.029779742  0.029790063            5 
 1810000   0.97919748   -6.9048813    646.27294  0.029754739  0.029782737            4 
 1811000   0.96079661   -6.9350172     646.8081  0.029762935  0.029775365            3 
 1812000   0.97464427   -6.9374576    646.30702  0.029723465  0.029767953            2 
 1813000   0.96681472   -6.9499808     647.9932  0.029784574  0.029760471            6 
 1814000   0.93756903   -6.9271358    647.44275  0.029742868  0.029752949            3 
 1815000   0.98952986   -6.9552713    646.19381  0.029669137   0.02974552            3 
 1816000   0.94340248   -6.9494601    648.09912  0.029740231    0.0297381            5 
 1817000   0.96536763   -6.9404885    647.47938   0.02969544   0.02973062            4 
 1818000   0.95665326   -6.9364745     648.1371  0.029709255  0.029723071            3 
 1819000   0.96798763   -6.9674883    646.34762  0.029610941  0.029715611            3 
 1820000   0.97023412   -6.9418357     647.5508  0.029649762  0.029708117            3 
 1821000   0.97316662   -6.9292765    647.52965  0.029632512    0.0297006            3 
 1822000   0.94424122   -6.9455241    648.93593  0.029680568  0.029693138            6 
 1823000   0.94589307   -6.9713079    647.97479  0.029620351  0.029685662            7 
 1824000   0.96939682   -6.9664474    646.50062  0.029536761  0.029678188            4 
 1825000   0.97675188   -6.9725225    647.51118   0.02956672   0.02967067            2 
 1826000   0.95753727   -6.9279703     647.8178  0.029564522  0.029663137            2 
 1827000   0.96450726   -6.9360413     648.8195  0.029594029  0.029655496            6 
 1828000   0.95426815   -6.9601001    646.00603  0.029449582  0.029647951            4 
 1829000   0.97331462   -6.9653085    649.16161  0.029577256  0.029640289            4 
 1830000   0.96083414   -6.9637024    648.41352  0.029527027  0.029632739            6 
 1831000   0.96339586   -6.9631618    647.46662  0.029467805  0.029625055            6 
 1832000   0.94294452   -6.9604336     648.8325  0.029513851  0.029617312            2 
 1833000   0.95057086    -6.964347    649.37643  0.029522478  0.029609643            3 
 1834000   0.95991539   -6.9374763    650.25427  0.029546268  0.029602051            3 
 1835000   0.93222667   -6.9762624    649.92737  0.029515321  0.029594455            8 
 1836000   0.96056559   -6.9504479    651.21346  0.029557619  0.029586901            2 
 1837000   0.96427651   -6.9457322     652.6123  0.029604985  0.029579387            2 
 1838000   0.95657092   -6.9262182      650.024  0.029471527  0.029571915            5 
 1839000   0.97766159   -6.9853228    650.57838  0.029480623  0.029564257            4 
 1840000     0.954309   -6.9433841    649.99213  0.029438049  0.029556654            4 
 1841000   0.93783776   -6.9784193    651.46116  0.029488555  0.029548992            4 
 1842000   0.94823351   -6.9602863    651.16517  0.029459155   0.02954134            2 
 1843000   0.95321059   -7.0029765    651.64466  0.029464852  0.029533671            9 
 1844000   0.95303381   -6.9896961    649.95515  0.029372521  0.029526058            6 
 1845000   0.98542999   -6.9645591    652.11553  0.029454179   0.02951845            3 
 1846000   0.94654346   -6.9619822    651.50568  0.029410693  0.029510894            2 
 1847000   0.95279255   -6.9367821    652.66283  0.029446979  0.029503263            5 
 1848000   0.93186197   -6.9441073    652.72275  0.029433746  0.029495666            6 
 1849000   0.95714102   -6.9622844    653.45325   0.02945075  0.029488022            3 
 1850000    0.9344668   -6.9613826    654.22462  0.029469578  0.029480537            4 
 1851000   0.95498775   -6.9748319    651.40317  0.029326633  0.029472927            2 
 1852000   0.94562784   -6.9610558    653.27302  0.029394934  0.029465353            3 
 1853000   0.94513207   -6.9424152     654.0644  0.029414661  0.029457636            2 
 1854000   0.95329836   -6.9980435    653.78247  0.029386123  0.029450023            3 
 1855000   0.95298332   -6.9495375    655.14832  0.029431641   0.02944248            6 
 1856000   0.95473885   -6.9467466    654.07607   0.02936764  0.029434926            2 
 1857000   0.94312004   -6.9592348    653.06161  0.029306301    0.0294273            9 
 1858000   0.95852868   -6.9724618    653.37843  0.029304738  0.029419631            4 
 1859000    0.9441005    -6.977251    654.58821  0.029343204  0.029412042           10 
 1860000   0.95708008    -6.966812     655.5426  0.029370188  0.029404436            2 
 1861000   0.94649858   -6.9549809    654.46959  0.029306358   0.02939678            4 
 1862000   0.97083728    -6.962643    656.38821  0.029376486  0.029389182            6 
 1863000   0.95005839   -6.9775178    656.37192  0.029359989  0.029381585            6 
 1864000   0.94120342   -6.9684938    654.20202  0.029247229    0.0293739            6 
 1865000   0.93918347   -6.9418192    656.78129  0.029346796  0.029366299            7 
 1866000     0.955882   -6.9611553     656.4002  0.029314049  0.029358788            2 
 1867000   0.95448149    -6.953943    657.32955   0.02933983  0.029351211            4 
 1868000   0.96781785   -6.9295604    656.79209  0.029300147  0.029343624            2 
 1869000   0.94190733   -6.9467927    657.61337  0.029321088  0.029336153            4 
 1870000    0.9682961   -6.9545596    656.08752  0.029237412  0.029328621            7 
 1871000    0.9419552   -6.9927238     657.4041  0.029280425  0.029321013            2 
 1872000   0.95846538   -6.9471273    658.17472  0.029299088    0.0293134            4 
 1873000   0.94585975    -6.984503    657.95917  0.029273855  0.029305776            4 
 1874000   0.94902524    -6.970211     657.2469  0.029226561  0.029298192            2 
 1875000   0.94860071   -6.9533775    656.46203   0.02917609  0.029290493            2 
 1876000   0.95638544   -6.9870306    656.24393   0.02915085  0.029282798            4 
 1877000   0.92834795   -6.9596836    656.21956  0.029134237  0.029275083            3 
 1878000   0.94694415   -6.9493859    659.43639  0.029261465  0.029267391            4 
 1879000   0.94786907   -6.9557549    657.72641  0.029170055  0.029259801            3 
 1880000   0.93886924   -6.9808578    658.84702  0.029204212  0.029252096            3 
 1881000   0.97087463   -6.9476675    656.35843  0.029078435  0.029244338            2 
 1882000   0.94943553   -7.0057135    657.35145  0.029106954  0.029236565            3 
 1883000   0.95542595   -6.9698967    656.81636  0.029067816  0.029228807            2 
 1884000   0.95719795     -6.97393    657.35368  0.029076154  0.029220956            2 
 1885000    0.9473233   -6.9695494    656.93129  0.029042055  0.029213071            2 
 1886000   0.95586576   -6.9662855    655.82501  0.028977775  0.029205204            1 
 1887000     0.972777    -6.975419    658.57059  0.029083669  0.029197317            5 
 1888000   0.94660683   -6.9639615    656.86552  0.028993005   0.02918947            4 
 1889000   0.93902893   -6.9881111    660.00159  0.029116004  0.029181719            4 
 1890000   0.95400636   -6.9636065    659.25984  0.029067894  0.029174025            8 
 1891000   0.95496666   -6.9877888    658.59807  0.029023359  0.029166292            2 
 1892000   0.93345692   -6.9504036    660.54844  0.029093924  0.029158509            3 
 1893000   0.93666777   -6.9722918    659.39673  0.029027854  0.029150869            3 
 1894000   0.97303723   -6.9967215    660.27796  0.029051301  0.029143211            2 
 1895000   0.96692323   -6.9765658    662.68919  0.029142005  0.029135582            2 
 1896000   0.95479005   -6.9779303     661.7291  0.029084437  0.029128006            5 
 1897000   0.95368827   -6.9917858     661.5012  0.029059093  0.029120495            3 
 1898000   0.94175738    -7.002753    661.42835  0.029040585  0.029112911            3 
 1899000   0.94410777   -7.0009084    661.99554  0.029050182  0.029105315            2 
 1900000   0.94286772   -6.9578495    663.25594  0.029090173  0.029097827            5 
 1901000    0.9645505   -6.9857776    660.61423  0.028959067  0.029090236            2 
 1902000   0.93299332   -6.9612842    662.23712  0.029014946  0.029082734            2 
 1903000   0.93692144   -6.9618313    663.37055  0.029049332  0.029075261            2 
 1904000   0.95479144   -7.0130876    663.12416  0.029023291  0.029067738            9 
 1905000   0.95899072   -6.9856336    665.09021   0.02909406  0.029060206            8 
 1906000   0.94862104   -6.9801276    664.45081   0.02905084  0.029052648            5 
 1907000   0.96061094   -6.9649647    663.22422  0.028982006  0.029045043            9 
 1908000   0.94041194   -7.0111159    662.67179  0.028942688   0.02903747            4 
 1909000   0.93098732   -6.9694089    664.93267  0.029026221  0.029029931            2 
 1910000   0.93600597   -6.9708997    663.71624  0.028957951  0.029022424            3 
 1911000   0.92964104   -6.9596273    665.09452  0.029002901  0.029014923            3 
 1912000   0.95197509   -6.9915377    664.45793  0.028959986  0.029007431            2 
 1913000   0.95571964   -6.9780423    665.16612  0.028975698   0.02900002            7 
 1914000   0.94792518   -7.0061245    663.05543  0.028868662  0.028992593            3 
 1915000    0.9314077   -6.9628617    667.50143   0.02904706  0.028985168            3 
 1916000   0.94634641   -6.9880144     666.2051  0.028975518   0.02897775            6 
 1917000   0.96997425   -6.9810669    665.28024  0.028920198   0.02897023            5 
 1918000   0.93576367   -6.9323374    669.62477  0.029093881  0.028962854            5 
 1919000   0.94991287   -6.9426898    667.99596  0.029007989   0.02895551            4 
 1920000   0.95137454   -6.9727901    669.38545  0.029053188  0.028948157            3 
 1921000   0.95011261   -6.9785051    668.35339  0.028993293   0.02894088            3 
 1922000   0.94851805   -6.9689742    668.91725  0.029002656   0.02893351            4 
 1923000   0.94885151   -6.9660054    667.57892  0.028929577  0.028926105            3 
 1924000   0.95938008   -6.9522708    669.88826  0.029014564  0.028918877            4 
 1925000   0.95551482   -6.9800793    669.03325  0.028962479  0.028911546            2 
 1926000   0.94376914   -7.0074076    667.69985  0.028889748  0.028904227            3 
 1927000   0.96833233   -7.0002453    668.08309  0.028891329  0.028896878            1 
 1928000   0.94172919   -6.9440528    669.37009  0.028931971  0.028889468            2 
 1929000    0.9463698   -6.9923455    669.47927  0.028921689  0.028882088            2 
 1930000   0.94763024   -7.0048956    668.01294  0.028843391   0.02887465            4 
 1931000   0.91044485    -6.982794    667.69178  0.028814594  0.028867056            3 
 1932000   0.95656497   -6.9983194    669.30403  0.028869221  0.028859494            2 
 1933000   0.95629036   -6.9476845    667.72609   0.02878626  0.028851962            4 
 1934000   0.94751055    -6.980023    667.32225  0.028753975  0.028844329            8 
 1935000   0.91781878   -6.9855615    669.13668  0.028817256  0.028836672            3 
 1936000   0.94569902   -6.9646156    667.82743  0.028746015  0.028829031            3 
 1937000   0.93013636   -6.9908275    668.43011  0.028757103  0.028821323            4 
 1938000   0.94205242   -6.9850992    667.62927  0.028707829  0.028813594            4 
 1939000   0.96883351   -6.9602741     668.7418  0.028740837  0.028806008            3 
 1940000   0.93659504   -7.0161346    669.35977  0.028752567  0.028798427            2 
 1941000   0.96158941   -6.9847392    668.56566  0.028703661  0.028790824            4 
 1942000   0.94696027   -6.9648427    669.61425  0.028733876  0.028783236            2 
 1943000   0.94917137   -6.9799218    670.47683  0.028756083  0.028775728            8 
 1944000   0.93973404    -6.993231    669.72993  0.028709273  0.028768129            2 
 1945000   0.94499103   -6.9937815    671.53862  0.028772006  0.028760556            6 
 1946000   0.93836236   -6.9957515    670.05275  0.028693591  0.028752994            5 
 1947000   0.95800384   -6.9773841    670.18015  0.028684307  0.028745417            4 
 1948000   0.94971376   -6.9806529    671.53942   0.02872773  0.028737877            2 
 1949000   0.95598371   -7.0140198    667.58563  0.028543939  0.028730209            5 
 1950000   0.93684774   -7.0079046    669.50081  0.028611146   0.02872246            2 
 1951000   0.94419713    -6.982064     669.4046  0.028592372  0.028714701            3 
 1952000    0.9603183   -6.9676624    669.12051  0.028565595   0.02870701            6 
 1953000     0.932196   -7.0004115    669.62343  0.028572428  0.028699316            3 
 1954000    0.9254441   -7.0031024    669.43367  0.028549713  0.028691602            3 
 1955000   0.95882122   -7.0062967    669.24141  0.028526914   0.02868392            4 
 1956000   0.94639179   -7.0201083    672.23871  0.028640027  0.028676282            4 
 1957000   0.92927473   -6.9928819    672.69558  0.028644847  0.028668609            3 
 1958000   0.94095759   -6.9839609    671.30824  0.028571171  0.028661032            6 
 1959000   0.94640258   -6.9598572    673.68381   0.02865764  0.028653479            6 
 1960000   0.93000752   -6.9929904    671.71422  0.028559278  0.028645956            5 
 1961000   0.94418028   -6.9904176    673.63419  0.028626304  0.028638367            3 
 1962000   0.93914484   -7.0178316    672.86619  0.028579094  0.028630736            7 
 1963000   0.96001493   -7.0234025    672.78448  0.028561066  0.028623142            1 
 1964000   0.93731698   -6.9983608    673.03613  0.028557202  0.028615517            3 
 1965000   0.96040947   -7.0160466    672.93209  0.028538257  0.028607829            4 
 1966000   0.92833325   -6.9994692    673.28873  0.028538858  0.028600119            4 
 1967000    0.9349061   -7.0035187    671.91919  0.028466327  0.028592467            6 
 1968000   0.94521737   -7.0169171    670.94164  0.028410469  0.028584739            3 
 1969000   0.95253389   -6.9877603    672.32264  0.028454488   0.02857696            3 
 1970000   0.94640457   -6.9843195    673.92459  0.028507808  0.028569194            4 
 1971000   0.95187452   -7.0031284    674.52472  0.028518718  0.028561492            4 
 1972000   0.95997958   -7.0023295    673.69227  0.028469078  0.028553849            4 
 1973000   0.93121844   -6.9848594    674.64302  0.028494806  0.028546204            3 
 1974000   0.95205351   -6.9935786    675.17536  0.028502844  0.028538602            3 
 1975000   0.94023084   -7.0058649    675.09329  0.028484949  0.028531008            3 
 1976000   0.95625325   -6.9986144    674.24706  0.028434846   0.02852345            4 
 1977000   0.96142656   -6.9961089    675.79993  0.028485918   0.02851586            4 
 1978000    0.9517357   -7.0336932    676.64758  0.028507229  0.028508274            4 
 1979000   0.92569755   -6.9923437    673.55932  0.028362781  0.028500586            3 
 1980000   0.93509051   -6.9482344    674.86167  0.028403269  0.028492991            4 
 1981000   0.91197664   -6.9882526    674.76765  0.028384976  0.028485365            4 
 1982000   0.96457875   -7.0060305    675.40033  0.028397256  0.028477693            4 
 1983000   0.90797002   -6.9926514     674.7062  0.028353765  0.028469976            4 
 1984000   0.92447715   -6.9919632    676.19928  0.028402188  0.028462286            7 
 1985000   0.94734001   -7.0052996    677.00331  0.028421633  0.028454612            5 
 1986000   0.93957121   -6.9929748    675.49701  0.028344118  0.028446929            7 
 1987000    0.9246568   -6.9640048    675.99862   0.02835089  0.028439171            3 
 1988000   0.91404531    -6.993896    673.60943  0.028236478  0.028431364            3 
 1989000   0.92671515   -6.9801291    677.34758    0.0283789  0.028423581            2 
 1990000   0.92848807   -7.0171304    676.22693  0.028317711  0.028415893            6 
 1991000   0.91376235   -7.0192413    675.47596  0.028272056  0.028408143            4 
 1992000   0.93263163   -7.0093591    677.19749  0.028329882  0.028400463            7 
 1993000   0.93672564    -7.034887    674.96376  0.028222268    0.0283927            4 
 1994000   0.91429582   -7.0130551    676.18327   0.02825908  0.028384921            5 
 1995000   0.93092404   -6.9946806    677.13527  0.028284681  0.028377289            4 
 1996000   0.91660619   -7.0104249     676.5556  0.028246309  0.028369686            9 
 1997000   0.90417131   -7.0247414    677.79612  0.028283931  0.028361986            4 
 1998000   0.91455838   -6.9723604     677.5675   0.02826024  0.028354239            4 
 1999000   0.93574537   -6.9871626    676.77991  0.028213269  0.028346596            6 
 2000000   0.92820006   -6.9979485     677.3811  0.028224212  0.028338984            4 
 2001000   0.94031362   -7.0202509     677.8983  0.028231647  0.028331348            4 
 2002000   0.92521637   -6.9853604    680.47323  0.028324727  0.028323735            7 
 2003000   0.94601305   -7.0049422    679.19826  0.028257541  0.028316105            4 
 2004000   0.94305971   -6.9829187    678.67807  0.028221809  0.028308537            4 
 2005000   0.96336945   -7.0245408    680.24113  0.028272699  0.028300977            3 
 2006000   0.89954627   -7.0387737    677.22087  0.028133137  0.028293319            4 
 2007000   0.93242011   -7.0106868    679.03262  0.028194345  0.028285637            2 
 2008000   0.92486023   -6.9843761    681.51773  0.028283439  0.028278003            3 
 2009000   0.94247664   -6.9862015     681.2911  0.028259959  0.028270381            4 
 2010000   0.91916017   -7.0053278    679.88119  0.028187446  0.028262748            3 
 2011000   0.92471451   -7.0012963    678.02325  0.028096438  0.028255057            6 
 2012000   0.94513919   -7.0027558    680.70616  0.028193595  0.028247365            3 
 2013000   0.94461694   -7.0527116    680.94073    0.0281893  0.028239739            4 
 2014000   0.93065901   -7.0303391    680.73391  0.028166746  0.028232049            2 
 2015000   0.93365891   -7.0225059    680.56513  0.028145787  0.028224405            5 
 2016000   0.92240964   -7.0633347    679.03421  0.028068544  0.028216694            4 
 2017000   0.94472945   -7.0384723    679.80726  0.028086567   0.02820899            2 
 2018000   0.93550155   -7.0276816    681.27359  0.028133201  0.028201242            1 
 2019000   0.94380456    -6.991858    682.68209  0.028177402  0.028193567            2 
 2020000   0.94354405   -7.0142001    682.38121   0.02815104  0.028185894            4 
 2021000   0.93013415    -7.043778    681.27097  0.028091331  0.028178192            5 
 2022000   0.94641687   -6.9963739    681.88029  0.028102551  0.028170522            5 
 2023000    0.9220856   -6.9939049    681.08316  0.028055823  0.028162913            2 
 2024000   0.93019414   -7.0172881    681.38332   0.02805432  0.028155296            3 
 2025000   0.93418549   -7.0539818    681.02926  0.028025895  0.028147493            2 
 2026000   0.93716901   -7.0203933    682.18597   0.02805964  0.028139681            5 
 2027000   0.92926824    -7.008171    682.79192  0.028070709  0.028132091            3 
 2028000   0.93355188   -6.9859434    684.27509  0.028117813  0.028124539            3 
 2029000   0.90903449   -7.0193936    685.74689  0.028164403  0.028116935            4 
 2030000   0.92452464    -7.032952    681.99842  0.027996651  0.028109295            4 
 2031000    0.9346581   -7.0483347    680.63743  0.027927024  0.028101674            3 
 2032000   0.94172234   -6.9958365    683.67093  0.028037686  0.028093972            5 
 2033000   0.92954103   -6.9801277    686.02632  0.028120443  0.028086357            3 
 2034000   0.91714276   -6.9990166    683.12886  0.027987908  0.028078748            4 
 2035000   0.93082329   -7.0208792    681.06062   0.02788946  0.028071095            3 
 2036000   0.92989305   -7.0149249    684.23908  0.028005856  0.028063392           19 
 2037000   0.93952153   -7.0423373     683.1643  0.027948139  0.028055783            4 
 2038000   0.90745147   -6.9823692    684.88537  0.028004799  0.028048104            3 
 2039000   0.92553198   -6.9792003    684.50245  0.027975415  0.028040381            3 
 2040000   0.92086284   -7.0160463    684.87752  0.027977023  0.028032661            5 
 2041000   0.91622765    -7.037036    682.26776   0.02785676  0.028024882            3 
 2042000   0.90623701    -7.020687    684.32102  0.027926911  0.028017046            5 
 2043000   0.94715374   -7.0261921     685.5001  0.027961335  0.028009362            5 
 2044000    0.9316833    -7.038331    684.39426  0.027902571  0.028001658            4 
 2045000   0.92006819   -7.0219518    685.80767  0.027946523  0.027993963            3 
 2046000    0.9293212   -7.0259148    686.11788  0.027945499  0.027986276            6 
 2047000   0.93794932   -7.0184825     685.4248  0.027903631  0.027978687            9 
 2048000   0.89652528   -7.0258957    685.26463  0.027883489  0.027971109            2 
 2049000   0.92031084   -7.0526363    686.68534  0.027927661  0.027963436            2 
 2050000   0.91566696   -6.9959162    686.94213  0.027924477  0.027955866            5 
 2051000   0.92828351   -7.0116932    687.09955  0.027917258  0.027948376            5 
 2052000   0.92679992    -7.012793    688.51427  0.027961106  0.027940853            4 
 2053000    0.9217323   -7.0166302    685.53932   0.02782673  0.027933362            5 
 2054000   0.92611027   -7.0311383     689.5589  0.027976262  0.027925865            4 
 2055000   0.92970637   -6.9863802    688.54952  0.027921716  0.027918367            3 
 2056000   0.89792105   -7.0015118    689.56475  0.027949285  0.027910902            3 
 2057000   0.93378797   -7.0193243    688.37994  0.027887698  0.027903485           10 
 2058000   0.91834366   -7.0500471    689.79044  0.027931262  0.027896041            3 
 2059000   0.92277091   -7.0433935    688.37242  0.027860305  0.027888544            5 
 2060000    0.9201841   -7.0704432     686.7611  0.027781598  0.027881003            4 
 2061000   0.92053442   -7.0236043    690.18341  0.027906494  0.027873593            3 
 2062000   0.93682421   -7.0155813     689.4224  0.027862205  0.027866142            6 
 2063000   0.91636159   -7.0110435    689.81708  0.027864642  0.027858673            2 
 2064000    0.9158165   -7.0421937    689.15856  0.027824554  0.027851233            4 
 2065000   0.94252794   -7.0228653     688.4995  0.027784483  0.027843747            3 
 2066000    0.9089257   -7.0256663    690.55616  0.027853992  0.027836257            3 
 2067000   0.92260274   -7.0156911     690.3917  0.027833885    0.0278288            5 
 2068000   0.89911228   -7.0170465    692.01516  0.027885846  0.027821474            4 
 2069000   0.92277525   -7.0433802    691.93848   0.02786928  0.027814191            3 
 2070000   0.93398577   -7.0234009    690.91532  0.027814626  0.027806839            6 
 2071000   0.92224313   -7.0193216     691.2314  0.027813914  0.027799427            2 
 2072000   0.91695842   -7.0480389    692.12392  0.027836387  0.027792054            2 
 2073000   0.92550691   -7.0308485    691.84724  0.027811836  0.027784595            7 
 2074000   0.93476604   -7.0662966    690.88519  0.027759771  0.027777131            4 
 2075000    0.8943034   -7.0395351    692.17394   0.02779815  0.027769736            2 
 2076000   0.91218111   -7.0463706    691.30741  0.027749976   0.02776239            4 
 2077000   0.92518969     -7.03018    691.45829  0.027742669  0.027755029            9 
 2078000   0.92414288   -7.0222141    692.30893  0.027763432  0.027747661            2 
 2079000   0.91476423   -7.0256844    693.75237  0.027807935  0.027740309            2 
 2080000   0.90931991   -7.0157054    691.37528   0.02769933  0.027732955            5 
 2081000   0.93389449   -7.0376327    691.71362  0.027699568  0.027725546            6 
 2082000     0.902636   -7.0013657    692.16072   0.02770416  0.027718186            8 
 2083000   0.93406454   -7.0290077    692.02106  0.027685272  0.027710907            2 
 2084000    0.9009889   -7.0397995    692.39774   0.02768705  0.027703497            2 
 2085000    0.9207683    -7.051237    692.18647  0.027665326  0.027696136            4 
 2086000   0.92459915   -7.0194779    693.88804   0.02772004  0.027688751            5 
 2087000   0.91163457   -7.0206056    695.11678  0.027755821  0.027681386            3 
 2088000   0.92549197   -7.0581547    692.85288  0.027652174  0.027674064            8 
 2089000    0.9174174   -7.0507823     694.5167   0.02770531   0.02766662            5 
 2090000   0.92143128   -7.0517715    692.97727  0.027630673   0.02765924           10 
 2091000   0.90413704   -7.0458194    693.57344  0.027641218  0.027651781            4 
 2092000   0.90442479   -7.0382545    693.69479  0.027632839  0.027644292            4 
 2093000   0.91286281   -7.0556311    693.13098  0.027597188  0.027636833            4 
 2094000   0.91281757   -7.0489642     695.7733  0.027689163  0.027629404            5 
 2095000   0.92449031   -7.0174032    696.56091  0.027707276  0.027621992            3 
 2096000   0.91935665   -7.0675419    692.48838   0.02753214  0.027614571            6 
 2097000   0.92319387   -7.0440154    695.10351  0.027622934  0.027607087            2 
 2098000   0.91269913   -7.0228004    694.98042  0.027604878  0.027599581            5 
 2099000   0.90668892   -7.0434703    693.56669    0.0275356  0.027592102            4 
 2100000   0.91965103   -7.0457242    695.35345  0.027593391  0.027584604            6 
 2101000   0.92200949   -7.0115287    697.95371  0.027683393  0.027577162            6 
 2102000   0.92622527   -7.0155721    694.92785  0.027550264  0.027569748            5 
 2103000   0.92983984   -7.0432196    694.93449  0.027537426  0.027562272            3 
 2104000   0.91596004   -7.0240716    695.15203  0.027532954  0.027554786            2 
 2105000   0.90628836   -7.0484046    697.72085   0.02762157  0.027547317            3 
 2106000   0.92193896   -7.0339609    696.81276  0.027572521  0.027539851            3 
 2107000   0.91502084   -7.0001072    695.45155  0.027505598  0.027532404            3 
 2108000   0.91217688   -7.0519408    696.28947  0.027525675  0.027525001            4 
 2109000   0.91770919   -7.0522959    696.47781  0.027520065  0.027517537            4 
 2110000   0.91333157   -7.0587693    696.30757  0.027500299  0.027510051            2 
 2111000   0.91310234   -7.0563499    697.43926  0.027531946   0.02750259            4 
 2112000   0.91244208   -7.0558048    697.50266  0.027521412  0.027495149            4 
 2113000   0.92219689   -7.0484525    696.36798  0.027463637  0.027487705            5 
 2114000   0.90654348   -7.0493216    697.70525  0.027503361  0.027480229            3 
 2115000   0.91822858   -7.0567755    697.23075  0.027471661  0.027472737            5 
 2116000   0.91754854   -7.0504575     696.8168  0.027442376  0.027465246            2 
 2117000   0.92992798   -7.0465819    697.89137  0.027471712  0.027457752            4 
 2118000   0.90079932   -7.0442614    697.21601  0.027432169  0.027450279            2 
 2119000   0.90894287   -7.0767508    695.57319  0.027354617  0.027442778            3 
 2120000   0.91651874   -7.0526351    696.24273  0.027368032  0.027435229            4 
 2121000   0.92854288   -7.0441506     697.8475  0.027418179  0.027427686            2 
 2122000   0.94318224   -7.0722293    696.78603  0.027363573  0.027420122            7 
 2123000   0.92543607   -7.0562991    696.86961  0.027353965  0.027412567            5 
 2124000   0.91482777   -7.0166094    697.81645  0.027378235  0.027405014            3 
 2125000   0.91471937   -7.0406715    698.54614  0.027393966  0.027397505            2 
 2126000   0.92167476   -7.0269658    699.39827  0.027414482  0.027390029            4 
 2127000   0.92743368   -7.0768205    698.09378  0.027350485  0.027382485            4 
 2128000    0.8914675   -7.0674559    697.11881  0.027299452   0.02737487            6 
 2129000   0.91017442   -7.0684348    698.31377  0.027333403  0.027367283            4 
 2130000   0.89819617   -7.0452177    698.64193  0.027333409  0.027359729            4 
 2131000   0.91182465   -7.0362096    698.34927  0.027309138  0.027352171            4 
 2132000     0.931169   -7.0615892    697.81796  0.027275561  0.027344584            6 
 2133000   0.91117917   -7.0851805    698.93158  0.027306281  0.027337048            3 
 2134000   0.90452666   -7.0636166    697.57346  0.027240451  0.027329457            3 
 2135000   0.91862257   -7.0455102    698.10701  0.027248517  0.027321887            5 
 2136000   0.90799846   -7.0746297    697.16617  0.027199055  0.027314236           10 
 2137000   0.90192611   -7.0392311    698.07789   0.02722188  0.027306738            6 
 2138000   0.91390588   -7.0590842    700.43615  0.027301066  0.027299279            3 
 2139000   0.91731574    -7.019691    700.38664  0.027286374  0.027291761            4 
 2140000   0.91201139   -7.0286618     699.6504  0.027244953  0.027284257            9 
 2141000   0.89718897   -7.0390777    698.91918  0.027203767  0.027276791            1 
 2142000   0.90337131   -7.0773935     699.0108  0.027194631  0.027269277            3 
 2143000   0.92846433   -7.0679489    699.71002  0.027209131  0.027261685            5 
 2144000   0.89626762   -7.0594455    702.05875  0.027287731  0.027254185            7 
 2145000   0.89468903   -7.0622129    701.02792  0.027234962  0.027246599            2 
 2146000   0.91169726   -7.0418682    701.83612  0.027253655  0.027239108            4 
 2147000   0.91413574   -7.0474339    702.42363  0.027263764  0.027231591            3 
 2148000   0.88082257   -7.0459222    700.96858  0.027194622  0.027224087            7 
 2149000   0.91762904   -7.0401688    702.58797  0.027244764  0.027216609            3 
 2150000   0.90728722   -7.0440919    701.88766  0.027204948  0.027209192            7 
 2151000   0.90713195   -7.0496584    702.80757  0.027227939  0.027201743            3 
 2152000   0.92126152   -7.0619127     701.4376  0.027162237  0.027194252            4 
 2153000   0.90058187   -7.0622513    701.02566  0.027133676  0.027186795            3 
 2154000   0.90291172   -7.0536686    703.37319    0.0272119  0.027179263            4 
 2155000   0.91579797   -7.0202185    702.00232  0.027146261   0.02717182            3 
 2156000   0.90710495   -7.0599637    702.93323  0.027169652  0.027164343            3 
 2157000   0.89338626   -7.0960849    701.04193  0.027083987  0.027156841            4 
 2158000   0.90689272   -7.0507004    703.57164  0.027169124  0.027149396            5 
 2159000   0.91096907   -7.0738251    703.69964  0.027161481  0.027142027            7 
 2160000   0.92347154   -7.0722478    703.09945  0.027125751  0.027134572            5 
 2161000   0.92118396   -7.0641791    703.11515  0.027113803   0.02712706            2 
 2162000   0.91002841   -7.0564236    702.80185  0.027089186  0.027119561            7 
 2163000   0.91258005   -7.0587501    705.36543  0.027175429  0.027112155            4 
 2164000   0.91691683   -7.0495382    704.24979  0.027119909  0.027104795            6 
 2165000    0.8994967   -7.0579519    705.01393  0.027136795  0.027097427            7 
 2166000   0.89320817   -7.0549174    703.76034  0.027076036  0.027089939            2 
 2167000   0.90906294   -7.0819888    705.94539  0.027147569  0.027082515            7 
 2168000   0.90416161   -7.0475194    704.40413  0.027075804  0.027075109            5 
 2169000   0.91272241   -7.0593363    706.09716  0.027128368  0.027067722            2 
 2170000   0.91718987   -7.0685514    704.92483  0.027070846  0.027060323           12 
 2171000   0.91600856   -7.0366962    705.07442  0.027064119   0.02705288            4 
 2172000   0.90242059   -7.0943646     704.9366   0.02704637  0.027045379            3 
 2173000   0.91439714   -7.0602013    703.48788  0.026978366  0.027037885            3 
 2174000   0.88545991   -7.0417539    705.70685  0.027051014  0.027030417            8 
 2175000   0.89387705   -7.0488042    705.35682  0.027025165  0.027022953            4 
 2176000   0.90214786   -7.1005363    705.78162  0.027029014  0.027015431            2 
 2177000   0.90406156   -7.0333272    706.21592  0.027033223  0.027007942            2 
 2178000   0.89094746   -7.0627559    705.67336  0.027000052  0.027000485            3 
 2179000    0.9181777   -7.0520389    704.70597  0.026950664  0.026992969            8 
 2180000   0.91048513   -7.0819698    704.94661    0.0269475  0.026985441            3 
 2181000   0.89638069   -7.0511678    705.47789  0.026955444  0.026977913            3 
 2182000   0.90516083    -7.078628    704.65696  0.026911738  0.026970323            3 
 2183000   0.91636429   -7.0638015     706.0314  0.026951878  0.026962747            4 
 2184000   0.91196063   -7.0952338     706.1619  0.026944517  0.026955179            5 
 2185000   0.90302894   -7.0592891    706.78057  0.026955781  0.026947676            3 
 2186000   0.88956876   -7.0734246    704.86986  0.026870611  0.026940168            7 
 2187000   0.90967845   -7.0808702    705.39641  0.026878388  0.026932585            6 
 2188000   0.89723777   -7.1248257    706.97433  0.026926201  0.026924999            4 
 2189000   0.89091032   -7.0732679    706.89991  0.026911067  0.026917448            3 
 2190000   0.91828939   -7.0447887    706.71169  0.026891617  0.026909967            3 
 2191000   0.87984669   -7.0882861    707.30858  0.026902045  0.026902475            5 
 2192000   0.89385758   -7.0726496     706.6715  0.026865553  0.026895025            6 
 2193000   0.88805383    -7.083971    707.74846  0.026894226  0.026887527            5 
 2194000   0.90835186   -7.0664985    706.33069  0.026828118  0.026880058            3 
 2195000   0.89701134   -7.0439956    709.03874  0.026918707  0.026872602            6 
 2196000   0.92826999   -7.0519603    709.65596  0.026929871  0.026865169            6 
 2197000   0.89184047   -7.0972976     708.4995  0.026873748  0.026857745            3 
 2198000   0.90348134   -7.0320862    706.88915  0.026800468  0.026850283            4 
 2199000   0.90181429   -7.0553283    710.04718  0.026907957  0.026842838            4 
 2200000    0.9104746   -7.0863565    709.66953  0.026881422  0.026835488            4 
 2201000   0.89306021   -7.0594381      709.623  0.026867446  0.026828068            5 
 2202000   0.90159304   -7.0544033    709.63431  0.026855673  0.026820612            6 
 2203000   0.91594348   -7.0834494    708.95884  0.026817932  0.026813144            4 
 2204000   0.88617419   -7.0861382    707.58625  0.026753866  0.026805628            3 
 2205000   0.88820713   -7.1166086    708.40241  0.026772578  0.026798064            8 
 2206000   0.89679016   -7.0897786    709.67539  0.026808529  0.026790658            4 
 2207000   0.89655897    -7.068561    712.13262  0.026889164  0.026783211            5 
 2208000   0.90658487    -7.065954    710.38693  0.026811101  0.026775835            3 
 2209000   0.91223563   -7.1072799    708.90582  0.026743089  0.026768391            4 
 2210000   0.89465857   -7.0547104    710.89722  0.026806079  0.026760916           11 
 2211000   0.89578643   -7.0711295    709.70495  0.026749018  0.026753564            4 
 2212000   0.90318034   -7.0558998    711.20165  0.026793311   0.02674614            7 
 2213000   0.90562226   -7.0652197    710.48915  0.026754374  0.026738782            3 
 2214000   0.87281622   -7.0671377    710.60055  0.026746482  0.026731411            4 
 2215000     0.885808   -7.0766848    709.63508  0.026698084  0.026723948            2 
 2216000   0.91178125   -7.0875972    711.51037  0.026756557  0.026716541            7 
 2217000   0.90991735    -7.094556    711.02973  0.026726422   0.02670914            5 
 2218000   0.90301982   -7.0963644    711.70588  0.026739776  0.026701737            3 
 2219000   0.89425246   -7.0915945    712.08487  0.026741958  0.026694292            4 
 2220000   0.88310207   -7.0883148    712.74349  0.026754636  0.026686938            4 
 2221000   0.90181438   -7.1260415    710.33218  0.026652115  0.026679521            3 
 2222000   0.90533729   -7.0561373    711.74843  0.026693236    0.0266721            4 
 2223000   0.87752877    -7.044385    713.47302  0.026745877   0.02666472            4 
 2224000   0.91549182   -7.0923956    711.11606  0.026645536  0.026657367            4 
 2225000   0.88895022    -7.042727    713.30957  0.026715714  0.026650043            5 
 2226000   0.89214582   -7.0859199    712.96775  0.026690916  0.026642655            4 
 2227000   0.89131388   -7.0964686    711.38645  0.026619759  0.026635196            5 
 2228000   0.89129247   -7.0898265    711.96731  0.026629537  0.026627761            4 
 2229000    0.9119336   -7.0743496    713.58588  0.026678102  0.026620381            9 
 2230000   0.90837328   -7.0659813    713.66313  0.026669026   0.02661306            4 
 2231000   0.87896417   -7.0803704    713.65858  0.026656902  0.026605708            4 
 2232000   0.87992815   -7.0809109    714.09709  0.026661331  0.026598336            2 
 2233000   0.88977391   -7.1008548    712.89964  0.026604704  0.026590967            3 
 2234000   0.89566285   -7.0993067      712.523  0.026578745  0.026583609            3 
 2235000   0.89228533   -7.1356649    711.39555  0.026524815  0.026576221            5 
 2236000   0.88732994   -7.1054289    712.86806  0.026567832   0.02656878            6 
 2237000   0.89404819   -7.0877747    713.79432   0.02659046   0.02656142            5 
 2238000   0.89435152   -7.1008414    714.07952  0.026589199  0.026554058            2 
 2239000    0.9069484   -7.0784066    713.78448  0.026566342  0.026546745            8 
 2240000   0.89713587   -7.0650879    715.76643  0.026628215  0.026539476            3 
 2241000   0.90109845   -7.0835315    715.38977  0.026602327  0.026532231            3 
 2242000   0.88290835   -7.0578019    714.78397  0.026567944  0.026524981           26 
 2243000    0.8926414   -7.0825214    715.35173  0.026577193  0.026517758            5 
 2244000   0.87699106   -7.1013583     715.0636  0.026554649  0.026510515            2 
 2245000   0.90003794   -7.0678386    715.29843  0.026551538  0.026503233            4 
 2246000   0.88231288   -7.0949201    716.48172   0.02658362  0.026495964            4 
 2247000   0.90839489   -7.0967729    717.22977  0.026599532   0.02648874            7 
 2248000    0.8911617   -7.0812862    716.82047  0.026572526  0.026481462            3 
 2249000   0.87717844   -7.0904497    718.06882  0.026606967  0.026474227            4 
 2250000   0.88932899   -7.1281822    716.09539  0.026522051  0.026466976            7 
 2251000   0.87641518   -7.0935468    717.85694  0.026575483  0.026459745            5 
 2252000   0.90273057    -7.085209    717.08889  0.026535261  0.026452466           15 
 2253000   0.90729712   -7.1224158    716.47651  0.026500833  0.026445178            4 
 2254000   0.90423463   -7.0890406    719.05252  0.026584314  0.026437943            2 
 2255000   0.87568707   -7.0724812    716.74933  0.026487411  0.026430694            1 
 2256000   0.89833152   -7.0744269    719.50307  0.026577389  0.026423419            7 
 2257000   0.88709485   -7.1147966     717.3846  0.026487395  0.026416185            3 
 2258000   0.89943351   -7.0919473    716.86801  0.026456599  0.026408884            6 
 2259000   0.88648494   -7.0845369    716.82691  0.026443371  0.026401577            3 
 2260000   0.88787978   -7.0760307    717.35424  0.026451115  0.026394336            5 
 2261000    0.9076456   -7.0846306    718.67324  0.026488031   0.02638708            6 
 2262000   0.88942662   -7.1099817    716.63517  0.026401237  0.026379812            3 
 2263000   0.88645854   -7.1053283    718.50777  0.026458528  0.026372443            4 
 2264000   0.89067273   -7.0858461    716.69837   0.02638024  0.026365119           10 
 2265000    0.8608207   -7.1079128    716.76688  0.026371114  0.026357767            4 
 2266000   0.89186754   -7.1266539    716.30823  0.026342609  0.026350412            4 
 2267000   0.87801466    -7.094998    718.98813  0.026429501  0.026343124            5 
 2268000   0.87415587   -7.1058117    717.38793  0.026359051  0.026335837            2 
 2269000   0.87623933    -7.092273    717.96434  0.026368604  0.026328545            4 
 2270000   0.87790476   -7.1045916    718.69156  0.026383684  0.026321239            4 
 2271000     0.868743    -7.090835    718.38725    0.0263609  0.026313906            6 
 2272000   0.88397559   -7.1309223    719.42667  0.026387422  0.026306562            9 
 2273000    0.8621981   -7.1053757    718.26014  0.026333045  0.026299188            2 
 2274000   0.89057465   -7.1140346     720.0952  0.026388713  0.026291856            5 
 2275000   0.88756855   -7.1320962     719.8801  0.026369234  0.026284539            4 
 2276000   0.89414272   -7.1140152    721.00985  0.026399013  0.026277232            3 
 2277000   0.89524838    -7.081659    720.29886  0.026361399   0.02626994            6 
 2278000   0.89304334   -7.0812378    719.77743  0.026330752  0.026262641            3 
 2279000    0.8743182   -7.1184746    719.24104  0.026299585  0.026255423            5 
 2280000   0.89227953   -7.0958802    720.40193   0.02633048  0.026248214            6 
 2281000   0.89139377   -7.0854765    719.85204  0.026298847  0.026240996            5 
 2282000   0.90164322   -7.1357019    721.35768  0.026342305  0.026233835            5 
 2283000   0.85980634   -7.1280214    723.10456  0.026394531  0.026226702            7 
 2284000   0.90841215   -7.0849673    721.87833  0.026338235  0.026219527            5 
 2285000   0.89379848   -7.1186797     721.6777  0.026319391   0.02621237            4 
 2286000   0.90300307   -7.1129336    721.18729      0.02629  0.026205219            3 
 2287000    0.8745676   -7.0794252    721.64538  0.026295197  0.026198147            4 
 2288000   0.87915395   -7.0898637    723.75618  0.026360584  0.026191078            2 
 2289000   0.87512803   -7.0965543    721.70053  0.026274229  0.026183998            3 
 2290000   0.90494394   -7.1281617    723.51899   0.02632893  0.026176877            3 
 2291000   0.89791824   -7.1028044    722.12931  0.026266889  0.026169699            5 
 2292000   0.90699564   -7.0685856    724.04899  0.026325225  0.026162531            3 
 2293000   0.90364977   -7.1170443    723.91719  0.026308954  0.026155383            5 
 2294000   0.90578065   -7.0927235    723.66175  0.026288207  0.026148244            2 
 2295000   0.88291865   -7.1068333    723.62841  0.026275541    0.0261411            4 
 2296000   0.87183949   -7.1218263    722.49773  0.026223059  0.026133861            2 
 2297000   0.88480291   -7.0943957    722.83283    0.0262238  0.026126671            5 
 2298000   0.87892732   -7.0946513    725.41078  0.026305874  0.026119539            8 
 2299000     0.897347   -7.1093531    722.56943  0.026191439    0.0261124            3 
 2300000   0.87685968   -7.1071601    723.65624  0.026219429  0.026105252            4 
 2301000   0.89612662   -7.0785346    724.82671  0.026250424  0.026098119            6 
 2302000   0.86832183   -7.1266772    724.70073   0.02623446   0.02609104            3 
 2303000   0.87606746   -7.1043086    725.26654  0.026243543  0.026083959           11 
 2304000   0.87952851   -7.1030524    724.23964   0.02619501  0.026076795            3 
 2305000    0.8885658   -7.1026356    724.55131  0.026194914  0.026069642            4 
 2306000   0.88102435   -7.1384244    724.22136  0.026171631  0.026062461            2 
 2307000   0.87593522   -7.1182015      724.531  0.026171471   0.02605525            8 
 2308000   0.89533713   -7.1129512    724.05823  0.026143061  0.026048032            3 
 2309000   0.87578811   -7.1275556    724.71732  0.026155526  0.026040845            3 
 2310000   0.86085051   -7.1110816    725.66625  0.026178436  0.026033732            6 
 2311000   0.87096786   -7.1115569    726.12936  0.026183808  0.026026634            3 
 2312000    0.8748073   -7.1363476    724.71218  0.026121402  0.026019485            5 
 2313000   0.86083024   -7.1260654    725.35538  0.026133282   0.02601234            4 
 2314000   0.87922873   -7.0811715    725.11624  0.026113377  0.026005229            3 
 2315000   0.87987654   -7.0959812     725.3687  0.026111184  0.025998082            5 
 2316000   0.87775283   -7.1027568    724.01639  0.026051252  0.025990931            3 
 2317000   0.88319239   -7.1333057    724.46967  0.026056311   0.02598373            3 
 2318000   0.89534046    -7.115948    725.89081  0.026096161  0.025976501            3 
 2319000   0.87328786   -7.1001091    726.89165  0.026120873  0.025969352            4 
 2320000   0.83469599   -7.1019979    727.12245  0.026117904  0.025962249            5 
 2321000   0.87222922    -7.091187    725.63602  0.026053282  0.025955091            4 
 2322000   0.90399085   -7.0980036    726.02974  0.026056192  0.025947969            3 
 2323000   0.89351326   -7.1199565     726.2731  0.026053706  0.025940846            6 
 2324000    0.8754961   -7.1187637    725.81632  0.026026116  0.025933684            3 
 2325000   0.87340424   -7.0970293    728.27546  0.026103063  0.025926605            9 
 2326000   0.89020251   -7.1273789    727.75667  0.026073254  0.025919525            4 
 2327000   0.87740431   -7.1495016    725.70202   0.02598847  0.025912443            7 
 2328000   0.88342789   -7.1250639    725.09082  0.025955428  0.025905281            6 
 2329000   0.87222396   -7.1132181    725.60574  0.025962707  0.025898132            3 
 2330000   0.88625184   -7.1122571    728.30383  0.026048063  0.025891007            4 
 2331000   0.86719102   -7.1131564     729.2594   0.02607105  0.025883825            4 
 2332000   0.87635254   -7.1093352    727.19475   0.02598609  0.025876632            3 
 2333000   0.89265836   -7.1305092     726.4166  0.025947157  0.025869417            3 
 2334000   0.87423652   -7.1071461    728.05002   0.02599436  0.025862228            4 
 2335000   0.88362684   -7.1065677    726.17678  0.025916373  0.025855099            3 
 2336000     0.869175   -7.0923597     729.3186  0.026017359  0.025847975            6 
 2337000   0.88995677   -7.1165713    726.38778  0.025901718  0.025840891            2 
 2338000   0.88340883   -7.0765937    729.51939   0.02600226  0.025833777            2 
 2339000   0.87435398   -7.1383693    727.48319  0.025918597  0.025826617            6 
 2340000   0.85944189   -7.1206472    728.47045   0.02594268  0.025819406            4 
 2341000   0.88915049   -7.1015512    729.29958  0.025961113  0.025812215            8 
 2342000   0.89409805   -7.1180916    728.45069  0.025919822  0.025805059            7 
 2343000   0.88193339   -7.1121066    728.70066   0.02591765  0.025797857            4 
 2344000    0.8748513   -7.0876006    728.94429  0.025915255  0.025790653            2 
 2345000   0.85600873   -7.1169507    727.91722  0.025867705  0.025783423            4 
 2346000   0.86508133   -7.1439395    727.60279   0.02584551  0.025776189            4 
 2347000   0.87669355   -7.1562843    728.76256  0.025875677  0.025768879            3 
 2348000   0.88847853     -7.15256    726.60613  0.025788122  0.025761533            4 
 2349000   0.87775511   -7.1654625    727.83215  0.025820638  0.025754221            8 
 2350000   0.86708171   -7.1151359    729.92469  0.025883854   0.02574698           11 
 2351000   0.88190188   -7.1307278    730.61558  0.025897334  0.025739799            5 
 2352000    0.8664225   -7.1191896    728.23467  0.025801965  0.025732602            4 
 2353000   0.87339076    -7.118886    728.28582  0.025792811  0.025725388            2 
 2354000   0.87076032   -7.1155059    730.80424  0.025871008  0.025718117            4 
 2355000   0.87889967   -7.1206611    729.52299  0.025814685  0.025710943            5 
 2356000   0.88942903   -7.1268454     730.3535  0.025833103  0.025703761            4 
 2357000   0.85876592   -7.1341213    729.48382  0.025791395  0.025696553            4 
 2358000   0.88002256   -7.1366423    730.00672  0.025798937  0.025689316            2 
 2359000   0.88053219   -7.1291726    729.33256  0.025764185   0.02568211           10 
 2360000   0.87904834   -7.1025169    730.55803  0.025796541  0.025674944            6 
 2361000   0.85345753   -7.1317166    730.10058  0.025769469  0.025667773            7 
 2362000   0.88148925   -7.1363114    730.32429  0.025766451  0.025660591            7 
 2363000   0.88373921   -7.1166546    730.48563  0.025761237  0.025653446            4 
 2364000   0.86840732   -7.1402446    728.94485  0.025696025   0.02564625            6 
 2365000   0.87644854   -7.1141978     731.1079  0.025761378   0.02563911            4 
 2366000   0.85438073   -7.1203614    731.51297  0.025764757  0.025631998            4 
 2367000   0.88565087   -7.1214273    731.18622  0.025742368  0.025624868            4 
 2368000   0.87830358   -7.0965661    733.32025  0.025806597  0.025617756            9 
 2369000   0.84331439   -7.1564324    731.62071  0.025735919  0.025610633            4 
 2370000   0.86570066   -7.1289288    732.46767  0.025754841  0.025603476            4 
 2371000    0.8795548   -7.1252646    733.71393   0.02578778  0.025596323            4 
 2372000   0.86632043   -7.1287583    732.58356  0.025737196  0.025589241            5 
 2373000   0.87186062    -7.103546    732.92032  0.025738177  0.025582144            7 
 2374000   0.87108231   -7.1025421    732.25462  0.025703967  0.025575071            3 
 2375000   0.85809094   -7.1112538    732.88391  0.025715225  0.025567943            7 
 2376000   0.87011419   -7.0832321    733.78309  0.025735939  0.025560799            6 
 2377000    0.8753422   -7.1128478    733.54839  0.025716884  0.025553693            7 
 2378000   0.86441395   -7.1239943    731.04534  0.025618354  0.025546586            4 
 2379000   0.87215204   -7.1462219    732.55564  0.025660489  0.025539416            6 
 2380000   0.87357626   -7.1370605    732.89981  0.025661758  0.025532185            6 
 2381000   0.85526978   -7.1340455    732.14148  0.025624439  0.025524964            6 
 2382000    0.8728007   -7.1313958    731.38042  0.025587056  0.025517808            8 
 2383000   0.86597737   -7.1406254    734.78464  0.025695364   0.02551068            3 
 2384000   0.86865976   -7.1537996    733.44337  0.025637702  0.025503562            6 
 2385000   0.88397978   -7.1243827    733.49682   0.02562882  0.025496412            3 
 2386000   0.86510461   -7.1567958    734.63558   0.02565785  0.025489303            2 
 2387000    0.8653133   -7.1233871    733.63962  0.025612331  0.025482193            4 
 2388000   0.86140833   -7.1560361    734.02645  0.025615105  0.025475075            5 
 2389000   0.87282624   -7.1632134    733.96692  0.025602306  0.025467946            3 
 2390000    0.8510106   -7.1606018    734.79238  0.025620376  0.025460817            6 
 2391000   0.85119462   -7.1453448    733.08144  0.025550029  0.025453657            5 
 2392000   0.87239547   -7.1385169    733.39492  0.025550269  0.025446485           10 
 2393000   0.86676314   -7.1366215    735.32911  0.025606948  0.025439432            8 
 2394000   0.87762091   -7.1356816    732.55398  0.025499651  0.025432314           10 
 2395000   0.85058506   -7.1353805    734.97534  0.025573255  0.025425253            3 
 2396000   0.85963394   -7.1588801    735.66101  0.025586429  0.025418171            5 
 2397000   0.84877001   -7.1512999    735.23863  0.025561071  0.025411052            3 
 2398000   0.87008206   -7.1348547    735.40933  0.025556343  0.025403913            5 
 2399000    0.8717764   -7.1634638    735.93792  0.025564052   0.02539677            5 
 2400000   0.87718676   -7.1166119     733.8165   0.02547974   0.02538965           12 
 2401000   0.88884607   -7.1578516    734.54077  0.025494265  0.025382521            4 
 2402000   0.86138533   -7.1196669    736.55926  0.025553679  0.025375369            5 
 2403000   0.83735216   -7.1365205    734.95309  0.025487345  0.025368218            4 
 2404000   0.85942244   -7.1188472    736.19576   0.02551982  0.025361104            5 
 2405000   0.87360529   -7.1304261     734.8438  0.025462363  0.025353985            5 
 2406000   0.85965084   -7.1158955    736.20618  0.025498967  0.025346869            4 
 2407000   0.87236387   -7.1741096    735.07067  0.025449061  0.025339701            4 
 2408000   0.85948623   -7.1370993    735.81686  0.025464315  0.025332532            8 
 2409000   0.87549064   -7.1324397    733.34983  0.025368404  0.025325352            5 
 2410000   0.86306082    -7.154916    734.93937  0.025412841  0.025318197            9 
 2411000   0.84983245   -7.1511744    734.98397  0.025403842  0.025311062            2 
 2412000   0.86200085   -7.1417889    735.19293   0.02540053  0.025303917            9 
 2413000   0.85045646   -7.1419066    734.52899  0.025367074  0.025296776           11 
 2414000   0.86164951   -7.1648632    736.02101  0.025408071  0.025289658            4 
 2415000   0.85338595   -7.1293971    735.60826  0.025383308  0.025282521            4 
 2416000   0.85142247   -7.1414481    738.21042  0.025462556  0.025275349            4 
 2417000   0.87234541     -7.13328    738.04878  0.025446448  0.025268198            4 
 2418000   0.85045256   -7.1493856     736.3125  0.025376086  0.025261033            6 
 2419000   0.85699867   -7.1402118    736.36331  0.025367346  0.025253884            3 
 2420000    0.8550868   -7.1343444    736.80382  0.025372032  0.025246722            3 
 2421000   0.86803299   -7.1736902    736.12671  0.025338246  0.025239509            4 
 2422000    0.8698124   -7.1250234    735.88535   0.02531948   0.02523225            9 
 2423000   0.86885127   -7.1760488    736.20749  0.025320109  0.025225012            5 
 2424000   0.84886254   -7.1587721    738.29695  0.025381496  0.025217847            8 
 2425000   0.84997172   -7.1330063    736.16932  0.025297915  0.025210705            7 
 2426000   0.85461115   -7.1877572    736.81151  0.025309546  0.025203511            3 
 2427000   0.85784455   -7.1663721    739.30117  0.025384603  0.025196382            3 
 2428000   0.85720506   -7.1271876    737.73295  0.025320324  0.025189289            9 
 2429000   0.86940692   -7.1825738    737.28888  0.025294664  0.025182197            7 
 2430000   0.85817439   -7.1517722    737.07938  0.025277071  0.025175068            4 
 2431000    0.8799678    -7.167035    739.60574  0.025353275  0.025167939            4 
 2432000   0.88835547   -7.1335758    738.45043  0.025303263  0.025160812            5 
 2433000   0.83600383   -7.1494683    740.32345  0.025357016  0.025153761            5 
 2434000    0.8760507   -7.1181295    739.57857  0.025321096    0.0251467            5 
 2435000    0.8802832   -7.1289274    740.71091  0.025349449  0.025139627            5 
 2436000   0.88455766   -7.1621581    740.31085  0.025325357  0.025132556            4 
 2437000   0.86386738   -7.1617651    737.17259  0.025207652  0.025125468            4 
 2438000   0.85863037   -7.1402646    739.21316  0.025267062  0.025118419            5 
 2439000   0.87344767   -7.1349002    740.03377   0.02528474  0.025111379            3 
 2440000   0.88258119   -7.1855485    739.43909  0.025254067  0.025104359            4 
 2441000   0.86071097   -7.1452993    740.72167  0.025287508  0.025097378            6 
 2442000   0.84724827    -7.163026     741.5494  0.025305399  0.025090385            8 
 2443000   0.87275083   -7.1603351    741.29044  0.025286207  0.025083351            3 
 2444000   0.84564406   -7.1697087    740.45735  0.025247455   0.02507635            6 
 2445000   0.86841709   -7.1442523    740.71645   0.02524596  0.025069325            3 
 2446000   0.85307017   -7.1306613    740.45991  0.025226898  0.025062325            3 
 2447000   0.86150819   -7.1444567    741.49361  0.025251792  0.025055264            6 
 2448000   0.87936878   -7.1689639    738.83952  0.025151127  0.025048193            9 
 2449000   0.85726551   -7.1510012    739.03893  0.025147643  0.025041086            8 
 2450000   0.85710897   -7.1736844    740.63177  0.025191557  0.025033971            6 
 2451000   0.87226544   -7.1589638    740.76763  0.025185898  0.025026898            2 
 2452000   0.84615273   -7.1579092    739.04827  0.025117192  0.025019824            4 
 2453000   0.86995758   -7.1880906    741.55737  0.025192192  0.025012788            4 
 2454000   0.86887013   -7.1676548    741.06596  0.025165239  0.025005758            3 
 2455000   0.85337335   -7.1459753    742.08797   0.02518968  0.024998709            3 
 2456000   0.87049046   -7.1577897    742.28779  0.025186204  0.024991757            3 
 2457000   0.85651683   -7.1423102     743.2377   0.02520817  0.024984764            2 
 2458000   0.87107564   -7.1383804    743.55806  0.025208776  0.024977836            6 
 2459000   0.84933885   -7.1753008    740.10298  0.025081435  0.024970865            3 
 2460000   0.84075358    -7.148127    741.84183  0.025130143    0.0249639            3 
 2461000   0.85079721   -7.1787022    742.93267   0.02515687  0.024956985            4 
 2462000   0.84749241   -7.1605813     742.1562   0.02512037  0.024950023            3 
 2463000   0.86887289   -7.1497247    744.05032  0.025174256   0.02494314            6 
 2464000   0.87921908   -7.1728482    744.02176  0.025163074  0.024936313            7 
 2465000   0.84183295   -7.1822205    745.05007  0.025187629  0.024929457            6 
 2466000   0.85962013   -7.1501563    741.84763  0.025069195  0.024922583           10 
 2467000   0.87342405   -7.1338303    745.33363  0.025176788  0.024915767            5 
 2468000   0.87122502   -7.2205758    745.11452  0.025159188  0.024908964            8 
 2469000   0.86047158   -7.1876146    743.11314  0.025081448  0.024902129            4 
 2470000    0.8691094   -7.1783864    746.29249  0.025178559  0.024895265            5 
 2471000   0.85522584   -7.1590495    746.26617  0.025167482  0.024888408            6 
 2472000   0.85338176   -7.1916743    744.41901  0.025095031  0.024881607            8 
 2473000   0.85592122   -7.1422489      746.461  0.025153693  0.024874867            3 
 2474000   0.86420972   -7.1714314    747.28634  0.025171326  0.024868141            4 
 2475000   0.86586487    -7.159912    746.48258  0.025134094  0.024861393            9 
 2476000   0.86139682   -7.1508782    746.94768  0.025139596  0.024854616            5 
 2477000   0.86126634    -7.144036    746.68476  0.025120601  0.024847799            3 
 2478000   0.84310583   -7.1859926    745.87162  0.025083119  0.024840954            3 
 2479000   0.85799972   -7.1635605    746.56624  0.025096351  0.024834124           10 
 2480000   0.83320474   -7.1843275    744.45395  0.025015254   0.02482727            9 
 2481000   0.88475946   -7.1314629    746.73253  0.025081705  0.024820492            5 
 2482000   0.84957617   -7.1570964    747.29383  0.025090446  0.024813737           11 
 2483000   0.84244657   -7.1752962    745.23737  0.025011323  0.024806969           11 
 2484000   0.86216586   -7.1866213    745.36616  0.025005574  0.024800163            3 
 2485000   0.85211805   -7.1859269      747.577  0.025069651   0.02479336            5 
 2486000   0.85366698   -7.1903289    745.94341  0.025004807  0.024786591            4 
 2487000   0.84879901    -7.178013    747.75209  0.025055357  0.024779806            5 
 2488000   0.85043217   -7.1681474    748.40155   0.02506704  0.024773056            6 
 2489000   0.86271797   -7.1409109    749.48493  0.025093241  0.024766385           14 
 2490000   0.85902165   -7.1563816    746.96532  0.024998839  0.024759622            4 
 2491000   0.83646433   -7.1825333    748.16782  0.025029032  0.024752832            5 
 2492000   0.84551708   -7.1723593    747.63096  0.025001035  0.024746061            6 
 2493000   0.86577329   -7.1798693     748.8287  0.025031043  0.024739268            8 
 2494000   0.85215916   -7.1985394    747.76956  0.024985617  0.024732422            5 
 2495000   0.85716713   -7.1729263    747.50314  0.024966705  0.024725574            2 
 2496000   0.84444472   -7.1858606    747.27753   0.02494917  0.024718784            5 
 2497000   0.85058438   -7.1898359    746.51383  0.024913691   0.02471195            7 
 2498000   0.86008538   -7.1836198    746.22475  0.024894074  0.024705118            2 
 2499000   0.85927307   -7.2002295    746.72306  0.024900729  0.024698318            3 
 2500000   0.83177075   -7.1932995    748.28007  0.024942669  0.024691519            4 
 2501000   0.86913009   -7.1640344    747.49048  0.024906387   0.02468476            5 
 2502000   0.87431762   -7.1663143    748.26609  0.024922265  0.024678048            2 
 2503000   0.85008107   -7.2024849    748.42727  0.024917674  0.024671327            7 
 2504000   0.85105834   -7.1823545    749.39915  0.024940067  0.024664571            7 
 2505000   0.86530068   -7.1802513    748.08996  0.024886559    0.0246578            5 
 2506000   0.83892001   -7.2041917    748.62542  0.024894434  0.024651016            4 
 2507000   0.85587169   -7.1584584    750.29785  0.024940096  0.024644257            5 
 2508000   0.84403998   -7.1665952    751.30568  0.024963639  0.024637578            3 
 2509000   0.85939407   -7.1954173    750.86119  0.024938926  0.024630901            4 
 2510000   0.84942759   -7.1400557    751.72927  0.024957811  0.024624226            8 
 2511000    0.8560001   -7.2062325    749.04026  0.024858631  0.024617472            4 
 2512000   0.86034692   -7.1851206    749.47048  0.024863007   0.02461072            3 
 2513000   0.83858244   -7.1853587    749.90146  0.024867405   0.02460396            3 
 2514000    0.8339234   -7.1851501    749.78764  0.024853741  0.024597198            5 
 2515000   0.87082645   -7.1715674    749.24455  0.024825863  0.024590425            5 
 2516000   0.85443783   -7.1600461    751.87443  0.024903101  0.024583688            4 
 2517000   0.82404719   -7.2009155    751.74677  0.024888981  0.024576954            5 
 2518000   0.85321767   -7.1824487    751.76282  0.024879627  0.024570215            4 
 2519000   0.84169956   -7.1706978    750.59635  0.024831161  0.024563491            6 
 2520000   0.85336648    -7.174501     750.3338  0.024812626  0.024556801            4 
 2521000   0.84361165    -7.184097    749.71347  0.024782278  0.024550039            4 
 2522000   0.84316709   -7.1960545    751.25071  0.024823246    0.0245433            5 
 2523000   0.86626902   -7.1802606    752.18971  0.024844422  0.024536586            4 
 2524000   0.84977323   -7.1723836    751.40729  0.024808746  0.024529874            5 
 2525000    0.8302475    -7.165186     752.5313  0.024836016  0.024523137           13 
 2526000   0.82202812   -7.1913027    751.34911  0.024787184   0.02451639            6 
 2527000   0.84450868   -7.1708227    750.56175   0.02475141  0.024509613            3 
 2528000   0.86893917   -7.1491319    752.36255  0.024800981  0.024502885           10 
 2529000   0.86753901   -7.1818053    751.58984  0.024765712  0.024496168            4 
 2530000   0.84265048    -7.197629    752.42117  0.024783306  0.024489482            3 
 2531000   0.83249801   -7.1565144    752.53875  0.024777386  0.024482793            5 
 2532000   0.84879797    -7.138285    751.73652  0.024741197   0.02447609            3 
 2533000   0.84417247   -7.1940511    751.03518  0.024708356  0.024469339            3 
 2534000   0.86462496   -7.1638283    752.24766  0.024738479  0.024462655            3 
 2535000   0.82268991   -7.1634697    753.48738  0.024769473  0.024455983            6 
 2536000    0.8589463   -7.1906279    753.48108  0.024759499  0.024449291            5 
 2537000   0.84601375   -7.1824601    753.12294  0.024737976   0.02444264            6 
 2538000   0.85612911   -7.2039851    754.12904  0.024761264  0.024435952            5 
 2539000   0.84719517   -7.2056529    753.12228  0.024718468  0.024429262           13 
 2540000   0.82913946   -7.2150935    755.18611  0.024776447  0.024422577            6 
 2541000   0.86604589   -7.1891221    752.19484  0.024668596  0.024415888            3 
 2542000   0.87300545   -7.1839033    754.17562  0.024723827  0.024409216            6 
 2543000   0.84333754   -7.2065464     755.5633  0.024759579  0.024402551            6 
 2544000   0.83920267   -7.1563255    754.53228  0.024716073  0.024395989           10 
 2545000   0.85652756   -7.1914761    754.21804  0.024696072  0.024389349            6 
 2546000    0.8307036   -7.1876798    753.77368  0.024671828  0.024382678            8 
 2547000   0.85077356   -7.2037584    755.55907  0.024720556  0.024376022            5 
 2548000   0.83434925    -7.213511    754.72033  0.024683423  0.024369397            5 
 2549000   0.85693367   -7.1938951    756.27205  0.024724469  0.024362774            6 
 2550000    0.8331753   -7.2175515    753.54586  0.024625682  0.024356135            4 
 2551000   0.85045902   -7.2032491    755.73913  0.024687676  0.024349474            5 
 2552000   0.85717639   -7.1955364    755.84254  0.024681379  0.024342891            3 
 2553000   0.84316687   -7.1923008    754.67352  0.024633553  0.024336317            4 
 2554000   0.84524057   -7.1703171    756.40907  0.024680536  0.024329672            5 
 2555000   0.84810561   -7.1667582    756.58329  0.024676559  0.024323045            7 
 2556000     0.853158    -7.205706    756.89184  0.024676964  0.024316412            6 
 2557000   0.84368313    -7.219893    754.34189   0.02458421  0.024309756            4 
 2558000    0.8381221   -7.2067216    754.10135  0.024566763   0.02430309            9 
 2559000    0.8311525   -7.1679298     756.8039  0.024645171  0.024296447            2 
 2560000   0.81290708    -7.213512    757.65941  0.024663392  0.024289843            3 
 2561000   0.84706026   -7.2056612    756.64814  0.024620856  0.024283173            6 
 2562000   0.85271041   -7.2177902    756.10379   0.02459354  0.024276483            9 
 2563000   0.84678224   -7.1857141    755.72782   0.02457172  0.024269835            4 
 2564000    0.8276962   -7.2201262    757.56117  0.024621723  0.024263205            2 
 2565000   0.84644812   -7.2155794    755.90612  0.024558354  0.024256556            7 
 2566000   0.85348493   -7.1798412    758.88345  0.024645474  0.024249947            5 
 2567000    0.8338764   -7.2079492     755.5089  0.024526324  0.024243327            4 
 2568000   0.84617137   -7.2021125    757.52636  0.024582242  0.024236753            3 
 2569000   0.86059984   -7.2041708    755.97946  0.024522494  0.024230173            5 
 2570000   0.84740803   -7.2234456    755.82021  0.024507789  0.024223584            8 
 2571000   0.84795342   -7.2114958    755.41953  0.024485269   0.02421694            4 
 2572000   0.83320233   -7.2097901    756.19908  0.024501007  0.024210281            5 
 2573000   0.83697305   -7.2110095     755.4505   0.02446724  0.024203601            3 
 2574000   0.83295394   -7.2176773    755.76249  0.024467835  0.024196949            7 
 2575000    0.8337353    -7.221459    757.23747  0.024506067  0.024190283            6 
 2576000   0.83085569   -7.2108542    758.81636  0.024547631  0.024183624            5 
 2577000   0.84001061   -7.2041921    756.13604  0.024451431  0.024176976            4 
 2578000   0.84640113    -7.222422    758.58336  0.024521055  0.024170304            5 
 2579000   0.83858038   -7.2197472    756.21668  0.024435074  0.024163665            5 
 2580000   0.83438118   -7.2284743    758.28735  0.024492486  0.024157058            4 
 2581000    0.8368965   -7.1975597    758.60239  0.024493168  0.024150417            4 
 2582000   0.84714812   -7.2295158      758.406  0.024477343  0.024143754            6 
 2583000   0.83957678   -7.1793197    758.77777  0.024479861  0.024137129            7 
 2584000   0.82534947   -7.1882226    758.19385  0.024451556  0.024130561            5 
 2585000   0.84513809   -7.2271934    758.71156  0.024458787  0.024123956            4 
 2586000   0.83309771    -7.220971    757.16688  0.024399551  0.024117324            5 
 2587000   0.84024027   -7.2215485    759.77644   0.02447418  0.024110716            6 
 2588000   0.83301192   -7.2087179    760.41261  0.024485208  0.024104143            4 
 2589000   0.85323786   -7.1895807    759.61113  0.024449953  0.024097544            4 
 2590000   0.83870893   -7.2243625    758.13142  0.024392903  0.024090984            3 
 2591000    0.8593274   -7.2079542    760.56813  0.024461859  0.024084413            5 
 2592000   0.84152658   -7.2010174    758.79429  0.024395393  0.024077811            4 
 2593000   0.84813979   -7.2127184    758.16546  0.024365775  0.024071229            4 
 2594000   0.82839929   -7.2173281    759.13649  0.024387577  0.024064617            6 
 2595000   0.83136729   -7.2206468    758.41679  0.024355067  0.024058027            9 
 2596000   0.83047998   -7.1862585    760.50035  0.024412569  0.024051495            6 
 2597000   0.83091168   -7.2169399    761.42696  0.024432902  0.024044976            6 
 2598000   0.82383454   -7.2124233    760.72772  0.024401069  0.024038452            6 
 2599000   0.83611275   -7.2013439    760.53648  0.024385548  0.024031937            5 
 2600000   0.84559377   -7.2385029     760.5415   0.02437633  0.024025426            5 
 2601000   0.83733662    -7.196699    761.79457  0.024407105  0.024018922            4 
 2602000   0.84000995   -7.2319066    760.21084  0.024347004  0.024012416            3 
 2603000   0.84280291   -7.2227165     759.8024  0.024324574  0.024005903           17 
 2604000   0.84021809   -7.2139058    763.02233  0.024418277   0.02399937            3 
 2605000   0.82802627   -7.2127893    761.61475  0.024363876  0.023992863            3 
 2606000   0.83055246   -7.2297371    760.81843  0.024329062   0.02398636            6 
 2607000   0.82873486   -7.2284194    760.50071  0.024309574   0.02397984            4 
 2608000   0.83892498   -7.1976186    762.08295   0.02435081  0.023973323            6 
 2609000    0.8473486   -7.2119564    764.27542  0.024411506  0.023966792            5 
 2610000   0.84820408   -7.1840943    762.02535  0.024330311  0.023960275            4 
 2611000   0.84822958   -7.2627339    759.69919  0.024246751  0.023953729            4 
 2612000    0.8148887    -7.233732    761.08136  0.024281565  0.023947121            4 
 2613000   0.83704024   -7.2320546    760.31418  0.024247805  0.023940532            3 
 2614000   0.82891444   -7.2154754    760.46655  0.024243386  0.023933914            5 
 2615000   0.82941616   -7.1955349     760.3872  0.024231587   0.02392737            7 
 2616000   0.82051811   -7.2050091    762.35503   0.02428501  0.023920829            6 
 2617000   0.83813371   -7.2218463    762.92366  0.024293837  0.023914296            5 
 2618000    0.8573837   -7.1941797    762.83139  0.024281621  0.023907784            5 
 2619000    0.8432689   -7.1997961     763.2416  0.024285402  0.023901333            6 
 2620000   0.83402518   -7.2188949    760.99216  0.024204585  0.023894863            5 
 2621000   0.80601937   -7.2068405    761.82228  0.024221743  0.023888351            7 
 2622000   0.84288391   -7.2098139    763.07738  0.024252396  0.023881846            6 
 2623000   0.84012696   -7.2304763    763.85669  0.024267909  0.023875406            4 
 2624000    0.8123482   -7.1978839    765.86563   0.02432246  0.023868997            6 
 2625000   0.83955021   -7.2133892    763.88326  0.024250262  0.023862592            6 
 2626000    0.8490063   -7.2401574    764.54693  0.024262088  0.023856135            7 
 2627000   0.84548469   -7.2302165    763.16351  0.024208968  0.023849615            7 
 2628000   0.80820209   -7.2511244    764.21283   0.02423303  0.023843073           13 
 2629000   0.83034098   -7.2267636    762.55953  0.024171406  0.023836564            3 
 2630000   0.83245983   -7.2276695    763.63336  0.024196241  0.023830098            5 
 2631000   0.83434143   -7.2446913     763.5277  0.024183697  0.023823634            6 
 2632000   0.83368355   -7.2197329    764.05987  0.024191359  0.023817198            8 
 2633000    0.8228741   -7.2202942    764.97724  0.024211205  0.023810769            5 
 2634000   0.81899091   -7.2225852    766.59805  0.024253292  0.023804313            2 
 2635000   0.82704339    -7.213227    765.66931  0.024214716  0.023797822           12 
 2636000   0.81242535   -7.2419017    765.39188  0.024196759  0.023791408            4 
 2637000   0.82135278   -7.2633044    763.95827  0.024142279  0.023784932            2 
 2638000   0.83729027   -7.2109276    766.64918  0.024218132  0.023778496            3 
 2639000     0.822692   -7.2059258    764.67368  0.024146573  0.023772137            4 
 2640000   0.82317865   -7.1707955    766.03822  0.024180499  0.023765756            7 
 2641000   0.82784768   -7.2621558     765.6465  0.024158983  0.023759353            6 
 2642000   0.84818957   -7.2494349    765.75944  0.024153402  0.023752901           12 
 2643000   0.81179936   -7.2130324    766.73712  0.024175089   0.02374645            5 
 2644000   0.82557407   -7.2240428    766.47843  0.024157792  0.023740041            2 
 2645000   0.84480336   -7.2321193    765.55212  0.024119474  0.023733577            3 
 2646000   0.83587782   -7.2183841    764.39575   0.02407394    0.0237271            3 
 2647000   0.82224125   -7.2363927    765.63269  0.024103787   0.02372059            4 
 2648000   0.82919443   -7.2242473    764.99393  0.024074582  0.023714097            3 
 2649000   0.82009396   -7.2044828    763.64294  0.024022994  0.023707586            7 
 2650000   0.83193033   -7.2618363    766.08844  0.024090831  0.023701061            3 
 2651000   0.81940984   -7.2305695     765.2977  0.024056887  0.023694543            6 
 2652000   0.82215023   -7.2666548    765.19453  0.024044574  0.023688056            6 
 2653000   0.83396446   -7.2564813    764.95155  0.024027879  0.023681518           17 
 2654000   0.81496604    -7.226094    763.59503  0.023976232  0.023674986            4 
 2655000   0.82980623   -7.2315315    765.84218  0.024037733  0.023668492            5 
 2656000   0.82490472   -7.2482624    766.17873  0.024039242  0.023661996            4 
 2657000   0.83440942   -7.2417445    765.13456  0.023997446  0.023655507            8 
 2658000   0.82657506   -7.2538118    765.27735  0.023992894  0.023649015            9 
 2659000   0.81046607   -7.2211971    765.89104  0.024003104  0.023642532            6 
 2660000   0.82968588   -7.2345308    767.33723  0.024039387   0.02363608            4 
 2661000   0.82028765   -7.2387306    767.38288  0.024031782  0.023629614            6 
 2662000    0.8057445   -7.2014488    765.54005  0.023965065  0.023623139            7 
 2663000   0.82287359   -7.2360591    767.61991  0.024021151  0.023616654            6 
 2664000   0.82947282   -7.2352626    768.64804  0.024044295  0.023610227            8 
 2665000   0.85360282   -7.2411871    766.29734  0.023961768  0.023603756            3 
 2666000   0.83590842   -7.2352156    766.48471  0.023958637  0.023597312            8 
 2667000   0.82954182   -7.2221992    768.80413  0.024022126  0.023590865            5 
 2668000   0.82247243   -7.2316837    768.34159  0.023998675  0.023584453           14 
 2669000   0.82292967   -7.2200918    767.08012  0.023950297  0.023578034            4 
 2670000   0.80541923   -7.2505769    768.23294  0.023977308  0.023571568            6 
 2671000   0.81314242   -7.2305422    767.02075  0.023930511  0.023565118            4 
 2672000    0.8309711   -7.2537341    766.09293  0.023892619  0.023558664           15 
 2673000   0.81059604    -7.265671    768.60808  0.023962093   0.02355221            9 
 2674000   0.82139491    -7.257468    769.02395  0.023966092  0.023545728            4 
 2675000   0.83386788   -7.2630039    768.67598  0.023946292  0.023539255            4 
 2676000   0.82706799   -7.2263289    767.57194  0.023902963   0.02353282            7 
 2677000   0.83108854   -7.2324811    768.31548   0.02391718  0.023526341            7 
 2678000   0.83066703   -7.2417842    769.77167  0.023953562  0.023519932            5 
 2679000   0.82171435   -7.2495789    769.67313  0.023941556  0.023513508            5 
 2680000   0.82767686    -7.266466     768.7087  0.023902634  0.023507129           10 
 2681000   0.81446353   -7.2157274    770.47755  0.023948699  0.023500696            3 
 2682000   0.82439479   -7.2051371    768.87838  0.023890081  0.023494286            7 
 2683000   0.81258877   -7.2337964    768.65932  0.023874373  0.023487846           12 
 2684000    0.8349149   -7.2471233    768.72778  0.023867604  0.023481368            8 
 2685000   0.82540691   -7.2157309    768.93193  0.023865051   0.02347492            4 
 2686000   0.82147831   -7.2060416    769.54519  0.023875192  0.023468457            3 
 2687000   0.83578138   -7.2589848    769.09652  0.023852392  0.023461977            4 
 2688000   0.83157082     -7.25044    769.54389  0.023857387  0.023455512            4 
 2689000   0.83582188   -7.2479701    768.41746  0.023813607  0.023449081            9 
 2690000   0.81418214   -7.2285285    768.96567  0.023821737  0.023442641            7 
 2691000   0.82532836   -7.2556265    769.29893  0.023823205  0.023436198            5 
 2692000   0.82835353   -7.2496157    769.60157  0.023823724  0.023429738            5 
 2693000   0.81827595    -7.251007     767.3779  0.023746067  0.023423279            3 
 2694000   0.81094826   -7.2504984     767.5849  0.023743656  0.023416819            4 
 2695000   0.82455665   -7.2592403    768.77936   0.02377178  0.023410349            5 
 2696000   0.82868791   -7.2636211    770.11688  0.023804305  0.023403884           11 
 2697000   0.81620948   -7.2637804    769.71912  0.023783189  0.023397382            5 
 2698000   0.81676206    -7.199463    770.48502   0.02379803  0.023390943            3 
 2699000   0.82110408   -7.2297637     770.6281   0.02379363  0.023384495            5 
 2700000   0.81910169    -7.258592    768.94088  0.023732743  0.023378055           10 
 2701000   0.80025733   -7.2624849    769.24337  0.023733289  0.023371591           10 
 2702000   0.83277677   -7.2481649    770.56308  0.023765207  0.023365104            4 
 2703000   0.83369934   -7.2498258    771.93024  0.023798565  0.023358651           11 
 2704000   0.82569301   -7.2564584    769.52068  0.023715504  0.023352176           10 
 2705000   0.83464801   -7.2321297    769.35797  0.023701724  0.023345712            6 
 2706000   0.81096868   -7.2368937    768.90713  0.023679081  0.023339245            6 
 2707000   0.81648213   -7.2518575    771.12419  0.023738585  0.023332792            4 
 2708000   0.81469643     -7.25719    769.10908  0.023667808  0.023326318            4 
 2709000    0.8393914   -7.2924479    770.06623  0.023688515  0.023319802            4 
 2710000    0.8137783   -7.2805963    767.74357  0.023608351  0.023313272            5 
 2711000   0.82126787    -7.239183    769.95284  0.023667553  0.023306786            3 
 2712000   0.82468001   -7.2629152    769.03298  0.023630561  0.023300294            4 
 2713000   0.81778953   -7.2407515    771.23286  0.023689423  0.023293808            6 
 2714000   0.81738758   -7.2531795    770.83953  0.023668617  0.023287333            3 
 2715000   0.80522541   -7.2629275    768.83265  0.023598301  0.023280841           12 
 2716000   0.79612532   -7.2434117    768.93246  0.023592675  0.023274284            4 
 2717000   0.79135848   -7.2575698    768.73655  0.023577983  0.023267743            6 
 2718000   0.81981341   -7.2135995    771.77142  0.023662356  0.023261235            5 
 2719000   0.82610687    -7.229297    771.43137  0.023643232  0.023254762            5 
 2720000   0.82559247   -7.2314689    771.03403  0.023622366  0.023248315            3 
 2721000   0.82089064   -7.2997969    769.36852  0.023562677  0.023241802            5 
 2722000   0.82660612   -7.2393691    770.88645  0.023600491  0.023235297            7 
 2723000   0.82392737   -7.2493221    770.92123  0.023592889  0.023228798            4 
 2724000   0.80120941   -7.2543545     770.4026  0.023568361  0.023222265            8 
 2725000   0.80828368   -7.2652507     769.7028  0.023538312  0.023215742            4 
 2726000   0.83264734    -7.260305    771.57213  0.023586822  0.023209249            5 
 2727000    0.8188968   -7.2740393    769.94706  0.023528513  0.023202748            5 
 2728000   0.81466745   -7.2413383    769.30382  0.023500239  0.023196206            7 
 2729000   0.82462776   -7.2552868    769.08388  0.023484911  0.023189674            8 
 2730000   0.81921338   -7.3090537    769.88361  0.023500721  0.023183086            5 
 2731000   0.80614386    -7.295824    770.95484  0.023524803   0.02317651            9 
 2732000    0.8111742    -7.288783     770.2496   0.02349468  0.023169943            6 
 2733000   0.80613395   -7.2560685    769.64292  0.023467585  0.023163363            3 
 2734000   0.79972539   -7.2842973    771.08954  0.023503095   0.02315683            6 
 2735000   0.80619264   -7.2728886    771.04155  0.023493039  0.023150314            3 
 2736000   0.82700236   -7.2721463     771.1139  0.023486656  0.023143821            5 
 2737000   0.82564903   -7.2315994     772.9699  0.023534585   0.02313732           11 
 2738000   0.79513694   -7.2648749    773.29105  0.023535764  0.023130881           10 
 2739000   0.81296215   -7.2432033    771.53448  0.023473728  0.023124475           14 
 2740000   0.82929178    -7.248808    772.87948  0.023506067  0.023118058            3 
 2741000   0.80065408   -7.2692446     773.1235   0.02350491   0.02311158            4 
 2742000   0.81543481   -7.2754777    773.09742  0.023495545  0.023105099           10 
 2743000   0.82744104    -7.277482    772.35348  0.023464378  0.023098617           10 
 2744000   0.80218871   -7.2782424    772.06949  0.023447203  0.023092119            4 
 2745000     0.797859   -7.2639442    772.46804   0.02345076  0.023085633            6 
 2746000   0.79770657   -7.2666345    772.74025  0.023450481  0.023079175            7 
 2747000   0.80990718   -7.2742133    772.01455  0.023419929  0.023072671            7 
 2748000   0.81302491   -7.2588815    771.72013  0.023402478  0.023066183            3 
 2749000   0.81794189     -7.25638    773.35558  0.023443543   0.02305968            3 
 2750000   0.81367369   -7.2646266    772.84453  0.023419531   0.02305321            5 
 2751000    0.8358007   -7.2502801    773.52703  0.023431692  0.023046725            4 
 2752000   0.80324785   -7.2579458    772.65994  0.023396922  0.023040232            2 
 2753000   0.83478652   -7.3104112    772.67685  0.023388935  0.023033727            6 
 2754000   0.79440936    -7.266322    772.56237  0.023376978  0.023027244            3 
 2755000   0.82418479   -7.2880876    771.25259  0.023328874  0.023020767            7 
 2756000    0.8188199   -7.2611012    773.72289  0.023395104  0.023014272            4 
 2757000   0.82826362   -7.2424128    773.23454  0.023371858  0.023007825            2 
 2758000   0.82272127   -7.2205149    772.89245  0.023353047   0.02300134            6 
 2759000   0.80522205   -7.2725608    772.60439  0.023335882  0.022994863            3 
 2760000   0.80360603   -7.2397936    775.35029  0.023410335  0.022988361            7 
 2761000   0.81381137   -7.2869918    773.57415  0.023348248  0.022981867           10 
 2762000   0.81060217   -7.2694783    772.22468  0.023299079  0.022975407            4 
 2763000   0.80321786    -7.275543    775.19068  0.023380103  0.022968895            7 
 2764000   0.81697422   -7.2701651     773.5191  0.023321246  0.022962389            4 
 2765000   0.80667367   -7.2892678    773.88667   0.02332389  0.022955877            4 
 2766000   0.79960195   -7.2434206    774.19187  0.023324653  0.022949426            4 
 2767000   0.81906663   -7.2644017     775.6676  0.023360668  0.022942969            4 
 2768000   0.82106337   -7.2755597    774.73771  0.023324233  0.022936518            6 
 2769000   0.78265574    -7.246085     774.5532  0.023310256  0.022930097            7 
 2770000    0.7998678   -7.2664778    775.50143  0.023330368  0.022923662            7 
 2771000   0.79709859   -7.2632938    776.86073  0.023362827  0.022917232            6 
 2772000   0.79529816   -7.2553892    775.59103  0.023316229  0.022910793            5 
 2773000   0.79566175   -7.2980715    771.35641  0.023180563  0.022904327            5 
 2774000   0.82084386   -7.2657884     774.6091   0.02326992  0.022897836            6 
 2775000   0.82213689   -7.2911194    774.98807  0.023272915   0.02289136            5 
 2776000   0.82732388   -7.2680314    773.21944  0.023211439  0.022884858            7 
 2777000   0.82414934   -7.2947687    772.59503  0.023184343  0.022878313            7 
 2778000   0.81239025    -7.302298    774.43839  0.023231293  0.022871821            5 
 2779000   0.78870742   -7.2791129    774.87143  0.023235919   0.02286534            5 
 2780000   0.82100485    -7.268083    776.90407  0.023288491  0.022858893            5 
 2781000   0.80492321   -7.2987283    776.89137  0.023279737  0.022852505            4 
 2782000   0.80076822   -7.2586949     774.4635  0.023198643  0.022846101            5 
 2783000   0.82568174   -7.2604241    777.24327  0.023273544   0.02283968            7 
 2784000   0.81609211   -7.2783397     776.5571  0.023244645   0.02283331            5 
 2785000    0.7971595   -7.2651713     776.5593  0.023236365  0.022826931            4 
 2786000   0.79814102    -7.290955    774.36347  0.023162344  0.022820494            3 
 2787000   0.81142226   -7.2795079    775.63825  0.023192149  0.022814021            4 
 2788000   0.79032378    -7.269484     775.1932  0.023170528  0.022807597            4 
 2789000   0.80939863    -7.270389    775.92268  0.023184017  0.022801158            7 
 2790000   0.81632477   -7.2687997    774.77112  0.023141312  0.022794713            5 
 2791000   0.81921247    -7.276137    774.70688  0.023131102  0.022788268            9 
 2792000   0.81199421   -7.2793801    775.17958  0.023136926  0.022781874            5 
 2793000   0.82174149   -7.2694977    777.06458  0.023184884  0.022775461            4 
 2794000   0.80275635   -7.2756011    777.32375  0.023184316  0.022769075            5 
 2795000   0.79600678   -7.2960931    776.45274  0.023150052  0.022762662            4 
 2796000   0.80396354   -7.2950982    777.51972  0.023173573  0.022756204            6 
 2797000   0.80557254   -7.2793871    775.53104  0.023106037  0.022749756            8 
 2798000    0.7871785   -7.2965599      776.148  0.023116155  0.022743349            9 
 2799000   0.80509859   -7.2843639    777.81707  0.023157588  0.022736925            7 
 2800000   0.79481395   -7.2844387    776.68339  0.023115577  0.022730505            9 
 2801000    0.7981841   -7.2871614    777.81275  0.023140924  0.022724113            8 
 2802000   0.79328496    -7.253024    776.33163  0.023088616   0.02271773            7 
 2803000   0.80193093   -7.2968389    777.57964  0.023117482  0.022711363            5 
 2804000   0.79656842   -7.2797759    777.88136  0.023118205  0.022704965            9 
 2805000   0.79539815   -7.2757457    777.48183  0.023098094  0.022698589            4 
 2806000   0.78942593   -7.2715127    777.15765  0.023080234  0.022692217            5 
 2807000   0.82155067     -7.24479    777.28272  0.023075725   0.02268583            9 
 2808000    0.8010713   -7.2679227    778.64989  0.023108081  0.022679476            4 
 2809000   0.80971972   -7.3045671    775.90505  0.023018425  0.022673079           11 
 2810000   0.79037054   -7.2847809    777.78457  0.023065972  0.022666699           10 
 2811000   0.81014393    -7.305008    777.23152  0.023041371  0.022660297           16 
 2812000   0.80162424   -7.2710461    777.81755  0.023050544  0.022653894            4 
 2813000   0.80701601   -7.3181893    777.28951  0.023026707   0.02264748            5 
 2814000   0.81690445   -7.3360602    776.11814  0.022983835  0.022641025            6 
 2815000   0.79351739   -7.2827553    776.81399   0.02299627  0.022634578            8 
 2816000   0.80853855   -7.2796939    775.81174  0.022958444   0.02262818            4 
 2817000   0.80601922   -7.2920424    778.66637   0.02303474  0.022621764           19 
 2818000   0.80250465   -7.2645459    777.32952  0.022987033  0.022615384            7 
 2819000   0.80642817   -7.2833826    777.98303  0.022998198  0.022609007            4 
 2820000    0.8118889   -7.2804505    779.79468  0.023043578   0.02260264            6 
 2821000   0.80379414   -7.2805354    778.29914  0.022991231  0.022596229            9 
 2822000   0.79157332   -7.3103227    776.51242  0.022930322  0.022589809            6 
 2823000   0.80568517   -7.2915039    778.97398  0.022994863  0.022583435           10 
 2824000   0.78889581   -7.3009987    778.33938  0.022967994  0.022577057            4 
 2825000   0.78976648   -7.2961312    779.15924  0.022984048  0.022570678           11 
 2826000   0.79256653   -7.2754865    781.68184  0.023050302  0.022564346            7 
 2827000   0.80206285   -7.3018264    777.83785  0.022928836  0.022557981            5 
 2828000   0.80487767   -7.2896807    779.88138  0.022980946  0.022551627            4 
 2829000   0.78701565   -7.2753109    780.20336  0.022982307  0.022545253            7 
 2830000    0.7835823    -7.259771    780.98689  0.022997258   0.02253896            6 
 2831000   0.79579916   -7.2843555     779.8939  0.022956962  0.022532648            4 
 2832000   0.80352673   -7.2918886    780.32364  0.022961501   0.02252634            4 
 2833000   0.79858084   -7.2832993     780.7468  0.022965843  0.022520054            2 
 2834000   0.80407853   -7.2970059    779.28222  0.022914674  0.022513769            7 
 2835000   0.79300005   -7.3103254    779.85771  0.022923507  0.022507477            4 
 2836000   0.79992709   -7.2913744     780.3303  0.022929311  0.022501169            5 
 2837000   0.80250506   -7.2982382    781.01363  0.022941301  0.022494887            4 
 2838000    0.8101249   -7.3438318    780.47873   0.02291751   0.02248857            9 
 2839000   0.81016337   -7.3006486    781.49127  0.022939159  0.022482249            5 
 2840000   0.80931871   -7.2723606    781.74969  0.022938665  0.022475959            8 
 2841000   0.79680169   -7.2945119     780.9199  0.022906251  0.022469692            5 
 2842000    0.8053975   -7.2819191    783.29823  0.022967928  0.022463445            4 
 2843000   0.81177438   -7.2857984     782.2024  0.022927729  0.022457149            6 
 2844000   0.80599982   -7.3303114    781.63454  0.022903028  0.022450837            5 
 2845000    0.7804277   -7.3592448    781.57845  0.022893335  0.022444487           10 
 2846000    0.7863572   -7.2829559    779.78289  0.022832715  0.022438178            5 
 2847000   0.79444793   -7.2760074    782.78195   0.02291248  0.022431866            6 
 2848000   0.81754658   -7.2908316    782.33808  0.022891447   0.02242559            7 
 2849000   0.78888374   -7.2951797    781.41109  0.022856297  0.022419299            7 
 2850000   0.80106309   -7.2984791    781.98113  0.022864945  0.022413018            9 
 2851000   0.80630791   -7.3089325     780.1695  0.022803972  0.022406735            3 
 2852000   0.79115731   -7.2963933    783.35407  0.022889027  0.022400441            3 
 2853000   0.77997288    -7.306661    781.75066   0.02283417  0.022394181           12 
 2854000   0.78152736   -7.2993925    782.80893   0.02285707  0.022387925            6 
 2855000   0.79327382   -7.2846877    785.00494  0.022913162  0.022381684            5 
 2856000    0.7885473    -7.327524    781.06188  0.022790087  0.022375428            6 
 2857000    0.7840175   -7.3014039    783.86082   0.02286375  0.022369131            8 
 2858000   0.81107482   -7.3024433    782.46581  0.022815075  0.022362826            7 
 2859000   0.78285268   -7.3192032    782.58356  0.022810527  0.022356563            4 
 2860000   0.79167918    -7.303171      783.017  0.022815181   0.02235031            4 
 2861000   0.79979036   -7.2847493    782.33463   0.02278733  0.022344019            5 
 2862000   0.78114673   -7.3062552    783.39579  0.022810266  0.022337755            5 
 2863000   0.79718599   -7.3028142    781.95411  0.022760336  0.022331507            7 
 2864000    0.7979218   -7.3145318    781.01358  0.022725023   0.02232524            6 
 2865000   0.77981234   -7.2969002      781.956  0.022744503  0.022318959            4 
 2866000   0.79234718   -7.3023347    780.98344  0.022708288  0.022312688           13 
 2867000   0.79481126     -7.32236    782.21182  0.022736072  0.022306377            5 
 2868000   0.78133616   -7.3026311    783.47139  0.022764743  0.022300101            4 
 2869000   0.78208553   -7.2998043      783.726  0.022764204  0.022293852            3 
 2870000   0.80561227   -7.2590489    785.05652  0.022794905  0.022287613            7 
 2871000   0.79226636    -7.347005    781.49126   0.02268348  0.022281352            8 
 2872000   0.78911149   -7.3163986    784.39793  0.022759921  0.022275072            4 
 2873000   0.79646276   -7.3025887    783.07308  0.022713571  0.022268798            3 
 2874000   0.80883337   -7.3110009    785.55336  0.022777585   0.02226253            7 
 2875000   0.79003873   -7.3068163    784.25507  0.022732031  0.022256246            8 
 2876000   0.78848793   -7.3373686    781.25111  0.022637086  0.022249951            5 
 2877000   0.79638775   -7.2925766    784.70308  0.022729205  0.022243644            6 
 2878000   0.80101795   -7.3097822    782.85056  0.022667667  0.022237369            8 
 2879000   0.79462618   -7.2964785    784.61888  0.022710978  0.022231118            6 
 2880000   0.79733898   -7.3009559    782.22225  0.022633746  0.022224867            4 
 2881000   0.79939119   -7.3000651    783.15006  0.022652727  0.022218609            3 
 2882000   0.78433546      -7.3039    783.73386  0.022661747  0.022212325            9 
 2883000   0.78362576   -7.3052353    784.18126  0.022666819  0.022206018            7 
 2884000     0.804841   -7.3030021     783.1432  0.022628964  0.022199737            3 
 2885000   0.79998583   -7.3163629    781.99503  0.022587956   0.02219348            2 
 2886000   0.82987837   -7.3135463    782.33037  0.022589812  0.022187192            5 
 2887000   0.80532559   -7.3051412    783.07348  0.022603437  0.022180904            6 
 2888000   0.78969717   -7.2797808    784.66136  0.022641429  0.022174618            6 
 2889000   0.77794701   -7.2841036    784.41299  0.022626428  0.022168327            8 
 2890000   0.77956981   -7.2878912    783.99026  0.022606409  0.022162033            3 
 2891000   0.79432867   -7.2910052    784.56317  0.022615104  0.022155784            6 
 2892000   0.79563379   -7.3370437     784.0492  0.022592473   0.02214952            7 
 2893000   0.78423124   -7.3240164    785.22865  0.022618638  0.022143239            5 
 2894000   0.77848887   -7.2891558    784.69691  0.022595511  0.022136972           10 
 2895000   0.78860881   -7.3032518    784.13655  0.022571576  0.022130721            4 
 2896000   0.79585247   -7.3372617    782.97147  0.022530256  0.022124398            4 
 2897000    0.7831987   -7.3324793    784.22808  0.022558626  0.022118058            8 
 2898000   0.78387822   -7.2986149    783.68476  0.022535218  0.022111721            4 
 2899000   0.78729533   -7.3096117    784.68858  0.022556301   0.02210542            2 
 2900000   0.79060931   -7.3212802    784.25225  0.022535984  0.022099101            4 
 2901000   0.79873996   -7.3175249    783.53443  0.022507596  0.022092776            6 
 2902000   0.79323064   -7.2978641    785.79221  0.022564674  0.022086476            4 
 2903000   0.78688281   -7.3242377    784.79614  0.022528308  0.022080189            6 
 2904000   0.78765695   -7.3323904    784.35183  0.022507801  0.022073891            7 
 2905000   0.78381005   -7.3103189    784.20517  0.022495845  0.022067583            4 
 2906000   0.77181731   -7.3195609     782.8003  0.022447818  0.022061271            8 
 2907000   0.79566557   -7.2875326     786.3169  0.022540904  0.022054995            5 
 2908000   0.79030444     -7.31561    786.29313  0.022532472  0.022048738            3 
 2909000   0.78533492   -7.3022978    784.81025  0.022482246  0.022042489            5 
 2910000   0.76915074   -7.3131716    785.60999  0.022497422  0.022036253            7 
 2911000   0.80632717   -7.3171965    785.76616  0.022494165  0.022030003            7 
 2912000   0.78969533   -7.2882364    787.06524  0.022523616  0.022023734            6 
 2913000    0.7873981   -7.3071107    785.14529  0.022460959  0.022017495            4 
 2914000   0.78077434   -7.3111208    784.30949  0.022429349  0.022011242            6 
 2915000   0.77453267   -7.2988423    785.33608  0.022451003  0.022004947            3 
 2916000   0.78677012    -7.317462    785.08397  0.022436099  0.021998626            7 
 2917000   0.77391568   -7.3569766    784.62186  0.022415206  0.021992324            8 
 2918000   0.78834453   -7.3248445    783.98953  0.022389466  0.021986053            7 
 2919000   0.81024911   -7.3289437    787.14324   0.02247183  0.021979761            3 
 2920000   0.77162095   -7.3141155    785.01792  0.022403479  0.021973487            6 
 2921000   0.79256139   -7.3613559    784.80238  0.022389661  0.021967198            5 
 2922000   0.79037229   -7.3119739    784.39335  0.022370333  0.021960938            7 
 2923000   0.77444086   -7.3439083    784.44735  0.022364219  0.021954663            5 
 2924000   0.79990035   -7.3318139     783.5614  0.022331321  0.021948386            4 
 2925000   0.76356901    -7.343609    785.96288  0.022392105  0.021942129            7 
 2926000   0.79402481   -7.2972217    785.35545  0.022367152  0.021935889            3 
 2927000   0.75940604   -7.3153136    785.14012   0.02235338  0.021929637            5 
 2928000   0.80333115   -7.3228444    785.83042  0.022365392  0.021923373            9 
 2929000   0.77181229   -7.3392969    788.87246  0.022444306  0.021917128           10 
 2930000   0.77603198   -7.3290056    787.10873  0.022386483  0.021910896            7 
 2931000   0.76569582   -7.3195332    786.27249  0.022355069  0.021904671           11 
 2932000   0.77182379   -7.3392431    786.47056  0.022353074   0.02189839            4 
 2933000   0.77510589   -7.3410406     787.5899  0.022377256  0.021892139            6 
 2934000   0.78163417   -7.3196207    786.65728   0.02234314  0.021885898            5 
 2935000   0.78312201   -7.3240813    787.28456  0.022353338  0.021879694            3 
 2936000   0.80042994   -7.3013955    787.04853  0.022339025  0.021873498            3 
 2937000   0.78493756   -7.3471078    786.78908  0.022324057  0.021867301            6 
 2938000   0.79629135   -7.3446235    788.18474  0.022356045   0.02186107            9 
 2939000   0.78654649   -7.3258775    787.87614  0.022339689  0.021854862           11 
 2940000   0.78146552     -7.36599     786.8622   0.02230335  0.021848629            8 
 2941000   0.78284744   -7.3295702    789.94173  0.022383025  0.021842391           11 
 2942000   0.80714127   -7.3295687    787.55075  0.022307692  0.021836178            5 
 2943000   0.77423106   -7.3396913    787.05764  0.022286149  0.021829959           14 
 2944000    0.7911465   -7.3353494    787.00616  0.022277122  0.021823729            6 
 2945000   0.77936968   -7.3189546    787.94185  0.022296034  0.021817509            9 
 2946000   0.77451524   -7.3428372     787.5948  0.022278649  0.021811276           10 
 2947000   0.77290013   -7.3192952     788.9865  0.022310443  0.021805048           25 
 2948000   0.78863075   -7.3564564    787.13472  0.022250529  0.021798814           12 
 2949000   0.78934522   -7.3207759    788.66671  0.022286275  0.021792568            8 
 2950000   0.77967555   -7.3710339    786.14621   0.02220752  0.021786321            8 
 2951000    0.7765899   -7.3419788    787.63974   0.02224217   0.02178009            7 
 2952000   0.78369572   -7.3396757    787.27143  0.022224239  0.021773892            5 
 2953000   0.77504902    -7.343933    786.63304  0.022198698  0.021767687            8 
 2954000   0.79380225   -7.3360518    787.23365  0.022208126  0.021761486            5 
 2955000    0.7724443   -7.3342368    786.83098  0.022189255  0.021755267           12 
 2956000   0.78381708   -7.3372552    786.10738  0.022161349  0.021749079           10 
 2957000   0.78150442   -7.3261321    788.33426  0.022216612  0.021742889            5 
 2958000     0.780698     -7.34976    787.97936  0.022199103  0.021736724            8 
 2959000   0.79112307   -7.3252853    787.94579  0.022190655  0.021730553            7 
 2960000    0.7921859    -7.304604    789.37096  0.022223282  0.021724401            3 
 2961000   0.78160859   -7.3153356    788.65775  0.022195704  0.021718296            7 
 2962000   0.77902443   -7.3351057    788.67532  0.022188705  0.021712162            6 
 2963000   0.79293209   -7.3369236    788.91268  0.022187892  0.021705993            6 
 2964000   0.77378503   -7.3302724    789.72999  0.022203385  0.021699806            6 
 2965000   0.78050301   -7.3231338    789.25543  0.022182559  0.021693646            6 
 2966000   0.78782705   -7.3313346    789.93402  0.022194145  0.021687524            9 
 2967000   0.79761807   -7.3355689    791.25821  0.022223857  0.021681412           14 
 2968000   0.79792972   -7.3399839    788.94325  0.022151372  0.021675234            8 
 2969000   0.78143959   -7.3158573    788.90386  0.022142805  0.021669062            4 
 2970000   0.77962749   -7.3163248    789.08994  0.022140571  0.021662895            8 
 2971000    0.7770764   -7.3126283    789.59312  0.022147232  0.021656719            5 
 2972000    0.7727565   -7.3491329    789.62404  0.022140647  0.021650574           14 
 2973000   0.77616908   -7.3336542     790.9015  0.022169007   0.02164441           10 
 2974000   0.77621035   -7.3014247    790.09706  0.022139012  0.021638249            7 
 2975000   0.78151309   -7.3274604    787.82533  0.022067936  0.021632072            8 
 2976000   0.76292964   -7.3032097    789.59592  0.022110101  0.021625884           11 
 2977000   0.78337478   -7.3782208    787.80091  0.022052427  0.021619704            3 
 2978000   0.78903536   -7.3601392      788.601  0.022067411  0.021613467            5 
 2979000   0.78553685   -7.3509405    787.47852  0.022028603  0.021607242            3 
 2980000   0.77911385   -7.3238049    788.00193  0.022035848  0.021601037            4 
 2981000   0.77443905   -7.3351732    788.55957  0.022044045  0.021594831            3 
 2982000   0.78279423   -7.3086848    787.54401  0.022008272  0.021588619           11 
 2983000   0.76135679   -7.3536997    787.78146  0.022007528  0.021582389            2 
 2984000   0.78720466   -7.3215406    789.78016   0.02205597  0.021576192            4 
 2985000   0.77079092    -7.369635    789.25286   0.02203386  0.021569975            4 
 2986000   0.78325513   -7.3684602    788.94819  0.022017978  0.021563752            4 
 2987000   0.77509701   -7.3485697    787.25919  0.021963486  0.021557497            6 
 2988000   0.77539218   -7.3154431    788.05224  0.021978253  0.021551273            6 
 2989000   0.76314608   -7.3437816    790.20466   0.02203091  0.021545058            7 
 2990000   0.77470619   -7.3581695    788.61104  0.021979126  0.021538834            4 
 2991000   0.77035582    -7.351848    791.35711  0.022048287   0.02153263            2 
 2992000   0.79494603   -7.3592755    789.39108   0.02198616  0.021526426           18 
 2993000   0.78213476   -7.3540589    786.55989  0.021899986  0.021520198            7 
 2994000   0.75901171   -7.3679618    790.31204  0.021997106  0.021513971           24 
 2995000   0.77409034   -7.3557953    789.18891  0.021958512  0.021507714            5 
 2996000    0.7623215   -7.3140836    790.11864  0.021977043  0.021501494           14 
 2997000     0.768281    -7.344017    788.29845  0.021919098  0.021495294            8 
 2998000   0.76013559   -7.3601925    789.53113  0.021946051  0.021489105            7 
 2999000   0.76335655   -7.3287024    789.02953  0.021924795  0.021482931            7 
 3000000   0.77893108   -7.3693196    791.17098  0.021976972   0.02147674            4 
 3001000   0.78353792   -7.3598296    790.58787  0.021953456  0.021470578            9 
 3002000   0.77258317   -7.3353733    792.17512  0.021990204  0.021464423            6 
 3003000    0.7661535    -7.346447    788.80461   0.02188935  0.021458254            5 
 3004000   0.77331417   -7.3585137    790.02061  0.021915796  0.021452065           11 
 3005000   0.76517329   -7.3204857    790.84582  0.021931387  0.021445913            7 
 3006000   0.75392786    -7.349852    790.68591  0.021919658  0.021439769            6 
 3007000   0.74811181   -7.3305628    792.75108  0.021969601  0.021433593           10 
 3008000   0.78678523   -7.3489965    790.73194  0.021906359  0.021427394            5 
 3009000   0.77098381    -7.350777    790.09135  0.021881338  0.021421218           11 
 3010000   0.75102951   -7.3586319    790.05612  0.021873093  0.021415022            9 
 3011000   0.78486548    -7.372591    791.49356  0.021905612  0.021408834            5 
 3012000   0.75499453   -7.3628111    788.57543  0.021817603   0.02140262            3 
 3013000   0.75788507   -7.3788156    788.08586  0.021796821  0.021396389            7 
 3014000   0.76232815   -7.3776238    789.15037  0.021819022  0.021390151            9 
 3015000   0.77569427   -7.3628417    789.69194  0.021826753   0.02138393            6 
 3016000   0.77771789    -7.382717    788.74598  0.021793379  0.021377686            6 
 3017000   0.78048863   -7.3738542    788.46548  0.021778408  0.021371441            5 
 3018000   0.78221264   -7.3799236    788.85982   0.02178208  0.021365193            5 
 3019000   0.77828046   -7.3940222    790.84246  0.021829592  0.021358956            8 
 3020000   0.77171623   -7.3506923    790.42113  0.021810738  0.021352739           10 
 3021000   0.76734626   -7.3565984    791.42122  0.021831105  0.021346544           14 
 3022000   0.76602939   -7.3428206    790.59301  0.021801043  0.021340352            3 
 3023000   0.76163829   -7.3411625    790.75525  0.021798303  0.021334129            6 
 3024000   0.77123977   -7.3671165    789.81325  0.021765136  0.021327921            8 
 3025000   0.78407662   -7.3241192    791.58941  0.021806871  0.021321718            6 
 3026000   0.76858632   -7.3764978    791.70634  0.021802884  0.021315502            3 
 3027000    0.7577144   -7.3847481     790.2229  0.021754842  0.021309262            5 
 3028000    0.7621424   -7.3440567    790.69846  0.021760746  0.021303003            7 
 3029000   0.77068329   -7.3748376    788.44446   0.02169155  0.021296752           11 
 3030000   0.77573445   -7.3338379    789.35995   0.02170957  0.021290518            6 
 3031000   0.76416251   -7.3495102    790.59053   0.02173624   0.02128431            3 
 3032000   0.77533614   -7.3499914    789.31135  0.021693914  0.021278108            7 
 3033000   0.75769115   -7.3827175    790.79008   0.02172739  0.021271875            4 
 3034000   0.77015514   -7.4014874    791.46696   0.02173882  0.021265638            7 
 3035000   0.76803125    -7.374176    789.80814   0.02168611  0.021259407           13 
 3036000   0.76028543   -7.3896606    789.82987  0.021679564  0.021253191            8 
 3037000    0.7642362   -7.4010578    792.43377  0.021743875  0.021246961           11 
 3038000   0.75456967   -7.3887933    792.30405  0.021733159  0.021240752            7 
 3039000   0.77490357   -7.3560817    791.17656  0.021695091  0.021234554            6 
 3040000    0.7625277   -7.3896466    790.54403  0.021670615   0.02122837            3 
 3041000   0.76665752   -7.3595838    790.53078  0.021663125  0.021222161            8 
 3042000   0.76198772   -7.3611373    791.81194  0.021691101  0.021215956            6 
 3043000   0.76303927   -7.3422793    791.73353  0.021681825  0.021209764            4 
 3044000   0.75663379   -7.3644929    790.55683  0.021642489   0.02120359            3 
 3045000   0.76445917   -7.3807611     792.4592  0.021687444  0.021197453            3 
 3046000   0.74842537   -7.3363545    793.06593  0.021696923  0.021191329            4 
 3047000   0.75842853   -7.3734197    793.34666   0.02169748  0.021185177           19 
 3048000   0.76807419   -7.3938586    791.21601  0.021632109  0.021179022            5 
 3049000   0.77600658   -7.3964859     791.0399  0.021620201  0.021172835           11 
 3050000    0.7836474   -7.3747727    793.06745   0.02166851  0.021166669           12 
 3051000   0.75867479   -7.3533593    793.26739  0.021666869  0.021160509            4 
 3052000   0.77531271   -7.3410647    791.93402  0.021623362  0.021154388            7 
 3053000   0.75901151   -7.3695247    791.99859  0.021618042  0.021148261            8 
 3054000   0.76726379   -7.3762834    793.46066  0.021650858  0.021142109            4 
 3055000   0.76524398   -7.3677262    793.05389  0.021632676  0.021135969            7 
 3056000   0.76373753   -7.3539437     793.3298  0.021633121  0.021129842            6 
 3057000   0.76680845   -7.3485613    793.95945  0.021643208  0.021123747            4 
 3058000   0.78158988   -7.3763873    792.88733  0.021606914  0.021117651            6 
 3059000   0.77173992   -7.3419061     793.1281   0.02160641  0.021111552            7 
 3060000    0.7475988   -7.3807472    792.86047  0.021592061  0.021105406            5 
 3061000   0.76883896   -7.3536605    792.34652  0.021571015  0.021099257            8 
 3062000   0.76538625   -7.3551572    793.40231  0.021592704  0.021093119            6 
 3063000   0.76142814   -7.3893123    792.31327  0.021556025  0.021086962           17 
 3064000   0.76376193    -7.360514    794.17095  0.021599515  0.021080802            3 
 3065000   0.75499365   -7.3787157    792.20622  0.021539049  0.021074671            6 
 3066000   0.75829628   -7.3767707    794.20825  0.021586439  0.021068526            8 
 3067000   0.75434804   -7.4076602    794.81355  0.021595847  0.021062359           11 
 3068000   0.75311981    -7.385822    792.35077  0.021521914  0.021056193            6 
 3069000   0.74199845   -7.4040601    793.22435  0.021538621  0.021050024           10 
 3070000   0.75871108   -7.3659765    791.90148  0.021495697  0.021043853            3 
 3071000   0.74982954   -7.3620576    792.51086  0.021505233  0.021037716            6 
 3072000   0.75502662   -7.3765007    793.73318  0.021531391  0.021031602            5 
 3073000   0.77454059   -7.3832909    792.80444  0.021499198   0.02102549           10 
 3074000   0.77663836   -7.3631644    794.30992  0.021533017  0.021019377            6 
 3075000   0.75455027   -7.3641222    792.57831  0.021479087  0.021013249            3 
 3076000   0.75798649   -7.3698335    793.74705  0.021503767  0.021007089            5 
 3077000   0.74302957   -7.3562892    793.93552  0.021501883  0.021000967            5 
 3078000    0.7531192   -7.3757777    796.07173  0.021552733  0.020994845            5 
 3079000   0.76064518   -7.3739999    795.76376  0.021537397  0.020988728            7 
 3080000   0.74532176   -7.3800921    793.80578  0.021477429  0.020982616           10 
 3081000   0.75416335    -7.360936    791.72809  0.021414262  0.020976457            8 
 3082000   0.76030399   -7.3871119    794.26682  0.021475958  0.020970305            6 
 3083000   0.76357785   -7.4049384    794.44693   0.02147386   0.02096417            4 
 3084000    0.7673491   -7.4207253    795.16318  0.021486251  0.020958035            2 
 3085000   0.74818108   -7.3986728     792.9061  0.021418317  0.020951901            4 
 3086000     0.754961   -7.3885293    792.13252  0.021390487  0.020945765            8 
 3087000   0.73065124   -7.3457896    794.68946  0.021452582  0.020939641            5 
 3088000   0.75433846   -7.3790554    794.14163  0.021430851  0.020933516            6 
 3089000   0.75278718   -7.3807603    795.12904  0.021450551  0.020927392           18 
 3090000   0.75103525     -7.37447    793.42767  0.021397726  0.020921259           12 
 3091000   0.75705955   -7.3799203    794.29615  0.021414217  0.020915113            7 
 3092000   0.75565887   -7.3798797    793.34801  0.021381738  0.020908975            6 
 3093000   0.76534964   -7.3762316    791.28287  0.021319185  0.020902804            5 
 3094000   0.75466726   -7.3631312    794.23439   0.02139179  0.020896643            4 
 3095000   0.75713221   -7.3938033    794.07431  0.021380569  0.020890486            7 
 3096000   0.76826982   -7.3870479    794.22983  0.021377849   0.02088435            4 
 3097000   0.76079433   -7.3885992    794.19859  0.021370105  0.020878228            7 
 3098000   0.75714805   -7.4141812    792.79423  0.021325431  0.020872094            4 
 3099000   0.72984362   -7.3932871    794.94433  0.021376367  0.020865922           13 
 3100000    0.7569679   -7.3644797    793.93395  0.021342311   0.02085977           11 
 3101000   0.76172783   -7.3616003    792.85492  0.021306431   0.02085361           10 
 3102000   0.76042531   -7.3903946    792.66016   0.02129433  0.020847459            4 
 3103000   0.74924017   -7.4022767    792.87202  0.021293158  0.020841275            6 
 3104000    0.7477655   -7.4029062    794.94273   0.02134189  0.020835108            9 
 3105000   0.75286588   -7.3898267    793.66397  0.021300697  0.020828938            6 
 3106000   0.76412084   -7.3694724    794.96129  0.021328646  0.020822754            7 
 3107000   0.75799032   -7.3725731    796.11931  0.021352841  0.020816613           17 
 3108000   0.74976941   -7.3929556    794.14505  0.021293036  0.020810488            6 
 3109000   0.76705231   -7.3641651    795.22167  0.021315044  0.020804353           11 
 3110000   0.76226962   -7.3754769    794.62698  0.021292256  0.020798231            6 
 3111000   0.74434689   -7.3764132    794.01878   0.02126912  0.020792108            9 
 3112000   0.75662147   -7.3786533    794.88968  0.021285606  0.020785993            4 
 3113000    0.7568654   -7.4167716     792.7679   0.02122197  0.020779865            8 
 3114000   0.77082904   -7.3985685    794.82284  0.021270147  0.020773711            5 
 3115000   0.75479394   -7.3930971     797.2019  0.021326964  0.020767587            7 
 3116000   0.74865268   -7.4008426    793.79917  0.021229118  0.020761465            6 
 3117000   0.75405153   -7.3974775    794.42353  0.021238999  0.020755342            3 
 3118000   0.75203363   -7.4000519     793.9279  0.021218941  0.020749214           13 
 3119000   0.76211391   -7.3911407    795.33949  0.021249853  0.020743085            9 
 3120000   0.73049624   -7.3953375    794.36814  0.021217098   0.02073696            8 
 3121000   0.74895593   -7.3870243    794.05483  0.021201934  0.020730825           11 
 3122000   0.75299864   -7.3853232    794.78418  0.021214611  0.020724685            8 
 3123000   0.73516167   -7.3902677    794.94495  0.021212108  0.020718536            4 
 3124000   0.73579977   -7.3972591    793.79189   0.02117456   0.02071241            3 
 3125000   0.74993281   -7.4354357    793.25665  0.021153511  0.020706257            9 
 3126000   0.76380696   -7.4102259    792.39244  0.021123706  0.020700122            8 
 3127000   0.74350406   -7.3994905    796.10744  0.021215953  0.020693994            8 
 3128000   0.75151526   -7.4049398    795.68135   0.02119782  0.020687873            5 
 3129000   0.74334482   -7.3999418    791.94632  0.021091571  0.020681737           11 
 3130000   0.74410444   -7.4009392     794.7116  0.021158456  0.020675613           15 
 3131000    0.7464749    -7.398708     796.1272  0.021189375  0.020669495            8 
 3132000   0.75142733   -7.3948373    794.72008   0.02114517  0.020663376            5 
 3133000   0.75127053   -7.3944371    795.96438  0.021171518   0.02065729            7 
 3134000    0.7474076   -7.3976083    795.62126  0.021155639  0.020651198            3 
 3135000   0.74458518   -7.3747541     795.9207   0.02115685  0.020645105            5 
 3136000   0.74460096   -7.3825286    795.77597  0.021146258  0.020639028            8 
 3137000   0.75279702   -7.4024402    796.24892  0.021152081  0.020632956            4 
 3138000   0.75105014   -7.3950889    795.45965   0.02112438  0.020626921            4 
 3139000   0.75856294    -7.369789    795.31697  0.021113862  0.020620869           13 
 3140000   0.75260204   -7.4252501    795.72154  0.021117875  0.020614796            7 
 3141000   0.73795228   -7.3696896     797.4786  0.021157768  0.020608729            3 
 3142000   0.75272054   -7.4168592     794.9338   0.02108354  0.020602646           10 
 3143000   0.75469516   -7.4064919    796.63031  0.021121813  0.020596578            6 
 3144000   0.75898735   -7.4429493     795.8843  0.021095322  0.020590525            8 
 3145000   0.75599005   -7.4150661    794.61506  0.021054983  0.020584472            9 
 3146000   0.74245439     -7.40634    796.21586  0.021090694  0.020578416            4 
 3147000   0.73573591   -7.3951593     797.8761  0.021127955  0.020572375           11 
 3148000   0.74623257   -7.3881121    796.97948  0.021097508  0.020566329            9 
 3149000   0.73005749   -7.4087229    798.52333  0.021131664  0.020560296            4 
 3150000   0.74618009    -7.415278    797.53694  0.021098861  0.020554245            7 
 3151000   0.74689554   -7.4089711    798.42117   0.02111555  0.020548229            7 
 3152000   0.75430588   -7.4309369    797.22819   0.02107731  0.020542203           10 
 3153000   0.74435455   -7.4280453    798.29385  0.021098791  0.020536185            5 
 3154000   0.76543103   -7.4354035    797.37854  0.021067917  0.020530173            9 
 3155000   0.74858029   -7.4187398    799.07527  0.021106056  0.020524165            6 
 3156000   0.75068198    -7.416752    798.33097  0.021079715  0.020518163            7 
 3157000   0.76002438   -7.4229131    796.39142  0.021021841  0.020512152           10 
 3158000   0.74516629    -7.411263    799.07256  0.021085934  0.020506163            8 
 3159000   0.74732569   -7.4256108    798.91125  0.021075004  0.020500164            4 
 3160000   0.74436894   -7.4263931    796.84592  0.021013869   0.02049419            8 
 3161000   0.75456048   -7.4159859    797.78948  0.021032096  0.020488226            8 
 3162000   0.74924886   -7.4219267    799.63548  0.021074095  0.020482256            7 
 3163000   0.74782573    -7.424083    797.76751  0.021018219  0.020476275           11 
 3164000    0.7420783   -7.4113066    799.69247  0.021062275  0.020470283           19 
 3165000   0.74406009   -7.4167841    799.02943  0.021038163  0.020464321           11 
 3166000   0.73852239    -7.383618     799.3715  0.021040522  0.020458351           15 
 3167000   0.72727048   -7.4226503    798.19749  0.021002986  0.020452359           11 
 3168000   0.74363442   -7.4103409    797.71954  0.020983784  0.020446372            5 
 3169000   0.71693545   -7.4450571    797.43602  0.020969707   0.02044037            7 
 3170000   0.75012866   -7.4150595     798.0543  0.020979345  0.020434375           13 
 3171000     0.757141   -7.4080888    796.05852  0.020920281  0.020428383            5 
 3172000   0.72960611   -7.4082949    799.11884  0.020994085    0.0204224            4 
 3173000   0.73895609   -7.4222854    798.10218  0.020960767  0.020416416            8 
 3174000   0.74143817   -7.3899048    798.28384  0.020958933  0.020410434           13 
 3175000   0.72856083   -7.4028841    797.33295  0.020927374  0.020404448           16 
 3176000   0.74783972   -7.4026653    797.91095  0.020935951  0.020398467           10 
 3177000   0.74662638   -7.4140941    797.38716  0.020915622   0.02039249            9 
 3178000   0.74355595   -7.4305827    798.65747   0.02094235  0.020386499            5 
 3179000     0.747671   -7.4319007    797.95964   0.02091747  0.020380498           11 
 3180000    0.7448054   -7.4347514    799.05193  0.020939516   0.02037449            7 
 3181000   0.73128467   -7.4242709    797.89125  0.020902527  0.020368479            9 
 3182000   0.74025222   -7.4132865    797.14307  0.020876364  0.020362492            5 
 3183000   0.74581495   -7.4351382    801.10604  0.020973558  0.020356516            6 
 3184000   0.73550277    -7.386892    799.84833  0.020934054  0.020350551            5 
 3185000   0.73802013   -7.3945685    801.04714  0.020958847   0.02034458            4 
 3186000   0.72034694   -7.4302261    798.99409  0.020898569  0.020338611            8 
 3187000   0.73538665   -7.4054767    799.14587   0.02089598  0.020332616            5 
 3188000   0.74364058   -7.4195098    798.87842  0.020882435  0.020326629            4 
 3189000   0.74138294   -7.4018584    798.29252  0.020860576  0.020320631            7 
 3190000   0.72948606   -7.4065276    796.55085  0.020808538  0.020314625            6 
 3191000   0.72922542   -7.4316514    797.87822  0.020836682  0.020308613            4 
 3192000   0.72554104   -7.4067465    798.34517  0.020842345   0.02030259            9 
 3193000   0.72929924   -7.4034516    797.56606  0.020815483   0.02029656            5 
 3194000   0.75224103   -7.4287539    798.34968  0.020829411  0.020290527           13 
 3195000   0.74516386   -7.4165693    799.78558  0.020860344  0.020284506           11 
 3196000   0.74697856   -7.4287395    797.32751  0.020789724  0.020278474           10 
 3197000   0.73709611   -7.4131964    797.55128  0.020789054  0.020272449           14 
 3198000    0.7428834   -7.4166939    798.93142  0.020818517   0.02026644           23 
 3199000   0.74552221   -7.4450738    798.44823  0.020799422  0.020260402            5 
 3200000   0.74733211   -7.4282269    797.66507  0.020772528  0.020254362            5 
 3201000   0.73044222   -7.4183879    797.80199  0.020769603  0.020248311            4 
 3202000   0.73677867   -7.4086967    799.91396  0.020818081  0.020242285            7 
 3203000   0.75979685   -7.4125775     797.6323  0.020752219   0.02023625            3 
 3204000   0.72948147   -7.4006906    798.42102  0.020766256  0.020230211            8 
 3205000   0.72504544   -7.4263525    798.09068  0.020751188  0.020224209           15 
 3206000   0.73334442    -7.433179    799.27637  0.020775535  0.020218167            4 
 3207000   0.74559822   -7.4323321    796.47045  0.020696145  0.020212141            5 
 3208000   0.73946506   -7.4346854    799.27405  0.020762522  0.020206088            5 
 3209000   0.72569882   -7.4318141    797.33848  0.020705788  0.020200055            4 
 3210000   0.73618603   -7.4462217    796.30304  0.020672457  0.020194029            4 
 3211000   0.73627084   -7.4321899    796.96757  0.020683265  0.020187998            5 
 3212000   0.74844212   -7.4014931    799.73019    0.0207485  0.020181975            5 
 3213000   0.74282328   -7.4120853    798.50383  0.020710235  0.020175957            4 
 3214000   0.73025383   -7.4204431    798.83156  0.020712289  0.020169961            5 
 3215000   0.73562954   -7.4155613    797.27948  0.020665616   0.02016397           10 
 3216000    0.7447355   -7.4074834    799.81546  0.020724903  0.020157977            8 
 3217000   0.73524501    -7.426398    797.72897  0.020664412  0.020151968            6 
 3218000   0.75025128   -7.4419201    796.21917  0.020618893  0.020145946           14 
 3219000   0.74422056   -7.4267153    797.79646   0.02065332  0.020139913            8 
 3220000   0.71832341   -7.4288005    797.48759  0.020638913   0.02013388            5 
 3221000   0.74667225   -7.4139649    799.97715  0.020696915  0.020127858            3 
 3222000   0.74737397   -7.4441749    797.35357  0.020622635  0.020121845            7 
 3223000   0.72884028   -7.4261496     797.1787  0.020611715  0.020115817            4 
 3224000   0.72793187   -7.4223647    798.16268  0.020630756    0.0201098            6 
 3225000   0.72633056   -7.4219523    797.90948  0.020617816  0.020103799           14 
 3226000   0.73312783   -7.4174828    798.94253  0.020638111   0.02009779            6 
 3227000   0.71728804   -7.4586102    798.22792  0.020613261  0.020091766            7 
 3228000   0.73477533   -7.4235497    798.25001  0.020607445  0.020085751            9 
 3229000   0.72134658   -7.4382624    797.81964  0.020589957  0.020079723            5 
 3230000   0.73274044   -7.4347529    797.77244  0.020582364  0.020073697            6 
 3231000    0.7313731   -7.4037327    799.38813  0.020617666  0.020067697           11 
 3232000   0.72075136    -7.448308    799.81954   0.02062241  0.020061704            8 
 3233000   0.73021902   -7.4272284    800.02093  0.020621222  0.020055711            5 
 3234000   0.75748212   -7.4357613    799.38413  0.020598437  0.020049731            5 
 3235000   0.72784779   -7.4511612    797.61814  0.020546578  0.020043713            8 
 3236000   0.72925828   -7.4401347    800.75901  0.020621112  0.020037721            7 
 3237000   0.74081359    -7.436885    800.16072  0.020599339  0.020031745            8 
 3238000    0.7491496   -7.4043844     800.8769  0.020611409  0.020025792            9 
 3239000   0.73485114   -7.4242904    799.75176  0.020576098  0.020019841            5 
 3240000   0.73212983   -7.3979807     799.7203  0.020568938  0.020013872            5 
 3241000   0.72920361   -7.4380703    800.83246  0.020591187  0.020007925           11 
 3242000   0.73045925   -7.4185149     801.0156  0.020589543  0.020001976            5 
 3243000   0.73455761   -7.4520369    799.16969  0.020535761  0.019996022            8 
 3244000   0.72106864   -7.4156999    798.03965  0.020500402  0.019990054            4 
 3245000   0.73631406   -7.4421336    799.29551  0.020526336  0.019984056            9 
 3246000    0.7363534   -7.4571218    799.29387   0.02051997  0.019978051            9 
 3247000   0.73122322   -7.4680289    799.73792  0.020525047  0.019972026           14 
 3248000   0.71330548   -7.4485718    797.74135  0.020467502  0.019966027           18 
 3249000   0.73152874   -7.4287291    799.54758   0.02050753  0.019960018            8 
 3250000   0.74515481   -7.4598056    799.14768  0.020490966  0.019954022            4 
 3251000   0.72787824   -7.4542822    799.09109  0.020483213  0.019948013            5 
 3252000   0.71911033   -7.4550777     798.2511  0.020455389  0.019942015            7 
 3253000   0.73318416   -7.4354175    799.22334  0.020474007  0.019936035           10 
 3254000   0.72052013   -7.4539639    797.51829   0.02042405  0.019930028            9 
 3255000   0.70969589   -7.4570316    799.15628   0.02045971  0.019924009            4 
 3256000   0.72082489   -7.4604458    798.80888  0.020444535  0.019918027            7 
 3257000   0.73229177   -7.4296513     799.8806  0.020465679  0.019912058           16 
 3258000   0.72250781   -7.4377883    800.69822  0.020480311  0.019906108           18 
 3259000   0.72567215   -7.4521963    801.25616  0.020488293  0.019900168            5 
 3260000   0.73051515   -7.4399573    800.62979  0.020465997  0.019894243           16 
 3261000   0.74879306   -7.4141464    799.24601  0.020424359  0.019888322            8 
 3262000   0.73430906    -7.461293    800.15227   0.02044125  0.019882391            5 
 3263000   0.72455635   -7.4462205    799.60898   0.02042111  0.019876442            4 
 3264000    0.7377924   -7.4163105    799.63365  0.020415483  0.019870498            6 
 3265000   0.73653434   -7.4570991    799.01266  0.020393381  0.019864561            4 
 3266000   0.73440219   -7.3906207    801.26688  0.020444654  0.019858634            5 
 3267000   0.73913585   -7.4605922    799.71368  0.020398778  0.019852703            8 
 3268000   0.73494006   -7.4342844    801.18354  0.020430017  0.019846779            9 
 3269000    0.7256623   -7.4359472    799.65544  0.020384813  0.019840841            5 
 3270000   0.73949415   -7.4479772    801.40383  0.020423135  0.019834909            5 
 3271000   0.73760273   -7.4427142    802.00955  0.020432323  0.019828986            6 
 3272000   0.71694173   -7.4765733    800.34383  0.020383655  0.019823066            5 
 3273000   0.73158469   -7.4226523    802.08587  0.020421781  0.019817148            6 
 3274000   0.74162012   -7.4574642    799.97662  0.020361857  0.019811236           11 
 3275000   0.73471096   -7.4509045    800.19956  0.020361312  0.019805334            5 
 3276000   0.74137939   -7.4508374    799.70859  0.020342607  0.019799452            3 
 3277000   0.70583325   -7.4350357    801.58762  0.020384183   0.01979358            6 
 3278000   0.72901696    -7.423801      801.874  0.020385245  0.019787709            6 
 3279000   0.73808404   -7.4178839    801.07261  0.020358661  0.019781847            4 
 3280000   0.73184363   -7.4504558    801.74892  0.020369637  0.019775986            6 
 3281000   0.71533843    -7.437713    802.11138  0.020372635  0.019770109            8 
 3282000   0.72094032   -7.4149334    802.18092  0.020368193  0.019764254            5 
 3283000   0.72607358   -7.4504095    800.78801  0.020326632  0.019758396           10 
 3284000   0.71172609   -7.4694627    803.06909  0.020378327   0.01975252            4 
 3285000   0.74225161   -7.4270948    803.76207  0.020389702  0.019746669            5 
 3286000   0.70421489   -7.4534689    802.24834  0.020345109  0.019740828            5 
 3287000   0.73011789   -7.4482739    801.73681  0.020325951   0.01973497            7 
 3288000   0.72064228   -7.4412026     801.8662  0.020323048  0.019729105            5 
 3289000   0.73477846   -7.4562729    801.04847  0.020296151  0.019723245            9 
 3290000   0.73463532    -7.457179    800.36991  0.020272794  0.019717385            6 
 3291000    0.7165447   -7.4680339    802.20437  0.020313085  0.019711515            5 
 3292000   0.73198149   -7.4654719    798.76243  0.020219786  0.019705609            9 
 3293000    0.7205217   -7.4490639    802.18208  0.020300184  0.019699711            3 
 3294000   0.72758015   -7.4269753    802.30688  0.020297179   0.01969385            3 
 3295000   0.73140565   -7.4404659    802.94794  0.020307232  0.019687992            9 
 3296000   0.72826195   -7.4116588    801.77039  0.020271298  0.019682135            4 
 3297000   0.72020504   -7.4631429     801.3674  0.020254964  0.019676264            4 
 3298000   0.72872915   -7.4570171    801.18593  0.020244237  0.019670376            3 
 3299000   0.73864859   -7.4793248    800.79151  0.020228138  0.019664509            6 
 3300000    0.7081422   -7.4952111    800.40819  0.020212328  0.019658612            5 
 3301000   0.71807815    -7.469435    802.52555  0.020259658  0.019652698            6 
 3302000   0.71820708    -7.470799    802.49522  0.020252757  0.019646823            8 
 3303000   0.72908716   -7.4580175    801.71793  0.020227014  0.019640942            8 
 3304000   0.71976759   -7.4642998    801.82053   0.02022348  0.019635074            7 
 3305000   0.71714528   -7.4589122    800.71497  0.020189485  0.019629217            3 
 3306000   0.71844538     -7.48987    800.63545  0.020181374  0.019623341            6 
 3307000   0.71547606   -7.4451361    802.55974  0.020223761  0.019617473            5 
 3308000   0.73499356   -7.4609729    802.52058  0.020216661  0.019611581            7 
 3309000   0.73621909   -7.4479782    804.72522  0.020266073  0.019605702            4 
 3310000   0.72026839   -7.4481352    802.25777  0.020197829  0.019599815            6 
 3311000   0.72277757   -7.4625253    804.37279  0.020244961  0.019593953            8 
 3312000   0.72351313   -7.4668599     801.3932  0.020163879  0.019588057            5 
 3313000   0.72658522   -7.4491303    800.68305   0.02013993   0.01958215            6 
 3314000   0.72621963   -7.4670751    803.40155  0.020202212  0.019576257           16 
 3315000   0.71152094    -7.443671    801.81116  0.020156138  0.019570379           30 
 3316000   0.71484432   -7.4524862     803.4142  0.020190345  0.019564493            9 
 3317000   0.70150883   -7.4708214    800.69046  0.020115829  0.019558615           11 
 3318000   0.72000721    -7.481954    802.08447  0.020144778  0.019552735            5 
 3319000      0.73986   -7.4649845      803.106  0.020164357  0.019546828            8 
 3320000   0.73234766   -7.4936851    801.13893  0.020108909  0.019540936            5 
 3321000   0.72566941    -7.454426    801.15541  0.020103267  0.019535047           10 
 3322000   0.71410896   -7.4613606     802.9649  0.020142607  0.019529164            5 
 3323000   0.72362538   -7.4781618    801.70405  0.020104926  0.019523289           13 
 3324000   0.72842678   -7.4780445    799.84324  0.020052227  0.019517388            5 
 3325000   0.72060801   -7.4607071    803.20637  0.020130485  0.019511501            8 
 3326000   0.71735759   -7.4755087    801.29594  0.020076567   0.01950563           15 
 3327000    0.7333321   -7.4737737    800.50885  0.020050818   0.01949977           18 
 3328000    0.7150993   -7.4392058    801.94627  0.020080786  0.019493896           11 
 3329000   0.72612414   -7.4629377     802.2803  0.020083116  0.019488007           11 
 3330000   0.71725718   -7.4601015    801.65062  0.020061327  0.019482114            6 
 3331000   0.73605817   -7.4795546    801.49357  0.020051375  0.019476232            3 
 3332000   0.72642057   -7.4950905    802.04423   0.02005913  0.019470352           11 
 3333000   0.70764349   -7.4884162    799.74057  0.019995514  0.019464446            7 
 3334000   0.73191877    -7.484147    802.12193  0.020049038  0.019458555            8 
 3335000   0.72562615    -7.511505    801.48903  0.020027212  0.019452644            4 
 3336000   0.72295373   -7.4798216    802.09478   0.02003634  0.019446761           11 
 3337000   0.71230269   -7.4454285    802.24052  0.020033976  0.019440869            2 
 3338000   0.70605561   -7.4716156    801.96343  0.020021056  0.019434993            8 
 3339000   0.71686682   -7.4778542    802.23408  0.020021815   0.01942914            8 
 3340000   0.72629157   -7.4779432    803.33148    0.0200432  0.019423281           21 
 3341000   0.71772015   -7.4688924    802.97416  0.020028289  0.019417432            8 
 3342000   0.72335849   -7.4373691    803.47815  0.020034863  0.019411599           13 
 3343000   0.71803978   -7.4675396    802.28741  0.019999188  0.019405773            7 
 3344000   0.69963353   -7.4277375    804.18883  0.020040591  0.019399949           10 
 3345000    0.7132705   -7.4424453     803.7835  0.020024502  0.019394123            7 
 3346000   0.72649027   -7.4643002     802.3961  0.019983964  0.019388317           10 
 3347000   0.72177495   -7.4649437    804.03172  0.020018716  0.019382515            5 
 3348000   0.72874107   -7.4610514    804.00945  0.020012183  0.019376714           21 
 3349000   0.71222245   -7.4642083     804.2246  0.020011561  0.019370921           13 
 3350000   0.71785539   -7.4586765    804.88758  0.020022079  0.019365132           19 
 3351000   0.71421893   -7.4642818     802.7239  0.019962297  0.019359324           12 
 3352000   0.71995183   -7.4741065    804.46156  0.019999542  0.019353515            7 
 3353000   0.72168951   -7.4629986    802.17343  0.019936709  0.019347695            9 
 3354000   0.70780659   -7.4398266    801.95172  0.019925256   0.01934188           16 
 3355000   0.72386355   -7.4557974    802.81318  0.019940715  0.019336078           10 
 3356000   0.72373125   -7.4656753    805.57406  0.020003329  0.019330276           16 
 3357000    0.7169818    -7.472079    805.65341   0.01999934  0.019324491            5 
 3358000    0.6951365   -7.4839612    803.04035  0.019928538  0.019318684           15 
 3359000   0.72031345   -7.4568137     804.2439  0.019952464  0.019312901            7 
 3360000   0.71293571   -7.4683445    802.73653   0.01990914  0.019307104           10 
 3361000     0.687671   -7.4752577    803.02561  0.019910384    0.0193013            9 
 3362000    0.7151173   -7.4827569    802.20019  0.019884002  0.019295506           10 
 3363000    0.7299527   -7.4675299    804.03907  0.019923656  0.019289712           16 
 3364000   0.72633233    -7.483511     802.1807  0.019871698  0.019283922            9 
 3365000   0.72677108   -7.4809477    805.04598   0.01993675  0.019278122           11 
 3366000   0.70565413   -7.4902492    803.83912  0.019900949  0.019272326            7 
 3367000   0.71105413   -7.4748687    804.42278  0.019909484   0.01926653           10 
 3368000   0.70814995    -7.480626    804.17067  0.019897334  0.019260734           12 
 3369000   0.71659282   -7.4899186    804.64381  0.019903132  0.019254943            9 
 3370000    0.7011896   -7.4942659    802.87851  0.019853573  0.019249161            4 
 3371000   0.71541927   -7.4890658     804.1951  0.019880231  0.019243393            7 
 3372000   0.72418713   -7.4643261    805.40323  0.019904192  0.019237618            5 
 3373000    0.7095097   -7.4747138    805.00915  0.019888555  0.019231877            7 
 3374000   0.69973227   -7.4947926     804.8435  0.019878569  0.019226117            5 
 3375000   0.69021272   -7.4739634    806.22552  0.019906803  0.019220364            9 
 3376000   0.71015525   -7.4711567    805.14636  0.019874268  0.019214621            6 
 3377000   0.70227213   -7.4798238    805.74413  0.019883134  0.019208877            5 
 3378000   0.72607337   -7.4823357    803.13732   0.01981294  0.019203127           10 
 3379000   0.73568496   -7.4880791    801.35546  0.019763132   0.01919736            5 
 3380000   0.71583031   -7.4798969    806.16775  0.019875931  0.019191581           10 
 3381000   0.71635393   -7.4748282    805.27451  0.019848036  0.019185819            5 
 3382000   0.70876342   -7.4676651    806.59594  0.019874727  0.019180064            8 
 3383000   0.71220101   -7.4685099    805.49761  0.019841797  0.019174294            7 
 3384000   0.70648384   -7.4697638    805.63281  0.019839264  0.019168532            9 
 3385000   0.71819474   -7.4730008    805.36829  0.019826891  0.019162789           21 
 3386000   0.71603999   -7.4749922    804.91957  0.019809991  0.019157051           12 
 3387000   0.70175756   -7.4580057    804.11734  0.019784405  0.019151309           12 
 3388000   0.71588685   -7.4838339    805.42629  0.019810761  0.019145559            7 
 3389000   0.68784285   -7.4707196    804.64825  0.019785784  0.019139805            8 
 3390000   0.70692526   -7.4921799    804.34656  0.019772531  0.019134062            4 
 3391000   0.69819967   -7.4793681    803.37579  0.019742843  0.019128298           12 
 3392000   0.71232823   -7.4955534    805.42316  0.019787322   0.01912252           19 
 3393000   0.68729796    -7.505754    805.63969  0.019786808  0.019116728           10 
 3394000   0.70967257   -7.5012799    803.30882  0.019723748  0.019110931           14 
 3395000   0.71320994   -7.5100043    803.83422  0.019730835  0.019105126           17 
 3396000   0.71773672   -7.5385537    802.04644  0.019681155  0.019099306           10 
 3397000   0.71262293   -7.5158803    804.56706  0.019737196  0.019093511            8 
 3398000   0.70630372   -7.5224742    803.91291  0.019715345  0.019087738            7 
 3399000    0.7250446   -7.5125798    804.13857  0.019715077  0.019081975            7 
 3400000   0.70614621   -7.5381014    804.84887  0.019726688  0.019076222           12 
 3401000   0.71444948   -7.5198058    804.52938  0.019713059  0.019070425           19 
 3402000    0.7144437   -7.5111645    801.31993  0.019628648  0.019064627            9 
 3403000   0.72000916    -7.517275    803.67598  0.019680575  0.019058822            6 
 3404000   0.71308211   -7.4973392    801.16832  0.019613404  0.019053024            7 
 3405000   0.72101466   -7.5066578    804.11513  0.019679763  0.019047228            7 
 3406000   0.72176397   -7.5007766    803.44941  0.019657697  0.019041443            8 
 3407000   0.71741211   -7.4965945    805.59068  0.019704302  0.019035665            9 
 3408000    0.7133444   -7.5278624    804.40448  0.019669515  0.019029925           17 
 3409000   0.69794923   -7.4907686    804.88222  0.019675423  0.019024176            9 
 3410000   0.70577864   -7.4733596    805.18004  0.019676932  0.019018434           19 
 3411000   0.71932218   -7.5201673     804.1314  0.019645544  0.019012678           16 
 3412000   0.69769798   -7.5095255    803.90255  0.019634197    0.0190069           10 
 3413000   0.70926622   -7.5225498    804.46487  0.019642174  0.019001131           11 
 3414000   0.70882598   -7.5153825    804.78923  0.019644338  0.018995375            8 
 3415000   0.68961088   -7.5260666    805.85243   0.01966453  0.018989639            9 
 3416000   0.71574647   -7.5096144    804.30224  0.019620956  0.018983905            6 
 3417000   0.72417688   -7.5184335    805.69891  0.019649276  0.018978162           13 
 3418000   0.69819883   -7.5082743    804.96994  0.019625754   0.01897241            8 
 3419000   0.70594823   -7.5227533    805.53907  0.019633886  0.018966676            7 
 3420000   0.71340335   -7.4855736    804.92475  0.019613176  0.018960957            4 
 3421000   0.69216886    -7.509551    803.26901   0.01956711  0.018955243            7 
 3422000   0.70034267   -7.4976761     805.8406  0.019624016  0.018949525           10 
 3423000   0.70100505   -7.5234559    805.72835   0.01961555  0.018943816           14 
 3424000   0.70419787   -7.5120505    805.48608  0.019603925  0.018938092            5 
 3425000   0.71952952   -7.5119848    806.34949  0.019619209  0.018932379           16 
 3426000   0.69452261   -7.5159852    804.37739  0.019565513  0.018926649           11 
 3427000   0.71015543   -7.5162479    805.60461  0.019589646  0.018920921            5 
 3428000   0.70423452   -7.5047219    804.69494  0.019561818  0.018915195            6 
 3429000    0.7044509   -7.5368889    805.29386  0.019570668  0.018909453            7 
 3430000     0.706179   -7.5224766     803.8242  0.019529256  0.018903724            8 
 3431000   0.71655262   -7.5082411    805.50846  0.019564472  0.018897969            7 
 3432000   0.70599184   -7.5092039    804.60229  0.019536769  0.018892241            9 
 3433000   0.70097858   -7.5427847    804.19072  0.019521088  0.018886505            6 
 3434000   0.72887614   -7.5178015    804.81221  0.019530485  0.018880769           10 
 3435000   0.70858518   -7.5347113    802.97338  0.019480189  0.018875042           12 
 3436000   0.71214598   -7.5337974    804.39516  0.019509002  0.018869301           11 
 3437000   0.70618401   -7.5136161    804.44703  0.019504583  0.018863591           15 
 3438000   0.70236335   -7.4998964    807.48643  0.019572582  0.018857901            4 
 3439000   0.69975154   -7.5031495    806.62119  0.019545924  0.018852196            5 
 3440000   0.69643342   -7.5249846    804.60389  0.019491373  0.018846492           15 
 3441000   0.71139537   -7.5016891    805.26633  0.019501752  0.018840797            7 
 3442000    0.7091634   -7.5232236    805.30058  0.019496915    0.0188351           10 
 3443000   0.70830746   -7.5189896    804.84776  0.019480292  0.018829411            5 
 3444000   0.69824198   -7.5045307    807.90408  0.019548589  0.018823739            4 
 3445000   0.70926635   -7.5135478    804.90276  0.019470314  0.018818056           12 
 3446000   0.71251732   -7.5210933    805.62234  0.019482065  0.018812368            8 
 3447000   0.69572079    -7.518434    805.71067  0.019478548  0.018806684            7 
 3448000    0.7017292   -7.5316435    805.39056  0.019465162  0.018801005            5 
 3449000   0.69248609   -7.4682986    808.45573  0.019533578  0.018795331            5 
 3450000   0.69203635   -7.4963884    807.80172  0.019512119  0.018789677            9 
 3451000   0.68650109   -7.5051755    807.66729  0.019503219  0.018784035           14 
 3452000    0.6974901   -7.4949427    807.89031  0.019502953  0.018778369            8 
 3453000   0.68891411   -7.5163853    806.57428  0.019465544  0.018772693            5 
 3454000   0.70281427    -7.496009    806.51063  0.019458373  0.018767034            6 
 3455000    0.7093368   -7.5061156     807.7359  0.019482294   0.01876137            3 
 3456000   0.69946482   -7.5030745     805.6334   0.01942596  0.018755708            7 
 3457000   0.69321772    -7.525612    807.77977   0.01947208  0.018750062            5 
 3458000   0.69554925   -7.5042041     807.6042  0.019462218  0.018744417            3 
 3459000   0.70881508   -7.4997052    806.50874    0.0194302  0.018738778            6 
 3460000    0.6893458   -7.5013445    807.82467  0.019456278  0.018733139            8 
 3461000   0.68210057   -7.5370849    807.11366  0.019433537  0.018727487            6 
 3462000   0.69804818   -7.4832802    806.56984  0.019414833  0.018721825            8 
 3463000   0.70932917   -7.5327738    804.60351   0.01936191  0.018716177            7 
 3464000   0.69717855   -7.5359271    804.55564  0.019355168  0.018710527            6 
 3465000   0.68798263   -7.5138149    807.10162  0.019410813  0.018704874            4 
 3466000   0.70678952   -7.5250544     806.4629  0.019389856  0.018699214           11 
 3467000   0.71118738   -7.4980378    807.14293  0.019400609  0.018693574            9 
 3468000   0.69198989   -7.5259476    806.27816  0.019374235  0.018687927            7 
 3469000   0.69781942     -7.49735     807.2979  0.019393146  0.018682275            9 
 3470000   0.69534147   -7.4997901    806.13885  0.019359723  0.018676616           10 
 3471000   0.69420264   -7.4838131    807.28881  0.019381754  0.018670973           12 
 3472000   0.71205044   -7.5242373    805.26086  0.019327498  0.018665328           12 
 3473000   0.69117285   -7.5249048    807.25952   0.01936989  0.018659677           25 
 3474000   0.67841269     -7.51804    807.65292  0.019373751  0.018654041           15 
 3475000   0.70555922   -7.4891065    807.80051  0.019371715  0.018648422           12 
 3476000   0.69948398   -7.5097106    807.52792  0.019359607  0.018642818           11 
 3477000   0.68456206   -7.4789781    807.69323  0.019358001  0.018637208           17 
 3478000   0.69519592   -7.5206187    807.34103  0.019343996  0.018631605           14 
 3479000   0.68923505   -7.5279123    806.43996  0.019316852  0.018625973            7 
 3480000   0.69276573   -7.5344041    808.38664  0.019357918  0.018620361            6 
 3481000   0.69108687   -7.5254919    806.41393  0.019305131  0.018614729            6 
 3482000   0.70123361   -7.5370374    807.94058  0.019336123  0.018609114           12 
 3483000   0.69519506   -7.5320324    807.34642  0.019316356  0.018603467            9 
 3484000   0.67078949   -7.5248573    807.03114  0.019303271   0.01859783            7 
 3485000    0.7079552   -7.5630038    804.15608  0.019228983  0.018592181            6 
 3486000   0.68948258   -7.5422039    806.41589  0.019277488  0.018586547            6 
 3487000    0.6981905   -7.5089311    806.87405  0.019282909  0.018580937            4 
 3488000   0.68959607   -7.5017118    807.75051  0.019298321  0.018575327            6 
 3489000   0.69665615   -7.5115496    805.31637  0.019234651  0.018569726            9 
 3490000    0.7014502   -7.5603716    806.44196  0.019256016  0.018564129           11 
 3491000   0.68290408   -7.5383155    806.28912  0.019246852  0.018558525            4 
 3492000   0.68819426   -7.5245423    808.79826  0.019301218  0.018552934           10 
 3493000   0.67573062   -7.5298398    807.01759  0.019253211  0.018547357            7 
 3494000   0.69231952   -7.5422815    806.43771   0.01923387  0.018541766            7 
 3495000   0.70773611   -7.5152335     810.3607  0.019321905  0.018536182            9 
 3496000   0.69275475    -7.537266     806.8031  0.019231576  0.018530597            5 
 3497000   0.68829336    -7.527774    808.57779  0.019268368  0.018525017           10 
 3498000   0.68462817   -7.5142164    807.53653  0.019238054  0.018519428           16 
 3499000   0.68259995   -7.5364562    807.64615  0.019235166  0.018513844           45 
 3500000   0.68737121   -7.5225882    806.56593  0.019203951  0.018508227           21 
 3501000   0.69418099   -7.5265302    808.78256  0.019251227   0.01850263           10 
 3502000   0.69486028   -7.5328374    807.02203  0.019203837  0.018497035            5 
 3503000   0.69640929   -7.5326272    807.63519  0.019212941  0.018491429           12 
 3504000   0.69194079   -7.5345181    806.93038  0.019190696  0.018485825           14 
 3505000   0.67377374   -7.5404934    805.71385  0.019156297  0.018480231           20 
 3506000   0.68050718   -7.5257672    806.72111  0.019174774  0.018474632           11 
 3507000   0.69177201   -7.5515222     807.1526   0.01917956  0.018469033           18 
 3508000   0.69574978   -7.5244683    807.57148  0.019184043  0.018463451           15 
 3509000   0.69909655     -7.55221    806.95218  0.019163869  0.018457853            5 
 3510000   0.69229259   -7.5469446    807.83085   0.01917927  0.018452258            8 
 3511000   0.68628681   -7.5200628    806.20109  0.019135125  0.018446677           13 
 3512000   0.69277666   -7.5350481    807.53801  0.019161399  0.018441088           11 
 3513000   0.67627455   -7.5293834    807.47271  0.019154396  0.018435494           27 
 3514000    0.6928507   -7.5447821    805.73035  0.019107625  0.018429894            3 
 3515000   0.69165404   -7.5541905    806.06369  0.019110092  0.018424295            9 
 3516000   0.69482978    -7.519509    807.59872  0.019141039  0.018418688            6 
 3517000    0.6753578    -7.521343    808.51432  0.019157291  0.018413089            7 
 3518000   0.68988996   -7.5284922    806.32276  0.019099933  0.018407495           12 
 3519000   0.70461083    -7.543923    805.98601   0.01908653  0.018401889            9 
 3520000   0.69421537   -7.5440342    806.17134  0.019085496  0.018396273           11 
 3521000   0.69157463   -7.5555234    806.34391  0.019084159  0.018390642            4 
 3522000   0.68582136    -7.560716    805.81001  0.019066109  0.018385014           11 
 3523000   0.70462445    -7.570238    807.19084  0.019093359  0.018379392            6 
 3524000   0.68333468   -7.5557068    806.64403   0.01907501  0.018373777            7 
 3525000    0.6910598   -7.5516519    807.32889  0.019085789  0.018368174           21 
 3526000   0.69229486   -7.5318113    806.81677  0.019068273  0.018362573            8 
 3527000   0.69662938   -7.5489775    805.46112  0.019030836  0.018356982            7 
 3528000   0.68535138   -7.5538832    808.39707  0.019094791  0.018351395            4 
 3529000    0.6754214    -7.545678    808.94895  0.019102412  0.018345827           13 
 3530000   0.68374395    -7.530764    807.97466     0.019074  0.018340258            9 
 3531000   0.68069692    -7.550984    807.50671  0.019057555  0.018334683            7 
 3532000   0.68092364   -7.5210308    805.69908   0.01900951  0.018329102           13 
 3533000   0.68216109   -7.5483555    807.90055  0.019056056  0.018323526            6 
 3534000   0.69179941   -7.5086203    807.11986  0.019032255  0.018317962           12 
 3535000    0.6868102   -7.5528992    808.51067  0.019059657  0.018312377            4 
 3536000   0.67270914   -7.5367728    806.86077  0.019015384   0.01830679            9 
 3537000   0.67505654   -7.5506944    807.69768  0.019029726  0.018301225            7 
 3538000   0.68862888   -7.5481808    807.26336  0.019014117  0.018295662            7 
 3539000   0.69974303    -7.529599    808.97603  0.019049073  0.018290099            6 
 3540000   0.67683139   -7.5387684    808.01803   0.01902114  0.018284528           11 
 3541000   0.69057835   -7.5357829    808.05816  0.019016713  0.018278977            7 
 3542000   0.69066458   -7.5397001    805.75465  0.018957149  0.018273412           22 
 3543000   0.67688271   -7.5525228    806.16584   0.01896147  0.018267843           15 
 3544000   0.67303085   -7.5310371    808.38188  0.019008227  0.018262267            6 
 3545000   0.67717701   -7.5382333    805.73966  0.018940754  0.018256689            9 
 3546000    0.6875263   -7.5514682    807.31757  0.018972494  0.018251112           16 
 3547000   0.68400659   -7.5571701    808.45738  0.018993924   0.01824553           17 
 3548000   0.68995511   -7.5181514    807.10715  0.018956857  0.018239946            6 
 3549000   0.66909748   -7.5470015    806.37248  0.018934265   0.01823435            5 
 3550000    0.6937786   -7.5657598     805.8086  0.018915695  0.018228743            5 
 3551000   0.68077489   -7.5651577    807.34201  0.018946353  0.018223142            8 
 3552000   0.69194048   -7.5449764    807.51382   0.01894505  0.018217551           15 
 3553000   0.68238502   -7.5520342    807.79742   0.01894637  0.018211969            7 
 3554000   0.66232285   -7.5161926    804.68845   0.01886814  0.018206395            6 
 3555000   0.67306291   -7.5337829    807.13901  0.018920277   0.01820081            8 
 3556000   0.69168419   -7.5437645    807.66976  0.018927394   0.01819523            5 
 3557000   0.69525023   -7.5708259    807.77915  0.018924636  0.018189628            7 
 3558000   0.67781957   -7.5498999    808.63502  0.018939363  0.018184036            4 
 3559000    0.6751895   -7.5580443    807.17989  0.018899969  0.018178468            9 
 3560000   0.68753484   -7.5364901     806.4535  0.018877657  0.018172911            8 
 3561000   0.68427116   -7.5535253    806.80721  0.018880633  0.018167354           14 
 3562000   0.68340358   -7.5483144    807.86059  0.018899976  0.018161802           14 
 3563000   0.67859748   -7.5482207    808.83973  0.018917572  0.018156264            9 
 3564000   0.68353709   -7.5222897    807.06694  0.018870813  0.018150738            7 
 3565000   0.69311411   -7.5672396    806.51868  0.018852704  0.018145211            8 
 3566000   0.68208089   -7.5404578    809.12508  0.018908326  0.018139678            9 
 3567000   0.67817702   -7.5573702     807.8337  0.018872855  0.018134136            9 
 3568000   0.66352147   -7.5574595     808.1313  0.018874516  0.018128607           11 
 3569000   0.67784118   -7.5405895    806.53057  0.018831852  0.018123072            4 
 3570000   0.68559407   -7.5547683    807.14969  0.018841029  0.018117528            4 
 3571000   0.68603299   -7.5379118    808.13791  0.018858814  0.018112007           13 
 3572000   0.66872634   -7.5669666    807.88437   0.01884762  0.018106482           10 
 3573000   0.66755625   -7.5560717    806.36739  0.018806964  0.018100957            9 
 3574000   0.68360228     -7.55963    807.71727  0.018833176   0.01809545           12 
 3575000   0.69544387   -7.5590766    808.19949  0.018839149  0.018089927            6 
 3576000   0.67574634   -7.5600337    807.94594  0.018827972   0.01808439           13 
 3577000   0.68978934   -7.5724593    808.13793  0.018827181  0.018078863           21 
 3578000   0.67541934   -7.5436985    809.01576  0.018842364  0.018073335            8 
 3579000   0.68800383   -7.5535138    809.33911  0.018844629  0.018067815            9 
 3580000   0.67005258   -7.5599462    806.43713  0.018771814  0.018062291            9 
 3581000   0.67263722   -7.5575086    809.82126  0.018845324  0.018056776           15 
 3582000   0.67617826   -7.5726964    806.42543  0.018761061  0.018051254           10 
 3583000   0.68833994   -7.5679024    807.59377  0.018782998  0.018045725            9 
 3584000   0.67286957   -7.5613767    809.03556  0.018811281  0.018040207            7 
 3585000   0.67087213   -7.5554834    807.96563  0.018781163  0.018034692           11 
 3586000   0.68388888    -7.569449    809.48028  0.018811124  0.018029193           14 
 3587000   0.67482046   -7.5563367    807.52509  0.018760457  0.018023677            7 
 3588000   0.68003151     -7.55347    808.68632  0.018782198  0.018018158            9 
 3589000   0.67647218   -7.5696229    807.66128  0.018753164  0.018012642            7 
 3590000    0.6777275    -7.574888     808.6017   0.01876977  0.018007116            6 
 3591000   0.68026431   -7.5979148    807.37572  0.018736093  0.018001594            9 
 3592000    0.6707417   -7.6042032    807.51711  0.018734157  0.017996069            9 
 3593000   0.67877545   -7.5914597    807.40635  0.018726374  0.017990548            6 
 3594000   0.67655268   -7.5793173     807.2093  0.018716595  0.017985029           10 
 3595000    0.6736366   -7.5614438    807.03053  0.018707245  0.017979498            8 
 3596000   0.67573328   -7.5650417    808.30235  0.018731515  0.017973978            7 
 3597000     0.686269   -7.5917199    809.09928  0.018744771   0.01796846           12 
 3598000   0.67354206   -7.5817958    807.61265  0.018705129  0.017962932            5 
 3599000   0.65623681   -7.5621079    807.22455  0.018690945  0.017957422           12 
 3600000    0.6772875   -7.6065115    807.19111  0.018684979  0.017951919           26 
 3601000   0.68321623   -7.5777571    807.74679   0.01869265  0.017946403           10 
 3602000   0.67682584   -7.6117771    808.40609  0.018702714  0.017940891            9 
 3603000   0.67417147   -7.5911043    807.68341  0.018680808  0.017935395            6 
 3604000   0.68106902   -7.5792822    810.61005  0.018743296  0.017929897            6 
 3605000   0.68712448   -7.5704311    807.96442   0.01867694  0.017924416           10 
 3606000   0.67391016   -7.5837347     808.5375  0.018685004  0.017918941           14 
 3607000   0.65715958   -7.5807405    807.88355  0.018664716  0.017913466           19 
 3608000   0.67610474   -7.5902125    808.75487  0.018679667  0.017907988           11 
 3609000    0.6747241   -7.5924454     808.4486  0.018667419  0.017902522           17 
 3610000   0.66832646   -7.5656046    810.54117  0.018710553  0.017897051            8 
 3611000    0.6729504   -7.5687361    807.33291  0.018631333  0.017891583            7 
 3612000   0.66716957   -7.5781611    807.96917  0.018640854    0.0178861            9 
 3613000   0.68188539   -7.5955434     807.4591   0.01862393  0.017880628            6 
 3614000   0.67742512    -7.591892    806.08414  0.018587072  0.017875126            8 
 3615000   0.67475751   -7.5796183    806.99616  0.018602954  0.017869624            8 
 3616000   0.68363067   -7.5979055    807.47844  0.018608924  0.017864134           14 
 3617000   0.68031575   -7.5971319    809.64769  0.018653758  0.017858638           13 
 3618000   0.67853231   -7.5936235     809.2248  0.018638861  0.017853146           19 
 3619000   0.66897197   -7.5975049     809.1878  0.018632859  0.017847668           13 
 3620000   0.67748811   -7.5715605    808.00788   0.01860055  0.017842189            9 
 3621000   0.66408168   -7.5727482    809.95707  0.018640271  0.017836721            8 
 3622000   0.67803745   -7.5553314    809.21982  0.018618163  0.017831268           16 
 3623000   0.69367669   -7.5806316    808.66905  0.018600355  0.017825818            6 
 3624000    0.6660649   -7.5674181    810.36955  0.018634326  0.017820359            8 
 3625000   0.67995279   -7.6161816    808.38696  0.018583608  0.017814906           20 
 3626000   0.66537616   -7.5961695     809.0716  0.018594218   0.01780946           14 
 3627000   0.68053544   -7.5855719    807.36483  0.018549877  0.017804012            6 
 3628000   0.67686229    -7.566279    808.44567   0.01856959  0.017798571           14 
 3629000   0.67893877   -7.5794115    809.89395   0.01859773  0.017793144           11 
 3630000   0.65223937   -7.5544073    808.01904  0.018549565  0.017787723           15 
 3631000   0.67389284   -7.5810007    809.30126  0.018573884  0.017782301            9 
 3632000   0.68329999   -7.5690965    811.65788  0.018622841  0.017776881           13 
 3633000   0.67324761   -7.5644961    809.96631  0.018578913  0.017771463           11 
 3634000   0.67371203      -7.6071    808.70907   0.01854497  0.017766036           17 
 3635000   0.66559346   -7.5877991    808.83437  0.018542741  0.017760612            8 
 3636000   0.67699008   -7.5863632    809.78224  0.018559366  0.017755201           12 
 3637000   0.67898138   -7.5826997     810.8252   0.01857816  0.017749778           15 
 3638000   0.66979861   -7.5615523     809.3167  0.018538499  0.017744364           12 
 3639000   0.66605745   -7.5760137    809.62211  0.018540398  0.017738955           12 
 3640000   0.67595743   -7.5611492    808.39837  0.018507289  0.017733546           25 
 3641000   0.68830206    -7.581081    808.44811  0.018503344  0.017728131           15 
 3642000    0.6735497   -7.5667517    809.91743  0.018531883  0.017722707            8 
 3643000   0.66786203   -7.5840775    809.31673  0.018513056  0.017717281            9 
 3644000   0.66739138   -7.5856805    809.30858  0.018507789  0.017711862           12 
 3645000   0.66720642    -7.585561    810.55687   0.01853125   0.01770645            5 
 3646000   0.66656357   -7.5497921    810.53484  0.018525664  0.017701055            9 
 3647000   0.68003707   -7.5647729    810.99188  0.018531027  0.017695667           13 
 3648000   0.67566393   -7.5612417     809.8077  0.018498897  0.017690278            9 
 3649000   0.65383069   -7.5904394    809.84371   0.01849465   0.01768488           14 
 3650000   0.66418362   -7.5948175    808.76236  0.018464894  0.017679482            6 
 3651000   0.67667138   -7.5819731    810.02508  0.018488658  0.017674086           11 
 3652000   0.65984563   -7.5940624    808.08766  0.018439386  0.017668687            7 
 3653000   0.67540449   -7.5614801    809.87886    0.0184752  0.017663287            7 
 3654000   0.66454625   -7.5906166    811.64996  0.018510535  0.017657894           11 
 3655000   0.67274704   -7.5728837    809.09584  0.018447238  0.017652502           10 
 3656000    0.6622053   -7.5624948     809.3718  0.018448482  0.017647104            8 
 3657000   0.65830431   -7.5897397    810.08412  0.018459669  0.017641711            6 
 3658000   0.67584765   -7.5897677    810.22003  0.018457719  0.017636321            5 
 3659000   0.66210891   -7.5809933    810.19112  0.018452016  0.017630948            6 
 3660000   0.68335458   -7.5717458    809.03113  0.018420563  0.017625568            7 
 3661000   0.67320597    -7.586354    808.56172  0.018404846  0.017620189           11 
 3662000   0.65992277   -7.5723223    809.11431  0.018412396  0.017614783           13 
 3663000   0.67424924   -7.5888982     809.7839  0.018422602  0.017609371            9 
 3664000   0.66157366   -7.5989175    808.20368  0.018381634  0.017603973            7 
 3665000   0.66121181   -7.5870619    808.36332  0.018380248  0.017598572            6 
 3666000   0.67193491   -7.5872594    810.83397  0.018431396  0.017593177            4 
 3667000    0.6648364   -7.6052819    809.12557  0.018387546  0.017587783           11 
 3668000   0.67128681   -7.5803786    807.17569  0.018338234  0.017582374           10 
 3669000   0.66464637   -7.6000654    808.69891  0.018367832  0.017576958            8 
 3670000   0.67493935   -7.5917471    808.47511  0.018357745  0.017571542            9 
 3671000   0.66381276   -7.5805016    809.38778  0.018373463  0.017566123            9 
 3672000   0.66076314   -7.6024569     809.1218  0.018362423  0.017560704            9 
 3673000   0.66563437   -7.6056576     808.0699  0.018333558  0.017555275            7 
 3674000   0.67145551   -7.6172774    809.24926  0.018355318   0.01754986            9 
 3675000   0.65332871   -7.5769449    809.65006  0.018359412  0.017544455            4 
 3676000   0.67217306   -7.5638932    809.32875  0.018347133  0.017539054            6 
 3677000   0.65402596   -7.5666578     809.5938  0.018348151  0.017533655           12 
 3678000   0.66254972     -7.58017    807.09764  0.018286606  0.017528256           21 
 3679000   0.66416138   -7.5989828    807.74327   0.01829626  0.017522873            5 
 3680000   0.66768458   -7.5804347    809.01631  0.018320116  0.017517487           20 
 3681000   0.64592412   -7.5951758    809.30649  0.018321708  0.017512101           23 
 3682000    0.6624495    -7.589739     809.2149  0.018314659   0.01750673           35 
 3683000   0.65978343    -7.602672    808.36551  0.018290468  0.017501347           22 
 3684000   0.66430243   -7.6028832    808.80365  0.018295414  0.017495955           11 
 3685000   0.65782194   -7.5983856     808.5326  0.018284319  0.017490572           14 
 3686000   0.64364724   -7.5896904    809.50617  0.018301369  0.017485173            6 
 3687000   0.66084514    -7.577008    808.22277  0.018267398   0.01747979           11 
 3688000   0.65672691    -7.614203    808.04526  0.018258434  0.017474393            6 
 3689000   0.67176936   -7.6026334    807.23289  0.018235134  0.017468993           10 
 3690000   0.66898121   -7.5803486    808.97117  0.018269448   0.01746359            8 
 3691000   0.65851805   -7.6111156    808.99192  0.018264967  0.017458192            8 
 3692000   0.67189189    -7.595375    809.73083  0.018276698  0.017452804            7 
 3693000   0.66744751   -7.5963669     806.2135   0.01819238  0.017447408           14 
 3694000   0.65795367   -7.5873736    809.98709  0.018272584  0.017442014            9 
 3695000   0.67257166   -7.5902791    809.29232  0.018251969  0.017436635            7 
 3696000   0.65928904   -7.5559303    807.81474  0.018213716  0.017431258            9 
 3697000   0.67428237   -7.5945213    808.20108  0.018217498  0.017425868            5 
 3698000   0.67760686   -7.5955965    807.16077  0.018189129  0.017420486           10 
 3699000   0.65101155   -7.5780607    807.42007  0.018190053   0.01741509            9 
 3700000   0.65357545   -7.5821832    809.01087  0.018220966  0.017409708            4 
 3701000   0.66429827   -7.5815307    809.07506  0.018217488  0.017404337           10 
 3702000   0.65502937   -7.6056324    809.24748  0.018216448  0.017398965           12 
 3703000   0.65842825   -7.6000108    807.70347  0.018176782  0.017393576            7 
 3704000   0.66492432   -7.5835586    808.34437  0.018186293  0.017388216            8 
 3705000   0.65096878   -7.5898576     808.4463  0.018183678  0.017382854           10 
 3706000   0.66511364   -7.6125336    808.06883  0.018170283  0.017377491           12 
 3707000   0.65764346   -7.5994131    809.47104  0.018196903  0.017372124            4 
 3708000   0.66153909   -7.6011247    807.82354   0.01815497  0.017366759            5 
 3709000   0.65838657   -7.5878878    807.09047  0.018133605  0.017361387           14 
 3710000    0.6640622   -7.5893418    809.13083  0.018174547  0.017356026            9 
 3711000     0.652135   -7.6074273    809.56106  0.018179311   0.01735067            8 
 3712000   0.65197782   -7.5856103    810.82242   0.01820273  0.017345321            5 
 3713000   0.65690441   -7.5941174    810.13896  0.018182489  0.017339971            7 
 3714000   0.65979676   -7.5885285    809.95324  0.018173426  0.017334607            6 
 3715000   0.66563515     -7.59398    807.57824  0.018115259  0.017329242            8 
 3716000   0.67561108    -7.600696     809.2147  0.018147082  0.017323874            5 
 3717000    0.6604527   -7.6048677    809.12961  0.018140293  0.017318514           11 
 3718000   0.66683933   -7.6135411    809.70621  0.018148337   0.01731316           14 
 3719000   0.64157464   -7.5870378    809.40924  0.018136803  0.017307817            5 
 3720000   0.65186911   -7.6070895     808.1452  0.018103611   0.01730246            5 
 3721000   0.65552418   -7.6346318    809.06357  0.018119313  0.017297106           13 
 3722000   0.65304394    -7.623756    807.89317   0.01808824  0.017291743           10 
 3723000   0.65465162   -7.6172807    808.75737  0.018102726  0.017286384           16 
 3724000   0.65199908   -7.6276793    808.52967  0.018092769  0.017281042           17 
 3725000    0.6486019    -7.609338    809.53481  0.018110399  0.017275693           19 
 3726000   0.66723872   -7.6167447    809.97831  0.018115457  0.017270343           18 
 3727000   0.65655482   -7.6043313    809.18772  0.018092919  0.017265005           11 
 3728000    0.6552632   -7.6086366    810.24781  0.018111763  0.017259682            5 
 3729000   0.66444842   -7.6133688    808.81483  0.018074882   0.01725435           10 
 3730000   0.66622751   -7.6336012    808.86154   0.01807108   0.01724902            8 
 3731000   0.67760214   -7.5838647    810.64074  0.018105976  0.017243692            7 
 3732000   0.66129768   -7.6020102    808.94064  0.018063162  0.017238377            7 
 3733000   0.65964986   -7.6245472    808.96359  0.018058835  0.017233051           11 
 3734000   0.65625841   -7.6056395    809.59796  0.018068157   0.01722772            8 
 3735000   0.65491479   -7.6177771    808.67698  0.018042771  0.017222379            9 
 3736000   0.64420875   -7.6440656    807.61363  0.018014223  0.017217031            5 
 3737000   0.65182299    -7.613928    809.09414  0.018042417  0.017211702            9 
 3738000   0.65841414   -7.6039147    808.23432  0.018018422   0.01720637           14 
 3739000   0.65043663   -7.6013345    809.38209  0.018039184  0.017201039            8 
 3740000   0.65002473   -7.6017148    809.70161   0.01804148   0.01719571           20 
 3741000   0.65503395   -7.6283827    808.06005   0.01800009  0.017190393           15 
 3742000   0.64936198   -7.6242267    809.60236  0.018029627  0.017185073            8 
 3743000   0.65659409   -7.6189025     808.6489  0.018003582  0.017179761           20 
 3744000    0.6634432   -7.6047836    809.59748  0.018019887  0.017174452            5 
 3745000    0.6422473   -7.6210854    810.72186  0.018040095  0.017169137            9 
 3746000   0.64122115   -7.6282265    809.58149   0.01800991  0.017163805            7 
 3747000   0.63982938   -7.6358525    808.09809  0.017972113   0.01715847            9 
 3748000   0.65019885   -7.6354026    809.26254  0.017993208  0.017153139            6 
 3749000   0.66097223   -7.6124903    808.46522  0.017970686  0.017147805           15 
 3750000   0.65393755   -7.6215226    808.39366  0.017964304  0.017142483            9 
 3751000   0.67422434   -7.6316086    809.47941  0.017983636  0.017137159            6 
 3752000   0.67293974   -7.6008655    809.39976  0.017977074  0.017131837           19 
 3753000    0.6370626   -7.5929884    809.43935  0.017973162  0.017126522            6 
 3754000   0.64981347   -7.6390349     810.0824   0.01798265  0.017121208            8 
 3755000   0.65482611   -7.6161205    808.56969   0.01794429  0.017115898           21 
 3756000   0.65447009   -7.6279081      807.735  0.017920993  0.017110589            8 
 3757000   0.64628668   -7.6167901    808.70728  0.017937789  0.017105297            9 
 3758000   0.66071537   -7.6173418    810.80247  0.017979476  0.017100015            4 
 3759000   0.64137079   -7.6240216    810.43844  0.017966623  0.017094719            8 
 3760000   0.65507621    -7.603675    808.45456  0.017917876  0.017089431           15 
 3761000   0.65232005   -7.6176425    808.50486  0.017914226   0.01708415            7 
 3762000   0.64795166   -7.6420087    808.00677  0.017898431  0.017078853           11 
 3763000   0.65425127   -7.6347834    809.55102  0.017927873  0.017073558            8 
 3764000   0.64945836    -7.622001     809.0577  0.017912188  0.017068272           13 
 3765000   0.65064017   -7.6395448    808.19512  0.017888338  0.017062989           11 
 3766000   0.63071122    -7.621486    810.41072  0.017932615  0.017057702            9 
 3767000   0.65072488    -7.650834    810.14935  0.017922072  0.017052405           12 
 3768000   0.63928162   -7.6409636    809.94353  0.017912764  0.017047116           11 
 3769000   0.64568684   -7.6475958    807.90318  0.017862899  0.017041827           11 
 3770000   0.63523491   -7.6554254    807.92992  0.017858751  0.017036533           10 
 3771000   0.65262404   -7.6324534    808.24391  0.017860955  0.017031232           10 
 3772000   0.65195388   -7.6343738    808.57014  0.017863427  0.017025951            6 
 3773000   0.63844209    -7.645566    809.92675  0.017888655  0.017020659           15 
 3774000   0.65833224   -7.6706432    808.95047  0.017862358  0.017015367           10 
 3775000   0.65541716   -7.6310906     809.1512  0.017862057  0.017010076            8 
 3776000   0.64845043   -7.6532027    806.42596  0.017797183  0.017004787           14 
 3777000   0.63815356   -7.6584699    808.41192  0.017836288  0.016999487            9 
 3778000   0.64984274    -7.641205    809.08781  0.017846475  0.016994189           19 
 3779000   0.64558725   -7.6573826    809.52513  0.017851396    0.0169889           13 
 3780000   0.65842035   -7.6388447    810.37237  0.017865352  0.016983605            9 
 3781000   0.65692137    -7.635576    808.18707  0.017812463  0.016978324           12 
 3782000   0.64248289   -7.6329987    809.26889   0.01783159  0.016973049            8 
 3783000   0.63725892   -7.6175993    808.07885  0.017800662  0.016967762            9 
 3784000    0.6499183   -7.6540451    807.40408  0.017781098  0.016962478            7 
 3785000   0.64812081   -7.6447048    807.41048  0.017776541   0.01695718           19 
 3786000   0.64123435   -7.6315821    808.25437   0.01779042  0.016951895           11 
 3787000   0.63919643   -7.6447019    807.38641  0.017766623  0.016946609            9 
 3788000   0.64434505   -7.6212394    808.70203  0.017790875  0.016941328            9 
 3789000   0.64790684    -7.627844    809.92196  0.017813011  0.016936068            9 
 3790000   0.65567103    -7.638066    809.18612  0.017792131  0.016930802           12 
 3791000   0.66090808   -7.6293744     810.1211   0.01780799  0.016925542           17 
 3792000   0.64115166   -7.6650486     808.3568  0.017764522  0.016920277           20 
 3793000   0.64358825   -7.6308841    809.42205  0.017783242  0.016915004           14 
 3794000   0.63302019   -7.6537658      807.842   0.01774385  0.016909731           14 
 3795000   0.62572356   -7.6457604    806.76941  0.017715622  0.016904456           10 
 3796000    0.6358397   -7.6473533    809.53329   0.01777163  0.016899184            8 
 3797000   0.63929518   -7.6423007     808.1471  0.017736527  0.016893909           11 
 3798000   0.63898456   -7.6493244    808.87721  0.017747876  0.016888633           10 
 3799000    0.6476923   -7.6422828    808.54921   0.01773601  0.016883372           10 
 3800000   0.65001334   -7.6433351    807.93356  0.017717841  0.016878097           21 
 3801000   0.64930249   -7.6653898    808.52326  0.017726109  0.016872841           23 
 3802000   0.64853739   -7.6303377    809.13014  0.017734748  0.016867585           23 
 3803000   0.64276033    -7.629504    809.06155  0.017728581  0.016862337           22 
 3804000   0.62730757   -7.6452709    808.49723  0.017711559  0.016857075            8 
 3805000   0.66220242   -7.6527069    808.62798  0.017709768  0.016851817            7 
 3806000   0.63174644   -7.6501051    808.53933  0.017703173  0.016846558           11 
 3807000   0.63363703   -7.6408935    808.29398  0.017693152  0.016841302           27 
 3808000   0.65065256   -7.6780698      808.814  0.017699886  0.016836037           21 
 3809000   0.64233989   -7.6460123    808.47295  0.017687778  0.016830771           21 
 3810000   0.63236916   -7.6701314    807.83291  0.017669136  0.016825499           23 
 3811000    0.6441725   -7.6615565    808.50034  0.017679094  0.016820233           18 
 3812000   0.64374401   -7.6667736    806.64015  0.017633791  0.016814967           41 
 3813000   0.64760406   -7.6460047    809.25207   0.01768625  0.016809704           48 
 3814000   0.63916555   -7.6488078    810.29373  0.017704373  0.016804445           50 
 3815000   0.63732901   -7.6586057    808.05672  0.017650868  0.016799182           57 
 3816000   0.63525701   -7.6662738    807.33865  0.017630561  0.016793927           44 
 3817000   0.63254758   -7.6351339    808.45078  0.017650222  0.016788687           66 
 3818000   0.63577411   -7.6601337    808.92673  0.017655988  0.016783439           38 
 3819000   0.65503558   -7.6372897     809.0947   0.01765503  0.016778197           35 
 3820000    0.6466623   -7.6536804    807.18557   0.01760876  0.016772937           36 
 3821000   0.64811644   -7.6580837    809.21156  0.017648337  0.016767681           52 
 3822000   0.63433982   -7.6702086    809.59087   0.01765199  0.016762436           27 
 3823000   0.64778525   -7.6528579    808.80828  0.017630314  0.016757188           36 
 3824000   0.63413266   -7.6351454    807.96789   0.01760739  0.016751945           39 
 3825000    0.6294873   -7.6606575    806.20151  0.017564303  0.016746691           30 
 3826000   0.65929751   -7.6635614    808.15914  0.017602351  0.016741442           34 
 3827000   0.64897515   -7.6468861    809.27138  0.017621971  0.016736199           17 
 3828000   0.63718599   -7.6645895    809.59236  0.017624355   0.01673096           32 
 3829000   0.63606252   -7.6444594     808.0238  0.017585614  0.016725711           23 
 3830000    0.6423744   -7.6478077    809.43243  0.017611672   0.01672047           44 
 3831000   0.64884629   -7.6637339    809.21089  0.017602255  0.016715232           26 
 3832000   0.64674642    -7.647823    808.19577  0.017575587  0.016710001           28 
 3833000   0.63641448   -7.6535556    808.47064  0.017576977  0.016704761           29 
 3834000   0.63856217    -7.645239    808.39306  0.017570706  0.016699523           37 
 3835000   0.62250661   -7.6448857    809.23158  0.017584346  0.016694299           34 
 3836000   0.63864878   -7.6435855    808.33345  0.017560251  0.016689061           21 
 3837000   0.63008238   -7.6825335    808.28087  0.017554532  0.016683822           30 
 3838000   0.63669469   -7.6665352    807.77927  0.017539067  0.016678582           16 
 3839000   0.63186146   -7.6534441    808.44447  0.017548938  0.016673356           18 
 3840000   0.63062423    -7.653926    807.06169   0.01751436  0.016668119           24 
 3841000   0.63367034   -7.6543401    807.58565  0.017521167  0.016662882           17 
 3842000   0.63073557   -7.6626052    808.83324  0.017543667  0.016657655           22 
 3843000    0.6422734   -7.6438236    808.09542  0.017523103  0.016652431           23 
 3844000   0.65655266   -7.6348446    807.88039  0.017513883  0.016647218           17 
 3845000   0.63806117   -7.6591268    808.55074  0.017523856  0.016642008           16 
 3846000    0.6325939   -7.6502471    808.62132  0.017520829  0.016636785           15 
 3847000   0.63339008   -7.6503678    808.23394  0.017507884  0.016631574           12 
 3848000   0.62554282   -7.6368706    809.82227  0.017537731  0.016626384           12 
 3849000    0.6335479   -7.6670928    809.18111  0.017519293  0.016621181           13 
 3850000   0.63886902   -7.6528068    809.01985  0.017511252  0.016615982            7 
 3851000   0.64040995    -7.657381    809.73866   0.01752226  0.016610778            9 
 3852000   0.63459901   -7.6534862     809.5551   0.01751374  0.016605578           21 
 3853000   0.64279805   -7.6536547    807.48188  0.017464354  0.016600368           11 
 3854000   0.63644995   -7.6588049    808.92236   0.01749097   0.01659516           22 
 3855000   0.63043191    -7.645839     807.2192  0.017449615  0.016589963            9 
 3856000   0.64489527   -7.6491137    809.07042  0.017485097  0.016584764            7 
 3857000   0.63183144   -7.6534248     808.3251  0.017464461  0.016579574           14 
 3858000   0.64070484   -7.6401602     807.8924  0.017450588  0.016574389            7 
 3859000   0.63765959   -7.6677583    809.55152  0.017481893  0.016569201           15 
 3860000   0.63678511   -7.6344766    809.08126  0.017467212  0.016564021            8 
 3861000   0.62984943   -7.6698436    808.67128  0.017453839  0.016558842           12 
 3862000   0.65009498   -7.6657317    809.09786  0.017458525   0.01655365           13 
 3863000   0.63726849   -7.6442685    808.15984   0.01743377  0.016548448           23 
 3864000    0.6424264   -7.6664133    808.67958  0.017440467  0.016543256           12 
 3865000   0.64183675   -7.6439517    807.21221  0.017404317  0.016538059           19 
 3866000   0.62817545   -7.6846533    807.81434  0.017412794  0.016532863           16 
 3867000   0.62953247   -7.6634773    808.64299  0.017426148  0.016527683           10 
 3868000   0.63564663   -7.6591838    808.21845  0.017412497  0.016522513           14 
 3869000   0.63568276   -7.6651444    808.89334  0.017422532  0.016517327           25 
 3870000   0.64167766   -7.6578993    808.10268  0.017401005  0.016512147            9 
 3871000   0.62183852   -7.6739428    809.84084  0.017433928  0.016506965           13 
 3872000   0.62262092    -7.664855    808.32669  0.017396838  0.016501786           12 
 3873000   0.62889318   -7.6565244    807.27005  0.017369611  0.016496608           11 
 3874000    0.6452771   -7.6760577    809.21274  0.017406917  0.016491429           12 
 3875000   0.62410794   -7.6649494    809.83092  0.017415719  0.016486263           17 
 3876000   0.61708949   -7.6727892    809.81694  0.017410925   0.01648109           25 
 3877000   0.63240347   -7.6804654    808.04288  0.017368302  0.016475927           12 
 3878000   0.63728595   -7.6748017    810.90335  0.017425291  0.016470761            7 
 3879000   0.62483528   -7.6601591    808.84908  0.017376667   0.01646561           20 
 3880000   0.63031557   -7.6620115    807.69722  0.017347449  0.016460436           18 
 3881000   0.62669908   -7.6640187    809.83046  0.017388784  0.016455265           27 
 3882000   0.62648041   -7.6798047    809.07755  0.017368143  0.016450096           20 
 3883000   0.62133335   -7.6865043    807.47362  0.017329248  0.016444925           14 
 3884000   0.63424683   -7.6633625    808.43142  0.017345336  0.016439754           35 
 3885000   0.62569705   -7.6613997    808.50553  0.017342461  0.016434585           18 
 3886000   0.62495545   -7.6870295    807.77347  0.017322299   0.01642941           11 
 3887000   0.62587943   -7.6793045     807.6348   0.01731487  0.016424241           19 
 3888000   0.61782172   -7.6749417    809.37065  0.017347622  0.016419085           16 
 3889000    0.6254521    -7.673247     808.3756  0.017321839  0.016413931           16 
 3890000   0.61548746   -7.6667073    808.90904  0.017328814  0.016408774           13 
 3891000   0.64083484   -7.6946598    807.90981   0.01730296  0.016403623           23 
 3892000   0.62382324   -7.6620024    807.50059  0.017289752  0.016398479           24 
 3893000   0.64494285    -7.677346    808.46457  0.017305946  0.016393327           13 
 3894000   0.62589813   -7.6736288    808.60394  0.017304484  0.016388176           13 
 3895000   0.63148959   -7.6726079    810.58671  0.017342463  0.016383034           30 
 3896000     0.609386   -7.6812756     807.5477  0.017273009  0.016377889           16 
 3897000    0.6311887    -7.680142     808.8861  0.017297197  0.016372739           21 
 3898000   0.62157413   -7.6832068    808.43266  0.017283065  0.016367593           13 
 3899000   0.61660346   -7.6647141    807.15835  0.017251397  0.016362456           14 
 3900000   0.64322426    -7.663051     808.2426  0.017270141  0.016357317            6 
 3901000   0.62032873   -7.6783377      808.135  0.017263415  0.016352191            9 
 3902000   0.62630622   -7.6672001    809.45107  0.017287098  0.016347064           17 
 3903000    0.6207403    -7.695152    807.96057  0.017250845  0.016341931           11 
 3904000   0.62773533   -7.6796818    809.21989  0.017273307  0.016336798           14 
 3905000   0.62527527   -7.6779086    808.85755  0.017261151  0.016331671            9 
 3906000   0.61014996   -7.6914185    810.58938   0.01729368  0.016326539           15 
 3907000   0.62327959   -7.6674673    808.61737  0.017247193  0.016321415           12 
 3908000   0.62072826   -7.6818922    807.86298  0.017226693  0.016316293           13 
 3909000   0.61437407    -7.678625    808.05272  0.017226331  0.016311171           12 
 3910000   0.62622824   -7.6884646    809.86944  0.017260645   0.01630605            9 
 3911000   0.61491472   -7.7014059    809.01626  0.017238052  0.016300919           13 
 3912000   0.63579771   -7.6867668    808.02687   0.01721257  0.016295791           16 
 3913000   0.61698418   -7.6850303    809.38433   0.01723708  0.016290673           16 
 3914000   0.62481026   -7.6950887    809.83886  0.017242354  0.016285553            9 
 3915000   0.61545419   -7.7078743    806.23418  0.017161221  0.016280427           34 
 3916000   0.62842259   -7.6867787    809.14043  0.017218685  0.016275298            9 
 3917000   0.62314312   -7.6855595    806.35764  0.017155086  0.016270169           17 
 3918000   0.63009021   -7.6781215    807.71706  0.017179621  0.016265052           21 
 3919000   0.61124954   -7.6996392    808.83493  0.017199008  0.016259931            6 
 3920000   0.62918094   -7.7046852     807.2151  0.017160185   0.01625481           28 
 3921000   0.63388463   -7.6895324    809.31047  0.017200342  0.016249691           18 
 3922000   0.61867314   -7.6891086    808.43664  0.017177389  0.016244576           24 
 3923000   0.62053742   -7.7021944    809.06519  0.017186362  0.016239463           24 
 3924000   0.60539423   -7.7062529    808.16747  0.017162918   0.01623435           15 
 3925000   0.60420833   -7.6883867    808.75493  0.017171018  0.016229242            7 
 3926000    0.6307958   -7.6974371    808.11902  0.017153146  0.016224139           23 
 3927000   0.61874232   -7.6829342    808.50965  0.017157068  0.016219035           20 
 3928000   0.63238849   -7.7085496     808.8214  0.017159314  0.016213937           31 
 3929000   0.63205391   -7.6774108    808.21022  0.017141983  0.016208841           31 
 3930000   0.62946029   -7.6798763     807.1083  0.017114256  0.016203743           27 
 3931000   0.60565086   -7.6989919    808.06295   0.01713014  0.016198643           33 
 3932000   0.62844943   -7.7116747    808.37394  0.017132374   0.01619355           21 
 3933000   0.63544846   -7.6888207    810.46654  0.017172357  0.016188465           20 
 3934000   0.63662268   -7.6910417    808.64883  0.017129487   0.01618338           14 
 3935000   0.62472786   -7.6885823    809.05037  0.017133638  0.016178294           13 
 3936000   0.62350657   -7.6787954    807.62306  0.017099065  0.016173212            7 
 3937000     0.628742   -7.6762682     807.3046  0.017087982  0.016168142            9 
 3938000   0.61707832   -7.7032759    810.45853  0.017150384  0.016163065           10 
 3939000   0.60706377   -7.6905349    808.89934  0.017113044  0.016157979           17 
 3940000   0.62423272   -7.6808545    809.23723  0.017115847  0.016152904           15 
 3941000   0.61915176   -7.7088258    808.92991  0.017105005  0.016147831            9 
 3942000   0.61724372   -7.6776592    808.55109  0.017092658  0.016142762            8 
 3943000    0.6219991    -7.689522    810.73219  0.017134419    0.0161377            9 
 3944000   0.61562812   -7.6810377    809.17711  0.017097217   0.01613265           10 
 3945000    0.6258491   -7.6602439     809.1041  0.017091341  0.016127604            6 
 3946000   0.62280622   -7.6959683    808.46826  0.017073582  0.016122564            8 
 3947000   0.62526432   -7.6648573    808.17342  0.017063031  0.016117528           11 
 3948000   0.62855559   -7.6870807    810.07677  0.017098885  0.016112486           10 
 3949000   0.60442578   -7.6791006    809.97531  0.017092414  0.016107451           10 
 3950000   0.63488316   -7.6774775    809.49408  0.017077934   0.01610242           11 
 3951000    0.6047019   -7.6929469    808.90015  0.017061085  0.016097393           11 
 3952000   0.63217896   -7.6766466    810.11987  0.017082487  0.016092357            4 
 3953000   0.63284483   -7.6830563    809.80946  0.017071622  0.016087326            9 
 3954000   0.61863014   -7.6936889    809.00284  0.017050304  0.016082293            8 
 3955000    0.6235216   -7.6915681     809.9931  0.017066858  0.016077254            7 
 3956000    0.6202539   -7.6935314    808.84128  0.017038281  0.016072221           10 
 3957000   0.61293849   -7.7011595    809.45219  0.017046841   0.01606718            7 
 3958000   0.61225669   -7.6914084    809.25703  0.017038425  0.016062148           14 
 3959000   0.61874329   -7.6814289    807.96588  0.017006944  0.016057108           11 
 3960000   0.62193812   -7.6732527    808.33855  0.017010491  0.016052069           14 
 3961000   0.60768451   -7.7092876    808.54564  0.017010554  0.016047036           10 
 3962000   0.62252441   -7.7075062    808.71927  0.017009912  0.016042014            6 
 3963000   0.62351404   -7.7127421    810.35038  0.017039919  0.016036982            9 
 3964000   0.62109444   -7.6990711    809.64135  0.017020715  0.016031954            5 
 3965000   0.61029554   -7.6764092    808.60793  0.016994702  0.016026944            9 
 3966000   0.62221245   -7.6723532     809.9313  0.017018224  0.016021928            8 
 3967000   0.61553768   -7.6844359    809.95654  0.017014464  0.016016909           10 
 3968000   0.61487462    -7.681265    809.05804  0.016991306  0.016011893           11 
 3969000   0.62634177   -7.6773424    809.47425  0.016995764  0.016006872            6 
 3970000   0.60660734   -7.6669568    809.31293  0.016988097  0.016001865           12 
 3971000   0.60435413     -7.71057    808.42118  0.016965105  0.015996848            9 
 3972000   0.60647648   -7.7016867    808.45089  0.016961457  0.015991829            9 
 3973000    0.6262774   -7.6943394    808.35118  0.016955096  0.015986798            8 
 3974000   0.62995933   -7.6811768    809.31175  0.016970973  0.015981776            8 
 3975000   0.61128769    -7.673694    808.43438   0.01694831  0.015976754            9 
 3976000   0.61039653   -7.7168011    809.01499  0.016956216  0.015971733           10 
 3977000   0.61927149   -7.6925017    809.20298  0.016955892  0.015966721           12 
 3978000   0.61899043   -7.6930925    808.50792  0.016937069  0.015961706            8 
 3979000   0.62489944   -7.6892535    807.91951  0.016920489    0.0159567           15 
 3980000   0.61699741   -7.6941649    807.35717  0.016904463  0.015951692            9 
 3981000    0.6094007   -7.6992222    809.07641  0.016936206   0.01594668            8 
 3982000   0.62055301   -7.7148338     808.8135   0.01692645  0.015941666           17 
 3983000   0.61412644   -7.7209646      807.444  0.016893548  0.015936645           13 
 3984000   0.62052654   -7.7000513    806.83433  0.016876555  0.015931629           11 
 3985000   0.58099241    -7.709967     809.0884  0.016919456  0.015926612            9 
 3986000   0.62218003   -7.6984957    808.72566  0.016907628  0.015921591            9 
 3987000   0.62105402   -7.7282633    807.24882   0.01687252  0.015916568           10 
 3988000   0.61793153   -7.7066309    805.98648  0.016841911  0.015911547            7 
 3989000    0.6100888   -7.7247121    807.67683  0.016873001  0.015906528           11 
 3990000   0.62418552   -7.7022764    807.48136   0.01686469   0.01590151           10 
 3991000   0.61425435     -7.70429    808.60298  0.016883884  0.015896507           13 
 3992000   0.61064988    -7.699912    809.49592  0.016898295  0.015891497            5 
 3993000    0.6150873   -7.7075515    809.39042  0.016891861  0.015886504            5 
 3994000   0.61525822    -7.683344    808.77788  0.016874852  0.015881507            6 
 3995000   0.61771856   -7.7234513    808.78216  0.016870717   0.01587651           14 
 3996000   0.60716011   -7.7043904    807.01362  0.016829613  0.015871511            9 
 3997000    0.6001279   -7.7050561    807.97437  0.016845433    0.0158665           14 
 3998000   0.61093638   -7.7168276    808.37855  0.016849645  0.015861489            8 
 3999000   0.60977949   -7.7071525    808.85425  0.016855344  0.015856485            8 
 4000000   0.61585634   -7.7187784    807.18285  0.016816309  0.015851485           12 
 4001000   0.61219806   -7.7220475    808.38845  0.016837217  0.015846478            7 
 4002000   0.60427668   -7.7270961    807.88439  0.016822514  0.015841477            7 
 4003000   0.60133193   -7.7176758    808.21815  0.016825259  0.015836477            8 
 4004000   0.61713927   -7.7021555    806.51282  0.016785565  0.015831473            6 
 4005000   0.60097003   -7.7024388    807.63091  0.016804638  0.015826483           10 
 4006000    0.6221828   -7.6977466    808.75396  0.016823805  0.015821487           11 
 4007000    0.6137415   -7.7357862    808.62319  0.016816887  0.015816494            8 
 4008000   0.61190078   -7.7174491    807.73385    0.0167942    0.0158115           18 
 4009000   0.60218335   -7.7046925    806.91875  0.016773068  0.015806512           10 
 4010000   0.61620078   -7.7433727     807.1028   0.01677271  0.015801522           18 
 4011000    0.6039159   -7.7172849    808.90785   0.01680603  0.015796537            4 
 4012000    0.6132447   -7.7320846    807.55464  0.016773734  0.015791556           21 
 4013000   0.61716781   -7.7183308    809.00369  0.016799645  0.015786577           17 
 4014000   0.61018972   -7.7304354    808.13037  0.016777329   0.01578159           14 
 4015000   0.60582609   -7.7338886    807.48369  0.016759728  0.015776606            8 
 4016000   0.61517262   -7.7159651    807.90273   0.01676425  0.015771629            6 
 4017000   0.61655233   -7.7212941    808.75004  0.016777654  0.015766653           18 
 4018000   0.60961364   -7.7213996    810.57942   0.01681142  0.015761683           13 
 4019000   0.60747927   -7.7150818    807.70561  0.016747649  0.015756713            7 
 4020000   0.59883966   -7.7168857    808.32439   0.01675631  0.015751744           14 
 4021000   0.60044721   -7.7198919    808.95892  0.016765293  0.015746783           12 
 4022000   0.61048314   -7.7402316    808.93749  0.016760681  0.015741825            9 
 4023000   0.61429998   -7.7160808    808.41988  0.016745792  0.015736861           15 
 4024000   0.60544655   -7.7395734    807.88927  0.016730643  0.015731894           20 
 4025000   0.60229124   -7.7200259    808.99026  0.016749281  0.015726925            9 
 4026000   0.60758657   -7.7245172    807.89353   0.01672242  0.015721958            5 
 4027000   0.60742529   -7.7267403    808.08684  0.016722267  0.015716994           16 
 4028000   0.61103798   -7.7299562    807.46537  0.016705258  0.015712034           13 
 4029000   0.62457646   -7.7296297    807.62435    0.0167044  0.015707074            6 
 4030000    0.6176267   -7.7238687    810.22373  0.016754006  0.015702121           14 
 4031000   0.60705033   -7.7628546    808.39574  0.016712059  0.015697163            8 
 4032000   0.60787775   -7.7399801    810.06106  0.016742333  0.015692216            7 
 4033000   0.60886561   -7.7180527    808.79752  0.016712074   0.01568727            8 
 4034000     0.610051   -7.7217473    806.95618  0.016669893  0.015682325            7 
 4035000   0.60238652    -7.738128    808.56139  0.016698914  0.015677383           13 
 4036000   0.60580254    -7.747177    807.25607  0.016667824  0.015672436           11 
 4037000   0.58826318   -7.7180126     806.4679  0.016647426  0.015667496           13 
 4038000    0.6014443    -7.717751    807.87982  0.016672441  0.015662552           20 
 4039000   0.60397818   -7.7354032    807.81176  0.016666909  0.015657611           15 
 4040000   0.59596919   -7.7257197    806.39978  0.016633659  0.015652669           12 
 4041000   0.60304239   -7.7237812    807.90386   0.01666056  0.015647719           30 
 4042000   0.60561341   -7.7303786    807.57354  0.016649628  0.015642776           21 
 4043000   0.61660797   -7.7485933    807.55491  0.016645126  0.015637825           17 
 4044000   0.60702722   -7.7484673    807.35411  0.016636872  0.015632883           15 
 4045000    0.6135278   -7.7268683    807.20536  0.016629694  0.015627948           12 
 4046000   0.61085077   -7.7297013    807.53657  0.016632406  0.015623022           21 
 4047000   0.60532745   -7.7373021    807.96832  0.016637186   0.01561809           17 
 4048000   0.60785024   -7.7539403      807.469  0.016622797  0.015613166           15 
 4049000    0.6188721   -7.7383564    807.65061   0.01662243  0.015608242           15 
 4050000   0.59586898   -7.7248641    807.77613  0.016620908  0.015603313           21 
 4051000   0.60064959   -7.7261212    808.72699  0.016636365  0.015598394           22 
 4052000   0.60184324   -7.7290329    808.84243  0.016634634  0.015593479           14 
 4053000   0.59493733    -7.729331    807.64408   0.01660589   0.01558856           15 
 4054000   0.59400806   -7.7654291    809.54368  0.016640842  0.015583644           11 
 4055000   0.60924931   -7.7376309    808.80651  0.016621589  0.015578731           13 
 4056000   0.60530322   -7.7073647    806.40194  0.016568087  0.015573815           13 
 4057000    0.5927522   -7.7440437    807.10837  0.016578514  0.015568902           18 
 4058000   0.59294142   -7.7452365    809.20481   0.01661748     0.015564           15 
 4059000   0.61071776    -7.732759    808.26951  0.016594184    0.0155591           16 
 4060000   0.59880489   -7.7279314    809.05279  0.016606174    0.0155542           26 
 4061000   0.59799746   -7.7390983     808.9511  0.016599998  0.015549309           15 
 4062000   0.59472163    -7.750892    808.07588  0.016577956  0.015544417           28 
 4063000   0.59331716   -7.7216208    809.68482  0.016606876  0.015539528           19 
 4064000   0.60202593   -7.7341345     807.6864  0.016561811  0.015534643           19 
 4065000   0.59867426   -7.7250943    808.01879  0.016564551  0.015529755           17 
 4066000   0.59858873   -7.7321226    808.90436  0.016578627   0.01552487           17 
 4067000   0.60170167   -7.7500442    807.26031  0.016540864   0.01551999           18 
 4068000   0.59794618   -7.7398288    806.66774  0.016524659  0.015515101           10 
 4069000   0.60475074   -7.7249859    807.40922  0.016535783  0.015510214           29 
 4070000   0.60155942   -7.7231523     807.7534  0.016538767  0.015505323           17 
 4071000   0.60938374   -7.7385384    808.14088  0.016542637  0.015500434           23 
 4072000    0.5886156   -7.7331779    808.82459  0.016552566  0.015495555           18 
 4073000   0.60932978   -7.7524378    807.27717  0.016516842  0.015490678           16 
 4074000    0.5933296   -7.7675618    810.36663  0.016575983  0.015485807           24 
 4075000   0.59645095   -7.7453682    809.47074  0.016553594  0.015480931           14 
 4076000   0.59975146   -7.7497125    808.43429  0.016528342  0.015476056           14 
 4077000   0.58706604   -7.7633342     808.6292  0.016528272  0.015471177           22 
 4078000   0.59912732    -7.729311     806.9574  0.016490056  0.015466296           26 
 4079000   0.59205264   -7.7702937    807.50022  0.016497104   0.01546141           28 
 4080000   0.60311508   -7.7486502    807.72443  0.016497639  0.015456522           15 
 4081000   0.60098429   -7.7588164    807.66314  0.016492345  0.015451642           29 
 4082000   0.58413699   -7.7507595    809.95159  0.016535024  0.015446776           35 
 4083000   0.60123368    -7.751161    806.12817  0.016452938  0.015441899           34 
 4084000     0.590333   -7.7286018     808.1607  0.016490383  0.015437035           27 
 4085000   0.58954834   -7.7240632    807.86103  0.016480233  0.015432172           35 
 4086000   0.58724207   -7.7512666    807.13811  0.016461456  0.015427304           33 
 4087000   0.60022443   -7.7546063    809.34298  0.016502385  0.015422436           30 
 4088000   0.60558289    -7.759279    807.32015  0.016457113  0.015417569           15 
 4089000   0.60260918   -7.7710856     808.1606  0.016470217  0.015412707           16 
 4090000    0.6020235   -7.7610546    808.33859  0.016469816   0.01540785           17 
 4091000    0.5954811   -7.7581967    808.34546   0.01646593  0.015402993           11 
 4092000   0.59817669   -7.7640312    807.50809  0.016444854  0.015398136           11 
 4093000   0.60238366   -7.7355048    808.87201  0.016468605  0.015393288           24 
 4094000   0.59802603   -7.7547981    807.69398  0.016440604  0.015388435           21 
 4095000   0.59492715   -7.7277018    807.56329  0.016433929  0.015383584           34 
 4096000   0.59838032   -7.7505034    808.17099  0.016442281  0.015378739           18 
 4097000   0.59076819   -7.7403285    807.02725  0.016415004  0.015373903           28 
 4098000   0.59297509   -7.7602239    809.08459  0.016452835  0.015369063           17 
 4099000   0.58770186   -7.7571738    807.67646  0.016420193  0.015364223           33 
 4100000   0.59616672   -7.7520727    808.66892   0.01643636  0.015359386           23 
 4101000   0.59183347   -7.7364231    809.22593  0.016443671  0.015354542           18 
 4102000   0.59752053   -7.7548141    808.12627  0.016417322  0.015349705           21 
 4103000    0.6090091   -7.7674558    807.61105  0.016402857  0.015344867           24 
 4104000    0.5959829   -7.7518293    806.99972  0.016386447  0.015340026           26 
 4105000   0.59107069   -7.7643099    809.06445   0.01642437  0.015335191           28 
 4106000   0.59876572   -7.7662953    808.05237  0.016399829  0.015330353           32 
 4107000   0.60422214   -7.7438134    807.04184  0.016375332  0.015325522           28 
 4108000   0.59768305   -7.7275222    807.91933  0.016389146  0.015320693           19 
 4109000   0.59269544   -7.7316854    808.75818   0.01640217  0.015315878           33 
 4110000    0.5928034   -7.7433786    810.77021  0.016438974  0.015311057           21 
 4111000   0.60025003   -7.7368365    808.82819  0.016395609  0.015306242           21 
 4112000   0.59794669   -7.7381345    808.38407  0.016382621  0.015301424           12 
 4113000   0.58924834   -7.7348452    808.46732  0.016380325  0.015296607           46 
 4114000   0.58581063   -7.7409833    808.05679  0.016368028  0.015291793           32 
 4115000   0.58776949   -7.7439527    807.49833  0.016352741  0.015286981           17 
 4116000   0.60661466   -7.7415923    807.14394  0.016341593  0.015282172           13 
 4117000   0.58618174   -7.7625494     806.7929  0.016330518  0.015277363           13 
 4118000   0.60072918   -7.7560587    808.23556  0.016355746  0.015272557           10 
 4119000    0.6088651   -7.7407682    808.04316  0.016347883  0.015267759           19 
 4120000   0.58482542   -7.7332412    806.84682  0.016319717  0.015262959           22 
 4121000   0.59538653   -7.7475998     808.6521  0.016352263  0.015258155            7 
 4122000   0.59334397   -7.7368124    809.03774  0.016356092  0.015253353           15 
 4123000   0.59047222   -7.7343181    808.29842  0.016337182  0.015248551           13 
 4124000   0.59552209   -7.7600731    809.23694  0.016352185  0.015243753            9 
 4125000   0.59452835   -7.7504434    808.39876  0.016331288  0.015238954           10 
 4126000   0.58814816   -7.7438626    808.60028    0.0163314   0.01523415           12 
 4127000   0.58844286   -7.7236881     809.2769  0.016341105  0.015229353           13 
 4128000   0.59470952   -7.7671849    808.63445  0.016324177  0.015224557           12 
 4129000   0.58743906    -7.758233    808.96047  0.016326804  0.015219755           13 
 4130000   0.57666221   -7.7460317    808.67728  0.016317136  0.015214962           25 
 4131000   0.58777098   -7.7398841    808.26257  0.016304821   0.01521017           11 
 4132000   0.59714224    -7.766646    807.33665  0.016282201   0.01520539           16 
 4133000   0.58700973   -7.7595643     807.4907  0.016281367  0.015200595           13 
 4134000   0.58961781   -7.7597719    808.98991   0.01630765  0.015195801           17 
 4135000   0.58425607    -7.746125    808.75014  0.016298874  0.015191015            9 
 4136000    0.5870723   -7.7603183     808.6049  0.016292007  0.015186225           11 
 4137000   0.59445933   -7.7503743    807.01632   0.01625607  0.015181441           20 
 4138000   0.58662685   -7.7579403    808.67444  0.016285533  0.015176648            8 
 4139000   0.59363977   -7.7715563    806.56679  0.016239164  0.015171857           25 
 4140000   0.58500185   -7.7596213    807.92506  0.016262582  0.015167064            9 
 4141000   0.58166904   -7.7659255    807.93763  0.016258907  0.015162275           18 
 4142000   0.58401698   -7.7627365    807.71445  0.016250492  0.015157491           12 
 4143000   0.59767886   -7.7653395    808.78264  0.016268055  0.015152708           21 
 4144000   0.58821385   -7.7898337    806.99489  0.016228179  0.015147922           11 
 4145000   0.58739795   -7.7709629    807.94578  0.016243381  0.015143143           18 
 4146000   0.59434452   -7.7661942    806.91815  0.016218808  0.015138358           24 
 4147000   0.58827502   -7.7703979    807.52956  0.016227183  0.015133579           14 
 4148000   0.59393801   -7.7743551    807.34682    0.0162196  0.015128805           17 
 4149000   0.58453734    -7.774494    807.03931  0.016209515  0.015124029            9 
 4150000   0.57837267   -7.7862988    808.29414  0.016230806  0.015119248            9 
 4151000   0.58974819   -7.7813806    808.50304   0.01623109  0.015114471           11 
 4152000   0.58844738   -7.7695763    807.00552  0.016197124  0.015109695           11 
 4153000   0.58214948   -7.7792698    806.23907  0.016177845  0.015104923           19 
 4154000   0.60529855   -7.7777491    809.03379  0.016230015  0.015100145           10 
 4155000    0.5776822   -7.7820855    808.10743   0.01620753  0.015095375           21 
 4156000    0.5934193   -7.7897284    808.74883  0.016216491  0.015090603           22 
 4157000   0.59916091   -7.7777375    807.34493  0.016184446   0.01508583           21 
 4158000   0.59896905   -7.7706992    807.61958  0.016186059  0.015081065            9 
 4159000   0.59258765   -7.7737636    808.16186  0.016193032  0.015076303           17 
 4160000   0.59422916   -7.7841466    808.44548  0.016194821  0.015071549           21 
 4161000   0.58221068   -7.7663549    807.97231  0.016181453  0.015066793           20 
 4162000   0.59117659   -7.7596503    809.36098   0.01620537  0.015062036           24 
 4163000   0.59134238   -7.7862722    808.31761  0.016180591  0.015057278           25 
 4164000   0.58442897   -7.8053938    808.93715  0.016189104  0.015052528           18 
 4165000    0.5873081   -7.7862614    807.80527   0.01616257   0.01504779           17 
 4166000   0.58957546   -7.7525129    807.87532  0.016160092  0.015043031           18 
 4167000   0.59650079   -7.7759378    807.63247  0.016151357  0.015038277           24 
 4168000   0.58569397   -7.7627644    806.33946   0.01612163  0.015033528           20 
 4169000   0.59691595   -7.7966409    807.81529  0.016147263  0.015028766           17 
 4170000    0.5760712   -7.8077426    806.91831  0.016125466  0.015024017           21 
 4171000   0.57341388   -7.7885313     806.6256  0.016115752  0.015019259           15 
 4172000   0.57809608   -7.8033055    808.10393  0.016141418  0.015014501           19 
 4173000   0.58536359   -7.7821518    807.97197  0.016134914  0.015009752           20 
 4174000   0.59134756   -7.7754601    806.31181  0.016097904  0.015004995           22 
 4175000   0.57810118   -7.7816633     807.7605  0.016122964  0.015000244           21 
 4176000   0.58538756   -7.7757163    809.25572  0.016148941  0.014995496           21 
 4177000   0.59537285   -7.7981333    808.27379  0.016125485  0.014990752           19 
 4178000   0.57003013   -7.7920772    807.18342  0.016099877  0.014986015           20 
 4179000    0.5938013   -7.7710135     806.5662  0.016083716  0.014981285           13 
 4180000   0.57364136   -7.7810534     807.6062  0.016100602  0.014976559           22 
 4181000   0.58232055   -7.7810836    808.45149  0.016113599  0.014971838           12 
 4182000   0.58024384   -7.7799171    808.28225  0.016106374  0.014967118           13 
 4183000   0.58862003   -7.7678258     808.4086   0.01610504  0.014962398           14 
 4184000   0.59621304   -7.7676597    807.05529  0.016074237  0.014957686           13 
 4185000   0.57874818   -7.7786038    808.46323  0.016098431  0.014952968           19 
 4186000   0.57695321   -7.7464946    806.18012  0.016049134  0.014948254           19 
 4187000   0.57829467   -7.7802787    806.79114  0.016057462  0.014943544           27 
 4188000   0.59227108   -7.7647913    807.85141  0.016074726  0.014938838           24 
 4189000   0.58826402   -7.7808233    805.98422  0.016033744   0.01493413           20 
 4190000   0.56953819   -7.7851117    808.48358  0.016079626  0.014929422           22 
 4191000   0.58617979   -7.7669108    807.51123  0.016056455  0.014924717           15 
 4192000   0.58990677   -7.7716067    807.41587  0.016050729  0.014920004           27 
 4193000   0.57932743   -7.7825197    807.41623  0.016046908  0.014915302           13 
 4194000   0.57810978    -7.764254    807.70714  0.016048862  0.014910609           23 
 4195000   0.57050865   -7.7632902    808.17885  0.016054407  0.014905904           17 
 4196000   0.58044642   -7.7620367    805.71314  0.016001611  0.014901208           48 
 4197000   0.59018408   -7.7672605    809.21843  0.016067398  0.014896519           18 
 4198000   0.58000019   -7.7883017    807.59535  0.016031351  0.014891821           54 
 4199000   0.57460689   -7.7688529    807.73937  0.016030391  0.014887124           17 
 4200000   0.57820793   -7.7792915    806.97061  0.016011322  0.014882425           19 
 4201000   0.57263847   -7.7580519    807.60587  0.016020112  0.014877733           17 
 4202000   0.57351013   -7.7745081    807.13316  0.016006924  0.014873036           18 
 4203000   0.59278627   -7.7828104    808.28793  0.016026012  0.014868338           14 
 4204000   0.58911068   -7.7694595    807.68946  0.016010337  0.014863645           20 
 4205000   0.58722631   -7.7900685    807.19032  0.015996637  0.014858956           14 
 4206000   0.58563133   -7.7951938    807.41215  0.015997229  0.014854257           30 
 4207000   0.59651169   -7.7832799     807.2669   0.01599055  0.014849561           20 
 4208000   0.57978035   -7.7832688    808.15832  0.016004403  0.014844864            9 
 4209000   0.55795569   -7.7782221    807.15247  0.015980686  0.014840175           44 
 4210000   0.58303323   -7.7737108    808.19928  0.015997611  0.014835483           37 
 4211000   0.57193712   -7.7887504     808.4452  0.015998678  0.014830786           28 
 4212000   0.57182405   -7.7992656     807.9696   0.01598547  0.014826093           31 
 4213000    0.5761701   -7.7826183    806.42642  0.015951152  0.014821403           27 
 4214000   0.58081503   -7.7852004     807.5361  0.015969311  0.014816717           47 
 4215000    0.5735117   -7.7938281    806.99283  0.015954781  0.014812032           33 
 4216000   0.58364554   -7.7845247     807.0853  0.015952825  0.014807348           45 
 4217000   0.57381999   -7.8069824    807.43561  0.015955964  0.014802665            8 
 4218000   0.57817266   -7.7995424    807.49243  0.015953304  0.014797993           25 
 4219000   0.57294795   -7.8036216    806.18795  0.015923757  0.014793318           23 
 4220000   0.57108938   -7.7889188    805.72758  0.015910892  0.014788644           30 
 4221000   0.57455098    -7.793376    806.90968   0.01593046  0.014783969           13 
 4222000   0.58718601   -7.7981665    806.69518  0.015922454  0.014779304           17 
 4223000   0.56803044   -7.8003797    807.60038  0.015936546   0.01477464           15 
 4224000   0.58841609   -7.7798626    805.70226  0.015895326  0.014769969           26 
 4225000   0.57978713   -7.7926381    806.12887  0.015899978  0.014765301           21 
 4226000   0.57276693   -7.7808152    808.15855  0.015936239  0.014760639           23 
 4227000    0.5758477   -7.7793487     806.2902  0.015895635  0.014755973           11 
 4228000   0.57633971   -7.7947671    807.08004  0.015907443  0.014751313           27 
 4229000   0.57017225   -7.8096838    806.91542  0.015900438  0.014746649           25 
 4230000   0.57173775   -7.7825472    805.07939  0.015860508  0.014741981           19 
 4231000   0.58430399    -7.798162    806.85637  0.015891759  0.014737318           20 
 4232000   0.57152526   -7.7897629    805.38594  0.015859049  0.014732655           15 
 4233000   0.57307484   -7.7823746    805.67567  0.015861006  0.014727991           18 
 4234000   0.57651461   -7.7790489    806.90437  0.015881443  0.014723333           16 
 4235000   0.55958566   -7.7862901    807.43795  0.015888193  0.014718674           26 
 4236000   0.58502828   -7.8030585    805.35251  0.015843416  0.014714016           25 
 4237000   0.57416257   -7.8085608    805.77545  0.015847995  0.014709354           18 
 4238000   0.56380474   -7.7943072    807.32765  0.015874777  0.014704692           25 
 4239000   0.57468773   -7.8093701    805.73538   0.01583973  0.014700032           16 
 4240000   0.56821223   -7.8046025    807.79345  0.015876444  0.014695373           68 
 4241000   0.56910247   -7.7855761    806.88678  0.015854884   0.01469072           20 
 4242000   0.56237412   -7.8128937    805.65758  0.015826999  0.014686067           18 
 4243000   0.57995965   -7.8057282    806.28404  0.015835573  0.014681424           32 
 4244000   0.56500889   -7.7966478    806.61426  0.015838326  0.014676783           28 
 4245000   0.57041783   -7.7817727    807.77947  0.015857469  0.014672135           46 
 4246000    0.5782602    -7.787794    806.01688  0.015819141  0.014667486           15 
 4247000   0.57198847   -7.7865844     806.2523  0.015820036  0.014662843           12 
 4248000   0.58195175    -7.794838    807.04542   0.01583187  0.014658205           31 
 4249000   0.56600056   -7.7768354    804.28336  0.015773973  0.014653561           27 
 4250000   0.57023962   -7.8033206    805.13898  0.015787039  0.014648917           22 
 4251000   0.57159799   -7.7916081    807.24857   0.01582468  0.014644273           37 
 4252000   0.56320914   -7.8090411    807.44815   0.01582487  0.014639629           32 
 4253000    0.5738949   -7.8075596    807.21805   0.01581664  0.014634998           17 
 4254000   0.56689336   -7.8045872    807.76464   0.01582363  0.014630363           30 
 4255000   0.56352808   -7.7862062    806.35137  0.015792232  0.014625724           25 
 4256000   0.57306448   -7.8012782    807.63816  0.015813717   0.01462109           43 
 4257000   0.57740533   -7.8034438    806.21647  0.015782172   0.01461645           21 
 4258000   0.55724906   -7.8021025    805.83628  0.015771025  0.014611818           16 
 4259000   0.56056836    -7.790011    806.74056  0.015785015  0.014607182           46 
 4260000   0.56589355   -7.8093214    807.32856  0.015792812  0.014602555           34 
 4261000   0.57228042   -7.8153938    805.98379  0.015762806   0.01459793           33 
 4262000   0.57245024   -7.7936962    807.02741  0.015779513  0.014593303           27 
 4263000   0.56658332    -7.799809    807.63516  0.015787692  0.014588678           71 
 4264000   0.56987041   -7.8065627    806.82446  0.015768145  0.014584051           29 
 4265000   0.57861909   -7.8102745    805.92045  0.015746785  0.014579436           43 
 4266000   0.57269227   -7.8112911     805.2055  0.015729128  0.014574817           15 
 4267000   0.57062514   -7.7951986    805.71316  0.015735356  0.014570199           22 
 4268000   0.56369037   -7.8110531    805.88471  0.015735018  0.014565582           20 
 4269000   0.56070992   -7.8320643    805.75683  0.015728836  0.014560963           24 
 4270000   0.55792547   -7.8086999    807.05002  0.015750391  0.014556346           21 
 4271000   0.56127826   -7.7943565    806.08705  0.015727914  0.014551737           29 
 4272000   0.57875913   -7.8025727    806.67467  0.015735695  0.014547126           20 
 4273000   0.56342293   -7.7937319    805.78859  0.015714732  0.014542518           33 
 4274000   0.56931156   -7.7902519    805.56998  0.015706793   0.01453791           12 
 4275000    0.5739196   -7.8063814    805.74222  0.015706476  0.014533304           13 
 4276000    0.5571817   -7.7957274    806.36598  0.015714959  0.014528702           33 
 4277000    0.5762785   -7.8147514    807.01165  0.015723865  0.014524101           25 
 4278000    0.5678746   -7.8035618    805.96378  0.015699778  0.014519505           16 
 4279000   0.57255253   -7.8043916    807.17873   0.01571977  0.014514907           13 
 4280000   0.58139853   -7.8038347    806.73456  0.015707449  0.014510316           20 
 4281000   0.57204119   -7.8195367    806.18522  0.015693086  0.014505723           23 
 4282000   0.57253716   -7.7987816    806.62723  0.015698023  0.014501131           18 
 4283000   0.56145725    -7.802807    807.13584  0.015704254  0.014496544           22 
 4284000   0.55789603   -7.8127116    807.80879  0.015713679  0.014491949           23 
 4285000    0.5750437   -7.7985861    805.73781  0.015669736   0.01448736           51 
 4286000   0.56676235   -7.7978475    805.99332  0.015671048   0.01448277           38 
 4287000   0.56408011   -7.7995655    807.17024   0.01569027  0.014478184           45 
 4288000   0.57333472   -7.8278365      806.196  0.015667677  0.014473598           39 
 4289000   0.56394194   -7.8232267    805.76008  0.015655554  0.014469007           30 
 4290000   0.57165591   -7.8103305    806.10322  0.015658571  0.014464422           30 
 4291000   0.57099032   -7.8145616    805.92116  0.015651386  0.014459842           29 
 4292000   0.56790033   -7.8012598    805.51254  0.015639806  0.014455261           50 
 4293000   0.56504471   -7.8007477    807.15276  0.015668001   0.01445068           28 
 4294000   0.56811251   -7.7920535    806.97256  0.015660855   0.01444611           29 
 4295000   0.56241443   -7.8123332    807.33969  0.015664332  0.014441539           38 
 4296000    0.5726777   -7.8155041    805.26602  0.015620461  0.014436963           18 
 4297000   0.55419716   -7.8154434    805.72005  0.015625631  0.014432387           42 
 4298000   0.56357595   -7.8002468    806.84307   0.01564377   0.01442782           33 
 4299000   0.57248261   -7.8143222    806.11269  0.015625973  0.014423255           34 
 4300000   0.56226835   -7.8300304    807.18861   0.01564319  0.014418693           22 
 4301000   0.55575155   -7.8196697    806.79971  0.015632018  0.014414131           29 
 4302000   0.55577323   -7.8126378    805.64819  0.015606078  0.014409572           27 
 4303000   0.57409938    -7.815607    805.54062  0.015600368  0.014405016           35 
 4304000    0.5570121   -7.7970452    806.82748   0.01562166  0.014400463           30 
 4305000   0.56623565   -7.8079294    805.81733  0.015598477  0.014395913           28 
 4306000   0.55367781   -7.8200306    806.36909  0.015605533  0.014391361           35 
 4307000   0.56086955   -7.8326991    806.42418  0.015602975  0.014386808           13 
 4308000   0.54738674   -7.8198092    807.57741  0.015621661  0.014382263           16 
 4309000   0.57313244   -7.8116304    806.99307  0.015606735  0.014377716           21 
 4310000   0.57654628   -7.8001127     805.4128   0.01557256  0.014373166           18 
 4311000   0.55395059   -7.8063441    805.78864  0.015576213  0.014368619           24 
 4312000   0.56217924    -7.799375    806.24429  0.015581406  0.014364071           19 
 4313000   0.56072744   -7.8232387    806.25063  0.015577916  0.014359529           23 
 4314000   0.56458396   -7.8078568    804.49619  0.015540415  0.014354979           21 
 4315000    0.5665692   -7.8164385    806.51971  0.015575892   0.01435043           24 
 4316000   0.55253664   -7.8164612    806.34411  0.015568893  0.014345887           15 
 4317000   0.56844952   -7.8230699    807.01818  0.015578299  0.014341349           28 
 4318000   0.57504883    -7.819775    806.11578  0.015557275  0.014336808           18 
 4319000    0.5654505    -7.819966    805.75104  0.015546636  0.014332265           19 
 4320000   0.54373431   -7.8123508    806.26158  0.015552885  0.014327722           24 
 4321000   0.56711296    -7.809247     806.2738  0.015549522  0.014323187           16 
 4322000   0.57343576   -7.8241551    804.61016  0.015513847  0.014318646           16 
 4323000   0.55564796   -7.8315241    806.86709  0.015553765  0.014314109           15 
 4324000    0.5648139   -7.8113902    806.32079  0.015539639  0.014309574           25 
 4325000   0.55526721   -7.8143062    807.78397  0.015564238  0.014305043           36 
 4326000    0.5524759   -7.8150898    805.71812  0.015520845  0.014300521           28 
 4327000     0.570609   -7.8258847    805.40152  0.015511161   0.01429599           25 
 4328000   0.56852092   -7.8396136    804.73069  0.015494661  0.014291462           32 
 4329000   0.56120813   -7.8302508    806.72022   0.01552938  0.014286936           22 
 4330000   0.55190833   -7.8192219     806.9466   0.01553015  0.014282417           17 
 4331000   0.55918017   -7.8370414    805.66067  0.015501822  0.014277904           13 
 4332000    0.5573054   -7.8325305    806.58553  0.015516034  0.014273384           23 
 4333000   0.55213209   -7.8172785    806.20084  0.015505055  0.014268859           27 
 4334000   0.56977048   -7.8154449    805.29986  0.015484154  0.014264347           37 
 4335000   0.56869764   -7.8195205    805.00073  0.015474831  0.014259832           25 
 4336000   0.56761248   -7.8216732    806.22845  0.015494858  0.014255317           20 
 4337000   0.55610122   -7.8300576    805.89563   0.01548489  0.014250802           17 
 4338000   0.56228855   -7.8247585    804.98391  0.015463806  0.014246286           13 
 4339000   0.55553653   -7.8119064    806.77663  0.015494673  0.014241765           14 
 4340000   0.55574818   -7.8342089    805.36735  0.015464043  0.014237245           17 
 4341000   0.56005593   -7.8476444    805.55697  0.015464121  0.014232726           14 
 4342000   0.56854337   -7.8117116    804.33679  0.015437141  0.014228203           14 
 4343000   0.55959132   -7.8423719    805.70296    0.0154598  0.014223685           15 
 4344000   0.54908013    -7.833688    802.94248  0.015403286  0.014219163            8 
 4345000   0.56062278   -7.8289444    805.65954  0.015451852  0.014214646           14 
 4346000   0.55852751   -7.8426858    805.34664  0.015442296  0.014210128           16 
 4347000   0.55728514   -7.8247415    806.43524  0.015459613  0.014205621           10 
 4348000   0.56267841   -7.8362043    805.93362  0.015446443  0.014201109           13 
 4349000    0.5615221   -7.8466846    805.19591  0.015428756  0.014196604           18 
 4350000   0.56658619    -7.836165     805.0076  0.015421602  0.014192098           19 
 4351000   0.55452845   -7.8233295    806.32817   0.01544335  0.014187585           19 
 4352000   0.55501765   -7.8247842     804.9051  0.015412552   0.01418308           15 
 4353000   0.55395383   -7.8236197     805.4378  0.015419209  0.014178577           17 
 4354000    0.5523611   -7.8449072    807.20991  0.015449585  0.014174071           18 
 4355000   0.54067602   -7.8129048    804.84878  0.015400857  0.014169566           15 
 4356000   0.55275112    -7.835453    805.80894   0.01541569  0.014165065           11 
 4357000   0.54504036   -7.8261517     806.9051  0.015433117  0.014160566           13 
 4358000   0.55911773   -7.8444559    803.97526  0.015373552  0.014156067           21 
 4359000   0.56817248   -7.8205435    804.27335  0.015375724  0.014151573           14 
 4360000   0.55843062   -7.8156005    805.34152  0.015392613  0.014147078           16 
 4361000   0.55422281   -7.8082515    803.87593  0.015361078  0.014142586           19 
 4362000   0.54508345   -7.8375776    805.29513  0.015384669  0.014138094           15 
 4363000   0.55478142   -7.8220616    805.23681  0.015380029  0.014133606           13 
 4364000   0.55744856   -7.8454039    804.52684  0.015362948  0.014129118           18 
 4365000    0.5566664   -7.8267754    804.62255  0.015361255  0.014124628           18 
 4366000   0.54643481   -7.8397353     804.5417  0.015356194  0.014120136           13 
 4367000   0.54982837   -7.8410019    804.28101  0.015347703  0.014115654           14 
 4368000   0.55169986   -7.8314047    803.89514  0.015336827  0.014111161           20 
 4369000   0.54622697     -7.83226     805.2722  0.015359583  0.014106684           23 
 4370000   0.55156505   -7.8181329    804.52319  0.015341785  0.014102203           14 
 4371000   0.56120317   -7.8399133    805.66433  0.015360031  0.014097723           21 
 4372000   0.55481583   -7.8450314    805.71475  0.015357478  0.014093238           17 
 4373000   0.54034445   -7.8396312    805.20692  0.015344289  0.014088756           19 
 4374000   0.55173884   -7.8494958    803.76477  0.015313305  0.014084281           22 
 4375000   0.55387282   -7.8461162    805.68381  0.015346358  0.014079804           29 
 4376000   0.55636158   -7.8101267    804.60335  0.015322276  0.014075333           19 
 4377000   0.55695149   -7.8311081    804.48459  0.015316514  0.014070858           19 
 4378000   0.55056559   -7.8411701    804.92977  0.015321489  0.014066391           31 
 4379000   0.55610145   -7.8214705    806.13274  0.015340883  0.014061935           23 
 4380000    0.5630523   -7.8455286    803.96623  0.015296161  0.014057469           16 
 4381000   0.54744296   -7.8363912    804.40381  0.015300993  0.014053005           19 
 4382000   0.55526028   -7.8584166    805.52822  0.015318884  0.014048542           17 
 4383000   0.54967865   -7.8427752    805.19095  0.015308977   0.01404408           29 
 4384000   0.55148603   -7.8442569    804.63707  0.015294957   0.01403962           19 
 4385000    0.5540734    -7.846255    805.76987  0.015312996  0.014035153           37 
 4386000   0.55832726   -7.8462084    804.42271  0.015283909  0.014030682           23 
 4387000   0.55600377   -7.8199923    805.19447  0.015295085  0.014026213           27 
 4388000   0.56418142   -7.8567046    804.67224  0.015281682  0.014021748           27 
 4389000   0.54916044   -7.8411183    804.05105  0.015266406  0.014017282           23 
 4390000   0.54254189   -7.8371177     803.4095   0.01525075  0.014012812           27 
 4391000   0.53438032   -7.8465674    804.21041  0.015262476  0.014008349           29 
 4392000   0.54776438   -7.8616514    804.89823  0.015272052  0.014003889           17 
 4393000   0.55465409   -7.8515895     804.3013  0.015257252  0.013999428           33 
 4394000   0.55385792   -7.8582483    804.42482  0.015256122   0.01399497           36 
 4395000   0.55108366   -7.8529702     804.0774  0.015246064  0.013990515           32 
 4396000   0.54699145   -7.8392278    806.38614  0.015286361  0.013986059           19 
 4397000   0.54519902   -7.8340178    804.25263   0.01524245  0.013981606           28 
 4398000   0.54993329   -7.8576693    803.89208  0.015232153  0.013977157           27 
 4399000   0.52898619   -7.8474765    805.12231  0.015251995  0.013972703           19 
 4400000   0.53514553   -7.8205953    804.71586  0.015240831  0.013968259           27 
 4401000   0.55731301   -7.8483695    803.99212  0.015223664  0.013963817           42 
 4402000   0.55516824   -7.8496647    803.22406  0.015205665  0.013959369           24 
 4403000   0.54022674   -7.8284009    804.35717  0.015223658   0.01395492           17 
 4404000   0.53977502   -7.8312122    804.74147  0.015227473  0.013950474           12 
 4405000   0.54503367   -7.8470455    804.36861  0.015216962  0.013946026           18 
 4406000   0.53190235   -7.8665489    803.81308  0.015203001  0.013941574           17 
 4407000   0.55492448   -7.8677148    803.61228  0.015195754  0.013937126           15 
 4408000   0.54228843   -7.8623024    803.43071  0.015188875  0.013932683           19 
 4409000   0.54882664   -7.8514782    805.79947  0.015230201  0.013928253           22 
 4410000    0.5523909   -7.8453143    803.19618  0.015177554  0.013923818           21 
 4411000   0.56190111   -7.8439954    804.58697  0.015200389  0.013919389           19 
 4412000   0.54525166   -7.8571364    803.28444  0.015172341  0.013914955           19 
 4413000   0.53705399   -7.8528217    805.83639  0.015217093  0.013910533           18 
 4414000    0.5634341   -7.8565429    804.34878  0.015185561  0.013906104           19 
 4415000   0.55448701   -7.8507241    805.44192  0.015202754   0.01390168           27 
 4416000   0.53769954   -7.8403518    802.98628  0.015152972  0.013897251           16 
 4417000   0.53764395   -7.8491891    803.68687  0.015162759  0.013892828           14 
 4418000   0.54971871   -7.8396368    804.31544  0.015171183  0.013888404           23 
 4419000   0.55069829    -7.850557    802.80655  0.015139295  0.013883976           16 
 4420000   0.54776079   -7.8508761    803.36227  0.015146348  0.013879557           14 
 4421000   0.54598462    -7.833296    804.89224  0.015171761  0.013875137           14 
 4422000   0.53950958   -7.8287015    805.53085  0.015180364  0.013870719           20 
 4423000   0.53804605   -7.8582744    804.60964  0.015159576  0.013866305           19 
 4424000    0.5478904   -7.8573928    805.14907   0.01516631  0.013861889           16 
 4425000   0.56123364   -7.8607455    804.33269  0.015147508  0.013857475           13 
 4426000   0.53282565   -7.8674173    803.38245  0.015126195   0.01385306           21 
 4427000   0.55570711   -7.8539075    804.15386  0.015137299  0.013848644           20 
 4428000   0.55255703   -7.8507116    804.26321  0.015135938   0.01384423           31 
 4429000   0.53959923   -7.8673208    804.02869  0.015128108  0.013839819           18 
 4430000   0.54948669   -7.8543966    804.06797  0.015125432   0.01383541           12 
 4431000    0.5438673   -7.8539092    803.66795  0.015114495  0.013830999           29 
 4432000   0.54650397   -7.8634271    804.50009  0.015126731  0.013826592           27 
 4433000   0.53658822    -7.855495    803.90227  0.015112081  0.013822189           25 
 4434000   0.54366812    -7.856089     804.8783  0.015127017  0.013817793           17 
 4435000   0.54930315   -7.8396442    804.15374  0.015109991  0.013813396           24 
 4436000   0.53651144    -7.842284    804.13199  0.015106177  0.013808998           32 
 4437000   0.53470615   -7.8550037    805.61448  0.015130615  0.013804599           27 
 4438000   0.55007771   -7.8590829    804.35268  0.015103513  0.013800201           17 
 4439000   0.54482926   -7.8714692    804.53192  0.015103475  0.013795802           24 
 4440000   0.53909298   -7.8607699    803.66544  0.015083811  0.013791411           21 
 4441000   0.53559461   -7.8599194     803.6221  0.015079601  0.013787023           16 
 4442000   0.53377841    -7.872826    804.43358   0.01509143  0.013782636           23 
 4443000   0.54117236   -7.8750745    804.43859  0.015088127  0.013778245           29 
 4444000   0.54709218   -7.8674198     803.9314  0.015075221  0.013773853           16 
 4445000   0.54207027   -7.8482903    803.01735  0.015054693  0.013769465           21 
 4446000   0.53379845   -7.8695226    803.13312  0.015053477  0.013765085           16 
 4447000   0.54528569   -7.8356937    804.14897  0.015069128  0.013760698           14 
 4448000   0.54862986   -7.8654168     804.2236  0.015067139  0.013756317           18 
 4449000   0.54397922   -7.8569403    803.41181  0.015048547  0.013751941           22 
 4450000     0.538324   -7.8775064    802.91651   0.01503589  0.013747559           23 
 4451000   0.53894767   -7.8445602    805.44308  0.015079815  0.013743184           16 
 4452000   0.53143867   -7.8616002    803.61888  0.015042282  0.013738811           30 
 4453000   0.53773024   -7.8475336    804.11829   0.01504825  0.013734441           23 
 4454000   0.53718981   -7.8528131    802.54402  0.015015417  0.013730071           26 
 4455000    0.5381842    -7.856625    804.19981  0.015043019  0.013725699           44 
 4456000   0.52718882   -7.8556419    803.21373  0.015021202  0.013721336           16 
 4457000   0.52184981   -7.8615605     803.9524  0.015031643  0.013716967           29 
 4458000   0.54918873   -7.8689023    805.10975  0.015049906  0.013712604           27 
 4459000     0.543305   -7.8584764    803.62625  0.015018806  0.013708244           26 
 4460000   0.55242247    -7.862036    804.00888  0.015022588  0.013703884           17 
 4461000   0.53920371   -7.8570385    803.93921  0.015017918  0.013699528           23 
 4462000   0.52990674   -7.8661138    803.47643   0.01500591  0.013695173           27 
 4463000   0.53534548   -7.8593062    802.85831  0.014991006  0.013690818           22 
 4464000    0.5369492   -7.8493852     804.2454  0.015013542  0.013686464           28 
 4465000   0.53938961   -7.8613829    803.27945  0.014992151  0.013682112           40 
 4466000   0.52901827   -7.8619665     803.5614  0.014994055  0.013677764           21 
 4467000   0.53515598   -7.8505012    803.88256   0.01499669  0.013673417           19 
 4468000   0.53694747   -7.8750218    804.10124  0.014997412  0.013669078           53 
 4469000   0.52640431   -7.8820891    804.65019  0.015004292  0.013664733           15 
 4470000    0.5374764   -7.8579744     803.1045   0.01497212   0.01366039           41 
 4471000   0.53712148   -7.8795708     804.9697  0.015003536  0.013656049           40 
 4472000   0.54007294   -7.8784445    805.25564  0.015005509  0.013651708           23 
 4473000   0.53392554    -7.882097     803.4917  0.014969292   0.01364737           35 
 4474000   0.53947343   -7.8828558    803.70985  0.014970009  0.013643035           30 
 4475000   0.54444053   -7.8518797    803.74562   0.01496733    0.0136387           30 
 4476000   0.53339979   -7.8652911    802.35949  0.014938179  0.013634371           20 
 4477000   0.54995432   -7.8767849     804.4343  0.014973462  0.013630037           28 
 4478000    0.5461585   -7.8732567    805.35824  0.014987313  0.013625705           15 
 4479000   0.54033831   -7.8624209    803.54973  0.014950319  0.013621373           36 
 4480000   0.53568629   -7.8645258    802.56156    0.0149286  0.013617042           21 
 4481000   0.53614833   -7.8596186    803.27788   0.01493859  0.013612713           26 
 4482000   0.54254398   -7.8712391    802.39817  0.014918901  0.013608384           30 
 4483000   0.53844416   -7.8588697    802.83191  0.014923636   0.01360406           38 
 4484000   0.53669292   -7.8539397    803.91821  0.014940496  0.013599734           23 
 4485000   0.52816046   -7.8619935    805.05905  0.014958362  0.013595416           24 
 4486000    0.5302509     -7.86387    803.32808  0.014922873  0.013591093           17 
 4487000    0.5326367   -7.8618822    804.51066   0.01494151  0.013586774           24 
 4488000   0.54050037   -7.8701756    803.74902  0.014924039  0.013582453           19 
 4489000   0.53281937   -7.8697512     803.1424  0.014909453  0.013578133           13 
 4490000   0.54475139   -7.8843705    803.09974   0.01490534  0.013573818           32 
 4491000   0.55112189   -7.8610908    804.65343  0.014930851  0.013569506           16 
 4492000   0.52778536   -7.8809582    804.59484   0.01492644  0.013565193           16 
 4493000   0.53918812   -7.8730599    804.32475  0.014918109  0.013560883           16 
 4494000   0.54170824    -7.872112    803.33246  0.014896389  0.013556572           14 
 4495000   0.52696784   -7.8605805    801.90482  0.014866608  0.013552264           12 
 4496000   0.53158145   -7.8764885    803.19889  0.014887287   0.01354796           28 
 4497000    0.5258215   -7.8664755    803.66427    0.0148926  0.013543659           16 
 4498000   0.54206758   -7.8838305    802.23018   0.01486272  0.013539357           16 
 4499000   0.52235131   -7.8675927    804.54879  0.014902363  0.013535057           12 
 4500000    0.5353721   -7.8718821    803.16849  0.014873491  0.013530758           20 
 4501000    0.5295663   -7.8697991    803.46605  0.014875695  0.013526463           23 
 4502000   0.52670976   -7.8848725     802.3648  0.014852007  0.013522167           14 
 4503000   0.53381228   -7.8739679    804.52059  0.014888604  0.013517873           16 
 4504000   0.52263308   -7.8608516    804.05988  0.014876774  0.013513584           22 
 4505000     0.534483   -7.8656136    802.38485  0.014842487   0.01350929           16 
 4506000   0.52131737   -7.8662495    803.14891  0.014853324  0.013504995           24 
 4507000   0.52693715   -7.8710593    802.64344  0.014840682  0.013500708           23 
 4508000   0.52927834   -7.8700448    802.24481  0.014830021  0.013496419           25 
 4509000   0.52884844   -7.8700675    803.82187  0.014855878  0.013492131           20 
 4510000   0.53539633   -7.8915155    801.61902  0.014811881  0.013487838           22 
 4511000   0.53146186   -7.8656211    803.01718  0.014834427   0.01348355           27 
 4512000   0.52800748   -7.8610897    804.01881  0.014849638   0.01347927           25 
 4513000   0.52568525   -7.8698293    803.53053  0.014837332  0.013474988           20 
 4514000   0.53333267   -7.8756134    802.44157  0.014813941  0.013470711           22 
 4515000   0.53564453   -7.8832069    803.04853  0.014821863  0.013466435           26 
 4516000   0.54182792   -7.8742706    802.09226  0.014800935  0.013462154           20 
 4517000   0.53940234   -7.8685504    803.35462  0.014820947  0.013457881           34 
 4518000   0.52924396    -7.868422    804.27959  0.014834728  0.013453611           29 
 4519000   0.52264024   -7.8763074    803.24631   0.01481239  0.013449337           35 
 4520000   0.54160234   -7.8672861    803.14848   0.01480731  0.013445066           26 
 4521000    0.5324961   -7.8786323    803.41895   0.01480902  0.013440796           22 
 4522000   0.53762084   -7.8617236    802.12803  0.014781955  0.013436527           33 
 4523000   0.53714527    -7.878867    803.78925  0.014809294  0.013432265           29 
 4524000   0.53675318   -7.8541972    802.23873   0.01477746  0.013427997           27 
 4525000   0.51985162   -7.8657821    802.93674  0.014787049  0.013423734           27 
 4526000   0.52603235   -7.8866981    802.50737  0.014775876  0.013419472           35 
 4527000   0.52207724   -7.8762441    804.07259  0.014801425  0.013415211           37 
 4528000   0.53664727   -7.8847932    803.15839  0.014781331   0.01341095           28 
 4529000   0.51568533   -7.8685021    802.43391  0.014764737   0.01340669           37 
 4530000   0.52055009   -7.8964834     803.0824  0.014773407  0.013402434           38 
 4531000   0.51647263   -7.8728157    803.68189  0.014781172   0.01339818           47 
 4532000   0.51496893   -7.8876106    803.31099  0.014771091  0.013393927           39 
 4533000   0.52399354   -7.8772031    801.91217  0.014742116  0.013389678           30 
 4534000   0.51779367   -7.8703958    803.29356  0.014764255  0.013385433           42 
 4535000   0.52367374   -7.8691943    804.72155  0.014787239  0.013381189           25 
 4536000   0.51593261   -7.8763885    803.15738  0.014755243  0.013376946           43 
 4537000   0.52771508   -7.8710629     803.1808  0.014752421  0.013372699           30 
 4538000    0.5327642   -7.8836895    803.03327  0.014746461  0.013368456           44 
 4539000   0.51682397   -7.8877694    804.26709  0.014765864  0.013364209           20 
 4540000   0.53491376   -7.8687203    803.81992  0.014754404  0.013359967           53 
 4541000   0.53330956   -7.8819941    803.32431   0.01474206  0.013355728           36 
 4542000   0.51937836   -7.8848058     802.0509   0.01471545  0.013351487           55 
 4543000   0.53326001   -7.9155761    802.63261  0.014722882  0.013347248           41 
 4544000   0.51767752   -7.8985252    803.83985  0.014741781  0.013343008           45 
 4545000   0.53204094   -7.8901549    802.92177  0.014721705  0.013338766           49 
 4546000    0.5102371   -7.8966381    803.05906  0.014720983  0.013334526           55 
 4547000   0.52927792   -7.8845333    804.28653  0.014740241  0.013330292           45 
 4548000   0.52473645   -7.8895973    802.32122   0.01470099  0.013326054           23 
 4549000   0.53559419   -7.8728649    801.67601  0.014685938  0.013321817           34 
 4550000   0.52023179   -7.8767091    802.52846  0.014698323  0.013317584           36 
 4551000   0.53516988   -7.8896631    801.59525  0.014678006  0.013313355           52 
 4552000   0.51818779   -7.8839717    802.86069  0.014697948  0.013309125           39 
 4553000   0.51668205   -7.9055675     803.5171  0.014706734  0.013304896           40 
 4554000   0.51770569   -7.8851518    802.74974  0.014689462  0.013300662           44 
 4555000    0.5200578   -7.8739863    801.41078  0.014661741  0.013296436           39 
 4556000   0.52547965   -7.8975408    803.83399  0.014702846  0.013292206           62 
 4557000   0.52319984   -7.8887442    801.40699  0.014655237  0.013287979           41 
 4558000   0.52106055     -7.88653    802.96805  0.014680563  0.013283755           37 
 4559000   0.51655521   -7.8916691     802.6243  0.014671059   0.01327953           32 
 4560000   0.52091709   -7.8863968    802.14617  0.014659104  0.013275308           39 
 4561000   0.51331502   -7.8904679    801.61094  0.014646111  0.013271086           40 
 4562000   0.52667475   -7.8777862    801.30522  0.014637316   0.01326687           36 
 4563000   0.52382942   -7.8920688    802.43753  0.014654787  0.013262656           31 
 4564000   0.52381311   -7.8763602    801.17971   0.01462861  0.013258449           31 
 4565000   0.51708511    -7.864126    801.47839  0.014630858  0.013254236           33 
 4566000    0.5156451    -7.881975    801.84617  0.014634366  0.013250024           34 
 4567000   0.51493514   -7.8971302    802.62881  0.014645442  0.013245814           32 
 4568000   0.51894781   -7.8924046    802.36229  0.014637374  0.013241606           20 
 4569000   0.51966285   -7.8888085    801.37086  0.014616088  0.013237399           33 
 4570000   0.52336217   -7.9037185    802.33441   0.01463046  0.013233189           39 
 4571000   0.51339502   -7.8959005    803.13983  0.014641942  0.013228992           28 
 4572000   0.52122663   -7.8998653    801.87413   0.01461567  0.013224788           45 
 4573000   0.52142033    -7.902993    803.11182  0.014635028  0.013220587           22 
 4574000   0.51603667   -7.8894473    801.93096  0.014610315  0.013216385           19 
 4575000   0.53113143   -7.9000626     803.4773  0.014635288  0.013212192           38 
 4576000   0.52775871   -7.8844606    802.13104  0.014607573  0.013207997           31 
 4577000   0.51707358   -7.8876377    803.58062  0.014630774  0.013203808           36 
 4578000    0.5164563   -7.8995323    802.63209  0.014610312  0.013199622           28 
 4579000   0.51327921   -7.8911568    802.16566  0.014598632  0.013195435           34 
 4580000    0.5161927   -7.8938429    802.84777  0.014607856  0.013191247           26 
 4581000    0.5215383   -7.9061179    801.74305  0.014584571  0.013187062           40 
 4582000   0.51872625   -7.8983884    801.70827  0.014580756  0.013182879           26 
 4583000   0.51404893   -7.9045235    802.91857  0.014599581  0.013178703           33 
 4584000   0.51642144   -7.8878876    802.45455  0.014587961   0.01317452           36 
 4585000   0.53511679     -7.90408    802.60797  0.014587568  0.013170342           41 
 4586000   0.49844638    -7.894207    802.06657  0.014574549  0.013166161           22 
 4587000   0.51916574   -7.9047549    802.30476  0.014575699  0.013161982           23 
 4588000   0.52309723   -7.9056678    802.58446  0.014577602  0.013157806           31 
 4589000   0.51167109   -7.9089043    802.57345  0.014574226  0.013153632           40 
 4590000   0.51023651   -7.8854525    803.00794  0.014578939  0.013149459           41 
 4591000   0.52067719   -7.9002063    803.08338  0.014577132  0.013145286           55 
 4592000   0.51758346   -7.8971572    800.99283   0.01453602  0.013141119           13 
 4593000    0.5145419   -7.8980732    802.54217  0.014560965   0.01313695           36 
 4594000   0.52805995   -7.9114097    801.99081  0.014547794  0.013132783           35 
 4595000   0.52125964    -7.889006    802.27631  0.014549806  0.013128616           50 
 4596000   0.51131598   -7.8991194    802.10328  0.014543503  0.013124455           38 
 4597000   0.50123483   -7.9019485    802.46699  0.014546933  0.013120291           26 
 4598000   0.50981508   -7.9007994    803.42565  0.014561143  0.013116127           24 
 4599000   0.51863344   -7.8990358    801.88639  0.014530086  0.013111963           22 
 4600000   0.50595052   -7.9041774    801.41607  0.014518407  0.013107803           24 
 4601000   0.52123024    -7.907949    801.95485   0.01452501  0.013103646           26 
 4602000   0.51919629   -7.9015516     801.7482  0.014518112  0.013099489           35 
 4603000   0.52397942   -7.8905949    803.00858  0.014537776  0.013095336           28 
 4604000   0.52536666   -7.8861525    803.31022  0.014540078  0.013091184           15 
 4605000   0.51595798   -7.8985145    801.61175  0.014506184   0.01308703           21 
 4606000    0.5185433   -7.8894448    801.02709  0.014492457  0.013082876           24 
 4607000   0.51717302   -7.9017685    801.72115  0.014501866   0.01307873           26 
 4608000   0.51732424   -7.9144642    802.09599  0.014505497  0.013074589           26 
 4609000   0.51668061   -7.8856925    802.60045  0.014511471  0.013070443           26 
 4610000   0.51872495   -7.9120699    801.86656  0.014495057  0.013066301           27 
 4611000   0.50593099   -7.8812914    802.46933  0.014502807   0.01306216           40 
 4612000   0.51469742   -7.9052776    801.55649  0.014483169  0.013058022           34 
 4613000    0.5177252   -7.9017733    800.91683  0.014468474  0.013053876           46 
 4614000   0.50684228   -7.9072064    801.44022  0.014474791  0.013049736           26 
 4615000   0.51334278   -7.8924447     800.4293    0.0144534  0.013045596           31 
 4616000   0.51630731   -7.9026546    801.47051  0.014469066   0.01304146           49 
 4617000   0.50815114   -7.9039948     802.3515  0.014481833  0.013037324           34 
 4618000   0.51406185   -7.9073143    802.60597  0.014483289  0.013033185           52 
 4619000   0.51925031   -7.9010738    802.08199  0.014470701  0.013029047           22 
 4620000   0.50450332   -7.8980855    802.76819  0.014479946  0.013024916           18 
 4621000   0.51698152     -7.92307    802.44192  0.014470928  0.013020785           41 
 4622000   0.51812155    -7.907117    801.24995  0.014446307  0.013016653           25 
 4623000    0.5129172   -7.9147509    801.92665   0.01445538   0.01301252           21 
 4624000    0.5058446   -7.9078814    801.83841  0.014450663  0.013008394           31 
 4625000   0.50565591   -7.9096677    801.91991  0.014449007  0.013004268           23 
 4626000   0.51504492    -7.890353    802.79299  0.014461612  0.013000147           33 
 4627000   0.51516467     -7.90589    801.85562  0.014441604  0.012996024           24 
 4628000   0.49326851   -7.8997017     801.8918  0.014439135  0.012991905           31 
 4629000   0.50826072   -7.9017023    801.32475  0.014425807  0.012987784           23 
 4630000   0.51339229   -7.8988904    801.14826  0.014419515  0.012983669           21 
 4631000   0.50446077   -7.9000689    800.99836  0.014413704  0.012979553           39 
 4632000   0.50486845   -7.9366265    802.18302  0.014431905  0.012975436           32 
 4633000   0.51168603     -7.92548    801.59283  0.014418175  0.012971326           32 
 4634000   0.50890029   -7.9052902    800.98494  0.014404131  0.012967214           22 
 4635000   0.50576454   -7.9140073    800.47807  0.014391911  0.012963103           34 
 4636000   0.51108297   -7.9209598    802.47334  0.014424672  0.012958997           32 
 4637000     0.498332    -7.893309    802.34317  0.014419222  0.012954887           19 
 4638000   0.51422023   -7.9165601    802.04293  0.014410718  0.012950778           26 
 4639000   0.51626458    -7.911926    802.05868  0.014407895  0.012946677           28 
 4640000   0.50909358     -7.90109    801.12523  0.014388025  0.012942577           31 
 4641000   0.50050737   -7.8979485    800.98035  0.014382323  0.012938477           29 
 4642000   0.51244422   -7.9124238    800.54639  0.014371435  0.012934378           15 
 4643000   0.50476954   -7.9094768    802.69744  0.014406947  0.012930276           29 
 4644000   0.51191463   -7.8995288    801.04781  0.014374243  0.012926175           25 
 4645000   0.50416103   -7.9157637    802.03923  0.014388935  0.012922075           20 
 4646000   0.50406326   -7.9237154    801.97202  0.014384632  0.012917981           28 
 4647000   0.50812399   -7.9303212    800.99076   0.01436394  0.012913887           27 
 4648000   0.49934822   -7.9027822    801.29438  0.014366293  0.012909798           48 
 4649000   0.50905071   -7.9113968    801.10257  0.014359765  0.012905713           39 
 4650000   0.50315395   -7.9058701    801.77518  0.014368731  0.012901628           40 
 4651000   0.49925242    -7.897268    803.63939  0.014399043  0.012897544           25 
 4652000   0.50833927   -7.9139464    801.71114  0.014361406  0.012893465           21 
 4653000   0.50476422   -7.9182816    801.04049  0.014346309  0.012889385           27 
 4654000   0.51311163   -7.9227028    802.77483  0.014374281  0.012885307           48 
 4655000   0.50851285   -7.9280232    801.10437  0.014341288   0.01288123           25 
 4656000   0.51013134   -7.9201738    800.89212  0.014334409  0.012877154           22 
 4657000   0.50829291   -7.9171407     802.5566  0.014361116  0.012873079           31 
 4658000   0.50154088   -7.9240206    801.78518  0.014344232  0.012869007           21 
 4659000   0.51258016   -7.9068566    802.45238  0.014353087  0.012864938           24 
 4660000   0.49903588   -7.9179422    801.51854  0.014333307  0.012860868           52 
 4661000   0.50231781   -7.9301378    802.87508  0.014354485  0.012856797           18 
 4662000   0.50136737   -7.9189054    801.73689  0.014331061  0.012852729           24 
 4663000   0.51198563   -7.9080625    801.10726  0.014316736  0.012848656           23 
 4664000   0.50490596   -7.9221638    800.32135  0.014299624  0.012844593           25 
 4665000    0.5007961   -7.9178399     801.4169  0.014316129  0.012840531           23 
 4666000   0.50701992   -7.9044168    802.49043  0.014332234  0.012836472           26 
 4667000   0.49974261   -7.9212853     801.3642  0.014309053  0.012832411           27 
 4668000   0.51386505   -7.9162967    801.44668   0.01430746  0.012828351           23 
 4669000   0.50308422   -7.9167974    801.67095  0.014308398  0.012824294           21 
 4670000   0.50031378   -7.9181619    801.66712  0.014305266  0.012820237           34 
 4671000    0.5043143   -7.9299268    802.13259  0.014310508  0.012816184           22 
 4672000    0.5008131   -7.9191488    801.67387  0.014299263  0.012812131           17 
 4673000   0.50549778   -7.9326236    803.11082  0.014321828  0.012808078           21 
 4674000   0.50127154   -7.9411327     801.5263  0.014290513  0.012804027           29 
 4675000   0.51151443   -7.9279778    802.89323  0.014311822   0.01279998           18 
 4676000   0.49001264   -7.9341422    800.93424   0.01427385  0.012795933           21 
 4677000   0.50190537   -7.9271536    802.01425  0.014290041  0.012791888           18 
 4678000   0.49422385   -7.9126256    800.95575   0.01426813  0.012787841           19 
 4679000   0.50766092   -7.9206178    802.52556  0.014293039  0.012783797           18 
 4680000    0.5031242   -7.9154046     801.4936   0.01427161  0.012779756           22 
 4681000   0.50221588   -7.9241016      800.604  0.014252724  0.012775715           17 
 4682000   0.49269224   -7.9170084     801.0738  0.014258041  0.012771679           24 
 4683000   0.50962744   -7.9276392    800.30239   0.01424127  0.012767637           37 
 4684000   0.50265306   -7.9313999    801.30679  0.014256099  0.012763602           25 
 4685000   0.49916344   -7.9232861     800.6754  0.014241825   0.01275957           17 
 4686000   0.50588721   -7.9230851    802.45253  0.014270389  0.012755539           26 
 4687000   0.49917163   -7.9270665    800.30021  0.014229077  0.012751509           19 
 4688000     0.495276   -7.9225324    801.28174  0.014243489  0.012747476           26 
 4689000   0.50488668   -7.9130011    799.97151  0.014217166  0.012743447           18 
 4690000   0.50189635   -7.9074935    800.63379  0.014225903  0.012739416           14 
 4691000   0.50003834   -7.9360205    801.25863   0.01423397  0.012735387           23 
 4692000   0.49898172   -7.9398072    801.26544  0.014231057  0.012731359           31 
 4693000   0.51146938    -7.918244    800.57958  0.014215846  0.012727335           20 
 4694000   0.49612176    -7.917615    801.95333  0.014237206  0.012723312           20 
 4695000   0.50655598   -7.9458486    801.00153  0.014217279   0.01271929           20 
 4696000   0.50152084   -7.9404777    801.22328  0.014218187  0.012715269           22 
 4697000   0.49213724   -7.9389193    801.31987  0.014216874  0.012711254           22 
 4698000   0.49831442    -7.927359    801.24647  0.014212546  0.012707243           22 
 4699000   0.50380539    -7.933377    800.78518   0.01420134  0.012703226           22 
 4700000    0.4960906   -7.9239858    800.81437  0.014198836  0.012699216           26 
 4701000   0.49283872   -7.9373226    801.67326  0.014211041  0.012695205           18 
 4702000   0.49025743   -7.9190531    802.03221  0.014214381  0.012691194           24 
 4703000   0.48949203   -7.9264481     801.5172  0.014202233   0.01268719           19 
 4704000   0.50347495   -7.9288561    802.13911  0.014210231  0.012683186           25 
 4705000   0.49432609   -7.9259578    801.19053   0.01419041  0.012679181           17 
 4706000   0.49693196   -7.9271283    801.40021  0.014191107  0.012675173           12 
 4707000   0.49561583   -7.9509028    802.10618  0.014200591  0.012671168           18 
 4708000   0.48559958   -7.9445527    800.59242  0.014170781  0.012667161           21 
 4709000   0.49628757   -7.9423066    801.17932  0.014178157  0.012663158           18 
 4710000   0.49059004   -7.9429201    801.27736  0.014176882  0.012659159           23 
 4711000   0.50009813   -7.9376846    801.70484  0.014181434  0.012655161           39 
 4712000    0.4950768   -7.9357477    801.87474  0.014181429   0.01265116           19 
 4713000   0.50477882   -7.9490526    801.09168  0.014164575  0.012647164           27 
 4714000   0.48981326   -7.9369773    801.32654  0.014165722  0.012643171           24 
 4715000   0.48882621   -7.9204323    801.51391  0.014166029  0.012639179           18 
 4716000    0.4934278    -7.948226    801.47452  0.014162329  0.012635184           23 
 4717000   0.51251268   -7.9339586    800.69914  0.014145628  0.012631193           32 
 4718000   0.50384881   -7.9391208    800.15827  0.014133077  0.012627201           22 
 4719000   0.49409018   -7.9267801    800.20413  0.014130892  0.012623211           25 
 4720000   0.50302028   -7.9414838    800.15595  0.014127047  0.012619224           30 
 4721000   0.48476522   -7.9291237    801.21985  0.014142834  0.012615235           20 
 4722000   0.49384143   -7.9346082    800.22374   0.01412226   0.01261125           26 
 4723000   0.49278145   -7.9386982    800.55477  0.014125111  0.012607271           23 
 4724000   0.49023433   -7.9237642    801.48571  0.014138543  0.012603287           19 
 4725000   0.49154787   -7.9477808    800.67654  0.014121279  0.012599305           28 
 4726000   0.50580482   -7.9288086    801.31466  0.014129543  0.012595329           31 
 4727000   0.48964325   -7.9283785    800.63184  0.014114517  0.012591351           17 
 4728000   0.49092823   -7.9513106    800.52454   0.01410964  0.012587376           25 
 4729000   0.49022269   -7.9344129    800.02608  0.014097873    0.0125834           24 
 4730000   0.48713434    -7.950016    800.73951  0.014107461  0.012579426           35 
 4731000   0.48126566   -7.9351071    801.15091  0.014111726  0.012575448           23 
 4732000   0.47821374   -7.9350607    800.95659  0.014105322  0.012571475           22 
 4733000   0.48924817   -7.9082695    801.02739  0.014103588  0.012567504           26 
 4734000   0.50086779   -7.9354085    799.39308   0.01407184  0.012563538           22 
 4735000   0.48359807   -7.9401137    800.15318  0.014082245  0.012559569           25 
 4736000   0.50080982   -7.9465407    800.79697    0.0140906  0.012555603           28 
 4737000   0.47558099   -7.9295818     800.7901  0.014087504  0.012551636           26 
 4738000   0.48480145   -7.9456236    800.28216  0.014075597  0.012547672           38 
 4739000   0.49153964   -7.9664747    801.34408  0.014091301  0.012543708           23 
 4740000   0.50852343   -7.9291002    799.84643  0.014061998  0.012539747           23 
 4741000   0.49731638   -7.9366425     800.4845  0.014070247  0.012535788           21 
 4742000   0.49978309   -7.9391769    799.68348  0.014053203  0.012531829           30 
 4743000   0.49238415   -7.9559703     801.0019  0.014073405  0.012527872           32 
 4744000   0.48716817   -7.9465985    800.08371  0.014054309  0.012523921           24 
 4745000   0.50052079   -7.9643815    801.07831  0.014068815  0.012519967           32 
 4746000   0.49929821   -7.9462088     800.8947  0.014062626  0.012516017           28 
 4747000   0.49534866   -7.9268097    801.17971  0.014064667  0.012512067           18 
 4748000   0.48390532   -7.9285074    800.13118  0.014043302  0.012508119           21 
 4749000   0.49622628   -7.9433961    801.84974  0.014070502  0.012504173           33 
 4750000    0.5035457   -7.9452547     801.1735  0.014055676  0.012500228           29 
 4751000    0.4916654   -7.9307611    800.68329  0.014044119  0.012496284           24 
 4752000   0.49296165   -7.9544042    800.18678  0.014032456  0.012492341           33 
 4753000   0.49719272   -7.9525992    800.15471  0.014028942  0.012488401           31 
 4754000     0.495671   -7.9456984    800.04883  0.014024135  0.012484461           25 
 4755000   0.50370172   -7.9469428    799.46815  0.014011009  0.012480522           17 
 4756000   0.49801507   -7.9329308    801.06023  0.014035959  0.012476586           23 
 4757000   0.49032901   -7.9537962    801.47147  0.014040212  0.012472651           29 
 4758000      0.49539   -7.9413976    800.98459  0.014028734  0.012468718           37 
 4759000   0.49471683   -7.9454234     800.2782  0.014013417  0.012464787           28 
 4760000    0.4910972   -7.9466261    801.49612  0.014031795  0.012460854           37 
 4761000   0.48467991   -7.9597772    799.19757  0.013988615  0.012456927           34 
 4762000   0.48259356   -7.9542013    800.98531  0.014016963  0.012453002           27 
 4763000     0.480794   -7.9494311    800.16104  0.013999598  0.012449076           23 
 4764000   0.49410408   -7.9438829    800.64125   0.01400506  0.012445152           31 
 4765000   0.48718752    -7.947385    799.45203  0.013981323  0.012441228           30 
 4766000   0.49661072   -7.9528373    801.79895  0.014019425  0.012437303           23 
 4767000   0.48791994   -7.9536115    801.39004  0.014009336  0.012433385           26 
 4768000   0.49012348   -7.9221917    799.81059  0.013978793  0.012429467           29 
 4769000   0.48308311   -7.9298278    800.02661  0.013979636  0.012425552           24 
 4770000   0.48514056   -7.9607314    800.18157  0.013979412  0.012421637           40 
 4771000   0.48447221   -7.9279323    801.34067  0.013996728  0.012417723           38 
 4772000   0.49544284   -7.9565292    801.19527  0.013991256   0.01241381           25 
 4773000   0.48688249   -7.9525072    800.90641  0.013983281    0.0124099           23 
 4774000   0.49332376   -7.9489177    800.66447  0.013976129  0.012405988           30 
 4775000   0.49483746   -7.9330455    800.60258  0.013972122  0.012402079           24 
 4776000    0.4905161   -7.9326582    800.54044  0.013968112  0.012398173           22 
 4777000   0.48751493   -7.9466228    800.43388  0.013963329  0.012394268           28 
 4778000    0.4824951   -7.9415633    799.88721  0.013950872  0.012390363           27 
 4779000    0.4829694    -7.962995    800.75146  0.013963023   0.01238646           33 
 4780000    0.4895276   -7.9458756    799.72749   0.01394225  0.012382561           39 
 4781000   0.48407058   -7.9530633    801.59184   0.01397183  0.012378661           21 
 4782000   0.47678943   -7.9505055    800.58598   0.01395138  0.012374761           25 
 4783000   0.47737587   -7.9584673    799.85801   0.01393578  0.012370864           21 
 4784000   0.49548068   -7.9358707    801.30816  0.013958127  0.012366965           28 
 4785000   0.48253672   -7.9539745     801.1511  0.013952475  0.012363075           26 
 4786000   0.48765099   -7.9495377    801.16629  0.013949824  0.012359185           42 
 4787000   0.49615082   -7.9630453    800.10551  0.013928444  0.012355293           19 
 4788000   0.48267875   -7.9649663    800.38387  0.013930379  0.012351401           27 
 4789000   0.48189876   -7.9386632    800.67833  0.013932594  0.012347514           23 
 4790000   0.48101692   -7.9575073    799.69454   0.01391257  0.012343624           35 
 4791000   0.48423577   -7.9498334    799.01548  0.013897855  0.012339741           25 
 4792000   0.47335535   -7.9636453    799.28685  0.013899674  0.012335859           27 
 4793000   0.48744814   -7.9423931    799.77681  0.013905293  0.012331974           26 
 4794000   0.48042055   -7.9462451    799.50594  0.013897684  0.012328096           30 
 4795000   0.47653142   -7.9615019    800.05685   0.01390436  0.012324215           17 
 4796000   0.47679487   -7.9593944    799.85732  0.013897993  0.012320334           24 
 4797000   0.48700375   -7.9637978    800.84683  0.013912286  0.012316454           25 
 4798000   0.48611879   -7.9557457    799.50088  0.013886009  0.012312579           28 
 4799000    0.4776005   -7.9556375     800.7459  0.013904735  0.012308707           25 
 4800000    0.4847466   -7.9545307    799.84507  0.013886199  0.012304833           27 
 4801000   0.49407455   -7.9499646    799.89124  0.013884108  0.012300957           21 
 4802000   0.48770034   -7.9508517    799.19612  0.013869154  0.012297082           33 
 4803000   0.46953068   -7.9468513    800.53617  0.013889517  0.012293209           28 
 4804000   0.48588402   -7.9503251    799.53594  0.013869275  0.012289343           28 
 4805000   0.49641728   -7.9683379    799.02491  0.013857525  0.012285473           29 
 4806000   0.47453897   -7.9489239    798.96341  0.013853576  0.012281607           21 
 4807000   0.47625357   -7.9690695    800.50141  0.013877356  0.012277739           32 
 4808000   0.48163224   -7.9418571    800.71598  0.013878189  0.012273877           28 
 4809000   0.47678131   -7.9595167    799.89246  0.013861032  0.012270017           28 
 4810000   0.48588268   -7.9697323    798.88195  0.013840644  0.012266155           37 
 4811000   0.48721572   -7.9585742    799.71524    0.0138522  0.012262298           25 
 4812000   0.47837185   -7.9720133    801.06414  0.013872682  0.012258441           39 
 4813000   0.48433199   -7.9831557     799.7737  0.013847456  0.012254584           26 
 4814000   0.49027968   -7.9906975    800.19974  0.013851955   0.01225073           36 
 4815000   0.46853718   -7.9587405    799.97247  0.013845145  0.012246879           30 
 4816000   0.47187545   -7.9605575     799.0214  0.013825813  0.012243027           28 
 4817000   0.48184776   -7.9600209    798.23338   0.01380931  0.012239177           24 
 4818000   0.48228633   -7.9637393    800.04763  0.013837824  0.012235332           25 
 4819000   0.47008076   -7.9643189    799.04289  0.013817578  0.012231483           26 
 4820000   0.48423926   -7.9700516    799.72234  0.013826458  0.012227637           28 
 4821000   0.47010753   -7.9682273    798.89695  0.013809323  0.012223791           23 
 4822000   0.48209642   -7.9543279    800.42477  0.013832863  0.012219953           20 
 4823000   0.47065506   -7.9747744    800.15224  0.013825286   0.01221611           29 
 4824000   0.49452328    -7.971621    798.68311  0.013797041  0.012212273           23 
 4825000   0.47938446   -7.9660518    798.84083  0.013796906  0.012208435           31 
 4826000   0.46546708   -7.9702418    799.49419  0.013805329  0.012204597           30 
 4827000    0.4684788   -7.9752775    799.49049  0.013802405  0.012200758           19 
 4828000   0.47122514   -7.9623045    799.08905  0.013792617  0.012196919           29 
 4829000   0.48814217   -7.9642936    799.99772  0.013805442  0.012193083           20 
 4830000   0.48411252   -7.9657035    800.23467  0.013806671  0.012189251           24 
 4831000   0.47715773   -7.9547354    799.67677   0.01379419   0.01218542           27 
 4832000   0.48463964   -7.9670941    800.16173  0.013799699  0.012181593           17 
 4833000   0.48836279   -7.9488936    801.03379   0.01381188  0.012177765           35 
 4834000   0.48221912   -7.9618243    800.86329  0.013806083   0.01217394           27 
 4835000   0.47661541   -7.9567845    799.57739  0.013781065  0.012170114           26 
 4836000   0.47638714   -7.9478034    798.54496  0.013760425  0.012166286           29 
 4837000   0.49004342    -7.967533    799.44025  0.013773004   0.01216246           20 
 4838000     0.480341   -7.9554443    799.37304     0.013769  0.012158639           24 
 4839000    0.4783599   -7.9669639    799.96189  0.013776295  0.012154817           40 
 4840000   0.47382206   -7.9552929    799.37082  0.013763272  0.012150998           22 
 4841000   0.48296584   -7.9628507    800.57872  0.013781222  0.012147183           26 
 4842000   0.48455497   -7.9638312    799.61576  0.013761802  0.012143368           24 
 4843000   0.47007492   -7.9618881    798.98933  0.013748182  0.012139556           23 
 4844000    0.4707856   -7.9716947    801.49115  0.013788383  0.012135742           19 
 4845000   0.48065423   -7.9724538    800.38425  0.013766499  0.012131932           10 
 4846000    0.4756837   -7.9637573    799.76361  0.013752985  0.012128126           33 
 4847000   0.48324773   -7.9586144    799.49485  0.013745527  0.012124318           21 
 4848000   0.47576739   -7.9624591    798.73497   0.01372963  0.012120513           21 
 4849000   0.47533675   -7.9730648     798.7803  0.013727578  0.012116709           28 
 4850000   0.48335855    -7.977435    798.80598  0.013725189  0.012112908           19 
 4851000   0.48122863   -7.9615791    800.17132  0.013745814  0.012109107           21 
 4852000   0.47063893   -7.9806172    799.00709  0.013722985  0.012105305           30 
 4853000   0.48363978   -7.9684803    799.85449  0.013734709  0.012101509           19 
 4854000   0.48555302   -7.9677827    799.45181  0.013724966  0.012097711           17 
 4855000   0.47961032   -7.9725443    799.79265  0.013727989  0.012093913           26 
 4856000   0.47256662   -7.9723606    800.59558  0.013738941  0.012090121           19 
 4857000   0.46198008   -7.9628646    800.68427  0.013737634  0.012086328           28 
 4858000   0.47647422   -7.9767626    798.97252  0.013705443  0.012082532           17 
 4859000   0.47236974   -7.9578702    798.40739   0.01369293  0.012078743           21 
 4860000   0.47003642   -7.9621475    799.29003  0.013705247  0.012074953           23 
 4861000   0.48013115   -7.9592553     799.6695  0.013708933  0.012071164           27 
 4862000   0.46979911   -7.9890351    799.43231  0.013702048  0.012067376           22 
 4863000   0.45747412   -7.9684018    801.26169  0.013730579   0.01206359           27 
 4864000   0.45832755   -7.9758243    798.97729  0.013688619  0.012059805           28 
 4865000   0.47353193   -7.9606627    799.87164  0.013701124  0.012056026           27 
 4866000   0.47359863   -7.9601474    799.43274  0.013690792  0.012052247           29 
 4867000   0.47307191   -7.9695612    798.97121  0.013680077  0.012048468           26 
 4868000   0.47612604   -7.9884054    800.25894  0.013699311  0.012044689           27 
 4869000   0.47457235   -7.9782312    799.30352  0.013680145   0.01204091           26 
 4870000   0.47790239   -7.9652668    800.48758  0.013697597  0.012037133           20 
 4871000   0.47433984   -7.9799339    798.28463  0.013657097   0.01203336           22 
 4872000   0.46825053   -7.9817558    799.11212  0.013668448  0.012029588           23 
 4873000   0.47686497   -7.9775941    799.17058  0.013666642  0.012025815           20 
 4874000   0.47406338   -7.9792246      799.956  0.013677267  0.012022044           17 
 4875000   0.46961876   -7.9798585    799.65961  0.013669395  0.012018274           22 
 4876000   0.47706856   -7.9895956    800.39899  0.013679228  0.012014508           25 
 4877000    0.4728891    -7.988024    799.94256  0.013668624  0.012010739           30 
 4878000   0.47095678   -7.9726929      798.871  0.013647516  0.012006975           16 
 4879000   0.47473659   -7.9701121    799.28471  0.013651785  0.012003212           27 
 4880000    0.4730984   -7.9681492    800.07927  0.013662556   0.01199945           18 
 4881000   0.47151382   -7.9861404    800.00168  0.013658432  0.011995689           23 
 4882000   0.47246831   -7.9847279    799.43368  0.013645939  0.011991931           31 
 4883000   0.47922495   -7.9667644    798.66642   0.01363005  0.011988172           16 
 4884000   0.46708973   -7.9735959    799.49213  0.013641348  0.011984416           23 
 4885000    0.4761724   -7.9626847    798.68656  0.013624813  0.011980664           27 
 4886000   0.47278361   -7.9719434    799.99558  0.013644351  0.011976913           21 
 4887000   0.46981499    -7.985197    798.87453  0.013622443  0.011973163           22 
 4888000   0.45683199   -7.9708287     799.5794  0.013631673  0.011969411           19 
 4889000   0.47770038   -7.9810923    799.32456  0.013624541  0.011965662           22 
 4890000   0.47174151   -7.9809643    799.01051  0.013616403  0.011961912           19 
 4891000   0.48767072   -7.9724973    799.14126  0.013615846  0.011958166           23 
 4892000   0.47129759   -7.9773369    799.35431  0.013616692  0.011954425           21 
 4893000   0.46040704   -7.9745909    799.95663  0.013624168  0.011950682           29 
 4894000   0.46042315   -7.9769097    799.25239  0.013609392   0.01194694           24 
 4895000   0.46272978   -7.9879389    800.39055  0.013625988  0.011943199           26 
 4896000    0.4630176   -7.9880969    798.84723  0.013596937  0.011939461           31 
 4897000     0.466063   -7.9965496    797.98927   0.01357956  0.011935721           15 
 4898000   0.46609303   -7.9801047    797.31911  0.013565386  0.011931983           25 
 4899000    0.4739985   -7.9872064    798.96668  0.013590642  0.011928246           23 
 4900000   0.47757809   -7.9790353    799.20488   0.01359192  0.011924511           22 
 4901000   0.46999376   -8.0047773    799.86634  0.013600393  0.011920779           22 
 4902000    0.4615298    -7.972154    800.19577  0.013603219  0.011917047           19 
 4903000   0.46270242   -8.0009989    799.48498  0.013588364  0.011913317           28 
 4904000   0.45992077   -7.9934566    800.35421  0.013600364  0.011909587           20 
 4905000   0.46374515   -7.9781902     797.8537  0.013555109  0.011905859           26 
 4906000   0.46965318   -8.0005456    798.66719  0.013566164  0.011902131           21 
 4907000   0.45759185   -7.9856752    798.65929  0.013563265  0.011898406           39 
 4908000   0.46100627   -7.9834664    798.62548  0.013559927   0.01189468           21 
 4909000   0.45970158   -7.9954602    798.78214  0.013559824  0.011890959           26 
 4910000   0.46077278   -7.9972142    799.26445  0.013565249  0.011887238           24 
 4911000   0.45659643   -7.9809181    799.25304  0.013562293  0.011883521           23 
 4912000    0.4638045    -7.991198    798.88939  0.013553362  0.011879802           27 
 4913000    0.4609691   -7.9811588       798.48   0.01354366  0.011876088           20 
 4914000   0.47202802   -7.9861988    798.96979   0.01354921  0.011872373           36 
 4915000   0.46593207    -7.980336    797.99757  0.013529969  0.011868662           23 
 4916000    0.4613988   -7.9898535    799.34015  0.013549975  0.011864948           23 
 4917000   0.47248338   -8.0019406      799.407  0.013548353  0.011861235           14 
 4918000   0.45919577   -7.9684235     797.9896  0.013521581  0.011857524           21 
 4919000   0.46178337   -7.9912531    799.34647  0.013541819  0.011853817           19 
 4920000   0.46234023   -7.9870804     798.0368  0.013516883  0.011850108           19 
 4921000      0.46596   -7.9924562    798.67379  0.013524924  0.011846402           27 
 4922000   0.45996556   -8.0008823    798.60394  0.013520993  0.011842699           23 
 4923000   0.46862932   -7.9897206    798.93512  0.013523853  0.011838994           21 
 4924000   0.44497754   -7.9991336    799.75125  0.013534918  0.011835291           15 
 4925000   0.46659002   -7.9900925    798.34242  0.013508332  0.011831589           25 
 4926000   0.46252411   -7.9884945    799.13492  0.013518997  0.011827889           33 
 4927000    0.4642198   -7.9851952      798.457  0.013504787  0.011824191           16 
 4928000   0.45848719   -8.0024393    798.92438   0.01350995  0.011820496           20 
 4929000   0.46616714   -7.9853774    798.27878  0.013496294  0.011816799           22 
 4930000   0.46765723   -7.9990022    798.82244  0.013502746  0.011813106           35 
 4931000   0.45216295    -7.996365    798.88474   0.01350106  0.011809416           26 
 4932000   0.46083402     -7.98657    799.22899  0.013504139  0.011805722           30 
 4933000   0.47174175   -7.9937523    798.28396  0.013485438  0.011802028           25 
 4934000   0.45960227   -8.0055068    800.38547  0.013518198  0.011798335           18 
 4935000   0.45498125   -7.9904138    798.39944  0.013481922  0.011794647           29 
 4936000   0.46009331   -7.9961488    797.76489  0.013468478  0.011790957           23 
 4937000   0.45573865   -7.9902991    799.60553  0.013496819  0.011787272           22 
 4938000    0.4700518   -8.0002446    797.98349  0.013466712  0.011783588           27 
 4939000    0.4554381    -7.979522    799.11583  0.013483091  0.011779906           26 
 4940000   0.45898497   -7.9828248    797.70483  0.013456559  0.011776228           30 
 4941000   0.45732966   -7.9942302    797.95068  0.013457982  0.011772547           21 
 4942000   0.46223856   -7.9909197    798.25372  0.013460369  0.011768871           25 
 4943000   0.46283002   -7.9648532    798.64649  0.013464268  0.011765195           40 
 4944000   0.46170428   -7.9752359    796.95425  0.013433021  0.011761523           22 
 4945000   0.46171281   -7.9879169     798.1747  0.013450871   0.01175785           33 
 4946000    0.4509616   -8.0121519    798.02743   0.01344567  0.011754178           24 
 4947000   0.45904048   -7.9974103    798.68928  0.013454102  0.011750504           23 
 4948000    0.4598704   -8.0017041    798.65412   0.01345079  0.011746837           30 
 4949000   0.45726235   -7.9937944    798.06638  0.013438176   0.01174317           22 
 4950000      0.46475   -8.0041183    798.64541  0.013445209  0.011739501           29 
 4951000   0.46177937   -7.9869418    797.39998  0.013421531  0.011735836           23 
 4952000   0.44419034   -8.0004618    797.73651  0.013424484  0.011732171           27 
 4953000   0.45940415   -7.9934371    798.49702  0.013434569  0.011728509           22 
 4954000    0.4547041   -7.9933108    798.77203  0.013436483   0.01172485           26 
 4955000   0.45767931   -8.0035552    798.42697  0.013427968  0.011721192           29 
 4956000   0.46355374    -8.007464    799.75539  0.013447595  0.011717535           22 
 4957000   0.45976038   -7.9945874    797.95579  0.013414629  0.011713881           27 
 4958000   0.45552381   -8.0043889    798.28431  0.013417445  0.011710227           22 
 4959000   0.47064937   -7.9776321    797.55958  0.013402561  0.011706573           34 
 4960000     0.463408    -7.989989    798.95986  0.013423385   0.01170292           26 
 4961000   0.45312898   -7.9848587    798.28928  0.013409415  0.011699272           18 
 4962000   0.44997762   -7.9935768     797.8756  0.013399765  0.011695622           22 
 4963000   0.45280609   -7.9933137    798.91513   0.01341452  0.011691972           16 
 4964000   0.45575965   -7.9904751    798.25643  0.013400759  0.011688324           34 
 4965000   0.45458923   -7.9868592    797.27046  0.013381512  0.011684677           39 
 4966000   0.44912262   -8.0078504    797.54398  0.013383407  0.011681032           20 
 4967000   0.45083188   -7.9975701    798.90597  0.013403563   0.01167739           15 
 4968000   0.46599582   -7.9960977    798.29644  0.013390641  0.011673749           24 
 4969000    0.4553845   -7.9975692      799.343  0.013405497  0.011670109           26 
 4970000    0.4675027   -7.9909498    798.92011  0.013395709  0.011666474           39 
 4971000   0.45558799   -8.0107936    798.66379  0.013388718   0.01166284           22 
 4972000   0.45269161   -7.9963917    798.65091  0.013385809  0.011659205           42 
 4973000   0.45304323   -7.9979031    797.93234  0.013371076  0.011655571           25 
 4974000   0.45901611   -7.9944612    798.39174  0.013376085  0.011651938           29 
 4975000   0.45723309   -8.0042483    799.86294  0.013398039  0.011648307           34 
 4976000   0.45657297    -8.001423     798.1214  0.013366181  0.011644677           30 
 4977000   0.45281703   -7.9949871      797.175  0.013347649  0.011641046           21 
 4978000   0.46570026   -7.9881591    798.33398   0.01336437   0.01163742           30 
 4979000   0.44755643    -7.999579    797.25616  0.013343646  0.011633794           29 
 4980000   0.44180178   -7.9935422    798.93127  0.013368997   0.01163017           26 
 4981000   0.45138873   -8.0017062    798.03675  0.013351348  0.011626545           28 
 4982000   0.44405667   -7.9973366    798.25468  0.013352313  0.011622922           20 
 4983000   0.45366381   -8.0084524    797.76925  0.013341515  0.011619302           21 
 4984000   0.45071683   -7.9938015    799.44812  0.013366909  0.011615685           24 
 4985000   0.46018973   -7.9969393    798.85634  0.013354335  0.011612068           25 
 4986000   0.45324288   -7.9879417    798.87763  0.013352013  0.011608453           22 
 4987000    0.4556785   -7.9959828    799.04129   0.01335207  0.011604841           25 
 4988000   0.45417801     -7.99431    797.00066  0.013315301  0.011601227           32 
 4989000   0.45709013   -8.0048526    798.00601  0.013329425  0.011597616           27 
 4990000   0.45591669   -7.9941463    798.00047  0.013326661  0.011594004           27 
 4991000   0.45175788   -7.9999886    798.37519  0.013330248  0.011590397           24 
 4992000   0.45945323   -7.9987417     797.7431  0.013317026  0.011586787           36 
 4993000    0.4469967    -7.992869    797.61348  0.013312195  0.011583182           25 
 4994000   0.44920326   -8.0031717    797.68073  0.013310652  0.011579577           27 
 4995000   0.46039748   -8.0026087    797.50316  0.013305024  0.011575973           27 
 4996000   0.45043623   -8.0055632    798.39322  0.013317207   0.01157237           23 
 4997000   0.45167062   -8.0015855    798.61157  0.013318184  0.011568771           27 
 4998000   0.45893463   -7.9922744    798.59655  0.013315269   0.01156517           26 
 4999000   0.45831262   -8.0109497    797.08713  0.013287443  0.011561572           49 
 5000000   0.45320748   -8.0063575    797.96249  0.013299375  0.011557974           19 
 5001000   0.46101061   -8.0158462    798.41003  0.013304173  0.011554378           25 
 5002000   0.45079319   -8.0106608    798.07925  0.013296002   0.01155078           35 
 5003000   0.44710523   -8.0055094    798.10861  0.013293834  0.011547187           30 
 5004000   0.45877868   -8.0128877    797.54913   0.01328186   0.01154359           29 
 5005000   0.45404566   -7.9963271    797.35356   0.01327595  0.011539996           24 
 5006000   0.45685728    -7.987095    796.70157  0.013262445  0.011536405           21 
 5007000   0.44290003     -8.00954     797.8864  0.013279515  0.011532815           24 
 5008000   0.44451442   -8.0097946    798.14791  0.013281215  0.011529223           21 
 5009000   0.44938914   -8.0052205    797.88262   0.01327415  0.011525634           30 
 5010000   0.45991405   -8.0180814    798.89403  0.013288324  0.011522048           19 
 5011000    0.4485959   -8.0213678    798.17198  0.013273664  0.011518461           23 
 5012000   0.45041192   -7.9946701    797.82544  0.013265254  0.011514876           23 
Loop time of 11209.5 on 48 procs for 5000000 steps with 4000 atoms

Performance: 77077.631 tau/day, 446.051 timesteps/s
99.4% CPU use with 48 MPI tasks x no OpenMP threads

MPI task timing breakdown:
Section |  min time  |  avg time  |  max time  |%varavg| %total
---------------------------------------------------------------
Pair    | 701.44     | 738.16     | 795.45     |  80.4 |  6.59
Neigh   | 69.844     | 72.483     | 75.943     |  17.6 |  0.65
Comm    | 657.51     | 708.04     | 754.31     |  92.3 |  6.32
Output  | 15.675     | 15.679     | 15.769     |   0.3 |  0.14
Modify  | 9518.2     | 9552.4     | 9590.9     |  15.8 | 85.22
Other   |            | 122.8      |            |       |  1.10

Nlocal:        83.3333 ave          92 max          76 min
Histogram: 2 6 2 10 5 8 11 1 1 2
Nghost:        1872.75 ave        1890 max        1851 min
Histogram: 1 5 3 2 6 7 8 7 7 2
Neighs:        11714.1 ave       12982 max       10062 min
Histogram: 2 2 2 6 5 6 10 10 3 2
FullNghs:      23428.0 ave       26356 max       20815 min
Histogram: 1 4 7 8 6 7 10 2 1 2

Total # of neighbors = 1124546
Ave neighs/atom = 281.13650
Neighbor list builds = 269066
Dangerous builds = 0

#clear
#
#next RN
#
#jump SELF
Total wall time: 3:06:52
