
units lj                  # Use reduced LJ style units
atom_style atomic         # Uncharged point particles
atom_modify map hash      # Needed for indexing of clusters etc
                          # Used to be able to find where atoms are in relation to each other.

lattice fcc 1.0 spacing 1 1 1
Lattice spacing in x,y,z = 1.5874011 1.5874011 1.5874011
region box block 0 10 0 10 0 10 units lattice
create_box 2 box
Created orthogonal box = (0.0000000 0.0000000 0.0000000) to (15.874011 15.874011 15.874011)
  3 by 4 by 4 MPI processor grid
create_atoms 1 box
Created 4000 atoms
  using lattice units in orthogonal box = (0.0000000 0.0000000 0.0000000) to (15.874011 15.874011 15.874011)
  create_atoms CPU = 0.002 seconds
set type 1 type/fraction 2 0.63 78393
Setting atom values ...
  2531 settings made for type/fraction
mass 1 1.0
mass 2 1.0
pair_style lj/cut  3.5
pair_modify tail  yes
pair_coeff 1  1  1.0  1.0   # Intearaction between 1 and 1 set with epsilon = 1 and sigma = 1
pair_coeff 1  2  1.5  0.8
pair_coeff 2  2  0.5  0.88

write_data data.0
System init for write_data ...
Neighbor list info ...
  update every 1 steps, delay 10 steps, check yes
  max neighbors/atom: 2000, page size: 100000
  master list distance cutoff = 3.8
  ghost atom cutoff = 3.8
  binsize = 1.9, bins = 9 9 9
  1 neighbor lists, perpetual/occasional/extra = 1 0 0
  (1) pair lj/cut, perpetual
      attributes: half, newton on
      pair build: half/bin/atomonly/newton
      stencil: half/bin/3d
      bin: standard
WARNING: Not all mixed pair coeffs generated from mixing. Use write_data with 'pair ij' option to store all pair coeffs. (../write_data.cpp:312)


#############################
#   M E L T   S Y S T E M   #
#############################

velocity all create 2.4 1741580 mom yes dist gaussian # Assign velocities
                                                    # Temperature 2.4, random number seed, zero linear momentum
                                                                                # Gaussian distribution

timestep 0.002   # simulation timestep
thermo 1000       # output thermodynamic data every 1000 steps bf 100

# Define a fix  in this case with index 1 applied to all
# particles in the simulation. This fix is for simulations
# in the anisotropic NPT ensemble. Note that we use the MTK
# correction.
fix 1 all npt temp 2.4 2.4 0.1 iso 5.68 5.68 0.5 mtk yes tchain 5 pchain 5 # Use NPT ensemble
                                                                         # Set temperature and pressure and damping
                                                                         # Numbers of thermostats in chain and in barostat
run 10000          # run for 10000 steps
Per MPI rank memory allocation (min/avg/max) = 3.642 | 3.644 | 3.648 Mbytes
Step Temp E_pair E_mol TotEng Press Volume 
       0          2.4    -4.562992            0  -0.96389204   -3.9987934         4000 
    1000    2.4138971   -4.3363306            0  -0.71639011    5.7266123    3589.8278 
    2000    2.3836851   -4.2969184            0   -0.7222847    5.6135797    3622.7984 
    3000    2.4001744   -4.2382412            0  -0.63887969    5.5110541    3666.3304 
    4000    2.3567783    -4.377046            0  -0.84276243    5.5096034    3581.5502 
    5000    2.3844016   -4.3391271            0  -0.76341885    5.7372491    3586.3458 
    6000    2.3968833   -4.2768605            0   -0.6824344    5.4218349    3643.1478 
    7000    2.4067998   -4.2826889            0  -0.67339178    5.8798445    3599.6313 
    8000    2.3771359   -4.3435582            0  -0.77874579    5.2857117    3616.2322 
    9000    2.4017926   -4.3004705            0  -0.69868224    5.7986322    3596.1215 
   10000    2.4370445   -4.2607319            0  -0.60607906    5.3493505    3659.9766 
Loop time of 2.64798 on 48 procs for 10000 steps with 4000 atoms

Performance: 652572.609 tau/day, 3776.462 timesteps/s
99.7% CPU use with 48 MPI tasks x no OpenMP threads

MPI task timing breakdown:
Section |  min time  |  avg time  |  max time  |%varavg| %total
---------------------------------------------------------------
Pair    | 1.2083     | 1.2721     | 1.3652     |   3.0 | 48.04
Neigh   | 0.21763    | 0.22531    | 0.23542    |   0.7 |  8.51
Comm    | 0.80641    | 0.88638    | 0.98114    |   4.9 | 33.47
Output  | 0.00025096 | 0.00026024 | 0.0003307  |   0.0 |  0.01
Modify  | 0.21024    | 0.24851    | 0.28411    |   4.2 |  9.38
Other   |            | 0.01546    |            |       |  0.58

Nlocal:        83.3333 ave          93 max          74 min
Histogram: 2 0 8 6 9 10 4 6 0 3
Nghost:        1740.54 ave        1765 max        1709 min
Histogram: 1 1 0 7 9 9 11 4 3 3
Neighs:        10430.0 ave       11976 max        9284 min
Histogram: 5 4 8 6 6 7 5 2 4 1

Total # of neighbors = 500642
Ave neighs/atom = 125.16050
Neighbor list builds = 911
Dangerous builds = 226

# Equilibrate just above the melting temperature to avoid step fn in T

fix 1 all npt temp 1.25 1.25 0.1 iso 5.68 5.68 0.5 mtk yes tchain 5 pchain 5
run 2000
Per MPI rank memory allocation (min/avg/max) = 3.644 | 3.646 | 3.650 Mbytes
Step Temp E_pair E_mol TotEng Press Volume 
   10000    2.4370445   -4.2607319            0  -0.60607906    5.3493505    3659.9766 
   11000    1.2454665   -6.2900223            0   -4.4222896    5.6834914    2767.4889 
   12000    1.2192358   -6.3604023            0   -4.5320058    5.7457889    2744.5756 
Loop time of 0.668389 on 48 procs for 2000 steps with 4000 atoms

Performance: 517064.020 tau/day, 2992.269 timesteps/s
99.7% CPU use with 48 MPI tasks x no OpenMP threads

MPI task timing breakdown:
Section |  min time  |  avg time  |  max time  |%varavg| %total
---------------------------------------------------------------
Pair    | 0.29566    | 0.32609    | 0.37195    |   2.3 | 48.79
Neigh   | 0.042372   | 0.044492   | 0.050819   |   0.6 |  6.66
Comm    | 0.19917    | 0.24915    | 0.27962    |   2.9 | 37.28
Output  | 5.2777e-05 | 5.4123e-05 | 6.8504e-05 |   0.0 |  0.01
Modify  | 0.038751   | 0.043761   | 0.049106   |   1.4 |  6.55
Other   |            | 0.004845   |            |       |  0.72

Nlocal:        83.3333 ave          88 max          77 min
Histogram: 3 1 4 4 7 8 6 1 3 11
Nghost:        2119.04 ave        2141 max        2101 min
Histogram: 4 4 8 2 5 12 4 4 2 3
Neighs:        13926.7 ave       15555 max       12071 min
Histogram: 2 1 4 7 10 6 7 5 3 3

Total # of neighbors = 668481
Ave neighs/atom = 167.12025
Neighbor list builds = 145
Dangerous builds = 16

#############################
# L I N E A R  Q U E N C H  #
#############################

# Define solid atoms. This closely follows ten Wolde  Ruiz-Montero and Frenkel  Faraday Discuss  1996  104  93-110
# Compute components of the per-atom q6 vector
compute q6 all orientorder/atom degrees 1 6 components 6 nnn NULL cutoff 1.3 # compute the Q6 parameter.
                                                                             # Use all neighbours within 1.3 unit cell.

# get number of connections
compute coord_number all coord/atom orientorder q6 0.5

# An atom is solid if it has 8 or more connections (of a possible 14)
variable is_solid atom c_coord_number>=8
group solid dynamic all var is_solid    # Must be dynamic to update
dynamic group solid defined

# do clustering
compute cluster solid cluster/atom 1.3 # Create a cluster where all atoms within are solid and max 1.3 units from another member

# define chunks one chunk per cluster
compute clus_chunks solid chunk/atom c_cluster nchunk every compress yes  # Says which atoms are in which chunk

# count the size of each chunk
compute size_chunks solid property/chunk clus_chunks count


# Find the maximum entry in the vector of chunk sizes
variable max_n equal max(c_size_chunks)


# Thermo style which includes this variable
# thermo_style custom step temp pe vol v_max_n

thermo ${N}  # Print the thermo information every 100 steps
thermo 1000  

# Reset the npt fix at a lower temperature (below freezing)
fix 1  all npt temp  ${temp} ${temp}  0.1  iso  5.68  5.68  0.5  mtk yes tchain  5  pchain  5
fix 1  all npt temp  0.45 ${temp}  0.1  iso  5.68  5.68  0.5  mtk yes tchain  5  pchain  5
fix 1  all npt temp  0.45 0.45  0.1  iso  5.68  5.68  0.5  mtk yes tchain  5  pchain  5

dump dmp2 all dcd ${N} traj.dcd
dump dmp2 all dcd 1000 traj.dcd


compute msd all msd com yes
variable twopoint equal c_msd[4]/6/(step*dt+1.0e-6)
fix 9 all vector 10 c_msd[4]
variable fit equal slope(f_9)/6/(10*dt)
thermo_style custom step temp pe c_msd[4] v_twopoint v_fit v_max_n

fix 1 all npt temp 1.25 ${temp} 0.1 iso 5.68 5.68 0.5 mtk yes tchain 5 pchain 5
fix 1 all npt temp 1.25 0.45 0.1 iso 5.68 5.68 0.5 mtk yes tchain 5 pchain 5
run 2000000 # 5000000  # Run for this many steps
Neighbor list info ...
  update every 1 steps, delay 10 steps, check yes
  max neighbors/atom: 2000, page size: 100000
  master list distance cutoff = 3.8
  ghost atom cutoff = 3.8
  binsize = 1.9, bins = 8 8 8
  4 neighbor lists, perpetual/occasional/extra = 1 3 0
  (1) pair lj/cut, perpetual
      attributes: half, newton on
      pair build: half/bin/atomonly/newton
      stencil: half/bin/3d
      bin: standard
  (2) compute orientorder/atom, occasional
      attributes: full, newton on
      pair build: full/bin/atomonly
      stencil: full/bin/3d
      bin: standard
  (3) compute coord/atom, occasional
      attributes: full, newton on
      pair build: full/bin/atomonly
      stencil: full/bin/3d
      bin: standard
  (4) compute cluster/atom, occasional
      attributes: full, newton on
      pair build: full/bin/atomonly
      stencil: full/bin/3d
      bin: standard
Per MPI rank memory allocation (min/avg/max) = 9.846 | 9.853 | 9.859 Mbytes
Step Temp PotEng c_msd[4] v_twopoint v_fit v_max_n 
   12000    1.2192358   -6.3604023 7.7111153e-31 5.354941e-33 8.3333333e+20            3 
   13000    1.2390556   -6.4399413    0.5021518 0.0032189217  0.041532566            2 
   14000    1.2601068   -6.3765491   0.99212027 0.0059054776  0.039898797            3 
   15000    1.2624672   -6.3997606    1.4865469 0.0082585934  0.040300455            5 
   16000    1.2828349   -6.4143248    1.9695159  0.010257895  0.040537723            2 
   17000    1.2642504   -6.3652691    2.4341079  0.011931901  0.040339424            1 
   18000    1.2434815   -6.4350257    2.8517038  0.013202332  0.039848547            3 
   19000    1.2899265   -6.4095528    3.2768792  0.014372277  0.039136729            2 
   20000    1.2206354   -6.4112934    3.7589742  0.015662392  0.038810469            1 
   21000    1.2368335   -6.4660531    4.2117526  0.016713303  0.038681182            2 
   22000    1.2520641   -6.4427384    4.6382717   0.01756921  0.038398872            1 
   23000    1.2576108   -6.3799996    5.0912848  0.018446684  0.038107447            2 
   24000    1.2505544   -6.3577265    5.6532913  0.019629483  0.038099304            2 
   25000    1.2536496   -6.4051002    6.0734734  0.020244911  0.038208153            2 
   26000    1.2228429    -6.381117    6.4295257  0.020607454  0.038198761            2 
   27000    1.2299666   -6.4033226    6.9383332  0.021414608  0.038093807            2 
   28000    1.2238525   -6.3957456     7.361663  0.021909711  0.038089362            5 
   29000    1.2221045   -6.4288725    7.7875518  0.022378022  0.037987558            4 
   30000    1.2538702   -6.4222942    8.2542421   0.02292845  0.037926568            4 
   31000    1.2468252   -6.3952736     8.680606  0.023334962  0.037891928            2 
   32000    1.2459742   -6.3809109    9.1502242  0.023828708  0.037834116            3 
   33000    1.2430243   -6.4575547    9.5276416  0.024059701  0.037769805            4 
   34000    1.2208501   -6.4105819    10.028173  0.024578855  0.037695457            3 
   35000    1.2636869   -6.4233776    10.480388  0.024953305  0.037647568            4 
   36000    1.2467568   -6.4341777    10.878922  0.025182689  0.037590713            5 
   37000    1.2577309    -6.392372    11.398098  0.025671391  0.037566114            2 
   38000    1.2315267   -6.4804874    11.876418  0.026044775  0.037577907            2 
   39000    1.2335154   -6.3999053    12.213526  0.026097278   0.03757388            6 
   40000    1.2120175   -6.4529109    12.724734  0.026509862  0.037539067            3 
   41000    1.2337591   -6.4194942    13.170256  0.026768812   0.03753049            4 
   42000    1.2039764   -6.3973901    13.582541  0.026949486  0.037493707            5 
   43000    1.2547355   -6.4424186    13.879689  0.026898622  0.037429365            2 
   44000    1.2527067   -6.4267757    14.609749   0.02766998  0.037407958            2 
   45000    1.2142586   -6.4358325       15.086  0.027937036  0.037454538            3 
   46000    1.2648016   -6.4170164    15.572926  0.028211822  0.037520228            3 
   47000    1.2450501   -6.4010824    16.199599  0.028722693  0.037606565            2 
   48000    1.2360682   -6.3825812    16.499263  0.028644553  0.037684621            2 
   49000    1.2272904   -6.4454861    17.069872  0.029030394  0.037743315            8 
   50000    1.2204981   -6.4122252    17.516763  0.029194605  0.037805411            4 
   51000    1.2424122   -6.3935187    17.916182  0.029274807  0.037847407            3 
   52000    1.2122925   -6.4119864    18.314057  0.029349451  0.037868425            2 
   53000     1.261113   -6.3699017    18.732449  0.029453535  0.037871173            1 
   54000    1.2314269    -6.413706    19.118182  0.029503367  0.037856539            1 
   55000    1.2261741   -6.4602554    19.425199  0.029432119  0.037831832            3 
   56000    1.2241857   -6.4325162    19.935054  0.029665259  0.037797088            7 
   57000    1.2277855   -6.4590335    20.391933  0.029812767  0.037766002            3 
   58000    1.2265642   -6.3742824    20.837871  0.029939469  0.037739951            2 
   59000    1.2520723   -6.4279012     21.20771  0.029954392  0.037724861            2 
   60000    1.2035383   -6.3740309    21.762402  0.030225558  0.037715391            1 
   61000    1.2106105   -6.4228945    22.135976  0.030240404  0.037687396            2 
   62000    1.2419072   -6.4921155    22.455126  0.030181621  0.037660967            2 
   63000    1.2305973   -6.4596069      22.9697  0.030383201   0.03761221            2 
   64000     1.234374   -6.4853218    23.436135  0.030515801  0.037590186            3 
   65000    1.2413413   -6.4582491    23.973327  0.030735034  0.037569592            2 
   66000    1.2175633   -6.4190698    24.578027  0.031032862  0.037558099            4 
   67000    1.2301423   -6.4383022    25.082863   0.03119759  0.037580002            1 
   68000    1.2453581   -6.4270887    25.452248   0.03119148  0.037594959            2 
   69000    1.2404496   -6.4052278    26.071607  0.031487448  0.037615901            2 
   70000    1.2166136   -6.4266402    26.518857  0.031570068  0.037632321            3 
   71000    1.2167003   -6.4256144    26.960491  0.031643768  0.037653589            2 
   72000    1.2249268    -6.502706     27.51794  0.031849468  0.037686014            3 
   73000    1.2186567   -6.4359329    28.172724  0.032160644  0.037730615            4 
   74000     1.255044   -6.4207512    28.514825  0.032111289   0.03777941            2 
   75000    1.2526187   -6.4247649    29.027895  0.032253217  0.037822931            3 
   76000    1.2059608    -6.423912    29.427431  0.032266919  0.037865089            3 
   77000    1.2365829   -6.4548234    29.885893   0.03234404  0.037900539            2 
   78000    1.2169118   -6.4305035    30.267378  0.032336942   0.03792719            5 
   79000    1.2268506   -6.4843647     30.39921  0.032066677  0.037931923            2 
   80000    1.2504712   -6.4055798    31.207115  0.032507411  0.037936327            2 
   81000    1.2075349   -6.4718291    31.694632  0.032607646  0.037954319            2 
   82000    1.2252643   -6.4590907    32.277703  0.032802543  0.037987225            3 
   83000    1.1844332   -6.4520276    32.682765  0.032814021  0.038008444            1 
   84000     1.209995   -6.4360427    32.995607  0.032733737  0.038017463            2 
   85000    1.2253712   -6.4770778    33.359653  0.032705542  0.038019929            2 
   86000    1.2470254   -6.4458494    33.734496  0.032688465  0.038017789            4 
   87000    1.2542241   -6.4717191    34.121138  0.032683082  0.038014075            4 
   88000    1.2462088   -6.4618518    34.764801  0.032921213  0.038008445            2 
   89000    1.2053128   -6.4596681    35.152487  0.032914314  0.038006232            2 
   90000    1.2113786   -6.4585426    35.485133  0.032856604  0.037998068            2 
   91000    1.2249123   -6.4254495    36.096504  0.033055407  0.037987016            4 
   92000    1.2026408   -6.4827911     36.34201  0.032918487  0.037979126            3 
   93000    1.2223519   -6.4222715    37.010303  0.033163354  0.037976143            2 
   94000    1.2376439   -6.4870115    37.244027  0.033017754  0.037968616            2 
   95000    1.2450169   -6.4535638    37.835416  0.033188961  0.037962814            2 
   96000    1.2123951   -6.5155024    38.132993  0.033101556  0.037954201            3 
   97000    1.1938044   -6.4466705    38.814476   0.03334577  0.037946359            2 
   98000    1.1913916    -6.469109    39.086803  0.033237077  0.037942092            2 
   99000    1.2153534   -6.4928208    39.487028  0.033238239  0.037933294            3 
  100000    1.2375143   -6.4284263    39.833027  0.033194189  0.037925943            2 
  101000    1.2197017    -6.420799    40.395104  0.033329293  0.037909715            3 
  102000    1.2184194   -6.4674298    40.582203  0.033155395  0.037889279            4 
  103000    1.2151343     -6.51999     41.06701  0.033225736  0.037870322            2 
  104000    1.2228752   -6.4422548    41.486446  0.033242345  0.037853866            3 
  105000    1.1914907   -6.4611905    41.953583  0.033296494  0.037831091            2 
  106000    1.2219137   -6.5339853    42.179766  0.033160194  0.037809667            3 
  107000    1.1952386   -6.4682366    42.751036  0.033295199  0.037782182            1 
  108000    1.2142572   -6.4868032    42.952055  0.033142018  0.037750385            1 
  109000    1.2101509    -6.533668    43.364201  0.033153059  0.037714898            7 
  110000    1.2302253   -6.4737188    43.679414  0.033090465  0.037682075            3 
  111000    1.2096467   -6.4859056    44.523874  0.033426331  0.037652682            4 
  112000     1.190098   -6.5019109    44.651798  0.033223064  0.037622391            4 
  113000    1.1869323   -6.5302723    44.956439  0.033153716  0.037586049            2 
  114000    1.1780782   -6.4747494    45.603995  0.033336253  0.037551705            3 
  115000    1.1766801   -6.4955028    45.948539  0.033296043   0.03752159            3 
  116000    1.2175271   -6.4730209      46.5373  0.033431969  0.037495701            2 
  117000    1.1904171   -6.4469897    47.023367  0.033492426  0.037468402            2 
  118000    1.2120444   -6.4719658    47.360892  0.033446957  0.037439431            2 
  119000    1.2211627    -6.490972    47.721503   0.03341842  0.037415761            4 
  120000     1.175395   -6.4521899    48.348735   0.03357551  0.037389891            2 
  121000    1.1983057   -6.4920599    48.606274  0.033475395  0.037365114            3 
  122000    1.2232898   -6.5054378    48.872716  0.033383003  0.037341303            3 
  123000    1.2068851   -6.5036629    49.495245  0.033533364  0.037320119            3 
  124000    1.2100568   -6.4936304    49.856063  0.033505418  0.037298758            7 
  125000    1.1902962   -6.4989402    50.324439  0.033549626  0.037278182            4 
  126000    1.2199321   -6.4810429    51.024693   0.03374649  0.037261412            3 
  127000    1.2123256   -6.5213825    51.525259  0.033809225  0.037251222            2 
  128000    1.1932341   -6.5041976    51.864131   0.03376571  0.037241365            6 
  129000    1.1945118   -6.5198897    52.287147  0.033777227   0.03723316            4 
  130000    1.1786111   -6.4781587    52.814584  0.033855502  0.037225363            2 
  131000    1.2045915   -6.5287556    53.308723  0.033911402   0.03721662            2 
  132000    1.2053442   -6.5215232    53.473107  0.033758274  0.037206048            1 
  133000    1.1952405    -6.518769     53.74471   0.03367463  0.037193068            2 
  134000    1.2126202   -6.4746581    54.458178  0.033867026  0.037178733            3 
  135000    1.1917604   -6.5239847    54.663495  0.033742898   0.03716168            3 
  136000    1.1863182   -6.4804613    55.215478  0.033833013  0.037147407            3 
  137000    1.1739952   -6.5018167    55.548354  0.033788537  0.037133424            1 
  138000    1.1749367   -6.4891042    56.225567  0.033952637  0.037118538            5 
  139000    1.1894532   -6.4913561    56.368848  0.033794273  0.037101178            3 
  140000    1.1933776   -6.5144398    56.769505  0.033791372  0.037080589            2 
  141000     1.216667   -6.4936511    56.958312  0.033663305  0.037058816            4 
  142000    1.2089416   -6.5037176    57.492166  0.033739534  0.037038179            3 
  143000    1.2052434   -6.5542672    57.864865  0.033720784  0.037016566            2 
  144000    1.1655259    -6.461847    58.732908  0.033988952  0.036995417            2 
  145000    1.1980691   -6.5638501    58.394179  0.033559873  0.036974286            1 
  146000    1.1957892   -6.5042522    59.155053  0.033764299  0.036950572            5 
  147000    1.1929033   -6.5055733    59.533661  0.033749241  0.036930189            3 
  148000    1.1986747   -6.5152757     59.83543   0.03369112  0.036908402            4 
  149000    1.1988138   -6.5020098    60.206381  0.033672472  0.036885205            2 
  150000    1.1655158   -6.5200377    60.698669  0.033721483  0.036864362            4 
  151000    1.2049203   -6.5510211    60.968512  0.033647081  0.036840541            2 
  152000     1.181841   -6.5275177    61.501115  0.033717716  0.036818013            3 
  153000    1.1757925   -6.5639182    61.752623  0.033634326   0.03679454            4 
  154000     1.182613   -6.4883091    62.449673  0.033793113  0.036772085            2 
  155000    1.1991942   -6.4848928    62.805736  0.033766524  0.036750425            4 
  156000    1.1675842   -6.4955223    62.964741  0.033635011  0.036723601            4 
  157000    1.1755576   -6.5723082    63.192467  0.033541649   0.03669398            2 
  158000    1.1840293    -6.548049    63.790929  0.033645004  0.036663587            1 
  159000    1.1770006   -6.5341132    63.981197  0.033533122  0.036635492            2 
  160000    1.1749717   -6.5613765    64.057704  0.033363387  0.036602527            4 
  161000    1.1948117   -6.5472763    64.635214  0.033455079   0.03656783            2 
  162000    1.1826819   -6.5345622    64.838037    0.0333529  0.036531715            2 
  163000    1.2009956   -6.5165108    65.310999  0.033390081  0.036496316            3 
  164000     1.184147   -6.5143653    65.562601   0.03331433  0.036462088            4 
  165000    1.1705986   -6.5351854    65.898602  0.033282122  0.036423185            6 
  166000    1.1674552    -6.556101    66.205827  0.033235857  0.036384835            3 
  167000    1.1921232   -6.5347383    66.680298  0.033273602  0.036348336            4 
  168000    1.1779831   -6.5584808    66.946224  0.033207452  0.036313057            3 
  169000    1.1893549   -6.5830705    67.802103   0.03343299  0.036280743            6 
  170000    1.1985676   -6.5149425    68.507639  0.033582176  0.036252189            1 
  171000    1.1744953   -6.5793185    68.323482  0.033296044  0.036222192            3 
  172000    1.1471539   -6.5821881    68.714291  0.033291807  0.036189846            3 
  173000    1.1531019   -6.5370527    69.472326  0.033464512  0.036156477            1 
  174000    1.1819109   -6.5296388    69.698514  0.033380514  0.036130679            2 
  175000    1.2080823   -6.5305042    70.039477  0.033352132  0.036103718            2 
  176000     1.184504   -6.5676861    70.408331  0.033337278  0.036073787            2 
  177000    1.1835476   -6.5359285    71.008268  0.033431388  0.036047607            2 
  178000    1.1945574   -6.5555296    71.130887  0.033300977  0.036020351            4 
  179000    1.1756119   -6.5336386    71.545291  0.033307863  0.035990923            2 
  180000    1.1831832   -6.5229607    72.135624  0.033396122  0.035964085            1 
  181000    1.1610007   -6.5688391    72.071297  0.033181997  0.035934759            3 
  182000    1.1968629   -6.5370289    72.962388  0.033407686  0.035905038            4 
  183000    1.1960832   -6.5487938    73.167728  0.033318637  0.035878689            2 
  184000    1.1724306   -6.5788226    73.497189   0.03328677  0.035853974            3 
  185000    1.1743481    -6.537047    74.347011  0.033489645  0.035830344            3 
  186000     1.174939   -6.5575852    74.596598  0.033421415  0.035807435            2 
  187000    1.1840378   -6.6393181    74.471885  0.033187114  0.035783049            2 
  188000    1.1527724   -6.5944625    75.142947  0.033308044  0.035756453            3 
  189000    1.1891857   -6.5030587    76.013554  0.033515676  0.035732093            2 
  190000    1.1761579   -6.5207331    76.134068  0.033392135  0.035709485            1 
  191000    1.2043415   -6.5308771    76.439089  0.033350388  0.035683116            5 
  192000    1.1866219   -6.5713702    76.793256  0.033330406  0.035659611            3 
  193000    1.1615784    -6.572793    77.046967  0.033267257  0.035634577            2 
  194000     1.168527    -6.606416    77.136671  0.033134309  0.035606799            2 
  195000    1.1749902   -6.5587525    78.020651  0.033342158  0.035580679            7 
  196000    1.1781253   -6.5750533    77.850651  0.033099766   0.03555327            2 
  197000    1.1675759   -6.5109963    78.694539  0.033288722  0.035527869            4 
  198000    1.1513797   -6.5761293    78.984711  0.033242723  0.035500608            2 
  199000     1.194196   -6.5913513    79.325894  0.033218548  0.035475737            3 
  200000     1.169592   -6.6124247    79.604127  0.033168386  0.035449292            1 
  201000    1.1852479   -6.5841191    79.602112  0.033002534  0.035421843            5 
  202000    1.1772595   -6.5673084    80.176969  0.033076307  0.035395868            3 
  203000    1.1899318   -6.5863529    80.606903  0.033089861   0.03536829            4 
  204000    1.1684317   -6.5592928    80.965826  0.033074275  0.035341847            3 
  205000     1.170085   -6.5762036    81.431629  0.033102288   0.03531638            6 
  206000    1.1757925   -6.6107443    81.683705   0.03304357  0.035290225            2 
  207000    1.1670373   -6.5367457    81.867692  0.032958008  0.035263417            3 
  208000     1.199071   -6.5999946    82.103998   0.03289423  0.035234307            2 
  209000    1.1460169   -6.6211686    82.458266  0.032878096   0.03520318            3 
  210000    1.1964641   -6.5928174    83.300164  0.033055621   0.03517551            3 
  211000    1.1523195   -6.5753609    83.560402  0.033001739  0.035150183            7 
  212000    1.1416191   -6.6088149    83.592594  0.032858724   0.03512142            2 
  213000    1.1778457   -6.5614009    84.276998  0.032972222  0.035094778            2 
  214000    1.1711722     -6.60832    84.473583  0.032894697   0.03506768            3 
  215000    1.1561542   -6.5658678    84.939329  0.032922221  0.035040891            2 
  216000    1.1888871   -6.5367802    85.586974  0.033019666  0.035015939            3 
  217000    1.1649148   -6.6175888    85.836948  0.032963498  0.034991428            2 
  218000    1.1457836    -6.592948     86.55798  0.033087913  0.034968381            4 
  219000    1.1549032   -6.6080526    86.490666  0.032911212  0.034945159            4 
  220000    1.1687101    -6.562003    87.347553  0.033086194  0.034924316            3 
  221000    1.1740551   -6.5429087    87.547535  0.033011891  0.034902289            1 
  222000    1.1534603   -6.5741639    87.967497  0.033020832   0.03488212            3 
  223000    1.1360938   -6.6214331    88.264202  0.032983633  0.034862851           13 
  224000     1.171209   -6.5634915    88.821594  0.033043748   0.03484246            1 
  225000    1.1408961   -6.5612821    89.225964  0.033046653  0.034821894            3 
  226000    1.1545829   -6.6133569     89.94991  0.033167371  0.034801476            2 
  227000     1.169757   -6.6104292    90.395003  0.033184656  0.034782866            1 
  228000    1.1748497   -6.5917405    90.608371  0.033117095  0.034765823            3 
  229000    1.1521877   -6.5733519     90.84688  0.033059272  0.034748201            2 
  230000    1.1850608   -6.5894691    91.187656  0.033039006  0.034730203            5 
  231000    1.1647139   -6.5993518    91.432082  0.032984156  0.034711004            6 
  232000    1.1499941   -6.5588473    92.433145  0.033201561  0.034692311            7 
  233000    1.1301764   -6.5974451    92.224585  0.032984472  0.034674805            3 
  234000    1.1458721    -6.568379    92.491503  0.032938569   0.03465727            2 
  235000    1.1383668   -6.5970272    92.813246  0.032912498  0.034638992            7 
  236000    1.1649473   -6.6654762    92.871049  0.032793449  0.034620146            5 
  237000    1.1798896     -6.60225    93.824795  0.032990434  0.034601715            2 
  238000    1.1589428   -6.5933964    93.924458  0.032886715  0.034584222            3 
  239000    1.1689888   -6.5883203    94.605714  0.032986651  0.034567148            3 
  240000    1.1476199   -6.5835743    94.993183  0.032983744  0.034550535            2 
  241000     1.165126   -6.6455601    95.180121  0.032911522  0.034534891            5 
  242000    1.1543729   -6.6324109    95.737254  0.032967374  0.034518847            5 
  243000    1.1673679   -6.6095516    96.479489  0.033086244  0.034502736            3 
  244000    1.1504711    -6.690622    96.261495  0.032876194  0.034486964            2 
  245000    1.1427829   -6.6478109    96.441552  0.032803249  0.034468532            4 
  246000    1.1680559   -6.6235248    96.844021   0.03280624  0.034448992            2 
  247000    1.1434288   -6.6440002    96.963984  0.032713895  0.034428174            3 
  248000    1.1291345   -6.5914252    97.609198   0.03279879  0.034407663            2 
  249000    1.1666087   -6.6440972    97.748508  0.032713691  0.034387586            3 
  250000    1.1387073   -6.6160088    98.119167  0.032706389   0.03436729            3 
  251000    1.1598284   -6.5866604    98.578788  0.032728681  0.034347346            2 
  252000    1.1845984   -6.6251746    99.450973  0.032887227  0.034328627            2 
  253000    1.1839374   -6.6199028    99.430682  0.032750554  0.034311684            2 
  254000    1.1573287   -6.6473592    99.984296  0.032803247  0.034294687            2 
  255000    1.1634275   -6.6365718    100.52075   0.03284992  0.034277067            2 
  256000    1.1333484   -6.6447096     100.6028  0.032748308  0.034258484            3 
  257000    1.1525589   -6.6191515    101.06732  0.032771505  0.034241117            2 
  258000    1.1365279    -6.632366    101.60888  0.032819405  0.034222837            3 
  259000    1.1524252   -6.6642462    101.53179  0.032667885  0.034204987            3 
  260000    1.1646758   -6.6560036    101.84681  0.032643208  0.034186562            3 
  261000    1.1265297   -6.6244184    102.51925  0.032732837  0.034169089            4 
  262000    1.1300693   -6.6277894    102.75653  0.032683375  0.034151685            3 
  263000    1.1519178   -6.6341122    103.40523  0.032764648  0.034135183            3 
  264000    1.1470029    -6.638807    103.66766  0.032723377  0.034117752            3 
  265000    1.1480403   -6.6010416    103.97289  0.032695876  0.034097854            4 
  266000    1.1368932   -6.6597758     103.8873  0.032546147  0.034078261            3 
  267000    1.1545486   -6.5964981    104.79559  0.032707737  0.034059866            1 
  268000    1.1460815   -6.6107505    105.24507  0.032725457  0.034041608            2 
  269000    1.1751016   -6.6415441     105.3584  0.032638909  0.034023743            2 
  270000    1.1707756   -6.6275535    105.49586  0.032560449  0.034005505            3 
  271000    1.1753136   -6.6199886    106.06067  0.032613982   0.03398649            3 
  272000    1.1338718   -6.6490626    105.96132  0.032463639  0.033966724            2 
  273000    1.1476393   -6.6397115    106.72899  0.032579056  0.033947542            1 
  274000     1.119617   -6.6148671    107.11645  0.032577996  0.033929289            2 
  275000    1.1200801   -6.6395072    107.68117  0.032630656  0.033910263            2 
  276000    1.1332926   -6.6015463    107.78834  0.032544789  0.033892173            2 
  277000    1.1659635   -6.6562726    107.97669  0.032483962  0.033873734            1 
  278000    1.1491458   -6.6546311    108.00047  0.032374242  0.033854276            3 
  279000     1.143818   -6.6526396    108.49549  0.032406061  0.033833348            3 
  280000    1.1552732   -6.5828511    109.14438  0.032483447  0.033814713            3 
  281000    1.1651073    -6.689672    109.31583  0.032418693  0.033796432            4 
  282000    1.1352143   -6.6324075    109.76278   0.03243581    0.0337778            3 
  283000    1.1413054   -6.6479479    109.89817  0.032361063  0.033760091            5 
  284000    1.1753997   -6.6512734    110.20389  0.032336823  0.033742392            2 
  285000    1.1556666    -6.681479    110.16426  0.032211773  0.033723154            4 
  286000    1.1658555   -6.6751303    111.06704  0.032362191   0.03370394            5 
  287000    1.1538736   -6.6851393    111.07925  0.032252976  0.033684634            2 
  288000    1.1470454   -6.6517069    111.60139  0.032292068  0.033664352            5 
  289000    1.1401062   -6.6729897    111.91705  0.032271352  0.033643787            3 
  290000    1.1483647   -6.6647222    112.48437  0.032323096  0.033623266            4 
  291000     1.133596   -6.6379382    112.76589  0.032292638  0.033603992           10 
  292000    1.1397422   -6.6733073    112.73545   0.03217336   0.03358369            2 
  293000    1.1488638   -6.6701615    112.76396   0.03207166   0.03356237            4 
  294000    1.1375705   -6.6596673    113.35785   0.03213091   0.03354092            3 
  295000    1.1426239   -6.6490822    113.82154  0.032152978  0.033519677            3 
  296000    1.1301979   -6.7242877    113.68724  0.032006543  0.033498557            5 
  297000     1.122963   -6.6723575    114.20374  0.032043699  0.033476285            3 
  298000    1.1447973   -6.6928391     114.7702  0.032094575   0.03345456            2 
  299000    1.1328148   -6.7071365    114.42645  0.031891431  0.033429928            6 
  300000    1.1031118   -6.7177665    114.88673  0.031912981  0.033404895            5 
  301000    1.1235454   -6.7062432    115.19312  0.031891784  0.033380243            2 
  302000    1.1284764   -6.6897743    115.41428  0.031847206  0.033356958            3 
  303000    1.1208933   -6.6461202    116.26201   0.03197525  0.033333977            7 
  304000    1.1491973   -6.6612493    116.98705  0.032068819  0.033312226            2 
  305000    1.1273552   -6.6889795    116.81847  0.031917616  0.033291953            4 
  306000    1.1323908   -6.6893742    117.34487  0.031956665  0.033269899            3 
  307000    1.1382871   -6.7048788    117.43316  0.031876535  0.033249447            2 
  308000       1.1448   -6.6952925    118.18015   0.03197515  0.033228717            3 
  309000    1.1006408   -6.6974221    118.63191  0.031993502  0.033208461            3 
  310000    1.1418111   -6.6773709    118.82319  0.031941718   0.03318983            5 
  311000    1.1296163   -6.7069075    119.25488  0.031954685  0.033171254            3 
  312000    1.1530257   -6.6874157     119.8981  0.032024066   0.03315271            3 
  313000    1.1131755   -6.6810461    119.83779  0.031905695  0.033134358            2 
  314000    1.1191803   -6.6709762    120.71595   0.03203714  0.033116257            2 
  315000    1.1446787   -6.7071805    120.62312  0.031910877  0.033097496            3 
  316000    1.1460412   -6.7072733     121.2373  0.031971863  0.033079176            5 
  317000    1.1232173   -6.7022904    121.32791  0.031894825  0.033061412            2 
  318000    1.1073771    -6.772358    121.19626  0.031760026  0.033042767            5 
  319000    1.0927375   -6.7233345    121.63692  0.031775579   0.03302368            4 
  320000    1.1058539   -6.7074723    122.18481  0.031818962  0.033004038            3 
  321000    1.1316356    -6.665484    123.00129    0.0319318   0.03298468            3 
  322000    1.1248791   -6.6511309    123.11726  0.031862645  0.032966295            4 
  323000    1.1223606   -6.7360075    122.76165  0.031672252  0.032946767            2 
  324000    1.1132198   -6.6785047    123.23295  0.031695717  0.032926572            4 
  325000      1.10402   -6.6825977    123.21088  0.031592534  0.032905196            3 
  326000    1.1247959   -6.6778105    123.67857  0.031615177  0.032884228            2 
  327000    1.1230562   -6.7021235    123.76965  0.031541704  0.032862619            4 
  328000    1.1395339   -6.7313216    124.13012  0.031537123  0.032841242            6 
  329000    1.1391336   -6.7214196    124.54596  0.031546597  0.032820194            3 
  330000     1.119655    -6.685893    124.65287  0.031477998  0.032799291            4 
  331000    1.1216419   -6.7065284    124.82826  0.031427054  0.032776727            2 
  332000    1.1365939   -6.7007052    125.05265  0.031388717  0.032753489            2 
  333000    1.1268974    -6.674421     125.6483   0.03144352  0.032730232            4 
  334000    1.1279383   -6.7044056    126.55079  0.031574548  0.032707614            3 
  335000    1.1152067   -6.6804474    126.62188   0.03149798  0.032686633            1 
  336000    1.0805454   -6.7112935    126.68014  0.031418685  0.032663977            5 
  337000    1.1445716   -6.6450898    126.96641  0.031396245  0.032642022            2 
  338000    1.1071358   -6.6948868     127.2299  0.031368319  0.032620697            5 
  339000    1.0991052   -6.6746206    127.49735  0.031341531  0.032599178            3 
  340000     1.127225   -6.7432436    127.72083  0.031304126  0.032576688            2 
  341000    1.1097287   -6.7210473     128.4527  0.031391178  0.032554959            1 
  342000    1.1003341   -6.7324662    128.65925   0.03134972  0.032534019            3 
  343000    1.1219136   -6.7501276    129.10886  0.031367555  0.032513233            3 
  344000    1.1329414    -6.676299    129.72685  0.031426078  0.032493114            6 
  345000     1.122153   -6.7172607    130.28245  0.031469191  0.032473697            3 
  346000    1.1278286   -6.7337257    129.65236  0.031226482  0.032453811            1 
  347000     1.133827   -6.6994829    130.34774  0.031303492  0.032433021            3 
  348000    1.0985235   -6.7190751    130.34177  0.031212111  0.032411649            2 
  349000    1.1233891   -6.7105087    131.27554   0.03134564  0.032390686            3 
  350000    1.1308578   -6.7638267    130.84229  0.031152927  0.032368088            3 
  351000    1.0931831   -6.7672466     130.8909  0.031075712  0.032345744            2 
  352000    1.1231861   -6.7559138    131.35526  0.031097362  0.032323515            3 
  353000    1.1111052   -6.7179072    131.90436  0.031138896   0.03230147            6 
  354000    1.1430395   -6.7177338    132.36924  0.031160368  0.032280885            2 
  355000    1.0973764   -6.7538387    132.60222  0.031127282  0.032260328            5 
  356000    1.1201534   -6.7354467    132.71977  0.031067361  0.032239849            7 
  357000     1.104659   -6.7783877    133.12873    0.0310758  0.032218702            3 
  358000    1.1207279   -6.7272005    133.56822  0.031091299   0.03219721            4 
  359000    1.1207917   -6.7824936    133.68264  0.031031254  0.032175917            2 
  360000     1.120569   -6.7246843    134.42793  0.031117576   0.03215459            5 
  361000    1.1308544   -6.7032056    134.16167  0.030969915  0.032133405            3 
  362000    1.0811648   -6.7030673    134.45015  0.030950771  0.032112149            1 
  363000    1.1139061   -6.7580568    134.51086  0.030879443  0.032089613            3 
  364000    1.1233379   -6.7707496    135.08326  0.030925654  0.032067224            3 
  365000    1.0881345   -6.7796609    135.52305  0.030941336   0.03204508            1 
  366000     1.124428    -6.746731    135.81609  0.030923519  0.032023558            3 
  367000     1.108143    -6.744756    136.54367  0.031004467  0.032003732            4 
  368000    1.1383123   -6.7427303    136.83405  0.030985972  0.031983607            6 
  369000    1.1088352   -6.7551738    136.75883   0.03088501  0.031962215            6 
  370000      1.09059   -6.7478956     137.1306  0.030885271  0.031941176            6 
  371000    1.1111148   -6.7500853    137.63608  0.030915562  0.031920114            2 
  372000    1.0980704   -6.7657068    137.34724   0.03076775  0.031898879            4 
  373000    1.0968849   -6.7556354    138.19386  0.030874409  0.031877393            2 
  374000    1.1085955   -6.7247566    138.65766    0.0308952  0.031856705            2 
  375000    1.0974371   -6.7914926    137.93759  0.030652797  0.031835367            7 
  376000    1.0944308   -6.7551668    138.46448  0.030688049  0.031814174            1 
  377000    1.1352571   -6.7112245    139.48234  0.030831641   0.03179306            3 
  378000    1.0847717   -6.7547181    139.68657  0.030795099  0.031772418            6 
  379000    1.0974532   -6.7049444    140.31706  0.030852476  0.031751233            2 
  380000     1.126661    -6.706754    140.37237  0.030783415  0.031729954            2 
  381000    1.1166067   -6.7719499    140.58932   0.03075007  0.031708842            6 
  382000    1.0996063   -6.7606564    140.15654  0.030575161  0.031687046            6 
  383000    1.1044699    -6.779607    140.38082  0.030544129  0.031664745            4 
  384000    1.1083096   -6.7510204    140.88041  0.030573005  0.031642862            6 
  385000    1.0944941   -6.7382186    141.75385  0.030682651  0.031621429            3 
  386000    1.1037281   -6.7746486    141.45655  0.030538979  0.031600385            4 
  387000    1.0968428   -6.7904204    141.57619  0.030485829  0.031578417            3 
  388000    1.1124413   -6.7542899    142.34187  0.030571708  0.031557176            3 
  389000     1.105246   -6.7784262    142.14959  0.030451927  0.031536002            6 
  390000    1.0961912   -6.8038155    142.40718  0.030428884   0.03151487            8 
  391000    1.0880492   -6.7789525    142.96678  0.030470328   0.03149381            2 
  392000    1.0923799   -6.7991583    143.15106  0.030431772  0.031472567            3 
  393000    1.0772052   -6.7608012    143.78976  0.030489771  0.031450897            4 
  394000    1.1041317   -6.7940883    143.50804    0.0303528  0.031428883            3 
  395000    1.0868775   -6.7849648    143.84683  0.030347433  0.031406704            3 
  396000    1.0856205   -6.7964574    143.80611  0.030262227  0.031383399            4 
  397000    1.0997442   -6.7776354    143.95947  0.030218193   0.03136051            2 
  398000     1.101543   -6.7356023    144.55642  0.030267258  0.031337265            3 
  399000    1.0868765   -6.7317682    145.63665  0.030417012  0.031314409            7 
  400000    1.0734382   -6.7488409    144.97643  0.030203422  0.031291556            3 
  401000    1.1060258   -6.7954131    145.48049  0.030232854  0.031268762            1 
  402000     1.105561   -6.7799054    145.43447  0.030148107  0.031245627            3 
  403000    1.0680353   -6.8405077    145.91441  0.030172542   0.03122284            4 
  404000    1.0978844   -6.7847653    146.89476  0.030300075  0.031201796            3 
  405000    1.0876028   -6.8099675    146.73076  0.030191515  0.031180341            4 
  406000    1.0750828   -6.7937393    146.83134  0.030137796  0.031158719            5 
  407000    1.0891312   -6.7675391    147.01177  0.030100691  0.031137582            3 
  408000     1.093235   -6.7718462    147.92735  0.030213919  0.031116397            3 
  409000    1.0944044   -6.8295319    148.03283  0.030161539  0.031094887            2 
  410000    1.0657758   -6.8241871    148.20285  0.030122531  0.031072816            4 
  411000    1.0779069   -6.8135514    147.96878   0.03000178  0.031051564            8 
  412000     1.099112   -6.8248869    148.37776  0.030011682  0.031030817            6 
  413000    1.0947467   -6.8051758    149.50231  0.030165922  0.031010476            5 
  414000    1.0915601   -6.8002514    149.26238  0.030044763  0.030989735            4 
  415000    1.1056661   -6.7710569    149.58553  0.030037255  0.030968513            5 
  416000    1.0738958   -6.8039467    149.83076  0.030014174  0.030947422            3 
  417000    1.1038749   -6.8429084    149.78715  0.029933483  0.030925122            4 
  418000    1.1106771    -6.780467    150.11746  0.029927723  0.030903709            2 
  419000    1.0879047    -6.809299     149.8524   0.02980358  0.030881727            3 
  420000    1.1138674   -6.7943631    150.88298  0.029937099  0.030859936            1 
  421000    1.0899396   -6.7525049     151.1192  0.029912748  0.030837638            7 
  422000    1.0790151    -6.828322     151.0448  0.029827172  0.030815037            5 
  423000    1.0762498   -6.7987022    151.16414  0.029780169  0.030792403            2 
  424000    1.0654628   -6.7662417     151.5587   0.02978748  0.030768945            5 
  425000    1.1045349   -6.8093327    152.00657  0.029805209  0.030745735            5 
  426000    1.0848536   -6.8373813    151.41123  0.029618785  0.030722327            3 
  427000    1.1114307   -6.7829036    151.70466  0.029606685  0.030698877            4 
  428000    1.0768335    -6.813967    152.48724  0.029689884  0.030675672            2 
  429000    1.0818312    -6.828479    152.58147   0.02963898  0.030652327            3 
  430000    1.0831133   -6.7978976    153.49396  0.029746891  0.030629963            3 
  431000    1.1085559   -6.8411147    153.21635  0.029624198  0.030607187            2 
  432000    1.0658876   -6.8227802    153.54925  0.029619841  0.030584654            4 
  433000    1.0737956   -6.8162648    153.78392  0.029596597  0.030561573            5 
  434000    1.0847369   -6.8253208    153.72516   0.02951712  0.030538872            4 
  435000    1.0791016   -6.8419849    154.10956  0.029522905  0.030515795            2 
  436000    1.0839413   -6.8041104     154.5431  0.029538054  0.030492747            5 
  437000    1.0977698   -6.8062529    154.75429  0.029510734  0.030470287            4 
  438000    1.0931826   -6.8258781    154.93046  0.029476876  0.030447844            3 
  439000    1.0973395   -6.8163415    155.54738  0.029526838   0.03042546            2 
  440000     1.074419   -6.8267428    156.15853   0.02957548  0.030403844            3 
  441000    1.0744248   -6.8130015     155.8235  0.029445106  0.030382088            2 
  442000    1.0754996   -6.8059449    156.24452  0.029457866  0.030360642            3 
  443000    1.0713117   -6.8289888     156.6605  0.029469621  0.030339048            3 
  444000    1.0986876   -6.8413359    156.72732  0.029415789  0.030316956            6 
  445000    1.0773905   -6.8197428    157.41368  0.029478217  0.030295451            3 
  446000    1.0741291   -6.8505741    157.38823  0.029407368  0.030274164            4 
  447000    1.0635146   -6.8130067     157.5617  0.029373918  0.030252164            4 
  448000    1.0843114   -6.8353279    157.95156  0.029380871  0.030230749            8 
  449000    1.0622974   -6.8670671    157.68866   0.02926664  0.030209666            2 
  450000    1.1072591   -6.8316573      158.515  0.029354629  0.030188308            4 
  451000    1.0776942   -6.7890145    158.62512  0.029309889  0.030166494            4 
  452000    1.0814759   -6.8280051    159.21282  0.029353396  0.030145315            3 
  453000    1.0890167   -6.8418706    159.20689  0.029287506  0.030124491            4 
  454000    1.0889183   -6.8156703    159.77437  0.029327161  0.030103249            4 
  455000    1.0694149   -6.8039148    160.35548  0.029369136  0.030081717            4 
  456000    1.0755288   -6.8126525    160.30725  0.029295916  0.030060998            2 
  457000    1.0693204   -6.8299517    160.16998  0.029206779  0.030039716            3 
  458000    1.0418714   -6.8149789    160.68302  0.029236357  0.030018833            3 
  459000    1.0747818   -6.8373716    161.74762  0.029365945  0.029998783            2 
  460000    1.0781764   -6.8496497    161.57953  0.029271653  0.029978425            3 
  461000    1.0812742   -6.8433355    161.38521  0.029173031  0.029958678            3 
  462000    1.0878318   -6.7877191    162.84001  0.029372296     0.029939            4 
  463000      1.08232   -6.8626381    162.09841  0.029175379  0.029919081            3 
  464000    1.0615495   -6.8331729    162.84643  0.029246844   0.02989896            4 
  465000    1.0471339   -6.8573127    162.29031  0.029084284  0.029878429            6 
  466000    1.0845828   -6.8414009    162.99001  0.029146997  0.029857829            4 
  467000    1.0738223    -6.839931     163.3435  0.029147663  0.029837161            6 
  468000    1.0893349   -6.8946419    162.61918  0.028956407  0.029816551            4 
  469000    1.0786899   -6.8336845     163.3438  0.029023418  0.029795973            4 
  470000    1.0578554   -6.8490356    164.53516  0.029172901  0.029776077            2 
  471000    1.0690681   -6.8357203    164.41105  0.029089004  0.029756061            5 
  472000    1.0635873    -6.806501    165.20043  0.029166743  0.029736438            7 
  473000    1.0628775   -6.8508537    164.94874  0.029060736  0.029717192            3 
  474000    1.0563121   -6.8223515    166.05614  0.029194117  0.029697923            2 
  475000    1.0637795   -6.8947087    165.36599  0.029011577  0.029678431            3 
  476000    1.0703947   -6.8640338    165.72511    0.0290135  0.029659326            2 
  477000    1.0539254   -6.8711869    166.11874  0.029021443  0.029639477            6 
  478000    1.0517984   -6.8754339    166.46529  0.029021145  0.029619921            6 
  479000    1.0785685   -6.8669829    166.67737  0.028997454  0.029600916            2 
  480000    1.0686451    -6.848409    166.79353   0.02895721  0.029582137            5 
  481000    1.0512314   -6.8311439    167.15064  0.028958877  0.029563347            2 
  482000    1.0302949   -6.8710603     167.3002  0.028924654  0.029544952            3 
  483000    1.0644097   -6.8290409    168.11215  0.029004858  0.029526152            2 
  484000    1.0694142   -6.8932325     167.2027  0.028788343  0.029507388            1 
  485000    1.0703429   -6.8829515    167.92209  0.028852593  0.029487864            4 
  486000    1.0763558    -6.833898    168.94421  0.028968487  0.029468998            4 
  487000    1.0482491   -6.8545402    168.05353  0.028756593  0.029449386            4 
  488000    1.0693722    -6.880071    168.73626  0.028814251  0.029429633            4 
  489000    1.0582518   -6.8629939     169.0572   0.02881002  0.029410107            2 
  490000    1.0518406   -6.9238978    168.38216  0.028636421  0.029389875            4 
  491000    1.0271147   -6.8892258    169.24862  0.028725156  0.029369758            4 
  492000    1.0563806    -6.865374    169.38533  0.028689926  0.029349483            3 
  493000    1.0687128   -6.8972768    169.73423  0.028690708  0.029329412            3 
  494000    1.0506023   -6.8868255    170.71044  0.028797307  0.029309954            3 
  495000    1.0517418    -6.839226    170.73465  0.028743208  0.029290884            4 
  496000    1.0678706    -6.855861    171.05615  0.028739273  0.029271788            4 
  497000    1.0688761   -6.8659945    170.91607  0.028657959  0.029252447            5 
  498000    1.0532645   -6.8891075    170.77511  0.028576826   0.02923311            3 
  499000    1.0433097   -6.9182516    171.56705  0.028651812  0.029213845            6 
  500000    1.0824803    -6.836836    172.10315  0.028683859  0.029194199            2 
  501000    1.0367145   -6.8676412    172.05027  0.028617809  0.029175114            5 
  502000    1.0458783   -6.8885559    172.77437  0.028681004  0.029156727            3 
  503000    1.0505495   -6.8858064    172.88937  0.028643036  0.029137913            2 
  504000    1.0577157   -6.8978874    173.02769  0.028609076  0.029119579            4 
  505000       1.0565    -6.908021    173.23482  0.028586605   0.02910128            7 
  506000    1.0615793   -6.8974832    173.80363  0.028623786  0.029082474            8 
  507000    1.0435404   -6.9112777    173.44391  0.028508204  0.029063686            5 
  508000    1.0618149    -6.882313    174.01664  0.028546037  0.029044808            5 
  509000    1.0851031   -6.9120875    173.93379   0.02847639  0.029026348            6 
  510000    1.0799185   -6.8869999    174.59284  0.028528241  0.029007761            8 
  511000    1.0399994    -6.937942    174.88719  0.028520415  0.028989397            5 
  512000    1.0947279   -6.9362898    174.58662  0.028415791   0.02897123            3 
  513000    1.0487477   -6.9366769    175.15016  0.028451943  0.028952744            3 
  514000     1.041116    -6.895926    175.43075   0.02844208  0.028934855            5 
  515000    1.0565883   -6.8973323    176.32678  0.028531841  0.028917304            5 
  516000    1.0701132   -6.8658025     177.1352  0.028607106  0.028900425            4 
  517000    1.0595041   -6.9081681    176.87947  0.028510553  0.028883493            3 
  518000     1.061156   -6.9050213    176.97775  0.028471324  0.028865997            2 
  519000    1.0427521   -6.8592123    177.24446   0.02845929  0.028848962            2 
  520000    1.0387286   -6.8936344    177.76461  0.028487918  0.028832252            5 
  521000    1.0477638   -6.9455348    177.70444  0.028423615  0.028815351            6 
  522000    1.0523024   -6.8832644    178.06018  0.028425955  0.028798474            1 
  523000    1.0257348   -6.9357451    178.00367  0.028362599  0.028781597            5 
  524000    1.0640733   -6.9099869    178.63298  0.028408553  0.028764543            8 
  525000    1.0369681   -6.9032107    178.71972   0.02836821  0.028747987            8 
  526000    1.0486866   -6.8999192    178.96936  0.028353827  0.028731248            5 
  527000     1.035748    -6.906129    179.51564  0.028386408  0.028715003            2 
  528000    1.0539065   -6.9268476    179.48866  0.028328386   0.02869817            3 
  529000    1.0446371   -6.9520884    179.20742  0.028230533  0.028681191            5 
  530000    1.0422205    -6.898846    180.69941  0.028411857  0.028664338            3 
  531000     1.057299   -6.9171535    180.44633  0.028318633  0.028648036            4 
  532000    1.0573806   -6.9671649    180.33739  0.028248338   0.02863121            2 
  533000     1.066023   -6.9118074    181.22387  0.028333939   0.02861435            3 
  534000    1.0499575   -6.9251841    181.59858  0.028339353   0.02859765            2 
  535000    1.0596525   -6.9467966    180.40784   0.02810091  0.028580534            4 
  536000    1.0742265   -6.9059835    181.01891  0.028143488  0.028563363            3 
  537000      1.05189   -6.8633755    181.84982  0.028220021  0.028546561            3 
  538000    1.0142649   -6.9266285    182.01138  0.028192592  0.028530215            3 
  539000    1.0547387   -6.9237938    183.43056  0.028359704  0.028514181           14 
  540000    1.0349445   -6.9196464    183.42181  0.028305835  0.028498662            4 
  541000    1.0164646   -6.9640991    183.46377  0.028259977  0.028482811            2 
  542000    1.0419562   -6.9567444     183.2664  0.028177491  0.028466761            6 
  543000    1.0327462   -6.9401064    183.67204  0.028187851  0.028450906            3 
  544000    1.0010027   -6.9633029    184.08918  0.028199935  0.028434643            5 
  545000     1.050746   -6.9059352    184.39232  0.028194544   0.02841827            4 
  546000    1.0177813    -6.948968    184.00497  0.028083787  0.028402129            3 
  547000    1.0384769   -6.9597779    183.95897  0.028025437  0.028385384            9 
  548000    1.0346166   -6.9545601    184.21134  0.028012674  0.028368555            3 
  549000    1.0586605   -6.9478883    184.63992  0.028026703  0.028352182            5 
  550000     1.031698   -6.9178617    184.99451  0.028029471  0.028336261            3 
  551000    1.0440159   -6.9355975    185.24627  0.028016677  0.028320056            5 
  552000    1.0011526   -6.9826526    184.89219  0.027912469  0.028303182            7 
  553000    1.0401286     -6.94242    185.54643  0.027960584  0.028286153            6 
  554000    1.0534074   -6.9441205    185.22939  0.027862423  0.028269341            4 
  555000     1.043526   -6.9884875    184.91409  0.027764879  0.028251963            3 
  556000    1.0360231   -6.9349054    185.59902  0.027817598  0.028233972            2 
  557000    1.0348391   -6.9388475    185.66129  0.027776974  0.028215287            3 
  558000    1.0337038   -6.9388832    185.86047   0.02775694  0.028196835            5 
  559000    1.0450682    -6.980539     186.0025  0.027728458  0.028177891            5 
  560000    1.0097757    -6.967565    185.47745  0.027600811  0.028158975            2 
  561000    1.0347696   -6.9577637    186.04645  0.027636133  0.028139706            4 
  562000    1.0188794   -6.9612511    185.89278  0.027564172  0.028120726            4 
  563000    1.0207108   -6.9778206    186.19741  0.027560303  0.028101753            4 
  564000    1.0273219    -7.007696    186.12019  0.027500027  0.028082778            5 
  565000    1.0242452   -6.9739708    187.06145  0.027590185  0.028063696            5 
  566000    1.0266805   -6.9714524    187.24245  0.027568087  0.028045091            4 
  567000    1.0377753   -6.9650345    187.88209  0.027613477  0.028026799            5 
  568000    1.0402134   -6.9476162    187.72816  0.027542276  0.028008297            6 
  569000     1.040723   -6.9493045    188.71207  0.027637972  0.027989762            3 
  570000    1.0169974   -6.9532729    188.44725  0.027550768  0.027971254            4 
  571000    1.0051121   -6.9876385    188.57997  0.027521886  0.027952561            5 
  572000    1.0459998   -6.9166151    189.47462  0.027604111  0.027934213            4 
  573000    1.0422188   -6.9909043    188.84379  0.027464193  0.027915664            7 
  574000    1.0300002    -6.997533    187.99909  0.027293712   0.02789641            5 
  575000    1.0403515   -6.9684945    189.13322  0.027410612  0.027877307            2 
  576000    1.0249236   -6.9305718    190.02112  0.027491481   0.02785848            5 
  577000    1.0219926   -6.9112384    190.35235  0.027491674  0.027839841            3 
  578000    1.0260722   -7.0158774    189.38432  0.027304544  0.027821663            7 
  579000    1.0201966    -6.977578    189.70185  0.027303088  0.027803225            4 
  580000    1.0139822   -6.9598233    190.59997  0.027385053  0.027784802            3 
  581000    1.0051039   -6.9738747    190.37747  0.027306005  0.027766281            3 
  582000    1.0143344   -6.9729388    190.89041  0.027332533  0.027747558            3 
  583000   0.99308217   -7.0288176    190.14907  0.027179684  0.027728856            5 
  584000    1.0128089   -6.9893188    190.70966  0.027213136  0.027710276            7 
  585000    1.0247294   -7.0212399    191.27843   0.02724764  0.027691935            2 
  586000    1.0157081   -6.9593234    191.20501  0.027190702  0.027673365            7 
  587000    1.0008382   -6.9942329     191.6929  0.027213642   0.02765467            8 
  588000    1.0193452   -6.9839916     191.5376  0.027145352  0.027635853            8 
  589000    1.0275211   -6.9655737     192.0392  0.027170231   0.02761703            4 
  590000    1.0480914   -6.9826532    192.69541  0.027216865  0.027598478            5 
  591000    1.0088803   -6.9437899    192.61917  0.027160064  0.027580072            5 
  592000   0.99908702   -6.9771201     192.3448  0.027075563   0.02756134            4 
  593000    1.0294625   -7.0518599    191.93031  0.026971657  0.027542301            4 
  594000    1.0283342   -6.9839915    192.94337  0.027068374  0.027523045            5 
  595000    1.0088256   -7.0128748    192.66064  0.026983283  0.027503509            7 
  596000    1.0313694   -7.0236194    192.05406  0.026853196  0.027483901            4 
  597000    1.0126562   -7.0336708    192.12544  0.026818179  0.027464063            4 
  598000    1.0174886   -7.0251077    193.17541   0.02691965  0.027444351            3 
  599000    1.0108093   -6.9411362    193.74543  0.026954011   0.02742436            3 
  600000    1.0315996   -6.9656873    193.54412  0.026881128  0.027404675            6 
  601000    1.0337966     -7.01547    193.79183  0.026870747  0.027385362            3 
  602000    1.0168633   -6.9662222    194.31386  0.026898374  0.027366202            7 
  603000    1.0174191    -6.989223    194.10523  0.026824935  0.027347163            4 
  604000    1.0283896   -7.0383429    193.83464  0.026743191   0.02732759            2 
  605000    1.0170579    -6.980187    194.30231  0.026763403  0.027307612            3 
  606000    1.0160955   -7.0325198    194.21987  0.026707902  0.027287746            6 
  607000    1.0273578   -7.0253344    194.63055  0.026720284  0.027267536           20 
  608000    1.0164895   -6.9426032    194.94464  0.026719386  0.027247786            2 
  609000    1.0319251   -7.0141544     194.7231  0.026645197   0.02722803            4 
  610000    1.0172837   -7.0142734    194.99049  0.026638045  0.027207833            6 
  611000    1.0166135   -7.0511859    195.17259  0.026619284  0.027187556            7 
  612000    1.0043332    -6.987173    195.57047  0.026629966  0.027166952           15 
  613000    1.0300974    -7.013182    194.98644  0.026507128  0.027146333            5 
  614000    0.9905624   -6.9825031    195.43138  0.026524346  0.027126109            6 
  615000    1.0035839   -7.0515053    195.47008  0.026486461  0.027105981            6 
  616000    1.0165808   -7.0451267    196.10524  0.026529389   0.02708605            8 
  617000    1.0107281   -6.9979156     196.9328  0.026598163  0.027066118            8 
  618000   0.98392398   -7.0507056    197.08599  0.026575781  0.027046196            6 
  619000    1.0095258   -7.0075545    197.36541  0.026570465  0.027026133            4 
  620000    1.0186517   -6.9195833    197.55302  0.026552825   0.02700624            3 
  621000    1.0059473   -6.9795605    197.24463  0.026468684   0.02698601            7 
  622000   0.99941731   -6.9793426     197.4216  0.026449839  0.026965678            3 
  623000    1.0127712   -7.0204315    196.93409  0.026342174  0.026945369            9 
  624000    1.0054174   -6.9960105    197.91056  0.026430364  0.026925302            3 
  625000    1.0106157   -7.0082263    198.05466  0.026407288  0.026905841            5 
  626000    1.0063745   -7.0240092     198.2191  0.026386994  0.026885996            7 
  627000    1.0006635   -7.0276379    198.59466  0.026394824  0.026866408            6 
  628000      1.00119   -7.0342399    199.15346  0.026426945  0.026847046            5 
  629000    1.0024915   -7.0280153    198.77232  0.026334436  0.026827759            3 
  630000    1.0331488   -7.0195622    199.42176   0.02637854  0.026808586            6 
  631000   0.99852298   -7.0433408    199.40328  0.026334295  0.026789569            3 
  632000    1.0010373   -7.0693556    199.66631  0.026327308  0.026770628            5 
  633000   0.99851053   -7.0343649     199.6501  0.026283583  0.026751428           17 
  634000   0.99407787   -7.0382208    199.92592  0.026278381  0.026731866            8 
  635000    1.0028202   -7.0457487    200.35503   0.02629331  0.026712678            4 
  636000    1.0003544   -7.0100403    200.74841  0.026303513  0.026693662            6 
  637000    1.0099275   -7.0519517    201.34603  0.026340401  0.026674708            7 
  638000   0.99410955   -7.0440067    201.02675  0.026257413  0.026655439            2 
  639000   0.99239783   -7.0753995    200.72342  0.026176763  0.026636167            4 
  640000   0.98647466      -7.0365    201.80243  0.026276358  0.026616963            3 
  641000    1.0064044   -7.0617898    201.18963  0.026155698  0.026597974            5 
  642000   0.98418985   -7.0402309    201.54858   0.02616155  0.026578854            6 
  643000   0.99107803   -7.0554363    202.22655  0.026208729  0.026559759            7 
  644000   0.99617123   -7.0261172    202.55808  0.026210932  0.026540861            3 
  645000   0.99151147   -7.0245014    203.54556  0.026297875  0.026522503           10 
  646000   0.99847338   -7.0404664    202.40141  0.026109574  0.026503967            5 
  647000    1.0088211    -7.027718    202.71174  0.026109188  0.026485435            5 
  648000    1.0202204   -7.0752256    202.89547  0.026092524   0.02646686            3 
  649000   0.97391974   -7.0410004    203.42874  0.026120793  0.026448144            9 
  650000   0.99593011   -7.0293124    203.20196  0.026051533  0.026429407            6 
  651000     1.001788    -7.045181    203.27195  0.026020475  0.026410536           10 
  652000    1.0007274   -7.0203796     203.7015  0.026035468  0.026391831           12 
  653000   0.98586153   -7.0606462    203.97179  0.026030091  0.026372988            3 
  654000    1.0048657   -7.0702966    203.37465  0.025914201  0.026354049            3 
  655000   0.98890632   -7.0531807    204.34618  0.025998241  0.026335077            5 
  656000   0.96719415   -7.0706312    204.55416   0.02598503  0.026316465            6 
  657000   0.99391266   -7.0957905    204.42567  0.025929182  0.026297401            4 
  658000   0.99139433   -7.0204229     205.5407   0.02603099  0.026278769            7 
  659000   0.99136536   -7.0276687    205.65706  0.026006204  0.026260228            5 
  660000   0.99451054   -7.0372411     205.2056  0.025909797  0.026241933            5 
  661000   0.99062055   -7.0036853    205.21407  0.025871668  0.026223597            8 
  662000   0.99938174   -7.0789372    205.02956   0.02580936  0.026204973            5 
  663000   0.98694494   -7.0882397     205.3761  0.025813989  0.026186431           16 
  664000    1.0061471   -7.0898296    205.83631   0.02583287  0.026167929            5 
  665000   0.98687086   -7.0569632    206.43945  0.025869605  0.026149459            7 
  666000   0.99661258   -7.1009784    206.43058  0.025829653  0.026131036            6 
  667000   0.99004893   -7.0803127    206.78908  0.025835717  0.026112749            4 
  668000   0.97675803   -7.0996332    206.53446  0.025765277  0.026094544            4 
  669000    1.0002853   -7.0775354    206.20013  0.025685118   0.02607599            4 
  670000    1.0065036   -7.0628709    207.38034  0.025793574  0.026057246            3 
  671000    1.0044932   -7.1012732    206.31953   0.02562339  0.026038453            9 
  672000   0.97781891   -7.0244401    206.92671  0.025660555  0.026019771            5 
  673000   0.96037381   -7.0946069     206.7067  0.025595184  0.026001037            3 
  674000   0.97078088   -7.0974937    206.72958  0.025560037  0.025981889            9 
  675000   0.97562259   -7.0785478    207.27622  0.025589657  0.025962947            5 
  676000   0.98646219   -7.0569987    207.48531  0.025577578  0.025944039            5 
  677000   0.99222825   -7.1124871    207.38336  0.025527247  0.025925006            6 
  678000   0.98797019    -7.043598    208.11113  0.025579047  0.025905935            6 
  679000   0.96022187   -7.0345724     207.5621  0.025473994  0.025886769            5 
  680000   0.99104566   -7.0965228    207.20687  0.025392999  0.025867507            5 
  681000   0.99919832   -7.0871842    207.83062  0.025432039  0.025847897            6 
  682000     0.966055   -7.1160383    207.20044  0.025317746  0.025828034            3 
  683000    1.0023756   -7.0746877    207.44938  0.025311051   0.02580796            7 
  684000   0.98974886    -7.085624    207.18352  0.025241656   0.02578767            7 
  685000   0.97577431   -7.0692743    207.78315  0.025277755  0.025767659            9 
  686000   0.96494985   -7.0954689    207.98523  0.025265456  0.025747797            4 
  687000   0.98624142   -7.0913216      208.745  0.025320839  0.025727787            4 
  688000   0.98731004   -7.0982706    208.31573  0.025232041  0.025707867            7 
  689000    0.9975673   -7.0942786    208.44015  0.025210468  0.025687739           11 
  690000   0.97925192   -7.0930514    208.60979  0.025194419  0.025667396            4 
  691000    0.9759574    -7.121279     208.7054  0.025169488  0.025647169            3 
  692000   0.96466713   -7.1127353    208.92111  0.025159094  0.025627134            9 
  693000   0.98148217   -7.0751462    209.54206  0.025197458  0.025607068            5 
  694000   0.97814038   -7.1026283    209.30808  0.025133055  0.025587276            5 
  695000   0.96298969   -7.0836623    209.51991  0.025122292  0.025567699            3 
  696000   0.98430067   -7.1004564    209.56101  0.025091117  0.025547896            7 
  697000   0.96422355   -7.0872593    210.05618  0.025114321  0.025528015            9 
  698000   0.96383281   -7.1457616    209.48702  0.025010389  0.025507987            3 
  699000   0.98759576   -7.1357322    209.68157  0.024997803  0.025487827            7 
  700000    0.9536161    -7.119354     210.1589  0.025018917  0.025467601            4 
  701000   0.97443001   -7.0884694     210.2921  0.024999061  0.025447602            6 
  702000   0.98250623   -7.1249646     210.1463  0.024946142  0.025427571            5 
  703000   0.97901072   -7.1403586    209.73513  0.024861916  0.025407475            5 
  704000   0.97707264   -7.1176197    210.52775  0.024920425  0.025387193            5 
  705000   0.96711469   -7.1089294     210.3245  0.024861052  0.025367227            8 
  706000   0.96324122    -7.108224    210.23726   0.02481554  0.025347162            4 
  707000   0.95741864   -7.0976813    210.34542   0.02479319  0.025326957            5 
  708000   0.97871075   -7.0995179    210.93822  0.024827945  0.025306719            6 
  709000   0.95254479   -7.1215708    210.65616  0.024759774  0.025286686           11 
  710000   0.97476505   -7.1061875    211.45479  0.024818637   0.02526648            6 
  711000   0.97256344   -7.1301696    211.35383  0.024771897  0.025246022            5 
  712000   0.95568138    -7.086964    211.90477  0.024801588  0.025225801            3 
  713000   0.97622238   -7.1238201    211.72958  0.024746327  0.025205472            5 
  714000   0.97210777   -7.1597522    211.26392  0.024657321  0.025184846            5 
  715000   0.94536734   -7.1681603    211.07021  0.024600257  0.025164232           10 
  716000   0.97313917   -7.1595619    211.68978  0.024638009  0.025143609            5 
  717000    0.9857166   -7.1352772    212.19814  0.024662731  0.025122947            4 
  718000   0.95193332   -7.1155497    212.02715  0.024608536  0.025102438            3 
  719000   0.95851035   -7.1615927    212.28151  0.024603792  0.025082128            2 
  720000   0.99554069   -7.1640452     212.5292  0.024598287  0.025061612            5 
  721000   0.97490624   -7.1627258    212.37652  0.024546523  0.025041311            6 
  722000   0.98091674   -7.1143707     213.1503  0.024601835  0.025021131            4 
  723000   0.98305501   -7.1346035    212.31969  0.024472071  0.025000873            5 
  724000   0.97788848   -7.1062034    212.75251  0.024488088  0.024980801            6 
  725000    0.9609944   -7.1404178    213.32663  0.024520302  0.024960745           10 
  726000   0.97054615   -7.1583173    212.84499  0.024431243  0.024940373            5 
  727000   0.95845994   -7.1394136     213.3567  0.024456293  0.024920112            4 
  728000   0.96822927   -7.1197257    214.39883   0.02454199  0.024899954            6 
  729000   0.94318757   -7.1314911    214.14742  0.024479586  0.024880227           11 
  730000   0.97149737   -7.1403574    214.16318  0.024447851  0.024860156            5 
  731000   0.96817591   -7.1266867    214.02239  0.024398357  0.024840009            6 
  732000   0.94673649   -7.1462903    214.78237  0.024451545  0.024820067            4 
  733000   0.95988623   -7.1261428    214.47638  0.024383399  0.024800165            4 
  734000   0.93963537   -7.1152057    214.55261  0.024358834  0.024780191           11 
  735000   0.94498249   -7.1259944    215.10152  0.024387928  0.024760415            4 
  736000   0.95376378   -7.2118038    213.76807  0.024203812  0.024740348            4 
  737000   0.96693073   -7.1615019    214.80165  0.024287839  0.024719972            5 
  738000   0.95219766   -7.1393384    214.62432  0.024234906   0.02469946           21 
  739000    0.9628552   -7.1805853    214.44198  0.024181549  0.024678681            7 
  740000   0.94162517   -7.1576662    214.84013  0.024193708  0.024657987            3 
  741000   0.95341681    -7.199427     214.7883  0.024155229  0.024637607            7 
  742000    0.9649575   -7.1197294    215.95096  0.024253253  0.024617247            2 
  743000   0.99395739   -7.1695095    215.34586  0.024152743  0.024596986            4 
  744000   0.95390813   -7.1783285    215.17604  0.024101259  0.024576582            5 
  745000   0.94270464   -7.1883937    215.57544  0.024113584  0.024556127           10 
  746000   0.94237578   -7.1475975    215.06148  0.024023847  0.024535699            3 
  747000   0.94925014   -7.1369875    216.05386  0.024102394  0.024515299            3 
  748000   0.97178627   -7.2297767    215.11357  0.023965416  0.024494826            2 
  749000   0.94661513   -7.1580144    215.90628  0.024021615  0.024474337            5 
  750000   0.94849396   -7.1954871    215.95183  0.023994648  0.024454056            3 
  751000   0.95802408   -7.2049243    216.18128  0.023988158  0.024433667            5 
  752000   0.94800778   -7.1935893    216.17253  0.023955289  0.024413516            5 
  753000   0.95871616   -7.1717809    216.97163  0.024011911  0.024393225            7 
  754000   0.95574507    -7.171747    217.01013   0.02398432  0.024372938            4 
  755000   0.97805007   -7.1818112    216.40723  0.023886007  0.024352709            5 
  756000   0.94102144   -7.1831858    216.78125   0.02389564  0.024332439            7 
  757000   0.96118914   -7.1703479    216.91509  0.023878808  0.024311913           13 
  758000   0.94569143   -7.1836871    216.83066  0.023838023  0.024291576            6 
  759000   0.94284985    -7.133264    217.55788   0.02388646  0.024271178            4 
  760000   0.95367818   -7.1690883    216.94163   0.02378746  0.024250979           10 
  761000   0.94792099   -7.1502695     217.0894  0.023772383  0.024230782            5 
  762000   0.96239139   -7.1515561    217.59167  0.023796114  0.024210343           15 
  763000    0.9492202   -7.1771312    217.39514  0.023743462  0.024190129            6 
  764000   0.94141792    -7.173263    217.09347   0.02367948  0.024169608            6 
  765000   0.94195273   -7.1636591    217.43662  0.023685906  0.024149176           10 
  766000   0.93425787   -7.2039528    217.33118  0.023643514  0.024128753            7 
  767000   0.95781022   -7.1795386    218.02326  0.023687882  0.024108346            6 
  768000   0.95034609   -7.2145915    217.28995  0.023577469  0.024087845            9 
  769000   0.94975701   -7.1756128    218.28611  0.023654758  0.024067124           13 
  770000   0.93673046   -7.2029366    218.16659  0.023611103   0.02404656            3 
  771000   0.93005772   -7.1876071    217.88947  0.023550526  0.024026074           16 
  772000   0.93066994   -7.2251786    217.70733  0.023500359    0.0240057            7 
  773000   0.96627574   -7.1965197    218.62817  0.023569229  0.023985373            3 
  774000   0.96662055   -7.1991865    218.70423  0.023546967  0.023965306            3 
  775000   0.92611774   -7.1885783    219.59291  0.023612141  0.023945338            7 
  776000   0.94028729   -7.1411881    219.66384  0.023589329   0.02392552            3 
  777000   0.93837497   -7.1783776    219.21767  0.023511119  0.023905408            3 
  778000   0.95603014   -7.1925932    219.36122  0.023496275  0.023885397            4 
  779000   0.93903644   -7.2021179    220.46622   0.02358432  0.023865449            6 
  780000   0.93382686    -7.216334    219.44097  0.023444548  0.023845626            6 
  781000   0.94235694   -7.1771519    220.08868   0.02348364  0.023825985           12 
  782000   0.94246565   -7.1900353    220.66112  0.023514612  0.023806251            6 
  783000   0.92896544    -7.214929    220.42044  0.023458966  0.023786749            6 
  784000   0.93423397   -7.2354717     219.9973  0.023384066  0.023767061            5 
  785000   0.93887194   -7.2101389    220.63663  0.023422148  0.023747441            7 
  786000   0.93516746   -7.2458697    220.89217  0.023419441  0.023728008            9 
  787000   0.92953179   -7.2281295    221.14307   0.02341625  0.023708473            6 
  788000   0.94301282   -7.2243621    220.74961  0.023344925  0.023688951            4 
  789000   0.95039649   -7.2278004    221.30036  0.023373507  0.023669755            8 
  790000   0.93471438   -7.1809302    222.32913  0.023452439  0.023650858            3 
  791000   0.93208014    -7.196862     222.4402  0.023434492  0.023631981            3 
  792000   0.94009718   -7.2080503    222.54197  0.023415612  0.023612967            5 
  793000   0.93428894   -7.2362143    221.97364   0.02332636  0.023593894            5 
  794000   0.93609181   -7.1952116    222.40747  0.023342514  0.023574726            6 
  795000   0.94024138   -7.1918285    222.26151  0.023297853  0.023555761            2 
  796000   0.94530165    -7.214538     221.6153  0.023200931  0.023536585            4 
  797000    0.9253032   -7.2431969    222.10148  0.023222656  0.023517395            5 
  798000   0.95744234   -7.2021908    222.80214  0.023266723  0.023498321            5 
  799000   0.92684314   -7.2443678    222.39092  0.023194714  0.023479235            5 
  800000   0.94448414   -7.2251197    222.55664  0.023182984  0.023459998            6 
  801000   0.93505791   -7.2351191    223.29958  0.023231334  0.023440757           14 
  802000   0.95258232   -7.2175932    222.49415  0.023118678  0.023421581            4 
  803000   0.91834931   -7.2366148    222.87606   0.02312952  0.023402284            6 
  804000   0.94550331   -7.2494925    222.47374  0.023059053  0.023382743            5 
  805000   0.93896825   -7.2495902    222.35804  0.023018431  0.023363225            6 
  806000   0.93731203    -7.286859    222.75286  0.023030693  0.023343709            6 
  807000   0.93803112   -7.2604887    223.14202   0.02304234  0.023324227           14 
  808000   0.92854694   -7.2485405    223.37964  0.023038329  0.023304974            4 
  809000   0.91496211    -7.256357    222.37345  0.022906206  0.023285552            5 
  810000   0.94667321   -7.2443757    223.63168  0.023007375  0.023266237            4 
  811000   0.92751587   -7.2738835    223.70003  0.022986029  0.023247074           10 
  812000   0.93415613   -7.2413317    223.81718  0.022969744   0.02322798            8 
  813000   0.93905902    -7.191515    224.91248   0.02305376  0.023208836           12 
  814000   0.91855197   -7.2168986    224.13787  0.022946137  0.023189829            3 
  815000   0.94277988   -7.2051678    224.75748  0.022981337  0.023170806            3 
  816000   0.93210709   -7.2030598    224.57553  0.022934593  0.023151914            9 
  817000   0.92034312   -7.2586266    224.29405   0.02287781  0.023133048           18 
  818000   0.91929409   -7.2317038    225.28871  0.022951172  0.023114464           12 
  819000   0.92584184   -7.2588359    224.88552  0.022882125  0.023095938            7 
  820000   0.92576816   -7.2747504    225.32378  0.022898758  0.023077319            2 
  821000   0.92834949    -7.250278    225.24775   0.02286315  0.023058802            4 
  822000   0.92257547   -7.2454773     225.6005  0.022871097  0.023039944           14 
  823000   0.94574613   -7.2475162    225.38634  0.022821623  0.023021212            5 
  824000    0.9027993   -7.2953499    225.53351  0.022808809  0.023002431            6 
  825000   0.91510929   -7.2519232    225.31571  0.022759162  0.022983558            6 
  826000   0.93119284   -7.2963314    225.22311  0.022722267  0.022964776            3 
  827000   0.92041541    -7.260319    226.27073  0.022800356  0.022945887            8 
  828000   0.93256455   -7.2389865    225.94859  0.022740398  0.022927136            6 
  829000   0.90623978    -7.240834    225.83513  0.022701561  0.022908386            6 
  830000   0.91837799   -7.2986637    226.12394  0.022703207  0.022889603            4 
  831000   0.94258121   -7.2860798    226.17807  0.022681315  0.022870621            6 
  832000   0.92480548   -7.3105263    225.94153  0.022630362  0.022851859            4 
  833000   0.91588017    -7.253483    226.87067  0.022696145  0.022833135            4 
  834000   0.91198384   -7.2747241    227.13741  0.022695584  0.022814335            7 
  835000   0.92797725    -7.264039    226.64618   0.02261938   0.02279539            7 
  836000   0.91106643   -7.2871775    226.04846  0.022532741  0.022776503            4 
  837000   0.90645331   -7.3050006    227.13049   0.02261355   0.02275766            8 
  838000    0.9286392   -7.3075671    226.94094  0.022567715  0.022738842            8 
  839000   0.93158578   -7.2406807    227.11366  0.022557972  0.022720244            5 
  840000   0.92224533   -7.2833362    227.07695  0.022527475  0.022701541            4 
  841000   0.92930078   -7.3071588    226.73507  0.022466812  0.022682769            5 
  842000   0.91241334   -7.2780038     227.1136  0.022477593  0.022663981            8 
  843000   0.92655987   -7.3015718    227.49531  0.022488662  0.022645141            6 
  844000   0.93005936   -7.3043112    227.07781  0.022420795   0.02262633            9 
  845000   0.91105548    -7.280912    227.85027  0.022470441  0.022607703            5 
  846000   0.91009256    -7.291566    227.44111  0.022403577  0.022589116            8 
  847000   0.89171429   -7.2786997    227.73806  0.022406342  0.022570398           10 
  848000   0.91877807   -7.2679064    227.75758  0.022381837  0.022551855            6 
  849000   0.91640617   -7.2750082     228.7228  0.022450216  0.022533335            7 
  850000   0.90818699   -7.2548547    228.31852  0.022384168  0.022514779            6 
  851000   0.89619756   -7.2758827      228.658  0.022391108  0.022496193            8 
  852000   0.90929962   -7.3210051    227.43674  0.022245378  0.022477621            8 
  853000   0.92707472   -7.2530336    228.49513  0.022322697  0.022459127            5 
  854000   0.91478886   -7.2761365     228.7251  0.022318999  0.022440642            9 
  855000   0.91520884   -7.3233922    228.11841  0.022233763  0.022422084            8 
  856000    0.8956424   -7.3162947    228.00941  0.022197178  0.022403597            5 
  857000   0.91638146   -7.3033161    228.32883  0.022202337  0.022384965            5 
  858000   0.92427459   -7.2911715     228.9722  0.022238948  0.022366165            4 
  859000   0.91742998   -7.2892766    228.53943  0.022171074  0.022347455            4 
  860000   0.90358473    -7.291945    228.71818  0.022162614  0.022328719            7 
  861000   0.91274539   -7.2949345     228.9252   0.02215691  0.022310022           13 
  862000   0.90871778   -7.3079832    228.09644  0.022051086  0.022291299            9 
  863000   0.88493988   -7.2902108    229.42927  0.022154237  0.022272623            7 
  864000   0.89963773   -7.2812265    228.64639  0.022053086  0.022254126            8 
  865000   0.90018435   -7.2897669    229.14299  0.022075433  0.022235452            7 
  866000   0.91107717   -7.3018625    229.32932  0.022067871  0.022216813           11 
  867000   0.93454488   -7.3257605    229.42417  0.022051535  0.022198085            5 
  868000   0.89930855   -7.3109601    229.41079  0.022024845  0.022179304            7 
  869000   0.91170562   -7.3471782    228.90987  0.021951465   0.02216064           11 
  870000   0.91029918   -7.3379709     229.1584  0.021950038   0.02214167           11 
  871000   0.91291171   -7.3411434    229.37776  0.021945824  0.022122902           24 
  872000   0.90478946   -7.3516711    229.04963  0.021889299  0.022103998            7 
  873000   0.90197947   -7.2972734    229.22333  0.021880807  0.022085199           12 
  874000    0.8957666   -7.3048334    229.42337  0.021874844  0.022066348           13 
  875000   0.90603067   -7.2991508    229.33007  0.021840959  0.022047552            4 
  876000   0.90992401   -7.2979321    229.16159  0.021799999  0.022028686            9 
  877000   0.88071716   -7.3037471    229.63184  0.021819825  0.022010008            4 
  878000    0.9003354   -7.3508302     229.3338  0.021766685  0.021991003            4 
  879000   0.88976995   -7.3123964    229.58945  0.021766159  0.021972033           10 
  880000   0.90503004   -7.3550844    230.03328  0.021783455   0.02195315           12 
  881000   0.89025881    -7.334604    229.75607  0.021732507  0.021934135            3 
  882000   0.89529602   -7.3517792    229.63464  0.021696395  0.021914877            7 
  883000   0.91211233   -7.3530608     229.5942  0.021668007  0.021895645           17 
  884000   0.90480941   -7.3583739     229.1439  0.021601046  0.021876439            6 
  885000   0.91764096   -7.3286253    229.43442  0.021603994  0.021857232            6 
  886000   0.87565583   -7.3047935    229.73278  0.021607673  0.021838163            9 
  887000   0.90923612   -7.2995638    229.73941  0.021583936  0.021818981            4 
  888000   0.90999061   -7.3207504    229.92391  0.021576943  0.021799967            5 
  889000   0.91519893   -7.2973911     229.6356  0.021525647  0.021781129            6 
  890000   0.90519206   -7.3194241    229.77081  0.021514121  0.021762087           15 
  891000   0.89087923   -7.2970915    230.48311  0.021556594  0.021742847           12 
  892000   0.90658468   -7.3018022    230.53781  0.021537539  0.021723726            4 
  893000    0.9063321   -7.3269091    230.19529  0.021481457  0.021704559            6 
  894000   0.89380654   -7.3196941    230.99655  0.021532117  0.021685502            4 
  895000   0.90218163    -7.318692    230.98977  0.021507427  0.021666467            6 
  896000   0.89342562   -7.3268322    230.89622  0.021474723  0.021647611            4 
  897000   0.89868675   -7.3342049     230.2464  0.021390412  0.021628716            7 
  898000   0.89176276   -7.3593068    230.62865  0.021402065  0.021609664           14 
  899000   0.91949342    -7.333258    231.07714  0.021419831  0.021590812            7 
  900000    0.8914872   -7.3443877    231.21633   0.02140892  0.021571896           10 
  901000   0.91190572   -7.3649045    231.33789  0.021396401  0.021552911            4 
  902000    0.9029867   -7.3992088     231.3699  0.021375638  0.021534007            5 
  903000   0.89846169   -7.3585154    231.59173  0.021372438  0.021515052           12 
  904000   0.89293312   -7.3977941    230.47683   0.02124602  0.021496157           10 
  905000   0.89332687   -7.3713857    231.51447  0.021318092  0.021477219            6 
  906000    0.8713021   -7.3338054    231.80881  0.021321635  0.021458499            3 
  907000   0.89786164   -7.3262994    232.18203  0.021332417  0.021439771            4 
  908000   0.89043005    -7.348623      232.037  0.021295613  0.021421069            9 
  909000   0.89077594   -7.3591827    232.16944  0.021284327  0.021402481            4 
  910000     0.873188   -7.3503662    231.65237  0.021213587  0.021383841            5 
  911000   0.86674025   -7.3817638    231.59545  0.021185094  0.021365126            9 
  912000   0.90167227    -7.322753    232.79807  0.021271753  0.021346608            4 
  913000   0.88748654    -7.371916    232.04194   0.02117944  0.021328051            6 
  914000   0.91094246   -7.3961032    232.48385  0.021196558  0.021309604            4 
  915000   0.88573352    -7.370831    232.81714  0.021203747  0.021291136           10 
  916000   0.88509722   -7.3739548    233.28236  0.021222922  0.021272712            3 
  917000   0.89244588   -7.3724238    232.53281  0.021131662  0.021254367            9 
  918000   0.87401454   -7.3830539    232.81616  0.021134365  0.021235991           13 
  919000   0.88477455   -7.3473973    233.43115  0.021167133  0.021217694           10 
  920000   0.90032319   -7.3513779    233.52034  0.021152205  0.021199498            7 
  921000   0.88221416   -7.4120742    232.83734  0.021067439  0.021181164            3 
  922000   0.87995306   -7.3823803    233.84243  0.021135433  0.021162782           10 
  923000   0.90123495   -7.3561773    233.13898  0.021049023  0.021144426            7 
  924000   0.89122195   -7.3993518    232.25172  0.020946223  0.021126014           11 
  925000   0.88978064   -7.3990559    233.53951  0.021039595  0.021107525            8 
  926000   0.87110495   -7.4099035    232.65794   0.02093754  0.021089082            7 
  927000   0.89955822   -7.4170047     233.3209   0.02097455  0.021070574            5 
  928000   0.87793729    -7.378579    233.97073  0.021010302  0.021052236            6 
  929000   0.89131096   -7.3806844    234.13338  0.021002277   0.02103402            5 
  930000   0.87938267   -7.3905085    233.79756  0.020949602  0.021015815            3 
  931000   0.87567893   -7.4132671    233.27609  0.020880423   0.02099765            6 
  932000   0.86971108   -7.4214177    233.37685  0.020867029  0.020979355           12 
  933000   0.89391453   -7.3482146    234.32022  0.020928923   0.02096114            8 
  934000   0.90485942   -7.4314705     233.5445  0.020837304  0.020943012            7 
  935000   0.89814032   -7.3691379    235.02396  0.020946877  0.020924863           10 
  936000   0.88770059   -7.3977731     233.8006  0.020815581  0.020906935            9 
  937000   0.90721151   -7.3966153     234.1604  0.020825365  0.020888905            4 
  938000   0.89695835   -7.3942265    234.66085  0.020847624  0.020870903            4 
  939000   0.88298315   -7.3785366    234.57183  0.020817522  0.020852798            7 
  940000   0.87621529   -7.3895014    234.95521  0.020829362  0.020834824            4 
  941000   0.86816864   -7.3919755    234.13627  0.020734703  0.020816848            6 
  942000   0.88241199   -7.4326222     234.8644  0.020777106  0.020798696            4 
  943000   0.87788144   -7.4368712     235.2245  0.020786895  0.020780712           10 
  944000   0.87788143   -7.4071846    234.51836  0.020702539   0.02076254            7 
  945000   0.87374648   -7.4230463    235.27701  0.020747532  0.020744688           12 
  946000   0.88644023   -7.4309381    234.61233  0.020667048  0.020726718            9 
  947000   0.85489876   -7.4135675     235.3607  0.020711079  0.020708744            6 
  948000   0.87373376   -7.3967269    235.32626  0.020686205  0.020690793            7 
  949000   0.85899627   -7.4389481    235.19289  0.020652695  0.020672741            7 
  950000   0.87185304   -7.4214392    235.19585  0.020631215  0.020654606            6 
  951000   0.87565408   -7.4522834    235.14017  0.020604642  0.020636645            5 
  952000   0.86926869   -7.3806717    235.33258   0.02059984  0.020618583           11 
  953000   0.88991327   -7.4309849    234.57025  0.020511565  0.020600474            3 
  954000   0.87543497   -7.4192664    235.66035  0.020585286  0.020582457            4 
  955000    0.8771529   -7.4207978     235.9135   0.02058582  0.020564481            6 
  956000   0.86038198   -7.4066892    235.92513  0.020565301  0.020546589            6 
  957000   0.88636353   -7.4625682    235.09702  0.020471702  0.020528678            5 
  958000   0.87079389   -7.4658077    235.56812  0.020491312  0.020510778           12 
  959000   0.87257941   -7.4286875    235.85245  0.020494652  0.020492991            5 
  960000   0.86800954   -7.4258868       236.11   0.02049566  0.020475298           13 
  961000   0.87113268   -7.4340208    235.12638  0.020389038  0.020457537           10 
  962000   0.88657243   -7.3901308    236.25824   0.02046589  0.020439777            8 
  963000   0.87131686   -7.4270506    236.26362  0.020445104  0.020422017            4 
  964000   0.84919833   -7.4050212    236.46553   0.02044135  0.020404307            8 
  965000   0.84264465   -7.4460118     236.0638  0.020385475  0.020386618           10 
  966000   0.88378562   -7.4237388    236.54057  0.020405501  0.020369019           14 
  967000   0.88190076   -7.4571244    236.23123  0.020357742  0.020351481           12 
  968000   0.84745588    -7.446516    236.31462   0.02034389   0.02033383            5 
  969000   0.86973676   -7.4376666    236.88915  0.020372304  0.020316167           12 
  970000   0.86547706   -7.4614374    236.38211  0.020307742  0.020298589            5 
  971000   0.87920462   -7.4333786    237.06662  0.020345573  0.020281134            8 
  972000   0.87296579   -7.4372984     237.2593  0.020341161  0.020263686           13 
  973000   0.87629942   -7.4271514    236.65926  0.020268864  0.020246232           10 
  974000   0.85834388   -7.4681451    236.65686  0.020247849  0.020228691            8 
  975000    0.9049342   -7.4504548    237.29057  0.020281245  0.020211196           13 
  976000   0.85989412   -7.4334065    237.66804  0.020292695  0.020193784            8 
  977000   0.86228286   -7.4472966    238.25252  0.020321778  0.020176467            6 
  978000   0.88520585   -7.4197158    237.88996  0.020270106  0.020159153           10 
  979000   0.85946102   -7.4582607    237.76092  0.020238417  0.020141975            6 
  980000   0.85877962   -7.4651956    237.23679  0.020173196  0.020124746           20 
  981000   0.87625067   -7.4575811    238.38265   0.02024997  0.020107567            9 
  982000   0.85819967   -7.4538348    237.40889  0.020146715  0.020090408            4 
  983000   0.88606078   -7.4803531    237.95157  0.020172225  0.020073274            7 
  984000   0.85585275   -7.4658162    238.03037  0.020158398   0.02005626           16 
  985000   0.83367902   -7.4720729    238.11527  0.020145116  0.020039196            9 
  986000    0.8451802    -7.448638    238.03274   0.02011771  0.020022183            4 
  987000   0.86098128   -7.4510579    238.93426  0.020173443  0.020005191            7 
  988000    0.8665136   -7.4394549    238.93669   0.02015323  0.019988248           13 
  989000   0.85454405   -7.4828743    238.73837  0.020116142  0.019971074           18 
  990000   0.85693886   -7.4794166    238.18385  0.020049145  0.019953886           13 
  991000   0.84746812   -7.4787178    239.02209  0.020099402  0.019936771            5 
  992000   0.85464644   -7.4463053     238.2475  0.020014071  0.019919798            3 
  993000   0.85671452   -7.4761897     238.3816  0.020005169  0.019902608           10 
  994000   0.87095097   -7.4878479    237.99581    0.0199527  0.019885533           29 
  995000   0.86373631    -7.451341    238.67099  0.019989195  0.019868377            9 
  996000   0.85338876   -7.4912244    238.52559   0.01995696  0.019851285            9 
  997000   0.84319204   -7.4716906    238.74024  0.019954885  0.019834214            5 
  998000   0.88319848   -7.4781057    238.69672  0.019931256  0.019817068           11 
  999000   0.85797596    -7.527358    238.84262  0.019923475  0.019799958           27 
 1000000   0.84971766   -7.4971353    239.35261   0.01994605   0.01978279            7 
 1001000   0.86687591   -7.5294584    238.41669  0.019848209  0.019765676            9 
 1002000   0.85076505   -7.4944944     239.1182  0.019886743  0.019748636           10 
 1003000   0.86011519   -7.5075703    238.60667  0.019824416   0.01973161            9 
 1004000   0.85436436    -7.492404    238.64002  0.019807439  0.019714585            7 
 1005000   0.86995578   -7.4817317    239.54624  0.019862872   0.01969751            6 
 1006000   0.84457953   -7.4777653     239.2441    0.0198181  0.019680434            9 
 1007000   0.85389981   -7.4995778    239.29081  0.019802285  0.019663383           14 
 1008000   0.84112073   -7.4756142    239.78167   0.01982322  0.019646312           10 
 1009000   0.83933539   -7.5188766     239.7168  0.019798216  0.019629331            9 
 1010000   0.86431414   -7.5014889    239.33458  0.019747077  0.019612416            9 
 1011000   0.85514324   -7.4744973    239.87807  0.019772344  0.019595635           20 
 1012000   0.85528451   -7.4669567    240.13696  0.019774124  0.019578891            8 
 1013000   0.85645888   -7.5219094    239.97691  0.019741437  0.019562132            7 
 1014000   0.85094912   -7.4843577    240.24682   0.01974415  0.019545307            6 
 1015000   0.84709377   -7.4804289    241.25547   0.01980751  0.019528635           16 
 1016000   0.84891661   -7.5238262    240.24599  0.019705216  0.019512028           13 
 1017000   0.84887857   -7.4897707    240.33678  0.019693279  0.019495422            6 
 1018000   0.84941181   -7.5168207    240.12988  0.019656997  0.019478825            6 
 1019000   0.84098052   -7.4943086    240.57296  0.019673942  0.019462135           16 
 1020000   0.87034095    -7.517671    240.70369  0.019665334  0.019445472            8 
 1021000   0.83346753   -7.5249436    240.35307  0.019617456  0.019428819           14 
 1022000   0.84738899   -7.5481148    239.64552  0.019540567  0.019412073           11 
 1023000   0.82865472   -7.5112982    240.19212  0.019565993  0.019395321           13 
 1024000   0.83546845   -7.5317918    240.69271  0.019587623   0.01937866            6 
 1025000   0.84054944   -7.5488015    240.30311  0.019536838  0.019362036            6 
 1026000   0.84817153   -7.5229913    240.98716  0.019573356  0.019345397           10 
 1027000   0.83887224   -7.4808113    240.74229  0.019534428  0.019328834            9 
 1028000   0.83086884   -7.4657272     241.0749  0.019542388  0.019312268            9 
 1029000   0.84827778   -7.5123922    240.91027  0.019510064  0.019295755           10 
 1030000   0.83337776   -7.5100887    241.18796  0.019513589  0.019279269            8 
 1031000   0.81801357     -7.49707    240.70943  0.019455983  0.019262729           12 
 1032000   0.83846862   -7.5070341    240.65562  0.019432786  0.019246246           11 
 1033000   0.84701474   -7.4935154    240.64425  0.019413056  0.019229788            4 
 1034000   0.85760264   -7.5152572    240.95547  0.019419364  0.019213156           14 
 1035000   0.85018049   -7.4697797    241.41998  0.019438002  0.019196634           10 
 1036000   0.83674819   -7.4973932    241.45857  0.019422343  0.019180087           15 
 1037000   0.84633021   -7.5074901    241.35211  0.019395058  0.019163531            3 
 1038000    0.8327368   -7.4873179    241.26035  0.019369007  0.019147011            9 
 1039000   0.84293548   -7.5267688    241.10036  0.019337533  0.019130259            8 
 1040000   0.84567267   -7.5244003     240.6182  0.019280304  0.019113649           12 
 1041000   0.83272542   -7.4951721     241.4272  0.019326545  0.019097092            7 
 1042000   0.83510515   -7.4999891    241.34528  0.019301446  0.019080498            7 
 1043000   0.84955149    -7.504584    240.63688  0.019226341  0.019063885            7 
 1044000   0.83844615   -7.5147086     240.5404  0.019200223  0.019047245            7 
 1045000     0.832711   -7.4869662    242.17015  0.019311814  0.019030584            5 
 1046000   0.82339907   -7.5212822    241.05423  0.019204448  0.019014019           14 
 1047000   0.84495575   -7.5480299    242.05669  0.019265894   0.01899737            9 
 1048000   0.84080607   -7.5253193    241.39871   0.01919519  0.018980798           10 
 1049000   0.82283162   -7.5355973    240.75364  0.019125647   0.01896418           15 
 1050000   0.83387701   -7.5409612    241.10387  0.019135228  0.018947579            8 
 1051000   0.82696295   -7.5219759    241.12636  0.019118805  0.018931088            9 
 1052000   0.83272681   -7.5353905    241.23309  0.019109085  0.018914475            6 
 1053000   0.82711098   -7.5283361    241.29356  0.019095723  0.018897896            9 
 1054000   0.85366802   -7.5319002     241.3726  0.019083855  0.018881356           16 
 1055000   0.82549814   -7.4753894    241.52369    0.0190777  0.018864831           16 
 1056000   0.85923088   -7.5205647    241.81009  0.019082236  0.018848231            8 
 1057000   0.83739505    -7.520981    242.57792  0.019124718  0.018831694            9 
 1058000   0.82575341   -7.5553624    240.91974  0.018976035  0.018815221           13 
 1059000   0.84828506   -7.5415982    241.40632  0.018996405  0.018798665            3 
 1060000   0.81450416   -7.5616248    241.27461   0.01896813  0.018782096           10 
 1061000   0.83967023   -7.5384746     242.2795  0.019029179  0.018765636            6 
 1062000   0.82658719   -7.5553384    242.26199  0.019009886  0.018749164            5 
 1063000   0.81707151    -7.538815    242.37851  0.019001137   0.01873279           13 
 1064000   0.82778307   -7.5478494    241.68844  0.018929233  0.018716375           11 
 1065000   0.84462173   -7.5738581    241.99787  0.018935671  0.018699841           23 
 1066000   0.83036048   -7.5913086    241.46658  0.018876374  0.018683365           14 
 1067000    0.8356152   -7.5858635    242.04059  0.018903513  0.018666804           13 
 1068000   0.83916626    -7.601867    241.62386  0.018853297  0.018650278           20 
 1069000   0.83821535   -7.5625119    242.10886  0.018873469  0.018633821           14 
 1070000    0.8426261   -7.5838528     242.0778  0.018853411  0.018617469           26 
 1071000   0.82070341   -7.6055119    241.99402  0.018829289  0.018600985           13 
 1072000   0.84356146     -7.59696     241.9808  0.018810697  0.018584634           18 
 1073000   0.82249863   -7.5788382    241.45925   0.01875266  0.018568173           52 
 1074000   0.83497835   -7.5896402    242.63954   0.01882678  0.018551704           29 
 1075000   0.82235869    -7.593923    242.23941  0.018778249  0.018535164           23 
 1076000   0.81942514   -7.6054328    241.38304  0.018694473  0.018518651           21 
 1077000   0.82129325   -7.6090438     241.8476  0.018713061  0.018502196           14 
 1078000   0.81364332    -7.580304    241.99503  0.018707098  0.018485672            8 
 1079000   0.83298502   -7.5473704    242.76792  0.018749453  0.018469231           19 
 1080000   0.81719225   -7.5822405    241.47605  0.018632411   0.01845276           11 
 1081000   0.82759784    -7.590266    241.91009  0.018648635  0.018436268           17 
 1082000   0.80679174   -7.5709598     242.6865  0.018691196  0.018419841           13 
 1083000   0.78883427   -7.6023271    241.49181   0.01858201  0.018403329           23 
 1084000   0.82160402   -7.5965285    241.80105  0.018588642  0.018386768           22 
 1085000   0.82037552   -7.5880959    242.09037   0.01859373  0.018370303           30 
 1086000   0.83296311   -7.5932989    241.76795  0.018551869   0.01835374           30 
 1087000   0.82333642   -7.6224876    241.88257  0.018543589  0.018337183           19 
 1088000   0.80955894   -7.6064056    241.89552  0.018527537  0.018320654           19 
 1089000   0.82355258     -7.60766    242.03017  0.018520827  0.018304147           31 
 1090000   0.78222301   -7.6602117    241.99621   0.01850124  0.018287599           73 
 1091000   0.81584652   -7.6281736    241.53855  0.018449324  0.018270955           73 
 1092000    0.8128667   -7.6368557    242.38855  0.018497295  0.018254407           62 
 1093000   0.83304189   -7.6339126    242.46935  0.018486532  0.018237862           80 
 1094000   0.81632076   -7.6071759    241.49174  0.018395166  0.018221258           93 
 1095000   0.82331049   -7.6374874    241.76454  0.018399128  0.018204705           95 
 1096000   0.83134853   -7.6068756    242.66512  0.018450815  0.018188243           74 
 1097000   0.81875503   -7.6443352     242.2081  0.018399278  0.018171797           95 
 1098000   0.81943599   -7.6117772    242.98326  0.018441352  0.018155311           83 
 1099000   0.80775612   -7.5833201    242.46166  0.018385021  0.018138884           78 
 1100000   0.82473183   -7.5829293    242.39172  0.018363009    0.0181224           87 
 1101000    0.8150206   -7.6209037    242.57007   0.01835983  0.018105928           87 
 1102000   0.82512041   -7.6053951    241.72569  0.018279317  0.018089428          100 
 1103000   0.81267684   -7.5908097    243.06758  0.018364126  0.018073114          105 
 1104000   0.81986503   -7.6132226    242.41533  0.018298258  0.018056799           82 
 1105000   0.82360557   -7.6246735    242.26391   0.01827028  0.018040406          116 
 1106000    0.8104868   -7.6285612    241.63044  0.018206031  0.018024042           75 
 1107000   0.80423731   -7.6359151    242.70545   0.01827051  0.018007647           51 
 1108000   0.80605512   -7.6441052     242.2621  0.018220675  0.017991258           44 
 1109000   0.80664048   -7.6284734    242.32341  0.018208852   0.01797489          110 
 1110000   0.79489166   -7.6317196    242.45115  0.018202038  0.017958512          125 
 1111000   0.79694024   -7.6490139    242.35611  0.018178526  0.017942134           47 
 1112000   0.81790824    -7.675366    242.03657  0.018138232  0.017925745           79 
 1113000   0.82413314   -7.6552736    242.33897  0.018144577  0.017909362           76 
 1114000   0.79271345   -7.6755875     241.8751  0.018093589  0.017892962          113 
 1115000   0.80925277   -7.6586659    242.40615  0.018117052  0.017876448           60 
 1116000   0.80180192   -7.6729656    241.58545  0.018039535  0.017859962          116 
 1117000   0.79931583   -7.6678026    242.56979  0.018096821  0.017843459          103 
 1118000   0.78911176    -7.680213    242.15481  0.018049703   0.01782699          129 
 1119000   0.81887356   -7.6484426    242.23957  0.018039884  0.017810573          115 
 1120000   0.80950875   -7.6623949    242.09654  0.018013135  0.017794174          107 
 1121000   0.80970144   -7.6718533    242.15799  0.018001635  0.017777732           63 
 1122000   0.80372416   -7.6598844    242.61491  0.018019527  0.017761359           62 
 1123000   0.80855483   -7.6408272    242.38039  0.017986078  0.017745091          103 
 1124000   0.82628639   -7.6652751    242.53928  0.017981857  0.017728751          112 
 1125000   0.80045658   -7.6495877    242.91544  0.017993736  0.017712494           86 
 1126000   0.81377322   -7.6654051     242.2762  0.017930447  0.017696248          110 
 1127000   0.81369167   -7.6906087    242.31303  0.017917261   0.01767998          107 
 1128000    0.7931862   -7.6491345    242.80308   0.01793758  0.017663722          142 
 1129000   0.79868482   -7.6515864    242.61653  0.017907922  0.017647508          202 
 1130000   0.81140384   -7.6718238    242.09305   0.01785347  0.017631222          163 
 1131000   0.81607826   -7.7015775    242.16452   0.01784295  0.017614948          136 
 1132000   0.79777796   -7.6704742    242.56833  0.017856914  0.017598679          103 
 1133000   0.80915867    -7.670419      243.045  0.017876213  0.017582418          125 
 1134000   0.79548873   -7.6545891    242.25944  0.017802722  0.017566182          125 
 1135000    0.8061866   -7.6606484    242.45209  0.017801181   0.01754992          130 
 1136000   0.77662432   -7.6909314    241.96006  0.017749418  0.017533561          145 
 1137000   0.80335786   -7.7038122    242.57353  0.017778769  0.017517243           99 
 1138000   0.79737304    -7.678078    242.90568  0.017787469  0.017500889           83 
 1139000   0.79729337   -7.6768699    242.51604  0.017743345  0.017484602          111 
 1140000   0.79050425   -7.6693886    242.99224   0.01776259  0.017468454          144 
 1141000   0.78163476   -7.6965108    242.50282  0.017711278  0.017452194          111 
 1142000   0.80744785    -7.704527    242.30009  0.017680976  0.017435921          115 
 1143000   0.78063161   -7.6611845    242.80536  0.017702345  0.017419725          128 
 1144000   0.79664842   -7.7062184    243.19391  0.017715174  0.017403522          119 
 1145000   0.78319962   -7.6799022    242.71454  0.017664814  0.017387299          168 
 1146000   0.80552932   -7.7054721      242.644   0.01764427  0.017371163          116 
 1147000    0.7919322   -7.7168183    242.28696  0.017602947  0.017354941          129 
 1148000   0.78630524   -7.6896971    242.94026  0.017635036  0.017338774          124 
 1149000   0.80512742   -7.6780668    242.42974  0.017582662  0.017322586          104 
 1150000   0.78259127   -7.7133981    242.72757  0.017588954  0.017306398          164 
 1151000   0.77980875    -7.697058    242.59501  0.017564075  0.017290201          101 
 1152000   0.78144453    -7.698194    242.98246  0.017576856  0.017274002           94 
 1153000   0.80212321   -7.6866781    242.36887  0.017517265  0.017257928          108 
 1154000   0.79492009   -7.6859491    242.98943  0.017546897  0.017241859          172 
 1155000   0.78111332    -7.730187    242.69222  0.017510261  0.017225739          161 
 1156000   0.81249653   -7.6992001     242.9111  0.017510893  0.017209604          165 
 1157000   0.79049863    -7.721253    242.79672   0.01748752  0.017193544          189 
 1158000   0.78041607   -7.7443054    242.77437  0.017470809  0.017177477          204 
 1159000   0.79062781   -7.7534597    242.56618  0.017440767  0.017161394          193 
 1160000   0.79418599   -7.7359267    242.85521  0.017446495  0.017145326          182 
 1161000   0.78764232   -7.7319885    242.53861  0.017408743  0.017129203          196 
 1162000    0.7787748   -7.7597233    242.14149  0.017365282  0.017113026          200 
 1163000   0.78694825   -7.7754203    242.71569  0.017391494  0.017096891          166 
 1164000   0.78884632    -7.757634    242.28359  0.017345617  0.017080817          204 
 1165000   0.78752946   -7.7394263    242.53077   0.01734841  0.017064761          231 
 1166000   0.77772951   -7.7375248    242.75037  0.017349226  0.017048704          226 
 1167000   0.77121269   -7.7500678    242.52538  0.017318293  0.017032662          220 
 1168000   0.77477384    -7.742078    243.01383  0.017338316  0.017016609          211 
 1169000   0.77834597   -7.7468666    242.96653  0.017320112  0.017000563          235 
 1170000   0.78086939   -7.7567865    242.67936  0.017284855  0.016984481          294 
 1171000   0.78167516   -7.7494272    242.76637  0.017276286  0.016968449          251 
 1172000   0.79300527   -7.7807782    241.84925  0.017196335  0.016952419          242 
 1173000   0.78687284   -7.7731578    242.84007  0.017252065  0.016936385          213 
 1174000   0.79338807    -7.783202    242.57041  0.017218229  0.016920439          223 
 1175000   0.77806727   -7.7769544    242.37547   0.01718975  0.016904412          210 
 1176000   0.78908592   -7.7715919    242.85681  0.017209241  0.016888455          232 
 1177000   0.77945186   -7.7762157    242.90721  0.017198188  0.016872543          226 
 1178000   0.79062591    -7.779653    242.64064  0.017164731  0.016856575          295 
 1179000   0.78340788   -7.7794256    242.60866  0.017147912  0.016840637          332 
 1180000   0.79478207   -7.7656328    242.84233  0.017149882  0.016824756          309 
 1181000   0.78388115   -7.7493142    243.46733  0.017179462  0.016808923          236 
 1182000    0.7658407   -7.7664232    242.89216  0.017124377  0.016793093          256 
 1183000   0.77329151   -7.7601892    242.87699  0.017108833   0.01677725          255 
 1184000   0.79125274   -7.7801695    242.77261  0.017087036   0.01676135          246 
 1185000   0.78850302   -7.7518812    243.01996  0.017090011  0.016745467          241 
 1186000   0.76695865    -7.793089    242.47782  0.017037508  0.016729574          291 
 1187000   0.79779682   -7.7695758    243.55568  0.017098826  0.016713699          277 
 1188000   0.79013972   -7.7896489    242.74166  0.017027333  0.016697895          315 
 1189000   0.78687798    -7.789074    242.79378  0.017016666  0.016682007          307 
 1190000   0.79151407    -7.806196    242.60251  0.016988971  0.016666129          347 
 1191000   0.77568231   -7.7773123    242.69162  0.016980942  0.016650188          367 
 1192000   0.76286156    -7.776599    242.55011  0.016956803  0.016634287          376 
 1193000   0.77374442   -7.7639192    243.53766  0.017011572  0.016618427          345 
 1194000   0.79112119   -7.7802254    242.48922   0.01692415  0.016602557          317 
 1195000   0.78223068   -7.7932704    242.89822  0.016938509  0.016586718          391 
 1196000   0.78025022   -7.7949264    242.01437  0.016862763  0.016570862          376 
 1197000   0.77812225   -7.7746727    242.99714  0.016917094  0.016555051          324 
 1198000   0.77415249   -7.8002383    242.55267  0.016872056  0.016539248          382 
 1199000   0.78152802   -7.7833466    242.56428  0.016858791  0.016523426          401 
 1200000   0.78726684   -7.7657534    243.14832    0.0168853   0.01650771          420 
 1201000   0.79214965   -7.7895053    242.78846  0.016846271  0.016492006          418 
 1202000   0.75839788   -7.8138464    242.64919  0.016822601  0.016476225          366 
 1203000   0.76789058   -7.7879421     242.5206  0.016799709  0.016460437          460 
 1204000   0.78830044   -7.7955266    242.66995  0.016796093  0.016444711          405 
 1205000   0.78750469    -7.826136    243.25066  0.016822314  0.016429022          385 
 1206000    0.7717305    -7.803045    242.50672   0.01675696  0.016413337          413 
 1207000   0.77104949   -7.8048244    242.92058   0.01677165  0.016397639          418 
 1208000    0.7588737   -7.8068637    242.85028  0.016752917  0.016382002          452 
 1209000   0.76869427   -7.8230523    242.57201   0.01671988  0.016366378          402 
 1210000   0.79554139   -7.8081901    242.47005  0.016699039  0.016350772          423 
 1211000   0.77347346   -7.8055614    242.75942  0.016705162  0.016335145          477 
 1212000   0.76900889   -7.8157849    242.65614  0.016684278  0.016319533          437 
 1213000   0.75368111   -7.8176258    242.37163  0.016650978  0.016303922          421 
 1214000   0.76066726   -7.8025226    242.83568  0.016669116  0.016288305          441 
 1215000   0.77767593   -7.8221888    242.59644  0.016638988  0.016272693          438 
 1216000   0.77779638   -7.8133156     243.1242  0.016661472  0.016257132          416 
 1217000   0.77245118   -7.8252405    243.31558  0.016660886  0.016241541          439 
 1218000   0.77237714   -7.7881216    242.73257  0.016607319  0.016225937          475 
 1219000   0.77333906   -7.8287595    242.87426  0.016603381  0.016210329          505 
 1220000   0.76725111   -7.7937039    243.27569  0.016617192  0.016194819          469 
 1221000   0.75739208   -7.8187012    242.64084  0.016560254  0.016179295          475 
 1222000   0.75880113   -7.8289416    242.22822  0.016518564  0.016163735          487 
 1223000   0.75739483   -7.8256287     242.3865  0.016515842   0.01614817          461 
 1224000   0.75057608   -7.8429156    242.39621   0.01650301  0.016132655          515 
 1225000   0.75769697   -7.8146891    243.00442  0.016530913  0.016117154          433 
 1226000   0.74915895   -7.8000639    242.55856  0.016487124  0.016101668          480 
 1227000   0.76883707   -7.8174746    243.03784  0.016506237  0.016086202          605 
 1228000   0.75936079   -7.8336212    243.02162  0.016491695  0.016070763          587 
 1229000   0.75696363   -7.8095865    242.79396   0.01646284   0.01605529          611 
 1230000   0.77186568   -7.8288619    243.25863  0.016480937  0.016039898          605 
 1231000   0.76968381   -7.8327787    242.92134  0.016444715  0.016024521          616 
 1232000   0.75732649    -7.807735    242.53823  0.016405454  0.016009213          590 
 1233000   0.76158466   -7.8082207    243.07257  0.016428262  0.015993859          624 
 1234000   0.77060412   -7.8434884    242.64598  0.016386142   0.01597849          717 
 1235000    0.7616455   -7.8555507     242.6951  0.016376187  0.015963153          707 
 1236000   0.75885669   -7.8793681    242.59899  0.016356458  0.015947736          781 
 1237000   0.76239616   -7.8541629    243.06987  0.016374958  0.015932303          775 
 1238000    0.7510119    -7.894679    242.15667   0.01630026  0.015916886          819 
 1239000   0.74823012   -7.8914643    241.88665  0.016268943  0.015901451          790 
 1240000   0.75113303   -7.9059951    242.85663   0.01632101  0.015885947          850 
 1241000   0.76900881   -7.8962459    242.37451  0.016275484   0.01587052          827 
 1242000   0.74219742   -7.8917698    242.26291  0.016254892  0.015855087          779 
 1243000    0.7479308   -7.8691311    242.74692  0.016274264  0.015839675          802 
 1244000   0.75065921   -7.8818889    242.38066  0.016236646  0.015824279          832 
 1245000   0.74802212   -7.8999996    242.70931  0.016245603  0.015808917          759 
 1246000   0.76396741   -7.8700472    242.22227  0.016199991  0.015793599          819 
 1247000   0.75253438   -7.8960435    242.41385  0.016199803  0.015778243          878 
 1248000   0.75054851   -7.9117079    242.42102  0.016187301  0.015762907          905 
 1249000   0.75399839   -7.9089754    242.38593  0.016171999  0.015747554          877 
 1250000   0.75545356   -7.9066906    242.98048  0.016198699  0.015732246          932 
 1251000    0.7579778    -7.881178    242.62475  0.016162053  0.015716945          918 
 1252000   0.74060914   -7.9215743    242.26761  0.016125373  0.015701635          937 
 1253000   0.74403448    -7.923694    242.40286  0.016121499   0.01568631          959 
 1254000    0.7632386   -7.9393834    241.75466  0.016065567   0.01567096         1025 
 1255000   0.76337585   -7.9240824    242.45751  0.016099436   0.01565563         1025 
 1256000   0.75519821    -7.933705    242.25409  0.016073122  0.015640301         1103 
 1257000   0.74354835   -7.9504055    242.00738  0.016043979  0.015624938          965 
 1258000   0.76008897   -7.9330589    242.03746  0.016033218  0.015609615         1057 
 1259000   0.74975178    -7.982103    242.09394  0.016024222  0.015594261         1057 
 1260000   0.75982348   -7.9612502       241.81  0.015992725  0.015578903         1115 
 1261000   0.76717486   -7.9476428    241.50382  0.015959809  0.015563505         1167 
 1262000   0.75415407   -7.9628679    241.87727  0.015971822  0.015548142         1192 
 1263000   0.74664012   -7.9638012    241.49885  0.015934207  0.015532757         1180 
 1264000   0.74985619   -7.9911668    241.95292  0.015951537    0.0155174         1230 
 1265000    0.7342028   -7.9518012    241.98988  0.015941362  0.015502028         1161 
 1266000   0.74792688   -7.9948373    241.57068  0.015901177  0.015486689         1223 
 1267000   0.73921865   -7.9785039    241.53297  0.015886146  0.015471296         1291 
 1268000    0.7607834   -7.9976832    241.67558  0.015882991  0.015455941         1365 
 1269000   0.74843969   -8.0176035    240.92461  0.015821159  0.015440562         1286 
 1270000   0.74378779   -8.0166631    240.77429  0.015798838  0.015425157         1374 
 1271000   0.73913215   -8.0219474    241.51832   0.01583519  0.015409784         1288 
 1272000   0.73662082   -7.9681539    241.86492  0.015845448  0.015394446         1366 
 1273000   0.75387327   -7.9720705    241.36119  0.015800025  0.015379109         1414 
 1274000    0.7551723   -7.9933557    241.46703  0.015794547   0.01536378         1401 
 1275000   0.74342684   -8.0004307    241.65793  0.015794636  0.015348464         1392 
 1276000   0.74319823   -7.9935789    241.40402  0.015765675  0.015333179         1518 
 1277000   0.74460431   -8.0179277    241.11834  0.015734687  0.015317872         1537 
 1278000   0.72592958   -8.0109063    241.61004  0.015754437  0.015302567         1445 
 1279000   0.75738323   -8.0439352    241.02221  0.015703819  0.015287252         1603 
 1280000   0.74229384    -8.041571    241.18872  0.015702391  0.015271925         1514 
 1281000   0.74127381   -8.0417225    240.71909  0.015659582  0.015256599         1580 
 1282000   0.74709668   -8.0188576    241.08797  0.015671345  0.015241318         1595 
 1283000   0.75407199   -8.0509985    241.04808  0.015656539  0.015225994         1560 
 1284000   0.74357678   -8.0451524    240.81867  0.015629457  0.015210743         1538 
 1285000   0.73827088   -8.0759091    240.85964   0.01561995  0.015195442         1704 
 1286000   0.73287163   -8.0671263    240.97962   0.01561558  0.015180135         1616 
 1287000    0.7390218   -8.0648344    240.42172  0.015567322  0.015164842         1554 
 1288000   0.75952981   -8.0385802    241.00371   0.01559289  0.015149582         1520 
 1289000   0.75047381   -8.0556598    241.15168  0.015590359  0.015134345         1645 
 1290000   0.72372995    -8.039682     240.7224  0.015550543  0.015119165         1596 
 1291000   0.72326221   -8.0527308    240.60164  0.015530702  0.015103991         1664 
 1292000   0.72267253   -8.0544896    241.02866  0.015546224  0.015088802         1672 
 1293000   0.73506482   -8.0329797    241.01209  0.015533133  0.015073599         1627 
 1294000   0.73042325   -8.0521818    240.76609  0.015505286  0.015058458         1569 
 1295000   0.73184331   -8.0449189    241.09931  0.015514756  0.015043316         1661 
 1296000   0.73405184   -8.0853619    240.40102  0.015457885  0.015028129         1682 
 1297000   0.72875541    -8.070267    240.15734   0.01543031   0.01501294         1732 
 1298000   0.74062371   -8.0835974    240.64344   0.01544963   0.01499777         1724 
 1299000   0.73191224   -8.0678004     240.1493  0.015406036   0.01498261         1733 
 1300000    0.7323989    -8.075047    240.67507  0.015427889  0.014967473         1717 
 1301000   0.73895988   -8.0628673    240.81133  0.015424758  0.014952382         1684 
 1302000   0.73506605   -8.0741226    240.77675  0.015410699  0.014937301         1802 
 1303000   0.73673039   -8.0697146    240.65529  0.015391103  0.014922231         1710 
 1304000   0.74474674   -8.0843774    240.82568  0.015390189  0.014907148         1752 
 1305000   0.74392712   -8.0784278    241.01653  0.015390583  0.014892087         1717 
 1306000   0.73834588   -8.0540013     240.6399  0.015354767  0.014877052         1725 
 1307000   0.74327405   -8.0548774    240.51158  0.015334837  0.014862042         1842 
 1308000   0.71965476   -8.0949994    240.01208   0.01529129  0.014847022         1800 
 1309000   0.72835458   -8.1062248     240.2504   0.01529478  0.014831935         1902 
 1310000   0.73099331   -8.0798656    240.43558  0.015294884  0.014816872         1822 
 1311000   0.73769208   -8.0927543    240.59724  0.015293494  0.014801813         1892 
 1312000   0.72957527   -8.0923756    240.42658  0.015270997   0.01478676         1853 
 1313000   0.73215877   -8.0976624    239.76605  0.015217444  0.014771705         1884 
 1314000   0.71790321   -8.1240615    240.39148  0.015245528  0.014756678         1898 
 1315000   0.70578051   -8.1168499    240.06108  0.015212996  0.014741665         1976 
 1316000   0.72738793   -8.1256694    239.81395  0.015185787  0.014726628         1969 
 1317000   0.72557453   -8.1285757    240.11981   0.01519361   0.01471161         1899 
 1318000   0.72618549   -8.0994893    240.23468  0.015189345  0.014696637         1842 
 1319000   0.72371129   -8.1095752    240.22795  0.015177404  0.014681691         1874 
 1320000   0.73577116   -8.1346966    240.47538  0.015181526  0.014666762         1911 
 1321000    0.7338468   -8.1375499     239.6106  0.015115481  0.014651779         1915 
 1322000   0.71756484   -8.1502376    240.26872  0.015145532  0.014636829         1883 
 1323000   0.73457228   -8.1389788    240.06052   0.01512097  0.014621889         1988 
 1324000   0.71110371   -8.1413358    239.55127  0.015077497  0.014606911         2044 
 1325000   0.74298329   -8.1223952    240.35599  0.015116729  0.014591945         2059 
 1326000    0.7194241    -8.117545    240.39396  0.015107715  0.014577054         2108 
 1327000   0.71641125   -8.1258254    239.85379  0.015062408  0.014562158         2101 
 1328000   0.73991315    -8.124283    240.35498  0.015082516  0.014547296         2128 
 1329000   0.73036858    -8.157984    239.80637  0.015036768  0.014532413         2167 
 1330000   0.72184537   -8.1501289    239.69672  0.015018591  0.014517565         2161 
 1331000   0.72233114    -8.145176    239.46792  0.014992983  0.014502726         2204 
 1332000   0.71768393    -8.152421    239.95369  0.015012118  0.014487895         2258 
 1333000   0.72645086   -8.1569789    240.23147  0.015018221  0.014473058         2196 
 1334000   0.73741789     -8.15947     239.5296  0.014963119  0.014458226         2228 
 1335000   0.70912794   -8.1309219    239.92456  0.014976565  0.014443404         2254 
 1336000   0.72984118   -8.1644938    239.52002  0.014940121  0.014428614         2232 
 1337000   0.71445439   -8.1558889    239.95739  0.014956207  0.014413808         2354 
 1338000   0.71428504   -8.1461588     239.4313  0.014912263     0.014399         2287 
 1339000   0.72597193   -8.1778221    239.16674  0.014884661  0.014384194         2271 
 1340000   0.71046421   -8.1854805    239.25276  0.014878903   0.01436942         2314 
 1341000   0.70702321    -8.175544    239.44809  0.014879946  0.014354667         2365 
 1342000   0.73976136   -8.1647771    239.72102  0.014885806   0.01433992         2313 
 1343000   0.71669292   -8.1818316    239.29136  0.014848062  0.014325159         2312 
 1344000   0.71525144   -8.1919575    239.45997  0.014847468  0.014310382         2416 
 1345000   0.71965139   -8.1941536    239.31678  0.014827558   0.01429563         2307 
 1346000   0.71395291   -8.1818249    239.30169  0.014815607    0.0142809         2364 
 1347000   0.71462979   -8.1912784    239.49365  0.014816484   0.01426618         2390 
 1348000   0.72267769   -8.1893887    239.14018  0.014783641  0.014251479         2368 
 1349000   0.71171011    -8.179703    239.27234  0.014780846    0.0142368         2380 
 1350000     0.714347   -8.1971674    239.21849  0.014766573  0.014222151         2484 
 1351000   0.70078906   -8.2064142    239.25238  0.014757734   0.01420749         2432 
 1352000   0.69463306   -8.1910525     239.6867  0.014773588  0.014192871         2336 
 1353000   0.70764642   -8.2045768    239.62978  0.014759163   0.01417826         2476 
 1354000   0.73378472     -8.20541    239.48874  0.014739583  0.014163651         2453 
 1355000   0.71359308   -8.2024573    239.33037  0.014718965  0.014149096         2539 
 1356000   0.70964433   -8.2059127    239.30431  0.014706509  0.014134529         2466 
 1357000   0.70595453   -8.2116661    239.33297  0.014697431  0.014119977         2520 
 1358000   0.71313223   -8.2214162    239.31787  0.014685681  0.014105435         2490 
 1359000   0.72114541   -8.2057955    239.07809  0.014660173   0.01409089         2531 
 1360000   0.71870038   -8.2144981     239.4421  0.014671697  0.014076365         2495 
 1361000   0.70735793   -8.2069682    239.01673  0.014634872  0.014061831         2482 
 1362000   0.71515358   -8.2142481    238.91456  0.014617876  0.014047313         2500 
 1363000   0.69760091   -8.2207058    239.04845  0.014615337  0.014032802         2507 
 1364000   0.69182662   -8.2435165    238.96749  0.014599675  0.014018314         2561 
 1365000   0.70923782   -8.1897377    239.25465  0.014606511  0.014003874         2547 
 1366000   0.69235488   -8.2312047    238.81523  0.014569011  0.013989446         2631 
 1367000   0.69504633   -8.1958102    239.49925  0.014600052  0.013975003         2579 
 1368000   0.72240867   -8.2376646    238.77483   0.01454525  0.013960569         2600 
 1369000   0.71265809    -8.207683    239.14418  0.014557109  0.013946188         2550 
 1370000   0.71281875   -8.2360573    238.80486  0.014525843  0.013931811         2582 
 1371000   0.70009644   -8.2377948    239.36508    0.0145493  0.013917472         2530 
 1372000   0.69353045    -8.220219     239.1986  0.014528584  0.013903121         2573 
 1373000   0.71935774   -8.2379694    238.70201  0.014487861  0.013888809         2538 
 1374000   0.70473307   -8.2163678    239.52542  0.014527258   0.01387451         2471 
 1375000   0.72169404   -8.2320843    238.51605  0.014455518  0.013860224         2651 
 1376000   0.70266757   -8.2597483     238.7678  0.014460259  0.013845942         2677 
 1377000   0.71565821   -8.2335961    238.95897  0.014461327  0.013831669         2630 
 1378000   0.70430255   -8.2438786    238.90774  0.014447735  0.013817414         2597 
 1379000   0.70595926   -8.2354369    239.30875  0.014461491   0.01380318         2633 
 1380000   0.71553221   -8.2397029    238.83073  0.014422146  0.013788954         2707 
 1381000   0.71208233   -8.2311548    239.08371  0.014426968  0.013774728         2745 
 1382000   0.71199163    -8.240214    238.57035  0.014385573  0.013760541         2722 
 1383000   0.70805251   -8.2366919    238.68269  0.014381941  0.013746368         2670 
 1384000    0.6973646   -8.2454768    238.73487  0.014374691  0.013732233         2711 
 1385000   0.70516699   -8.2520569    238.64915  0.014359155  0.013718069         2713 
 1386000   0.71035515   -8.2326252    239.29749  0.014387776  0.013703969         2604 
 1387000   0.69951393   -8.2553843    238.97885  0.014358258  0.013689848         2657 
 1388000   0.71151008   -8.2524861    239.28814  0.014366483   0.01367576         2592 
 1389000   0.69133408   -8.2727784    239.20887  0.014351384  0.013661671         2725 
 1390000   0.70367005   -8.2483373    238.99145  0.014328025  0.013647623         2662 
 1391000   0.70720393   -8.2405112    238.81798  0.014307332  0.013633575         2779 
 1392000   0.69370436   -8.2386619    239.16537   0.01431785  0.013619516         2734 
 1393000   0.70702209   -8.2769122     238.7021  0.014279857  0.013605477         2707 
 1394000   0.68345371   -8.2372842    239.21176  0.014300081  0.013591482         2660 
 1395000   0.69748472   -8.2520087    238.68056  0.014258098  0.013577494         2662 
 1396000   0.68709123   -8.2557291     238.8077  0.014255474  0.013563527         2647 
 1397000   0.68125991   -8.2755341    238.57778  0.014231554  0.013549573         2701 
 1398000    0.6912177    -8.272829    238.82994  0.014236405   0.01353564         2728 
 1399000   0.69511144   -8.2632189    238.61483  0.014213416  0.013521719         2733 
 1400000   0.68576282   -8.2659946    238.40816  0.014190962  0.013507813         2695 
 1401000   0.69242243   -8.2621956    239.10982  0.014222568  0.013493932         2802 
 1402000    0.7020254   -8.2727902    238.80849  0.014194513  0.013480026         2780 
 1403000    0.7093526    -8.280816     238.9199  0.014191014  0.013466151         2816 
 1404000   0.68534152   -8.2982705    238.54745  0.014158799  0.013452277         2831 
 1405000   0.71438665   -8.2638788    238.38103  0.014138851  0.013438412         2847 
 1406000    0.6907568   -8.2805407    238.98417  0.014164543    0.0134246         2775 
 1407000   0.69271657   -8.2341663    239.01967  0.014156578  0.013410816         2800 
 1408000   0.69261808   -8.2853716    238.81852  0.014134619  0.013397013         2884 
 1409000   0.68761883   -8.2564842    238.81888  0.014124609  0.013383217         2804 
 1410000   0.69880364   -8.2873734    238.26182  0.014081668  0.013369452         2855 
 1411000   0.69992311   -8.3029517    238.43044  0.014081646  0.013355708         2807 
 1412000   0.70040566   -8.2781843    238.61227  0.014082405  0.013341982         2827 
 1413000   0.69243415    -8.298514    238.49915  0.014065767   0.01332826         2833 
 1414000   0.69186088   -8.2981705     238.5774  0.014060431  0.013314538         2810 
 1415000   0.68755197   -8.3016996    238.38392    0.0140391  0.013300862         2864 
 1416000   0.68918579   -8.2892024    238.38874  0.014029469  0.013287189         2893 
 1417000   0.68518684   -8.2740753     238.7054  0.014038191  0.013273531         2928 
 1418000   0.68878876   -8.2795879    238.60901  0.014022626  0.013259873         2906 
 1419000   0.70332268     -8.28452    238.57725  0.014010879  0.013246243         2959 
 1420000   0.69186513   -8.2943203     238.8127   0.01401483   0.01323261         2980 
 1421000   0.69115611    -8.307539    238.45775  0.013984151  0.013218983         3006 
 1422000   0.68291172   -8.2925662    238.33468  0.013967105  0.013205363         2966 
 1423000   0.67596714   -8.2908689    238.63282  0.013974749  0.013191779         2922 
 1424000   0.68174214   -8.2902066    238.06116  0.013931482  0.013178201         2881 
 1425000   0.69886635   -8.2915081    238.56232  0.013951013  0.013164639         2908 
 1426000   0.67861453   -8.3044374    238.33315  0.013927837  0.013151107         2924 
 1427000   0.67793546   -8.2997054    238.75243  0.013942562  0.013137598         2935 
 1428000   0.68248702   -8.2932307     237.8913  0.013882546  0.013124091         2983 
 1429000   0.68239136   -8.2866726    238.61197  0.013914857  0.013110614         3004 
 1430000   0.69055175   -8.3106842    237.91347  0.013864421  0.013097124         2969 
 1431000   0.68595443   -8.3011987    238.00357   0.01385998  0.013083652         2995 
 1432000   0.67561397   -8.3239606    238.08018  0.013854759  0.013070196         3014 
 1433000   0.68224434   -8.3023506    238.18962  0.013851455  0.013056752         3025 
 1434000   0.68856624   -8.3002024    238.10701  0.013836995  0.013043336         3050 
 1435000   0.66675118   -8.3322229    238.06303  0.013824798  0.013029898         3037 
 1436000   0.68316425   -8.3235259    238.35208  0.013831945  0.013016483         3029 
 1437000    0.6741931   -8.3407711    237.84999  0.013793203  0.013003075         3075 
 1438000    0.6794347   -8.3338856    238.03345  0.013794243  0.012989714         3012 
 1439000   0.68885966   -8.3062515    238.41011  0.013806469  0.012976366         2968 
 1440000   0.67088917   -8.3145416     238.0161   0.01377408  0.012963011         2986 
 1441000   0.68539211    -8.333874    237.93275  0.013759701  0.012949697         3036 
 1442000   0.67010773   -8.3146574    238.40237  0.013777298  0.012936377         3013 
 1443000   0.68109425   -8.3270515    238.04022  0.013746836  0.012923077         3078 
 1444000   0.68378227   -8.3261713    237.76391  0.013721371  0.012909776         3104 
 1445000   0.67557839   -8.3082792    238.36367  0.013746463  0.012896507         2996 
 1446000   0.66840437   -8.3098973    238.29541  0.013733023  0.012883279         3092 
 1447000   0.67231927    -8.329937    238.04837  0.013709305  0.012870055         3027 
 1448000   0.67072831   -8.3426738    238.03674  0.013699168  0.012856848         3058 
 1449000   0.67775506   -8.3248744    237.89633  0.013681639  0.012843658         3030 
 1450000   0.65833682   -8.3356945    238.14856  0.013686699  0.012830466         3106 
 1451000   0.67886894   -8.3475212    238.03493   0.01367074  0.012817276         3094 
 1452000   0.66860681   -8.3177539    237.96625  0.013657383  0.012804116         3037 
 1453000   0.67307446   -8.3466574    237.75053  0.013635612  0.012790947         3131 
 1454000   0.66520055   -8.3227672    238.60718  0.013675331  0.012777789         3067 
 1455000   0.67823486   -8.3268436    237.92985  0.013627139  0.012764641         3143 
 1456000   0.66730587   -8.3541264    237.93163  0.013617882  0.012751533         3115 
 1457000   0.67761977   -8.3278403    237.87459  0.013605273  0.012738417         3088 
 1458000   0.66900529   -8.3558588     238.0093  0.013603641   0.01272535         3083 
 1459000   0.66353982     -8.34062    237.88004  0.013586934  0.012712285         3097 
 1460000   0.66482434   -8.3283264    237.82942  0.013574739  0.012699224         3113 
 1461000   0.66707076    -8.340361    238.02807  0.013576778  0.012686171         3152 
 1462000   0.68186784   -8.3545401    237.84209  0.013556891  0.012673156         3083 
 1463000    0.6617235   -8.3293441    238.00948  0.013557159  0.012660157         3072 
 1464000   0.66116252    -8.342913    238.15407  0.013556129  0.012647179         2976 
 1465000   0.66731774   -8.3609163    237.93093  0.013534183   0.01263422         3081 
 1466000     0.668808   -8.3489317    237.57452  0.013504691  0.012621252         3123 
 1467000    0.6766907   -8.3365935    237.89891  0.013513912  0.012608303         3106 
 1468000   0.66303801   -8.3347386    237.29578  0.013470469  0.012595368         3111 
 1469000   0.66695364   -8.3517159    237.93606  0.013497621  0.012582461         3052 
 1470000   0.66104764   -8.3421661    237.15116  0.013443943  0.012569551         3063 
 1471000   0.66308823    -8.339387    238.09954  0.013488531  0.012556687         3094 
 1472000   0.66228497    -8.341588    237.62811  0.013452678  0.012543812         3063 
 1473000   0.67368597   -8.3549656    237.38812  0.013429968  0.012530968         3103 
 1474000   0.67156082   -8.3428523     237.4991  0.013427131  0.012518131         3134 
 1475000   0.65241189   -8.3420906    237.67758  0.013428112  0.012505301         3138 
 1476000   0.65903385   -8.3409134    237.85723  0.013429157  0.012492483         3064 
 1477000   0.67556397   -8.3505359    238.10901   0.01343427  0.012479714         3139 
 1478000   0.65929884   -8.3623857    238.13351  0.013426563  0.012466953         3095 
 1479000   0.66044703   -8.3518403    237.98007  0.013408839  0.012454209         3080 
 1480000   0.65387338   -8.3155903    238.33896  0.013419986  0.012441463         3069 
 1481000   0.68154598   -8.3313351    237.59892  0.013369284  0.012428758         3119 
 1482000   0.66803388   -8.3373137    237.88501   0.01337635  0.012416072         3126 
 1483000   0.67239873   -8.3481926    237.82555  0.013363989  0.012403388         3137 
 1484000   0.65624363   -8.3737227    237.43476  0.013333039   0.01239071         3122 
 1485000   0.66141538   -8.3559526    237.72795  0.013340513  0.012378041         3008 
 1486000   0.67291739   -8.3686996     237.8651  0.013339227  0.012365404         3162 
 1487000   0.66883007   -8.3659514    237.71893  0.013322065  0.012352761         3166 
 1488000   0.66187912   -8.3431501    237.66935  0.013310335  0.012340153         3175 
 1489000   0.65754429   -8.3607436    237.61141  0.013298154  0.012327573         3145 
 1490000   0.64532091   -8.3573258    237.61607   0.01328949  0.012314995         3104 
 1491000   0.65611347   -8.3708123    237.50342   0.01327428  0.012302432         3119 
 1492000   0.64013218   -8.3584461    237.57299  0.013269269  0.012289883         3208 
 1493000   0.66342655   -8.3600437    237.77429  0.013271617  0.012277355         3126 
 1494000   0.65800811   -8.3521818    237.77683  0.013262875  0.012264831         3062 
 1495000   0.66822817   -8.3758546    237.41445  0.013233805  0.012252333         3149 
 1496000    0.6576258   -8.3654882    237.74957  0.013243626   0.01223985         3160 
 1497000   0.65525837   -8.3795316    237.38153  0.013214291  0.012227378         3196 
 1498000   0.65600778   -8.3439324    237.71155  0.013223829   0.01221491         3081 
 1499000   0.66346466   -8.3743682    237.41712  0.013198639  0.012202472         3181 
 1500000   0.63641854   -8.3633183    237.46222  0.013192346  0.012190032         3216 
 1501000   0.65894715    -8.373886    237.64731  0.013193832  0.012177625         3154 
 1502000   0.65405205   -8.3571069    237.69888   0.01318791   0.01216521         3222 
 1503000   0.64178567   -8.3895434    237.35454  0.013160043  0.012152802         3156 
 1504000   0.65775688   -8.3902984    237.27768  0.013147034  0.012140415         3151 
 1505000   0.65283338   -8.3658688     237.6454   0.01315866  0.012128041         3160 
 1506000   0.63061943    -8.363484    237.64901  0.013150122  0.012115686         3130 
 1507000   0.64518602   -8.3876632    237.65762  0.013141872  0.012103345         3101 
 1508000   0.66410298   -8.3501194    237.64965  0.013132717  0.012091021         3048 
 1509000   0.64642719   -8.3874439    237.74586  0.013129327  0.012078718         3170 
 1510000   0.65025901   -8.3863446    237.50971    0.0131076  0.012066425         3173 
 1511000   0.66329182   -8.3926302    237.40573  0.013093191  0.012054148         3183 
 1512000   0.64692475   -8.3782836     237.1808  0.013072134  0.012041878         3088 
 1513000    0.6396309   -8.3817314     237.3163  0.013070957  0.012029636         3154 
 1514000   0.65292775   -8.4001875     236.9988  0.013044848  0.012017402         3207 
 1515000   0.64789049   -8.3881025    237.49315   0.01306343  0.012005172         3177 
 1516000    0.6547729   -8.4014622    237.21428  0.013039483  0.011992966         3180 
 1517000   0.64373001   -8.3781999    237.54859  0.013049252  0.011980785         3227 
 1518000   0.64658505   -8.3845248    237.56923  0.013041789  0.011968601         3134 
 1519000   0.66488854   -8.3959998    237.01851  0.013002991  0.011956427         3196 
 1520000   0.64736202   -8.3915089    237.62578  0.013027729  0.011944276         3160 
 1521000   0.65016684   -8.3925609    237.14907  0.012993046  0.011932148         3237 
 1522000   0.65552879   -8.3911447    237.40608  0.012998581  0.011920035         3145 
 1523000   0.66036489   -8.3716998    237.10036  0.012973318   0.01190792         3172 
 1524000   0.64421691   -8.3993663    237.23201  0.012972004  0.011895829         3122 
 1525000   0.64862863   -8.3876881    237.19163  0.012961291  0.011883732         3176 
 1526000   0.63557792   -8.4088191    236.97893  0.012941182   0.01187165         3147 
 1527000   0.63924752   -8.3839805    237.33874  0.012952343  0.011859594         3194 
 1528000   0.65930787   -8.3794705    237.23327  0.012938115  0.011847559         3159 
 1529000   0.64190745   -8.3915706    237.17937  0.012926715  0.011835542         3149 
 1530000   0.64239962   -8.4038256    237.07391  0.012912522  0.011823532         3187 
 1531000   0.64885573   -8.3812896    237.33231  0.012918153  0.011811546         3122 
 1532000   0.64832563    -8.392396    236.98673  0.012890923  0.011799558         3152 
 1533000   0.62730455   -8.4105676    237.03744  0.012885271  0.011787603         3165 
 1534000   0.64797389   -8.3990515    237.06754  0.012878506  0.011775657         3138 
 1535000   0.63569868   -8.3905465    236.79741  0.012855451  0.011763725         3170 
 1536000   0.63223341   -8.4063817    237.02966  0.012859682  0.011751814         3190 
 1537000    0.6351899   -8.4027369    237.33531  0.012867887  0.011739883         3181 
 1538000   0.64367103   -8.3891394    236.97465  0.012839979  0.011727981         3176 
 1539000   0.63399844   -8.3956239     237.0729  0.012836956  0.011716103         3252 
 1540000   0.64111274   -8.3866378    236.97121  0.012823118  0.011704224         3193 
 1541000   0.62392463   -8.4011476    236.84954  0.012808217  0.011692368         3203 
 1542000   0.63930225   -8.4138286    237.15728  0.012816541   0.01168053         3150 
 1543000   0.62843019   -8.4001415    237.20278  0.012810693  0.011668697         3172 
 1544000   0.63593071   -8.4134697    237.20426  0.012802475  0.011656876         3213 
 1545000   0.63055005   -8.4107394    237.11662  0.012789461  0.011645095         3131 
 1546000   0.64668764   -8.4117422    236.84784  0.012766701  0.011633319         3151 
 1547000   0.63943524   -8.4038354    236.80068  0.012755908  0.011621554         3197 
 1548000   0.64996147   -8.4204118    237.34078  0.012776743  0.011609815         3112 
 1549000   0.65602634   -8.3991148    236.94694  0.012747307   0.01159809         3188 
 1550000   0.63347224   -8.4061326    237.18398  0.012751827   0.01158638         3215 
 1551000   0.63136735    -8.402925    237.19591  0.012744246  0.011574673         3164 
 1552000   0.63415719   -8.4139571    237.30962   0.01274214  0.011562984         3184 
 1553000   0.63085362   -8.4197193    237.08715  0.012721998  0.011551311         3145 
 1554000    0.6338759   -8.4079309    237.20563  0.012720165  0.011539657         3212 
 1555000    0.6418586   -8.4152116    236.72753  0.012686363  0.011528008         3247 
 1556000   0.62098487   -8.4199572    237.07945  0.012697057  0.011516381         3227 
 1557000   0.62885464   -8.4229454    236.47498   0.01265655  0.011504769         3310 
 1558000   0.64259553   -8.4125945    236.70775  0.012660877  0.011493157         3234 
 1559000   0.63815861   -8.4271055    236.92285  0.012664253  0.011481565         3208 
 1560000    0.6134143   -8.4102787    236.90147  0.012654993  0.011469989         3215 
 1561000   0.62596699   -8.4123311    236.82328  0.012642712  0.011458431         3242 
 1562000   0.61217309   -8.4128762    237.02143  0.012645189  0.011446894         3138 
 1563000   0.62900903   -8.4217366    236.99575   0.01263573  0.011435363         3144 
 1564000   0.61718503   -8.4146181    236.61077  0.012607138  0.011423844         3184 
 1565000   0.62015713   -8.4139162     237.1313    0.0126268  0.011412328         3184 
 1566000     0.623554   -8.4485057    236.78926  0.012600535  0.011400845         3240 
 1567000   0.61194918   -8.3967377    236.90019  0.012598393  0.011389357         3183 
 1568000   0.62916611   -8.4189986    236.91175  0.012590973  0.011377886         3270 
 1569000   0.62153774     -8.43173    237.36309   0.01260692  0.011366431         3177 
 1570000   0.63509033   -8.4131503     236.8039  0.012569209  0.011354986         3179 
 1571000   0.61737366   -8.4297245    236.82271  0.012562206  0.011343558         3228 
 1572000   0.62998667   -8.4199086    236.48203  0.012536155  0.011332147         3199 
 1573000    0.6302892   -8.4257372      236.961   0.01255356   0.01132074         3187 
 1574000   0.63287818   -8.4619717    236.47352  0.012519775  0.011309355         3256 
 1575000   0.62140657   -8.4340118    236.62237  0.012519702  0.011297978         3204 
 1576000   0.62732312    -8.424126    237.05289  0.012534523  0.011286619         3214 
 1577000   0.62460329   -8.4421949    236.80379  0.012513411  0.011275269         3235 
 1578000   0.63921595   -8.4263621    236.82543  0.012506624  0.011263933         3194 
 1579000   0.61989204   -8.4341138    237.10212  0.012513306  0.011252628         3180 
 1580000   0.62466223   -8.4336283    236.72733  0.012485619  0.011241324         3217 
 1581000   0.61338765   -8.4040883    237.16702  0.012500897  0.011230053         3203 
 1582000    0.6190958   -8.4281711    236.84722   0.01247615   0.01121879         3217 
 1583000   0.63402891   -8.4399902    236.69392  0.012460198   0.01120754         3164 
 1584000   0.62573314   -8.4197483    236.79746  0.012457779    0.0111963         3301 
 1585000   0.61719466   -8.4187859    236.65885  0.012442631   0.01118508         3249 
 1586000   0.62442741   -8.4517884    236.66726  0.012435228  0.011173863         3188 
 1587000   0.62789708   -8.4386425    236.31439  0.012408863  0.011162675         3269 
 1588000   0.60059167   -8.4477868    236.95122  0.012434468  0.011151493         3228 
 1589000   0.61973912   -8.4431308    236.24859  0.012389794  0.011140322         3220 
 1590000   0.60301123   -8.4678451    236.22468  0.012380748  0.011129173         3235 
 1591000   0.60800196   -8.4508462    236.85822   0.01240615  0.011118035         3205 
 1592000   0.62011491   -8.4252719    237.10254  0.012411146  0.011106916         3232 
 1593000   0.60877494   -8.4495335     236.4911   0.01237137  0.011095804         3258 
 1594000   0.61010506   -8.4498896    236.47615  0.012362827  0.011084698         3218 
 1595000   0.62051276   -8.4465313    236.01063  0.012330754  0.011073612         3212 
 1596000   0.62237425   -8.4389381    236.49025  0.012348071  0.011062548         3161 
 1597000   0.62053448   -8.4432651    236.56133  0.012344048  0.011051487         3277 
 1598000   0.61741202   -8.4468266    236.56033  0.012336271  0.011040457         3202 
 1599000   0.62313819   -8.4591392    236.61123  0.012331209  0.011029429         3229 
 1600000   0.60683915   -8.4562947    236.16033  0.012300017  0.011018416         3139 
 1601000   0.62111251   -8.4257756    236.64585  0.012317606  0.011007421         3260 
 1602000   0.62350839   -8.4546267    236.53155  0.012303971  0.010996435         3227 
 1603000   0.61628217   -8.4699891    236.15887  0.012276922   0.01098546         3242 
 1604000   0.59800792   -8.4485521    236.16244  0.012269454   0.01097451         3166 
 1605000   0.60429695   -8.4491479    236.69549  0.012289485   0.01096356         3231 
 1606000   0.59936738   -8.4480769    236.35224  0.012264022  0.010952616         3175 
 1607000   0.60588361   -8.4454748    236.57156  0.012267764   0.01094169         3222 
 1608000   0.61785813   -8.4644848    236.63467  0.012263406  0.010930776         3134 
 1609000    0.6085371   -8.4451257    236.62727    0.0122554  0.010919884         3163 
 1610000   0.61275326   -8.4441079    236.55818  0.012244212  0.010908997         3256 
 1611000   0.61523334   -8.4755249    236.70599  0.012244258  0.010898129         3282 
 1612000   0.61677551   -8.4574807    236.10941  0.012205821  0.010887276         3163 
 1613000   0.62462799    -8.452084    236.62494  0.012224888  0.010876441         3192 
 1614000   0.61685022   -8.4496116    236.11498  0.012190984  0.010865613         3330 
 1615000   0.61142586   -8.4509778    236.27449  0.012191666  0.010854802         3197 
 1616000   0.61510468     -8.46279      236.321   0.01218652  0.010844006         3205 
 1617000   0.61606784   -8.4831826    236.46716  0.012186516  0.010833219         3231 
 1618000   0.60928936   -8.4848649    235.94499  0.012152091  0.010822445         3220 
 1619000   0.62102524    -8.468148    236.37282  0.012166606  0.010811677         3241 
 1620000   0.60250103   -8.4699834    235.84124  0.012131751  0.010800943         3206 
 1621000   0.60239003   -8.4689388    236.13823  0.012139535  0.010790214         3281 
 1622000   0.61104969   -8.4730633    236.32763  0.012141781   0.01077949         3260 
 1623000   0.60565127   -8.4598516     236.1816  0.012126802  0.010768785         3243 
 1624000   0.59095736   -8.4662251    236.55621  0.012138558  0.010758086         3268 
 1625000   0.60535445   -8.4635401     236.3988  0.012123015  0.010747416         3255 
 1626000    0.6143014   -8.4720057    236.47643  0.012119538  0.010736743         3187 
 1627000   0.59763269   -8.4893905    236.31607  0.012103876  0.010726098         3279 
 1628000   0.59991931   -8.4885465     236.2717  0.012094169  0.010715461         3259 
 1629000   0.61483077   -8.4701705    236.24231  0.012085242  0.010704836         3192 
 1630000    0.5878653    -8.459269    236.39846  0.012085811  0.010694234         3252 
 1631000    0.6029926   -8.4622584    236.47203   0.01208216  0.010683641         3247 
 1632000   0.60158489   -8.4788585    236.35676   0.01206887  0.010673047         3252 
 1633000   0.61745765   -8.4815674     235.9912  0.012042825  0.010662477         3267 
 1634000   0.60125254   -8.4667515    236.33672  0.012053076  0.010651915         3221 
 1635000   0.59883321   -8.4845655    236.06013  0.012031607  0.010641367         3278 
 1636000   0.60277995   -8.4868597    236.17172  0.012029937   0.01063084         3259 
 1637000   0.59821593   -8.4791375    236.17407  0.012022708  0.010620323         3227 
 1638000   0.58849476   -8.4740072    236.12765  0.012013006  0.010609822         3239 
 1639000   0.60196093   -8.4686222    235.95155  0.011996723  0.010599328         3208 
 1640000   0.60056557   -8.4902532    236.14858   0.01199942  0.010588855         3226 
 1641000   0.60686037   -8.4914065    236.18168  0.011993788  0.010578396         3334 
 1642000   0.59409888   -8.4817171    236.40115  0.011997622  0.010567943         3237 
 1643000   0.59833412   -8.4824679     236.1082  0.011975462  0.010557517         3299 
 1644000   0.60457402   -8.4648471    236.10042  0.011967783  0.010547109         3265 
 1645000   0.58588292   -8.4820087     236.3093  0.011971089  0.010536698         3257 
 1646000   0.58825485   -8.4697297    236.11338  0.011953897    0.0105263         3214 
 1647000   0.60019207   -8.4883217    236.26644  0.011954384  0.010515919         3269 
 1648000     0.594078   -8.4956614     236.1516  0.011941323   0.01050555         3290 
 1649000   0.59781595   -8.4910988    236.13531  0.011933258  0.010495201         3242 
 1650000   0.59933071   -8.4761038    236.35751  0.011937248  0.010484856         3252 
 1651000   0.59489191   -8.5015799    236.11563  0.011917809  0.010474524         3294 
 1652000   0.58771369   -8.4939417    236.14503  0.011912078  0.010464213         3268 
 1653000   0.59482502   -8.4837964     236.5915   0.01192738   0.01045391         3306 
 1654000   0.60312572   -8.4727246    236.23643  0.011902279  0.010443614         3195 
 1655000    0.5735078   -8.4735956    236.52802  0.011909769  0.010433334         3273 
 1656000   0.59167524   -8.4860177    236.11804  0.011881947  0.010423081         3301 
 1657000   0.60160798   -8.4979783    235.88081  0.011862845  0.010412819         3274 
 1658000    0.5753328   -8.4782069    236.39383  0.011881475  0.010402578         3290 
 1659000   0.60013678    -8.494908     236.1585  0.011862493  0.010392346         3267 
 1660000   0.58866573   -8.5144817    236.12043  0.011853435   0.01038214         3228 
 1661000   0.57914143   -8.4821548    236.14346  0.011847454  0.010371942         3372 
 1662000   0.58726087   -8.4937307    235.79355  0.011822782  0.010361755         3363 
 1663000   0.59001709   -8.4913857    235.88341  0.011820175  0.010351573         3316 
 1664000   0.58281487   -8.5070818    236.38554  0.011838218  0.010341412         3298 
 1665000   0.59172139    -8.498528    236.04788  0.011814208  0.010331255         3321 
 1666000    0.5831356   -8.4987364     236.1739  0.011813421  0.010321121         3317 
 1667000   0.59326874   -8.5040948    235.97941  0.011796611  0.010310996         3335 
 1668000   0.59248954   -8.5008969    235.84882  0.011783015  0.010300893         3233 
 1669000   0.57624504   -8.5030865    236.24107   0.01179554  0.010290795         3316 
 1670000   0.58927676   -8.5130368    236.00469  0.011776681  0.010280701         3303 
 1671000   0.58730505   -8.5010644    235.92154  0.011765487  0.010270624         3306 
 1672000   0.58124479   -8.5079394    235.71862  0.011748336  0.010260567         3339 
 1673000     0.588061   -8.5050497    236.06331  0.011758483  0.010250501         3237 
 1674000   0.59076779   -8.4945153    235.66674  0.011731718  0.010240453         3299 
 1675000   0.58716059   -8.5029978    235.92675  0.011737649  0.010230423         3323 
 1676000   0.59461599   -8.4947469    235.78712  0.011723703  0.010220402         3314 
 1677000   0.58778872   -8.4943032     235.9422  0.011724419  0.010210394         3263 
 1678000   0.58268194   -8.5178231    236.00889  0.011720744  0.010200398         3269 
 1679000   0.58753926   -8.4931445    235.87927  0.011707329  0.010190417         3265 
 1680000   0.60355928   -8.4722048    236.15507  0.011714041  0.010180442         3231 
 1681000    0.5833122    -8.505062    235.54348  0.011676754  0.010170485         3267 
 1682000   0.58133962   -8.4968192    235.68627  0.011676886  0.010160537         3252 
 1683000   0.58747751   -8.4992294    235.59153  0.011665257  0.010150596         3310 
 1684000    0.5867054   -8.5097241    235.76464  0.011666896  0.010140667         3273 
 1685000   0.57951865   -8.4988658    235.74391  0.011658947  0.010130759         3266 
 1686000   0.58689491   -8.5124114    236.07136  0.011668217   0.01012085         3283 
 1687000   0.56417438   -8.5176357    236.14207  0.011664793  0.010110957         3272 
 1688000   0.57984818    -8.513445    235.98051  0.011649907  0.010101084         3329 
 1689000   0.57117802   -8.5246398    235.50259  0.011619429  0.010091224         3356 
 1690000   0.58702739   -8.5003168     236.0047  0.011637313  0.010081372         3299 
 1691000   0.59313869   -8.4967305    235.58485   0.01160974  0.010071536         3319 
 1692000   0.59500636   -8.5334418    235.81021  0.011613978  0.010061714         3299 
 1693000   0.58988999    -8.523734    235.51253  0.011592466  0.010051901         3312 
 1694000   0.57513889   -8.5006526    235.64124  0.011591954  0.010042094         3281 
 1695000   0.57619626   -8.4939359     235.9607  0.011600821  0.010032319         3296 
 1696000   0.58145231   -8.5224795    235.66242  0.011579325  0.010022557         3326 
 1697000   0.58584683   -8.4992554    235.89131  0.011583741  0.010012789         3275 
 1698000   0.57745211   -8.5233775    235.37581   0.01155162  0.010003053         3285 
 1699000   0.57850096   -8.5028752    235.88487   0.01156979 0.0099933277         3298 
 1700000   0.55944908   -8.5317244    235.87744  0.011562619 0.0099835924         3353 
 1701000   0.57276532   -8.5223023    235.80561  0.011552303 0.0099738792         3339 
 1702000   0.57192325   -8.5224511    235.83041   0.01154673 0.0099641869         3330 
 1703000   0.56898238   -8.5223869     235.9266  0.011544656 0.0099545028         3311 
 1704000   0.57654035   -8.5124207    235.54694  0.011519314 0.0099448269         3302 
 1705000   0.58737862   -8.5318429    235.27423  0.011499229 0.0099351617         3372 
 1706000   0.56854382   -8.5030529    235.58187  0.011507516 0.0099255096         3304 
 1707000   0.57116192   -8.5375455    235.20901  0.011482572 0.0099158684         3406 
 1708000   0.58784185   -8.5173888    236.15858  0.011522179  0.009906241         3275 
 1709000   0.56519452   -8.5215397    235.67134  0.011491678 0.0098966329         3340 
 1710000   0.57024588   -8.5113914    235.87398  0.011494834  0.009887025         3276 
 1711000    0.5670477   -8.5274019    235.83531  0.011486232 0.0098774393         3286 
 1712000   0.58010331    -8.530352    235.78488  0.011477068 0.0098678704         3325 
 1713000   0.57065735   -8.5235517     235.9008  0.011476007 0.0098583063         3353 
 1714000   0.57639295   -8.5363622    235.83814  0.011466265 0.0098487561         3391 
 1715000   0.57070013   -8.5363173    236.07123  0.011470905 0.0098392197         3321 
 1716000   0.56919216   -8.5444691    235.24327  0.011424013 0.0098296936         3349 
 1717000   0.58252881   -8.5429291    235.04682  0.011407825 0.0098201801         3374 
 1718000   0.56221924   -8.5259231    235.63042  0.011429492 0.0098106751         3267 
 1719000   0.57167335   -8.5191885    235.56682  0.011419761 0.0098011855         3327 
 1720000   0.56522898   -8.5323354    236.02222  0.011435185 0.0097917026         3336 
 1721000   0.56729606   -8.5188009    235.45199  0.011400929 0.0097822234         3352 
 1722000   0.56891219    -8.538446    235.83022  0.011412612 0.0097727618         3331 
 1723000   0.56516881   -8.5335511    236.02018  0.011415176 0.0097633032         3328 
 1724000   0.56040728   -8.5429678    235.09507  0.011363838 0.0097538667         3341 
 1725000   0.56705682   -8.5382055    235.15497  0.011360144 0.0097444467         3306 
 1726000   0.55470777   -8.5313553    235.40379  0.011365575 0.0097350347         3342 
 1727000   0.58088966   -8.5259475     235.1796  0.011348176 0.0097256374         3319 
 1728000   0.57345853   -8.5183907    235.40105  0.011352288 0.0097162492         3346 
 1729000   0.57166836   -8.5364888    235.21289  0.011336653 0.0097068811         3307 
 1730000   0.56465945   -8.5332934    235.47667  0.011342807 0.0096975222         3275 
 1731000   0.57117622   -8.5448161    235.52976   0.01133881 0.0096881657         3381 
 1732000   0.55075464   -8.5395066    235.54667  0.011333077 0.0096788241         3325 
 1733000   0.55381247   -8.5439583    235.15239  0.011307578 0.0096695003         3332 
 1734000   0.55191183   -8.5370748    235.88284  0.011336161 0.0096601798         3357 
 1735000   0.56648084   -8.5520533    235.52726  0.011312549  0.009650866         3341 
 1736000    0.5637712   -8.5344744    235.45401  0.011302516 0.0096415656         3304 
 1737000   0.57269902   -8.5282893    235.75256  0.011310332 0.0096322879         3393 
 1738000   0.57222245   -8.5476475     235.3574  0.011284877 0.0096230128         3329 
 1739000   0.56807952    -8.552257    235.70786  0.011295182 0.0096137629         3395 
 1740000   0.54957084   -8.5355032       235.17  0.011262931 0.0096045172         3304 
 1741000    0.5620233   -8.5566724    235.41031  0.011267964 0.0095952747         3299 
 1742000   0.55658436   -8.5543239    235.43819   0.01126283 0.0095860494         3290 
 1743000   0.56146258   -8.5424134    235.56478   0.01126242 0.0095768406         3316 
 1744000   0.54666876    -8.540175    235.27754  0.011242237 0.0095676398         3362 
 1745000   0.55505554   -8.5479426    235.53846  0.011248255 0.0095584617         3354 
 1746000   0.55675632   -8.5422118    235.37994  0.011234247 0.0095492842         3341 
 1747000   0.55841404   -8.5441209     235.5389  0.011235399 0.0095401253         3340 
 1748000   0.54898314   -8.5484556    235.35871  0.011220381 0.0095309679         3298 
 1749000   0.55795985   -8.5608801    235.34241  0.011213189 0.0095218243         3335 
 1750000   0.55895686    -8.520849     235.1226  0.011196314 0.0095126923         3325 
 1751000   0.56762546   -8.5401529    235.40898   0.01120355 0.0095035647         3378 
 1752000   0.55911999   -8.5437611    235.09037     0.011182 0.0094944498         3295 
 1753000   0.55940625   -8.5430334    235.19431  0.011180563 0.0094853422         3395 
 1754000   0.55101969    -8.563255    235.09759  0.011169593  0.009476255         3366 
 1755000   0.55419958   -8.5810209    235.20601  0.011168377 0.0094671711         3352 
 1756000   0.56605011   -8.5405074     235.0868  0.011156359 0.0094581099         3284 
 1757000   0.56508686   -8.5497083    235.46852  0.011168114 0.0094490588         3242 
 1758000    0.5551982   -8.5762752    235.04174  0.011141531 0.0094400104         3313 
 1759000   0.55394036   -8.5623152    235.10403  0.011138148 0.0094309717         3337 
 1760000   0.54841004   -8.5624939    235.33723  0.011142861  0.009421961         3341 
 1761000   0.54781058   -8.5578786     235.4019  0.011139594 0.0094129484         3349 
 1762000   0.55708646   -8.5628193    235.44661  0.011135387 0.0094039529         3352 
 1763000   0.54753757   -8.5497622    234.80349  0.011098671 0.0093949716         3339 
 1764000   0.55376241   -8.5544354    235.44916  0.011122882  0.009385994         3347 
 1765000   0.54288512   -8.5458952    235.37673   0.01111316 0.0093770279         3356 
 1766000   0.55556033   -8.5430413    235.22036  0.011099488 0.0093680656         3402 
 1767000   0.54562869   -8.5720534    235.30089  0.011097005 0.0093591185         3404 
 1768000   0.55710291   -8.5560827    235.33102  0.011092148 0.0093501865         3336 
 1769000   0.55069477   -8.5521802    235.14249  0.011076997 0.0093412675         3273 
 1770000   0.55261545   -8.5525241    235.14778  0.011070988 0.0093323518         3318 
 1771000   0.53903329   -8.5684882    235.14813  0.011064753 0.0093234448         3353 
 1772000   0.55828844   -8.5495462    234.92366  0.011047952 0.0093145489         3316 
 1773000   0.55223875   -8.5710048    235.10309  0.011050155 0.0093056673         3327 
 1774000   0.53833838   -8.5660577    234.72082  0.011025969 0.0092967957         3342 
 1775000   0.53506791   -8.5673851    235.07848  0.011036548 0.0092879355         3326 
 1776000   0.54240259   -8.5728721     235.0012  0.011026708  0.009279093         3386 
 1777000   0.53718195   -8.5671258    235.34109  0.011036442 0.0092702558         3352 
 1778000   0.54040381   -8.5532352     235.0495  0.011016568 0.0092614392         3311 
 1779000   0.54154016   -8.5653931     235.4234   0.01102789 0.0092526252         3364 
 1780000   0.53871571   -8.5679464     235.5556  0.011027884 0.0092438268         3355 
 1781000   0.54633042   -8.5514744    235.16298  0.011003321 0.0092350345         3295 
 1782000    0.5450022   -8.5643914    235.52538  0.011014094 0.0092262551         3317 
 1783000   0.54230554   -8.5543985    235.12187  0.010989057 0.0092174865         3340 
 1784000   0.54060704   -8.5458227    235.04328  0.010979226 0.0092087306         3402 
 1785000   0.54257952   -8.5585773    235.26272   0.01098332 0.0091999909         3331 
 1786000   0.54362589   -8.5735129    235.19655  0.010974083 0.0091912472         3264 
 1787000   0.53756234   -8.5748181    234.74546  0.010946907 0.0091825235         3334 
 1788000   0.54440469   -8.5759162    234.96563  0.010951045 0.0091738083         3319 
 1789000    0.5355822   -8.5741884    235.05299  0.010948993 0.0091651078         3380 
 1790000   0.53893351   -8.5883419    235.32507  0.010955543 0.0091564166         3347 
 1791000   0.54408208   -8.5700148     235.4264  0.010954141 0.0091477315         3362 
 1792000   0.55060595   -8.5777132    234.98639  0.010927566 0.0091390559         3340 
 1793000   0.53024358   -8.5960191    234.54005  0.010900727 0.0091303996         3312 
 1794000   0.53151754    -8.564475    235.12612  0.010921875 0.0091217495         3312 
 1795000   0.53094592   -8.5788859    235.21465    0.0109199  0.009113104         3370 
 1796000   0.53437829   -8.5636231    235.48896  0.010926548 0.0091044764         3356 
 1797000   0.53864013   -8.5713758    234.79488  0.010888281 0.0090958592         3348 
 1798000   0.54270759   -8.5761989    235.13265   0.01089788 0.0090872569         3349 
 1799000   0.53863441   -8.5567448    235.08782  0.010889745 0.0090786586         3371 
 1800000   0.52585094   -8.5858052     234.9743   0.01087844 0.0090700754         3338 
 1801000   0.53422985    -8.580643    235.29285  0.010887139 0.0090615012         3317 
 1802000   0.55048135   -8.5650065    234.80655  0.010858608 0.0090529288         3391 
 1803000   0.53502967   -8.5758445    234.80736  0.010852624 0.0090443757         3367 
 1804000   0.52541834   -8.5807171    234.79967  0.010846253 0.0090358232         3420 
 1805000   0.53628192    -8.586627     234.4876  0.010825836 0.0090272852         3357 
 1806000   0.53200195   -8.5942719    234.90311  0.010839014 0.0090187649         3413 
 1807000   0.54638624   -8.5708441    234.84003  0.010830106 0.0090102537         3358 
 1808000   0.53943418   -8.5780138    235.10966  0.010836544 0.0090017501         3397 
 1809000   0.53679724   -8.5598084    235.03927  0.010827311 0.0089932544         3383 
 1810000   0.53948028   -8.5814868    234.87371  0.010813707 0.0089847669         3385 
 1811000   0.52990643   -8.5891623    234.60511  0.010795376 0.0089762955         3364 
 1812000   0.53632985   -8.6004977    235.02223  0.010808601 0.0089678256         3356 
 1813000   0.53231416   -8.6094102    234.73121  0.010789263 0.0089593658         3343 
 1814000   0.53250933   -8.5682429    234.95462  0.010793579 0.0089509227         3373 
 1815000   0.52092765   -8.6002412    234.71623  0.010776686 0.0089424874         3370 
 1816000   0.53800201   -8.6050967    234.99601  0.010783591 0.0089340571         3345 
 1817000   0.53106737   -8.6011223    234.45971   0.01075306 0.0089256467         3398 
 1818000   0.52516319   -8.5748096    234.78006  0.010761829 0.0089172487         3369 
 1819000   0.52313472   -8.6042705    234.57519  0.010746527 0.0089088617         3398 
 1820000   0.52095412   -8.5975848     234.8462  0.010753031 0.0089004719         3421 
 1821000   0.51841813   -8.5855555    234.68985  0.010739971 0.0088920982         3353 
 1822000     0.524272   -8.6023552    234.62289  0.010731014 0.0088837292         3445 
 1823000   0.51668339   -8.5933361     234.5934  0.010723779 0.0088753782         3426 
 1824000   0.52587905   -8.6017855    234.29276  0.010704165 0.0088670318         3385 
 1825000   0.50490125   -8.6052759    234.70073  0.010716928 0.0088586981         3397 
 1826000   0.51575559   -8.5936266    234.64475  0.010708504 0.0088503708         3329 
 1827000   0.52578867   -8.5874785    234.64718  0.010702754 0.0088420607         3378 
 1828000    0.5243987   -8.5972024    234.84732  0.010706023  0.008833762         3347 
 1829000   0.52689766   -8.6114306    234.94309  0.010704533 0.0088254719         3405 
 1830000   0.52459972   -8.5958537    234.86517  0.010695135 0.0088171882         3410 
 1831000   0.52180219    -8.599069    234.37305  0.010666896 0.0088089096         3360 
 1832000   0.52042787   -8.5799572    234.47911  0.010665898 0.0088006535         3354 
 1833000   0.52353916   -8.5887692    234.72777  0.010671384 0.0087924067         3326 
 1834000   0.53698108   -8.6045487     234.6185  0.010660601  0.008784162         3367 
 1835000   0.52147596   -8.6035659    234.40252  0.010644983 0.0087759208         3347 
 1836000   0.51215846   -8.5859825    234.42841   0.01064036 0.0087676989         3348 
 1837000   0.52634792    -8.601641    234.03559  0.010616748 0.0087594943         3374 
 1838000   0.52373365   -8.5913156    234.59107  0.010636157 0.0087512972         3330 
 1839000   0.52515918   -8.5868153    235.32871  0.010663799 0.0087431121         3360 
 1840000   0.51758537   -8.6150342    234.76825   0.01063262 0.0087349375         3367 
 1841000   0.50941469   -8.6087926    234.73521  0.010625349 0.0087267647         3407 
 1842000   0.51909238   -8.6104893    234.12106  0.010591796 0.0087186012         3423 
 1843000   0.51971854   -8.6013359     234.3148  0.010594809 0.0087104534         3367 
 1844000   0.50576621   -8.5878878    234.60424  0.010602144 0.0087023139         3360 
 1845000   0.51726763    -8.621446     234.4152  0.010587859 0.0086941815         3361 
 1846000   0.51748055   -8.6203085    234.69433  0.010594724 0.0086860624         3390 
 1847000   0.50343552   -8.5793417     234.6454  0.010586781 0.0086779568         3349 
 1848000   0.50794348   -8.6038989    234.85128  0.010590335 0.0086698571         3349 
 1849000   0.51668933   -8.6139244     234.6728  0.010576564 0.0086617693         3414 
 1850000   0.52438132   -8.6050537    234.68136  0.010571232 0.0086536918         3384 
 1851000   0.50971339    -8.602291    234.60343  0.010562013 0.0086456251         3352 
 1852000    0.5129687   -8.6051237    234.96127  0.010572412 0.0086375638         3374 
 1853000   0.49897977   -8.5914556    234.74792  0.010557111 0.0086295061         3414 
 1854000   0.50567284   -8.5932235    234.55398    0.0105427 0.0086214731         3328 
 1855000   0.50999279   -8.6058811    234.57276   0.01053786 0.0086134453         3327 
 1856000   0.51569189   -8.6049197    234.38816  0.010523894 0.0086054193         3369 
 1857000   0.51864415   -8.6064766     234.4216  0.010519727 0.0085974071         3391 
 1858000   0.51459298   -8.6362874    234.37351  0.010511908 0.0085893981         3429 
 1859000   0.50288094   -8.6147516    234.56965  0.010515046 0.0085814078         3365 
 1860000   0.49503969   -8.6341254    234.53496  0.010507839 0.0085734305         3413 
 1861000   0.49883413   -8.6065016    234.58226  0.010504311  0.008565456         3405 
 1862000   0.52129188    -8.614201    234.76094  0.010506666 0.0085574989         3410 
 1863000   0.50950282   -8.6131152    234.68429  0.010497598 0.0085495499         3406 
 1864000   0.51834868   -8.6423342    234.62494  0.010489312 0.0085416083         3351 
 1865000   0.50180503   -8.6071914     234.7515  0.010489343 0.0085336768         3395 
 1866000   0.51080137   -8.6186561    234.33878   0.01046529 0.0085257527         3405 
 1867000   0.50631038   -8.6273756    234.48491  0.010466208 0.0085178402         3410 
 1868000   0.50599911   -8.6078988    234.07351  0.010442252  0.008509933         3441 
 1869000   0.50579371   -8.6245435    234.22075  0.010443229 0.0085020427         3417 
 1870000    0.5148418   -8.6248863    234.49366  0.010449806 0.0084941619         3447 
 1871000   0.50439369   -8.6304363    234.08096   0.01042584  0.008486287         3413 
 1872000   0.50306928    -8.624211    234.52718  0.010440134 0.0084784205         3404 
 1873000   0.51264955   -8.6297118    234.31834  0.010425269 0.0084705597         3435 
 1874000   0.50693809   -8.6101235    234.65264  0.010434571 0.0084627128         3408 
 1875000   0.50751183    -8.620345    234.39327  0.010417479 0.0084548778         3367 
 1876000   0.51064363   -8.6378534    234.06602  0.010397389 0.0084470483         3467 
 1877000   0.50350142   -8.6273773    234.47335  0.010409934 0.0084392278         3383 
 1878000   0.50006752   -8.6168419    234.46211  0.010403892 0.0084314242         3424 
 1879000   0.49543762   -8.6428723    234.43119  0.010396984 0.0084236256         3409 
 1880000   0.49852385   -8.6286306    234.22312  0.010382231 0.0084158415         3367 
 1881000   0.50169068   -8.6223595    234.47587  0.010387908 0.0084080656         3418 
 1882000   0.50067699     -8.63182    234.23424   0.01037169 0.0084002918         3407 
 1883000   0.51062548   -8.6214747    234.41567  0.010374211 0.0083925404         3359 
 1884000   0.49738793   -8.6362631    234.30291  0.010363717 0.0083847906         3371 
 1885000   0.49485735   -8.6461105    234.38253  0.010361739 0.0083770479         3376 
 1886000   0.50371908   -8.6323874    234.44857  0.010359163 0.0083693146         3398 
 1887000   0.49502875   -8.6404214    234.21541  0.010343376 0.0083615905         3400 
 1888000   0.50635643   -8.6412619    234.05298  0.010330728 0.0083538794         3413 
 1889000   0.50543407   -8.6162494     234.3159  0.010336858 0.0083461833         3329 
 1890000   0.48983115   -8.6299926    234.21588  0.010326979 0.0083384931         3430 
 1891000   0.48180811     -8.61787    234.46108  0.010332323  0.008330807         3451 
 1892000   0.49570363   -8.6390358    234.32156  0.010320717 0.0083231429         3408 
 1893000   0.49710447   -8.6368035    234.37725  0.010317716  0.008315473         3399 
 1894000   0.50079549   -8.6252567    233.94375  0.010293196 0.0083078147         3369 
 1895000   0.48594324   -8.6204813    234.21599  0.010299736 0.0083001699         3455 
 1896000   0.48710126   -8.6409892    234.28633  0.010297395 0.0082925326         3365 
 1897000   0.48686497   -8.6348849     234.5082  0.010301713 0.0082849073         3433 
 1898000   0.49410186   -8.6413451    234.43966  0.010293276  0.008277287         3421 
 1899000   0.48864448   -8.6443465     234.2636   0.01028013  0.008269679         3398 
 1900000   0.49945588   -8.6325957    234.53648  0.010286688 0.0082620798         3427 
 1901000   0.49156438   -8.6227393    234.35785  0.010273446 0.0082544865         3380 
 1902000   0.48396244   -8.6468709    234.18351  0.010260406 0.0082468996         3418 
 1903000   0.49659482   -8.6492403    234.30213  0.010260209 0.0082393253         3348 
 1904000   0.49638534   -8.6432213    234.40611  0.010259371 0.0082317622         3445 
 1905000   0.48913863   -8.6370464    234.04244  0.010238077 0.0082242052         3422 
 1906000   0.48934447   -8.6519808    234.16076  0.010237879 0.0082166582         3419 
 1907000   0.49828621   -8.6404532    234.16288  0.010232603 0.0082091204         3392 
 1908000   0.48979015   -8.6439707    234.29225   0.01023289   0.00820159         3407 
 1909000   0.48423953   -8.6619825    233.80586  0.010206298 0.0081940695         3415 
 1910000   0.49070222   -8.6405073    233.97525  0.010208344 0.0081865578         3435 
 1911000   0.48699854   -8.6456272    234.37016  0.010220223 0.0081790525         3440 
 1912000    0.4891973    -8.649081    234.12489  0.010204188 0.0081715588         3463 
 1913000   0.49422777   -8.6307335    234.39717  0.010210715 0.0081640747         3353 
 1914000   0.48557007   -8.6542056    234.35046  0.010203346 0.0081566016         3377 
 1915000   0.48782854   -8.6508918     234.2897  0.010195374 0.0081491313         3453 
 1916000   0.48914333   -8.6502357    233.95385  0.010175446 0.0081416745         3401 
 1917000   0.49816137   -8.6496298    233.63287  0.010156185 0.0081342254         3362 
 1918000   0.49971279   -8.6524534    234.24814  0.010177622 0.0081267826         3392 
 1919000    0.5028226   -8.6545346    234.13774  0.010167524 0.0081193564         3420 
 1920000   0.48573202   -8.6456173    233.66112  0.010141542 0.0081119411         3417 
 1921000   0.48970831   -8.6513235    234.02812  0.010152183 0.0081045277         3370 
 1922000   0.49214842   -8.6717922    234.23457  0.010155852 0.0080971304         3466 
 1923000    0.4893002   -8.6474948    234.02541  0.010141507 0.0080897399         3389 
 1924000   0.47459375   -8.6560978    234.21522  0.010144457 0.0080823584         3433 
 1925000    0.4916478   -8.6426926    234.37331  0.010146031 0.0080749845         3391 
 1926000   0.49613341   -8.6635967    234.22893  0.010134516 0.0080676203         3410 
 1927000   0.47809781   -8.6732802    234.01108  0.010119836 0.0080602614         3413 
 1928000   0.48077518   -8.6578016    234.07622  0.010117402 0.0080529093         3459 
 1929000   0.48701354   -8.6508442    234.14121  0.010114965 0.0080455651         3386 
 1930000   0.48818439    -8.653265    234.07566  0.010106894 0.0080382364         3414 
 1931000   0.49909911    -8.667558    234.10546  0.010102946 0.0080309203         3404 
 1932000    0.4830564   -8.6594442    233.84772  0.010086599 0.0080236076         3390 
 1933000   0.48369549   -8.6736469    233.79936  0.010079296 0.0080163001         3333 
 1934000   0.47158923   -8.6583965    233.56273  0.010063889 0.0080090051         3381 
 1935000   0.48333233   -8.6535677    233.76793  0.010067525 0.0080017167         3389 
 1936000   0.46880557   -8.6412873    233.70987  0.010059825 0.0079944388         3414 
 1937000   0.48269979   -8.6611323    234.04265  0.010068949 0.0079871676         3413 
 1938000   0.47035829   -8.6717065    233.89299  0.010057318 0.0079799058         3437 
 1939000   0.47701298   -8.6583004    233.66408  0.010042293 0.0079726502         3352 
 1940000   0.48197488   -8.6692674    233.90265  0.010047365 0.0079654111         3422 
 1941000   0.48280239   -8.6623851    233.78153  0.010036988 0.0079581737         3404 
 1942000   0.48640191   -8.6711904    233.90348  0.010037053 0.0079509503         3379 
 1943000   0.48099889   -8.6708094    233.71427  0.010023772 0.0079437333         3401 
 1944000   0.48234099   -8.6620781    233.60655  0.010013998 0.0079365249         3396 
 1945000   0.49342359   -8.6680544    234.28407  0.010037878 0.0079293266         3403 
 1946000   0.47820205   -8.6634221    233.90281  0.010016393 0.0079221374         3402 
 1947000   0.47716833   -8.6640378    233.99524  0.010015205 0.0079149525         3452 
 1948000   0.48083602   -8.6593037    234.06881   0.01001321 0.0079077806         3391 
 1949000   0.47450462   -8.6724091    233.84254 0.0099983981  0.007900614         3393 
 1950000   0.48094641   -8.6579843    234.27206  0.010011626 0.0078934621         3411 
 1951000   0.48371999   -8.6705033     233.6651 0.0099805696 0.0078863108         3376 
 1952000   0.48185327   -8.6623948    233.67441 0.0099758541 0.0078791716         3386 
 1953000   0.48523936   -8.6672672    233.72679 0.0099729813 0.0078720404         3454 
 1954000   0.47834736   -8.6626746    233.90559 0.0099755029 0.0078649146         3424 
 1955000   0.46937518   -8.6818238    233.69637 0.0099614822 0.0078578046         3415 
 1956000   0.47104442   -8.6676654    233.57523 0.0099512283 0.0078507001         3421 
 1957000   0.47554139   -8.6674176    233.97678 0.0099632424 0.0078435995         3410 
 1958000   0.47467017   -8.6957478    233.79066 0.0099502325 0.0078365118         3398 
 1959000   0.47572562    -8.685472    233.92571 0.0099508979 0.0078294318         3396 
 1960000   0.48268215   -8.6672011    233.53634 0.0099292662 0.0078223591         3383 
 1961000   0.46819624   -8.6764863    233.66993 0.0099298798 0.0078152977         3323 
 1962000   0.46110488   -8.6779644    234.09604 0.0099429172 0.0078082498         3383 
 1963000   0.46529607   -8.6777941    233.78135 0.0099244925 0.0078012022         3399 
 1964000   0.46083637     -8.67429    233.62475 0.0099127948 0.0077941687         3353 
 1965000   0.46951429   -8.6830608    234.07675  0.009926919 0.0077871412         3401 
 1966000   0.47648629   -8.6638207    233.66841 0.0099045612 0.0077801216         3383 
 1967000   0.45830078   -8.6724368    233.69178 0.0099005162 0.0077731101         3438 
 1968000   0.46128881   -8.6812768    233.68841 0.0098953425 0.0077661078         3437 
 1969000    0.4653626   -8.6889982     233.7398 0.0098924919   0.00775911         3365 
 1970000    0.4624408   -8.6902455    233.44539 0.0098750164 0.0077521252         3435 
 1971000   0.46168629   -8.6830888    233.58638 0.0098759673 0.0077451487         3441 
 1972000   0.46166822   -8.6862375    233.83669 0.0098815368 0.0077381768         3498 
 1973000   0.45408854   -8.6979476    233.64393  0.009868387 0.0077312143         3473 
 1974000    0.4509465    -8.673383    233.57724 0.0098605724 0.0077242571         3409 
 1975000   0.46849683   -8.6811965    233.48089 0.0098515142 0.0077173088         3471 
 1976000   0.46426517   -8.6652059    233.87341 0.0098630822 0.0077103791         3372 
 1977000   0.45937047    -8.672222    233.42196 0.0098390641 0.0077034496         3424 
 1978000   0.45850554   -8.6754616    233.49026 0.0098369675 0.0076965276         3461 
 1979000   0.45665023   -8.6848664    234.12965 0.0098589208 0.0076896139         3391 
 1980000   0.47388313   -8.7015831    233.71818 0.0098366235 0.0076827108         3421 
 1981000   0.46519635   -8.6858149     233.3121  0.009814576 0.0076758209         3433 
 1982000   0.45437888   -8.6811772    233.59448 0.0098214968 0.0076689388         3446 
 1983000   0.46127601   -8.6997282    233.95021 0.0098314932 0.0076620596         3413 
 1984000   0.45754666   -8.6927799    233.54052 0.0098093296 0.0076551946         3392 
 1985000   0.45094983   -8.6848954    233.52456 0.0098037178 0.0076483309         3436 
 1986000   0.45380981   -8.7001316    233.30243 0.0097894609 0.0076414801         3470 
 1987000   0.46520799   -8.6924789    233.57258 0.0097958641 0.0076346289         3395 
 1988000   0.47013819   -8.6929879    233.16819 0.0097739851 0.0076277857         3469 
 1989000   0.46363629    -8.680382     233.6848 0.0097907156 0.0076209581         3403 
 1990000   0.47272889   -8.7107773    233.69102 0.0097860561 0.0076141386         3409 
 1991000   0.47051008   -8.6865604    233.57295 0.0097761991 0.0076073252         3406 
 1992000   0.46581869   -8.7001403    233.62228 0.0097733552 0.0076005163         3355 
 1993000   0.47135082   -8.6943491    233.65671  0.009769891 0.0075937151         3434 
 1994000   0.45557326   -8.6863976    233.52514 0.0097594924 0.0075869229         3403 
 1995000   0.46237205   -8.6828866    233.85802 0.0097685054 0.0075801412         3423 
 1996000   0.44704067   -8.7009266    233.30375 0.0097404707 0.0075733678         3395 
 1997000   0.45824366   -8.7083817    233.04752 0.0097249005 0.0075666017         3390 
 1998000   0.46250078    -8.700743    233.42231 0.0097356654 0.0075598404         3385 
 1999000   0.45543561   -8.7049627    233.33615 0.0097272031 0.0075530869         3358 
 2000000   0.45469606   -8.6997091    233.30618 0.0097210907 0.0075463394         3441 
 2001000   0.45979717    -8.705289    233.30445 0.0097161607 0.0075396021         3400 
 2002000   0.46712317   -8.6993085    233.00788 0.0096989628 0.0075328753         3449 
 2003000   0.46832145    -8.705222    233.41418 0.0097110244 0.0075261562         3400 
 2004000   0.45688529   -8.7028999    233.61284 0.0097144395  0.007519441         3438 
 2005000   0.45739572   -8.6824511    233.40914 0.0097011279  0.007512738         3398 
 2006000   0.44896801   -8.6907797    233.41945 0.0096967201 0.0075060438         3437 
 2007000   0.45425358   -8.6907608    233.46727 0.0096938743 0.0074993555         3409 
 2008000   0.44054262   -8.7172654    233.59316 0.0096942712 0.0074926736         3372 
 2009000   0.45404231   -8.7071441    233.30218  0.009677376 0.0074860014         3395 
 2010000   0.45165112   -8.6950072    232.96278 0.0096584901 0.0074793349         3429 
 2011000    0.4424467   -8.7032681    233.51306 0.0096764903 0.0074726772         3404 
 2012000   0.44635864   -8.6921681    233.51274 0.0096716674 0.0074660269         3405 
Loop time of 5284.65 on 48 procs for 2000000 steps with 4000 atoms

Performance: 65396.907 tau/day, 378.454 timesteps/s
99.4% CPU use with 48 MPI tasks x no OpenMP threads

MPI task timing breakdown:
Section |  min time  |  avg time  |  max time  |%varavg| %total
---------------------------------------------------------------
Pair    | 370.3      | 405.5      | 434.61     |  79.3 |  7.67
Neigh   | 37.383     | 38.911     | 40.406     |  12.1 |  0.74
Comm    | 332.76     | 368.58     | 402.47     |  89.0 |  6.97
Output  | 6.5043     | 6.5063     | 6.551      |   0.3 |  0.12
Modify  | 4389.4     | 4411.5     | 4429.3     |  17.1 | 83.48
Other   |            | 53.64      |            |       |  1.02

Nlocal:        83.3333 ave          89 max          75 min
Histogram: 1 1 5 2 2 9 9 13 4 2
Nghost:        2454.06 ave        2475 max        2436 min
Histogram: 2 3 7 9 3 10 8 3 1 2
Neighs:        17076.7 ave       19939 max       14736 min
Histogram: 6 1 7 9 5 2 9 4 4 1
FullNghs:      34154.6 ave       37045 max       30405 min
Histogram: 1 2 5 4 3 8 8 11 4 2

Total # of neighbors = 1639419
Ave neighs/atom = 409.85475
Neighbor list builds = 106501
Dangerous builds = 0

#clear
#
#next RN
#
#jump SELF
Total wall time: 1:28:08
