
units lj                  # Use reduced LJ style units
atom_style atomic         # Uncharged point particles
atom_modify map hash      # Needed for indexing of clusters etc
                          # Used to be able to find where atoms are in relation to each other.

lattice fcc 1.0 spacing 1 1 1
Lattice spacing in x,y,z = 1.5874011 1.5874011 1.5874011
region box block 0 10 0 10 0 10 units lattice
create_box 2 box
Created orthogonal box = (0.0000000 0.0000000 0.0000000) to (15.874011 15.874011 15.874011)
  3 by 4 by 4 MPI processor grid
create_atoms 1 box
Created 4000 atoms
  using lattice units in orthogonal box = (0.0000000 0.0000000 0.0000000) to (15.874011 15.874011 15.874011)
  create_atoms CPU = 0.002 seconds
set type 1 type/fraction 2 0.46 78393
Setting atom values ...
  1843 settings made for type/fraction
mass 1 1.0
mass 2 1.0
pair_style lj/cut  3.5
pair_modify tail  yes
pair_coeff 1  1  1.0  1.0   # Intearaction between 1 and 1 set with epsilon = 1 and sigma = 1
pair_coeff 1  2  1.5  0.8
pair_coeff 2  2  0.5  0.88

write_data data.0
System init for write_data ...
Neighbor list info ...
  update every 1 steps, delay 10 steps, check yes
  max neighbors/atom: 2000, page size: 100000
  master list distance cutoff = 3.8
  ghost atom cutoff = 3.8
  binsize = 1.9, bins = 9 9 9
  1 neighbor lists, perpetual/occasional/extra = 1 0 0
  (1) pair lj/cut, perpetual
      attributes: half, newton on
      pair build: half/bin/atomonly/newton
      stencil: half/bin/3d
      bin: standard
WARNING: Not all mixed pair coeffs generated from mixing. Use write_data with 'pair ij' option to store all pair coeffs. (../write_data.cpp:312)


#############################
#   M E L T   S Y S T E M   #
#############################

velocity all create 2.4 9580093 mom yes dist gaussian # Assign velocities
                                                    # Temperature 2.4, random number seed, zero linear momentum
                                                                                # Gaussian distribution

timestep 0.002   # simulation timestep
thermo 1000       # output thermodynamic data every 1000 steps bf 100

# Define a fix  in this case with index 1 applied to all
# particles in the simulation. This fix is for simulations
# in the anisotropic NPT ensemble. Note that we use the MTK
# correction.
fix 1 all npt temp 2.4 2.4 0.1 iso 5.68 5.68 0.5 mtk yes tchain 5 pchain 5 # Use NPT ensemble
                                                                         # Set temperature and pressure and damping
                                                                         # Numbers of thermostats in chain and in barostat
run 10000          # run for 10000 steps
Per MPI rank memory allocation (min/avg/max) = 3.642 | 3.644 | 3.648 Mbytes
Step Temp E_pair E_mol TotEng Press Volume 
       0          2.4   -5.5244938            0   -1.9253938   -4.2019961         4000 
    1000    2.4298487   -4.9543002            0   -1.3104383    5.6339081    3782.3781 
    2000    2.4081966   -4.8800092            0   -1.2686175    5.6450858    3813.8293 
    3000    2.3797083   -4.9410361            0    -1.372366    5.4690114    3797.5095 
    4000    2.4214756    -4.935095            0   -1.3037897    5.8359476    3774.8497 
    5000    2.4843691   -5.0120429            0   -1.2864209    6.0565042    3720.4309 
    6000    2.3859547   -4.9974938            0   -1.4194564    5.2695782    3784.5199 
    7000     2.332025   -5.0017493            0   -1.5045863    5.3547324    3764.4069 
    8000    2.4062996   -5.0335092            0   -1.4249622    5.7768628     3735.424 
    9000    2.3608799   -4.9837143            0   -1.4432798    5.3054371    3784.6208 
   10000    2.4122308   -4.9747026            0    -1.357261    5.7501643    3767.7516 
Loop time of 2.58186 on 48 procs for 10000 steps with 4000 atoms

Performance: 669285.108 tau/day, 3873.178 timesteps/s
99.6% CPU use with 48 MPI tasks x no OpenMP threads

MPI task timing breakdown:
Section |  min time  |  avg time  |  max time  |%varavg| %total
---------------------------------------------------------------
Pair    | 1.1508     | 1.2191     | 1.35       |   3.0 | 47.22
Neigh   | 0.21203    | 0.21985    | 0.24492    |   1.0 |  8.52
Comm    | 0.7459     | 0.87768    | 0.95185    |   4.0 | 33.99
Output  | 0.00024343 | 0.00024786 | 0.00031435 |   0.0 |  0.01
Modify  | 0.22513    | 0.24972    | 0.29338    |   3.8 |  9.67
Other   |            | 0.01529    |            |       |  0.59

Nlocal:        83.3333 ave          91 max          75 min
Histogram: 2 4 0 7 9 10 6 2 5 3
Nghost:        1709.96 ave        1728 max        1676 min
Histogram: 1 2 0 4 4 8 8 4 9 8
Neighs:        10130.8 ave       11256 max        8767 min
Histogram: 1 1 3 8 7 12 4 5 4 3

Total # of neighbors = 486279
Ave neighs/atom = 121.56975
Neighbor list builds = 907
Dangerous builds = 216

# Equilibrate just above the melting temperature to avoid step fn in T

fix 1 all npt temp 1.25 1.25 0.1 iso 5.68 5.68 0.5 mtk yes tchain 5 pchain 5
run 2000
Per MPI rank memory allocation (min/avg/max) = 3.644 | 3.645 | 3.649 Mbytes
Step Temp E_pair E_mol TotEng Press Volume 
   10000    2.4122308   -4.9747026            0    -1.357261    5.7501643    3767.7516 
   11000    1.2339727   -7.0385501            0   -5.1880537    5.4855168    2965.3311 
   12000    1.1971821    -7.105812            0   -5.3104878    5.7144522    2937.5221 
Loop time of 0.626136 on 48 procs for 2000 steps with 4000 atoms

Performance: 551956.769 tau/day, 3194.194 timesteps/s
99.6% CPU use with 48 MPI tasks x no OpenMP threads

MPI task timing breakdown:
Section |  min time  |  avg time  |  max time  |%varavg| %total
---------------------------------------------------------------
Pair    | 0.27571    | 0.30634    | 0.32873    |   2.2 | 48.93
Neigh   | 0.038847   | 0.041786   | 0.045703   |   0.6 |  6.67
Comm    | 0.20315    | 0.22851    | 0.26407    |   2.8 | 36.50
Output  | 5.2751e-05 | 5.4335e-05 | 6.9512e-05 |   0.0 |  0.01
Modify  | 0.040435   | 0.044542   | 0.047887   |   1.0 |  7.11
Other   |            | 0.004901   |            |       |  0.78

Nlocal:        83.3333 ave          89 max          72 min
Histogram: 1 0 1 2 4 9 6 17 3 5
Nghost:        2023.85 ave        2038 max        2007 min
Histogram: 1 6 2 3 8 5 8 9 4 2
Neighs:        13010.6 ave       14357 max       10537 min
Histogram: 1 0 0 4 8 2 9 18 4 2

Total # of neighbors = 624510
Ave neighs/atom = 156.12750
Neighbor list builds = 141
Dangerous builds = 11

#############################
# L I N E A R  Q U E N C H  #
#############################

# Define solid atoms. This closely follows ten Wolde  Ruiz-Montero and Frenkel  Faraday Discuss  1996  104  93-110
# Compute components of the per-atom q6 vector
compute q6 all orientorder/atom degrees 1 6 components 6 nnn NULL cutoff 1.3 # compute the Q6 parameter.
                                                                             # Use all neighbours within 1.3 unit cell.

# get number of connections
compute coord_number all coord/atom orientorder q6 0.5

# An atom is solid if it has 8 or more connections (of a possible 14)
variable is_solid atom c_coord_number>=8
group solid dynamic all var is_solid    # Must be dynamic to update
dynamic group solid defined

# do clustering
compute cluster solid cluster/atom 1.3 # Create a cluster where all atoms within are solid and max 1.3 units from another member

# define chunks one chunk per cluster
compute clus_chunks solid chunk/atom c_cluster nchunk every compress yes  # Says which atoms are in which chunk

# count the size of each chunk
compute size_chunks solid property/chunk clus_chunks count


# Find the maximum entry in the vector of chunk sizes
variable max_n equal max(c_size_chunks)


# Thermo style which includes this variable
# thermo_style custom step temp pe vol v_max_n

thermo ${N}  # Print the thermo information every 100 steps
thermo 1000  

# Reset the npt fix at a lower temperature (below freezing)
fix 1  all npt temp  ${temp} ${temp}  0.1  iso  5.68  5.68  0.5  mtk yes tchain  5  pchain  5
fix 1  all npt temp  0.45 ${temp}  0.1  iso  5.68  5.68  0.5  mtk yes tchain  5  pchain  5
fix 1  all npt temp  0.45 0.45  0.1  iso  5.68  5.68  0.5  mtk yes tchain  5  pchain  5

dump dmp2 all dcd ${N} traj.dcd
dump dmp2 all dcd 1000 traj.dcd


compute msd all msd com yes
variable twopoint equal c_msd[4]/6/(step*dt+1.0e-6)
fix 9 all vector 10 c_msd[4]
variable fit equal slope(f_9)/6/(10*dt)
thermo_style custom step temp pe c_msd[4] v_twopoint v_fit v_max_n

fix 1 all npt temp 1.25 ${temp} 0.1 iso 5.68 5.68 0.5 mtk yes tchain 5 pchain 5
fix 1 all npt temp 1.25 0.45 0.1 iso 5.68 5.68 0.5 mtk yes tchain 5 pchain 5
run 2000000 # 5000000  # Run for this many steps
Neighbor list info ...
  update every 1 steps, delay 10 steps, check yes
  max neighbors/atom: 2000, page size: 100000
  master list distance cutoff = 3.8
  ghost atom cutoff = 3.8
  binsize = 1.9, bins = 8 8 8
  4 neighbor lists, perpetual/occasional/extra = 1 3 0
  (1) pair lj/cut, perpetual
      attributes: half, newton on
      pair build: half/bin/atomonly/newton
      stencil: half/bin/3d
      bin: standard
  (2) compute orientorder/atom, occasional
      attributes: full, newton on
      pair build: full/bin/atomonly
      stencil: full/bin/3d
      bin: standard
  (3) compute coord/atom, occasional
      attributes: full, newton on
      pair build: full/bin/atomonly
      stencil: full/bin/3d
      bin: standard
  (4) compute cluster/atom, occasional
      attributes: full, newton on
      pair build: full/bin/atomonly
      stencil: full/bin/3d
      bin: standard
Per MPI rank memory allocation (min/avg/max) = 9.833 | 9.839 | 9.843 Mbytes
Step Temp PotEng c_msd[4] v_twopoint v_fit v_max_n 
   12000    1.1971821    -7.105812 9.8785107e-31 6.8600766e-33 8.3333333e+20            1 
   13000    1.2359835   -7.1245931   0.44016537 0.0028215727  0.035901504            1 
   14000    1.2472472   -7.1177764   0.79387486 0.0047254454  0.031824138            1 
   15000     1.222846   -7.1670891    1.2246848 0.0068038041  0.032381479            2 
   16000    1.2514821   -7.1425196    1.5839359 0.0082496661  0.032701017            2 
   17000    1.2513389   -7.1387454    2.0258159 0.0099304696  0.032990979            1 
   18000    1.2271798   -7.1250446    2.4476214   0.01133158  0.033363491            1 
   19000     1.263986   -7.1464473    2.7756082   0.01217372  0.033158231            2 
   20000    1.2610708   -7.1436457    3.1948289  0.013311787  0.032923314            2 
   21000    1.2614802   -7.1034505    3.6382422  0.014437469  0.033026064            1 
   22000    1.2406701   -7.1060134    4.0871866  0.015481767  0.033356775            2 
   23000    1.2371052    -7.158219    4.4776661  0.016223428  0.033583118            2 
   24000    1.2406982   -7.1571571    4.9356235  0.017137581  0.033700192            2 
   25000    1.2512051   -7.1226481    5.3004807  0.017668269  0.033910734            1 
   26000    1.2323197   -7.1618794    5.6541318  0.018122217  0.033879662            2 
   27000    1.2502238   -7.1656389    6.0300704  0.018611328  0.033787077            3 
   28000    1.2416006   -7.1505256    6.4932559  0.019325166  0.033775844            3 
   29000    1.2363575   -7.1892187    6.9647722  0.020013713  0.033899847            2 
   30000    1.2254038   -7.1512459    7.4046937  0.020568593  0.034027086            1 
   31000    1.2220205   -7.1757205    7.8482761  0.021097516  0.034149458            4 
   32000     1.215036   -7.1384855    8.1450715  0.021211123  0.034177628            1 
   33000    1.2385164   -7.1324153    8.6050115  0.021729827  0.034147837            1 
   34000    1.2130923   -7.1755447    8.9191666  0.021860702  0.034159197            1 
   35000    1.2334053   -7.2193097    9.2358547   0.02199013  0.034065876            1 
   36000    1.2116491   -7.1845644    9.6383923  0.022311093  0.033956252            1 
   37000    1.2182368    -7.199606     10.08704  0.022718558   0.03387079            1 
   38000    1.2279799   -7.1138598    10.459898  0.022938372  0.033819671            4 
   39000    1.2430839   -7.1297457    10.932405  0.023359839   0.03375529            2 
   40000    1.2897463   -7.1413936    11.343541  0.023632376  0.033730305            1 
   41000    1.2214075   -7.1421793       11.678  0.023735771  0.033710043            1 
   42000    1.2342856   -7.2083713    12.085109   0.02397839  0.033673015            1 
   43000     1.248474   -7.1921188    12.466895  0.024160649  0.033646356            1 
   44000    1.2306587   -7.1514652    12.806362  0.024254472  0.033592478            3 
   45000    1.2593784   -7.2049399    13.074451  0.024211945   0.03351534            2 
   46000    1.2636518   -7.1720975    13.489034  0.024436656  0.033409206            2 
   47000    1.2126128   -7.2024569    13.955494  0.024743783   0.03335494            3 
   48000    1.2288375   -7.1646968    14.394642  0.024990698  0.033312551            2 
   49000    1.2091491    -7.131406    14.689701  0.024982484  0.033258485            2 
   50000    1.2538161   -7.1742595    15.040584   0.02506764  0.033184368            2 
   51000    1.2311496   -7.1355401     15.48269  0.025298513  0.033130914            2 
   52000    1.2374585   -7.1721987    15.820041  0.025352629  0.033072185            2 
   53000    1.2337326   -7.1631838     16.17924  0.025439056  0.033015701            2 
   54000    1.2413895   -7.1504273    16.474296  0.025423296  0.032951473            2 
   55000    1.2447488    -7.204245     16.83712  0.025510788  0.032876577            4 
   56000    1.2293982   -7.1676578     17.16335    0.0255407  0.032806225            1 
   57000    1.2246134    -7.218258    17.390172  0.025424228  0.032714469            1 
   58000    1.2485121   -7.1644229    17.867835  0.025672176  0.032623008            2 
   59000    1.2435699   -7.1807113    18.350069  0.025918176  0.032552689            2 
   60000    1.2318735   -7.1836973    18.841716   0.02616905  0.032527678            2 
   61000    1.2275909   -7.2056114    19.370449  0.026462362  0.032517445            1 
   62000    1.2101312   -7.1778102    19.788186  0.026597024  0.032526754            2 
   63000    1.2448589    -7.220018    20.267187  0.026808449  0.032561029            1 
   64000    1.2304364   -7.1741439    20.682929  0.026930897  0.032590699            1 
   65000     1.241886   -7.1898055    20.995779  0.026917665   0.03261419            2 
   66000    1.2307609   -7.1897416    21.475615  0.027115676  0.032634344            2 
   67000    1.2321943   -7.2261177    21.723803  0.027019656  0.032651186            2 
   68000    1.2301844   -7.1895594    22.160355  0.027157298   0.03265392            3 
   69000    1.2143771   -7.2130708    22.578183  0.027268336  0.032661348            1 
   70000    1.2376044   -7.2084419    22.918335  0.027283732  0.032668134            2 
   71000    1.2354582   -7.2332739    23.313204  0.027362916  0.032666791            2 
   72000    1.2172537   -7.2101916    23.617036  0.027334532  0.032666552            2 
   73000    1.2174012   -7.2166175    23.827514  0.027200359  0.032646833            2 
   74000    1.2273009   -7.1740284    24.416373  0.027495916  0.032635773            1 
   75000    1.2408784   -7.2049127    24.808266  0.027564739  0.032624939            1 
   76000    1.2336462   -7.2050182    25.092821  0.027514058  0.032615903            2 
   77000    1.2184776   -7.1838792    25.405187  0.027494791  0.032600111            3 
   78000    1.2098345   -7.2198128    25.726183  0.027485238   0.03257769            4 
   79000    1.2497978   -7.1903027    26.197625  0.027634626  0.032553877            1 
   80000    1.2392791   -7.2148669    26.715148  0.027828279  0.032536809            1 
   81000    1.2292553   -7.1838412     27.11576  0.027896872  0.032533222            1 
   82000    1.2078896   -7.1795284    27.472065  0.027918765  0.032528133            2 
   83000    1.2264049   -7.2143188    27.740162  0.027851568  0.032518482            1 
   84000    1.2037806   -7.1885324    28.203758  0.027979918  0.032505053            1 
   85000      1.22943   -7.2385247    28.454038  0.027896116  0.032493054            2 
   86000    1.2191431   -7.2213948    28.987575  0.028088735   0.03248013            2 
   87000     1.230741   -7.2088957    29.403378  0.028164155  0.032476897            1 
   88000    1.2105465   -7.2144744    29.799043   0.02821879  0.032477157            1 
   89000    1.2156439   -7.1858511    30.219093   0.02829503  0.032474089            2 
   90000    1.2028617   -7.2163388    30.507522  0.028247706  0.032462613            3 
   91000    1.1782934   -7.2030231    30.830595  0.028233146  0.032455645            3 
   92000    1.2169343   -7.1982993    31.302616  0.028353819  0.032451736            2 
   93000    1.2077692   -7.2216712    31.589718  0.028306199  0.032439432            2 
   94000    1.1708256   -7.2430129    32.016338  0.028383279  0.032427277            2 
   95000    1.2006259   -7.2315981    32.241665  0.028282162  0.032411528            1 
   96000    1.2084819   -7.1972262    32.573252  0.028275392  0.032386151            1 
   97000    1.2252193   -7.2230981    32.990197  0.028342093  0.032360367            3 
   98000    1.2300106   -7.2468806    33.095676  0.028142581  0.032334174            1 
   99000    1.2489813   -7.2023141    33.515358  0.028211581  0.032301375            1 
  100000    1.2131275   -7.2491788    33.845275  0.028204396    0.0322712            2 
  101000    1.2130322    -7.222203      34.3044   0.02830396  0.032243284            2 
  102000    1.1912876   -7.2269081    34.852722  0.028474446  0.032223884            1 
  103000    1.1840412   -7.2024807     35.23848  0.028510097  0.032206707            3 
  104000    1.1941575    -7.223374    35.506954  0.028451085  0.032183418            2 
  105000    1.2050937    -7.189889    35.834196  0.028439838  0.032157712            1 
  106000    1.2109387   -7.2150531    36.208179  0.028465549  0.032130159            1 
  107000    1.2092067   -7.2177755    36.626522  0.028525328  0.032107067            2 
  108000    1.2223705   -7.2277662    36.943103  0.028505481  0.032085335            1 
  109000    1.2294225   -7.2444139    37.211605  0.028449239  0.032064003            1 
  110000    1.2133799   -7.2358624    37.537586  0.028437565  0.032038414            2 
  111000    1.2048281   -7.2186156    38.002108  0.028530111   0.03201937            2 
  112000     1.227645   -7.2709554    38.077517  0.028331486  0.031996951            3 
  113000    1.2220779    -7.220075    38.721635  0.028555778  0.031971997            2 
  114000    1.2477231   -7.1975482    38.974331  0.028490008  0.031950644            2 
  115000    1.2351682   -7.2498103    39.363041  0.028523943  0.031925445            2 
  116000    1.2035549   -7.2011882    39.896898  0.028661565  0.031904464            1 
  117000    1.2253429    -7.222798    40.144081   0.02859265  0.031885006            2 
  118000    1.1707364   -7.2365555    40.632238  0.028695084  0.031869279            3 
  119000     1.194142   -7.2912382    40.820101  0.028585505  0.031853017            4 
  120000    1.1771551   -7.2589358    41.238235  0.028637663  0.031836389            2 
  121000    1.2391085   -7.2504021    41.671957  0.028699695   0.03181672            2 
  122000    1.2040533   -7.2125135    42.249233  0.028858766  0.031802258            1 
  123000    1.2354449   -7.2558876    42.302833  0.028660456  0.031790065            2 
  124000    1.2112434   -7.2414931    43.045319  0.028928306  0.031776541            2 
  125000    1.1908645   -7.1983986    43.269855   0.02884657  0.031764727            1 
  126000    1.2214697   -7.2391634    43.683129  0.028890958  0.031750429            1 
  127000    1.1973402   -7.2654616    43.821413  0.028754208  0.031735165            3 
  128000    1.2045809   -7.2639225    44.192231  0.028770984  0.031716048            1 
  129000    1.1864208    -7.250941    44.576179  0.028795981  0.031698991            3 
  130000    1.2282307   -7.2865124    45.086351  0.028901507   0.03168407            2 
  131000    1.2174655   -7.2782174    45.484247  0.028933999  0.031674908            2 
  132000    1.2176611   -7.2109047    46.070722  0.029085052  0.031669724            2 
  133000    1.1789085   -7.2551835      46.1411  0.028910464  0.031662286            2 
  134000    1.2149504   -7.2533796    46.389177  0.028848991  0.031647782            2 
  135000    1.2149794   -7.2514246    46.660664  0.028802879   0.03162802            4 
  136000    1.2159666   -7.2515703    46.872432  0.028720853  0.031605497            2 
  137000    1.2083279   -7.2789408    47.408958  0.028837566  0.031583349            1 
  138000     1.209774   -7.2398819    47.676159  0.028789951  0.031563479            1 
  139000    1.2111998   -7.2447068     48.24933  0.028926457  0.031544775            2 
  140000    1.2082859   -7.2747357     48.48678  0.028861179  0.031528935            4 
  141000    1.1711485   -7.2556472    48.880773  0.028889346  0.031512055            3 
  142000    1.1948112   -7.2618772    49.380159  0.028978967  0.031496606            1 
  143000    1.2131007   -7.2427203    49.721976   0.02897551  0.031486128            2 
  144000    1.2054641   -7.2953475    49.907015  0.028881374  0.031475604            1 
  145000    1.1898906   -7.2510503    50.458344  0.028999048  0.031464185            2 
  146000    1.2034413    -7.261161     51.00067  0.029109972  0.031453824            2 
  147000    1.2148025   -7.2626839     51.12445  0.028982114  0.031442089            1 
  148000    1.2179234   -7.2884534    51.491485  0.028992953  0.031429471            2 
  149000    1.1879907   -7.2693573    51.722702  0.028927686  0.031415973            2 
  150000     1.197252    -7.279499     52.11873   0.02895485  0.031401257            2 
  151000    1.1652107   -7.2621392    52.395933  0.028916078  0.031386034            3 
  152000    1.1979668   -7.2822124    52.741411  0.028915247  0.031370759            1 
  153000    1.1603194   -7.2514057     52.99536  0.028864575  0.031352915            2 
  154000     1.169757   -7.2558532    53.262673  0.028821793  0.031333697            1 
  155000    1.2062438   -7.2676556    53.278033  0.028644103  0.031309522            1 
  156000    1.1661185   -7.2884045    53.493539  0.028575609  0.031281101            1 
  157000    1.1902829   -7.2949501    53.704771  0.028505717  0.031250157            2 
  158000    1.2075069    -7.268656    54.396924  0.028690361  0.031219326            1 
  159000    1.2148555   -7.2731664    54.729496  0.028684222  0.031193692            3 
  160000    1.1932619    -7.248362    55.137429  0.028717411  0.031167303            4 
  161000    1.2115689   -7.2839149     55.51643  0.028735212  0.031144121            2 
  162000    1.1745255   -7.2602283    55.677747  0.028640816   0.03111781            2 
  163000    1.1566911   -7.3016681    55.814482  0.028535011  0.031084873            2 
  164000    1.2099109   -7.3265805    55.757465  0.028332045  0.031051906            5 
  165000    1.1997529   -7.2766944    56.474576  0.028522513  0.031019849            1 
  166000    1.1791424    -7.276214    56.932912  0.028580779  0.030987777            3 
  167000     1.209253   -7.3480956    57.106564  0.028496289  0.030959925            3 
  168000     1.173214   -7.3002743    57.300897  0.028423064  0.030930057            4 
  169000    1.1890881   -7.2801553    57.942163  0.028571086  0.030903951            1 
  170000    1.1990723   -7.3188004    57.909133   0.02838683  0.030875447            5 
  171000    1.1718897   -7.3421726    58.412291  0.028466029  0.030846763            2 
  172000    1.1924589   -7.2896784    58.706262  0.028442956  0.030818632            1 
  173000    1.1726162   -7.3224449    59.124377   0.02847995  0.030792036            2 
  174000     1.189572   -7.2997186    59.665202  0.028575288  0.030768048            2 
  175000    1.1867855   -7.2430562    59.963306  0.028553955  0.030743736            3 
  176000    1.2221335   -7.2856793    60.340032  0.028570091  0.030719202            1 
  177000    1.1883363   -7.2860744    60.466825  0.028468373  0.030693798            1 
  178000    1.1991084   -7.3165817     60.85528    0.0284903  0.030669984            2 
  179000    1.1872134   -7.2696157    61.403053  0.028586151  0.030648822            1 
  180000    1.1853369   -7.3006499    61.804032  0.028612977  0.030627902            2 
  181000    1.1566015   -7.2693449    61.882172  0.028490871  0.030606668            2 
  182000    1.1818948   -7.2794005    62.230347  0.028493749  0.030585295            2 
  183000    1.1949441   -7.3238376    62.407481  0.028418707   0.03056189            2 
  184000    1.1964439   -7.3381311    62.527154  0.028318457  0.030534752            1 
  185000    1.1881853   -7.2989419    63.001466  0.028379039  0.030508164            3 
  186000    1.1722789   -7.3097466     63.34955  0.028382415  0.030482097            1 
  187000    1.1501278   -7.3218464    63.456938  0.028278493  0.030453495            2 
  188000    1.1717705   -7.3188926    63.523799  0.028157712  0.030424866            2 
  189000    1.1809879   -7.2955451    64.272365  0.028338785  0.030395605            7 
  190000    1.1670359   -7.2937968     64.59552  0.028331368  0.030368793            1 
  191000     1.183928   -7.3086558    64.920021  0.028324617  0.030341514            3 
  192000    1.1971937   -7.3044132    65.302055  0.028342906  0.030315276            2 
  193000    1.1837857   -7.3568622    65.468685  0.028267998  0.030291229            2 
  194000    1.1772181   -7.3696206    65.779449  0.028255777  0.030267315            2 
  195000    1.1771878   -7.2612101    66.499141  0.028418436  0.030243692       -1e+20 
  196000     1.174763   -7.3409675    66.526376  0.028285024  0.030220478            3 
  197000    1.1927444   -7.3010294    66.974082   0.02833083  0.030197471            1 
  198000    1.1573587   -7.2785648    67.211145  0.028287519  0.030174623            6 
  199000    1.1731749   -7.3371839     67.49098  0.028262554  0.030153738            2 
  200000    1.1751881   -7.3298241    67.827758  0.028261566  0.030130707            4 
  201000    1.1904306    -7.354544    68.105651  0.028236173  0.030106955            2 
  202000    1.1933945   -7.3381654    68.515244  0.028265364  0.030083738            2 
  203000     1.201454   -7.3257333    68.843138   0.02826073  0.030062342            2 
  204000    1.1898229   -7.3269983    69.317512  0.028315977  0.030040215            2 
  205000    1.1873811    -7.365641    69.470614  0.028240087  0.030018249            2 
  206000    1.1646344    -7.329643    69.673781  0.028185187  0.029996147            2 
  207000    1.1946888   -7.2979812    70.186142  0.028255291  0.029974565            1 
  208000    1.1959104   -7.2977209    70.208928  0.028128577  0.029952402            6 
  209000    1.2245386   -7.3673434    70.443934  0.028087693  0.029927446            2 
  210000     1.176963   -7.3239667    70.577419  0.028006912  0.029902044            1 
  211000    1.1806116   -7.3372992    71.060635  0.028065022  0.029877566            1 
  212000    1.1502213   -7.2953527    71.564376  0.028130651  0.029852068            3 
  213000    1.1712572   -7.3218527    71.502935  0.027974544  0.029827215            1 
  214000    1.1493305   -7.3481649    71.855856  0.027981252  0.029801328            5 
  215000    1.1693823   -7.3379441    72.277827  0.028014662  0.029777404            2 
  216000    1.1789951   -7.3477472    72.644207  0.028026314  0.029752285            1 
  217000    1.1773789   -7.3128802     73.06105  0.028057239  0.029729653            2 
  218000    1.1492976   -7.3568869    73.194346   0.02797949  0.029706983            2 
  219000    1.1422754   -7.3110881    73.742727  0.028060398  0.029683424            1 
  220000    1.1793193   -7.3682495    73.877299  0.027983825  0.029661961            3 
  221000     1.154796   -7.3122705    74.575123  0.028120333  0.029639779            1 
  222000    1.1388971   -7.3546333    74.826769  0.028088127  0.029618568            2 
  223000    1.1659406   -7.3342034    75.285134  0.028133458  0.029598081            2 
  224000    1.1704086    -7.340039    75.255517  0.027996844  0.029578121            2 
  225000    1.1626937   -7.3857595    75.425646  0.027935424  0.029557253            1 
  226000    1.1636799   -7.3434021    75.994148  0.028021441  0.029537369            3 
  227000    1.1504025   -7.3378259    76.447015  0.028064249  0.029517092            5 
  228000    1.1595799   -7.3185719    76.586337  0.027992082  0.029497383            2 
  229000    1.1383098    -7.344256    76.999743  0.028020285  0.029477916            2 
  230000    1.1842151   -7.2965681    77.324409   0.02801609  0.029459507            1 
  231000    1.1947777    -7.362108    77.790562  0.028062973  0.029442412            3 
  232000    1.1679801   -7.3341456    78.203823  0.028090454  0.029424085            2 
  233000    1.1560443   -7.4175888    78.012475  0.027901457   0.02940629            2 
  234000    1.1696198    -7.369496    78.753905  0.028046263  0.029387339            3 
  235000    1.1653772   -7.3618133    78.913642  0.027983561  0.029368624            1 
  236000    1.1688874   -7.3579512    79.390899   0.02803351   0.02934982            3 
  237000    1.1599357     -7.32046    79.861771  0.028080791  0.029331569            5 
  238000     1.151919   -7.3437361    79.857188    0.0279612  0.029314437            1 
  239000    1.1612683   -7.3535082    79.974343  0.027885057  0.029296042            2 
  240000    1.1751706   -7.3806947    80.209732  0.027850601  0.029279099            1 
  241000    1.1648473    -7.399864    80.730484  0.027915105  0.029261276            1 
  242000    1.2008517   -7.3807726    80.790826  0.027820532  0.029242893            1 
  243000    1.1714004   -7.3536625    81.127171  0.027821389  0.029224844            2 
  244000    1.1584469   -7.3575286    81.764469  0.027925024  0.029206763            1 
  245000     1.156639   -7.3727752    81.789316  0.027819495  0.029187893            1 
  246000    1.1628598   -7.3874228    81.954801  0.027762466  0.029168798            1 
  247000    1.1663566   -7.3843968    82.316654   0.02777215  0.029149198            3 
  248000    1.1658571   -7.3433443    82.551022  0.027738919  0.029130456            2 
  249000    1.1482494   -7.3625387    83.212025  0.027848736  0.029112185            4 
  250000    1.1875899   -7.3572543    83.594285  0.027864762  0.029095054            3 
  251000    1.1574752   -7.3571249    83.721622  0.027796023  0.029077275            3 
  252000    1.1615989   -7.3757509    84.219466  0.027850352  0.029060408            1 
  253000     1.146188   -7.3695079    85.045226  0.028012261  0.029045722            3 
  254000     1.156601   -7.3320522     84.82851  0.027830876   0.02902984            2 
  255000    1.1831947   -7.3447749    85.118984  0.027816662  0.029012682            7 
  256000    1.1473539   -7.3615844    85.470299  0.027822363  0.028995879            5 
  257000    1.1889325   -7.3540077    85.656439  0.027774461  0.028979051            3 
  258000    1.1476312   -7.3501564    86.231422  0.027852526  0.028962848            9 
  259000    1.1403058   -7.3995933    85.935613  0.027649811  0.028944519            3 
  260000    1.1483577   -7.4022938    86.066772  0.027585504  0.028924681            3 
  261000    1.1327841   -7.4307663    86.540083  0.027630933   0.02890496            2 
  262000    1.1630558   -7.3880285    86.927971  0.027648846  0.028886427            2 
  263000    1.1263195   -7.4008604    87.215349  0.027634775  0.028868068            1 
  264000    1.1572679   -7.3981379    87.693423  0.027681005  0.028849404            1 
  265000    1.1669606   -7.3925909    87.292606  0.027450505  0.028828979            1 
  266000    1.1517608   -7.3699564    87.863911  0.027526288  0.028808578            4 
  267000    1.1602461   -7.3683869    87.794924  0.027401662  0.028787708            2 
  268000    1.1310957     -7.41978    88.007038  0.027365372   0.02876512            1 
  269000    1.1554915   -7.3872015    88.452012  0.027401491  0.028742723            2 
  270000    1.1496042   -7.4122599    88.847287  0.027422002  0.028720441            3 
  271000    1.1442091     -7.38846    89.083389  0.027393416  0.028697912       -1e+20 
  272000     1.147194   -7.3338427    89.802984  0.027513169  0.028678325            2 
  273000    1.1465322   -7.3743503     90.00515  0.027474099  0.028658203            1 
  274000     1.134587   -7.4099149    90.003858  0.027373436  0.028637416            2 
  275000    1.1509245   -7.3843676     90.26603  0.027353342  0.028616594            3 
  276000    1.1527977   -7.3598001    90.909702  0.027448581  0.028597514            2 
  277000    1.1254838   -7.4193919    91.230646  0.027446043  0.028579094            3 
  278000    1.1476019   -7.4004747    91.404017  0.027399286  0.028560657            2 
  279000    1.1505847   -7.3917481    92.109878  0.027511911  0.028543067            7 
  280000    1.1507985   -7.4342492    92.024378  0.027388208  0.028525088            2 
  281000    1.1254305   -7.4206448    92.653328  0.027477262  0.028508217            1 
  282000    1.1350111   -7.4173094    92.890048  0.027449778  0.028491017            2 
  283000    1.1480415   -7.4405815    93.019468  0.027390891  0.028474291            3 
  284000    1.1364053   -7.4255462    93.348777  0.027391073  0.028457826            2 
  285000    1.1598915   -7.4514504    93.361343  0.027298638  0.028440212            2 
  286000    1.1311144   -7.3851772    93.762569  0.027320096  0.028421791            3 
  287000    1.1245683   -7.4045124    94.245617  0.027365162  0.028403844            2 
  288000    1.1541601   -7.3796589    94.331896  0.027295109  0.028386987            6 
  289000    1.1432193   -7.3814692     94.90084  0.027364717  0.028369848            3 
  290000    1.1262371   -7.4212725    95.196625  0.027355352  0.028354057            2 
  291000    1.1301001   -7.4158807    95.506573  0.027350107  0.028339075            2 
  292000    1.0993455   -7.4458846     95.74034  0.027323156   0.02832349            2 
  293000    1.1448534   -7.4292859    96.078139  0.027325978  0.028306935            1 
  294000      1.14047   -7.4499112    96.021678  0.027217029  0.028290083            7 
  295000    1.1315005   -7.4312664    96.227257  0.027182841  0.028273492            3 
  296000     1.123629   -7.3860688    97.190664  0.027362236  0.028257539            2 
  297000    1.1587995   -7.3809514    97.555624  0.027372509  0.028241691            1 
  298000    1.1202318   -7.4093203    97.552555  0.027279797   0.02822577            1 
  299000    1.1324262   -7.4419953    97.672451  0.027221976   0.02820952            3 
  300000    1.1303856   -7.4427411     97.95325  0.027209236  0.028192858            1 
  301000    1.1335921   -7.4445521    98.239833  0.027198182  0.028176161            4 
  302000    1.1110765   -7.4135062    98.938247  0.027300841  0.028160088            1 
  303000    1.1303843   -7.3913871    99.195064  0.027281371   0.02814403            2 
  304000    1.1081315   -7.4282929    99.386989   0.02724424  0.028128932            2 
  305000    1.1258826   -7.4608453    99.161765  0.027093378  0.028112547            3 
  306000     1.127294   -7.4617079    99.206255  0.027016954  0.028095584            5 
  307000    1.1369486   -7.4562988    99.637756  0.027046079   0.02807747            3 
  308000    1.1380252   -7.4477365    100.04382  0.027068134  0.028060631            2 
  309000    1.1361146   -7.4292743    100.42483  0.027083288  0.028042963            3 
  310000    1.1332132   -7.4352284    100.70134  0.027070252  0.028025442            1 
  311000    1.1294965   -7.4138424    100.98278  0.027058622  0.028007945            1 
  312000    1.1153364   -7.4537154    101.04393  0.026988229  0.027991031            9 
  313000    1.1433463   -7.4479432    101.76308  0.027093471  0.027975172            2 
  314000     1.121298   -7.4347798    102.78756  0.027279075  0.027960702            1 
  315000    1.1272064   -7.4498682    102.76016  0.027185228  0.027946774            2 
  316000    1.1124579   -7.4075912    103.33365  0.027250436  0.027932894            4 
  317000    1.1442995   -7.4951574    102.90972  0.027053027  0.027918806            1 
  318000     1.127118   -7.4374667    103.23411  0.027052963  0.027904447            4 
  319000    1.1498432   -7.4433233    103.54078  0.027048272  0.027889808            4 
  320000    1.0889068   -7.4334752    103.84628  0.027043302  0.027874855            3 
  321000    1.1027437   -7.4653764    103.83303  0.026955616  0.027859364            4 
  322000    1.1333389   -7.4587377    104.37054   0.02701101  0.027844248            1 
  323000    1.1036283   -7.4772607    104.86692   0.02705545   0.02782965            2 
  324000    1.1335998   -7.4682345    104.71694  0.026933369  0.027815035            5 
  325000    1.1100691   -7.4528579    105.35415  0.027013884  0.027799014            3 
  326000    1.1216212   -7.4778891    105.37628  0.026936678  0.027782954            6 
  327000    1.1275883   -7.4847604    105.82773  0.026969351  0.027767793            4 
  328000     1.113746     -7.44709    106.11812  0.026960905  0.027753435            2 
  329000    1.1147203   -7.4353695    106.77629  0.027045666  0.027739706            3 
  330000    1.1177481    -7.483009    107.01151   0.02702311  0.027726494            2 
  331000    1.1532922   -7.4634051    107.11601  0.026967778  0.027713618            3 
  332000    1.1249317    -7.463719    107.39693   0.02695706  0.027698861            2 
  333000    1.1638545   -7.4387248    107.72856    0.0269591  0.027684912            1 
  334000    1.1540931   -7.4936043    107.57332  0.026839651  0.027670019            1 
  335000    1.1190931   -7.4774482    107.61281  0.026769356  0.027654102            2 
  336000    1.1187336   -7.4676239    108.22839  0.026842357  0.027638193            1 
  337000    1.1395014      -7.4604    108.90712  0.026930544  0.027622645            3 
  338000    1.1137918   -7.4988056    108.28011   0.02669628  0.027606705            2 
  339000    1.1283031   -7.4488293    108.97293  0.026787839  0.027591372            2 
  340000    1.1327678   -7.4478476    109.38203  0.026809321   0.02757645            2 
  341000    1.1095164   -7.4361023    109.46512  0.026751006  0.027561423            2 
  342000    1.1127069    -7.495302    109.65263  0.026718478  0.027545084            2 
  343000    1.1350038   -7.4661869    109.64259   0.02663814    0.0275286            3 
  344000     1.117396   -7.4798901    109.94141  0.026633094  0.027511618            3 
  345000    1.1198371   -7.4825196    110.26678  0.026634489  0.027494209            2 
  346000    1.1145149   -7.4638675    110.66943  0.026654486  0.027476458            4 
  347000    1.1028047   -7.4624702    110.57793  0.026555699   0.02745907            3 
  348000    1.0829836   -7.4512523     111.1153   0.02660807  0.027441976            1 
  349000    1.0978294   -7.4379627    111.06009  0.026518647  0.027423902            3 
  350000    1.1320333   -7.4884171    111.43819  0.026532903  0.027406625            3 
  351000    1.1515152   -7.4831228    111.47469  0.026465976  0.027388516            4 
  352000    1.1038602    -7.433065    112.21352    0.0265657  0.027370517            2 
  353000    1.1275591   -7.4089582    112.32418  0.026516567  0.027352975            3 
  354000    1.1131952   -7.4358986    112.27738  0.026430645  0.027334958            2 
  355000     1.110652   -7.4696782    112.48453  0.026404819  0.027317011            4 
  356000    1.1058179   -7.4563223    112.53763  0.026343078  0.027298202            2 
  357000      1.10437   -7.4573532    112.88185  0.026349638  0.027279373            2 
  358000    1.1022739    -7.491148    112.84546  0.026267565  0.027259321            2 
  359000    1.1258302   -7.4573447    113.16819   0.02626931   0.02724001            2 
  360000    1.1056895    -7.490842    113.81603  0.026346304  0.027221034            2 
  361000    1.1166598   -7.4709717    114.34951  0.026396471  0.027203112            3 
  362000    1.1304458   -7.4729172    114.45055  0.026346812   0.02718465            1 
  363000    1.1175945   -7.4976411    114.52353  0.026290985  0.027166475            1 
  364000    1.1027382   -7.4837117    114.12415  0.026127324   0.02714703            2 
  365000     1.128839   -7.4404169    114.99866  0.026255401  0.027127556            2 
  366000    1.0956523   -7.4927973    114.50461  0.026071177  0.027107328            3 
  367000    1.0860041   -7.4295586    115.20891  0.026160061  0.027086458            2 
  368000    1.0979808   -7.5026958    114.89462  0.026017804  0.027065628            1 
  369000    1.0875952   -7.5009981    115.07008  0.025986919  0.027043991            1 
  370000    1.1007058   -7.4794751    115.04781  0.025911668  0.027022069            2 
  371000    1.0910258   -7.4750962    115.91385  0.026036354  0.026999267            5 
  372000      1.09024   -7.5374645    115.61769  0.025900021  0.026976522            8 
  373000    1.0920466   -7.5076027    116.02714  0.025922061  0.026954143            3 
  374000    1.1298078   -7.4745669    116.31897  0.025917774  0.026932273            3 
  375000    1.1072193   -7.5274713    116.33551  0.025852335  0.026910383            3 
  376000    1.0903146   -7.4852159    116.60694  0.025843737  0.026888611            4 
  377000    1.0897528   -7.4625948    117.14494  0.025894106   0.02686759            1 
  378000    1.1271922   -7.4183259     117.6783  0.025943189  0.026846459            5 
  379000    1.1332201   -7.4984315    117.48484  0.025832198  0.026824371            4 
  380000    1.1289496   -7.4708152    117.69489  0.025810284   0.02680214            2 
  381000    1.1198188   -7.4978465    118.08328  0.025827489   0.02678099            3 
  382000    1.1019672   -7.4626369    118.16327  0.025777327  0.026759854            3 
  383000      1.10838   -7.5657081    118.39611  0.025760686  0.026738799            1 
  384000    1.1022677   -7.5465422    118.48104  0.025712032  0.026717362            2 
  385000    1.1109221   -7.4884351    119.12301  0.025784202  0.026696996            4 
  386000     1.113225   -7.4898672    119.22224  0.025738825  0.026676569            3 
  387000    1.0897271   -7.5250969    119.31654  0.025692623  0.026655656            3 
  388000    1.0844178   -7.5387095    119.30909  0.025624805  0.026634717            3 
  389000    1.0917571   -7.5148098    120.38153  0.025788674  0.026613849            3 
  390000    1.0977125   -7.4933075    120.26162  0.025696927  0.026593327            3 
  391000    1.1232566   -7.5358911    120.33326  0.025646475  0.026571941            1 
  392000    1.0863942   -7.5216298    120.53827  0.025624633  0.026550761            3 
  393000    1.1223419   -7.5006836    121.11245  0.025681181  0.026530311            3 
  394000    1.0933561    -7.506738    120.98342   0.02558871  0.026510525            3 
  395000    1.0868396   -7.4992106    121.52458  0.025638097  0.026490531            2 
  396000    1.1308446   -7.5237621    122.23042   0.02572189  0.026471307            2 
  397000    1.1028138    -7.537957    122.10276  0.025630303  0.026451306            1 
  398000     1.083231   -7.5090118    122.59864  0.025669732  0.026431101            3 
  399000     1.101684   -7.5107366    122.70318   0.02562723  0.026411366            2 
  400000    1.1017057   -7.5339755    122.67467  0.025557223    0.0263918            6 
  401000    1.0876709     -7.48558    122.90418  0.025541185  0.026372876            4 
  402000    1.1237303   -7.5273481    123.46974  0.025594888  0.026353397            2 
  403000    1.0718643   -7.5101019    123.35241  0.025507115  0.026334344            1 
  404000    1.0827598   -7.5790733    122.94009  0.025358928  0.026313642            2 
  405000     1.061896   -7.5174343    123.54499   0.02542078  0.026292493            2 
  406000    1.0913768   -7.5174666    123.94034  0.025439314  0.026271901            2 
  407000    1.0774527   -7.5658485    123.62106  0.025311438  0.026250595            2 
  408000    1.1014607     -7.52776     124.3815  0.025404718  0.026229914            1 
  409000    1.0929001   -7.5043173    124.66108  0.025399567  0.026209136            3 
  410000     1.082118   -7.5824586     124.3281  0.025269939  0.026188542            2 
  411000    1.0651305   -7.5428372    124.85324  0.025314931  0.026167694            2 
  412000    1.0849834   -7.5080205    125.43229  0.025370608  0.026147281            1 
  413000    1.0889546    -7.533975    125.24484  0.025271355  0.026127727            2 
  414000    1.1082304   -7.5551604    126.00538  0.025363401  0.026108074            2 
  415000    1.1071298   -7.5582536    125.93672  0.025288498   0.02608812            5 
  416000    1.0871014   -7.5203276    126.22707  0.025285872  0.026068759            2 
  417000    1.0822073   -7.5260079    126.56847   0.02529346   0.02604919            2 
  418000    1.0554875   -7.5502529    126.35731  0.025190851   0.02602949            1 
  419000    1.1215287   -7.5782838    126.59482  0.025177967  0.026009423            8 
  420000     1.082496   -7.5102627    127.04576  0.025207492  0.025989662            3 
  421000    1.1079616    -7.529782    126.87821  0.025114451  0.025969252            2 
  422000    1.0795371   -7.5358517    127.48526  0.025174815  0.025948798            2 
  423000    1.0576849   -7.5460293    127.50622  0.025119429  0.025928477            2 
  424000    1.0852324   -7.5278569    127.69987  0.025098246  0.025907938            1 
  425000    1.0942075   -7.5402444    127.77412   0.02505375  0.025887319            1 
  426000    1.0884853    -7.530363     128.2583  0.025089653  0.025866422            1 
  427000    1.1021991   -7.5507093     128.1164  0.025003201  0.025845442            1 
  428000    1.0853864   -7.5119825    128.31645  0.024983733  0.025823969            3 
  429000    1.0811501    -7.549623    128.57988  0.024976667  0.025802437            4 
  430000    1.0900796   -7.5153858    129.08846  0.025017143  0.025781766            2 
  431000    1.0962892   -7.5879624    128.78143  0.024899736  0.025760972            2 
  432000    1.0559097   -7.5686818    129.22445  0.024927555  0.025739839            3 
  433000    1.0909998   -7.5748572     129.6245  0.024946979   0.02571941            3 
  434000    1.0884552   -7.5999841    129.54706  0.024874628  0.025698916            4 
  435000    1.0682381   -7.5924611    129.74488   0.02485534  0.025677767            2 
  436000    1.0639917   -7.5584011    130.02248  0.024851392  0.025657139            1 
  437000    1.1019276   -7.5496601    130.50883  0.024887268  0.025636643            1 
  438000    1.0715768   -7.5586971    130.75559  0.024877396  0.025615979            2 
  439000    1.0802698   -7.5541629    130.84976  0.024838603  0.025595013            1 
  440000    1.0564809    -7.575972    130.82006  0.024776527  0.025574254            4 
  441000    1.0756178   -7.5677818    131.00153  0.024754636  0.025553459            2 
  442000    1.0957792    -7.575171    131.16868  0.024730142   0.02553257            2 
  443000     1.073897   -7.5684436    131.97758  0.024826482   0.02551249            3 
  444000    1.0945696   -7.5555986    131.89023  0.024754173  0.025492642            1 
  445000    1.0540786   -7.5348792    132.29252   0.02477388  0.025472906            1 
  446000    1.0774765    -7.563675    132.72844  0.024799783  0.025453628            1 
  447000    1.0616904   -7.5913019    132.74612  0.024747598  0.025434004            8 
  448000    1.0699157   -7.5623567    132.68819  0.024681583  0.025414164            3 
  449000    1.0877421   -7.5830538    133.26268  0.024733237  0.025394436            1 
  450000     1.073508   -7.5650909    132.64997  0.024564808   0.02537422            2 
  451000    1.0829258   -7.6260545    132.85082  0.024547454  0.025353103            3 
  452000    1.0829508   -7.5940655      133.285  0.024573193  0.025332417            3 
  453000    1.1003677   -7.5847749    133.55377   0.02456839  0.025312228            1 
  454000    1.0441077   -7.5849264    133.96115  0.024589052  0.025291626            2 
  455000     1.093047   -7.5861386    133.92178  0.024527799  0.025271011            4 
  456000    1.0616542   -7.5964108    133.87329  0.024465147  0.025250026            2 
  457000    1.0702328   -7.6106833    134.05625  0.024444977  0.025229224            1 
  458000    1.0471515   -7.6248957    134.25561  0.024427876  0.025207815            2 
  459000    1.0643083   -7.5938104    134.35821  0.024393284  0.025186158            3 
  460000    1.0650013   -7.5887058    134.27452  0.024325095  0.025164422            2 
  461000     1.061364   -7.5862636    134.65936  0.024341894  0.025143221            1 
  462000    1.0861548   -7.5125926    135.21529  0.024389482  0.025122171            1 
  463000    1.0959474   -7.5635974    135.24965   0.02434299  0.025101188            3 
  464000    1.0735277   -7.6071079    135.44673  0.024325921  0.025079889            4 
  465000    1.0605575   -7.5925718    135.39743  0.024264772  0.025058585            2 
  466000    1.0700041   -7.5909691    135.88855  0.024300527  0.025037261            3 
  467000    1.0528742   -7.5851762    135.83668  0.024239236  0.025015684            8 
  468000    1.0717074   -7.6168318    135.57291  0.024140475  0.024994055            2 
  469000    1.0600244   -7.6148413    136.37629  0.024231751  0.024972714            2 
  470000      1.05334   -7.6566654    136.19391  0.024147857  0.024951688            4 
  471000    1.0811153   -7.5829373    136.61578  0.024171228  0.024930694            7 
  472000    1.0587774   -7.5996207    137.03856  0.024194661  0.024910253            5 
  473000    1.0632148   -7.6223232    136.94102  0.024126325  0.024889722            3 
  474000    1.0711786   -7.5833777    137.51534  0.024176395  0.024868883            1 
  475000    1.0685641   -7.5657795    138.02585  0.024215062  0.024848496            4 
  476000    1.0715445    -7.597953    137.99864  0.024159427  0.024827793            4 
  477000    1.0679394   -7.5674248    137.71879  0.024059887  0.024807115            2 
  478000    1.0639564   -7.6291671    138.04208  0.024065914  0.024786327            3 
  479000    1.0659221   -7.6242917    138.13447  0.024031745  0.024765405            2 
  480000    1.0546504   -7.5988527    138.03131  0.023963768  0.024744302            2 
  481000    1.0630903   -7.6303882    138.17501  0.023938845  0.024723219            1 
  482000    1.0429861    -7.612774    138.82435  0.024001444  0.024702249            2 
  483000    1.0649502   -7.6276179     138.7958  0.023946825  0.024681827            2 
  484000     1.078948   -7.6081697    139.80435  0.024070997  0.024661162            3 
  485000    1.0415825   -7.5845485    139.81007  0.024022348  0.024640852            1 
  486000    1.0593738   -7.6064844     140.2562  0.024049417  0.024620562            2 
  487000    1.0884106   -7.6430722     139.6637  0.023898649  0.024600248            1 
  488000    1.0537606   -7.6558927    139.64982  0.023847305  0.024579568            1 
  489000    1.0542549   -7.5880508    140.30664  0.023910471  0.024558947            2 
  490000    1.0526299   -7.6177658    140.73656   0.02393479  0.024538537            3 
  491000    1.0592456   -7.6605107    141.09786  0.023947362  0.024518168            2 
  492000    1.0615955   -7.6182474    141.05454  0.023891352  0.024497957            1 
  493000    1.0525114   -7.6223584    141.11133   0.02385249  0.024477453            3 
  494000    1.0512067   -7.6646661    140.38403  0.023681517   0.02445672            1 
  495000    1.0641249   -7.6160663      141.355  0.023797138  0.024436163            2 
  496000    1.0551166   -7.6106275    141.49948  0.023773435  0.024415456            3 
  497000    1.0723966   -7.6439688    141.89045  0.023791155  0.024395197            2 
  498000    1.0408487    -7.647508    141.85067  0.023736725  0.024375083            3 
  499000    1.0457512   -7.6443726    141.89943  0.023697299  0.024355024            3 
  500000    1.0370587   -7.6371858    142.41934  0.023736557  0.024335254            1 
  501000    1.0516838   -7.6254958    142.33682  0.023675452  0.024315103            2 
  502000    1.0699279   -7.6311331    142.92609  0.023726111  0.024294935            4 
  503000    1.0638524   -7.6967869    142.30371   0.02357583  0.024274811            3 
  504000    1.0304073   -7.6318584    143.18601  0.023674935  0.024254465            2 
  505000    1.0377766   -7.6521397    143.31954  0.023650088  0.024234366            2 
  506000    1.0649231   -7.6489859    143.13463  0.023572896  0.024214112            2 
  507000    1.0475478    -7.700645    143.72566  0.023623548  0.024194239            1 
  508000    1.0522676    -7.652055    143.48871  0.023538174  0.024174356            6 
  509000    1.0606529   -7.6363582    144.34895  0.023632768  0.024154518            2 
  510000    1.0665796   -7.6202564    144.41439  0.023597122  0.024134688            1 
  511000    1.0737773   -7.6737275     144.1072  0.023500848  0.024114593            4 
  512000    1.0544861   -7.6631147    143.87711  0.023417498  0.024094265            1 
  513000     1.060464   -7.6680437    144.71064  0.023507252  0.024073691            4 
  514000    1.0512287   -7.6656275    144.85321  0.023484632  0.024053907            5 
  515000    1.0498895   -7.6568278    144.68651  0.023412056  0.024033809            2 
  516000    1.0517587   -7.6760608    145.11986   0.02343667   0.02401327            3 
  517000    1.0463216   -7.6815211    145.18475  0.023401798  0.023992792            4 
  518000    1.0688856   -7.6916614    145.49937  0.023407235  0.023972808            1 
  519000    1.0565506   -7.6372069    145.89719   0.02342601    0.0239533            2 
  520000    1.0305315   -7.6183609    146.41365  0.023463726  0.023933881            3 
  521000    1.0440351   -7.6597331    146.26792  0.023395381  0.023914747            1 
  522000    1.0559829   -7.6772439    146.24914  0.023347564  0.023895598            2 
  523000    1.0355784   -7.6825966     146.3259  0.023315154  0.023876272            2 
  524000    1.0416419   -7.6646395    146.49625   0.02329775  0.023856852            1 
  525000    1.0512006   -7.6675374    147.65884  0.023437912  0.023837921            5 
  526000    1.0514468   -7.6799859    146.99629  0.023288385  0.023818967            4 
  527000    1.0395844   -7.6579873    147.10043  0.023260663  0.023799702            1 
  528000    1.0497491   -7.7010971    147.59549  0.023294743  0.023780581            5 
  529000    1.0524362    -7.662514    148.14172  0.023336756  0.023761587            1 
  530000    1.0495169    -7.688279    147.72958  0.023227921  0.023742073            2 
  531000     1.003141   -7.6494419     148.2858  0.023271469  0.023722752            2 
  532000    1.0280022   -7.6947141    148.13235  0.023203689   0.02370401            1 
  533000    1.0568884   -7.6574397    148.92841  0.023284617  0.023685129            2 
  534000     1.048691   -7.6725106    148.42425  0.023162337  0.023666001            4 
  535000    1.0345942   -7.6606305    148.96085  0.023202625  0.023646824            3 
  536000    1.0501115   -7.6623899    149.17317  0.023192346  0.023627686            4 
  537000    1.0285198   -7.7128152    148.79428   0.02309036  0.023608713            2 
  538000    1.0293717   -7.6750547    149.19646  0.023109736  0.023590009            3 
  539000    1.0505549   -7.6342619    149.84564  0.023167229  0.023571391            2 
  540000    1.0285957   -7.6465103    150.27805  0.023191058  0.023552684            2 
  541000    1.0406779   -7.6952188    150.29083  0.023150159  0.023534406            2 
  542000    1.0196882   -7.6637285     150.0373  0.023068466  0.023516046            1 
  543000    1.0433217   -7.6575246     150.5097   0.02309848  0.023497844            3 
  544000    1.0262948   -7.6614391    150.39765  0.023038856  0.023479312            1 
  545000    1.0292756   -7.6987463    150.55822  0.023021134  0.023461068            4 
  546000    1.0340075   -7.6793916    151.11989  0.023064696  0.023442567            1 
  547000    1.0307365   -7.6749147    150.99796  0.023003955  0.023424251            1 
  548000    1.0651459    -7.709494    151.13187  0.022982341  0.023405713            2 
  549000    1.0543601   -7.6752003    151.23939  0.022956798  0.023387015            4 
  550000    1.0040124   -7.6957803    151.70418  0.022985482  0.023368036            2 
  551000    1.0351739   -7.7045566    151.27368  0.022878657  0.023349319            1 
  552000     1.035962   -7.6431323    152.10341  0.022962471   0.02333064            2 
  553000    1.0231521   -7.6689648    151.58664  0.022843075  0.023311799            2 
  554000      1.03272   -7.6554648    152.10744   0.02288018  0.023292854            3 
  555000    1.0339418   -7.7069776    152.21636  0.022855309  0.023273765            2 
  556000    1.0441583   -7.7234645    151.83591  0.022757181   0.02325448            4 
  557000    1.0268151   -7.6770078    152.38051  0.022797803  0.023235597            3 
  558000    1.0190043    -7.695418    152.07856  0.022711852  0.023216773            3 
  559000    1.0291481   -7.7213772    152.50554  0.022734875  0.023197901            6 
  560000    1.0357011   -7.7339788    153.35627  0.022820874  0.023179422           14 
  561000    1.0244225   -7.7101058     153.2869   0.02276989  0.023161068            1 
  562000    1.0260489   -7.6843671    153.80808  0.022806655  0.023142859            3 
  563000    1.0291776   -7.6893365    154.29348  0.022837992    0.0231252            2 
  564000    1.0315833   -7.7070949    153.93555  0.022744614  0.023107635            4 
  565000    1.0259637   -7.7116504    154.33989  0.022763996  0.023089894            3 
  566000    1.0255189   -7.7038628    154.96517  0.022815837  0.023072254            2 
  567000    1.0315611   -7.7250896    154.68251  0.022734054  0.023054394            4 
  568000    1.0167358    -7.752868    154.32513  0.022641597  0.023036171            3 
  569000     1.018844   -7.7365254    155.37436  0.022755472  0.023018401            3 
  570000    1.0304167   -7.7012695     155.1566  0.022683713  0.023000628            2 
  571000    1.0515293   -7.6684511    155.36827  0.022674879  0.022982976            1 
  572000    1.0105328   -7.6873978     155.3018  0.022625554  0.022965018            2 
  573000    1.0368149   -7.6624348    155.66782  0.022639299  0.022947238            4 
  574000    1.0161271   -7.7186733    155.43319  0.022565794  0.022929517            2 
  575000    1.0261573   -7.6372046     156.1493  0.022630333    0.0229116            2 
  576000    1.0139042   -7.6997463     155.8972  0.022554571  0.022893744            1 
  577000   0.99384654   -7.7214891    156.06203  0.022539288  0.022875582            2 
  578000    1.0071036   -7.6650361    156.34935  0.022541717  0.022857737            5 
  579000    1.0292404   -7.6691544    156.46518  0.022519456  0.022839528            9 
  580000    1.0410272   -7.7204717    156.37778  0.022468072  0.022821579            2 
  581000    1.0312578   -7.7139498    156.95992  0.022512897  0.022803781            2 
  582000    1.0357299    -7.712774    157.15729  0.022502476  0.022785978            1 
  583000    1.0218757   -7.7048826    157.38656   0.02249665  0.022768344            3 
  584000    1.0223935   -7.7193039    157.41114  0.022461636  0.022750736            4 
  585000    1.0257349   -7.7472184      157.282  0.022404843  0.022733008            3 
  586000    1.0264039   -7.7626846    157.36789  0.022378824  0.022715389            1 
  587000    1.0103785   -7.6975352    157.98598  0.022428446  0.022697795            3 
  588000    1.0221552   -7.7195881    158.29781  0.022434497  0.022680758            2 
  589000    1.0144233   -7.7352972    158.57677  0.022435876   0.02266318            4 
  590000    1.0089311   -7.7381741    158.42367  0.022376225  0.022645932            3 
  591000    1.0155447   -7.7114043    158.90248  0.022405877  0.022628935            3 
  592000    1.0013865   -7.6977899    159.26621   0.02241923  0.022612149            3 
  593000    1.0269726   -7.7112715    158.67614  0.022298502  0.022595114            2 
  594000    1.0183782   -7.7182898    159.43021  0.022366752   0.02257799            2 
  595000    1.0223953   -7.7412814    159.12121  0.022285883  0.022560758            1 
  596000     1.031587     -7.75082    159.35604  0.022281325  0.022543417            1 
  597000    1.0287688   -7.6952668    159.64527  0.022284376  0.022526134            2 
  598000    1.0053761   -7.7133742    159.96301  0.022291389  0.022508819            2 
  599000     1.013331   -7.7123964    160.12758   0.02227707  0.022491676            2 
  600000    1.0223365   -7.7540264    160.11375   0.02223802  0.022474365            2 
  601000    1.0067516   -7.7365419    160.49826  0.022254335  0.022457363            3 
  602000     1.013172    -7.746338    160.01604  0.022150615  0.022440318            3 
  603000    1.0272062   -7.7304324    160.65743   0.02220252  0.022423221            2 
  604000    1.0305872   -7.7260409     161.0779  0.022223772  0.022406431            3 
  605000    1.0146577    -7.764596    160.89857  0.022162337  0.022389288            2 
  606000   0.98012629   -7.7550136    160.85231  0.022119404   0.02237228            1 
  607000     1.001575   -7.7713114    161.30565  0.022145202  0.022355145            2 
  608000   0.98802156   -7.7633192    161.03578   0.02207179  0.022338143            3 
  609000    1.0060837   -7.7702396    161.38711  0.022083623  0.022321241            2 
  610000    1.0296212   -7.7293608    161.90102  0.022117626  0.022304319            3 
  611000    1.0115469   -7.7870279    162.03926  0.022100281  0.022287852           10 
  612000     1.011441   -7.7472905    162.02234  0.022061865  0.022271315            3 
  613000    1.0095297   -7.7704761    162.59572  0.022103823  0.022254814            3 
  614000   0.98222221   -7.7737724    162.57199  0.022064603  0.022238483            2 
  615000   0.99855483    -7.731379    163.02752   0.02209045   0.02222178            2 
  616000   0.98704219   -7.6858062    162.85348  0.022031045  0.022205442            1 
  617000   0.99938921   -7.7736674    162.42968  0.021938098  0.022188784            2 
  618000    1.0270351    -7.775033    162.77776  0.021949537  0.022171566            3 
  619000    1.0076451   -7.7768406    163.22397  0.021974148  0.022154606            5 
  620000    1.0286432   -7.7388784    163.09844  0.021921833  0.022138174            1 
  621000    0.9996821   -7.7262097    163.74738  0.021973616  0.022121555            4 
  622000   0.99215315   -7.7690444    163.40557  0.021892493  0.022104813            1 
  623000    1.0041296   -7.7401691    164.17798  0.021960671  0.022088117            5 
  624000    1.0064699   -7.7959652    163.81571  0.021877098  0.022071293            2 
  625000    1.0119015   -7.7773963    164.46476  0.021928634  0.022054648            4 
  626000     1.011333   -7.7510425    164.72333  0.021928026  0.022038263            3 
  627000    1.0108278   -7.7678713    164.66838  0.021885749  0.022021988            2 
  628000     0.992121   -7.7482681    164.53138   0.02183272  0.022005564            2 
  629000    1.0128684    -7.770861    164.76235  0.021828611  0.021989227            4 
  630000   0.99397144   -7.7527235    165.04417   0.02183124  0.021972811            1 
  631000     1.004094   -7.7466733    165.23666  0.021822062  0.021956024            3 
  632000   0.99896274   -7.7741291    165.22237   0.02178565  0.021939148            2 
  633000   0.99704757   -7.7444724    165.90921  0.021841655  0.021922301            3 
  634000    1.0118591   -7.7421653    165.11401  0.021702683  0.021905659            1 
  635000    1.0015629   -7.7781057    165.18052  0.021677233  0.021888786            3 
  636000    1.0212189   -7.8012408     165.4751  0.021681748  0.021871963            3 
  637000    1.0073616   -7.7760233    165.28648  0.021623034  0.021855031           12 
  638000    1.0021538   -7.7565034    165.82147  0.021659022  0.021838586            1 
  639000   0.99085904   -7.8115572    165.99519  0.021647781   0.02182174            4 
  640000   0.99089554     -7.74101     166.2857  0.021651784  0.021804889            5 
  641000    1.0084342   -7.7715572    166.15836   0.02160145  0.021788363            2 
  642000     1.003696   -7.7983106    166.55813  0.021619694  0.021771258            2 
  643000   0.99310914   -7.7854741    166.21301  0.021541344  0.021754319            5 
  644000   0.98683836   -7.8172701    166.53244  0.021549228  0.021737348            3 
  645000    1.0000067   -7.8058548    166.93136  0.021567359   0.02172077            3 
  646000   0.99138824   -7.8002233    166.16391  0.021434972  0.021703732            5 
  647000     1.009901   -7.8397943    166.55999  0.021452858  0.021686559            3 
  648000   0.96858746   -7.8362899    167.14033  0.021494384  0.021669474            2 
  649000   0.99633547   -7.7971773    167.12797  0.021459678  0.021652402            2 
  650000    1.0023912   -7.7686848    168.26794  0.021572813  0.021635783            2 
  651000   0.98871292   -7.7529287    167.85321  0.021486586  0.021619332            2 
  652000   0.99642424   -7.7717938    167.61297  0.021422926  0.021602718            2 
  653000   0.99995227   -7.8104486    168.21465  0.021466902  0.021585847            5 
  654000   0.98113709   -7.8162567    167.79015  0.021379988  0.021569195            4 
  655000   0.97315598   -7.7851535    168.03044  0.021377918  0.021552655            3 
  656000     0.995979   -7.7837817    168.32841  0.021383182  0.021536196            4 
  657000   0.98701362   -7.8161182    168.13445  0.021326034  0.021519812            2 
  658000   0.99553911   -7.8499038    168.19931  0.021301838  0.021503233            3 
  659000   0.98359973   -7.7937108    169.30604  0.021409464   0.02148667            3 
  660000   0.97590973    -7.809625    169.03019  0.021342195  0.021470282            2 
  661000   0.97320874   -7.7873061    169.00318  0.021306503  0.021453769            2 
  662000   0.99053237   -7.8265523    169.16886  0.021295174  0.021437214            8 
  663000   0.97361758   -7.8359209    169.47549  0.021301595  0.021420575            2 
  664000   0.96627388   -7.8165928    169.30504  0.021248123  0.021404186            2 
  665000   0.98454729   -7.8078838    170.22575  0.021331547   0.02138797            3 
  666000   0.99063178   -7.8292501    169.97233  0.021267809  0.021372054            2 
  667000   0.97612347   -7.7899791    170.26811  0.021272878  0.021355922            2 
  668000   0.99323627   -7.7726793    170.48427  0.021267997  0.021339979            3 
  669000   0.97053215   -7.8086891    170.31829  0.021215532  0.021323901            3 
  670000   0.97540082   -7.8185167    170.92666  0.021259535   0.02130782            2 
  671000   0.98772239   -7.8155892    170.90424  0.021225067  0.021291906            3 
  672000   0.99087064    -7.790904    170.93645  0.021197476  0.021276112            1 
  673000   0.97015075   -7.8138348    171.19998   0.02119861  0.021260447            1 
  674000   0.97307332   -7.7620261    171.60879  0.021217703  0.021244989            3 
  675000   0.99536536   -7.8124094    172.00306  0.021234946  0.021229419            2 
  676000   0.97795234   -7.8014003    171.84094  0.021183548  0.021213608            2 
  677000     1.006308   -7.8739203     171.4767  0.021107422  0.021197615            4 
  678000   0.97840704   -7.8612221     171.1947   0.02104163  0.021181641            4 
  679000   0.98544006   -7.8391833    172.47408  0.021167659  0.021165692            2 
  680000    1.0079253   -7.8636491    172.32118  0.021117791  0.021149806            4 
  681000   0.98944636    -7.817847    171.93123  0.021039064  0.021133998            2 
  682000   0.98807962   -7.8279229    172.64926  0.021095951  0.021118355            3 
  683000   0.99236873   -7.8358681    172.55736   0.02105385  0.021102789            2 
  684000    1.0015682   -7.8645564    173.03552  0.021081326   0.02108724            7 
  685000   0.98759492   -7.8252761    173.10567  0.021059084  0.021071531            5 
  686000    0.9822055   -7.8206117    173.20829  0.021040851  0.021055869            2 
  687000   0.97933657   -7.8159639    173.50234  0.021045892  0.021040492            1 
  688000    1.0169606   -7.8432551    173.23928   0.02098344  0.021025108            2 
  689000   0.96519342   -7.8610249    173.59915   0.02099651  0.021009666            3 
  690000    0.9795317    -7.817968     173.6734  0.020975049  0.020994196            6 
  691000   0.98852421   -7.8260312    173.58896   0.02093451  0.020978467            3 
  692000   0.95394388   -7.8360608    173.82804  0.020933049  0.020962695            4 
  693000   0.97105517   -7.8442883    174.05205   0.02092978  0.020947072            2 
  694000   0.96731116   -7.8094912    174.16362  0.020913019  0.020931382            2 
  695000   0.98180317   -7.8372936    174.05311  0.020869677  0.020915699            2 
  696000   0.98164651   -7.8650491     173.9575  0.020828245  0.020899754            4 
  697000   0.98894572   -7.8490791     174.5132  0.020864801  0.020883947            2 
  698000   0.96756403   -7.8463336    174.31062  0.020810724  0.020868187            3 
  699000    0.9689966   -7.8161343     174.6427  0.020820541  0.020852615            4 
  700000   0.97687265   -7.8382193    174.68945  0.020796363  0.020837171            2 
  701000   0.97731067   -7.8129965    175.36367  0.020846846  0.020821694            3 
  702000   0.96902735   -7.8577503    175.44451  0.020826747  0.020806141            2 
  703000   0.96093057   -7.8414287    175.37575   0.02078897  0.020790572            8 
  704000   0.98103148   -7.8623025    175.27005  0.020746929  0.020775017            5 
  705000   0.99461467    -7.878526    175.38589  0.020731193  0.020759511            4 
  706000   0.95673023   -7.8245936    176.25221  0.020804085  0.020744374            2 
  707000   0.97046783   -7.8874207    175.65308   0.02070404  0.020729133            1 
  708000   0.94988625   -7.8261574    176.85951  0.020816797  0.020713914            4 
  709000   0.96895249   -7.8895119    176.21894  0.020712146  0.020698811            4 
  710000   0.97084049   -7.8700143    176.73046  0.020743011   0.02068368            3 
  711000   0.96462134    -7.865316    176.51377   0.02068844  0.020668823            5 
  712000   0.95622698   -7.8826815    176.24109  0.020627469  0.020653576            1 
  713000   0.97402469    -7.846065    177.06542  0.020694884  0.020638503            2 
  714000   0.95276897    -7.810874    177.15324  0.020676149  0.020623479            1 
  715000    0.9578601   -7.8722036    176.88096  0.020615497  0.020608395            3 
  716000   0.96016976    -7.875946    176.69329  0.020564862  0.020592991            2 
  717000   0.98474643   -7.8478184    177.54888  0.020635621  0.020577666            3 
  718000   0.96559727    -7.863145    177.65215  0.020618866  0.020562555            2 
  719000   0.96757365   -7.8076013    178.03927  0.020635057  0.020547424            2 
  720000   0.96581675   -7.8545059    177.64684  0.020560976  0.020532313            3 
  721000   0.95631606   -7.8589499    177.32312  0.020495043  0.020517099            3 
  722000    0.9672033   -7.9040089    177.68289  0.020508182  0.020501826            3 
  723000   0.95018468   -7.8339032     178.3075  0.020551809  0.020486546            3 
  724000   0.96521305   -7.8777682    177.60422  0.020442475  0.020471109            4 
  725000   0.97156837   -7.8784384    177.74183  0.020430096  0.020455567            1 
  726000   0.96883812   -7.8824332    177.62471  0.020388512  0.020439799            1 
  727000   0.96775914   -7.8398775    178.14422  0.020420016  0.020424156            8 
  728000   0.97756861   -7.8847659     178.2507  0.020404155  0.020408363            1 
  729000   0.96202958   -7.9054917    178.19431   0.02036972  0.020392692            3 
  730000   0.96742654   -7.8816011    177.73956  0.020289905  0.020377018            4 
  731000   0.95303159   -7.8788717    178.37829  0.020334962  0.020361156            1 
  732000   0.94145878   -7.8870968    178.95407  0.020372731  0.020345429            2 
  733000   0.97184975    -7.854644    179.07285  0.020358441  0.020329939            2 
  734000   0.96585301   -7.8808613    178.67445  0.020285473  0.020314483            8 
  735000   0.95665095   -7.8946689    178.98153   0.02029269   0.02029908            4 
  736000    0.9487664   -7.8893437    179.13782  0.020282814  0.020283576            4 
  737000   0.96698264   -7.9208891    179.01515  0.020241424  0.020267907            1 
  738000   0.95224062   -7.8647806     179.4317  0.020261032  0.020252409            2 
  739000   0.94425473   -7.9110925    179.77599   0.02027244  0.020236814            1 
  740000   0.97231626   -7.8819516    180.06311  0.020277377  0.020221355            4 
  741000    0.9727869   -7.8856656    180.06181  0.020249866  0.020206087            6 
  742000   0.94032022   -7.8948096    180.26299  0.020245169  0.020190729            2 
  743000   0.96464953   -7.8888029    180.45423  0.020239371  0.020175379            2 
  744000   0.95136124   -7.8984757    180.50876  0.020218275  0.020160229            3 
  745000   0.95250628   -7.9187917    180.79449  0.020223097  0.020145048            4 
  746000   0.92251108    -7.910537     180.4337  0.020155686  0.020129988            2 
  747000   0.93968149   -7.8879171    180.42502  0.020127735  0.020114547            1 
  748000   0.93104756   -7.9381398    180.56629  0.020116565  0.020099198            2 
  749000   0.95028921   -7.8960966    180.62236  0.020095946  0.020083855            6 
  750000    0.9676618   -7.8988261    181.12101  0.020124557   0.02006862            4 
  751000   0.94226191   -7.8852315    181.46013  0.020135389  0.020053381            5 
  752000   0.93617876    -7.921723    181.10846  0.020069643  0.020037961            2 
  753000   0.93957469   -7.9104808    180.73764  0.020001953  0.020022436            2 
  754000   0.98051038   -7.8905689    181.07185  0.020012361  0.020007019            3 
  755000   0.94226644   -7.9249058    180.97368   0.01997502  0.019991588            3 
  756000   0.94592573   -7.9257056    180.95113  0.019946112  0.019976188            2 
  757000   0.95398096   -7.9021531    181.59932  0.019991118  0.019960633            4 
  758000   0.93892693   -7.9134062     181.4937  0.019953133  0.019945176            5 
  759000   0.95101725   -7.9243431    181.82304  0.019963004   0.01992985            4 
  760000   0.93365309   -7.8823353    182.10656  0.019967824  0.019914561            4 
  761000   0.92999595   -7.9117742    181.78698   0.01990659  0.019899078            5 
  762000   0.94191707     -7.92419    182.14079  0.019919159   0.01988381            2 
  763000   0.95679708   -7.9068383    182.51166  0.019933558  0.019868674            6 
  764000   0.93402165    -7.885111    182.53986  0.019910543  0.019853617            5 
  765000   0.95430757   -7.9263365    182.56566  0.019887327  0.019838504            5 
  766000   0.94115232   -7.9523283    182.45453  0.019849275  0.019823296            3 
  767000   0.93154005   -7.9199464    182.97692  0.019880152  0.019808075            2 
  768000   0.96376468   -7.9156067    183.13854  0.019871803  0.019792889            2 
  769000   0.95093483   -7.9212974     182.6357  0.019791471  0.019777957            2 
  770000    0.9386588   -7.9027518    183.18804  0.019825545  0.019762923            2 
  771000   0.94902349   -7.9629778    182.99366  0.019778822  0.019747792            3 
  772000   0.94312269   -7.9555847      183.306  0.019786917  0.019732521            3 
  773000   0.93138133   -7.9058215    182.92618  0.019720373  0.019717339            1 
  774000     0.945347   -7.9627992    182.69821  0.019670349  0.019702042            2 
  775000   0.93620405   -7.9069236    183.78083   0.01976138  0.019686719            2 
  776000   0.97836815   -7.8861691    183.40763  0.019695837  0.019671447            6 
  777000   0.94608933   -7.9018008    183.59887  0.019690999  0.019656131            2 
  778000   0.93028094   -7.9302038    183.65558  0.019671763  0.019640823            3 
  779000    0.9417187   -7.8942725    183.49527  0.019629362   0.01962567            4 
  780000    0.9399493   -7.9129336    183.65325  0.019621073  0.019610523            3 
  781000   0.94323611   -7.8993114     184.0368  0.019636876  0.019595219            1 
  782000   0.97576204   -7.9352702    183.98464  0.019606206  0.019579911            1 
  783000   0.95895357   -7.9071365    184.22647  0.019606904  0.019564438            3 
  784000   0.94409011   -7.9712554    184.06531  0.019564765  0.019548991            3 
  785000   0.93114617   -7.9202452    183.99504  0.019532383  0.019533386            2 
  786000    0.9553438   -7.9404913    183.89721  0.019497159  0.019517968            3 
  787000   0.93439839   -7.9397432    184.71616  0.019559102   0.01950256            2 
  788000   0.95042398   -7.9817718    184.60983  0.019523036  0.019487192            2 
  789000   0.95549033   -7.9318441    184.81963  0.019520451  0.019471826            4 
  790000   0.94712401   -7.9583233    184.79967  0.019493636  0.019456329            5 
  791000   0.93539877    -7.940883    184.91326  0.019480959   0.01944082            1 
  792000   0.94383088   -7.9822234    185.02833  0.019468469  0.019425469            3 
  793000   0.93959954   -7.9510363    185.31347  0.019473883  0.019410292            2 
  794000   0.92497368   -8.0024959    184.91037   0.01940705  0.019395059            4 
  795000   0.94373066   -7.9381463    184.85065  0.019376378  0.019379716            4 
  796000   0.93213947   -7.9542781    185.63634   0.01943429  0.019364374            2 
  797000   0.94231463   -7.9603159    185.09633  0.019353443  0.019348954            4 
  798000   0.93738951   -7.9833645    185.21794   0.01934189   0.01933342            3 
  799000   0.93135142   -7.9616778    185.51686  0.019348858  0.019318021            2 
  800000   0.93076225    -7.913797    186.02392  0.019377491  0.019302895            5 
  801000   0.94154301   -7.9775346    185.97805  0.019348528  0.019287886            3 
  802000   0.94729966   -7.9894819    185.65354  0.019290684  0.019272658            6 
  803000   0.90989034   -7.9893044    185.77968  0.019279751   0.01925738            6 
  804000   0.92823003   -7.9948548    185.58686  0.019235786  0.019242109            3 
  805000   0.92701578   -8.0109438     186.5602   0.01931265  0.019226661            6 
  806000   0.92437949   -7.9897888    185.81755  0.019211906  0.019211342            5 
  807000   0.93064944   -7.9428175    186.23956  0.019231677  0.019196044            3 
  808000     0.911012   -7.9810007    186.34964  0.019219228  0.019180715            3 
  809000   0.94488299   -7.9709743    186.42844  0.019203588  0.019165486            4 
  810000   0.92582227   -7.9853625    186.13848  0.019150049  0.019150159            4 
  811000   0.93366384   -7.9645081    186.94039  0.019208836  0.019134875            3 
  812000   0.93826208   -7.9500215    186.81983  0.019172807  0.019119598            2 
  813000   0.95090699   -7.9314383    187.27456  0.019195834   0.01910461            2 
  814000    0.9271714   -7.9617818    186.91375  0.019135315  0.019089641            3 
  815000   0.92992835   -7.9804628    186.95771   0.01911633  0.019074437            3 
  816000   0.92420293   -7.9970107    187.52943   0.01915129  0.019059441            4 
  817000   0.94859123    -7.948493    187.69284  0.019144516  0.019044446            4 
  818000   0.93616217   -7.9624308    187.48991  0.019100439  0.019029503           20 
  819000    0.9266244   -8.0027166    187.44889  0.019072944    0.0190144            1 
  820000   0.94218971   -7.9763661    187.52091  0.019057003  0.018999152            3 
  821000   0.93550971   -7.9957271    187.41455  0.019022995  0.018983977            3 
  822000   0.92791987   -7.9839432    187.59377  0.019018022  0.018968698            3 
  823000    0.9017699   -8.0093886    187.68339  0.019003989  0.018953452            9 
  824000   0.92749166   -8.0022253    187.91867   0.01900472  0.018938251            2 
  825000   0.92354584     -8.00202    187.83324  0.018973055   0.01892306            2 
  826000   0.91532072   -7.9876045    188.15055  0.018982098  0.018907883            3 
  827000   0.92253621    -7.995181    188.09905  0.018953955  0.018892665            2 
  828000   0.91247385   -7.9698078    188.45693  0.018967082  0.018877421            5 
  829000   0.92613561   -8.0140525    188.07601  0.018905912  0.018862073            2 
  830000   0.90877521   -8.0100216    188.13155  0.018888709  0.018846802            7 
  831000   0.93552623   -8.0528307    188.13784   0.01886661  0.018831421            4 
  832000   0.92236322   -7.9948875    188.21969  0.018852133  0.018816025            4 
  833000   0.92074588   -7.9871647    188.67607  0.018875157   0.01880094            5 
  834000   0.91016463   -7.9891104    188.81135  0.018866042  0.018785874            3 
  835000   0.92213586   -7.9668559    189.26039  0.018888263  0.018770818            5 
  836000   0.92101837   -8.0184106    189.43134   0.01888271  0.018755725            8 
  837000   0.91483612   -8.0132536    189.57388  0.018874341   0.01874058            4 
  838000   0.91603308   -7.9925002    189.20106  0.018814743  0.018725451            3 
  839000   0.92063812   -7.9895456     188.7395  0.018746474  0.018710381            4 
  840000   0.89648682   -8.0046911    188.78897  0.018729064  0.018695167            6 
  841000   0.89399909   -8.0626144    188.52881  0.018681016  0.018679801            8 
  842000   0.93343282   -8.0165824    188.96745  0.018702241  0.018664296            5 
  843000   0.91865885   -8.0126967    188.79495  0.018663004  0.018649007            6 
  844000   0.92925542   -8.0318847    189.23256  0.018684099  0.018633749            3 
  845000   0.91332115   -8.0260812     188.9997  0.018639024  0.018618645            3 
  846000   0.90700517   -7.9917843    189.65704  0.018681742  0.018603604            2 
  847000   0.93012935   -8.0230785    189.54246  0.018648412  0.018588501            5 
  848000   0.92065282    -7.993233    190.00583  0.018671957  0.018573405            6 
  849000   0.91740039   -7.9897481    189.68835  0.018618801  0.018558329            2 
  850000   0.89706855   -7.9993142    189.48807  0.018577262  0.018543035            3 
  851000   0.93916068   -7.9991335    189.77059  0.018583097  0.018527894            2 
  852000   0.91215501   -7.9999459    190.32811  0.018615816  0.018512961           13 
  853000   0.92163504   -7.9990008    190.37295  0.018598373   0.01849793            1 
  854000    0.9179315   -8.0018648    190.07214  0.018547242  0.018482846            6 
  855000   0.89072529   -8.0301804    189.81287   0.01850028  0.018467745            3 
  856000     0.922417   -8.0009551    190.02755  0.018499567  0.018452517            2 
  857000   0.92372608   -8.0154216    190.49449  0.018523385  0.018437352            4 
  858000    0.9192458   -8.0146042    190.26805  0.018479802   0.01842213            1 
  859000   0.89849791   -8.0299715    190.01029  0.018433284  0.018406907            3 
  860000   0.92004909   -8.0335049    189.90991  0.018402123  0.018391607            4 
  861000   0.89279602   -8.0233452    190.10185  0.018399327  0.018376329            3 
  862000   0.92172364   -8.0170181    190.76854  0.018442434  0.018361015            1 
  863000   0.90090089   -8.0292468    190.41679  0.018387099  0.018345842            4 
  864000   0.88337334   -8.0272588    190.16301   0.01834134  0.018330396            3 
  865000   0.89204394    -8.017985    190.13635  0.018317567  0.018314907            3 
  866000   0.92341939   -8.0598306    189.79296  0.018263372  0.018299402            2 
  867000    0.9139299   -8.0624745    189.93213  0.018255684  0.018283829            2 
  868000     0.901254   -8.0321761    190.14063  0.018254668  0.018268226            4 
  869000      0.89794   -8.0013628     190.8067  0.018297535  0.018252671            4 
  870000   0.91731803   -8.0283633    190.79257   0.01827515  0.018237218            2 
  871000   0.92572524   -8.0247494    190.79626  0.018254521  0.018221734            2 
  872000   0.90675622   -8.0312531    190.70013  0.018224401  0.018206422            5 
  873000   0.90183375   -7.9797345    191.29802  0.018260597  0.018191126            5 
  874000   0.89750264    -7.998111    191.40913  0.018250299  0.018175948            5 
  875000   0.90679097    -8.031926    191.37407  0.018226102  0.018160617            4 
  876000   0.89577709   -8.0502028    190.99388  0.018169128  0.018145282            8 
  877000   0.90668999   -8.0050908    191.38886  0.018185942   0.01812993           10 
  878000   0.91257701   -8.0007503    191.13004  0.018140665  0.018114506            1 
  879000   0.92728633    -8.075903    190.64491  0.018074034   0.01809904            3 
  880000   0.90810963   -8.0098453    192.02924  0.018184587  0.018083629            5 
  881000   0.90800687   -8.0506999    191.42293  0.018106595  0.018068276            3 
  882000   0.91306357   -8.0311768    192.35903  0.018174511  0.018053044            5 
  883000   0.91450217   -8.1010275    191.55474  0.018078024  0.018037829            6 
  884000   0.90404476   -8.0632298    191.63832  0.018065452  0.018022639            3 
  885000   0.91654954   -8.0914227      191.473  0.018029473   0.01800743            7 
  886000   0.90117449   -8.0444497    191.92016  0.018051181  0.017992247            4 
  887000   0.91159264   -8.0820622    191.91989  0.018030806   0.01797719            4 
  888000   0.90021277   -8.0808775    192.07067   0.01802465  0.017961991            4 
  889000   0.89249164   -8.0845733      192.255  0.018021653  0.017946981            3 
  890000   0.90088664   -8.0510549    192.21133  0.017997315  0.017931863            9 
  891000   0.90535763   -8.0426199     192.5593  0.018009661  0.017916893            2 
  892000   0.88071458     -8.08549    192.41313  0.017975816  0.017901918            7 
  893000   0.88695714   -8.0730687    192.61424  0.017974454  0.017886856            7 
  894000    0.8893641   -8.0366001    192.94376  0.017985063  0.017871866            3 
  895000   0.91245927   -8.0428105    193.00268  0.017970454  0.017856933            2 
  896000   0.89418389   -8.0925609    192.35159  0.017889843  0.017841984            5 
  897000   0.90025845   -8.0724955     192.5786  0.017890989   0.01782702            3 
  898000   0.87397274   -8.0682866    193.09399  0.017918893  0.017812101            3 
  899000   0.90098664   -8.0465272    192.79525  0.017871269  0.017797227            3 
  900000   0.90517725   -8.0128995    194.30127  0.017990858  0.017782543            1 
  901000   0.89365179   -8.0890442    192.82878  0.017834701  0.017767829            7 
  902000   0.92347381   -8.0844756    193.92465  0.017916172  0.017753083            2 
  903000   0.90534113   -8.1059314     193.3995  0.017847868  0.017738304            3 
  904000   0.88653237   -8.0800695    194.04807  0.017887912  0.017723533            6 
  905000      0.89086   -8.0786355    193.44155  0.017812298  0.017708869            4 
  906000   0.89808374   -8.0797643    194.18987  0.017861467  0.017694177            3 
  907000   0.90098664   -8.0641498    193.92558  0.017817492  0.017679471            2 
  908000   0.88428788   -8.0600362     193.9593  0.017800964  0.017664881            8 
  909000   0.86906437   -8.0706203    194.40783    0.0178225  0.017650305            5 
  910000   0.90362593   -8.0508017    194.58577  0.017819209  0.017635849            2 
  911000   0.85713507    -8.098634    194.60398  0.017801316  0.017621316            3 
  912000   0.89747115   -8.0908649    194.72745  0.017793078  0.017606819            2 
  913000    0.9076659   -8.1284792    194.45702  0.017748907  0.017592345            8 
  914000   0.88115849   -8.0987618    194.89429  0.017769356  0.017577919            3 
  915000   0.89412397   -8.1052836    194.95592  0.017755549  0.017563579            5 
  916000   0.89001733   -8.0987907    195.01979  0.017741975  0.017549181            6 
  917000   0.90033589   -8.0892462    194.99702  0.017720558  0.017534798            4 
  918000   0.88101388   -8.0476154    195.22145  0.017721628   0.01752041            2 
  919000   0.89943993   -8.0693497    194.95073  0.017677796  0.017506071            6 
  920000   0.88463366   -8.0792251     195.3912  0.017698479  0.017491798            3 
  921000   0.88525269   -8.1203871    195.15593  0.017657974  0.017477512            7 
  922000   0.89478605   -8.0774824    195.32796  0.017654371  0.017463316            4 
  923000   0.86937056    -8.080145    195.80376  0.017678202  0.017449191            2 
  924000   0.88340759   -8.1025283    195.63304  0.017643673  0.017434979            5 
  925000   0.88107524   -8.1138739    195.74698  0.017634863  0.017420783            5 
  926000    0.8704475   -8.1091506    195.77731  0.017618548  0.017406559            5 
  927000   0.89635932   -8.1010093    195.26573  0.017553554  0.017392336            2 
  928000   0.89286703   -8.0910629    195.87738  0.017589564    0.0173781            9 
  929000   0.87563083   -8.1294941    195.22041  0.017511698  0.017363837            4 
  930000   0.88338175   -8.0877277    195.54637  0.017522076  0.017349493            9 
  931000   0.89366767   -8.0817995    195.84031  0.017529566  0.017335226            3 
  932000   0.87453107   -8.1206564    195.79207  0.017506444  0.017320958            4 
  933000   0.87768909   -8.0922806    195.39312  0.017452047  0.017306624            3 
  934000   0.87778452   -8.0852094    195.97744  0.017485496  0.017292374            4 
  935000   0.88906872   -8.1026935    196.20162  0.017486776  0.017278057            2 
  936000   0.89100327   -8.0876574    196.23462  0.017471031  0.017263806            3 
  937000   0.87821564   -8.1137516     196.6177  0.017486455  0.017249424            5 
  938000   0.87293174   -8.1324668    196.23804  0.017434083  0.017234946            2 
  939000   0.88835833   -8.1199828    196.05959  0.017399679  0.017220492            5 
  940000   0.86306394    -8.107673     196.1404  0.017388333   0.01720613            3 
  941000   0.88245368    -8.099576    196.23846  0.017378539  0.017191727            2 
  942000   0.86517762   -8.0779458    196.21912  0.017358379  0.017177454            2 
  943000   0.88716402   -8.1243453    196.42766  0.017358401  0.017163081            8 
  944000   0.86035523   -8.0955397    196.41483   0.01733888  0.017148737            1 
  945000   0.88888992   -8.1108503    196.55838  0.017333191   0.01713436            2 
  946000   0.85734443    -8.120416    196.13715  0.017277762  0.017119977            2 
  947000   0.84576154   -8.1466562    196.33431  0.017276866  0.017105639            3 
  948000   0.86059462   -8.0947984    196.15447  0.017242834  0.017091349            3 
  949000   0.86738922   -8.0952376    196.84416  0.017285227  0.017077122            3 
  950000    0.8719732   -8.1163816     197.1436  0.017293298  0.017062771            5 
  951000   0.87699141   -8.1266208    196.45631  0.017214889   0.01704842            4 
  952000   0.85755842   -8.1062634    196.31196   0.01718417  0.017034101            2 
  953000     0.865876   -8.1217404    196.86405  0.017214415  0.017019831            3 
  954000   0.87818513   -8.1366271    197.11204  0.017218033  0.017005586            2 
  955000   0.86149505   -8.1194098    197.07652  0.017196904  0.016991214            6 
  956000   0.88124062   -8.1089166    197.16365  0.017186511  0.016976957            6 
  957000   0.85753629   -8.1317465    196.84645  0.017140931  0.016962798            2 
  958000   0.86371177   -8.1226318    197.64289  0.017192319  0.016948702            8 
  959000   0.85759727   -8.1354327    197.15822  0.017132275  0.016934666            5 
  960000   0.88151356   -8.1122514    197.85335   0.01717477  0.016920605            9 
  961000   0.87862254     -8.13885    197.42368  0.017119639  0.016906614            7 
  962000   0.88485717   -8.1330039    197.88901  0.017142153  0.016892639            5 
  963000   0.85341842   -8.1381731    197.34689   0.01707744  0.016878643            3 
  964000    0.8643003   -8.1305114    198.03929  0.017119579   0.01686469            8 
  965000   0.85724089   -8.1311306    198.12147  0.017108935  0.016850729            2 
  966000   0.85577945   -8.1294332     197.6765  0.017052838  0.016836851            3 
  967000    0.8652585   -8.1527152    198.70706  0.017124014  0.016822971            2 
  968000   0.86368472   -8.1357659    198.01282  0.017046558  0.016809127            3 
  969000   0.85602937   -8.1613484    198.05038  0.017032197  0.016795208            6 
  970000   0.85500181   -8.1494265    198.73454  0.017073414  0.016781386            4 
  971000   0.85486058   -8.1532081    198.82858  0.017063902  0.016767573            8 
  972000   0.85257184   -8.1688598    198.45225  0.017014082  0.016753706            3 
  973000   0.86858337    -8.169011    198.56035  0.017005854  0.016739806            3 
  974000   0.87965475   -8.1718666    198.07552  0.016946913  0.016725873            7 
  975000   0.87262977   -8.1590022    198.30083  0.016948789   0.01671195            5 
  976000   0.86973002   -8.1777947     198.2178  0.016924334   0.01669805            6 
  977000   0.86626264    -8.134293    198.96779  0.016970982  0.016684202            3 
  978000   0.85829673   -8.1960345    198.11561  0.016881016  0.016670361            9 
  979000   0.86701088   -8.1774108    198.15833   0.01686741   0.01665627            4 
  980000   0.87703587   -8.1592269    198.87211  0.016910894  0.016642265            4 
  981000   0.87802185   -8.1582903    198.74838  0.016883145  0.016628261            5 
  982000   0.85699779   -8.2041773    198.44373  0.016840099  0.016614363            2 
  983000    0.8502605   -8.1433034    198.63167    0.0168389  0.016600396            3 
  984000   0.86668421   -8.1708597    198.47429  0.016808459  0.016586512            2 
  985000   0.87767387   -8.1549053    199.10141  0.016844451  0.016572582            6 
  986000   0.87575865   -8.2021272    198.78578  0.016800691  0.016558542            5 
  987000   0.86017709   -8.1764216    199.29303  0.016826497  0.016544647            2 
  988000   0.85106367   -8.1903013    198.76185  0.016764664   0.01653082            9 
  989000   0.86133033   -8.2139243    199.16384  0.016781584  0.016516913            3 
  990000   0.86635268   -8.1660072    199.52228  0.016794805  0.016503097            6 
  991000   0.86454319   -8.1806138    199.31414  0.016760355  0.016489383            1 
  992000   0.85750637   -8.1306726    200.06071  0.016806175   0.01647573            2 
  993000   0.84559351   -8.1582179    199.55448  0.016746768  0.016462116            2 
  994000   0.85401896   -8.1812931    199.16218   0.01669703  0.016448455            3 
  995000   0.85151968   -8.1626269    199.65486  0.016721513  0.016434716            5 
  996000    0.8640616    -8.166007     199.5894  0.016699247  0.016420935            2 
  997000   0.86779901   -8.1705026    199.17973  0.016648255    0.0164072            3 
  998000   0.83763097   -8.1711326    199.85161  0.016687676   0.01639363            4 
  999000   0.85677458    -8.167866    200.05258  0.016687736  0.016380148            2 
 1000000   0.86840652   -8.2005337     199.8076  0.016650633  0.016366468            3 
 1001000    0.8420997   -8.1477484    200.05965  0.016654983  0.016352788            4 
 1002000   0.85171322   -8.1707122    200.34201  0.016661844  0.016339122            3 
 1003000   0.85675294   -8.1598072    200.28439  0.016640444  0.016325569            6 
 1004000   0.87348464    -8.156664    200.02369  0.016602232  0.016311991            4 
 1005000   0.84686004   -8.2100141    199.93377  0.016578257  0.016298432            6 
 1006000   0.85974946   -8.1778637    200.58396  0.016615636  0.016284838            2 
 1007000   0.83987616   -8.1440253    200.63651  0.016603485  0.016271239            7 
 1008000    0.8524074   -8.1891778    200.55687  0.016580429   0.01625757            7 
 1009000    0.8527226   -8.1757232    199.83797  0.016504623  0.016244003            7 
 1010000   0.85945301   -8.1924054    200.49639  0.016542606  0.016230375            4 
 1011000     0.860954   -8.2052281    200.07758  0.016491723  0.016216787            5 
 1012000   0.85278514   -8.1988802    200.36466  0.016499066  0.016203111            5 
 1013000   0.83612358    -8.192862    200.39008   0.01648487  0.016189542            3 
 1014000   0.84039381   -8.1805995    200.56511  0.016482997  0.016176112            2 
 1015000   0.84581865   -8.2535148    199.84719  0.016407815  0.016162559            5 
 1016000    0.8312182   -8.1734483    200.68169  0.016460112  0.016149069            5 
 1017000   0.84227567   -8.2093636    200.42515  0.016422906  0.016135495            3 
 1018000   0.85036344   -8.2129729    200.73766  0.016432356  0.016121973            2 
 1019000   0.85429821   -8.2255263    200.51864  0.016398319   0.01610833            3 
 1020000    0.8499371   -8.2045896    200.82894  0.016407593  0.016094628            7 
 1021000   0.83829655    -8.204133    200.88605  0.016396185  0.016081071            3 
 1022000   0.86021584   -8.2342885    200.37599  0.016338551  0.016067344            4 
 1023000    0.8455884    -8.207861    200.72849  0.016351294  0.016053662            4 
 1024000   0.83942864   -8.2013298    200.85702  0.016345786  0.016040152            4 
 1025000   0.84170044   -8.1807193    200.77537  0.016323201  0.016026673            5 
 1026000    0.8251369    -8.199967    201.14254  0.016337113  0.016013072            7 
 1027000   0.86428265   -8.1862322     201.0293  0.016312017  0.015999507            3 
 1028000   0.85010972   -8.2028537    201.09514  0.016301486  0.015985885            7 
 1029000    0.8445158   -8.2140887    200.80622  0.016262247  0.015972184            9 
 1030000   0.86233506   -8.2098109    200.66094  0.016234704  0.015958513            4 
 1031000   0.83604973   -8.2251187    200.92078  0.016239959  0.015945003            4 
 1032000    0.8466806   -8.1943218    201.18574  0.016245618  0.015931461            5 
 1033000   0.83167706    -8.220343    201.00122  0.016215007  0.015917951            4 
 1034000   0.84971405    -8.246281    201.01436  0.016200384   0.01590446            2 
 1035000   0.84184732   -8.2483329    200.88581  0.016174381  0.015890884            6 
 1036000   0.84194196    -8.211553    201.21403   0.01618517  0.015877373            5 
 1037000   0.83478184   -8.2573466    200.98857  0.016151444  0.015863795            2 
 1038000    0.8315524   -8.2251276     200.6656  0.016109955  0.015850223            7 
 1039000   0.83452169   -8.2127203     201.6105  0.016170236  0.015836607            6 
 1040000   0.81997571   -8.2407162    201.18916  0.016120926  0.015822913            5 
 1041000   0.82928063   -8.2436299    201.10249  0.016098503  0.015809304            6 
 1042000   0.82948509   -8.2258601    201.27319  0.016096704  0.015795701            7 
 1043000   0.85152211   -8.2100107    201.47522  0.016097413  0.015782167            7 
 1044000   0.83733235   -8.2377843    201.56982  0.016089545  0.015768646            6 
 1045000   0.81072625   -8.2602002    200.79575  0.016012421  0.015755104            5 
 1046000   0.83831403   -8.2106363    201.30048  0.016037323  0.015741547            5 
 1047000   0.82636467    -8.223778    201.18865  0.016013105  0.015728017            3 
 1048000    0.8438101   -8.2408802    201.31253  0.016007676  0.015714457            8 
 1049000   0.84033147   -8.2260915    201.73597  0.016026054  0.015700854           18 
 1050000   0.83705188   -8.2583864    200.95007  0.015948419  0.015687216            3 
 1051000   0.82280126   -8.2461402    201.22376  0.015954944  0.015673539            2 
 1052000   0.83114088   -8.2305758    200.79645  0.015905929  0.015659922            4 
 1053000    0.8349796   -8.2604021    201.00403  0.015907252  0.015646288            7 
 1054000   0.83629197   -8.2501908    201.56024  0.015936135  0.015632679            3 
 1055000    0.8330108   -8.2399305    201.62103  0.015925831  0.015619134            5 
 1056000   0.84307481   -8.2281964    202.07911  0.015946899  0.015605596            6 
 1057000   0.83658054   -8.2313872    201.48986  0.015885356  0.015592056            3 
 1058000   0.80909639   -8.2149455    202.28296   0.01593281  0.015578553            2 
 1059000   0.82239816   -8.2741566    201.68772  0.015870926  0.015565081            6 
 1060000    0.8356153   -8.2672766    201.85705  0.015869265  0.015551631            5 
 1061000    0.8410585   -8.2241799    202.34959  0.015892993   0.01553825            6 
 1062000   0.83932438   -8.2283326    201.74443  0.015830543  0.015524978            7 
 1063000   0.83477558   -8.2493636    202.19929  0.015851308  0.015511601            4 
 1064000   0.83915003   -8.2559818    201.39589  0.015773487  0.015498103           12 
 1065000   0.81804453   -8.2436376    202.37879  0.015835586  0.015484707            7 
 1066000   0.80062827   -8.2518998    202.09002  0.015798157  0.015471378            6 
 1067000   0.84001964   -8.2583601    202.36639  0.015804935  0.015458084            3 
 1068000   0.84003855   -8.2627392      202.226  0.015779182  0.015444664            5 
 1069000    0.8224638   -8.2631811    202.29684  0.015769944  0.015431205            9 
 1070000   0.82136072   -8.2390285    202.34133  0.015758671  0.015417797            7 
 1071000   0.83395567   -8.2888279    201.51592  0.015679733  0.015404362            7 
 1072000   0.81825743   -8.2567519    202.28186  0.015724647  0.015390958            8 
 1073000   0.83358067   -8.2958563    201.56202  0.015654087  0.015377556           11 
 1074000   0.84094109   -8.2458221     202.4369  0.015707394  0.015364139           23 
 1075000   0.84709243   -8.2819593    203.01319  0.015737457   0.01535077           21 
 1076000   0.80853672   -8.2611929    202.53374  0.015685699  0.015337365            9 
 1077000   0.82349504   -8.3127699    202.26117  0.015650044  0.015323907            9 
 1078000   0.80884525   -8.2838169    202.44558  0.015649782  0.015310501            7 
 1079000   0.83504941   -8.2669904    201.94845  0.015596884  0.015297122           14 
 1080000   0.84846171   -8.3227511    202.53922  0.015628026   0.01528375            3 
 1081000   0.82356928   -8.3030634     202.3536   0.01559926  0.015270373            9 
 1082000   0.83579383   -8.2932998    202.31925  0.015582197  0.015256957            3 
 1083000   0.82520607   -8.2554418    202.41367  0.015575075  0.015243645            5 
 1084000   0.84036396   -8.2807314    202.75489  0.015586938  0.015230413           17 
 1085000    0.8241861   -8.2869767    202.50404  0.015553305  0.015217148           10 
 1086000   0.83043959   -8.2814389    202.51368  0.015539724  0.015203864           11 
 1087000   0.82196599   -8.2981057    202.57535  0.015530156  0.015190595            6 
 1088000   0.83221974   -8.3009958    202.45564  0.015506712  0.015177327           10 
 1089000    0.8334079   -8.2601749    203.00785   0.01553473  0.015164141            5 
 1090000   0.81027659   -8.2757319    202.97494  0.015517962  0.015150923           10 
 1091000    0.8090529   -8.2826679    202.85157  0.015494315  0.015137622            5 
 1092000   0.81875862   -8.3242862    202.60591  0.015461379  0.015124314            3 
 1093000   0.80698797   -8.3047446    202.17565  0.015414429     0.015111            2 
 1094000   0.81942468   -8.2971043    201.95331  0.015383403  0.015097634            2 
 1095000   0.79971683   -8.3043472    202.34941  0.015399498  0.015084286            4 
 1096000   0.82601927   -8.2977657    202.71454   0.01541321  0.015070935            5 
 1097000   0.80547833    -8.333143    202.57787  0.015388778  0.015057597            5 
 1098000    0.8145386   -8.3075338    202.55302  0.015372876  0.015044314            3 
 1099000   0.82108365   -8.3152673     202.7062  0.015370504   0.01503103            3 
 1100000   0.82157163   -8.2890646    202.55906  0.015345384  0.015017753            4 
 1101000   0.81602333   -8.3186039    202.48746  0.015326026  0.015004485            5 
 1102000    0.8108479   -8.3215239    203.06558  0.015355836  0.014991209            2 
 1103000     0.817739   -8.3241082    202.67051  0.015312067  0.014977849            5 
 1104000   0.82531497   -8.3088635     202.9263  0.015317504   0.01496455            4 
 1105000   0.83521042   -8.3215873     202.7411  0.015289676  0.014951257            6 
 1106000   0.80472095   -8.3497932    202.68908  0.015271932  0.014937917            3 
 1107000   0.81485347   -8.2798824     202.9158  0.015275203  0.014924588            4 
 1108000   0.81408458   -8.2959132    202.91613  0.015261442  0.014911347            6 
 1109000   0.81815898   -8.3211338    202.43893  0.015211822  0.014898025            8 
 1110000   0.83376386    -8.334439    202.40334  0.015195446  0.014884708            2 
 1111000   0.80796776   -8.3329851    202.67275  0.015201977  0.014871419            2 
 1112000   0.81054539   -8.2846643    203.10292  0.015220542  0.014858216            6 
 1113000    0.8176396   -8.3219336     202.9891  0.015198345  0.014845052            5 
 1114000   0.82591297    -8.296347    203.09532  0.015192648  0.014831869            4 
 1115000   0.81842373   -8.3200041    203.00595  0.015172343  0.014818737            8 
 1116000   0.80728335   -8.3119766    203.30781  0.015181288  0.014805619            8 
 1117000   0.82798368   -8.2848633    203.56588   0.01518695  0.014792533            8 
 1118000   0.81749444   -8.3293144    203.27875  0.015151964  0.014779504            4 
 1119000   0.80494422   -8.3238896    203.16134   0.01512968  0.014766437            8 
 1120000   0.80241352   -8.3114289    203.35521  0.015130596  0.014753403            3 
 1121000   0.80892979   -8.3091416    203.41796  0.015121763  0.014740312            4 
 1122000   0.81611072   -8.2999018    203.50448  0.015114712  0.014727284            6 
 1123000    0.8021875   -8.2897971    203.20752  0.015079216  0.014714288           13 
 1124000    0.7917112   -8.3121997    203.29332  0.015072162  0.014701259           10 
 1125000   0.81122565   -8.3248815    202.93764  0.015032417  0.014688265            7 
 1126000    0.7908214   -8.3086421     204.0652  0.015102516  0.014675283            7 
 1127000   0.81607201   -8.3225885    203.59511  0.015054356  0.014662312            4 
 1128000   0.80922363   -8.3474788    203.71787  0.015050079  0.014649273            8 
 1129000   0.79939599   -8.3427607    203.46454   0.01501805   0.01463623            2 
 1130000   0.79185511    -8.338688      203.107  0.014978392  0.014623235            4 
 1131000   0.80467702   -8.3591479    203.30148  0.014979478  0.014610205            3 
 1132000    0.8079268   -8.3475641    203.45837  0.014977795  0.014597178            3 
 1133000   0.80122324    -8.335096    203.79189  0.014989107  0.014584201            4 
 1134000   0.78959921    -8.320152    203.66516  0.014966576  0.014571153            6 
 1135000   0.79241352   -8.3313564    203.19475  0.014918851  0.014558147            5 
 1136000   0.81176865   -8.3377685    203.64903  0.014939043   0.01454519            4 
 1137000      0.79684   -8.3432121    203.88877  0.014943475  0.014532235           12 
 1138000   0.80877832   -8.3291075    203.44354   0.01489774  0.014519312            6 
 1139000   0.83134806   -8.3674652    203.72774  0.014905454  0.014506421            2 
 1140000   0.79405467   -8.3244225    204.08933   0.01491881   0.01449352            4 
 1141000   0.80475101   -8.3292784    203.57188  0.014867943  0.014480657            7 
 1142000   0.80748721   -8.3432409    203.85503  0.014875586  0.014467783           10 
 1143000   0.81119602   -8.3728417    203.43975  0.014832294  0.014454886            7 
 1144000   0.79221977   -8.3444423    204.25801  0.014878934  0.014442053           15 
 1145000   0.78492966   -8.3711023    203.73378  0.014827786  0.014429223           12 
 1146000   0.81255147   -8.3081695    204.15718  0.014845636  0.014416404           11 
 1147000   0.78631366   -8.3573484    203.87636   0.01481229  0.014403617           14 
 1148000   0.81793377   -8.3679026    203.91581  0.014802251  0.014390755           11 
 1149000   0.79019125   -8.3646362    203.92864  0.014790299  0.014377937           11 
 1150000   0.81022472   -8.3408835    203.80629  0.014768572  0.014365103           14 
 1151000   0.78609557   -8.3686808     203.8589   0.01475955  0.014352259            5 
 1152000   0.80189256   -8.3630513    203.93451  0.014752207  0.014339374           13 
 1153000   0.80397936   -8.3771372     204.0662  0.014748931  0.014326507            6 
 1154000   0.79867542   -8.3475936    203.64744   0.01470591  0.014313744            3 
 1155000   0.79441839   -8.3911064    203.76814  0.014701886  0.014300935            5 
 1156000   0.79307328   -8.3865538    203.59235  0.014676496  0.014288017            9 
 1157000   0.79168423   -8.3781986    204.01217  0.014694048  0.014275215            3 
 1158000   0.80394263   -8.4023891    203.70878  0.014659526  0.014262373            4 
 1159000   0.79564468   -8.3535659    203.94716  0.014664018  0.014249598            6 
 1160000   0.77917268   -8.3906663    203.85388  0.014644675  0.014236807           10 
 1161000   0.78478013   -8.3853207    203.37926  0.014597995  0.014223953           11 
 1162000    0.7787547   -8.4145789    203.93986  0.014625636  0.014211067            6 
 1163000   0.79581003   -8.4017309    203.83171   0.01460531  0.014198178            7 
 1164000   0.77657607   -8.3916453    203.71905  0.014584697  0.014185307            6 
 1165000   0.78836757   -8.3692989    204.09863   0.01459933  0.014172475            6 
 1166000   0.80280764   -8.4018308    204.10436  0.014587219  0.014159615            4 
 1167000   0.78216875   -8.4006474    204.40444  0.014596147  0.014146817            5 
 1168000   0.79283088   -8.4280892    203.93908  0.014550448  0.014134054            8 
 1169000   0.79531992   -8.3874948    204.33382   0.01456614  0.014121322            4 
 1170000   0.79255736   -8.4066601     204.2799   0.01454985  0.014108632            2 
 1171000   0.80007493   -8.4138732    204.31571  0.014539974  0.014095889            4 
 1172000   0.79504353   -8.3990586    204.18568  0.014518322   0.01408315            5 
 1173000   0.78169781   -8.3819956    204.12552  0.014501671  0.014070473            5 
 1174000   0.77344223   -8.4066362     204.0423  0.014483412  0.014057841            2 
 1175000   0.78762046   -8.4103855    204.36529  0.014493992  0.014045177            5 
 1176000   0.80230348   -8.4004139    204.56685   0.01449595  0.014032487            3 
 1177000   0.79239478   -8.4114284    204.50566  0.014479302  0.014019828           16 
 1178000   0.79820177   -8.4058724    204.35979  0.014456692  0.014007215            3 
 1179000   0.79244681   -8.4036992    204.52645  0.014456209  0.013994575            2 
 1180000   0.79128309   -8.3957984    203.92161  0.014401244  0.013981929            9 
 1181000   0.78262959   -8.4139727    204.44764  0.014426167  0.013969285           12 
 1182000   0.78533479    -8.433284    204.02529  0.014384186  0.013956617            4 
 1183000   0.79194351    -8.423261    204.08008  0.014375886  0.013943997            4 
 1184000   0.77784549    -8.387462    204.29993  0.014379218  0.013931411            5 
 1185000   0.77942264   -8.3939179    204.37522  0.014372379  0.013918826            6 
 1186000   0.76785754   -8.4301516     203.7981  0.014319709  0.013906259            7 
 1187000   0.78485422   -8.4098256     204.3138   0.01434385  0.013893678            6 
 1188000   0.77993776   -8.4398229    204.50874  0.014345451  0.013881131            5 
 1189000   0.78877521   -8.4178237    204.64172  0.014342706  0.013868597            3 
 1190000   0.76812761   -8.4379898    204.45012  0.014317235   0.01385605            3 
 1191000   0.77229031   -8.4191469    204.17904  0.014286247  0.013843571            9 
 1192000   0.76353632    -8.418733    204.39444   0.01428932  0.013831097            9 
 1193000   0.77278538   -8.4238529    204.26655  0.014268409  0.013818576            5 
 1194000   0.75781245   -8.4276094    204.59854   0.01427963  0.013806125            5 
 1195000   0.77932905   -8.4039718    205.43138  0.014325759  0.013793725            3 
 1196000   0.78789193   -8.4167898    205.04167  0.014286627  0.013781343            3 
 1197000   0.76500567   -8.3705573    205.38624   0.01429868  0.013769012            7 
 1198000   0.77741446   -8.3895478    205.09478   0.01426647  0.013756626            5 
 1199000   0.77656458   -8.4115652    205.02617  0.014249803  0.013744306            4 
 1200000   0.76403198   -8.4034571    204.81148   0.01422302  0.013732009            8 
 1201000     0.778104   -8.3926015    204.83321  0.014212684  0.013719738            3 
 1202000   0.76131703   -8.4071313    205.02902  0.014214436  0.013707497            6 
 1203000   0.77914494   -8.4040871    205.06824  0.014205337  0.013695236            4 
 1204000   0.77689583   -8.4443411    204.89056  0.014181241  0.013682956           10 
 1205000   0.78160776    -8.442506    205.02685  0.014178897  0.013670636            4 
 1206000   0.78007658   -8.4333567    205.01874  0.014166579   0.01365834            4 
 1207000   0.77839393   -8.4258019    204.40562  0.014112512  0.013646018            5 
 1208000   0.78079837   -8.4278059    204.81805  0.014129281  0.013633696            2 
 1209000   0.76738088   -8.4606335    204.53895  0.014098356  0.013621325            4 
 1210000   0.77613725   -8.4453123    204.87431  0.014109801  0.013608945            7 
 1211000   0.77308439   -8.4710876    204.59786  0.014079126  0.013596618            8 
 1212000    0.7642427   -8.4554747     205.0783  0.014100543  0.013584298            3 
 1213000   0.77036987   -8.4549195    205.11349  0.014091336  0.013571985            8 
 1214000   0.75204208   -8.4440283    205.00862   0.01407253  0.013559647            3 
 1215000   0.77289958   -8.4544739    204.80798  0.014047187  0.013547361            3 
 1216000    0.7882323   -8.4840105    204.58136  0.014020104  0.013535047            7 
 1217000    0.7654692   -8.4587409     205.0446  0.014040304  0.013522747            4 
 1218000   0.76412421   -8.4796902    204.59064  0.013997718  0.013510404            3 
 1219000   0.77316065   -8.4428246    204.95509  0.014011149  0.013498079            5 
 1220000   0.75616368   -8.4866045    204.83726  0.013991616  0.013485744            3 
 1221000   0.77036662   -8.4539736    204.52916  0.013959129  0.013473436            5 
 1222000   0.76442956   -8.4686133    204.69124  0.013958759  0.013461158            6 
 1223000   0.76697523   -8.4581107    204.96015  0.013965669  0.013448873            4 
 1224000   0.77274961   -8.4918809    204.41264  0.013916982  0.013436601            6 
 1225000   0.76581366   -8.4542009    204.64305  0.013921296  0.013424361            6 
 1226000   0.77357672   -8.4628554    204.73121  0.013915933  0.013412088            5 
 1227000   0.77094648   -8.4398457    204.99356   0.01392241  0.013399835            5 
 1228000    0.7639904   -8.4744025    204.66199  0.013888572  0.013387619           15 
 1229000   0.77481398   -8.4437132    204.61635  0.013874176  0.013375431            4 
 1230000   0.77640585   -8.4214072    205.07233  0.013893789  0.013363248            3 
 1231000   0.77195522   -8.4656304    204.54452  0.013846772    0.0133511            8 
 1232000    0.7807155   -8.4371259    205.20717  0.013880355  0.013338979            5 
 1233000   0.76311496   -8.4481994    205.23022  0.013870655   0.01332688            3 
 1234000   0.76693022   -8.4547157    204.56213  0.013814298  0.013314833            5 
 1235000   0.76376704    -8.432959    205.66105  0.013877264   0.01330281            3 
 1236000   0.76062664   -8.4596551    205.14163  0.013831016  0.013290788            3 
 1237000   0.77583675   -8.4498961    205.07864  0.013815591  0.013278724            6 
 1238000   0.75041281   -8.4433046    205.42137  0.013827502  0.013266622            5 
 1239000   0.74690127   -8.4635555    205.01767   0.01378919  0.013254526            4 
 1240000   0.75989185   -8.4632054    205.20007  0.013790327  0.013242453            4 
 1241000   0.76411728   -8.4382194     205.3195  0.013787235  0.013230381           18 
 1242000   0.76901759   -8.4726579    204.96931  0.013752637  0.013218355            6 
 1243000   0.76275949   -8.4732252    205.27277  0.013761918  0.013206278           12 
 1244000   0.75503443   -8.4494739    204.83538  0.013721556   0.01319425           10 
 1245000   0.74788388   -8.4601086    205.06342  0.013725798  0.013182216            3 
 1246000   0.76551574   -8.4800808    205.31185  0.013731397  0.013170186            6 
 1247000   0.75836264   -8.4747538    204.86943   0.01369082  0.013158143            5 
 1248000   0.76230334   -8.5128811    204.62239  0.013663354  0.013146129           25 
 1249000   0.74895722   -8.4923307    204.70602  0.013657994  0.013134088            6 
 1250000   0.75707368   -8.4550226    205.23016  0.013682011  0.013122097            6 
 1251000   0.76232131   -8.4850972    205.34783  0.013678912  0.013110065            5 
 1252000   0.75209534    -8.504394    204.88093   0.01363691  0.013098007            9 
 1253000   0.76352362   -8.4960694    204.88442  0.013626259  0.013085944            6 
 1254000   0.74537778   -8.4872992     205.0117  0.013623851   0.01307391            7 
 1255000   0.75312577   -8.5092415    204.89271  0.013605093  0.013061882            8 
 1256000   0.73308853   -8.5216322    204.87768  0.013593264  0.013049861            7 
 1257000   0.75964876   -8.5090284    205.16602  0.013601566  0.013037818            6 
 1258000   0.75752423   -8.5193065    204.79164  0.013565954   0.01302578            6 
 1259000   0.75448703    -8.512667    204.90899  0.013562946  0.013013728            5 
 1260000   0.75535606   -8.5182256     205.2704  0.013576085  0.013001688            9 
 1261000   0.74351498   -8.4988245    205.12502  0.013555711  0.012989679            4 
 1262000   0.74771318   -8.5112091    204.64947  0.013513568  0.012977692            4 
 1263000   0.74054633    -8.474576     205.1458  0.013535616  0.012965746            5 
 1264000   0.74578254   -8.5229614    205.01198  0.013516085   0.01295382            2 
 1265000   0.74181019   -8.5203308     204.7838  0.013490369  0.012941842            7 
 1266000   0.75723313   -8.5231676    204.82854  0.013482658  0.012929888           15 
 1267000    0.7443083   -8.5254027    205.01676  0.013484396  0.012917956            5 
 1268000   0.75597035   -8.5112262    205.09807  0.013479106  0.012906048            6 
 1269000   0.75665551   -8.5437647    204.89088  0.013454878  0.012894111           13 
 1270000   0.73988608   -8.5094118    204.58987  0.013424532   0.01288216            9 
 1271000   0.75580973   -8.5109268    204.88134   0.01343308  0.012870228            8 
 1272000   0.75207413   -8.5188363     204.8155  0.013418206  0.012858309            6 
 1273000   0.75552355   -8.5169681    204.84372  0.013409513  0.012846448           19 
 1274000   0.74282293    -8.491604    205.24408  0.013425176   0.01283463            4 
 1275000   0.76288366   -8.5052715    204.81753  0.013386767  0.012822802            6 
 1276000   0.73920101   -8.5289998    204.98424  0.013387163  0.012810965            7 
 1277000   0.73561738   -8.5415004    204.72154  0.013359537  0.012799162            8 
 1278000    0.7489903    -8.526974    204.86396   0.01335837  0.012787338           13 
 1279000   0.74708093   -8.5262153    204.98488  0.013355804   0.01277553           14 
 1280000   0.73840213   -8.5556481    204.72548  0.013328482  0.012763707            7 
 1281000   0.74241664   -8.5613769     204.6755  0.013314826  0.012751879           12 
 1282000   0.73543107   -8.5514465    205.23913  0.013341077  0.012740106           20 
 1283000   0.74313432   -8.5095768    205.21544   0.01332914  0.012728366            4 
 1284000   0.74551713   -8.5274558    205.08184  0.013310088  0.012716633           19 
 1285000   0.74083254   -8.5045477    205.69294   0.01333936  0.012704933           28 
 1286000   0.75455274   -8.5145801    205.46026   0.01331391  0.012693224            8 
 1287000   0.71672612   -8.5150164    204.79084   0.01326022   0.01268154            9 
 1288000   0.74807091   -8.5093951    205.10912  0.013270518  0.012669893            9 
 1289000   0.73593749   -8.5310211    205.08269  0.013258514  0.012658251            8 
 1290000   0.73420475   -8.5114732    205.65811  0.013285408  0.012646668            9 
 1291000   0.73660829   -8.5234291    205.40776  0.013258957  0.012635094            6 
 1292000   0.73185803    -8.551187    204.90899  0.013216524  0.012623461           16 
 1293000   0.73512161   -8.5351189    205.30034  0.013231525   0.01261191            8 
 1294000   0.73158593   -8.5270402    205.23954  0.013217384  0.012600363            5 
 1295000   0.75129056   -8.5320818    205.36583  0.013215305  0.012588827            8 
 1296000   0.73119622   -8.5281592    205.41179  0.013208063  0.012577319            8 
 1297000   0.73932676    -8.536279    204.95916  0.013168797  0.012565793            9 
 1298000   0.74542618   -8.5073206    205.38846  0.013186214  0.012554302            3 
 1299000   0.73428516   -8.5338843    205.10748  0.013158037  0.012542815            7 
 1300000   0.73114608   -8.5291711    205.14898  0.013150576  0.012531286           11 
 1301000   0.73938671   -8.5371853    205.16205  0.013141305  0.012519721            4 
 1302000   0.73587359   -8.5343646    205.32285  0.013141503  0.012508197            8 
 1303000   0.75231881   -8.5481295    205.27937  0.013128637  0.012496682           11 
 1304000   0.71463283   -8.5458952    205.17699  0.013112026  0.012485145            5 
 1305000   0.72004604   -8.5496121    205.17129  0.013101615   0.01247363            7 
 1306000   0.74368809   -8.5684551    205.20892  0.013093984  0.012462145            7 
 1307000   0.74118701    -8.518382    205.56026  0.013106367  0.012450656            3 
 1308000   0.73260927   -8.5254836    205.07889  0.013065679  0.012439175            6 
 1309000    0.7397791   -8.5490015    204.82378  0.013039456  0.012427678            4 
 1310000   0.73155651   -8.5629637    204.92938   0.01303622  0.012416174            7 
 1311000   0.73823628   -8.5460811    205.50424  0.013062817  0.012404674            4 
 1312000   0.72351482   -8.5800229    205.17086  0.013031686  0.012393157            4 
 1313000   0.73043865   -8.5436641     205.3142  0.013030858  0.012381658            6 
 1314000   0.72415059   -8.5613777    205.15717  0.013010983  0.012370191            3 
 1315000    0.7289524   -8.5497514    205.76274  0.013039464  0.012358761            4 
 1316000   0.72575366   -8.5881992    205.28921   0.01299957  0.012347342            8 
 1317000   0.72802979   -8.5551092    205.10133  0.012977811  0.012335909            6 
 1318000   0.72420168   -8.5562892    204.96734  0.012959493  0.012324494            4 
 1319000   0.73520324   -8.5807589    205.14058  0.012960613  0.012313086            3 
 1320000   0.71940839   -8.5763683    205.28101   0.01295966  0.012301658            3 
 1321000   0.71012327   -8.5665894    205.00262  0.012932287  0.012290268            5 
 1322000   0.71830148   -8.5825912    205.39351  0.012947145   0.01227894            5 
 1323000   0.73339022     -8.55895    205.39564  0.012937493  0.012267569            5 
 1324000   0.71391425   -8.5715313    205.49919  0.012934239  0.012256251            5 
 1325000   0.72417506   -8.5674171    205.43288  0.012920307  0.012244905            3 
 1326000   0.73047881   -8.5488289    205.53845  0.012917198  0.012233558            6 
 1327000   0.72876457   -8.5708542    204.80062  0.012861129  0.012222209            4 
 1328000   0.73472993    -8.582208    204.58128  0.012837681   0.01221088            6 
 1329000   0.71805757   -8.5594861    204.42787  0.012818401   0.01219957            7 
 1330000   0.71858518   -8.5366052    205.39647  0.012869453  0.012188266            4 
 1331000   0.73483645   -8.5622967    205.15094  0.012844411  0.012176931            4 
 1332000   0.72546746   -8.5599903     205.1632  0.012835536  0.012165593            3 
 1333000   0.72377295   -8.5731785    205.19103  0.012827646  0.012154268            5 
 1334000   0.70829986   -8.5610127    205.02289  0.012807527   0.01214297            6 
 1335000   0.72677573    -8.568815    205.45523  0.012824921  0.012131674            5 
 1336000    0.7220491   -8.6024975    204.58856  0.012761262  0.012120378           14 
 1337000   0.72812022   -8.5402851    205.45636  0.012805806  0.012109069            9 
 1338000   0.72422407   -8.5704923    204.73791  0.012751489   0.01209779            9 
 1339000   0.71817936   -8.5555047    205.20216  0.012770859  0.012086504            7 
 1340000   0.73070218   -8.5819456    204.74689  0.012733016  0.012075231           11 
 1341000   0.71450472   -8.5613425    205.33634   0.01276015  0.012063948           11 
 1342000   0.71156574   -8.5799129    205.32134  0.012749711  0.012052721            9 
 1343000   0.70858811   -8.5924871    204.81158  0.012708587  0.012041485           10 
 1344000   0.72150586   -8.5942058    204.82448   0.01269993  0.012030262           12 
 1345000   0.71133198   -8.6101383    204.37166  0.012662433  0.012019045           17 
 1346000    0.7149467   -8.5867339    204.96092  0.012689507  0.012007824           10 
 1347000   0.71651928     -8.59832    205.15501  0.012692094  0.011996624           22 
 1348000   0.70182661   -8.5702006    205.11407  0.012680148  0.011985455           15 
 1349000   0.71016383    -8.540228    204.90034  0.012657545  0.011974317            8 
 1350000   0.71773448   -8.5667893    205.03176  0.012656282  0.011963186            6 
 1351000   0.70552206    -8.579267    204.57053  0.012618464  0.011952069           25 
 1352000   0.71244988   -8.5988334    204.87339  0.012627798  0.011940916           16 
 1353000   0.70540184   -8.5847363    204.75887  0.012611411  0.011929787           17 
 1354000    0.7219824   -8.5862476     205.0019  0.012617054  0.011918682            9 
 1355000   0.71202129    -8.574395    204.70616  0.012589554  0.011907599            8 
 1356000   0.70732469   -8.5990416    205.06466  0.012602302  0.011896512           25 
 1357000   0.73677085   -8.5897961    204.69807  0.012570503  0.011885437           11 
 1358000   0.71734249   -8.5831611    205.05686  0.012583263  0.011874374           12 
 1359000   0.70541531   -8.6026456    205.03822  0.012572861  0.011863326            5 
 1360000   0.70111966   -8.5929093    205.06871  0.012565485  0.011852295           14 
 1361000   0.71762898   -8.6119742    204.82407  0.012541273   0.01184128            6 
 1362000   0.70042568   -8.6073922    204.93098  0.012538606  0.011830249           13 
 1363000    0.7045913   -8.6010838    205.17155  0.012544115  0.011819227           19 
 1364000   0.72073831   -8.6046137    204.99505  0.012524136   0.01180823           13 
 1365000   0.70660078   -8.6032653    204.68338  0.012495933  0.011797232           14 
 1366000   0.72808104   -8.6157839    204.87352  0.012498385  0.011786266           14 
 1367000    0.7134973   -8.5804636    205.39076  0.012520773  0.011775293           13 
 1368000   0.72120632   -8.5986863    204.92853  0.012483463  0.011764322            8 
 1369000   0.68949748   -8.6127938     204.8511  0.012469631  0.011753337           15 
 1370000   0.68480295   -8.5999276    204.97909  0.012468315  0.011742411            5 
 1371000   0.71416333   -8.5998489    205.22374  0.012474091  0.011731468            5 
 1372000   0.71776528   -8.6148078     204.7062  0.012433564  0.011720514           11 
 1373000   0.70668072   -8.6201249    205.06697  0.012446405  0.011709584            8 
 1374000   0.71953774   -8.6427645    204.48306  0.012401932  0.011698625           13 
 1375000   0.71307128   -8.6275496    205.01277  0.012425017   0.01168769            8 
 1376000   0.71454235   -8.6152274    204.85165  0.012406229  0.011676769            7 
 1377000   0.70492288   -8.6333807    204.52192  0.012377265   0.01166586           11 
 1378000    0.6990447   -8.6217229    204.53732  0.012369214  0.011654942           10 
 1379000    0.7106313   -8.6265441    204.50836  0.012358494  0.011644006            5 
 1380000   0.71144954   -8.6313225    204.57889  0.012353798  0.011633107            5 
 1381000   0.69918253   -8.6333764    204.67145  0.012350438  0.011622216            4 
 1382000   0.71522681   -8.6099356    205.51989  0.012392661  0.011611342            4 
 1383000   0.70241995   -8.6152625    204.39203  0.012315741  0.011600505            6 
 1384000    0.6970915   -8.6359108    204.35558  0.012304647  0.011589643            3 
 1385000   0.68774102   -8.6422674     205.0844  0.012339615  0.011578754            5 
 1386000   0.68952788   -8.6321367    204.56145  0.012299269  0.011567888            6 
 1387000   0.70208267   -8.6494168     204.6082  0.012293211  0.011557014            6 
 1388000   0.68745714   -8.6296345    204.69831  0.012289764  0.011546141            7 
 1389000   0.68826543    -8.631801    204.41199  0.012263738  0.011535266           10 
 1390000   0.71149232   -8.6307274    204.68942  0.012271548   0.01152441            9 
 1391000   0.70818973   -8.6512315    204.88803  0.012274624  0.011513573            5 
 1392000   0.68801081   -8.6316492    205.12193  0.012279809  0.011502751            3 
 1393000   0.69685545   -8.6208932    204.98671  0.012262904  0.011491974            7 
 1394000    0.7153889    -8.622076    205.02224  0.012256232  0.011481209           16 
 1395000   0.67955813   -8.6527601     204.7443  0.012230842  0.011470449            6 
 1396000   0.68886229   -8.6282789    204.84568  0.012228133  0.011459693            5 
 1397000   0.69155084   -8.6185778    205.26308  0.012244278  0.011448967            9 
 1398000   0.70287619   -8.6505326    204.83889  0.012210234  0.011438212            6 
 1399000   0.70518005   -8.6357842    205.07512  0.012215578  0.011427468           10 
 1400000   0.69858007   -8.6470707    204.26936   0.01215889  0.011416736            7 
 1401000   0.69002013   -8.6608363    204.80464  0.012182051  0.011406019            8 
 1402000    0.6912952   -8.6502879    204.80497  0.012173382  0.011395306            5 
 1403000   0.70659448   -8.6515079    204.72205  0.012159779  0.011384609           10 
 1404000   0.69910503   -8.6394029    204.77903  0.012154501  0.011373911           10 
 1405000   0.69521978   -8.6269131    204.84798   0.01214994  0.011363229           17 
 1406000   0.69161477   -8.6465129    204.65233  0.012129702  0.011352554            6 
 1407000   0.69616122   -8.6508299    204.69704  0.012123729  0.011341892            8 
 1408000   0.69427472   -8.6531146    204.83438  0.012123247  0.011331237           10 
 1409000   0.68858145   -8.6507656     204.7826   0.01211158   0.01132061            5 
 1410000   0.69843704   -8.6581711    204.85512  0.012107277  0.011310011            6 
 1411000   0.70005366   -8.6562418    204.63313  0.012085585  0.011299385            9 
 1412000    0.6970327   -8.6394412    204.70275  0.012081135  0.011288784            4 
 1413000   0.69494859   -8.6234374    204.71214  0.012073138  0.011278164            8 
 1414000   0.69670926   -8.6461308    205.05529  0.012084824  0.011267565           10 
 1415000   0.68805493   -8.6388827    204.97124  0.012071334  0.011256964            9 
 1416000   0.69230979   -8.6512784    204.55504  0.012038315  0.011246418            8 
 1417000    0.6935392   -8.6282945    204.47179  0.012024923  0.011235865            5 
 1418000    0.6776392   -8.6330014    204.62317  0.012025339  0.011225328            9 
 1419000    0.6921028   -8.6647201    204.30848  0.011998384  0.011214812           15 
 1420000   0.68768586   -8.6567049    204.85284   0.01202188  0.011204304           16 
 1421000    0.6948727   -8.6532392    204.92009  0.012017364   0.01119378           11 
 1422000   0.69606963   -8.6468807    204.38552  0.011977586  0.011183273            9 
 1423000   0.69229322   -8.6497558    204.77828  0.011992169  0.011172774            5 
 1424000   0.69541915   -8.6835081    204.54971  0.011970371  0.011162301            5 
 1425000   0.68133484   -8.6765062    204.47473  0.011957587  0.011151831            6 
 1426000   0.68097297   -8.6638329    204.70744    0.0119628  0.011141373            6 
 1427000    0.6871502    -8.661785    204.94905  0.011968527  0.011130926           15 
 1428000   0.69726422   -8.6959154    204.67141  0.011943943  0.011120489            6 
 1429000   0.67371095    -8.695752    204.29459   0.01191361   0.01111006           13 
 1430000   0.67527301   -8.6479912    204.46968  0.011915482  0.011099658           17 
 1431000   0.67936579   -8.6832266     204.4706  0.011907209  0.011089248           17 
 1432000   0.69108479   -8.6608327    204.78869  0.011917405  0.011078858           16 
 1433000   0.69194162   -8.6992091    204.66693  0.011902008  0.011068444            8 
 1434000   0.68056522   -8.6934604    204.20477  0.011866851  0.011058031            7 
 1435000   0.70130979   -8.6977014    204.63408  0.011883512  0.011047635           17 
 1436000   0.67613216   -8.7088405     204.5732  0.011871704  0.011037277           10 
 1437000   0.68609564   -8.6917306    204.27175  0.011845961  0.011026908           20 
 1438000   0.68198405   -8.6921262    204.86305  0.011871989  0.011016561           10 
 1439000   0.67744571   -8.6895816    205.00223  0.011871799  0.011006212            6 
 1440000   0.66847093   -8.7050738    204.18297  0.011816144  0.010995867           23 
 1441000    0.6744048     -8.68195    204.34933  0.011817565  0.010985543           22 
 1442000   0.68562596   -8.7059474      204.635  0.011825878  0.010975223           16 
 1443000   0.68590696   -8.7152241    204.32262  0.011799643  0.010964926           10 
 1444000   0.66875241   -8.6983913    204.35414   0.01179329  0.010954605           10 
 1445000   0.67683285   -8.6900138    204.57104  0.011797638  0.010944345            9 
 1446000   0.69531653   -8.6862153    204.77111  0.011801009  0.010934099           10 
 1447000   0.68554506   -8.6971101    204.35741  0.011769028  0.010923858            6 
 1448000   0.67177671   -8.6909291    204.71491  0.011781475  0.010913608            4 
 1449000   0.68596117   -8.6821136    204.41081  0.011755855  0.010903365            6 
 1450000   0.68632088   -8.6829612    204.35225  0.011744382  0.010893116           11 
 1451000     0.678028   -8.7021415    204.67744  0.011754965  0.010882872            6 
 1452000   0.66801804   -8.6908714    204.77928  0.011752714  0.010872639           19 
 1453000   0.67749538   -8.7098636    204.09119  0.011705161  0.010862402            7 
 1454000   0.67365018   -8.6945359    204.02897  0.011693545  0.010852183            7 
 1455000   0.67953613   -8.7087222    204.36614  0.011704819  0.010841983           15 
 1456000   0.67691361   -8.6996448     204.1609  0.011685033  0.010831783            4 
 1457000   0.66506723   -8.7057983    204.13608  0.011675594  0.010821606            6 
 1458000   0.66558808   -8.6961171    204.38078  0.011681572  0.010811428            9 
 1459000   0.68859685   -8.7082257    204.25021  0.011666108  0.010801246            4 
 1460000   0.67220852   -8.7267712    203.94643  0.011640778   0.01079108            6 
 1461000   0.65386717    -8.716974    204.18955  0.011646677  0.010780922            7 
 1462000   0.67135105   -8.7039825    204.40007  0.011650711  0.010770782            5 
 1463000   0.65130755   -8.7132114    204.30092    0.0116371  0.010760621            7 
 1464000   0.65137842   -8.7218649    204.38172   0.01163375  0.010750486            7 
 1465000   0.65995924   -8.7206942    204.14643  0.011612425  0.010740352            6 
 1466000   0.66841462   -8.7075705    204.25827  0.011610861  0.010730226            6 
 1467000   0.67082217   -8.6765004    204.43835  0.011613176  0.010720131            5 
 1468000   0.69203587   -8.6965403    204.18823  0.011591066  0.010710071            6 
 1469000   0.66493574   -8.7043573    204.52428   0.01160224  0.010700005            7 
 1470000   0.68240518   -8.6930193    204.57256  0.011597084  0.010689947            4 
 1471000   0.66961708   -8.6857069    204.46483  0.011583097  0.010679889            6 
 1472000     0.677939   -8.7066837    204.18453   0.01155936  0.010669865           11 
 1473000   0.67533979   -8.7196666    204.34428   0.01156055  0.010659836           13 
 1474000   0.66433587   -8.7294602    203.40167  0.011499416  0.010649789            8 
 1475000   0.66312936   -8.6973076    204.19425  0.011536398  0.010639725            5 
 1476000   0.65041643   -8.7121504    203.79123  0.011505828  0.010629695           16 
 1477000   0.65918926   -8.7194042    203.90095  0.011504229  0.010619684            4 
 1478000   0.65811677   -8.7123261    204.12874  0.011509289  0.010609689            7 
 1479000   0.64984839   -8.7110443     204.1104  0.011500473    0.0105997           12 
 1480000   0.65859293   -8.7227157     204.1758  0.011496385  0.010589704           15 
 1481000   0.65413909   -8.7160978    204.02825   0.01148032  0.010579749            4 
 1482000   0.67480077   -8.7136749    204.25885   0.01148554   0.01056982            9 
 1483000   0.66050904   -8.7269537    204.26318  0.011478039  0.010559892           12 
 1484000   0.66494339   -8.7175483    203.94844   0.01145263  0.010549945            8 
 1485000   0.65692271   -8.7143563    204.22898  0.011460661  0.010540024           15 
 1486000   0.65447675    -8.704126    204.48994  0.011467583   0.01053013            9 
 1487000   0.65855886   -8.7096886    204.35656  0.011452396  0.010520249           20 
 1488000   0.65111408    -8.744941    204.12302  0.011431621  0.010510354           23 
 1489000   0.66252466   -8.7355986    204.01155  0.011417705  0.010500452           19 
 1490000   0.65165928   -8.7494874    204.32141  0.011427372   0.01049056            6 
 1491000   0.66039634   -8.7482538     203.5733  0.011377895  0.010480654            7 
 1492000   0.64093455   -8.7293217    203.71192  0.011378012  0.010470779            7 
 1493000   0.65879779   -8.7340816    204.22197   0.01139886   0.01046091            8 
 1494000   0.64756722   -8.7532308    203.91623  0.011374176  0.010451048           10 
 1495000   0.65069122   -8.7086582    204.12435  0.011378169  0.010441186           11 
 1496000   0.65000846   -8.7406418     203.8427  0.011354874  0.010431353           21 
 1497000   0.66320903   -8.7472545    204.08831  0.011360961  0.010421519           11 
 1498000   0.67112215   -8.7624742     203.7687  0.011335597  0.010411691           27 
 1499000    0.6463086   -8.7463643    203.50264  0.011313244  0.010401862           28 
 1500000   0.65954334   -8.7370893    203.73734  0.011318741   0.01039205           33 
 1501000   0.65424969   -8.7532708     203.7106  0.011309716  0.010382258           11 
 1502000   0.66835068   -8.7585203    203.93287  0.011314518  0.010372465           12 
 1503000   0.65672275   -8.7681023    204.06962  0.011314572  0.010362685           14 
 1504000   0.65206625   -8.7308528    203.64919  0.011283754  0.010352907           19 
 1505000   0.66666608   -8.7773476    203.54457  0.011270464  0.010343146           12 
 1506000   0.64515761    -8.739925      203.682  0.011270584  0.010333384           16 
 1507000   0.64343619   -8.7541774    203.89675  0.011274981  0.010323642           13 
 1508000    0.6545082   -8.7486326    203.82766  0.011263686  0.010313903            8 
 1509000   0.65151673   -8.7665876    203.82654   0.01125616   0.01030416            9 
 1510000   0.65280447   -8.7550282    203.68737  0.011241025   0.01029442           12 
 1511000   0.63883609   -8.7403615    203.66554  0.011232382  0.010284707            6 
 1512000    0.6516164    -8.750446    203.69435   0.01122654  0.010275004           20 
 1513000   0.63508349   -8.7510172    203.81236   0.01122562  0.010265322           15 
 1514000   0.64963896   -8.7761098    203.51061  0.011201597  0.010255628           20 
 1515000   0.64228069   -8.7347693    203.77686  0.011208848  0.010245944           11 
 1516000   0.64452732   -8.7538053    203.28735  0.011174546  0.010236271           15 
 1517000   0.64512779   -8.7599145    203.64914  0.011187054  0.010226627           13 
 1518000   0.65583813   -8.7615785    203.90584  0.011193777  0.010216988           18 
 1519000   0.64648919   -8.7740716    203.68359  0.011174215  0.010207366           12 
 1520000   0.64394838    -8.757007    203.97089  0.011182615  0.010197756           18 
 1521000   0.65123072   -8.7557293    203.59466  0.011154649  0.010188145           20 
 1522000   0.65483239   -8.7409034    203.69452  0.011152788  0.010178549           11 
 1523000   0.66105664   -8.7542411    203.79793  0.011151124   0.01016897           12 
 1524000   0.63767831   -8.7552881     203.5237  0.011128811  0.010159391           13 
 1525000   0.64452005    -8.805047    203.60745   0.01112609  0.010149825           18 
 1526000   0.64135892   -8.7734957    203.67561  0.011122521  0.010140263           11 
 1527000   0.64860976   -8.8030163    203.41452  0.011100989  0.010130717           34 
 1528000    0.6376101   -8.7744449    203.64281  0.011106174  0.010121165           10 
 1529000   0.63152422   -8.7715787    203.54691  0.011093684  0.010111635           14 
 1530000   0.63916251   -8.7772674    203.80424  0.011100449    0.0101021           19 
 1531000   0.65860072   -8.7780815    203.15979  0.011058121  0.010092589           26 
 1532000   0.63333868   -8.7631806    203.73373  0.011082122  0.010083098           20 
 1533000   0.64780825   -8.7728228    203.42964  0.011058362  0.010073623           12 
 1534000   0.63585644   -8.7717111    203.25705  0.011041778  0.010064144           26 
 1535000   0.65329282   -8.8031919     203.6362  0.011055169  0.010054668           21 
 1536000   0.63485049   -8.7814394     203.3188  0.011030751  0.010045206           46 
 1537000   0.64559153   -8.7811645    203.00225  0.011006412  0.010035756           26 
 1538000   0.64046548   -8.7860241    203.93792  0.011049952  0.010026313           18 
 1539000   0.63707397   -8.7719867    203.85262  0.011038153   0.01001689           15 
 1540000   0.62964855   -8.7934341    203.34429  0.011003479  0.010007483           18 
 1541000    0.6274276   -8.8037599    203.21472  0.010989331 0.0099980559           14 
 1542000   0.64384685   -8.7891791    203.89624  0.011019036 0.0099886657           18 
 1543000   0.62535571   -8.7857114    203.59287   0.01099551 0.0099792721           22 
 1544000   0.62559082   -8.7840846    203.70376  0.010994374 0.0099698911           26 
 1545000   0.62616413   -8.7906247    203.46209  0.010974222 0.0099605328           15 
 1546000   0.63367189   -8.7660299    203.55651  0.010972214 0.0099511882           33 
 1547000   0.63863975   -8.7710337    203.40956  0.010957205 0.0099418423           16 
 1548000   0.62414158   -8.8235751    203.66914  0.010964101  0.009932498           30 
 1549000   0.63386553   -8.7757585    203.51074  0.010948501   0.00992316           17 
 1550000   0.63679286    -8.777917    203.68637   0.01095088 0.0099138389           15 
 1551000   0.62917954   -8.7774937    203.52137  0.010934954 0.0099045364           17 
 1552000   0.63792355   -8.7974087    203.27137  0.010914485 0.0098952459           33 
 1553000   0.62990735   -8.7913877    203.37275  0.010912897 0.0098859475           20 
 1554000   0.64231143   -8.8074248    203.19044  0.010896098  0.009876672           24 
 1555000   0.62413272   -8.7704802    203.43013  0.010901936 0.0098673907           17 
 1556000   0.62740794   -8.7940449    203.32196  0.010889137 0.0098581405           24 
 1557000   0.63534299   -8.7933308    203.82782  0.010909218 0.0098488965           12 
 1558000   0.63699218    -8.796455    203.53756   0.01088669 0.0098396484           11 
 1559000   0.63606427   -8.7920537    203.33426   0.01086884 0.0098304229           26 
 1560000   0.63037405   -8.7843202    203.89812  0.010891994 0.0098212137           19 
 1561000    0.6143507   -8.8183555    203.18242  0.010846808 0.0098120086           39 
 1562000   0.63541801   -8.7912614    203.73527  0.010869359 0.0098028185           12 
 1563000   0.62616598   -8.7917938    203.69434  0.010860223 0.0097936439           20 
 1564000   0.63224119   -8.8186919    203.52318  0.010844159 0.0097844843           23 
 1565000   0.62906573   -8.8025285    203.60238  0.010841447  0.009775308           14 
 1566000    0.6157642   -8.8058529    203.21552  0.010813938 0.0097661406           26 
 1567000   0.64094197   -8.8101711    203.26103  0.010809457 0.0097569942           18 
 1568000   0.62418189    -8.814392    203.27131   0.01080311 0.0097478461           34 
 1569000   0.63348661    -8.803068    203.45106  0.010805771 0.0097387135           18 
 1570000   0.64328668    -8.814339     203.1408   0.01078242 0.0097295978           13 
 1571000   0.61498978   -8.8052645    203.87568  0.010814538 0.0097204816           20 
 1572000   0.63382092   -8.8145509    203.43446  0.010784269 0.0097114033           35 
 1573000   0.62472488    -8.810484    203.44265  0.010777848 0.0097023168           16 
 1574000   0.61844697   -8.8105814    203.30625  0.010763778 0.0096932496           35 
 1575000   0.62795466   -8.8138078    203.37703   0.01076069 0.0096841794           37 
 1576000   0.62876826   -8.7981211    203.87033  0.010779946 0.0096751227            9 
 1577000   0.61374048   -8.8047374    203.21502  0.010738481 0.0096660783           18 
 1578000   0.63924004   -8.8134185    203.27072  0.010734618 0.0096570304           17 
 1579000    0.6253633    -8.797916    203.44147  0.010736831 0.0096479914           13 
 1580000   0.62344298   -8.8092247    203.29254   0.01072218 0.0096389585           14 
 1581000   0.62486957   -8.8109245    203.35228  0.010718548  0.009629956           11 
 1582000    0.6134836   -8.8179128     203.1972  0.010703603  0.009620949           18 
 1583000   0.62394904   -8.8329144    203.13237  0.010693429 0.0096119442            6 
 1584000   0.60703863   -8.8093914    203.37829  0.010699616 0.0096029504           10 
 1585000   0.61022934   -8.8106602    203.09691  0.010678071  0.009593975           21 
 1586000   0.61425126    -8.828131    203.13438  0.010673307 0.0095850149            7 
 1587000    0.6189612   -8.8461995    203.12281  0.010665974 0.0095760753           12 
 1588000   0.61883648   -8.7947774    203.28199  0.010667611 0.0095671261            5 
 1589000   0.61404142   -8.8219704    203.24589  0.010659004 0.0095581833           12 
 1590000   0.60655848   -8.8370087    203.27166  0.010653651 0.0095492304            5 
 1591000   0.61235769   -8.8231571    203.54398  0.010661219 0.0095403134            7 
 1592000   0.62652726   -8.8338242    203.18218  0.010635583 0.0095314076            5 
 1593000   0.61305785   -8.8334283    203.23489  0.010631664 0.0095225045            7 
 1594000    0.6017061   -8.8326726    203.20731  0.010623552 0.0095136242            9 
 1595000   0.63073551   -8.8280337    203.10307  0.010611446 0.0095047421           27 
 1596000    0.6116552   -8.8090491    203.09321  0.010604282 0.0094958808           13 
 1597000   0.60840049   -8.8029627    203.33824  0.010610428 0.0094870214           16 
 1598000   0.61477657   -8.8102125    203.24088  0.010598711 0.0094781891            7 
 1599000   0.61897312    -8.817274    202.75229  0.010566619 0.0094693627           16 
 1600000   0.61132267   -8.8144549    203.01021  0.010573449 0.0094605306            7 
 1601000   0.60709607   -8.8279692    203.35095   0.01058458 0.0094517427           26 
 1602000   0.61575359   -8.8397003    203.07848  0.010563799 0.0094429421            7 
 1603000   0.60662948   -8.8303151    203.14967   0.01056091 0.0094341574           16 
 1604000   0.60528721    -8.843351     203.0226  0.010547724 0.0094253771            8 
 1605000   0.61609151   -8.8254972    203.23676  0.010552272 0.0094166041           33 
 1606000   0.62063311   -8.8055496    203.35044    0.0105516 0.0094078471           11 
 1607000   0.62292848   -8.8358209    203.00677  0.010527213 0.0093990893           22 
 1608000    0.6154195   -8.8746123    203.08108  0.010524517 0.0093903495           17 
 1609000   0.63585534   -8.8315927    202.81161   0.01050402 0.0093816101           20 
 1610000   0.62432115   -8.8285274    203.25615  0.010520505  0.009372868           17 
 1611000   0.59874715    -8.828819    203.03567  0.010502569 0.0093641528           24 
 1612000   0.61922147   -8.8438109    203.13676   0.01050128 0.0093554466           26 
 1613000   0.61616713   -8.8410812    203.11113  0.010493445 0.0093467475           12 
 1614000   0.62173014    -8.839562    203.52247  0.010508182 0.0093380513           13 
 1615000   0.62787107   -8.8370813    202.90444  0.010469785 0.0093293703           11 
 1616000   0.61752487   -8.8382132    203.30076  0.010483744 0.0093206961            8 
 1617000   0.60577967   -8.8389041    203.13357  0.010468644  0.009312037           11 
 1618000   0.61469017   -8.8450496    203.03548  0.010457122 0.0093033887           14 
 1619000   0.60411942   -8.8399861    203.05951    0.0104519 0.0092947369           14 
 1620000   0.61480909   -8.8440228    203.08702  0.010446863 0.0092860894            7 
 1621000   0.58976423   -8.8415631    203.19184  0.010445807 0.0092774537           10 
 1622000   0.61869993   -8.8356019    203.02854  0.010430977 0.0092688488           14 
 1623000   0.60592961   -8.8494537    202.63255  0.010404218 0.0092602436           16 
 1624000   0.62091288   -8.8427943    203.27932     0.010431 0.0092516484           17 
 1625000   0.59590209   -8.8579098     203.2949  0.010425379 0.0092430649           12 
 1626000   0.59641381   -8.8298908    203.06729  0.010407303 0.0092344897           13 
 1627000   0.60152463   -8.8535296    202.83275  0.010388893 0.0092259347           12 
 1628000   0.61023075   -8.8276589      203.388  0.010410934 0.0092173861           10 
 1629000    0.5885569   -8.8704609     203.0424  0.010386863 0.0092088475           11 
 1630000   0.60228015   -8.8424436    202.93942  0.010375226 0.0092003198           13 
 1631000   0.60201904   -8.8596852    203.27863  0.010386196  0.009191799           17 
 1632000   0.60987214   -8.8601302    203.20323  0.010375982 0.0091832887            6 
 1633000   0.60860233   -8.8667175    203.15709  0.010367274 0.0091748007           12 
 1634000   0.60046875   -8.8660563     203.0636  0.010356161 0.0091662968           20 
 1635000   0.60898231   -8.8246077    203.62037  0.010378204 0.0091578088            8 
 1636000   0.60438689   -8.8600857    202.70619  0.010325295 0.0091493307           10 
 1637000    0.5960168   -8.8640295     202.7547  0.010321457 0.0091408522           15 
 1638000   0.60101389     -8.86313    203.15464  0.010335503 0.0091323808           16 
 1639000   0.60436276   -8.8574783    202.99664  0.010321163 0.0091239138           14 
 1640000   0.59779387   -8.8524377    203.16846  0.010323601 0.0091154586           13 
 1641000   0.60086119   -8.8544715    202.88863  0.010303099 0.0091070271           19 
 1642000   0.61292887   -8.8728671    202.87432  0.010296098 0.0090985996           12 
 1643000   0.59406489   -8.8646351    203.26304  0.010309547 0.0090901715           12 
 1644000   0.60003401   -8.8595493    203.11817  0.010295933 0.0090817439           10 
 1645000   0.59068558   -8.8811634    202.64929  0.010265922 0.0090733386           15 
 1646000    0.5958752   -8.8779774    202.91165  0.010272967  0.009064925           12 
 1647000   0.59170512   -8.8733602     203.0055  0.010271478 0.0090565277           15 
 1648000   0.59629852   -8.8447218     203.0072  0.010265332 0.0090481341           13 
 1649000   0.58851129   -8.8559341    202.66356   0.01024174 0.0090397616           12 
 1650000   0.59777176   -8.8661093    203.16475  0.010260846 0.0090313914           14 
 1651000   0.58805902   -8.8707031    203.10508  0.010251619 0.0090230394           10 
 1652000   0.58580848   -8.8611919    202.76503   0.01022826 0.0090146779           18 
 1653000   0.60459093   -8.8787408    202.87694  0.010227714 0.0090063374           30 
 1654000   0.60314989   -8.8680392     202.7012  0.010212676 0.0089980098           20 
 1655000   0.59487065   -8.8506479     203.3766  0.010240514  0.008989693           14 
 1656000   0.59641727     -8.88018    202.78569  0.010204594 0.0089813898           18 
 1657000   0.60261097   -8.8851102    202.79118  0.010198712 0.0089730874           13 
 1658000   0.59508378    -8.874123    202.40844  0.010173323 0.0089647848           24 
 1659000   0.58182345   -8.8794302    202.78954  0.010186334 0.0089564963           14 
 1660000   0.59759535   -8.8675235    203.04666  0.010193106 0.0089482226           15 
 1661000   0.59800323   -8.8835372     202.7185  0.010170505 0.0089399619           22 
 1662000   0.60153431   -8.8742145    202.86721  0.010171842 0.0089317072           18 
 1663000   0.59750488   -8.8927949    202.85238  0.010164982 0.0089234612           26 
 1664000   0.57673373   -8.8754502    202.96353   0.01016444 0.0089152233           16 
 1665000   0.59394772   -8.8580991    202.52532  0.010136403 0.0089070037           10 
 1666000   0.59147892   -8.8766046     202.9991  0.010154017 0.0088987759           28 
 1667000   0.60176602   -8.8885683    202.74582  0.010135264 0.0088905566           16 
 1668000   0.59021376   -8.8635778    202.76255  0.010130023 0.0088823558           28 
 1669000   0.59034079   -8.8747042    202.82052  0.010126848 0.0088741604           24 
 1670000   0.59257438   -8.8915753    202.91747  0.010125622 0.0088659754           21 
 1671000   0.60430912   -8.9194598    202.78989    0.0101132 0.0088577893           31 
 1672000   0.59025889   -8.8678544     202.9879   0.01011702 0.0088496275            5 
 1673000   0.58933331   -8.8814898    202.79163  0.010101197 0.0088414732           27 
 1674000   0.58777684   -8.8866388    202.28201  0.010069793  0.008833323           14 
 1675000   0.58953918   -8.8785266    202.47474   0.01007337 0.0088251839           30 
 1676000   0.58236089   -8.8800351    202.62567  0.010074864 0.0088170514           23 
 1677000   0.58060662   -8.8899248     202.7056  0.010072829 0.0088089332           12 
 1678000   0.57352034   -8.8737422    202.55591  0.010059392 0.0088008195           20 
 1679000   0.57777494   -8.8980758    202.58995   0.01005509 0.0087927167           21 
 1680000   0.59026888   -8.8948845    202.85995  0.010062498 0.0087846204           18 
 1681000   0.57274322   -8.9038642        202.9  0.010058497 0.0087765308           20 
 1682000    0.5818498   -8.8887833    202.22271  0.010018961 0.0087684446           18 
 1683000    0.5802387   -8.9041734    202.89391  0.010046242  0.008760365           13 
 1684000   0.57453221   -8.8962141    202.61741  0.010026594 0.0087523102           13 
 1685000   0.58661934   -8.8913843    202.35403  0.010007618 0.0087442539           18 
 1686000   0.58276477   -8.9001456    202.29111  0.009998572  0.008736207           16 
 1687000   0.57033618   -8.9062157    202.92121   0.01002377 0.0087281688           13 
 1688000    0.5661714   -8.9070486    202.43814 0.0099939838  0.008720134           21 
 1689000   0.57060113   -8.8879486    202.39832 0.0099861021  0.008712115           17 
 1690000    0.5752225    -8.896557    202.80509  0.010000251  0.008704109            9 
 1691000   0.58708354   -8.8916277    202.63648 0.0099860281  0.008696096           32 
 1692000   0.57945284   -8.9059436    202.55832 0.0099762764 0.0086881109           21 
 1693000   0.59879467   -8.8998787    202.25769  0.009955586 0.0086801279           17 
 1694000   0.57018256   -8.8875004    202.56693 0.0099649218 0.0086721428           14 
 1695000   0.58509961   -8.9110436    202.54534 0.0099579811 0.0086641725           26 
 1696000   0.59410515   -8.9139703    202.54415 0.0099520516 0.0086562208           24 
 1697000   0.57538191   -8.9279479    202.63394 0.0099505962 0.0086482827           21 
 1698000   0.57174762   -8.8732364    202.85266 0.0099554703 0.0086403399           20 
 1699000   0.57097125   -8.8934084    202.90689 0.0099522705 0.0086324132            9 
 1700000   0.56376061   -8.9099015    202.84025 0.0099431495 0.0086244793           12 
 1701000   0.57890656   -8.8961685    202.42374  0.009916899 0.0086165495           19 
 1702000   0.57456893   -8.9008873    202.23169 0.0099016691 0.0086086342           19 
 1703000   0.57600021    -8.930354    202.13432   0.00989109 0.0086007165           20 
 1704000   0.57508827   -8.9308483    202.08672 0.0098829578 0.0085928106           14 
 1705000   0.57721284   -8.9208363    202.25724 0.0098854956 0.0085849205           10 
 1706000    0.5689437   -8.9147342    202.48137 0.0098906491 0.0085770265           18 
 1707000   0.57468025   -8.9207593    202.27943 0.0098749965 0.0085691449           17 
 1708000   0.56577012   -8.9177913    202.45182 0.0098776261 0.0085612677           10 
 1709000   0.59082966   -8.9142675    202.78914 0.0098882942 0.0085534132           21 
 1710000      0.56409   -8.9368857    202.24504 0.0098559961 0.0085455574           16 
 1711000   0.56656089   -8.9210224    202.31933  0.009853854   0.00853771           22 
 1712000   0.56392582   -8.9129768    202.38221 0.0098511589 0.0085298777           19 
 1713000   0.57235546   -8.8947846    202.32606 0.0098426764 0.0085220563           15 
 1714000   0.57351757   -8.9198674    202.37571 0.0098393482 0.0085142369           19 
 1715000   0.57374648   -8.9170161    202.33179 0.0098314765 0.0085064284           19 
 1716000   0.56875635   -8.9215882    202.22891 0.0098207514 0.0084986276           13 
 1717000   0.56722296   -8.9284818    202.05366 0.0098065258 0.0084908439            9 
 1718000    0.5727721   -8.9227901    202.40214 0.0098177214 0.0084830655           19 
 1719000   0.57122888    -8.901009     202.2048 0.0098024431  0.008475303           12 
 1720000   0.56322571   -8.9016924    202.49057 0.0098105896  0.008467556           22 
 1721000   0.56513781    -8.906294       202.78  0.009818904 0.0084598132           19 
 1722000   0.56543688   -8.9404876    202.26663 0.0097883578 0.0084520667           28 
 1723000   0.56542767   -8.9139803    202.59825 0.0097987161 0.0084443357           18 
 1724000   0.56513988   -8.9113191    202.46716 0.0097866959 0.0084366242           13 
 1725000   0.57951691   -8.9245985    202.37681 0.0097766576   0.00842893           20 
 1726000    0.5647376   -8.9270696    202.47552 0.0097757589 0.0084212286            8 
 1727000   0.56014658   -8.9180006    202.46318 0.0097695031  0.008413546           15 
 1728000   0.56571608   -8.9172547    202.11913 0.0097472573 0.0084058691            9 
 1729000   0.56960324   -8.9151255    202.50801 0.0097603627 0.0083981976           19 
 1730000   0.56942078   -8.9117514     202.4048 0.0097497493 0.0083905366           12 
 1731000   0.56087554   -8.9332406    202.07988 0.0097284749 0.0083828813           29 
 1732000   0.55307735   -8.9272125    202.32488  0.009734646 0.0083752414           17 
 1733000   0.55032279   -8.9007493    202.67967 0.0097460892 0.0083675937           18 
 1734000    0.5576805   -8.9234931    202.02529 0.0097090202 0.0083599599           17 
 1735000   0.55822282     -8.93594    202.27264 0.0097153044 0.0083523346           17 
 1736000   0.57151606   -8.9233264    202.25652 0.0097089342 0.0083447244           24 
 1737000   0.56066704   -8.9452473    202.35263 0.0097079558 0.0083371153           23 
 1738000   0.57244644   -8.9346203    202.32661 0.0097011225 0.0083295159           22 
 1739000   0.55573353   -8.9437187    202.05051 0.0096823129 0.0083219257           19 
 1740000   0.56412152   -8.9371238    202.24188  0.009685914 0.0083143512           23 
 1741000   0.55150407   -8.9431847    202.28853 0.0096825832 0.0083067891           18 
 1742000   0.56845538   -8.9481874    202.27467 0.0096763621 0.0082992237           18 
 1743000   0.55236095   -8.9249864    202.07703 0.0096613613 0.0082916721           19 
 1744000   0.56635607   -8.9362043    202.26196 0.0096646578 0.0082841197           19 
 1745000   0.55891692   -8.9433833    202.02526 0.0096478155 0.0082765773           14 
 1746000   0.55494435   -8.9375946    202.10413 0.0096460544 0.0082690575           19 
 1747000   0.55714742   -8.9232275    202.27757 0.0096488058 0.0082615496           20 
 1748000   0.55181993   -8.9183814    202.12947 0.0096362257 0.0082540384           22 
 1749000   0.55383864    -8.939283    202.55974 0.0096512171 0.0082465343           17 
 1750000   0.56257488   -8.9629061    201.94118 0.0096162466 0.0082390488           17 
 1751000   0.55841566    -8.940747    202.12318 0.0096194167 0.0082315645           20 
 1752000   0.55096471   -8.9431396    202.03611 0.0096097844 0.0082240852           16 
 1753000   0.54614829   -8.9210316    201.83786 0.0095948784   0.00821661           18 
 1754000   0.55398726   -8.9327087    201.87586 0.0095912134 0.0082091466           17 
 1755000   0.56557764   -8.9374383    202.21809 0.0096019986 0.0082016954           18 
 1756000   0.56068575   -8.9352125    202.17173 0.0095943305 0.0081942519            8 
 1757000   0.55738813    -8.918775    202.17616 0.0095890798 0.0081868244           15 
 1758000   0.55517077   -8.9368101    202.02894 0.0095766467 0.0081794053           15 
 1759000   0.56239343    -8.942225     202.2427 0.0095813295 0.0081719916           21 
 1760000   0.55888203   -8.9550438    201.96918 0.0095629347 0.0081645812           23 
 1761000   0.54654915   -8.9604742    202.24412 0.0095705149  0.008157174           26 
 1762000   0.55438014   -8.9545088    201.99433 0.0095532694 0.0081497764           18 
 1763000   0.56030161   -8.9517557    202.05653 0.0095507908 0.0081423833           18 
 1764000   0.54302248   -8.9465208     202.0561 0.0095453564 0.0081349914           13 
 1765000   0.54260455   -8.9382453     202.0467 0.0095395042 0.0081276218           19 
 1766000   0.54708823   -8.9382843    202.47502 0.0095543137 0.0081202569           13 
 1767000   0.55740937   -8.9551887    202.06358 0.0095295031 0.0081129071           25 
 1768000   0.55295212   -8.9613351    202.32563 0.0095364647 0.0081055652           19 
 1769000   0.54200444    -8.963137    201.92679 0.0095122853 0.0080982338           15 
 1770000   0.55482246   -8.9507128      202.263   0.00952274 0.0080909103           16 
 1771000   0.54781175   -8.9741714    201.52499 0.0094826364 0.0080835916           26 
 1772000   0.53747261     -8.95365     202.1694 0.0095075901 0.0080762817           21 
 1773000    0.5424091   -8.9539384    202.11948 0.0094998817 0.0080689831           25 
 1774000   0.55020255   -8.9537843    201.80309 0.0094796643 0.0080616865           28 
 1775000   0.53908864   -8.9825493    201.92818 0.0094801962 0.0080544113           19 
 1776000   0.53214363   -8.9611614    202.49643 0.0095015216 0.0080471424           33 
 1777000   0.55005305   -8.9407029    201.99828 0.0094728139 0.0080398803           23 
 1778000   0.53463789   -8.9662765    202.22508 0.0094781159 0.0080326189           12 
 1779000   0.54414305   -8.9419289    202.23479 0.0094732428 0.0080253736           23 
 1780000   0.53801719   -8.9644174    201.78094 0.0094466733 0.0080181307           33 
 1781000   0.53477191   -8.9652318    201.70359   0.00943775 0.0080108975           15 
 1782000    0.5376696   -8.9433914    202.17202 0.0094543594 0.0080036771           34 
 1783000   0.53979849   -8.9434623    201.65698 0.0094249848 0.0079964582           20 
 1784000   0.53407323   -8.9692394    202.01595 0.0094364701 0.0079892406           27 
 1785000   0.53984663   -8.9575168    201.60114  0.009411818 0.0079820442           32 
 1786000   0.54158202   -8.9560363    202.04228 0.0094271316 0.0079748488           23 
 1787000   0.54058705    -8.969584    201.95634 0.0094178485  0.007967671           14 
 1788000   0.54362025   -8.9644154     201.8524 0.0094077369 0.0079604965           19 
 1789000   0.54960676   -8.9716765    201.94829 0.0094069449 0.0079533254           19 
 1790000   0.53750743   -8.9647201    201.94467 0.0094015208 0.0079461708           14 
 1791000   0.53790509   -8.9583567    201.76562 0.0093879408 0.0079390226           17 
 1792000   0.53005172   -8.9742969    201.76809 0.0093828169 0.0079318856           15 
 1793000   0.53635849   -8.9619723    201.77454 0.0093778836 0.0079247521           13 
 1794000   0.52975923   -8.9806095    201.92193 0.0093795027 0.0079176299           11 
 1795000   0.53646625   -8.9746988    201.90952 0.0093737009 0.0079105083           15 
 1796000   0.53903682   -8.9745887    201.81154 0.0093639356 0.0079033886           21 
 1797000   0.53726884    -8.964879    201.79206 0.0093578215 0.0078962747           16 
 1798000    0.5465605    -8.961534    201.98626 0.0093616175 0.0078891765           23 
 1799000   0.52743092   -8.9623651    202.25938 0.0093690652 0.0078820919           19 
 1800000   0.53000884   -8.9822803    201.84895 0.0093448587 0.0078750178           25 
 1801000   0.53130737   -8.9655941    201.92698 0.0093432806 0.0078679466           24 
 1802000   0.52697523   -8.9866446    202.06524 0.0093444897 0.0078608892           43 
 1803000   0.53126682    -8.990281    201.82642 0.0093282686 0.0078538343           10 
 1804000   0.54172773   -8.9659679    201.85492  0.009324414  0.007846792           16 
 1805000   0.52799124   -8.9694281    201.86951  0.009319922 0.0078397612           27 
 1806000   0.52778809    -8.989357    201.25989 0.0092866321 0.0078327292           19 
 1807000   0.53269023   -8.9744101    201.94977 0.0093133078 0.0078257096           28 
 1808000   0.53456449   -8.9935775    202.02774 0.0093117504 0.0078187003           26 
 1809000   0.53342174   -8.9788251    202.06801  0.009308458 0.0078116886           27 
 1810000   0.52896352   -8.9957951     201.2857 0.0092672975 0.0078046908           22 
 1811000   0.53441118   -8.9870294    201.97606 0.0092939474 0.0077977029           14 
 1812000   0.53077225   -8.9646442    201.88237 0.0092845093 0.0077907219           11 
 1813000   0.53305313   -8.9964933    201.86344 0.0092785181 0.0077837498           24 
 1814000   0.51329116   -8.9745383    201.83838 0.0092722519 0.0077767878           30 
 1815000   0.52373542   -8.9874795    201.66464 0.0092591662 0.0077698248           17 
 1816000   0.52952102   -8.9763911    201.79918 0.0092602415 0.0077628776           16 
 1817000   0.52056988   -8.9925499    201.75389 0.0092530677 0.0077559262           16 
 1818000   0.52019047   -8.9898451    201.96695 0.0092577442 0.0077489922           19 
 1819000   0.52937834   -8.9945794    201.64691  0.009237993 0.0077420558           16 
 1820000   0.53145507    -8.999515    201.66516 0.0092337527 0.0077351278           17 
 1821000   0.53077833   -8.9914335    201.90956 0.0092398663 0.0077282054           12 
 1822000   0.53022474   -9.0093493    201.82386 0.0092308754 0.0077212961           15 
 1823000   0.52043856   -9.0134932    201.68213 0.0092193331 0.0077143917           29 
 1824000   0.52877914   -8.9955211    201.95049  0.009226539 0.0077074986           16 
 1825000   0.53873167   -9.0025833    201.57377 0.0092042817 0.0077006022           13 
 1826000   0.54388878   -8.9991814    201.54599 0.0091979731 0.0076937206           12 
 1827000   0.53431392   -8.9886634     201.7618 0.0092027822 0.0076868459           13 
 1828000   0.51825192   -8.9947697    201.43643 0.0091829153 0.0076799884           41 
 1829000   0.52241639   -8.9971996    202.21501 0.0092133682 0.0076731398           24 
 1830000   0.52491415    -8.990717    201.65421 0.0091827965  0.007666294           14 
 1831000   0.52653082   -8.9933884    201.70774 0.0091802175 0.0076594538           13 
 1832000   0.52065572   -9.0091125    201.54444 0.0091677782 0.0076526178           15 
 1833000   0.52339176   -9.0042363    201.94583 0.0091810253 0.0076457996           12 
 1834000   0.52031581   -9.0094263    201.76907 0.0091679876 0.0076389904           17 
 1835000   0.52674424    -8.996604    201.59783 0.0091552149 0.0076321858           10 
 1836000   0.51855418   -8.9693624    201.99195 0.0091681169 0.0076253996           13 
 1837000   0.51134233   -8.9911983     201.4535 0.0091386998 0.0076186103           20 
 1838000   0.52106707   -8.9957573    201.97831 0.0091575222 0.0076118284           12 
 1839000   0.51716406   -9.0079556    201.56018 0.0091335952 0.0076050564           21 
 1840000   0.53026144   -8.9917881    201.54814  0.009128086 0.0075982941           15 
 1841000    0.5227697   -8.9920957    201.33146 0.0091133196 0.0075915274           13 
 1842000   0.50185023   -8.9982293    201.68059 0.0091241673 0.0075847751           17 
 1843000   0.51803735   -8.9983617    201.56939 0.0091141885 0.0075780327           14 
 1844000   0.52790989   -9.0230471    201.43167  0.009103022  0.007571298           21 
 1845000   0.51936854   -9.0014531    201.47918  0.009100234 0.0075645669           21 
 1846000   0.51980972   -9.0105038    201.56926 0.0090993709 0.0075578464           15 
 1847000   0.51355172    -9.023191    201.70354 0.0091005028 0.0075511309           19 
 1848000   0.51481415   -9.0011486    201.65138 0.0090932259 0.0075444162           12 
 1849000   0.51693566   -9.0192392      201.729 0.0090918062 0.0075377122           21 
 1850000   0.51993396   -8.9994168    201.22904 0.0090643713 0.0075310142           13 
 1851000   0.51216467   -9.0045943    201.25388 0.0090605924 0.0075243213           13 
 1852000   0.50714139   -9.0095793    201.75308 0.0090781624 0.0075176349           17 
 1853000    0.5267657   -9.0129042    201.46494  0.009060305 0.0075109603           19 
 1854000   0.51282867    -8.999259    201.72228 0.0090669849 0.0075042957           17 
 1855000   0.50495996   -9.0260781     201.4701 0.0090507684 0.0074976357           13 
 1856000   0.50409738   -9.0046864    201.25137 0.0090360706 0.0074909776           24 
 1857000   0.51488175   -9.0147101     201.1181 0.0090252242  0.007484329           22 
 1858000   0.52296999   -9.0101085     201.5502 0.0090397469   0.00747769           11 
 1859000   0.50420443   -9.0213153    201.34968 0.0090258955 0.0074710628           20 
 1860000   0.51679554   -9.0147806    201.40862 0.0090236839  0.007464438           19 
 1861000   0.51258117   -9.0270981     201.3286 0.0090152515 0.0074578226           18 
 1862000   0.51080211   -9.0020509     201.2778 0.0090081362 0.0074512103           17 
 1863000   0.50804783   -9.0274106    201.87327 0.0090299368 0.0074446011            9 
 1864000   0.50697156   -9.0216917    201.34927 0.0090016664 0.0074379996           13 
 1865000   0.49996296   -9.0207245    201.31111 0.0089951344 0.0074314025           26 
 1866000    0.4935916   -9.0280644    201.41688 0.0089950376 0.0074248178           13 
 1867000   0.51635855   -9.0213488    201.18761 0.0089799862 0.0074182334           10 
 1868000   0.50986649   -9.0213744    201.35458 0.0089826274 0.0074116671           14 
 1869000   0.49786074   -9.0294444    201.09138 0.0089660861 0.0074051058           23 
 1870000   0.50882996   -9.0187487    201.63815 0.0089856572 0.0073985555           38 
 1871000   0.50109573   -9.0165105    201.05985 0.0089550977 0.0073920077           23 
 1872000   0.50782874   -9.0287335    201.12389 0.0089531646 0.0073854668           17 
 1873000    0.5104008   -9.0093863    200.86972 0.0089370761 0.0073789318           31 
 1874000   0.50943303   -9.0301336    201.54787 0.0089624633 0.0073724052           28 
 1875000   0.51168558   -9.0212155    201.38567 0.0089504741 0.0073658892           17 
 1876000    0.5138753   -9.0330678    201.25808 0.0089400353 0.0073593755           22 
 1877000   0.50180897   -9.0144304    201.33382 0.0089386354 0.0073528703           14 
 1878000   0.50299392   -9.0350058    201.28181 0.0089315679 0.0073463669           21 
 1879000   0.51008433   -9.0329804     201.5088 0.0089368812 0.0073398762           17 
 1880000   0.49859184    -9.022923    201.50055  0.008931762 0.0073333913           14 
 1881000   0.49941493   -9.0303589    201.17872 0.0089127555 0.0073269088           19 
 1882000   0.49526967   -9.0340329    201.61609 0.0089273862 0.0073204358           12 
 1883000   0.51066392   -9.0275152    201.04575 0.0088974046 0.0073139733           19 
 1884000   0.51264261   -9.0204151     201.2062 0.0088997786 0.0073075207           12 
 1885000    0.5082937   -9.0143412    201.37207 0.0089023906 0.0073010817           28 
 1886000   0.50784452   -9.0304282    201.11964 0.0088865164  0.007294642           31 
 1887000   0.49765619   -9.0225787    201.67648  0.008906398 0.0072882118           36 
 1888000   0.49349323   -9.0273368      201.227 0.0088818415 0.0072817848           26 
 1889000   0.50287375   -9.0525667     201.1767 0.0088749206 0.0072753717           17 
 1890000   0.48823131   -9.0308711    201.23518 0.0088728033 0.0072689577           39 
 1891000   0.49917153   -9.0328404    201.47637 0.0088787402  0.007262559           21 
 1892000   0.50112685   -9.0311168    201.33498 0.0088678198 0.0072561641           18 
 1893000   0.50140437   -9.0364965    201.04645 0.0088504334 0.0072497691           50 
 1894000   0.49408334   -9.0434474    201.43598 0.0088628997 0.0072433853           22 
 1895000   0.50575971   -9.0419265    201.02587 0.0088401878 0.0072370046           14 
 1896000   0.48844214   -9.0352778    201.03833 0.0088360727   0.00723063           41 
 1897000   0.50134487   -9.0562078    201.00616 0.0088300017 0.0072242717           22 
 1898000   0.47795688   -9.0491914    201.22455 0.0088349379 0.0072179179           44 
 1899000   0.49366744   -9.0362774    201.15964 0.0088274374   0.00721156           15 
 1900000   0.50995967   -9.0397518    200.79944 0.0088069929 0.0072052141           18 
 1901000   0.50047562   -9.0260989    201.20011 0.0088199241 0.0071988802           28 
 1902000   0.48383959   -9.0570156    200.89161 0.0088017706 0.0071925554           27 
 1903000   0.48432144    -9.047548    201.05094 0.0088041222 0.0071862278           27 
 1904000   0.47415433   -9.0440163    201.19415 0.0088057665 0.0071799154           14 
 1905000   0.48773539   -9.0409114    201.12946 0.0087983141 0.0071736091           16 
 1906000   0.49454931   -9.0560085     201.1016   0.00879248 0.0071673096           21 
 1907000   0.49504131   -9.0609306    201.14328 0.0087896908 0.0071610211           20 
 1908000   0.49657919   -9.0522657    201.18438 0.0087868787 0.0071547384           18 
 1909000   0.48923052   -9.0497231    201.00992 0.0087746603 0.0071484605           16 
 1910000   0.48886244   -9.0413967    201.20407  0.008778537 0.0071422013           14 
 1911000   0.49214335   -9.0411485    201.11597 0.0087701014 0.0071359424           16 
 1912000   0.49110061   -9.0398994    201.41562 0.0087785748 0.0071296914           21 
 1913000   0.49049144   -9.0365877    201.17395 0.0087634585 0.0071234447           19 
 1914000   0.49192878   -9.0488124    200.80934 0.0087430049 0.0071171947           18 
 1915000   0.50271497   -9.0594939    201.37559 0.0087630807 0.0071109591           35 
 1916000   0.48491953   -9.0627268    201.27217 0.0087540086 0.0071047274           19 
 1917000   0.49074048    -9.053833    200.82977 0.0087302108 0.0070985064           26 
 1918000   0.48619259   -9.0512027    201.06008 0.0087356657  0.007092289           15 
 1919000   0.49798672   -9.0685566    200.98839 0.0087280001  0.007086084           16 
 1920000   0.48562801   -9.0610096    200.81951 0.0087161244  0.007079881           15 
 1921000   0.48097918   -9.0558416    201.27256 0.0087312406 0.0070736844           20 
 1922000    0.4850101   -9.0421032    200.80751 0.0087065346 0.0070674931           16 
 1923000   0.49120515     -9.04965    200.72805 0.0086985636 0.0070613035           20 
 1924000   0.47531721   -9.0552821    201.40247 0.0087232532 0.0070551207           14 
 1925000   0.48366968   -9.0644949    200.71441 0.0086889356 0.0070489492           14 
 1926000    0.4907476   -9.0551121    200.97161 0.0086955525 0.0070427865           13 
 1927000   0.48359566   -9.0577314    201.34713 0.0087072794 0.0070366315           33 
 1928000   0.47992323    -9.060516    200.75123 0.0086770067 0.0070304825           20 
 1929000    0.4803944   -9.0706786    201.12647 0.0086887191 0.0070243457           35 
 1930000   0.48042874   -9.0664822    200.69397 0.0086655428 0.0070182132           31 
 1931000   0.48109961   -9.0568711     201.1354 0.0086801054 0.0070120866           23 
 1932000    0.4852627   -9.0716453    201.10422 0.0086742678  0.007005967           13 
 1933000   0.49217436   -9.0683117    201.00736 0.0086656042 0.0069998556           18 
 1934000    0.4824134   -9.0688787    200.97618 0.0086597801 0.0069937444           19 
 1935000   0.48054492   -9.0408895    201.28062 0.0086684159 0.0069876448           21 
 1936000   0.48366838   -9.0716568     200.8957   0.00864737 0.0069815498           18 
 1937000   0.49018098   -9.0615872     200.6237 0.0086312039 0.0069754671           16 
 1938000   0.48565557   -9.0567011    200.91165 0.0086391318 0.0069693895           13 
 1939000   0.48608887   -9.0699898    200.80856 0.0086302457 0.0069633203           39 
 1940000    0.4708357   -9.0728297    200.68672 0.0086205636 0.0069572581           42 
 1941000    0.4818185   -9.0691457    200.90897 0.0086256642 0.0069511976           16 
 1942000   0.47731705   -9.0738192    200.92764 0.0086220237 0.0069451396           16 
 1943000   0.47273797   -9.0615595      200.644 0.0086054213 0.0069390971           23 
 1944000   0.48735605   -9.0662489    201.08156 0.0086197514 0.0069330649           16 
 1945000   0.47284613   -9.0827831    200.54246 0.0085922218 0.0069270314           18 
 1946000   0.47659398   -9.0860311    201.53114 0.0086301446 0.0069210063           25 
 1947000   0.47917864   -9.0667341    200.55512 0.0085839376 0.0069149879           17 
 1948000   0.47476358   -9.0726615    201.10739 0.0086031566 0.0069089718           17 
 1949000   0.47802718   -9.0611711    200.62087 0.0085779405 0.0069029689           17 
 1950000   0.48772454   -9.0740505    200.39367 0.0085638321 0.0068969713           24 
 1951000   0.47670559   -9.0717726    200.60206 0.0085683437  0.006890979           34 
 1952000   0.46814181   -9.0821617     200.9018 0.0085767503 0.0068849971           16 
 1953000   0.46730841    -9.072769    200.90038  0.008572298 0.0068790197           20 
 1954000   0.45914989   -9.0764008    200.79242 0.0085633068 0.0068730507           37 
 1955000   0.46695871   -9.0657158    200.70061 0.0085550131 0.0068670926           16 
 1956000   0.48132482   -9.0749521    200.49548 0.0085419003 0.0068611344           33 
 1957000   0.47505273   -9.0901729    200.77114 0.0085492738 0.0068551876           17 
 1958000   0.48156413   -9.0783905    200.62181 0.0085385519 0.0068492459           15 
 1959000   0.46270077   -9.0745358    200.65741 0.0085357074 0.0068433072           14 
 1960000   0.47351504   -9.0680674    200.49287 0.0085243569 0.0068373781           35 
 1961000   0.47142044   -9.0737242    200.47372  0.008519196 0.0068314536           23 
 1962000   0.47333152   -9.0680213    200.57413 0.0085191188 0.0068255326           17 
 1963000    0.4646785   -9.0816926    200.62343 0.0085168719 0.0068196241            7 
 1964000     0.472442   -9.0877136     200.5368 0.0085088595 0.0068137194           15 
 1965000   0.47776082   -9.0805868    200.80772 0.0085160187 0.0068078258           13 
 1966000   0.46472426   -9.0830873    200.96259 0.0085182517 0.0068019315           13 
 1967000   0.47239718   -9.0838575    200.58931 0.0084981067 0.0067960488           39 
 1968000   0.47282315   -9.0999569    200.59542 0.0084940472 0.0067901649           22 
 1969000   0.47197308   -9.0879746    200.47749 0.0084847424  0.006784295           18 
 1970000   0.46372369   -9.1002345    200.78177 0.0084933067 0.0067784298           17 
 1971000   0.47186801   -9.0852942    200.64343 0.0084831484 0.0067725687           14 
 1972000   0.46176532   -9.0902445    200.57647 0.0084760173 0.0067667166           13 
 1973000   0.46584009   -9.0801728    200.81382 0.0084817462 0.0067608728           31 
 1974000   0.46311838   -9.0919272    200.52088 0.0084650829 0.0067550376           17 
 1975000   0.45986686   -9.0928679    200.77256 0.0084714159 0.0067492085           44 
 1976000   0.46857195    -9.073113    200.81235 0.0084688071 0.0067433869           11 
 1977000   0.46037474   -9.0920463    200.67132 0.0084585788 0.0067375725           11 
 1978000   0.46995969   -9.1011478    200.73881 0.0084571457 0.0067317679           20 
 1979000   0.46465498   -9.1070763    200.56505 0.0084455552 0.0067259709           25 
 1980000   0.45527697   -9.0926987     200.7787  0.008450282 0.0067201743           29 
 1981000    0.4526668    -9.098784    200.68436 0.0084420478  0.006714382           17 
 1982000   0.45698694   -9.0687459     200.5721 0.0084330684  0.006708601           24 
 1983000   0.45754742   -9.1047797    200.34371 0.0084192179 0.0067028272           20 
 1984000   0.45691902   -9.0935098    200.66553 0.0084284917 0.0066970572           22 
 1985000   0.46210603   -9.1048697    200.45095 0.0084152371 0.0066912912           19 
 1986000   0.45770897   -9.1000905    200.58451 0.0084166041 0.0066855311           28 
 1987000   0.46564479   -9.0921954    200.37601 0.0084036241  0.006679783           33 
 1988000   0.45834579   -9.0968295     200.5751 0.0084077425  0.006674037           22 
 1989000   0.45910373   -9.0865881    200.60672   0.00840484 0.0066682994           20 
 1990000   0.44587854   -9.1021719     200.6515 0.0084024918 0.0066625669           17 
 1991000   0.45589934     -9.08261    200.67593 0.0083992939 0.0066568397           37 
 1992000   0.45993563   -9.1127625    200.56037 0.0083902432 0.0066511193           34 
 1993000   0.45987497   -9.0963691    200.47742 0.0083825647 0.0066454029           16 
 1994000    0.4564585   -9.1099364    200.58554 0.0083828794 0.0066396884           23 
 1995000   0.45201947    -9.099956    200.44799 0.0083729319 0.0066339839           31 
 1996000   0.46140417   -9.0970286    200.73475 0.0083807092 0.0066282877           27 
 1997000   0.45868377    -9.101323    200.23525 0.0083556687    0.0066226           30 
 1998000   0.44568317   -9.1116606    200.47599 0.0083615278 0.0066169268           45 
 1999000   0.46011223    -9.095463     200.5369 0.0083598841 0.0066112496           31 
 2000000   0.45302244   -9.1017992    200.61076 0.0083587816 0.0066055807           21 
 2001000   0.44597258   -9.1215785    200.53032 0.0083512545 0.0065999155           45 
 2002000   0.45440052   -9.1154224    200.49822 0.0083457468  0.006594257           47 
 2003000    0.4486156   -9.1035177    200.38391 0.0083368243 0.0065886048           20 
 2004000   0.44597774   -9.1228265    200.36939 0.0083320604 0.0065829606           43 
 2005000   0.44613663     -9.11345     200.3865 0.0083286159 0.0065773226           27 
 2006000   0.45066686   -9.1126882    200.20013 0.0083167221 0.0065716866           29 
 2007000   0.45584013   -9.0943631     200.3345 0.0083181575 0.0065660571           37 
 2008000    0.4476871   -9.1147026    200.17617  0.008307444 0.0065604358           49 
 2009000   0.44466504    -9.104148    200.39795 0.0083125081 0.0065548201           37 
 2010000   0.45213536   -9.1096163    200.52706 0.0083137255 0.0065492147           23 
 2011000   0.45294522   -9.1152913    200.45599 0.0083066464  0.006543609           30 
 2012000   0.45840942   -9.1050741    200.64634 0.0083104018 0.0065380159           20 
Loop time of 5030.31 on 48 procs for 2000000 steps with 4000 atoms

Performance: 68703.560 tau/day, 397.590 timesteps/s
99.4% CPU use with 48 MPI tasks x no OpenMP threads

MPI task timing breakdown:
Section |  min time  |  avg time  |  max time  |%varavg| %total
---------------------------------------------------------------
Pair    | 350.01     | 377.49     | 409.22     |  77.1 |  7.50
Neigh   | 33.848     | 34.933     | 36.213     |  11.5 |  0.69
Comm    | 316.16     | 344.05     | 373.54     |  85.4 |  6.84
Output  | 4.2226     | 4.2245     | 4.2548     |   0.2 |  0.08
Modify  | 4213.2     | 4225       | 4235.8     |   7.3 | 83.99
Other   |            | 44.61      |            |       |  0.89

Nlocal:        83.3333 ave          92 max          74 min
Histogram: 1 1 3 8 9 7 12 5 1 1
Nghost:        2266.19 ave        2288 max        2250 min
Histogram: 5 2 8 10 2 11 4 2 3 1
Neighs:        15302.3 ave       17539 max       13481 min
Histogram: 3 5 5 7 8 10 4 2 3 1
FullNghs:      30604.6 ave       34006 max       27133 min
Histogram: 1 1 4 6 10 11 9 4 1 1

Total # of neighbors = 1469020
Ave neighs/atom = 367.25500
Neighbor list builds = 106620
Dangerous builds = 0

#clear
#
#next RN
#
#jump SELF
Total wall time: 1:23:53
