
units lj                  # Use reduced LJ style units
atom_style atomic         # Uncharged point particles
atom_modify map hash      # Needed for indexing of clusters etc
                          # Used to be able to find where atoms are in relation to each other.

lattice fcc 1.0 spacing 1 1 1
Lattice spacing in x,y,z = 1.5874011 1.5874011 1.5874011
region box block 0 10 0 10 0 10 units lattice
create_box 2 box
Created orthogonal box = (0.0000000 0.0000000 0.0000000) to (15.874011 15.874011 15.874011)
  3 by 4 by 4 MPI processor grid
create_atoms 1 box
Created 4000 atoms
  using lattice units in orthogonal box = (0.0000000 0.0000000 0.0000000) to (15.874011 15.874011 15.874011)
  create_atoms CPU = 0.003 seconds
set type 1 type/fraction 2 0.56 78393
Setting atom values ...
  2252 settings made for type/fraction
mass 1 1.0
mass 2 1.0
pair_style lj/cut  3.5
pair_modify tail  yes
pair_coeff 1  1  1.0  1.0   # Intearaction between 1 and 1 set with epsilon = 1 and sigma = 1
pair_coeff 1  2  1.5  0.8
pair_coeff 2  2  0.5  0.88

write_data data.0
System init for write_data ...
Neighbor list info ...
  update every 1 steps, delay 10 steps, check yes
  max neighbors/atom: 2000, page size: 100000
  master list distance cutoff = 3.8
  ghost atom cutoff = 3.8
  binsize = 1.9, bins = 9 9 9
  1 neighbor lists, perpetual/occasional/extra = 1 0 0
  (1) pair lj/cut, perpetual
      attributes: half, newton on
      pair build: half/bin/atomonly/newton
      stencil: half/bin/3d
      bin: standard
WARNING: Not all mixed pair coeffs generated from mixing. Use write_data with 'pair ij' option to store all pair coeffs. (../write_data.cpp:312)


#############################
#   M E L T   S Y S T E M   #
#############################

velocity all create 2.4 6229865 mom yes dist gaussian # Assign velocities
                                                    # Temperature 2.4, random number seed, zero linear momentum
                                                                                # Gaussian distribution

timestep 0.002   # simulation timestep
thermo 1000       # output thermodynamic data every 1000 steps bf 100

# Define a fix  in this case with index 1 applied to all
# particles in the simulation. This fix is for simulations
# in the anisotropic NPT ensemble. Note that we use the MTK
# correction.
fix 1 all npt temp 2.4 2.4 0.1 iso 5.68 5.68 0.5 mtk yes tchain 5 pchain 5 # Use NPT ensemble
                                                                         # Set temperature and pressure and damping
                                                                         # Numbers of thermostats in chain and in barostat
run 10000          # run for 10000 steps
Per MPI rank memory allocation (min/avg/max) = 3.642 | 3.644 | 3.648 Mbytes
Step Temp E_pair E_mol TotEng Press Volume 
       0          2.4   -4.9459583            0   -1.3468583   -4.1435722         4000 
    1000    2.4101186   -4.7079293            0   -1.0936551    5.7536215    3606.5037 
    2000    2.3532306   -4.6579073            0   -1.1289438     5.618282    3638.9034 
    3000    2.3970336   -4.6592856            0    -1.064634    5.5040748    3644.7955 
    4000     2.428102   -4.6554563            0   -1.0142139    5.5726011    3651.2403 
    5000    2.3871711   -4.6398314            0     -1.05997    5.9991464    3624.5194 
    6000     2.388612   -4.6982783            0    -1.116256    5.9242244    3596.3793 
    7000    2.4260957   -4.6373662            0  -0.99913238    5.7103956     3652.405 
    8000    2.4101827   -4.6114007            0  -0.99703049    6.0398293    3633.5867 
    9000    2.4424921   -4.6904753            0   -1.0276531    5.9863931    3607.9837 
   10000    2.3755159   -4.6106942            0   -1.0483111    5.8489018     3648.112 
Loop time of 2.66281 on 48 procs for 10000 steps with 4000 atoms

Performance: 648938.562 tau/day, 3755.431 timesteps/s
99.6% CPU use with 48 MPI tasks x no OpenMP threads

MPI task timing breakdown:
Section |  min time  |  avg time  |  max time  |%varavg| %total
---------------------------------------------------------------
Pair    | 1.1992     | 1.2703     | 1.3535     |   2.7 | 47.70
Neigh   | 0.21738    | 0.22419    | 0.23343    |   0.7 |  8.42
Comm    | 0.83306    | 0.90033    | 0.98107    |   3.6 | 33.81
Output  | 0.00024993 | 0.00025618 | 0.00032146 |   0.0 |  0.01
Modify  | 0.21855    | 0.25195    | 0.28925    |   3.6 |  9.46
Other   |            | 0.01583    |            |       |  0.59

Nlocal:        83.3333 ave          92 max          76 min
Histogram: 3 3 4 10 4 13 4 4 1 2
Nghost:        1742.40 ave        1766 max        1721 min
Histogram: 3 5 3 7 9 7 4 3 5 2
Neighs:        10466.0 ave       11853 max        9441 min
Histogram: 3 8 4 8 10 3 4 5 2 1

Total # of neighbors = 502370
Ave neighs/atom = 125.59250
Neighbor list builds = 904
Dangerous builds = 188

# Equilibrate just above the melting temperature to avoid step fn in T

fix 1 all npt temp 1.25 1.25 0.1 iso 5.68 5.68 0.5 mtk yes tchain 5 pchain 5
run 2000
Per MPI rank memory allocation (min/avg/max) = 3.644 | 3.646 | 3.650 Mbytes
Step Temp E_pair E_mol TotEng Press Volume 
   10000    2.3755159   -4.6106942            0   -1.0483111    5.8489018     3648.112 
   11000    1.2433792   -6.7483696            0    -4.883767    5.6590429    2806.1527 
   12000    1.2370739   -6.9204911            0   -5.0653441    5.3147524    2778.5821 
Loop time of 0.65826 on 48 procs for 2000 steps with 4000 atoms

Performance: 525020.760 tau/day, 3038.315 timesteps/s
99.6% CPU use with 48 MPI tasks x no OpenMP threads

MPI task timing breakdown:
Section |  min time  |  avg time  |  max time  |%varavg| %total
---------------------------------------------------------------
Pair    | 0.30456    | 0.32306    | 0.34613    |   1.6 | 49.08
Neigh   | 0.040962   | 0.043529   | 0.046387   |   0.5 |  6.61
Comm    | 0.217      | 0.2425     | 0.26572    |   2.1 | 36.84
Output  | 5.1537e-05 | 5.284e-05  | 6.8686e-05 |   0.0 |  0.01
Modify  | 0.040935   | 0.044151   | 0.046666   |   0.8 |  6.71
Other   |            | 0.004971   |            |       |  0.76

Nlocal:        83.3333 ave          90 max          73 min
Histogram: 1 1 2 3 10 7 4 6 12 2
Nghost:        2100.75 ave        2117 max        2078 min
Histogram: 1 3 1 7 8 7 5 2 8 6
Neighs:        13737.1 ave       15569 max       11937 min
Histogram: 2 3 5 3 13 6 6 7 1 2

Total # of neighbors = 659382
Ave neighs/atom = 164.84550
Neighbor list builds = 142
Dangerous builds = 10

#############################
# L I N E A R  Q U E N C H  #
#############################

# Define solid atoms. This closely follows ten Wolde  Ruiz-Montero and Frenkel  Faraday Discuss  1996  104  93-110
# Compute components of the per-atom q6 vector
compute q6 all orientorder/atom degrees 1 6 components 6 nnn NULL cutoff 1.3 # compute the Q6 parameter.
                                                                             # Use all neighbours within 1.3 unit cell.

# get number of connections
compute coord_number all coord/atom orientorder q6 0.5

# An atom is solid if it has 8 or more connections (of a possible 14)
variable is_solid atom c_coord_number>=8
group solid dynamic all var is_solid    # Must be dynamic to update
dynamic group solid defined

# do clustering
compute cluster solid cluster/atom 1.3 # Create a cluster where all atoms within are solid and max 1.3 units from another member

# define chunks one chunk per cluster
compute clus_chunks solid chunk/atom c_cluster nchunk every compress yes  # Says which atoms are in which chunk

# count the size of each chunk
compute size_chunks solid property/chunk clus_chunks count


# Find the maximum entry in the vector of chunk sizes
variable max_n equal max(c_size_chunks)


# Thermo style which includes this variable
# thermo_style custom step temp pe vol v_max_n

thermo ${N}  # Print the thermo information every 100 steps
thermo 1000  

# Reset the npt fix at a lower temperature (below freezing)
fix 1  all npt temp  ${temp} ${temp}  0.1  iso  5.68  5.68  0.5  mtk yes tchain  5  pchain  5
fix 1  all npt temp  0.45 ${temp}  0.1  iso  5.68  5.68  0.5  mtk yes tchain  5  pchain  5
fix 1  all npt temp  0.45 0.45  0.1  iso  5.68  5.68  0.5  mtk yes tchain  5  pchain  5

dump dmp2 all dcd ${N} traj.dcd
dump dmp2 all dcd 1000 traj.dcd


compute msd all msd com yes
variable twopoint equal c_msd[4]/6/(step*dt+1.0e-6)
fix 9 all vector 10 c_msd[4]
variable fit equal slope(f_9)/6/(10*dt)
thermo_style custom step temp pe c_msd[4] v_twopoint v_fit v_max_n

fix 1 all npt temp 1.25 ${temp} 0.1 iso 5.68 5.68 0.5 mtk yes tchain 5 pchain 5
fix 1 all npt temp 1.25 0.45 0.1 iso 5.68 5.68 0.5 mtk yes tchain 5 pchain 5
run 2000000 # 5000000  # Run for this many steps
Neighbor list info ...
  update every 1 steps, delay 10 steps, check yes
  max neighbors/atom: 2000, page size: 100000
  master list distance cutoff = 3.8
  ghost atom cutoff = 3.8
  binsize = 1.9, bins = 8 8 8
  4 neighbor lists, perpetual/occasional/extra = 1 3 0
  (1) pair lj/cut, perpetual
      attributes: half, newton on
      pair build: half/bin/atomonly/newton
      stencil: half/bin/3d
      bin: standard
  (2) compute orientorder/atom, occasional
      attributes: full, newton on
      pair build: full/bin/atomonly
      stencil: full/bin/3d
      bin: standard
  (3) compute coord/atom, occasional
      attributes: full, newton on
      pair build: full/bin/atomonly
      stencil: full/bin/3d
      bin: standard
  (4) compute cluster/atom, occasional
      attributes: full, newton on
      pair build: full/bin/atomonly
      stencil: full/bin/3d
      bin: standard
Per MPI rank memory allocation (min/avg/max) = 9.845 | 9.850 | 9.852 Mbytes
Step Temp PotEng c_msd[4] v_twopoint v_fit v_max_n 
   12000    1.2370739   -6.9204911 3.6822055e-30 2.557087e-32 8.3333333e+20            2 
   13000    1.2504155   -6.9661675   0.48012854  0.003077747  0.039298169            3 
   14000    1.2439768   -6.9149088   0.87130399 0.0051863331  0.035130449            2 
   15000    1.2450885    -6.893333    1.2632132 0.0070178512  0.034205371            3 
   16000    1.2444091     -6.90127    1.6710317 0.0087032899  0.033614899            1 
   17000    1.2332608   -6.8590235     2.022286 0.0099131664  0.033122531            4 
   18000    1.2575416   -6.9161147    2.4574992  0.011377311  0.032911744            1 
   19000    1.2555731   -6.8927111    2.9152893  0.012786356   0.03339135            2 
   20000    1.2306001    -6.907047    3.3334272   0.01388928  0.033667092            2 
   21000    1.2414889   -6.8813457     3.722083   0.01477017  0.033780993            4 
   22000    1.2362501   -6.8738649    4.1844052   0.01585002  0.034037711            4 
   23000    1.2221042   -6.8337923    4.6209119  0.016742434  0.034275294            6 
   24000    1.2263417   -6.8577884    5.0319659  0.017472103  0.034445728            2 
   25000    1.2128806   -6.9343463    5.3931089  0.017977029  0.034528095            3 
   26000    1.2439063   -6.8942942    5.9021353    0.0189171   0.03462678            1 
   27000     1.231419   -6.8775423    6.2928935  0.019422511  0.034756409            2 
   28000    1.2543038   -6.9271999    6.6787937  0.019877362  0.034805279            2 
   29000    1.2313358   -6.8565129    7.0868023  0.020364374  0.034741197            2 
   30000    1.2344315    -6.867819    7.4400214  0.020666726  0.034693071            2 
   31000    1.2619837    -6.879551    7.8210411  0.021024304  0.034577836            3 
   32000    1.2576803   -6.9083614    8.1654754  0.021264258  0.034423577            1 
   33000    1.2211447   -6.8403979    8.6375882  0.021812091  0.034347161            3 
   34000    1.2461526   -6.9170333     9.125146  0.022365554  0.034322366            4 
   35000    1.2363582   -6.9181832    9.5857562  0.022823229  0.034354995            5 
   36000    1.2421474   -6.9187493    10.022736  0.023200778  0.034428338            2 
   37000    1.2445628   -6.9256324    10.425668  0.023481235  0.034491596            1 
   38000    1.2366998   -6.9527835    10.790733  0.023663889  0.034520726            2 
   39000    1.2532428   -6.9001229    11.232983    0.0240021  0.034543947            2 
   40000    1.2451769   -6.9034654    11.644712  0.024259817    0.0345538            2 
   41000    1.2474357   -6.9210892    12.023422  0.024437848  0.034549981            1 
   42000    1.2344037   -6.9402331    12.466869   0.02473585  0.034542044            2 
   43000    1.2418982   -6.9357191    12.946106  0.025089352  0.034568044            2 
   44000    1.2350403   -6.8821845    13.201333  0.025002523  0.034552272            1 
   45000    1.2434004   -6.8772688    13.562917  0.025116513  0.034506136            1 
   46000     1.232015   -6.8857547    13.902286    0.0251853   0.03444317            3 
   47000    1.2311455   -6.9187777    14.312941  0.025377554  0.034358892            1 
   48000    1.2067417   -6.9708136    14.638689  0.025414391  0.034310375            2 
   49000    1.2426153   -6.9761231    14.969017  0.025457511  0.034222293            2 
   50000    1.2465683   -6.9703907    15.371944  0.025619907  0.034117067            4 
   51000    1.2321975    -6.937931    15.719178  0.025684931   0.03403661            4 
   52000    1.2373963   -6.9459688     16.18292  0.025934166  0.033961651            3 
   53000    1.2315416   -6.9460878    16.640476   0.02616427  0.033905119            2 
   54000    1.2193738   -6.9154769    16.968887  0.026186554  0.033852871            2 
   55000    1.2560843   -6.9363061    17.360324  0.026303521  0.033796464            3 
   56000    1.2592287   -6.9835429    17.757415  0.026424725  0.033743898            1 
   57000     1.221528   -6.9363181    18.258143  0.026693192  0.033714119            4 
   58000    1.2436887   -6.9714136    18.719998  0.026896548  0.033691551            4 
   59000    1.2505803   -6.9238938    18.900998  0.026696324  0.033646001            2 
   60000    1.2387731   -6.9289972    19.365956  0.026897161  0.033608409            2 
   61000    1.2609272   -6.9612838    19.649069   0.02684299  0.033573266            3 
   62000     1.223199   -6.9344853      20.0312  0.026923655  0.033506267            3 
   63000    1.2172978   -6.9360443    20.290588  0.026839402  0.033440177            3 
   64000    1.2173656    -6.908403     20.70933  0.026965274  0.033372287            5 
   65000    1.2233464    -6.976437    21.088382  0.027036387  0.033316536            3 
   66000    1.2229198   -6.9377855    21.458789   0.02709443   0.03326933            3 
   67000    1.2521766   -6.9547548    21.849195  0.027175615  0.033224363            2 
   68000     1.193527   -6.9468465    22.259067  0.027278268   0.03317294            2 
   69000    1.2293105   -6.9320767    22.488536  0.027160068  0.033103306            3 
   70000    1.2287207   -6.9469778    22.807154  0.027151374  0.033041041            2 
   71000    1.2307002   -7.0097019    23.184937  0.027212367  0.032978836            1 
   72000     1.221465   -6.9125133    23.518891  0.027220939  0.032917669            5 
   73000    1.2272219   -6.9491353     23.85124  0.027227443  0.032851848            2 
   74000    1.1754206   -7.0005777    24.149688  0.027195594  0.032777803            3 
   75000    1.2129387   -6.9476401    24.511557  0.027235063  0.032706767            5 
   76000    1.2166743   -6.9177329    24.938406  0.027344744  0.032633169            1 
   77000    1.2133895   -6.9524362    25.190941  0.027262923  0.032559382            4 
   78000    1.1986188   -6.9854366     25.62295  0.027374947  0.032486268            1 
   79000    1.2224522   -6.9951498    25.987276  0.027412738  0.032427142            4 
   80000    1.2289565   -6.9582452    26.431321  0.027532626  0.032376062            5 
   81000    1.2286634   -6.9392438    26.676393  0.027444848  0.032316829            3 
   82000    1.2257665   -6.9218368    27.116262  0.027557177  0.032263343            2 
   83000    1.2377755   -6.9743026    27.429454  0.027539612   0.03221489            2 
   84000    1.2344217   -6.9378936    27.861305  0.027640183  0.032174488            2 
   85000    1.2224819   -6.9647095    28.328902  0.027773433  0.032143255            2 
   86000    1.2308166   -6.9873345    28.841432  0.027947124   0.03212196            4 
   87000    1.2150936    -6.981414    29.255871  0.028022864   0.03210996            1 
   88000    1.1911838   -6.9701651    29.716744  0.028140856  0.032101987            3 
   89000     1.221071   -6.9702121    29.995288  0.028085476  0.032092921            5 
   90000    1.2557101   -6.9513826    30.404654  0.028152458  0.032082678            2 
   91000    1.2101364   -6.9620178    30.611417  0.028032433  0.032064462            3 
   92000    1.2174942   -6.9464734    31.106781  0.028176432  0.032046535            3 
   93000    1.2134669   -6.9360501    31.343784  0.028085828  0.032021574            1 
   94000    1.2167636   -6.9905028    31.794959   0.02818702  0.032001301            3 
   95000    1.2094526   -6.9822227    32.252358  0.028291542  0.031990835            2 
   96000    1.1952626   -7.0074507    32.690376  0.028377062  0.031987645            2 
   97000    1.1980107   -6.9545314    33.185383  0.028509779  0.031986546            4 
   98000    1.2121709   -6.9485944    33.567155  0.028543499   0.03198089            1 
   99000    1.2261022    -6.968793    33.917584  0.028550154  0.031976536            3 
  100000    1.2010937    -6.936619    34.375474  0.028646228  0.031974247            1 
  101000    1.2183584   -6.9439155    34.652469  0.028591146  0.031964121            6 
  102000    1.2236911   -6.9542107    35.005879  0.028599574  0.031957734            2 
  103000    1.2194431   -6.9894308    35.383205  0.028627188  0.031952577            2 
  104000    1.1942237   -6.9865068    35.768135  0.028660364  0.031947999            7 
  105000     1.223922   -6.9988832    36.197682  0.028728319  0.031946508            1 
  106000    1.2019178    -7.005043    36.284919   0.02852588     0.031939            3 
  107000    1.2110076   -6.9942928    36.882285  0.028724521  0.031929033            3 
  108000    1.1927152   -6.9499714    37.287074   0.02877089  0.031923815            2 
  109000    1.2112887   -6.9995046     37.43638  0.028621085   0.03191826            2 
  110000    1.1856452    -6.976642    37.874429  0.028692749  0.031909865            4 
  111000    1.2341863   -6.9851081    38.121503  0.028619747  0.031891642            2 
  112000    1.2287488   -6.9697946     38.48794   0.02863686  0.031876195            4 
  113000    1.1889449   -7.0018718    39.062238   0.02880696  0.031866846            2 
  114000    1.2197439   -6.9538901     39.50003  0.028874291  0.031858512            1 
  115000    1.2281869    -6.973091    39.871481  0.028892377  0.031852525            2 
  116000    1.1703055   -6.9683436    40.533592  0.029118959  0.031853973            1 
  117000    1.1729228   -7.0334809    40.900532  0.029131433   0.03185745            2 
  118000    1.2283561   -7.0251168     41.34264   0.02919678  0.031861265            2 
  119000    1.2227199   -6.9990385    41.987377  0.029402925  0.031873031            5 
  120000    1.2222719    -6.971211    42.488245  0.029505725  0.031889009            3 
  121000    1.2061093   -6.9760704    42.798565  0.029475595    0.0319068            1 
  122000    1.2125025   -7.0084834    43.077364  0.029424429  0.031921914            2 
  123000    1.1985947   -7.0511464    43.134539  0.029223942  0.031933669            2 
  124000    1.2436337   -6.9676665    43.724715  0.029384889  0.031942643            4 
  125000    1.2102076   -6.9952274    43.883564  0.029255709  0.031947789            1 
  126000    1.1934786   -6.9873976    44.273488  0.029281407  0.031949485            2 
  127000    1.1895425   -6.9085564    44.946613  0.029492528  0.031947783            4 
  128000    1.2171939   -6.9638174     45.09301  0.029357428  0.031952477            2 
  129000    1.2207318   -6.9502208    45.563446   0.02943375  0.031955658            3 
  130000    1.2071925    -7.003691    46.013724  0.029495977   0.03196047            2 
  131000    1.2048054   -7.0232255    46.360291  0.029491279  0.031970216            2 
  132000    1.2090311   -7.0204531    46.914499  0.029617739  0.031978168            2 
  133000    1.2004674    -7.046718    47.063131  0.029488177  0.031984446            2 
  134000    1.1876476   -6.9513077    47.799413  0.029726003  0.031992093            4 
  135000    1.1837495   -7.0049857    47.924753  0.029583181   0.03199951            4 
  136000    1.2238675    -6.987182    48.296289  0.029593314  0.032005496            7 
  137000      1.18926   -7.0090517    48.805367  0.029686963   0.03201103            3 
  138000    1.2030148   -7.0074073    49.251665  0.029741344  0.032020893            1 
  139000    1.2056977    -7.000267    49.713994  0.029804553  0.032029321            1 
  140000    1.2038092   -7.0289288    49.957515  0.029736616  0.032039712            1 
  141000    1.1797958   -7.0079883    50.520952  0.029858718  0.032051146            2 
  142000    1.1952377   -6.9986191    50.901775  0.029871934  0.032062572            2 
  143000    1.1825975   -7.0434695    51.207287  0.029841076  0.032070109            2 
  144000    1.1664459   -6.9846799    51.636656  0.029882324  0.032077518            2 
  145000    1.1801196   -7.0309255    51.776747  0.029756751  0.032081939            2 
  146000    1.2006336     -6.99954    52.157327  0.029770164  0.032081356            1 
  147000    1.1895543   -7.0286115    52.519617  0.029773025  0.032077987            3 
  148000     1.223733   -7.0183209    52.780866  0.029718956  0.032076297            2 
  149000    1.1759626   -7.0050013    53.134689  0.029717387  0.032071162            3 
  150000     1.208971   -7.0199755    53.348953  0.029638307  0.032065348            3 
  151000    1.2116892   -6.9923021    53.723541  0.029648753   0.03205952            2 
  152000    1.1997442   -7.0751906    53.894984  0.029547689  0.032053395            5 
  153000    1.1975779   -6.9893624    54.621044  0.029750024  0.032046084            2 
  154000    1.2032113   -7.0687235    54.534336  0.029509922  0.032039365            3 
  155000    1.1926925   -7.0625455    55.030831  0.029586468  0.032029566            1 
  156000    1.2045431   -7.0463823    55.292965   0.02953684  0.032020596            4 
  157000    1.1836691   -7.0065885    55.875901  0.029658122  0.032007126            3 
  158000    1.2045338    -7.026333     55.65071   0.02935164  0.031992878            4 
  159000    1.1688382   -7.0598404    56.314309  0.029514837  0.031975522            2 
  160000    1.1936501   -7.0210304    56.594284   0.02947619  0.031957678            2 
  161000    1.1862979     -7.03197    56.940252   0.02947218  0.031940992            2 
  162000    1.1609669   -7.0345168    57.301214  0.029475933  0.031923089            3 
  163000    1.1829941      -7.0381    57.492944   0.02939312  0.031903492            2 
  164000    1.1777451    -6.991253    58.218373  0.029582507  0.031886114            2 
  165000    1.1762754   -6.9894738    58.207813  0.029397885  0.031868868            3 
  166000    1.2082568   -7.0783738    58.406044  0.029320303  0.031848823            2 
  167000     1.206317   -7.0390842     58.97486  0.029428573   0.03182879            2 
  168000    1.1997474   -7.0353967    59.392993   0.02946081  0.031809195            3 
  169000    1.2109982   -7.0762889    59.511905  0.029345121  0.031788599            4 
  170000    1.2145345    -7.045184    59.775112  0.029301525  0.031768091            6 
  171000    1.1798357   -7.0721807    59.779598  0.029132358   0.03174188            4 
  172000    1.1750258   -7.0086372    60.454763  0.029290098  0.031716838            1 
  173000    1.1568991   -7.0706472    60.845629   0.02930907  0.031691907            2 
  174000    1.1918512   -7.0540022    61.071498  0.029248801  0.031670318            2 
  175000    1.2051341   -7.0474302    61.476011  0.029274291  0.031648465            3 
  176000    1.1773161   -7.0636054    61.796775  0.029259837   0.03162359            2 
  177000    1.1497784   -7.0301272    62.010251  0.029195033  0.031598223            2 
  178000    1.1885104   -7.0711288    62.153633  0.029098143   0.03157419            3 
  179000    1.1866348   -7.0740773    62.456324  0.029076501  0.031546671            4 
  180000     1.181077   -7.0243728    63.270444  0.029291872  0.031521875            2 
  181000    1.2003856   -7.0754603    63.383515  0.029182097  0.031498083            1 
  182000    1.1867798   -7.0551285    63.635205  0.029136998  0.031475217            2 
  183000    1.1533431   -7.0438031    64.135992  0.029205825   0.03145072            5 
  184000    1.1807207   -7.0951624    64.277488  0.029111181  0.031425251            4 
  185000    1.1834025   -7.0569517    64.387176  0.029003232  0.031396996            2 
  186000    1.1997301   -7.0972852    65.081242  0.029158262  0.031370573            2 
  187000    1.2003398   -7.0749055    65.150562  0.029033227  0.031342311            2 
  188000    1.2027036   -7.0937141     65.24817  0.028922061  0.031313418            5 
  189000     1.191976   -7.0955437    65.773577  0.029000695   0.03128404            2 
  190000    1.1875404   -7.0232041    66.348539  0.029100236  0.031257672            2 
  191000     1.186796   -7.0945584    66.400562  0.028970577  0.031232803            2 
  192000    1.1809196   -7.0635384    66.787544  0.028987649  0.031207792            2 
  193000    1.1895938   -7.0803726    67.096722  0.028970951  0.031182896            9 
  194000    1.1941813   -7.0195449    67.478779   0.02898573  0.031158005            4 
  195000    1.1781204   -7.0804766    67.887126  0.029011592  0.031131846            5 
  196000    1.1655791   -7.0872938    68.075654   0.02894373  0.031103441            3 
  197000    1.1891278   -7.1120001    68.152068  0.028829132  0.031076368            1 
  198000    1.2010201   -7.0316124    68.816939  0.028963358  0.031051411            4 
  199000    1.1753596   -7.1081385    69.023042  0.028904122  0.031026302            3 
  200000    1.1699714   -7.0818935    69.252803  0.028855335  0.031000749            4 
  201000    1.1745032   -7.1521143    69.822448  0.028947947   0.03097424            4 
  202000    1.1645804   -7.0610483    70.436809   0.02905809   0.03094965            3 
  203000     1.189923   -7.1063295    70.719324  0.029030921  0.030928499            2 
  204000    1.1712128   -7.1242513    71.010335   0.02900749  0.030907327            2 
  205000    1.1996762   -7.0507193    71.239912  0.028959314  0.030886902            3 
  206000    1.1614546   -7.1221327     71.32332  0.028852476  0.030863884            2 
  207000    1.1685362   -7.0829297    71.708236   0.02886805   0.03084172            4 
  208000    1.1660122   -7.0217565    72.313111  0.028971599  0.030820457            3 
  209000    1.1634078   -7.0813851     72.58164  0.028940048  0.030799625            5 
  210000    1.1815043   -7.1152478    72.698548   0.02884863  0.030776078            3 
  211000    1.1623015   -7.1111818    72.985935  0.028825409   0.03075285            3 
  212000     1.174036   -7.0628841    73.355039  0.028834528  0.030731813            2 
  213000    1.1798919   -7.0856659     73.50909  0.028759425  0.030708929            3 
  214000    1.1827072   -7.0476247     73.81925  0.028745814  0.030683994            1 
  215000    1.1859522   -7.0904552    74.213959    0.0287651  0.030660748            2 
  216000    1.2035544   -7.1247356    74.466531  0.028729372  0.030636845            6 
  217000    1.1607736   -7.0910604    75.125821  0.028850161  0.030611678            2 
  218000     1.147218   -7.1168807    75.117389  0.028714598  0.030587816            3 
  219000    1.1531095   -7.0979288    75.364752  0.028677607  0.030563463            4 
  220000    1.1831067   -7.0976508    75.767882  0.028699955  0.030538634            2 
  221000    1.1797087   -7.0762558    76.292551   0.02876793  0.030515335            3 
  222000     1.182454   -7.1114703    76.226717  0.028613632  0.030492412            4 
  223000    1.1675649   -7.1215908    76.666434  0.028649639   0.03046906            3 
  224000    1.1627141   -7.1074232    77.209187  0.028723656  0.030447087            3 
  225000    1.1667428   -7.1071366    77.692167  0.028774877  0.030428677            2 
  226000    1.1330914   -7.1184207    78.064997  0.028785028  0.030410842            1 
  227000    1.1557646   -7.1846572    78.282241  0.028737974   0.03039165            5 
  228000    1.1686882   -7.1252551    78.736453  0.028777943  0.030374724            2 
  229000    1.1384915   -7.1322377    79.106937  0.028787095  0.030358156            3 
  230000    1.1733569   -7.1055292    79.467812  0.028792686  0.030341227            2 
  231000    1.1753185   -7.0974649    79.794413  0.028785863  0.030323289            2 
  232000    1.1695173     -7.12157    79.756875  0.028648303  0.030302456            4 
  233000    1.1501696   -7.1448031    79.942487  0.028591733  0.030281321            2 
  234000    1.1558549   -7.1176382    80.479424  0.028660764  0.030259158            2 
  235000    1.1616857   -7.1659178    80.172859  0.028430092  0.030235206            2 
  236000    1.1870483   -7.1524201    80.500359  0.028425268  0.030210178            1 
  237000    1.1713355   -7.1180797    81.144849  0.028531944  0.030185685            4 
  238000    1.1727788   -7.1518153     81.20867  0.028434408  0.030161326            3 
  239000    1.1559567   -7.0672523    81.738736  0.028500257  0.030137551            2 
  240000     1.177937   -7.1035908    81.566009  0.028321531  0.030112799            3 
  241000     1.148045   -7.1283691    82.263778   0.02844529  0.030087336            2 
  242000     1.154297   -7.1253208    82.033239  0.028248361  0.030060869            1 
  243000    1.1566649   -7.1497618    82.606277  0.028328627  0.030035392            1 
  244000    1.1478307   -7.1030566    83.239412  0.028428761  0.030011672            2 
  245000    1.1490376   -7.1463858     83.60083  0.028435656  0.029988129            4 
  246000    1.1426218   -7.1005278     83.60613   0.02832186  0.029966302            2 
  247000    1.1608817   -7.1120101     84.12662    0.0283828  0.029942563            2 
  248000    1.1549549   -7.1137225    84.589847  0.028424008  0.029919095            1 
  249000    1.1587429   -7.1128402    85.022065  0.028454506  0.029895906            8 
  250000    1.1577608   -7.1450033    84.536001  0.028178667  0.029871478            4 
  251000    1.1242961   -7.1557876    84.680333   0.02811432  0.029847149            4 
  252000    1.1462109   -7.1096053      85.4696  0.028263757   0.02982239            4 
  253000    1.1413619   -7.1358822      85.8171  0.028266502  0.029799099            1 
  254000    1.1659625   -7.1222908    85.984548  0.028210154  0.029775524            2 
  255000    1.1465485   -7.1256282    86.165408   0.02815863  0.029751461            2 
  256000     1.124757   -7.1379439    86.431963  0.028135405  0.029726745            3 
  257000    1.1574441   -7.1587503    86.117074  0.027923824   0.02969983            2 
  258000    1.1659176   -7.1238005    86.674295  0.027995573  0.029674121            2 
  259000    1.1421152   -7.1273118    87.008725  0.027995085  0.029647685            5 
  260000       1.1943   -7.1577098    87.306032  0.027982703  0.029620377            3 
  261000    1.1469287   -7.1309679     87.87042   0.02805569  0.029595571            2 
  262000    1.1360543   -7.1849766     87.81669  0.027931517   0.02956938            2 
  263000    1.1225567    -7.113414    88.369033  0.028000327  0.029545786            2 
  264000    1.1506766   -7.1321455    89.013255  0.028097618   0.02952149            2 
  265000    1.1465862   -7.1433704    88.958559  0.027974389  0.029497751            2 
  266000    1.1457375   -7.1452988    89.080373  0.027907385  0.029472145            2 
  267000    1.1393645   -7.2048225    88.885928  0.027742175  0.029443902            4 
  268000    1.1429844   -7.1501936    89.786351  0.027918641  0.029417674            5 
  269000    1.1253936   -7.1537454    89.868207  0.027840213  0.029391071            2 
  270000    1.1282676   -7.1668469    89.931596  0.027756665  0.029363249            3 
  271000    1.1429126   -7.1314645    90.917373  0.027957372  0.029337379            4 
  272000    1.1259998   -7.1771273    90.519107  0.027732569  0.029311275            4 
  273000    1.1591255   -7.1398531    90.845851  0.027730724  0.029284917            4 
  274000    1.1607652   -7.1501164    91.158198  0.027724513  0.029258686            2 
  275000    1.1610707   -7.1161815     91.71621  0.027792791    0.0292333            3 
  276000    1.1540812   -7.1636662    91.756436  0.027704238  0.029207883            2 
  277000    1.1442774   -7.1815084    92.132392  0.027717326  0.029183054            3 
  278000    1.1375889   -7.1870738    92.588293  0.027754284  0.029157569            1 
  279000    1.1688762     -7.17844    92.984323  0.027773095  0.029133427            2 
  280000    1.1524986   -7.1395561    92.973041  0.027670548  0.029109085            2 
  281000    1.1308307   -7.1929779    93.178862  0.027633114  0.029083944            3 
  282000    1.1461335   -7.1831339    93.399685   0.02760038  0.029057183            4 
  283000    1.1557903   -7.1687003    93.501269  0.027532765  0.029030688            6 
  284000    1.1404583   -7.1860213    93.922936  0.027559547  0.029005261            3 
  285000    1.1354772   -7.1667023    94.670454  0.027681419  0.028980837            3 
  286000    1.1416101   -7.1788324    94.679041  0.027587133  0.028956988            6 
  287000      1.13858   -7.1674642    94.821017  0.027532235  0.028932931            5 
  288000     1.129714   -7.1558035    95.363646  0.027593647  0.028908439            3 
  289000     1.125372   -7.1905025    94.982509  0.027388267  0.028883907            8 
  290000    1.1219825   -7.2175834    95.495732  0.027441302  0.028859096            4 
  291000    1.1044249    -7.173783    95.793863  0.027432378  0.028833188            4 
  292000    1.1345169   -7.1586184    96.375127  0.027504317  0.028808481            3 
  293000    1.1339961   -7.1875417    96.525629   0.02745325  0.028783639            3 
  294000    1.1316235   -7.1840582    96.883494  0.027461308  0.028759692            4 
  295000    1.1486627   -7.1566742    97.267078  0.027476576  0.028735371            2 
  296000    1.1067085   -7.1730798    97.136616   0.02734702  0.028710465            3 
  297000    1.1218924   -7.1837829    97.495083  0.027355523  0.028685813            3 
  298000    1.1208094   -7.2141112    97.770371  0.027340708  0.028661915            2 
  299000    1.1153213   -7.1782192    98.277468  0.027390599  0.028638233            3 
  300000    1.1335873   -7.1828434    98.337946  0.027316096  0.028614426            4 
  301000    1.1391984   -7.1785252    98.615982  0.027302321  0.028590807            3 
  302000     1.123849   -7.2431244    98.738294  0.027245666    0.0285676            3 
  303000    1.1609039   -7.1903483    99.357037  0.027325918  0.028544784            3 
  304000      1.10717   -7.1623385     99.86502  0.027375279   0.02852246            2 
  305000     1.126472   -7.1834005    99.821015  0.027273501  0.028500642            3 
  306000    1.1445332   -7.1629296    100.57512  0.027389738  0.028479067            2 
  307000    1.1236652   -7.1899696    100.87155  0.027380985  0.028457549            2 
  308000     1.165047   -7.2087094    101.03795  0.027337107   0.02843668            2 
  309000    1.1267403    -7.176449    101.37046  0.027338311  0.028415415            2 
  310000    1.1507572   -7.2189198     101.6523  0.027325886  0.028394006            2 
  311000    1.1122114   -7.1814055    101.55127  0.027210951  0.028372711            2 
  312000    1.1285068   -7.2377233    101.91872  0.027221879  0.028350639            4 
  313000    1.1581438   -7.2003661    102.31137   0.02723945  0.028329427            4 
  314000    1.1248891    -7.157585    102.79805   0.02728186  0.028309399            3 
  315000    1.1435186   -7.2347612    102.51211  0.027119606  0.028287362            4 
  316000    1.1303384   -7.2395051    103.01067  0.027165261  0.028265566            6 
  317000    1.1018412   -7.1708907    103.24388  0.027140871  0.028243943            4 
  318000     1.137032   -7.1921105    103.71161  0.027178094  0.028223122            5 
  319000    1.1128888   -7.1921662    104.00494  0.027169524  0.028202971            7 
  320000    1.1397149   -7.2052066    104.19095   0.02713306  0.028182732            1 
  321000    1.1073068   -7.2733949    104.29033  0.027074334   0.02816169            4 
  322000    1.1232307   -7.1971153    104.62194  0.027076071  0.028140419            3 
  323000    1.1270166   -7.2088241    104.62373  0.026992708  0.028118941            4 
  324000    1.1212883   -7.1935181    104.98088  0.027001256  0.028096734            3 
  325000    1.1049958   -7.2707552    104.92194  0.026903061  0.028074534            3 
  326000    1.1354866   -7.1862476    106.09524   0.02712046  0.028052714            1 
  327000    1.1048893   -7.2185111    105.68619   0.02693328  0.028031104            2 
  328000    1.1027739   -7.2027234    106.23043  0.026989438  0.028008779            3 
  329000    1.1211744   -7.2769386    106.28501  0.026921228  0.027986111            7 
  330000    1.1081212   -7.2231926    106.39745  0.026868043  0.027963232            2 
  331000    1.1046971   -7.2363948    106.77055  0.026880803  0.027940175            4 
  332000    1.1093828   -7.2461321     106.9827  0.026853087  0.027917281            4 
  333000    1.1394949   -7.1943654    107.32221  0.026857409   0.02789525            3 
  334000    1.1383737   -7.2164849      107.625  0.026852544   0.02787249            3 
  335000    1.1378551   -7.2174998    108.14318  0.026901288  0.027851538            3 
  336000    1.1052646   -7.2266279    108.06171   0.02680102  0.027830991            1 
  337000    1.1246304   -7.2788309    108.52016  0.026834856  0.027808736            3 
  338000    1.1020441   -7.2426694    108.24258  0.026687027    0.0277877            7 
  339000    1.1146992   -7.2373689     109.0796  0.026814061  0.027766011            4 
  340000    1.1256583   -7.1944198    109.16424   0.02675594  0.027745423            3 
  341000    1.1264254    -7.239998     109.4836  0.026755522  0.027725158            3 
  342000    1.0951978   -7.2349467    109.89623  0.026777833  0.027704015            5 
  343000    1.1289863   -7.2253654    109.96244  0.026715851   0.02768226            3 
  344000    1.1020786    -7.211141    110.28983  0.026717499  0.027660105            3 
  345000     1.112441   -7.2585408    110.28252  0.026638289  0.027638925            2 
  346000    1.1142783   -7.2060258    111.15361  0.026771102  0.027617672            1 
  347000    1.1128238   -7.2243192    111.11166  0.026683875  0.027597278            3 
  348000    1.1442881   -7.2217302    111.56816  0.026716514  0.027577533            2 
  349000    1.1233256   -7.2617113    111.35028  0.026587936  0.027557276            5 
  350000    1.1018347   -7.2084805    112.41036  0.026764371  0.027537394            2 
  351000    1.1061828   -7.2354461    112.31396  0.026665233  0.027517887            7 
  352000    1.1213667   -7.2578694    112.44637  0.026620827  0.027497683            3 
  353000    1.1136784   -7.2358887    112.77358  0.026622658  0.027477026            2 
  354000    1.1120983   -7.2534017    112.76643   0.02654577  0.027456017            3 
  355000    1.1291414   -7.2134525    113.40998  0.026622062  0.027435678            7 
  356000    1.1326734   -7.2354136    113.27332  0.026515289  0.027415176            2 
  357000    1.1548231   -7.2604916    113.10573  0.026401897  0.027392789            6 
  358000    1.0989607   -7.2478396    113.08127  0.026322455  0.027370139            3 
  359000    1.1273603   -7.2357505    113.33526  0.026308093  0.027347455            3 
  360000     1.118968   -7.2994301    112.72965  0.026094827  0.027323323            2 
  361000    1.0988123   -7.2267368      113.478  0.026195291  0.027298888            8 
  362000     1.096042   -7.2426775    113.66507  0.026165991  0.027274423            3 
  363000    1.1201976   -7.2345236    114.01747   0.02617481      0.02725            2 
  364000    1.0956141   -7.2329971    114.42759  0.026196792  0.027225277            3 
  365000    1.1095103   -7.2541625    114.38259  0.026114747  0.027200504            3 
  366000    1.1458661   -7.2274966    115.00723  0.026185616  0.027175665            4 
  367000    1.0759063   -7.2545966    114.37537  0.025970792  0.027151274            2 
  368000    1.0946811    -7.314881    114.91365  0.026022113  0.027125902           13 
  369000    1.1227608   -7.2466206    115.22663  0.026022274  0.027100876            4 
  370000    1.0866344   -7.2943072    115.19478  0.025944771  0.027075238            3 
  371000    1.1250307   -7.2617045    115.46902  0.025936436  0.027049588            3 
  372000    1.1067405   -7.2632934    115.74456  0.025928442   0.02702383            9 
  373000     1.093756   -7.2995268    115.64768  0.025837283  0.026997715            2 
  374000    1.1040948   -7.2614197    116.18171  0.025887191  0.026971918            2 
  375000    1.1102076   -7.2647361     116.0667    0.0257926  0.026946611            4 
  376000    1.1236524   -7.2795458    116.36782  0.025790741  0.026920282            3 
  377000    1.1009867   -7.2714486    116.57202  0.025767468   0.02689359            3 
  378000    1.1089987   -7.3322572    116.36076  0.025652725  0.026866566            6 
  379000    1.1089624   -7.3219065    117.07938  0.025743048  0.026840236            2 
  380000      1.11177   -7.2158377    117.42749  0.025751642  0.026814541            2 
  381000    1.1133886   -7.3016746    117.32499  0.025661634  0.026788799            4 
  382000     1.093408   -7.2839514    117.62589  0.025660098  0.026763302            3 
  383000    1.0834653   -7.2745421    117.85797  0.025643596  0.026737628            5 
  384000    1.1096259   -7.2272925    118.68019   0.02575525  0.026712074            2 
  385000    1.0828568   -7.2607746    118.86938  0.025729304  0.026686658            2 
  386000    1.1285119   -7.2972329    118.21729  0.025521867  0.026660646            3 
  387000    1.0915009   -7.2537776    118.42992  0.025501705  0.026634761            1 
  388000    1.0916705   -7.2879019    118.84572  0.025525284   0.02660817            3 
  389000    1.0947129    -7.288792    118.64051  0.025415705  0.026581327            2 
  390000    1.0804571    -7.281605    119.13627  0.025456469  0.026554831            2 
  391000    1.1018842   -7.3060321    119.66124  0.025503248  0.026528325            5 
  392000    1.0902054   -7.2401681    120.22354  0.025557726  0.026501813            5 
  393000    1.0909422   -7.2737818    119.84184  0.025411756  0.026476341            1 
  394000    1.0993823   -7.2895436    120.30488  0.025445195  0.026450503            3 
  395000    1.1020907   -7.2637694    120.25353  0.025369942  0.026425518            4 
  396000    1.0677157   -7.2605753    120.71859  0.025403744  0.026400189            3 
  397000    1.0954143   -7.3110551    120.82527  0.025362146  0.026375594            2 
  398000    1.1280745   -7.2763594    121.38448   0.02541551  0.026350823            3 
  399000     1.090535   -7.2793547    121.32377  0.025339133  0.026326214            4 
  400000    1.1092042   -7.2907629    121.89139   0.02539404  0.026301321            3 
  401000    1.0856032   -7.2842348    122.44163  0.025445061  0.026277142            3 
  402000    1.0725221   -7.2946808    122.23477  0.025338882  0.026253286            3 
  403000    1.0941421   -7.3030718    122.93452  0.025420702  0.026229815            2 
  404000    1.0987338   -7.2712169    123.35284  0.025444067  0.026207532            5 
  405000    1.0971222   -7.3180799     123.3992  0.025390783  0.026184778            2 
  406000    1.0512643   -7.2952086     123.1406  0.025275164  0.026162033            3 
  407000    1.1271972   -7.3190369    123.82976  0.025354169  0.026138591            3 
  408000    1.1038427   -7.3219955    123.80563  0.025287097  0.026115339            8 
  409000    1.0602733   -7.3538851    123.74402  0.025212719  0.026092074            3 
  410000    1.0955637   -7.3129499    124.09725  0.025223019  0.026068593            5 
  411000    1.1039024   -7.3147899    124.87164  0.025318661   0.02604642            4 
  412000     1.093725   -7.2955364    125.14682  0.025312868  0.026024815            3 
  413000    1.0916193   -7.3445739    124.89928   0.02520163   0.02600306            3 
  414000    1.0893338   -7.3188432    125.35126  0.025231736  0.025980154            3 
  415000    1.0971308   -7.2955434    125.33261  0.025167191  0.025957717            4 
  416000    1.0885414   -7.3257201    125.35698  0.025111574  0.025934293            3 
  417000    1.0951044   -7.3245422    125.83166  0.025146215  0.025911191            6 
  418000    1.0899619    -7.336013    126.14694  0.025148911  0.025887983            2 
  419000    1.0793433     -7.31067     126.6177  0.025182518  0.025865413            3 
  420000    1.1053176    -7.331313     126.5491  0.025108949  0.025843311            5 
  421000     1.075087   -7.3314037    126.19944  0.024980096  0.025820668            2 
  422000    1.0807305   -7.3242811    127.02491  0.025083908  0.025798129            2 
  423000    1.1030283   -7.2945883    127.50713  0.025119608  0.025775789            3 
  424000    1.1227529   -7.3268223     127.0316  0.024966903  0.025753729            3 
  425000    1.1028449   -7.3540411     127.8964  0.025077725  0.025731832            7 
  426000    1.0866781   -7.3177116    127.96038  0.025031373  0.025709743            2 
  427000    1.1264181   -7.3248193    128.06734  0.024993627  0.025687886            3 
  428000    1.0680286   -7.3325802    128.12005  0.024945492  0.025666147            2 
  429000    1.0862844   -7.3560735    128.00832  0.024865641  0.025643699            5 
  430000     1.104672   -7.3480841    128.77878  0.024957128  0.025621928            2 
  431000    1.0903229   -7.3308358    128.73621  0.024890992  0.025600188            4 
  432000     1.046719   -7.3595379    129.16537   0.02491616  0.025578009            3 
  433000     1.071337   -7.3518199    129.35658  0.024895415  0.025556367            4 
  434000    1.0685313   -7.3509589    129.18115  0.024804367  0.025534789            5 
  435000    1.0867699   -7.3085094     129.7415  0.024854693  0.025513196            2 
  436000    1.0734554   -7.3291529    130.19546  0.024884454  0.025492062            1 
  437000    1.0751351   -7.2973558    130.40065  0.024866637  0.025470392            6 
  438000    1.0724471    -7.345665    130.62464   0.02485248   0.02544955            1 
  439000    1.0847991   -7.2912643    130.90718  0.024849503  0.025428828           10 
  440000    1.0669227   -7.3572729    130.94653   0.02480048  0.025407607            2 
  441000    1.0848265   -7.3520044    130.67294  0.024692543  0.025386026            6 
  442000    1.0668613   -7.3117681    131.39811  0.024773398  0.025365018            1 
  443000     1.085059   -7.3388572     131.0306  0.024648345  0.025343498            3 
  444000     1.081276   -7.3119534    131.47887  0.024676965   0.02532199            4 
  445000    1.0652416   -7.3492999    131.07216  0.024545349  0.025299695            4 
  446000     1.076988   -7.3691197    131.91309  0.024647438  0.025277435            4 
  447000    1.0724493   -7.3312161    131.76747  0.024565151  0.025255779            6 
  448000    1.0729091   -7.3765818    132.14455   0.02458046  0.025233853            3 
  449000    1.0987162   -7.3567044    132.57974  0.024606485  0.025212184            2 
  450000    1.0887122   -7.3672887    132.59622  0.024554856  0.025190915            5 
  451000    1.0994045   -7.3322469    133.17667  0.024607663  0.025170023            5 
  452000    1.0716277   -7.3401564     133.3062  0.024577102  0.025149466            4 
  453000    1.1000597   -7.3370921    133.68907  0.024593279  0.025128652            3 
  454000    1.0837909   -7.3518761    133.88664  0.024575374  0.025108011            2 
  455000    1.0880869   -7.3244829    134.50028  0.024633752  0.025088905            2 
  456000     1.053805   -7.3833313    134.33873  0.024550206  0.025069213            3 
  457000    1.0794628   -7.3256578    134.99025  0.024615289  0.025049898            4 
  458000    1.0730555   -7.3160615    135.32844  0.024623079  0.025030334            6 
  459000    1.0696444   -7.3511086    134.88638  0.024489175  0.025010683            5 
  460000    1.0537821   -7.3293592    135.49241  0.024545727  0.024990803            2 
  461000     1.065202     -7.37774     135.2296  0.024444974  0.024970937            4 
  462000    1.0576615   -7.3839148    135.50859  0.024442387  0.024950317            3 
  463000    1.0917685   -7.3286579    135.59393  0.024404955  0.024930195            2 
  464000    1.0595412   -7.3649082    135.76901  0.024383802  0.024910337            5 
  465000    1.0697555   -7.3491485    135.99155  0.024371246  0.024890832            3 
  466000    1.0734587   -7.3652863     136.8142  0.024466058   0.02487081            3 
  467000    1.0628874   -7.3854317    136.45293  0.024349202  0.024850455            2 
  468000    1.0646422   -7.3607748    136.40064  0.024287864  0.024830114            2 
  469000    1.0567594   -7.3593464    136.53784  0.024260455  0.024809446            4 
  470000    1.0718577   -7.3769555    136.73449  0.024243704  0.024788507            4 
  471000    1.0465662   -7.3651807    137.10529  0.024257837   0.02476777            3 
  472000    1.0488914   -7.3735846    137.03824  0.024194604  0.024747058            2 
  473000    1.0518671    -7.355636    137.62912  0.024247554  0.024726657            3 
  474000    1.0557145   -7.3709225    137.72301  0.024212906  0.024706882            3 
  475000    1.0425984   -7.3765102    137.76135  0.024168658  0.024686585            2 
  476000    1.0699801   -7.3592621    137.94689  0.024150366  0.024666162            3 
  477000    1.0668121   -7.3890366    138.62135  0.024217566  0.024645773            4 
  478000    1.0468413   -7.3803882    138.53996  0.024152712  0.024625677            5 
  479000    1.0495689   -7.3704032    139.07531  0.024195427  0.024606219            5 
  480000    1.0449142   -7.3799415    139.27874  0.024180336  0.024587395            6 
  481000    1.0586666   -7.3748142    139.47859   0.02416469   0.02456814            2 
  482000     1.075636   -7.4185909     139.4523   0.02411001   0.02454855            3 
  483000    1.0679901   -7.3950333    139.73633  0.024109098   0.02452948            4 
  484000    1.0643729   -7.4508506    139.68273  0.024050056  0.024510653            2 
  485000     1.048379      -7.4087    140.25845  0.024099389  0.024491642            3 
  486000    1.0965095   -7.3975369     141.0263  0.024181464  0.024472645            6 
  487000    1.0382709   -7.4097846    140.33294  0.024013165  0.024453619            3 
  488000    1.0584843   -7.4013951    140.67532  0.024022425  0.024434222            3 
  489000    1.0631132   -7.4230177    140.68508  0.023974963  0.024414843            6 
  490000    1.0611388    -7.390381     141.5556  0.024074081  0.024395919            4 
  491000    1.0465343   -7.3646523    141.65568  0.024042036  0.024377224            3 
  492000     1.058909    -7.389754    141.83259  0.024023135  0.024358854            4 
  493000    1.0541549   -7.4007879    141.68895  0.023950126  0.024339981            2 
  494000    1.0563037   -7.3755967    142.63027  0.024060437   0.02432113            3 
  495000    1.0615859   -7.3967913    142.07179   0.02391781  0.024302593            3 
  496000    1.0438015   -7.3749675     143.2805  0.024072664    0.0242841            6 
  497000    1.0563219   -7.3869668    142.70382  0.023927535  0.024265733            2 
  498000    1.0379072   -7.3753494    143.16216  0.023956185  0.024247433            4 
  499000    1.0634823   -7.3912199    142.97758  0.023877352  0.024229205            3 
  500000    1.0689418   -7.3721126    143.06172   0.02384362  0.024210363            3 
  501000    1.0360329   -7.3890537    143.09686  0.023801873  0.024191089            2 
  502000    1.0503922   -7.4055858    142.87248  0.023717211  0.024171336            3 
  503000    1.0496575   -7.3914277     143.4227  0.023761217  0.024151823            6 
  504000    1.0467074   -7.4126698    143.42413  0.023714307  0.024132752            3 
  505000    1.0629354   -7.3960793    143.39495  0.023662534  0.024113149            3 
  506000     1.054114   -7.4447098    143.67055  0.023661159  0.024093643            3 
  507000    1.0448359   -7.4183242    144.07447  0.023680879  0.024073947            4 
  508000    1.0493561   -7.4034455    144.49805  0.023703748  0.024054845            2 
  509000    1.0577281   -7.4454245     144.6305  0.023678863  0.024035384            3 
  510000    1.0708157   -7.4234272    144.73416  0.023649372  0.024015608            6 
  511000    1.0512702   -7.4332676    145.13224  0.023668011  0.023996256            2 
  512000    1.0460589   -7.4790447    144.94361  0.023591082  0.023976734            5 
  513000    1.0361796    -7.394592    145.04163  0.023561019  0.023957227            6 
  514000    1.0591467   -7.4750311    144.61564  0.023446116   0.02393739            4 
  515000    1.0115511   -7.4245101    145.29031  0.023509759  0.023917754            5 
  516000    1.0465306   -7.4368578    145.64783  0.023521936  0.023898138            4 
  517000    1.0683354   -7.4957266    145.14755  0.023395801  0.023878627            4 
  518000     1.064794   -7.4384817    145.88411   0.02346913  0.023858731           10 
  519000    1.0588654   -7.4355165    145.87066   0.02342175   0.02383913            4 
  520000    1.0458495   -7.3939384    146.56904  0.023488628  0.023819679            3 
  521000    1.0268134   -7.4321044    146.56349  0.023442657  0.023799971            3 
  522000    1.0484968   -7.4493517    146.51602  0.023390169  0.023780059            5 
  523000    1.0583021   -7.4404506    146.44351  0.023333893  0.023760007            8 
  524000    1.0469751   -7.4302498    147.11155  0.023395602  0.023740202            3 
  525000    1.0438822   -7.4563214    146.92307  0.023321122  0.023720629            5 
  526000    1.0551038   -7.5123104    146.86079  0.023266919  0.023700472            3 
  527000    1.0399749   -7.4437111    147.12934  0.023265234  0.023680403            4 
  528000    1.0517426   -7.3850805    147.93907  0.023348969  0.023660912            2 
  529000    1.0414965   -7.4471287    147.33869  0.023210254  0.023641488            6 
  530000     1.062608   -7.4153207    148.22286  0.023305481   0.02362188            2 
  531000    1.0208123   -7.4331489    148.38907  0.023287675  0.023602736            7 
  532000    1.0375547    -7.453053    147.85624  0.023160439  0.023583388            3 
  533000    1.0168752   -7.4673844    148.25046  0.023178621  0.023563723           16 
  534000       1.0504   -7.4810135    148.59772  0.023189408  0.023544457            3 
  535000    1.0519814   -7.4200299    149.35758  0.023264421  0.023525611            6 
  536000     1.033959    -7.479006    149.25242  0.023204667   0.02350686            4 
  537000    1.0591192   -7.4328923    149.47583  0.023196126  0.023488782            4 
  538000    1.0526244   -7.5099813    149.95383  0.023227049  0.023470651            2 
  539000    1.0537461   -7.4431808    150.10241  0.023206927  0.023452121            9 
  540000    1.0277198   -7.4412957    150.55206  0.023233342  0.023433796            3 
  541000    1.0369518    -7.459449     149.9425  0.023096503  0.023415541            4 
  542000    1.0633241   -7.4675335    150.57647  0.023151363  0.023396861            5 
  543000    1.0371613   -7.4296991    150.84519  0.023149968  0.023378226            5 
  544000     1.039097   -7.4621494    150.36678  0.023034128  0.023359729            2 
  545000    1.0756581   -7.4688024    150.58066  0.023024566  0.023341158            3 
  546000    1.0171604   -7.4524087    150.83126  0.023020645  0.023322558            3 
  547000    1.0587394   -7.4174361    151.09967   0.02301945  0.023304033            4 
  548000    1.0256133   -7.4751279     151.2388  0.022998601  0.023285325            8 
  549000    1.0464217   -7.4330098    151.95278  0.023065085  0.023266771            4 
  550000     1.032683   -7.4695396    151.61857  0.022972511  0.023248298            3 
  551000    1.0276319   -7.4839188    151.77936  0.022955136  0.023229881            2 
  552000    1.0435698   -7.5149859     151.9932  0.022945833   0.02321147            4 
  553000    1.0472593   -7.4401933    153.03755  0.023061717  0.023193199            4 
  554000    1.0212358   -7.4376967    152.92569  0.023003262  0.023175289            6 
  555000     1.022005   -7.4759416    152.84867  0.022950251  0.023157375            6 
  556000    1.0223972   -7.4756649    152.66564   0.02288154  0.023139816           10 
  557000    1.0280397   -7.5083672    152.97729  0.022887087  0.023121834            6 
  558000    1.0560807   -7.4596025    153.50358  0.022924669   0.02310361            4 
  559000    1.0240867   -7.4680417    153.34079   0.02285939  0.023085492            3 
  560000    1.0085058   -7.4837793    153.37909  0.022824269  0.023067084            5 
  561000    1.0291248   -7.4940794    153.08391  0.022739737  0.023048684            3 
  562000    1.0057008   -7.5313604    153.50371  0.022761524  0.023030544            6 
  563000    1.0351155   -7.4537729    154.31002   0.02284044  0.023012139            4 
  564000    1.0225377   -7.4803065    154.18791  0.022781901  0.022994003            3 
  565000    1.0151145   -7.5209524    154.43722  0.022778351  0.022975858            4 
  566000    1.0325501   -7.4649663    154.23532  0.022708381  0.022957494            5 
  567000    1.0253368   -7.5059068    154.56993  0.022717509  0.022939331            3 
  568000    1.0158637   -7.4618465    155.04637  0.022747413  0.022921455            6 
  569000    1.0374386   -7.5014497    154.95597  0.022694196  0.022903579            2 
  570000    1.0200286    -7.492042    154.70707  0.022617993  0.022885458            5 
  571000    1.0411879   -7.5150295    154.69044  0.022575954  0.022866698            6 
  572000    1.0044404   -7.4681528    155.49206  0.022653271  0.022848046            2 
  573000    1.0269387   -7.4482171    155.39761  0.022600001  0.022829697            3 
  574000    1.0254351   -7.5021664    155.49356  0.022574559  0.022811077            4 
  575000    1.0161168    -7.485321    155.79553  0.022579062  0.022792747            4 
  576000    1.0494632   -7.4909032    156.28667  0.022610918  0.022774349           10 
  577000    1.0156322   -7.4633221    155.83069  0.022505876  0.022755998            4 
  578000    1.0270366   -7.4567705    156.36249  0.022543612  0.022738137            5 
  579000    1.0142851   -7.4844877    156.38128   0.02250738  0.022719714            4 
  580000     1.019123   -7.4833554    156.28122  0.022454199  0.022701531            2 
  581000    0.9902071   -7.4777004    156.79431  0.022489144  0.022683248            3 
  582000     1.046919     -7.50533    156.44723  0.022400807  0.022664883            4 
  583000       1.0263   -7.4828071    157.38643  0.022496631  0.022646917            5 
  584000    1.0224011   -7.5207698    157.47478  0.022470716   0.02262906            7 
  585000    1.0164372   -7.5474832    157.34608  0.022413971  0.022611506            4 
  586000    1.0150067   -7.5210484    157.54695  0.022404287   0.02259341            3 
  587000    1.0078898   -7.4969704    157.74545  0.022394301   0.02257521            3 
  588000    1.0269169   -7.4989779    157.58703  0.022333763  0.022556973            9 
  589000    1.0354745    -7.503951    158.19671  0.022382103  0.022538827            2 
  590000     1.035565   -7.5392771    157.52952  0.022249933  0.022520741            8 
  591000    1.0207798    -7.507328    158.29756  0.022320581  0.022502549            4 
  592000    1.0180128   -7.4915757    158.82847  0.022357611  0.022484802            2 
  593000    1.0107923    -7.517274    158.43383   0.02226445  0.022466858           10 
  594000    1.0016366   -7.5222126    159.25553  0.022342246   0.02244911            7 
  595000    1.0006486   -7.5109227    158.85987  0.022249281  0.022431577            5 
  596000    1.0333381   -7.5111261    159.18589  0.022257534  0.022413947            4 
  597000   0.99389803    -7.484515    159.73827  0.022297357   0.02239689            6 
  598000   0.99790368   -7.5177576    159.63005   0.02224499  0.022379653            4 
  599000    1.0093163   -7.4997411    159.92381  0.022248721  0.022362697            3 
  600000    1.0337925   -7.5132117    160.19821  0.022249752  0.022345535            5 
  601000    1.0214747   -7.4946255     160.3434  0.022232862  0.022328491            3 
  602000    1.0182275   -7.5164707    160.94727  0.022279523  0.022311734            4 
  603000    1.0130458   -7.5193687     160.5864  0.022192703  0.022294918            2 
  604000    1.0268072   -7.5305477    161.01966  0.022215736  0.022278167            3 
  605000    1.0243123   -7.5441052     160.5877  0.022119518  0.022261314            4 
  606000    1.0355519   -7.5724356    161.20362  0.022167715  0.022244348            7 
  607000     1.035238   -7.5600598    161.30666  0.022145341  0.022227583            8 
  608000    1.0103824   -7.5591248     161.4093  0.022122985  0.022210586            5 
  609000     1.027059   -7.5105983    162.09134  0.022179986  0.022193875            6 
  610000     1.014967   -7.5099959    162.26679  0.022167595  0.022177536            2 
  611000    1.0071525   -7.5558874    161.98301  0.022092609  0.022160979            3 
  612000    1.0033291   -7.5370157    161.96492  0.022054046  0.022144189            3 
  613000   0.99915498   -7.5451585    162.96289  0.022153738  0.022127979            4 
  614000    1.0203208   -7.5399237    162.89395  0.022108299  0.022111591            3 
  615000   0.98273983   -7.5621658    162.56594  0.022027905  0.022095036            5 
  616000    1.0004294    -7.524398    162.86303  0.022032337  0.022079061            2 
  617000    1.0048307   -7.4780045    164.12865  0.022167565  0.022063332            5 
  618000    0.9950515   -7.5733761    163.32464  0.022023279  0.022047479            5 
  619000   0.99339683   -7.5499264    163.33784  0.021989478  0.022031082            5 
  620000    1.0187326   -7.5205536     163.5473  0.021982164  0.022014677            5 
  621000    1.0183956   -7.5548672    163.89469  0.021993383  0.021998397            3 
  622000    1.0258508   -7.5032261    164.73604  0.022070745  0.021982162            7 
  623000    1.0251272   -7.5651251    163.73819  0.021901845  0.021965931            4 
  624000    1.0167087   -7.5861946    164.06093  0.021909846  0.021949581            7 
  625000    1.0432159   -7.5437898    164.22738  0.021896983  0.021933297            2 
  626000   0.98726562   -7.5180145    164.78255   0.02193591  0.021917213            3 
  627000    1.0110739   -7.5388326    164.80782  0.021904282   0.02190091            2 
  628000    1.0319985   -7.5227634    164.61643  0.021844006  0.021884732            6 
  629000    0.9950596   -7.5430084    165.03496  0.021864727  0.021868251            3 
  630000    1.0004621   -7.5817531    164.63862  0.021777596  0.021851843            3 
  631000    1.0327448   -7.5844588    165.18331  0.021815017  0.021835645            3 
  632000    1.0008681   -7.5845636    165.06018  0.021764264  0.021819215            4 
  633000    1.0058908    -7.621332    165.57771  0.021798014  0.021802726            5 
  634000    1.0093389   -7.5946819    165.77417  0.021789455   0.02178627            8 
  635000    1.0093348    -7.624813    165.26324  0.021688089  0.021769754            4 
  636000   0.98433929    -7.592088    166.11948  0.021766179  0.021753386            7 
  637000    1.0164681   -7.5866066     165.6209  0.021666785  0.021736748            9 
  638000    0.9904703   -7.5759619     166.1003  0.021695442  0.021720038            3 
  639000    1.0010247   -7.5733133    166.02047  0.021651079  0.021703674            4 
  640000   0.98335051   -7.5394192    166.56611  0.021688296  0.021687512            4 
  641000    1.0113215    -7.562833     166.6063  0.021659685  0.021671359           17 
  642000   0.99925706   -7.5900878    166.66017  0.021632941  0.021654814            3 
  643000   0.97521544   -7.6104076    166.68707  0.021602783  0.021638148            2 
  644000   0.99285296    -7.554492    167.04773  0.021615907  0.021621983            5 
  645000    1.0009689   -7.5943353    166.88677  0.021561599  0.021605642            9 
  646000     1.001754   -7.5576179    167.15766  0.021563166    0.0215891            5 
  647000   0.99277665   -7.6152724    167.10919  0.021523594  0.021572366            6 
  648000   0.98633281   -7.5548827    167.90195  0.021592329  0.021555869           13 
  649000   0.99874839   -7.5392527    167.59386  0.021519499  0.021539575           10 
  650000   0.99558424   -7.5868481    167.98475  0.021536506  0.021523062            3 
  651000   0.99718254   -7.5701099    167.79687  0.021479374   0.02150663            6 
  652000   0.99284137   -7.5992656    168.05654  0.021479619  0.021490047            6 
  653000    1.0184995   -7.5563209    168.82333   0.02154458  0.021473654            6 
  654000   0.99309695   -7.5942919    168.83387   0.02151298  0.021457507            2 
  655000    1.0030978   -7.5790112     168.4529  0.021431667  0.021441295            4 
  656000   0.98778174   -7.5766361    168.18964  0.021365554  0.021425026            2 
  657000   0.99445038   -7.5757417    169.06635  0.021444235   0.02140884            7 
  658000   0.98444532   -7.5784275    169.56283  0.021474522  0.021392621            8 
  659000    1.0057474   -7.5806051    169.42375  0.021424349  0.021376737            4 
  660000   0.97258104   -7.5555268    170.23189  0.021493926  0.021361176            2 
  661000   0.97785867   -7.5865463    169.73646  0.021398949  0.021345505            5 
  662000   0.97874327   -7.6044322    169.86497  0.021382801  0.021329743            4 
  663000   0.96813312   -7.6405323    169.10838  0.021255452  0.021313402            3 
  664000   0.98990007   -7.5830543    170.12588  0.021351139  0.021297188            2 
  665000   0.97551443   -7.5595496    170.52692  0.021369288  0.021281353            4 
  666000   0.99436393   -7.6079681    170.15435  0.021290584  0.021265459            4 
  667000    1.0115235   -7.6134997    170.12693  0.021255239  0.021249394            4 
  668000   0.97535193   -7.5823539    170.48163  0.021267668   0.02123303            4 
  669000    1.0087006   -7.5703899    171.17738  0.021322543   0.02121692            6 
  670000    1.0016627   -7.5922541     170.8847  0.021254315  0.021201029            2 
  671000   0.97444588   -7.6259426    170.77735  0.021209308  0.021185129            4 
  672000   0.99947093   -7.6042443    170.89959  0.021192906   0.02116927            6 
  673000   0.96516423   -7.6248886    171.18761  0.021197079  0.021153682            9 
  674000   0.95570691   -7.5939803    171.36845  0.021187988  0.021137998            3 
  675000   0.98457443   -7.5978686    171.82417  0.021212861  0.021122289            6 
  676000    1.0040948   -7.6020642    171.65095  0.021160127  0.021106496            5 
  677000   0.98927186   -7.6186905     171.7961  0.021146738  0.021090509            6 
  678000   0.97072427   -7.6061637    171.70878  0.021104816  0.021074499            7 
  679000   0.98985566   -7.5878355    171.96613  0.021105318  0.021058393           18 
  680000   0.98020815   -7.6639209    171.51049  0.021018443   0.02104224           10 
  681000    0.9880236   -7.6303864    171.79539  0.021022441  0.021025851            4 
  682000   0.97646907   -7.5935328    172.55423  0.021084339  0.021009859            2 
  683000    1.0064434   -7.6455511    172.29617  0.021021983   0.02099398            2 
  684000   0.98910903    -7.617414    172.44002  0.021008774  0.020978141            3 
  685000   0.95452982   -7.6266898    173.06895  0.021054617  0.020962486            5 
  686000   0.99127961   -7.6134573    172.97556  0.021012581  0.020946556            5 
  687000   0.97625153   -7.6294684    173.00074  0.020985048  0.020930637            5 
  688000   0.98808692   -7.6595259    173.32623  0.020993971  0.020914796            3 
  689000   0.99252902   -7.6084554    173.28143  0.020958083   0.02089868            3 
  690000   0.99710617   -7.6358394    172.84709  0.020875253  0.020882604            3 
  691000   0.96805655   -7.6295893    173.31622  0.020901618  0.020866205            5 
  692000    0.9719621   -7.5991452    173.07027  0.020841796  0.020849809            5 
  693000   0.96999139   -7.5881656    173.61231  0.020876901  0.020833464            6 
  694000   0.97332741    -7.615438    173.21609  0.020799243  0.020817117            7 
  695000   0.99882647   -7.6435865    173.43382  0.020795422  0.020801038            5 
  696000   0.95514452   -7.6477247    174.08067  0.020842992  0.020784896            6 
  697000   0.98685002   -7.6470757     173.7627  0.020775072   0.02076852            3 
  698000   0.98290107    -7.629644    174.03839  0.020778222  0.020752304            4 
  699000   0.96966711   -7.6327009    174.66256  0.020822908  0.020736116            4 
  700000   0.98856757   -7.6039764    174.68248  0.020795534  0.020720327            5 
  701000   0.96157403   -7.5658379    175.35019  0.020845243  0.020704866           10 
  702000   0.95588539   -7.6455447    174.59477  0.020725875  0.020689122            9 
  703000   0.97338369    -7.642427    174.53426   0.02068922  0.020673068            4 
  704000   0.96691511   -7.6233994    174.79746  0.020690987   0.02065701            4 
  705000   0.97617478   -7.6743069    175.04336  0.020690705   0.02064107            5 
  706000   0.94980614   -7.6007567    175.28945  0.020690445  0.020625141            5 
  707000   0.98671081   -7.6244351    175.35764  0.020669217  0.020609366            3 
  708000    0.9770066   -7.6764038    175.38827  0.020643628  0.020593737            6 
  709000   0.97502855   -7.5830169    176.83978  0.020785118  0.020578348            4 
  710000   0.96605215    -7.648158    175.70151  0.020622243  0.020562969            8 
  711000   0.96331961   -7.6520654    175.71018  0.020594254  0.020547446            4 
  712000   0.96534602   -7.6363204    176.28104  0.020632144  0.020531873            8 
  713000    0.9582407   -7.6422613    176.83488  0.020667938  0.020516207            6 
  714000   0.97681473    -7.676797    176.31313  0.020578096  0.020501004            7 
  715000   0.96881954   -7.6238887    176.92534  0.020620669  0.020485669            7 
  716000   0.95214617   -7.6270226    177.38403  0.020645255  0.020470514            3 
  717000   0.96756162   -7.6768428    176.37887  0.020499636  0.020454883            4 
  718000   0.98745187   -7.6642821    176.93353  0.020535461   0.02043915            4 
  719000   0.95778602    -7.668029    176.88466  0.020501236  0.020423384            8 
  720000   0.98206043   -7.6598715    176.78636  0.020461384  0.020407945            3 
  721000   0.97349696   -7.6782613    177.51437  0.020517148  0.020392389            7 
  722000   0.94747935   -7.6744498    177.46417  0.020482938  0.020376997            5 
  723000   0.98989112    -7.656052    177.65772  0.020476916  0.020361666            5 
  724000     0.949502   -7.6830433    176.98776   0.02037152  0.020346223            6 
  725000   0.96855731    -7.674553    177.98156  0.020457651  0.020330679            6 
  726000   0.96142978   -7.6286327    177.77974  0.020406306  0.020315231            6 
  727000   0.95256113   -7.6642073    177.82579  0.020383515  0.020299817           14 
  728000   0.96754577   -7.7069993    177.51735  0.020320209  0.020284136            4 
  729000   0.95679899   -7.6329026     177.7137   0.02031478  0.020268224            6 
  730000   0.96351867    -7.695299    177.64902  0.020279568  0.020252397            9 
  731000   0.96034981   -7.7068666    177.97168  0.020288609  0.020236516            7 
  732000   0.96782011   -7.6536018    178.06329  0.020271321  0.020220673           25 
  733000   0.95891247   -7.6946769      178.582  0.020302638  0.020204995           28 
  734000   0.98855226   -7.6998037    178.58369  0.020275169  0.020189249           17 
  735000   0.95494364   -7.6825328    178.65601  0.020255783  0.020173703            9 
  736000    0.9840665   -7.6687717    179.34927  0.020306756  0.020157996            9 
  737000   0.95972128    -7.670635    178.56965   0.02019105  0.020142212            5 
  738000   0.96912043   -7.7083826    178.43129  0.020148068  0.020126296            6 
  739000   0.95940563   -7.6800099    178.52006  0.020130814  0.020110238            7 
  740000   0.96563331   -7.6887238    179.00968  0.020158748  0.020094432            3 
  741000   0.95908084   -7.6905475    178.91311  0.020120682  0.020078548            5 
  742000   0.96390731   -7.6973741    178.91867   0.02009419  0.020062552            7 
  743000   0.94618799   -7.7092912    179.00927  0.020077307  0.020046708            4 
  744000   0.96748723   -7.7210558    179.13193   0.02006406  0.020030759            7 
  745000   0.95013682   -7.6937944    179.17451  0.020041892  0.020014894            4 
  746000   0.97415557   -7.7038194     179.8327   0.02008855  0.019998913           10 
  747000   0.97530491    -7.690001    179.76665   0.02005429  0.019983097            7 
  748000   0.94135982   -7.7198678    179.90848   0.02004328  0.019967336            4 
  749000   0.95151372    -7.711058    180.09491  0.020037262  0.019951602           10 
  750000   0.95898051   -7.6954049    180.29311  0.020032568  0.019936094            7 
  751000   0.94972145   -7.7145517    180.07357  0.019981533  0.019920563           16 
  752000   0.94522302   -7.6891531    180.46632  0.019998484  0.019904937            6 
  753000   0.93950136   -7.6806664    180.53396  0.019979412  0.019889272           14 
  754000   0.94937593   -7.6754622     180.5904  0.019959151   0.01987361            7 
  755000   0.95400659   -7.6683565    180.91405  0.019968439  0.019857949            6 
  756000   0.94472723   -7.7228989    180.50832  0.019897302  0.019842089            3 
  757000   0.94549884   -7.6855128    180.49741  0.019869816  0.019826037           13 
  758000   0.94992378    -7.713812    180.75061  0.019871439  0.019810199            6 
  759000   0.95213391   -7.6784398    181.09022  0.019882545  0.019794142            4 
  760000   0.96264879   -7.7095034    180.07809  0.019745404   0.01977805            5 
  761000   0.93936185   -7.7017741    180.61148  0.019777867   0.01976186            7 
  762000   0.94490654   -7.7098083    180.91145  0.019784717  0.019745584            2 
  763000   0.96825588    -7.695026    180.64195  0.019729352  0.019729482            7 
  764000   0.96392174   -7.6696104    181.46935  0.019793777  0.019713499            7 
  765000   0.94130667   -7.7457345    180.95709  0.019712102  0.019697361            4 
  766000   0.96492533   -7.6689181    181.69608  0.019766763  0.019681212           20 
  767000   0.97671204   -7.6994291    181.44806  0.019714044  0.019665244            4 
  768000   0.95396361   -7.7076043    181.68129  0.019713682  0.019649197            6 
  769000   0.95585955   -7.7502683    181.63179  0.019682682  0.019633049            5 
  770000   0.93925648   -7.7527743     181.0004  0.019588787  0.019616763            7 
  771000   0.95033321   -7.7481275     181.4768  0.019614872  0.019600494            4 
  772000   0.94399893   -7.7246621    182.12115  0.019659019  0.019584384            4 
  773000   0.93972237    -7.721635    181.79296  0.019598206  0.019568204            6 
  774000   0.91375961   -7.7466857    181.78907  0.019572467  0.019552101            7 
  775000   0.93378887   -7.7588144    182.05812  0.019576142  0.019535915            9 
  776000   0.96437692   -7.7179758    182.31218  0.019578198  0.019519779            5 
  777000   0.92606525   -7.7400863     182.3913  0.019561486  0.019503607            6 
  778000   0.95463623   -7.7242979     182.8001  0.019580131  0.019487516            6 
  779000    0.9591886   -7.7517109    181.88584  0.019457193  0.019471465            3 
  780000   0.92952549   -7.7192179    182.67222  0.019516263  0.019455342            3 
  781000   0.93120186   -7.7646783    182.65148  0.019489061  0.019439223            5 
  782000   0.95543303   -7.7425398    182.80961   0.01948099  0.019423144            4 
  783000   0.93392667   -7.7405499    182.66525  0.019440746  0.019406974            5 
  784000   0.95896002   -7.7231195     183.2056  0.019473384   0.01939092            6 
  785000   0.94491306   -7.7352925    182.90237  0.019416387  0.019375037            6 
  786000   0.93965332   -7.7532686    183.29911  0.019433748  0.019359087            6 
  787000   0.95269914   -7.7626743    183.29245   0.01940835  0.019343043            7 
  788000   0.93089394   -7.7577484    183.53513  0.019409383  0.019327102            3 
  789000   0.92720459   -7.7493185    182.98413  0.019326587  0.019311017            4 
  790000   0.93691201   -7.7570175    183.03184  0.019307156  0.019294829            5 
  791000   0.94130271   -7.7428993     183.3993   0.01932146  0.019278698            8 
  792000   0.93967509   -7.7299042    183.83432  0.019342837  0.019262673            3 
  793000   0.94120076   -7.7256181    184.25196  0.019362333  0.019246707            7 
  794000   0.94138656   -7.7850838     184.0473  0.019316467  0.019230774            3 
  795000    0.9411261   -7.7764925    183.72687  0.019258581  0.019214688           10 
  796000   0.93065758   -7.7089053    184.60157   0.01932596  0.019198823            7 
  797000   0.93865453   -7.7632062    183.83906  0.019221984  0.019182884            4 
  798000   0.93914036   -7.7597682    184.41303  0.019257835  0.019166957            8 
  799000   0.93693452   -7.7755043    184.04366  0.019195208  0.019151136            4 
  800000   0.94393786   -7.7822048    184.56845  0.019225881  0.019135387            4 
  801000   0.91705978   -7.7408648    184.57124  0.019202168  0.019119581           10 
  802000   0.93426459   -7.7600117    184.53721  0.019174689  0.019103893            6 
  803000   0.93632376   -7.7700788     184.9879  0.019197582  0.019088327            3 
  804000   0.94688518    -7.796102    185.01279  0.019176284  0.019072907            2 
  805000   0.93296009   -7.7628017    185.27549  0.019179657  0.019057454            4 
  806000   0.93913349   -7.7804967    184.79434  0.019106114  0.019041814           15 
  807000   0.93121851   -7.7763864    185.06199  0.019110077  0.019026255            6 
  808000   0.94607397   -7.7951205    184.96504  0.019076428  0.019010713           13 
  809000    0.9316022   -7.8208983    184.89916  0.019046061  0.018995059            6 
  810000   0.93065286   -7.8001293    185.28798  0.019062549  0.018979351           10 
  811000   0.91522334   -7.7738623    185.74206  0.019085703  0.018963532            6 
  812000   0.92520379   -7.8109831    185.68121  0.019055954  0.018947999            9 
  813000   0.94456275    -7.764381    185.72193  0.019036688  0.018932476            6 
  814000   0.93043716    -7.754108     186.6539  0.019108712  0.018917131            2 
  815000   0.92213798   -7.7735163    185.79634  0.018997581  0.018901771            9 
  816000   0.93150473    -7.807492    186.09422  0.019004721  0.018886174            9 
  817000   0.93085829   -7.8121672    185.72914   0.01894422  0.018870608           12 
  818000   0.93086947   -7.7854157    186.06287   0.01895506  0.018855044            6 
  819000   0.92869834   -7.7810676    186.96609  0.019023818  0.018839569            7 
  820000   0.94013173   -7.7877528    186.11657  0.018914286   0.01882414            6 
  821000   0.92383653   -7.8295056    186.24866  0.018904655  0.018808506            8 
  822000   0.93861451   -7.7893243    186.40527  0.018897534  0.018792675           12 
  823000   0.92670897   -7.8254256    186.40147  0.018874187  0.018777089           12 
  824000   0.91871461   -7.8055651    186.81284  0.018892884  0.018761553            4 
  825000    0.9182256    -7.786159    186.84945  0.018873681   0.01874597            7 
  826000   0.94487113   -7.7657657    187.30495  0.018896787  0.018730567            4 
  827000   0.92134725   -7.8137452    187.03349  0.018846583   0.01871517            4 
  828000   0.95183762   -7.8118083    186.83002  0.018803344  0.018699633           10 
  829000   0.92091705   -7.8275266    186.70311  0.018767904  0.018684081           12 
  830000   0.91047189   -7.8422168    186.54918  0.018729837  0.018668494           16 
  831000   0.94523497   -7.8310092    187.19592  0.018772154   0.01865295            9 
  832000   0.89998191   -7.7679131    187.67319  0.018797395  0.018637333            4 
  833000   0.91242578   -7.7913253    187.68168  0.018775678  0.018621959            7 
  834000    0.9568867   -7.7730434    188.31492  0.018816439  0.018606679           10 
  835000   0.90447262   -7.8199243    187.36536  0.018699138  0.018591352            5 
  836000   0.90852333   -7.8044741    187.53347  0.018693528  0.018575943           12 
  837000   0.92235332   -7.8430291    187.66792   0.01868458  0.018560427           13 
  838000   0.92681809   -7.8083898     187.7751  0.018672941  0.018544898            8 
  839000   0.91550518   -7.8529777     187.6176  0.018635042  0.018529181            5 
  840000   0.91724965   -7.8026004    188.04634  0.018655391  0.018513868            5 
  841000   0.92382627   -7.8194016    188.38672  0.018666936  0.018498484            7 
  842000   0.93367078   -7.8413856      188.415  0.018647565  0.018483256            6 
  843000   0.93674304   -7.7960063    188.77024  0.018660562  0.018468185            4 
  844000   0.92506077   -7.7811009    188.87113  0.018648413  0.018453198            3 
  845000   0.90259461   -7.8045721    188.57245  0.018596889  0.018438198            6 
  846000   0.90272909   -7.8230959    188.55449  0.018573137  0.018422931            5 
  847000   0.92565215   -7.8326271    187.99933  0.018496589  0.018407499            5 
  848000   0.91891863   -7.8942289    188.34277  0.018508527  0.018392123            6 
  849000   0.90446607   -7.8627829    188.55424  0.018507483   0.01837683           10 
  850000   0.91112353   -7.8279268    188.38655   0.01846927  0.018361393           11 
  851000   0.93883157   -7.8219935    188.69942  0.018478204  0.018345778            5 
  852000   0.91022351   -7.8406249    188.59612  0.018446412  0.018330213            3 
  853000   0.90369865   -7.8579828    188.74556  0.018439387  0.018314591            8 
  854000   0.92817394   -7.8277548    189.17977  0.018460165   0.01829907            8 
  855000   0.91643247   -7.8154268    189.54318  0.018473994   0.01828366           11 
  856000    0.9242961   -7.8405981    188.61602  0.018362151  0.018268266            6 
  857000   0.92372488   -7.8313646    189.32933  0.018410086  0.018252666            8 
  858000   0.89860481    -7.866911    188.92913   0.01834976  0.018237232            7 
  859000   0.91314966   -7.8558218    189.28849   0.01836326  0.018221907            4 
  860000   0.90431079   -7.7967848    190.15764  0.018426128  0.018206592            9 
  861000   0.90489697   -7.8654123     189.3842  0.018329869  0.018191369            2 
  862000   0.91310764   -7.8533525    189.60918  0.018330354  0.018176162            5 
  863000   0.89096071   -7.8282558    190.18412  0.018364631  0.018161004            4 
  864000   0.90152879   -7.7931835    189.89103  0.018315107  0.018145783            9 
  865000   0.90998063   -7.8157663    190.07281  0.018311446  0.018130568            5 
  866000   0.91672408   -7.8178268     189.4908  0.018234295  0.018115348            7 
  867000   0.91157734   -7.8383746    189.61423  0.018225128  0.018100106            4 
  868000   0.91508809   -7.8533258    190.07963  0.018248813   0.01808481           11 
  869000   0.90648218    -7.844718     189.9933  0.018219534  0.018069385           13 
  870000   0.89510719   -7.8401954    190.52246  0.018249278  0.018054081           11 
  871000   0.89186517   -7.8825982    190.05276  0.018183386  0.018038824           10 
  872000   0.90863299   -7.8618278     190.6165  0.018216408   0.01802373            4 
  873000   0.92277283   -7.8891088    190.66058   0.01819975  0.018008522            6 
  874000   0.89479522   -7.8561973    190.79078  0.018191341  0.017993302            5 
  875000   0.89078858   -7.8413287    191.05463  0.018195679  0.017978407            6 
  876000   0.90333769   -7.8206474    191.30821   0.01819903  0.017963526            6 
  877000   0.91045319   -7.8427547     191.3069  0.018178154  0.017948713            2 
  878000   0.89280283   -7.8499424    191.08183  0.018136089  0.017934045           12 
  879000   0.90876537   -7.8429953    191.44235  0.018149635  0.017919389            6 
  880000   0.89816237   -7.8613644    191.77384  0.018160402   0.01790476            6 
  881000   0.88916558    -7.815364    192.09134   0.01816982  0.017890191           10 
  882000   0.90653724   -7.8722395     191.6032  0.018103099  0.017875467            8 
  883000   0.90177988   -7.8476348    192.01056  0.018121042  0.017860689            7 
  884000   0.89393806    -7.893203    191.87359  0.018087631  0.017845925            5 
  885000   0.88993079   -7.8426376    192.50105  0.018126276   0.01783124            5 
  886000   0.90585744   -7.8533504    191.79814  0.018039705    0.0178165            4 
  887000   0.92059675   -7.8562533      191.916   0.01803044   0.01780176           12 
  888000   0.89455977   -7.8385508    192.09581  0.018027009  0.017786929            7 
  889000   0.91592322   -7.8482062    192.23458   0.01801974  0.017772243            3 
  890000   0.88535838    -7.852534    191.64999  0.017944756  0.017757427            6 
  891000   0.88586555   -7.8669117    192.15875  0.017972199  0.017742492            9 
  892000   0.89816097   -7.8847466     191.9246  0.017930176   0.01772756           22 
  893000   0.91652011   -7.9213161    191.79862   0.01789834  0.017712485           11 
  894000   0.88289029   -7.9407725    191.69937  0.017869069  0.017697285           10 
  895000   0.86472142   -7.8929422    191.91536  0.017869214  0.017682221           17 
  896000   0.89427912   -7.8679077    192.03227  0.017860144  0.017667193            9 
  897000   0.88712148   -7.8970415    192.01499  0.017838628  0.017652117           14 
  898000   0.89484329   -7.8871736    192.01176  0.017818463  0.017637095           10 
  899000    0.8982929   -7.8921012    192.11189  0.017807924  0.017622183           12 
  900000   0.90817638   -7.8960484    192.26015  0.017801866  0.017607276            4 
  901000   0.89259503   -7.8769348     191.9615  0.017754486  0.017592254            3 
  902000   0.88900132   -7.8801088    192.05935  0.017743843  0.017577185           11 
  903000   0.88131833   -7.8684936    192.54295  0.017768821  0.017562041            3 
  904000   0.89074216   -7.9010013    192.07604  0.017706125  0.017546961            6 
  905000   0.88326167   -7.8967286     192.3727  0.017713877  0.017531913            5 
  906000   0.87967622   -7.8803544    192.42086  0.017698755  0.017516828           12 
  907000   0.89852501   -7.8908826    192.45532  0.017682407   0.01750172            9 
  908000   0.87200329    -7.881326    191.96366   0.01761781  0.017486607            5 
  909000   0.89876179   -7.9369414    191.57825  0.017563096    0.0174714            6 
  910000   0.89485341   -7.9092995    192.16176   0.01759723  0.017456242            7 
  911000   0.88887191    -7.949802    192.56305  0.017614622  0.017441034            4 
  912000   0.87997086   -7.9263992    192.29342  0.017570671  0.017425762            5 
  913000   0.87627811   -7.9489586    192.30811  0.017552767  0.017410436            3 
  914000   0.88230126   -7.9401613    191.69471  0.017477636  0.017394979            8 
  915000   0.88847498   -7.9264843    193.08563  0.017585212  0.017379654            4 
  916000   0.89701653   -7.9188902    192.33249  0.017497497  0.017364366            6 
  917000    0.8791223   -7.9245929    192.68327  0.017510294  0.017349115            8 
  918000   0.87112879   -7.8672559    193.19328  0.017537517  0.017333906            7 
  919000   0.89832332   -7.8933225    192.98782  0.017499802  0.017318827            5 
  920000   0.90128758   -7.9393619    192.40099  0.017427626  0.017303589           10 
  921000    0.8803317    -7.922396    192.90243  0.017454074  0.017288243            6 
  922000   0.86579083   -7.8960021    193.06895  0.017450194  0.017273032            4 
  923000   0.88870094   -7.9198209    192.87305  0.017413602  0.017257797            5 
  924000   0.89294525   -7.9410457    192.80453  0.017388576  0.017242472            8 
  925000   0.89315659   -7.9485979    192.97047  0.017384727  0.017227129            9 
  926000   0.89855255   -7.9461706     192.8233  0.017352709  0.017211671            4 
  927000   0.90149302   -7.9128186    192.68836  0.017321859  0.017196342           11 
  928000   0.88557692   -7.9490068    192.97981  0.017329365  0.017181079           14 
  929000   0.90014052   -7.9450785    192.51229  0.017268774  0.017165654           23 
  930000   0.87454935   -7.9054256    193.16076  0.017308311  0.017150303           10 
  931000     0.883966   -7.8896385    193.27289  0.017299757  0.017135002           11 
  932000   0.89005089   -7.9271461    193.21696  0.017276195  0.017119753            7 
  933000   0.88583309   -7.9003045    193.73738   0.01730416  0.017104457            7 
  934000   0.89081905   -7.9459662    193.15844  0.017233979  0.017089144            8 
  935000   0.86751177    -7.970728    193.29859  0.017228038  0.017073802           14 
  936000   0.88858606   -7.9276454    193.79969  0.017254246  0.017058488            5 
  937000   0.87523753   -7.9286088    193.22857  0.017185038  0.017043142            8 
  938000    0.8798512   -7.9340374    192.73174  0.017122578  0.017027756            4 
  939000   0.87814743   -7.9224685    193.06215  0.017133666  0.017012419           10 
  940000   0.88373271   -7.9436492      193.253  0.017132358  0.016997077            8 
  941000    0.8809485   -7.9103468    193.46338  0.017132783  0.016981688            7 
  942000   0.88359623   -7.9322573    193.61628  0.017128121  0.016966419            8 
  943000   0.86631903   -7.9048805    193.96105  0.017140425  0.016951116            6 
  944000   0.88259621    -7.919388     193.6369  0.017093653  0.016935917           11 
  945000   0.85760669   -7.9298439    193.98497  0.017106258  0.016920771           10 
  946000   0.88580164   -7.9251755    194.07129  0.017095779   0.01690566            4 
  947000   0.87522504   -7.9194539    194.81932  0.017143552  0.016890617            6 
  948000   0.90473389   -7.9310437    194.14651  0.017066325  0.016875528            4 
  949000   0.87128039   -7.9429697    193.60483  0.017000775  0.016860355            6 
  950000   0.88563468   -7.9557796    194.00565  0.017018039  0.016845187            8 
  951000   0.88253035   -7.9655215    194.19022  0.017016318  0.016830056            5 
  952000   0.88597006   -7.9674342    194.28468  0.017006712  0.016814893           18 
  953000   0.87595993   -7.9472176    194.23802  0.016984787  0.016799714            9 
  954000   0.87942737    -7.935852    194.98911  0.017032592  0.016784673           22 
  955000   0.88524653   -7.9478219    194.49831  0.016971929  0.016769673           24 
  956000    0.8639378   -7.9757274    194.05104  0.016915188  0.016754586           20 
  957000    0.8991836   -7.9785147    193.55405  0.016854236  0.016739469            5 
  958000    0.8768996   -7.9398784    194.80034  0.016945054  0.016724394           10 
  959000   0.87657441   -7.9280219    194.52677  0.016903612  0.016709358           20 
  960000   0.86672241   -7.9604828    194.38811  0.016873967  0.016694402           15 
  961000   0.86452933   -7.9558564    194.46179  0.016862799  0.016679323            7 
  962000   0.85902843   -7.9745853    194.50129  0.016848691  0.016664279            7 
  963000   0.85990187   -7.9274956    194.53017  0.016833694  0.016649244           12 
  964000   0.85120195   -7.9589147    195.41827  0.016893004  0.016634283            8 
  965000   0.86426596   -7.9647847    194.67681  0.016811469  0.016619276           14 
  966000   0.86982983   -7.9611584    194.84626  0.016808684   0.01660431           17 
  967000   0.86807047   -7.9770265    194.97295  0.016802219  0.016589234           24 
  968000   0.87189184   -7.9633983    195.02483  0.016789328  0.016574264           18 
  969000   0.84970544   -7.9714858    195.16841  0.016784349  0.016559344           36 
  970000   0.86579999   -7.9817453    194.91716  0.016745461  0.016544498           22 
  971000   0.86972702   -7.9796431    194.67004  0.016707006  0.016529649            9 
  972000   0.85557466   -7.9741141    195.08548  0.016725435  0.016514675           13 
  973000    0.8601672   -7.9935989    194.72146  0.016677069  0.016499669           19 
  974000   0.87326244   -7.9667325    195.23053  0.016703502   0.01648472           15 
  975000   0.84422228   -7.9880261     195.3317  0.016695017  0.016469797           36 
  976000   0.86808175   -8.0114976    195.24271  0.016670313  0.016454892           12 
  977000   0.84986528   -7.9692697    195.34389  0.016661881  0.016439908           11 
  978000   0.86603699   -8.0179105    195.10793  0.016624739  0.016424938            5 
  979000   0.86662431   -8.0371838    194.83525  0.016584547  0.016409751           14 
  980000   0.84453335   -8.0247215    195.00072  0.016581693  0.016394668           23 
  981000   0.86663787   -8.0166237    195.32805  0.016592597  0.016379702           10 
  982000   0.85660206   -7.9880032    195.55052  0.016594579  0.016364766           12 
  983000   0.87078363   -8.0154313    194.98288  0.016529576  0.016349852           12 
  984000   0.85748371   -7.9703349    195.61618  0.016566411  0.016335008            8 
  985000   0.85797002   -8.0042035    195.12331  0.016507894  0.016320029            4 
  986000   0.86650962   -8.0258808    195.18099  0.016496027  0.016305067           10 
  987000   0.85115851   -7.9948765    195.48213  0.016504739  0.016290037           12 
  988000   0.85798763   -7.9701111    195.24396  0.016467945  0.016275098           14 
  989000   0.86628158   -7.9861512    195.66937  0.016487139  0.016260216            7 
  990000   0.85621016   -7.9824859    195.89223  0.016489245  0.016245279           12 
  991000    0.8591774   -7.9465006    195.91174  0.016474246  0.016230403           18 
  992000   0.83000248   -7.9913633    196.02899  0.016467489  0.016215554           32 
  993000   0.84431137   -7.9728887    196.12557  0.016459011  0.016200723           28 
  994000   0.86817632   -7.9949006    195.78391  0.016413808  0.016185885           46 
  995000   0.85574009   -8.0014494    195.74082  0.016393704  0.016171107           51 
  996000   0.88652895   -8.0206669    195.61462  0.016366685  0.016156342           29 
  997000   0.86680035   -8.0199841    195.61954  0.016350681  0.016141508           15 
  998000   0.84874663   -8.0536366    195.31561  0.016308919  0.016126571           38 
  999000   0.86777337   -8.0430497    195.72243  0.016326529  0.016111818           40 
 1000000   0.85672679   -8.0274364     195.7509  0.016312575  0.016096904           39 
 1001000    0.8517111   -8.0367013    195.91692    0.0163101  0.016082143           12 
 1002000    0.8618534   -8.0223299    196.08425  0.016307739  0.016067418           18 
 1003000   0.85227415   -8.0645239    195.94189  0.016279652  0.016052657           24 
 1004000   0.85693736   -8.0221803    196.53296  0.016312497  0.016037957           34 
 1005000   0.84429417   -8.0096757    195.80988  0.016236309  0.016023205           42 
 1006000   0.85104169   -8.0563764    196.08758  0.016243172   0.01600838            9 
 1007000   0.87343043    -8.033703    196.36762  0.016250217  0.015993604           19 
 1008000   0.87732418   -8.0169406    196.31592  0.016229821  0.015978883           17 
 1009000   0.85882777   -8.0181549    196.22961  0.016206608  0.015964169           25 
 1010000   0.84297184   -7.9987191    196.50136  0.016212984  0.015949523           31 
 1011000   0.85858582   -8.0369579     196.2687  0.016177769  0.015934902           33 
 1012000    0.8569252   -8.0142583    196.92027  0.016215438  0.015920341           28 
 1013000   0.84595796   -7.9985696    196.50613  0.016165361  0.015905745           41 
 1014000   0.85179675   -8.0142531    196.68523  0.016164138  0.015891096           63 
 1015000   0.85292686   -8.0366816    195.61387  0.016060252  0.015876554           46 
 1016000   0.84457224   -8.0583704    196.28299  0.016099326  0.015861927           65 
 1017000   0.85296572   -8.0542211    196.86317  0.016131036  0.015847371           31 
 1018000   0.84356392   -8.0286111    196.83129  0.016112581  0.015832917           58 
 1019000   0.84695007    -8.046173    196.92504  0.016104436  0.015818478           81 
 1020000   0.83929465   -8.0565438    196.84943   0.01608247  0.015803948          104 
 1021000   0.85799027   -8.0702627    196.90365  0.016071144  0.015789388           89 
 1022000   0.84597212     -8.02947    196.44509  0.016018027  0.015774766           74 
 1023000    0.8520158    -8.073432    196.31418  0.015991706  0.015760179          105 
 1024000   0.85393468   -8.1163716    196.05612  0.015955088  0.015745538          126 
 1025000   0.85881325   -8.0855583    197.02954  0.016018662  0.015731008          127 
 1026000   0.85081444   -8.1051264    196.92918  0.015994898  0.015716406          123 
 1027000   0.83835133    -8.091385    196.81857  0.015970348  0.015701825           88 
 1028000   0.84272235    -8.054236    197.23728  0.015988755  0.015687289          110 
 1029000    0.8431647   -8.0761081    196.78579  0.015936653  0.015672714           91 
 1030000   0.85170852   -8.0599424     196.7546  0.015918657   0.01565814           94 
 1031000   0.86269298   -8.0609909    197.10227  0.015931318   0.01564356           65 
 1032000   0.84321768   -8.0793146    196.88439  0.015898287  0.015629028           97 
 1033000   0.82857144   -8.0709601    197.33552   0.01591929  0.015614525           93 
 1034000   0.84209442   -8.0683465    197.06132  0.015881796  0.015599942          130 
 1035000   0.85186295   -8.0875131    196.70545  0.015837798   0.01558539          110 
 1036000   0.84801802   -8.0905325    196.41633  0.015799254   0.01557087          127 
 1037000    0.8450005   -8.0400534    197.43469  0.015865855  0.015556419          123 
 1038000   0.84405648   -8.1017391    196.70228  0.015791769  0.015541919          168 
 1039000   0.82516883   -8.0841879    197.52269  0.015842372  0.015527447          134 
 1040000   0.85281534   -8.0669759    197.27622   0.01580739   0.01551291          169 
 1041000   0.85675971   -8.0724951    196.99571  0.015769749  0.015498452          144 
 1042000    0.8305127    -8.067545    197.01466  0.015756131  0.015483911          172 
 1043000   0.84380951   -8.1173921    196.89276  0.015731285  0.015469316          178 
 1044000   0.82278287   -8.1049407    196.99669  0.015724512  0.015454721          191 
 1045000   0.84577633   -8.0919403    197.22166  0.015727405  0.015440109          204 
 1046000   0.85138424    -8.069009    197.38432  0.015725328  0.015425591          244 
 1047000   0.84041988   -8.1353409    196.70658  0.015656365  0.015410989          221 
 1048000   0.83158259   -8.1051215    196.77398  0.015646786  0.015396338          219 
 1049000   0.82419691   -8.1203531    197.03602  0.015652686  0.015381717          228 
 1050000   0.83863146   -8.1196926     197.1014  0.015642968  0.015367174          240 
 1051000    0.8089179   -8.1360855     196.7176  0.015597653  0.015352609          263 
 1052000   0.81830841    -8.109099    197.48356  0.015643502  0.015337966          231 
 1053000   0.82089124    -8.109803    196.54276  0.015554192  0.015323354          298 
 1054000     0.847395   -8.1109947    196.45916  0.015532824  0.015308696          257 
 1055000   0.85633238   -8.1059672    197.11206  0.015569673  0.015294078          349 
 1056000   0.83790886    -8.145443    196.78821  0.015529373  0.015279474          374 
 1057000   0.83576479   -8.1527666    196.23961  0.015471429  0.015264827          394 
 1058000    0.8197541    -8.145672    196.99791  0.015516533  0.015250204          341 
 1059000   0.83954467   -8.1616977    196.52238  0.015464461  0.015235553          381 
 1060000    0.8261787   -8.1996421    196.61006  0.015456766   0.01522081          346 
 1061000   0.83650523   -8.1667318    196.69183   0.01544862  0.015206081          363 
 1062000   0.82575568   -8.2076983    196.11065  0.015388469  0.015191347          439 
 1063000   0.82361741   -8.1789423    196.97329  0.015441619  0.015176573          450 
 1064000   0.84041379   -8.2099633    196.30574  0.015374823  0.015161744          451 
 1065000   0.81630785   -8.2031886    196.01813  0.015337882  0.015146882          452 
 1066000   0.80532781   -8.2036237    196.39239  0.015352751  0.015132013          458 
 1067000    0.8093832   -8.2129719    196.08557  0.015314399  0.015117152          482 
 1068000   0.83956778   -8.2224663    196.32339  0.015318617  0.015102285          527 
 1069000   0.80989848   -8.2089414    196.67419  0.015331633  0.015087361          496 
 1070000   0.81477655   -8.2332805    195.88205  0.015255612  0.015072503          540 
 1071000   0.83556229   -8.2556491    196.13037  0.015260689  0.015057647          559 
 1072000   0.82470874   -8.2167301    196.08592  0.015242998  0.015042737          572 
 1073000   0.82490238   -8.2247973     195.9198   0.01521589  0.015027833          628 
 1074000   0.82604991   -8.2550947    195.67172  0.015182473  0.015012914          643 
 1075000   0.83050552   -8.2367185      196.374  0.015222791  0.014998028          664 
 1076000   0.82990538   -8.2519998    195.65931  0.015153292    0.0149832          680 
 1077000   0.83276852   -8.2568075    196.12014  0.015174879  0.014968265          802 
 1078000    0.8382394   -8.2822717    195.96283  0.015148642  0.014953275          745 
 1079000   0.82216272   -8.2943757    195.38766  0.015090181  0.014938165          815 
 1080000   0.81217971   -8.3383224     195.1749  0.015059791  0.014923024          898 
 1081000   0.82645392   -8.3244264    195.40257  0.015063411  0.014907865          902 
 1082000   0.82230878   -8.3256078    195.19644  0.015033614  0.014892754          994 
 1083000   0.81286285   -8.3258699    195.52525  0.015045033  0.014877664         1033 
 1084000   0.82434244   -8.3014797     195.1723  0.015004021  0.014862416         1076 
 1085000   0.82006985   -8.3098959     194.9947  0.014976551  0.014847158         1106 
 1086000   0.81982914   -8.3078528    195.14794   0.01497452  0.014831908         1145 
 1087000   0.80837065   -8.3549212    195.03924   0.01495241  0.014816658         1274 
 1088000   0.83379191   -8.3196248    194.79853  0.014920231   0.01480144         1260 
 1089000   0.82914224   -8.3109408    195.57538  0.014965976   0.01478627         1272 
 1090000   0.82621352   -8.3748362    195.11395  0.014916969  0.014771066         1326 
 1091000   0.81961495   -8.3430415     195.3232  0.014919279  0.014755813         1313 
 1092000   0.80877456   -8.3818831    195.27486  0.014901928  0.014740512         1308 
 1093000   0.83896098   -8.3583562    194.77856  0.014850455   0.01472528         1425 
 1094000   0.81886211   -8.4072459    194.67109  0.014828693  0.014709918         1462 
 1095000   0.82408413   -8.4165361    194.55925   0.01480664  0.014694517         1482 
 1096000   0.81209948   -8.4146513    194.51601  0.014789843  0.014679115         1501 
 1097000   0.83939173    -8.437201    194.85925  0.014802435  0.014663693         1551 
 1098000   0.82089687   -8.4492943    194.64847  0.014772956  0.014648268         1612 
 1099000   0.81836957   -8.4589465    194.03278  0.014712828  0.014632712         1718 
 1100000   0.81894695   -8.4466734    193.77014  0.014679556  0.014617111         1796 
 1101000   0.82155822   -8.4521128    194.23857  0.014701678   0.01460155         1748 
 1102000   0.82783727   -8.4816371    193.83395   0.01465774  0.014585939         1934 
 1103000   0.83490049   -8.4846699    193.79469  0.014641485  0.014570311         1868 
 1104000   0.84069107   -8.4901821    193.67874   0.01461947  0.014554655         1973 
 1105000   0.79974706   -8.5294705    193.66703  0.014605357  0.014538999         1998 
 1106000    0.8298322   -8.5334765    193.65112  0.014590953  0.014523307         2073 
 1107000   0.82134182   -8.5134697    193.41179  0.014559756  0.014507609         2105 
 1108000     0.795971   -8.5681131    192.92642   0.01451011  0.014491881         2166 
 1109000   0.79359153    -8.558327    193.56188  0.014544776  0.014476092         2190 
 1110000   0.80872684   -8.5866914    192.90644  0.014482466   0.01446026         2238 
 1111000   0.80511939   -8.6080183     192.9623   0.01447362  0.014444418         2250 
 1112000   0.79129386   -8.5967533    192.81849  0.014449827  0.014428486         2331 
 1113000   0.80164951   -8.6111638    192.72493  0.014429839  0.014412601         2332 
 1114000   0.81292251   -8.6364624     192.3394  0.014388046  0.014396679         2439 
 1115000    0.7875345   -8.6149624    192.95423  0.014421094   0.01438081         2522 
 1116000   0.80062104   -8.6510724    192.09025  0.014343656  0.014364875         2562 
 1117000   0.81100577   -8.6569654    192.95079  0.014395015  0.014348924         2600 
 1118000   0.81304402   -8.6826777    192.27472  0.014331747  0.014332974         2671 
 1119000   0.80627579   -8.6829718    192.19621  0.014313092  0.014317001         2742 
 1120000   0.80925751   -8.6894207     192.3522  0.014311919  0.014301006         2746 
 1121000   0.81598609   -8.6770976    192.48547  0.014309059  0.014284995         2778 
 1122000   0.81081635   -8.6908355    192.18933  0.014274311  0.014269075         2793 
 1123000   0.82283694   -8.7168323    191.91718  0.014241405  0.014253056         2951 
 1124000   0.80724177   -8.6799589    192.25999  0.014254151  0.014237054         2937 
 1125000   0.81015402   -8.7173248    192.02386  0.014223989  0.014220996         2913 
 1126000   0.79683296   -8.6986343    192.46437  0.014243959  0.014204946         2973 
 1127000   0.79498829   -8.7449644    191.76711  0.014179763  0.014188844         3082 
 1128000    0.8056412   -8.7472443    191.82342  0.014171352   0.01417276         3047 
 1129000   0.79201359   -8.7503425     191.3883  0.014126683  0.014156633         3117 
 1130000   0.80434649   -8.7849019    191.38284  0.014113779  0.014140489         3159 
 1131000   0.80745776   -8.7732254    191.35837  0.014099497  0.014124316         3187 
 1132000   0.79521919    -8.789218    191.52052  0.014098978   0.01410817         3157 
 1133000   0.80803708   -8.7920384    191.21329  0.014063937  0.014092021         3152 
 1134000   0.78577892   -8.7737793     191.3031  0.014058135  0.014075891         3189 
 1135000   0.80185695   -8.7688586    191.42067  0.014054381  0.014059756         3183 
 1136000   0.80429268   -8.7648346    191.74033  0.014065458  0.014043646         3250 
 1137000   0.81222714   -8.7884479    191.31933  0.014022232  0.014027533         3206 
 1138000   0.79388079   -8.8053222    191.18874  0.014000347  0.014011439         3332 
 1139000   0.80514767   -8.8076904    190.84459  0.013962876  0.013995314         3270 
 1140000   0.79848804   -8.8085301    191.19902  0.013976537  0.013979214         3300 
 1141000   0.80000254   -8.8127492    191.13477  0.013959595  0.013963144         3274 
 1142000    0.7972844   -8.8199626     190.6257  0.013910223  0.013947054         3375 
 1143000   0.80112907   -8.8291791    190.80292  0.013910974  0.013930907         3347 
 1144000   0.78020417   -8.8460597    191.08667  0.013919483  0.013914821         3366 
 1145000   0.79876151   -8.8304757     191.3293  0.013924985  0.013898715         3436 
 1146000   0.78603006   -8.8244074    190.94575  0.013884944  0.013882646         3430 
 1147000   0.78622992   -8.8317171    190.51842  0.013841792  0.013866585         3439 
 1148000   0.81102193   -8.8358174    190.91909  0.013858819  0.013850536         3415 
 1149000   0.78852478   -8.8281129    190.96134  0.013849821   0.01383448         3495 
 1150000   0.79956777    -8.865875    190.60979  0.013812304  0.013818422         3506 
 1151000   0.79184048   -8.8608101    190.99859  0.013828453  0.013802406         3475 
 1152000   0.79169574   -8.8621211    190.83935   0.01380493  0.013786398         3493 
 1153000   0.77968052   -8.8530451    190.38756  0.013760303  0.013770385         3540 
 1154000   0.79911334   -8.8581306    190.55214  0.013760265  0.013754382         3532 
 1155000   0.79913593   -8.8438423    190.90783  0.013774014  0.013738377         3519 
 1156000   0.79047633   -8.8783079    190.64432  0.013743102  0.013722384         3558 
 1157000   0.77190054   -8.8652603    190.31089  0.013707209  0.013706404         3528 
 1158000   0.76981226   -8.8656704    190.15772   0.01368435   0.01369042         3591 
 1159000   0.80262332   -8.8685125    190.78898   0.01371793  0.013674467         3601 
 1160000   0.78425538   -8.8679061    190.48881  0.013684541  0.013658532         3614 
 1161000   0.80472151   -8.8792106    190.38854  0.013665557  0.013642586         3628 
 1162000    0.7917742   -8.8809937    190.88199  0.013689185  0.013626651         3569 
 1163000   0.78717713   -8.8716334    190.40447  0.013643198  0.013610772         3523 
 1164000   0.80273094    -8.887547    190.33286   0.01362635  0.013594889         3581 
 1165000   0.79697689   -8.8734091    190.45617  0.013623474   0.01357902         3615 
 1166000   0.78577916   -8.8955789    190.58756  0.013621181   0.01356316         3616 
 1167000   0.78945429   -8.8917611    190.53113  0.013605479  0.013547335         3668 
 1168000    0.7866004   -8.9146803    190.66532  0.013603404  0.013531503         3645 
 1169000   0.77965952   -8.8914149    190.13283  0.013553808  0.013515693         3634 
 1170000   0.77681055   -8.8921086    190.43881  0.013564018  0.013499912         3653 
 1171000   0.79585661   -8.9043087    190.42043  0.013551127   0.01348419         3681 
 1172000   0.76683635   -8.8980206    190.28113  0.013529659  0.013468454         3646 
 1173000   0.78523464   -8.9148897      190.324  0.013521171  0.013452747         3622 
 1174000   0.76942821    -8.911646    190.04455  0.013489818  0.013437005         3681 
 1175000   0.78350248   -8.9104191    190.01872  0.013476505  0.013421298         3650 
 1176000   0.78751887    -8.935331    189.94293  0.013459675  0.013405579         3653 
 1177000   0.77234232   -8.9337327    190.25377  0.013470247  0.013389853         3662 
 1178000   0.78901502   -8.9373651    190.04702  0.013444187   0.01337418         3696 
 1179000   0.77457007   -8.9186719    190.13737  0.013439169  0.013358506         3633 
 1180000   0.77952519   -8.9393163    190.00581  0.013418489  0.013342845         3701 
 1181000   0.79217261   -8.9384339     189.7902  0.013391913  0.013327199         3686 
 1182000   0.78320536   -8.9199249     189.8975  0.013388148  0.013311565         3667 
 1183000   0.78760578   -8.9080971    190.10032  0.013391118  0.013295945         3669 
 1184000   0.78458197   -8.9287564    190.61057  0.013415721  0.013280338         3701 
 1185000   0.77345415   -8.9420382    189.96919  0.013359296  0.013264759         3675 
 1186000   0.77239242   -8.9493293    190.25106  0.013367837  0.013249199         3652 
 1187000   0.79687039   -8.9371988    189.91241  0.013332801  0.013233633         3686 
 1188000   0.76396039   -8.9438376    190.09174  0.013334157  0.013218086         3630 
 1189000   0.78561907    -8.938175    189.72393  0.013297164  0.013202594         3676 
 1190000    0.7899176   -8.9552035    189.90418  0.013298612  0.013187114         3690 
 1191000   0.78269869    -8.961037    190.08251  0.013299924  0.013171633         3698 
 1192000   0.75655588    -8.951654    190.07539  0.013288268   0.01315615         3682 
 1193000   0.77895917   -8.9527517    189.80381  0.013258159  0.013140679         3631 
 1194000   0.78087627   -8.9443761    190.11006   0.01326843  0.013125258         3684 
 1195000   0.76997616   -8.9690267    189.94293  0.013245671  0.013109847         3727 
 1196000   0.75981989   -8.9878491    190.01046  0.013239302   0.01309447         3657 
 1197000    0.7823038   -8.9429103    190.07469  0.013232713  0.013079092         3717 
 1198000   0.77148896   -8.9379965    190.38539   0.01324328  0.013063745         3698 
 1199000   0.78950346   -8.9454686    189.81436  0.013192547  0.013048414         3743 
 1200000   0.76821929   -8.9438629    189.87654  0.013185871  0.013033127         3707 
 1201000   0.75812359      -8.9254    190.05661  0.013187386  0.013017836         3722 
 1202000   0.76075696    -8.965915    189.62374  0.013146405   0.01300258         3720 
 1203000   0.78765737   -8.9688915    189.75369  0.013144479  0.012987317         3717 
 1204000   0.77386932   -8.9460307     189.7408  0.013132669  0.012972105         3715 
 1205000   0.76874139   -8.9861435    189.82599  0.013127662  0.012956889         3731 
 1206000   0.78622133   -8.9539589    189.27915   0.01307899  0.012941677         3678 
 1207000   0.76198352   -8.9699433    189.56809  0.013088104  0.012926515         3721 
 1208000   0.76806121   -8.9790728    189.98656  0.013106137   0.01291135         3720 
 1209000   0.76460802   -8.9723625    189.71351  0.013076476  0.012896206         3719 
 1210000   0.76302362   -8.9791157    189.53572  0.013053424  0.012881062         3683 
 1211000   0.77919312   -8.9631021    189.70218    0.0130541  0.012865955         3702 
 1212000   0.76008114   -8.9965798    189.75989  0.013047297  0.012850839         3733 
 1213000   0.76429844   -8.9625447    189.20347  0.012998315  0.012835724         3738 
 1214000   0.77532351    -8.977641    189.52061  0.013009378  0.012820631         3726 
 1215000    0.7630017   -8.9330894    189.95613  0.013028541  0.012805593         3703 
 1216000   0.76020263   -8.9649034    189.38118  0.012978425   0.01279056         3745 
 1217000   0.77072429   -8.9658896    189.80639  0.012996877  0.012775562         3726 
 1218000   0.76083491   -8.9614682    189.92161  0.012994089  0.012760552         3752 
 1219000   0.77273124   -8.9634984     189.8304  0.012977194  0.012745598         3747 
 1220000   0.77487971     -8.98307    189.73088  0.012959759  0.012730671         3761 
 1221000   0.77297742   -8.9832458    189.45984  0.012930647  0.012715751         3740 
 1222000   0.77110971   -8.9947813    189.70658  0.012936892  0.012700849         3759 
 1223000   0.75466107   -8.9689827    189.96308  0.012943791   0.01268596         3738 
 1224000   0.76027696   -8.9826285    189.40604  0.012895291   0.01267107         3787 
 1225000   0.76539687   -8.9683489    189.80393  0.012911832  0.012656206         3765 
 1226000   0.74497884   -8.9832014    189.66675  0.012891976  0.012641348         3751 
 1227000   0.76123956   -8.9989696    189.47859   0.01286869  0.012626518         3734 
 1228000   0.77231586   -8.9537378    189.80507  0.012880366  0.012611713         3710 
 1229000   0.76283504   -8.9919973    189.63797  0.012858555  0.012596928         3738 
 1230000   0.77265335   -8.9939983    189.43675  0.012834468  0.012582179         3780 
 1231000   0.76864551    -8.995875    189.35916  0.012818789  0.012567433         3731 
 1232000   0.75544047   -8.9938181    189.48818  0.012817112  0.012552698         3741 
 1233000   0.76260654   -8.9829091    189.50583   0.01280791  0.012538014         3814 
 1234000    0.7574146   -8.9760942    189.95937  0.012828158  0.012523326         3761 
 1235000   0.77718128   -8.9609377     189.9929  0.012820033  0.012508664         3775 
 1236000   0.76355145   -9.0140523       189.31  0.012763619  0.012494017         3758 
 1237000   0.76012786    -9.008691    189.92321  0.012794611  0.012479395         3758 
 1238000    0.7595199   -9.0176587    189.48982  0.012755104  0.012464772         3734 
 1239000   0.75369249   -9.0102083    189.64882  0.012755503  0.012450182         3747 
 1240000   0.75984377    -9.000548    189.82298   0.01275692  0.012435603         3783 
 1241000   0.74762479   -8.9690296    189.59862  0.012731575  0.012421065         3769 
 1242000   0.75112908   -8.9835514      189.537   0.01271719  0.012406539         3749 
 1243000   0.76148504   -9.0022772    189.55779  0.012708352  0.012392026         3765 
 1244000   0.75438043    -8.972349    189.62396   0.01270257  0.012377525         3714 
 1245000   0.75638265   -8.9866833    189.48162   0.01268284   0.01236306         3739 
 1246000   0.75562798   -8.9932128    189.40558  0.012667575  0.012348619         3787 
 1247000   0.74580134   -9.0044004    189.55264  0.012667244   0.01233418         3737 
 1248000   0.76284467   -9.0058138    189.49136  0.012653002  0.012319759         3753 
 1249000   0.77464516   -9.0161124    189.27518  0.012628448  0.012305364         3775 
 1250000   0.76403823   -8.9746062    189.60913  0.012640609   0.01229098         3735 
 1251000   0.76050074   -9.0017472    189.47664  0.012621678  0.012276643         3760 
 1252000   0.76048368   -9.0110223    189.80748  0.012633618  0.012262309         3780 
 1253000    0.7553281   -8.9985529    189.56167  0.012607188  0.012247979         3782 
 1254000   0.73566553   -9.0172245    189.40897  0.012586986  0.012233689         3772 
 1255000   0.74540995   -9.0071287    189.62498    0.0125913  0.012219403         3774 
 1256000   0.75547901   -9.0203333    189.41107  0.012567083  0.012205143         3781 
 1257000   0.74294264   -8.9977974    189.37613  0.012554769  0.012190911         3752 
 1258000   0.75474869   -8.9953138    189.37287  0.012544573  0.012176688         3777 
 1259000   0.75204542   -9.0082651    189.36836   0.01253431  0.012162503         3743 
 1260000     0.757196   -9.0370558    189.19485  0.012512887  0.012148311         3775 
 1261000   0.74297191   -9.0299099    189.72319  0.012537879  0.012134149         3745 
 1262000   0.74363549   -9.0039324     189.0491  0.012483433  0.012119991         3768 
 1263000   0.72990912   -9.0404716    189.14759  0.012480047  0.012105856         3799 
 1264000   0.75474616   -9.0318383    189.18391  0.012472568  0.012091713         3770 
 1265000   0.76343109   -9.0050467     188.9704  0.012448643  0.012077607         3785 
 1266000   0.74493704    -9.029725    188.97544  0.012439142  0.012063519         3788 
 1267000   0.74690269   -9.0036311    189.50806  0.012464355  0.012049439         3722 
 1268000   0.74592675   -9.0152935    189.31435  0.012441795    0.0120354         3776 
 1269000   0.74790304   -9.0248446    189.26093  0.012428482  0.012021357         3819 
 1270000   0.72954007   -9.0357481    189.22381   0.01241626  0.012007336         3771 
 1271000   0.75358993   -9.0271835    189.04564   0.01239481  0.011993353         3779 
 1272000   0.74302613   -9.0207102    189.45817  0.012412092  0.011979373         3746 
 1273000   0.74157597   -9.0308871    188.81765  0.012360412  0.011965418         3779 
 1274000   0.75792212   -9.0423314    188.86447  0.012353772  0.011951477         3763 
 1275000   0.72709836   -9.0515269    188.64641  0.012329831  0.011937542         3774 
 1276000    0.7456859   -9.0229977    188.98819  0.012342489  0.011923628         3770 
 1277000   0.73030683   -9.0334424    188.88061  0.012325803   0.01190972         3806 
 1278000   0.74738603   -9.0302321    189.13754  0.012332912  0.011895846         3801 
 1279000   0.73788322   -9.0124506    189.12447  0.012322418  0.011881969         3742 
 1280000   0.75513388   -9.0285331    189.26314  0.012321819  0.011868149         3752 
 1281000   0.73147475   -9.0518479    188.94526  0.012291521  0.011854345         3795 
 1282000    0.7425901   -9.0389797    189.18161  0.012297297  0.011840544         3802 
 1283000   0.73082707   -9.0350839    189.38708  0.012301058  0.011826782         3772 
 1284000   0.74581144   -9.0532271    189.32398  0.012287382  0.011813035         3775 
 1285000   0.74498173   -9.0301235    189.38364  0.012281689  0.011799305         3773 
 1286000   0.74702949   -9.0500317     189.1823  0.012259091    0.0117856         3827 
 1287000   0.74388562   -9.0448383    189.45668  0.012267332  0.011771893         3805 
 1288000   0.73669919   -9.0562357    188.84146  0.012218003  0.011758227         3815 
 1289000   0.74916187   -9.0237217    189.49138  0.012250542  0.011744585         3775 
 1290000   0.73058968   -9.0534809    189.26467    0.0122264  0.011730958         3826 
 1291000   0.74384669    -9.008424    189.17653   0.01221124  0.011717322         3823 
 1292000   0.72463611   -9.0368639    189.09402  0.012196467  0.011703748         3811 
 1293000   0.74528515   -9.0653324    188.85667  0.012171737  0.011690167         3795 
 1294000    0.7640985   -9.0382339    188.86444  0.012162831  0.011676617         3843 
 1295000   0.74502204   -9.0460149    188.96654  0.012160009  0.011663067         3798 
 1296000   0.74297086   -9.0510905    188.72964  0.012135393  0.011649527         3774 
 1297000   0.74398141   -9.0358376    189.39668  0.012168895  0.011636018         3806 
 1298000   0.74303946   -9.0542628    188.94837  0.012130738  0.011622512         3810 
 1299000   0.74432858   -9.0545808     189.0325  0.012126796   0.01160903         3796 
 1300000     0.729619   -9.0634097      189.048  0.012118461  0.011595579         3814 
 1301000   0.73603641   -9.0542238    188.72174  0.012088249  0.011582131         3793 
 1302000   0.73974828   -9.0826411    188.68107  0.012076361  0.011568703         3821 
 1303000   0.74709176   -9.0457973    188.67727   0.01206685  0.011555283         3800 
 1304000   0.73987435   -9.0583422    188.96013  0.012075673  0.011541887         3804 
 1305000   0.73427251   -9.0815152    189.00787  0.012069468  0.011528515         3805 
 1306000   0.72166449   -9.0785811    189.02806  0.012061515   0.01151516         3777 
 1307000   0.73743304   -9.0539532     189.3509   0.01207287  0.011501818         3789 
 1308000   0.71520693   -9.0680139    189.20612  0.012054417  0.011488494         3841 
 1309000   0.72781625   -9.0590517    188.80714  0.012019808  0.011475203         3823 
 1310000   0.73238258   -9.0735592    189.07914  0.012027935  0.011461909         3833 
 1311000   0.72738964   -9.0569554    189.15873   0.01202382  0.011448636         3830 
 1312000   0.74339605   -9.0479377     188.8658  0.011996049  0.011435384         3823 
 1313000   0.72799333   -9.0825872     188.8364  0.011985047  0.011422146         3825 
 1314000   0.73181348    -9.073068    188.83772   0.01197601  0.011408939         3831 
 1315000   0.72483504   -9.0920765    188.83375  0.011966651  0.011395735         3842 
 1316000   0.73045974   -9.1105403    188.67137  0.011947275  0.011382554         3817 
 1317000   0.71903741   -9.0408728    188.98903  0.011958303  0.011369387         3800 
 1318000   0.72330662   -9.0506387    188.75249  0.011934275  0.011356234         3832 
 1319000   0.73428986   -9.0875697    188.74748   0.01192491  0.011343097         3824 
 1320000    0.7249233   -9.0710021     188.4827  0.011899161  0.011329978         3810 
 1321000   0.70467197   -9.0745128    188.77612  0.011908663  0.011316885         3830 
 1322000   0.73618392   -9.0654468    189.03867  0.011916205  0.011303815         3834 
 1323000   0.71257745   -9.0572627    188.99952  0.011904732  0.011290773         3798 
 1324000   0.72347732   -9.0666918    188.92334  0.011890945   0.01127773         3807 
 1325000   0.72335486   -9.0519278      188.796  0.011873962  0.011264718         3826 
 1326000   0.72138361   -9.0659671     189.0956  0.011883836  0.011251713         3829 
 1327000   0.72399119   -9.0911581    188.66506  0.011847844  0.011238747         3836 
 1328000   0.73468867   -9.0779254    189.05743  0.011863543  0.011225798         3846 
 1329000   0.70881768   -9.1009302    188.39553  0.011813113  0.011212853         3854 
 1330000   0.72668732   -9.0630142     188.9457  0.011838703  0.011199935         3833 
 1331000   0.72452762   -9.0779188    188.50786  0.011802396  0.011187055         3833 
 1332000   0.72965446   -9.0784324    188.45764  0.011790393  0.011174169         3837 
 1333000   0.71918471   -9.0802954    188.41581  0.011778933  0.011161305         3820 
 1334000   0.72626401   -9.0936947    188.54644  0.011778264  0.011148448         3834 
 1335000    0.7209797   -9.1045103    188.39731  0.011760132  0.011135616         3835 
 1336000   0.71582071   -9.0728307    188.60337  0.011764182  0.011122787         3806 
 1337000    0.7303443   -9.1029731    188.75027  0.011764539   0.01110999         3828 
 1338000   0.72047876   -9.0731803    188.73765  0.011754961  0.011097218         3827 
 1339000   0.73139719   -9.0716474    188.56274  0.011735296  0.011084445         3824 
 1340000   0.72531991   -9.0922776    188.70277  0.011735247  0.011071687         3861 
 1341000   0.72404848   -9.0648246    188.45239  0.011710937  0.011058967         3801 
 1342000   0.71728162   -9.0835266    188.86605  0.011727897  0.011046249         3781 
 1343000   0.72348354   -9.0872423    188.96264  0.011725158   0.01103356         3838 
 1344000   0.73153409   -9.0783749    188.66746  0.011698131   0.01102089         3829 
 1345000   0.72625998   -9.0811012    188.44054  0.011675375  0.011008237         3834 
 1346000   0.71405138   -9.0743599    188.42831  0.011665943  0.010995586         3848 
 1347000    0.7004923   -9.0895094    188.30142  0.011649432  0.010982964         3834 
 1348000   0.72829018   -9.1071447      188.468  0.011651088  0.010970342         3823 
 1349000   0.73730841   -9.1052278    188.35676   0.01163558  0.010957763         3816 
 1350000   0.71689427   -9.0904654    188.29586  0.011623201  0.010945176         3807 
 1351000   0.71691177   -9.1076122     188.2113  0.011609382  0.010932615         3864 
 1352000   0.72071845   -9.1231983     188.0575  0.011591315  0.010920068         3844 
 1353000    0.7242411   -9.0961253    188.42053  0.011605108  0.010907554         3805 
 1354000   0.71979505   -9.1105958    188.06648  0.011574746  0.010895054         3809 
 1355000   0.71559143   -9.0797079    188.94553  0.011620266  0.010882584         3839 
 1356000   0.72764447   -9.1086464    188.22145  0.011567198  0.010870128         3831 
 1357000   0.69862965   -9.1146653    188.71265  0.011588839  0.010857677         3812 
 1358000   0.71815713   -9.1111118    188.73402  0.011581616  0.010845247         3829 
 1359000   0.70592705   -9.1017611    188.82645  0.011578762  0.010832841         3818 
 1360000    0.7068378   -9.0971539    188.57775  0.011555009  0.010820445         3823 
 1361000   0.71532011   -9.0994732    188.27106  0.011527741  0.010808085         3821 
 1362000   0.71040962   -9.0903608    188.73353  0.011547573  0.010795742         3824 
 1363000    0.7016512   -9.0687165    188.68826  0.011536333  0.010783416         3851 
 1364000   0.68838796    -9.083145     188.6317   0.01152442  0.010771109         3835 
 1365000   0.71826463   -9.1052166    188.98913  0.011537798  0.010758814         3840 
 1366000   0.71274289    -9.111377    188.41907  0.011494575  0.010746526         3837 
 1367000   0.69685097   -9.1061916    188.67576  0.011501814  0.010734266         3823 
 1368000   0.70430652   -9.1110271    188.40311  0.011476798  0.010722015         3825 
 1369000   0.70202685   -9.1061269    188.69866  0.011486405  0.010709792         3854 
 1370000    0.6946853   -9.1016491    188.38337  0.011458843  0.010697579         3875 
 1371000    0.7090768   -9.0908743    188.71805  0.011470827  0.010685369         3832 
 1372000   0.70648454   -9.1033865    188.57181  0.011453584  0.010673189         3814 
 1373000   0.69298284   -9.1389995    188.12084  0.011417871  0.010661027         3834 
 1374000   0.70371016    -9.118131    188.66645  0.011442652  0.010648873         3855 
 1375000   0.70214976   -9.1132264    188.63651  0.011432516  0.010636747         3831 
 1376000   0.70608234   -9.1172368    188.40378  0.011410113  0.010624636         3805 
 1377000   0.69677372    -9.129058    188.17946  0.011388251  0.010612545         3822 
 1378000   0.69749994   -9.1140747    188.58102  0.011404271  0.010600481         3820 
 1379000   0.69734325   -9.1100256    188.21586  0.011373934  0.010588424         3820 
 1380000   0.71864012   -9.1236077    188.47894  0.011381579  0.010576389         3829 
 1381000   0.70048227   -9.1164684    188.26805  0.011360612  0.010564361         3828 
 1382000    0.6939132   -9.1165658    188.29065  0.011353754  0.010552357         3840 
 1383000   0.71212855    -9.106231    188.43261  0.011354098  0.010540356         3842 
 1384000   0.70859819   -9.1115506    188.42958  0.011345712  0.010528394         3860 
 1385000   0.68404242   -9.1169024     188.7683    0.0113579  0.010516442         3841 
 1386000   0.69259892   -9.1210882    188.24156  0.011318035  0.010504496         3844 
 1387000   0.67997841   -9.0973339    188.66977  0.011335603  0.010492564         3821 
 1388000   0.70367831   -9.1137024    188.34898  0.011308176  0.010480656         3792 
 1389000   0.69570183   -9.1269983     188.6176  0.011316151  0.010468761         3841 
 1390000   0.68194198   -9.1044428    188.33985  0.011291358  0.010456883         3826 
 1391000   0.70085898   -9.1208069    188.17983  0.011273654  0.010445021         3836 
 1392000    0.7026243   -9.1320977    188.34249  0.011275293  0.010433181         3828 
 1393000   0.71379659   -9.1364092    188.17774  0.011257343  0.010421349         3793 
 1394000   0.71054181   -9.1112584     188.7693   0.01128463  0.010409533         3834 
 1395000   0.71848089   -9.1242487     188.4636   0.01125828  0.010397745         3814 
 1396000   0.69278788   -9.1430134    187.96297   0.01122033  0.010385968         3845 
 1397000   0.69437092   -9.1211146    188.37068  0.011236619  0.010374206         3854 
 1398000   0.70424418   -9.1382324    187.85248  0.011197692  0.010362455         3848 
 1399000   0.68191998   -9.1359983     188.0768   0.01120305  0.010350728         3828 
 1400000    0.6871624   -9.1331942    188.52701  0.011221846  0.010339015         3822 
 1401000   0.69307225   -9.1341051    188.43935  0.011208622  0.010327339         3810 
 1402000   0.70098188   -9.1316469    188.32211  0.011193658  0.010315661         3838 
 1403000   0.70606413   -9.1334271    188.12447  0.011173941  0.010304003         3861 
 1404000   0.70381063   -9.1434477    188.04024  0.011160983  0.010292365         3820 
 1405000    0.6756812   -9.1420091    188.05315  0.011153805   0.01028073         3839 
 1406000   0.68907696   -9.1488507    187.80094  0.011130924  0.010269114         3846 
 1407000   0.68507885   -9.1462091    188.07586  0.011139295  0.010257519         3835 
 1408000    0.7020972   -9.1384238    188.19729  0.011138571  0.010245928         3827 
 1409000    0.6806683   -9.1215025    188.47976  0.011147372  0.010234353         3865 
 1410000   0.67132518   -9.1379961    188.07175  0.011115351  0.010222795         3845 
 1411000   0.67655464   -9.1412401    188.31809  0.011122023  0.010211264         3825 
 1412000   0.69009144   -9.1229767    188.18691  0.011106404  0.010199742         3856 
 1413000   0.69679397   -9.1440641     187.9765  0.011086135  0.010188232         3836 
 1414000   0.69758214   -9.1457229    188.13365  0.011087556  0.010176739         3847 
 1415000   0.69140312   -9.1341853    187.86851  0.011064105  0.010165265         3832 
 1416000     0.692687   -9.1131342    188.46912  0.011091638  0.010153815         3836 
 1417000   0.69326051   -9.1303402    187.88616  0.011049527  0.010142381         3826 
 1418000   0.67049621   -9.1274316    188.00626  0.011048793  0.010130969         3817 
 1419000   0.68782837   -9.1326865    188.26735   0.01105634  0.010119559         3832 
 1420000   0.68169981    -9.159613    188.09084  0.011038195  0.010108173         3829 
 1421000   0.68980965   -9.1587217    188.06675  0.011029014  0.010096797         3825 
 1422000   0.70822618   -9.1365291    187.98334   0.01101637  0.010085444         3796 
 1423000   0.68195647   -9.1595747     188.0422  0.011012075  0.010074099         3862 
 1424000   0.67309277   -9.1625822     187.9144  0.010996863  0.010062771         3830 
 1425000     0.683224   -9.1377346    187.97276  0.010992559  0.010051466         3855 
 1426000    0.6978884   -9.1630234     188.2618  0.011001742  0.010040184         3839 
 1427000   0.67909599   -9.1401591    188.00573  0.010979078  0.010028908         3847 
 1428000    0.6870817   -9.1400042    187.94857  0.010968054  0.010017651         3817 
 1429000   0.70285312   -9.1576347    187.84141  0.010954129  0.010006418         3833 
 1430000   0.69434968   -9.1578933    187.94054  0.010952246 0.0099951894         3844 
 1431000   0.69425506   -9.1513236    187.87027    0.0109405  0.009983978         3825 
 1432000   0.66833221    -9.157994    188.21718  0.010953048 0.0099727815         3859 
 1433000    0.6686534   -9.1674052     187.8794  0.010925762 0.0099615992         3854 
 1434000   0.67862075   -9.1669609    187.69462  0.010907405  0.009950435         3837 
 1435000   0.66840673   -9.1576288    187.87122  0.010910059  0.009939272         3846 
 1436000    0.6852841   -9.1653416    187.95756  0.010907472   0.00992815         3849 
 1437000   0.67694627    -9.146772    187.78288  0.010889752 0.0099170489         3826 
 1438000   0.68318247   -9.1638939    187.71791  0.010878414  0.009905955         3868 
 1439000   0.67161557   -9.1365586    188.07227  0.010891376 0.0098948672         3828 
 1440000   0.68374488   -9.1429395    187.57363  0.010854956 0.0098837939         3838 
 1441000   0.69037252   -9.1659661    187.96114  0.010869832 0.0098727381         3828 
 1442000   0.66770061   -9.1603871    187.87423  0.010857272 0.0098616925         3827 
 1443000   0.67289573   -9.1432919    188.14007    0.0108651  0.009850671         3826 
 1444000   0.66881945   -9.1361956    188.07054  0.010853563 0.0098396676         3837 
 1445000   0.67512265   -9.1602848    187.67457  0.010823216  0.009828676         3840 
 1446000   0.66607272   -9.1656014    188.02889  0.010836151 0.0098176937         3834 
 1447000   0.67009154   -9.1733097    187.64037  0.010806287 0.0098067386         3853 
 1448000   0.66957504   -9.1476267    188.17582  0.010829639 0.0097957872         3847 
 1449000   0.66533812   -9.1717475    187.92258  0.010807602  0.009784868         3852 
 1450000   0.67555405   -9.1702659    187.68353   0.01078641 0.0097739595         3848 
 1451000   0.66039212    -9.171585    187.88125  0.010790331 0.0097630578         3815 
 1452000   0.67535178    -9.168322    187.93158  0.010785788  0.009752174         3844 
 1453000   0.68873761   -9.1766638    187.89233  0.010776114  0.009741314         3847 
 1454000   0.66889747   -9.1892229    187.93603  0.010771208 0.0097304694         3836 
 1455000   0.67699655   -9.1638766    188.06472  0.010771176 0.0097196279         3872 
 1456000   0.67920561   -9.1502272    187.97497  0.010758641 0.0097088121         3843 
 1457000   0.69163645   -9.1718231    188.02591   0.01075417 0.0096980144         3851 
 1458000    0.6628077    -9.182088     187.4548  0.010714152 0.0096872232         3848 
 1459000   0.67177515   -9.1394305    188.49495  0.010766218 0.0096764547         3821 
 1460000   0.65767498   -9.1827254     187.5716  0.010706141 0.0096656879         3844 
 1461000   0.68711648   -9.1556814    188.08823  0.010728281 0.0096549434         3842 
 1462000   0.67800893   -9.1650365    187.64577  0.010695723  0.009644216         3840 
 1463000   0.65913637   -9.1607128    188.04927  0.010711396 0.0096334946         3843 
 1464000   0.66455328   -9.1955417    187.70789  0.010684648 0.0096227859         3839 
 1465000   0.65774689   -9.1808413    187.79089  0.010682075 0.0096121053         3842 
 1466000   0.67207873   -9.1958921    187.35357   0.01064993 0.0096014382         3835 
 1467000   0.66945724   -9.1811054    187.38284  0.010644333 0.0095907813         3828 
 1468000   0.66238174   -9.1670109     187.6979  0.010654967 0.0095801271         3835 
 1469000   0.67177386   -9.1887092    187.62689  0.010643685 0.0095695123         3818 
 1470000   0.66587895   -9.1518179    187.97115  0.010655961  0.009558906         3816 
 1471000   0.66261948   -9.1750525    187.86242  0.010642557 0.0095483186         3855 
 1472000   0.65665977   -9.1852225    187.73912  0.010628347  0.009537754         3850 
 1473000   0.65728692   -9.1848986    187.75148  0.010621831  0.009527196         3849 
 1474000    0.6773202    -9.188818    187.83369  0.010619272 0.0095166556         3839 
 1475000   0.66421977   -9.1629315      187.645  0.010601413  0.009506116         3853 
 1476000   0.68005191   -9.1820533    187.52078  0.010587217 0.0094956037         3848 
 1477000   0.65895392   -9.1846438    187.49847   0.01057879 0.0094851141         3837 
 1478000   0.65834176   -9.1921271    187.67527  0.010581601 0.0094746256         3823 
 1479000   0.66053059   -9.1806029    187.52368  0.010565905 0.0094641589         3854 
 1480000   0.65752111   -9.1794983       187.63  0.010564752 0.0094537084         3845 
 1481000   0.66485552    -9.179616    187.76857  0.010565416 0.0094432691         3825 
 1482000   0.66971374   -9.1785878    188.13504  0.010578894 0.0094328583         3826 
 1483000    0.6666539   -9.1902266    187.77624  0.010551598 0.0094224574         3865 
 1484000   0.65537511   -9.1936691    187.78493  0.010544976 0.0094120627         3850 
 1485000   0.66163548   -9.1882838    187.60346  0.010527692 0.0094016906         3858 
 1486000   0.65864682   -9.1770631    187.70883  0.010526516 0.0093913187         3848 
 1487000     0.673522   -9.1901549    187.98338  0.010534823 0.0093809778         3832 
 1488000    0.6585193   -9.2020142    187.58726  0.010505559 0.0093706555         3843 
 1489000    0.6548831    -9.214276    187.39691   0.01048785 0.0093603378         3839 
 1490000   0.66930318   -9.1843838    187.29545  0.010475137  0.009350025         3858 
 1491000   0.66353135   -9.2056156    187.55253   0.01048248 0.0093397352         3875 
 1492000   0.65809582   -9.2054586    187.64433  0.010480581 0.0093294701         3859 
 1493000   0.64529162   -9.1872518    187.91434  0.010488633  0.009319218         3850 
 1494000   0.65813335   -9.1750369    187.87937  0.010479662 0.0093089814         3823 
 1495000    0.6709444   -9.1927688    187.55181  0.010454393 0.0092987529         3845 
 1496000   0.65042857   -9.2130791    187.75357  0.010458644 0.0092885335         3871 
 1497000   0.64799105   -9.1939623    187.60506   0.01044339 0.0092783362         3860 
 1498000   0.65640714   -9.1905585    187.63642  0.010438163 0.0092681479         3825 
 1499000   0.66563593   -9.1738551    187.55124  0.010426464 0.0092579779         3861 
 1500000   0.65293679    -9.196588    187.48441    0.0104158 0.0092478262         3834 
 1501000   0.65959703   -9.2033076      187.638  0.010417388 0.0092377008         3839 
 1502000   0.64027194   -9.1880442    187.28413   0.01039082 0.0092275699         3872 
 1503000    0.6562923   -9.2214583     187.5217  0.010397078 0.0092174561         3851 
 1504000   0.64174921    -9.217523    187.45596  0.010386523 0.0092073602         3865 
 1505000   0.66005268   -9.2209803    187.65105  0.010390424 0.0091972842         3872 
 1506000   0.64754159   -9.1841481    188.20154  0.010413985 0.0091872237         3834 
 1507000   0.65146209   -9.2035686    187.65585  0.010376899 0.0091771648         3837 
 1508000   0.64626234   -9.1960038    187.73611  0.010374453  0.009167117         3860 
 1509000   0.64182985   -9.2286961     187.1363  0.010334454 0.0091570893         3868 
 1510000   0.64518198   -9.2059097    187.48253  0.010346718 0.0091470881         3854 
 1511000   0.63996181   -9.2101631     187.6011   0.01034641 0.0091371026         3852 
 1512000   0.65838268   -9.2081403    187.96611  0.010359684 0.0091271293         3845 
 1513000   0.65816028   -9.1978223    187.62774    0.0103342 0.0091171656         3839 
 1514000   0.64807712   -9.2076331    187.43067  0.010316528 0.0091072081         3835 
 1515000   0.64397523   -9.2023205    187.57304  0.010317549 0.0090972772         3834 
 1516000   0.64201495    -9.204106    187.59233  0.010311803 0.0090873415         3831 
 1517000   0.65145758   -9.2106872    187.31389   0.01028971 0.0090774286         3853 
 1518000   0.63851001   -9.2097865    187.44185  0.010289957  0.009067536         3868 
 1519000   0.64397673   -9.2185656    187.61873  0.010292886  0.009057663         3847 
 1520000   0.64151305   -9.2098916    187.38417  0.010273255 0.0090478019         3865 
 1521000   0.65093148   -9.2035297    187.64949  0.010281037  0.009037957         3852 
 1522000   0.64050293   -9.2140272    187.42815  0.010262163 0.0090281215         3853 
 1523000   0.63888264   -9.2069543    187.28688  0.010247695 0.0090183039         3853 
 1524000   0.64674089   -9.2049795    187.22738  0.010237718 0.0090084953         3851 
 1525000   0.64375403   -9.2060993    187.36713  0.010238641  0.008998697         3852 
 1526000   0.66468637   -9.2156963    187.12127  0.010218505 0.0089889074         3850 
 1527000   0.63818412   -9.2188211    187.30563  0.010221875 0.0089791319         3843 
 1528000   0.65468052   -9.2115017    187.42639  0.010221771 0.0089693679         3797 
 1529000   0.64081413   -9.2272558      187.469  0.010217408 0.0089596218         3837 
 1530000   0.64325178    -9.219908    187.29397  0.010201197 0.0089498992         3811 
 1531000   0.64318617    -9.228331    187.25136  0.010192214   0.00894018         3840 
 1532000   0.63391232   -9.2338006    187.33807  0.010190278 0.0089304713         3850 
 1533000   0.64773061   -9.2363167    187.31213  0.010182221  0.008920777         3859 
 1534000    0.6520002   -9.2290768    187.37118  0.010178791 0.0089110979         3840 
 1535000    0.6552911   -9.2062833    187.23333  0.010164676  0.008901429         3864 
 1536000    0.6516716   -9.2276899    187.58444  0.010177107 0.0088917816         3843 
 1537000   0.63073831   -9.2154152    187.18904  0.010149048 0.0088821429         3835 
 1538000   0.64350149   -9.2185304    187.34947  0.010151141 0.0088725206         3860 
 1539000   0.64282543   -9.2170286     187.0045  0.010125866 0.0088629058         3842 
 1540000   0.62370396   -9.2471564    187.58024  0.010150446 0.0088533033         3859 
 1541000   0.63690292   -9.2178966     187.1638  0.010121339 0.0088437266         3860 
 1542000   0.64160201   -9.2360499    187.40125  0.010127608 0.0088341498         3864 
 1543000   0.62289499   -9.2285364    187.20135  0.010110248 0.0088245946         3845 
 1544000   0.63543685   -9.2333703    187.19808  0.010103523 0.0088150465         3867 
 1545000   0.63394727    -9.253123    187.03698  0.010088294 0.0088055155         3860 
 1546000   0.62504045   -9.2189031     187.7437  0.010119863 0.0087960058         3840 
 1547000   0.63967006   -9.2513982    187.10387  0.010078855 0.0087865057         3888 
 1548000   0.63647119    -9.247377    187.11998  0.010073212 0.0087770189         3875 
 1549000   0.64364807   -9.2396024    187.22769  0.010072503 0.0087675406         3846 
 1550000   0.63188521   -9.2353674    187.46226  0.010078616 0.0087580762         3868 
 1551000   0.63436095   -9.2054182     187.2077  0.010058441 0.0087486368         3855 
 1552000   0.62944028   -9.2439029    187.53005  0.010069268 0.0087392161         3862 
 1553000   0.64111985   -9.2274302    187.01882  0.010035352 0.0087297961         3868 
 1554000    0.6410568   -9.2427436     187.1695  0.010036974 0.0087203884         3855 
 1555000   0.62626022   -9.2352403    186.99907  0.010021386 0.0087110029         3862 
 1556000   0.61938519   -9.2292767    187.36071  0.010034314 0.0087016183         3857 
 1557000   0.62273038   -9.2339285    187.17678  0.010018025 0.0086922565         3873 
 1558000   0.62041079   -9.2290997    187.30899  0.010018667 0.0086829028         3865 
 1559000   0.63688115   -9.2530957     186.9294 0.0099919498 0.0086735634         3854 
 1560000   0.63511322   -9.2316545    186.97413 0.0099879344 0.0086642335         3858 
 1561000   0.62937276   -9.2313523    187.00921 0.0099834087 0.0086549258         3865 
 1562000   0.63994886   -9.2449359    187.11634 0.0099827324 0.0086456232         3845 
 1563000   0.63558877   -9.2410391    187.40516 0.0099917447 0.0086363391         3875 
 1564000   0.62941993   -9.2236005    187.24397 0.0099767676  0.008627067         3845 
 1565000   0.62330995   -9.2561445    187.12855 0.0099642466 0.0086178126         3850 
 1566000    0.6213602    -9.261203    186.98003 0.0099499805 0.0086085684         3877 
 1567000   0.63150639   -9.2554683    187.11233 0.0099506664  0.008599327         3871 
 1568000   0.60855194   -9.2231176    187.31028 0.0099548406 0.0085901031         3854 
 1569000   0.62270379   -9.2503322    187.01908 0.0099330295 0.0085808887         3870 
 1570000   0.62622122   -9.2487175    186.83156 0.0099167493 0.0085716902         3836 
 1571000   0.61320552   -9.2537557    186.97519 0.0099180557 0.0085625067         3858 
 1572000   0.63099999   -9.2497029     187.2326  0.009925392 0.0085533298         3860 
 1573000   0.62911036    -9.245526    187.08531 0.0099112792 0.0085441698         3876 
 1574000   0.62483782   -9.2258061    187.27351 0.0099149465 0.0085350247         3854 
 1575000   0.62033966   -9.2432373    187.23079 0.0099063909 0.0085258948         3851 
 1576000   0.62256827   -9.2465743    187.15687 0.0098961965  0.008516772         3839 
 1577000   0.61790219    -9.227679    186.87034 0.0098747804 0.0085076674         3866 
 1578000   0.62759523   -9.2486558    187.24353 0.0098882305 0.0084985766         3868 
 1579000    0.6306322   -9.2448825    187.21879 0.0098806623 0.0084894977         3875 
 1580000   0.61772391   -9.2416528    187.19292 0.0098730442 0.0084804305         3862 
 1581000   0.63603377   -9.2448761    187.21139 0.0098677732 0.0084713734         3881 
 1582000   0.62542243   -9.2483222    186.92889 0.0098466546 0.0084623351         3863 
 1583000   0.62943634   -9.2392563    187.24639 0.0098571484 0.0084533124         3825 
 1584000   0.62805996    -9.221114    186.98967 0.0098374193    0.0084443         3846 
 1585000   0.62051289   -9.2644831    186.90982 0.0098270146  0.008435294         3862 
 1586000   0.61661973   -9.2534272    187.22151 0.0098371958 0.0084262972         3859 
 1587000   0.61054136   -9.2447454    187.32594  0.009836481 0.0084173135         3849 
 1588000   0.61744827    -9.255906    187.03501 0.0098150196 0.0084083483         3857 
 1589000   0.61541115   -9.2336945    187.37225 0.0098265286  0.008399396         3832 
 1590000   0.61348661   -9.2481884    186.97778 0.0097996742 0.0083904589         3844 
 1591000   0.60649817   -9.2494116    187.06901 0.0097982929 0.0083815356         3874 
 1592000   0.62591927    -9.254755     187.1057 0.0097940587 0.0083726125         3859 
 1593000   0.62585771   -9.2649586    186.93963  0.009779223 0.0083637091         3835 
 1594000   0.61613802    -9.262559    187.13718 0.0097834158 0.0083548181         3865 
 1595000    0.6305668   -9.2332199    187.20357 0.0097807505 0.0083459375         3815 
 1596000   0.61923001   -9.2444784    187.08943 0.0097686628 0.0083370748         3822 
 1597000   0.62273777   -9.2658124    187.12516 0.0097644104 0.0083282263         3879 
 1598000   0.62062446    -9.245494    187.20618 0.0097625252 0.0083194002         3873 
 1599000   0.61603875   -9.2636829    187.21029 0.0097566341 0.0083105746         3855 
 1600000   0.60636976   -9.2453066    187.08501 0.0097440109 0.0083017628         3854 
 1601000   0.62299141   -9.2550417    187.19934 0.0097438757 0.0082929614         3869 
 1602000   0.61567136   -9.2444508    187.17731 0.0097366474 0.0082841774         3848 
 1603000   0.62171795   -9.2558729    187.30985 0.0097374635 0.0082753994         3889 
 1604000   0.61863616   -9.2457403    186.67351 0.0096983327  0.008266638         3863 
 1605000   0.61081795   -9.2659244    186.82991 0.0097004108 0.0082578875         3866 
 1606000   0.61706707   -9.2596762    187.11733 0.0097092847 0.0082491572         3871 
 1607000   0.60366255   -9.2585761     186.7802 0.0096857604 0.0082404248         3865 
 1608000   0.59457265   -9.2518789    187.26206  0.009704709 0.0082317138         3850 
 1609000   0.59328242   -9.2483709    187.18151 0.0096945055 0.0082230091         3845 
 1610000   0.62251871   -9.2484652    187.06192 0.0096822942 0.0082143148         3848 
 1611000   0.61451801    -9.268423    186.74281 0.0096597772 0.0082056379         3862 
 1612000   0.61050114   -9.2620388    186.76284 0.0096548199 0.0081969766         3876 
 1613000   0.60169648   -9.2827835    186.58365 0.0096395767 0.0081883182         3863 
 1614000   0.60431864   -9.2562588    186.73387 0.0096413605 0.0081796725         3853 
 1615000   0.61928466   -9.2611918    187.09604 0.0096540783 0.0081710401         3858 
 1616000   0.61178641   -9.2613214    186.97146   0.00964168 0.0081624223         3859 
 1617000   0.60025248   -9.2620104    186.79281 0.0096265104 0.0081538196         3854 
 1618000   0.60588198   -9.2668121    187.20071 0.0096415693 0.0081452261         3872 
 1619000   0.60984606   -9.2716461    187.15555 0.0096332897 0.0081366437         3849 
 1620000   0.60176163   -9.2697529    186.54738 0.0095960585 0.0081280762         3872 
 1621000   0.60809722   -9.2895292    186.86896 0.0096066706 0.0081195232         3848 
 1622000   0.61361039   -9.2762141    186.83583 0.0095990457 0.0081109775         3842 
 1623000   0.59881878   -9.2708774    186.64875 0.0095835259 0.0081024397         3864 
 1624000   0.61040864   -9.2809276    186.80524 0.0095856546 0.0080939181         3883 
 1625000   0.60826357   -9.2674197    186.97879 0.0095886558 0.0080854081         3853 
 1626000   0.60641947   -9.2771596    186.82867 0.0095750651 0.0080769036         3870 
 1627000   0.61691709    -9.296213    186.59363 0.0095571416  0.008068415         3865 
 1628000   0.59927858   -9.2591511    186.51244 0.0095471151 0.0080599454         3873 
 1629000   0.59210136   -9.2901125     186.8167 0.0095568192 0.0080514727         3878 
 1630000   0.60556017   -9.2743387    186.71475  0.009545744 0.0080430192         3882 
 1631000    0.5912251   -9.2715037    186.87107 0.0095478779 0.0080345777         3867 
 1632000     0.606475   -9.2563671    186.43345 0.0095196818 0.0080261515         3870 
 1633000   0.59710632   -9.2923136    186.83871 0.0095345332 0.0080177385         3863 
 1634000   0.57862114   -9.2932456    186.66251 0.0095197119  0.008009336         3858 
 1635000   0.58847732   -9.2929464    186.33346 0.0094971182 0.0080009354         3862 
 1636000   0.60051088   -9.2774383    186.61429 0.0095056178  0.007992552         3897 
 1637000   0.61959908   -9.2693916    186.64093 0.0095011671   0.00798419         3848 
 1638000   0.59220241   -9.3009113    186.41245 0.0094837431 0.0079758331         3862 
 1639000   0.60094036   -9.2938837    186.59341 0.0094871571 0.0079674832         3868 
 1640000   0.59451916   -9.2802665    186.68386 0.0094859686 0.0079591513         3859 
 1641000   0.59445411   -9.2639882    186.88959 0.0094906352 0.0079508281         3866 
 1642000   0.60193744   -9.2917399    186.78745 0.0094796715 0.0079425168         3860 
 1643000   0.58889412   -9.2767579    186.80463 0.0094747734 0.0079342245         3852 
 1644000   0.59301461   -9.2850676     186.8471 0.0094711628 0.0079259347         3868 
 1645000   0.58819893   -9.2975655    186.97103 0.0094716832 0.0079176623         3856 
 1646000   0.59264847   -9.3018226    186.39002 0.0094365138    0.0079094         3870 
 1647000   0.60643291   -9.2757622    186.83288 0.0094531918 0.0079011483         3848 
 1648000   0.59174984   -9.3064751    186.53187 0.0094322344 0.0078929054         3881 
 1649000   0.59823588   -9.2812106    186.96043 0.0094481722 0.0078846725         3860 
 1650000   0.60146584   -9.2820737    186.48426 0.0094183969 0.0078764596         3846 
 1651000   0.58975189   -9.2960873    186.77095 0.0094271626 0.0078682515         3884 
 1652000   0.58954941   -9.3007236    186.61537 0.0094136084 0.0078600545         3857 
 1653000   0.59820182   -9.2923188    186.56994 0.0094056229 0.0078518649         3871 
 1654000   0.59642251   -9.2961146    186.80754 0.0094119076 0.0078436942         3851 
 1655000   0.59810921   -9.3087627    186.83037 0.0094073703 0.0078355379         3854 
 1656000   0.59278202   -9.3003439    186.49157 0.0093846404 0.0078273902         3898 
 1657000   0.59551625   -9.3079709    186.56906 0.0093828737 0.0078192573         3839 
 1658000   0.59543779    -9.284965     186.6224 0.0093798956  0.007811135         3867 
 1659000   0.60191955   -9.2878654    186.59692 0.0093729618 0.0078030278         3861 
 1660000   0.59270878   -9.2830722    186.87392 0.0093812208 0.0077949324         3885 
 1661000   0.59657421   -9.2856444    186.77125 0.0093704218 0.0077868433         3857 
 1662000   0.59593132    -9.291294    186.50346  0.009351357 0.0077787654         3876 
 1663000   0.59865193   -9.3115583     186.3788 0.0093394868 0.0077706874         3857 
 1664000    0.5883074   -9.2941624    186.54027 0.0093419606 0.0077626294         3872 
 1665000   0.59342784    -9.303564       186.51  0.009334835  0.007754589         3861 
 1666000   0.57568058   -9.3085141    186.46635 0.0093270481 0.0077465514         3851 
 1667000   0.56551429   -9.2945873    186.67434 0.0093318504 0.0077385203         3868 
 1668000   0.57772132   -9.2901293    186.36974 0.0093110381 0.0077305106         3855 
 1669000   0.59728192   -9.3129983    186.15954 0.0092949643 0.0077225097         3869 
 1670000   0.57701275   -9.2978476    186.66197 0.0093144693 0.0077145152         3868 
 1671000   0.58789385   -9.3072857    186.56709 0.0093041636 0.0077065351         3883 
 1672000   0.59336791   -9.3057127    187.03968 0.0093221532 0.0076985689         3870 
 1673000   0.57642143   -9.3209892    186.45327 0.0092873715 0.0076906098         3864 
 1674000   0.58644219   -9.2996353    186.80296 0.0092992312 0.0076826615         3863 
 1675000   0.59032032    -9.317988    186.20144 0.0092637532 0.0076747184         3868 
 1676000   0.58985035   -9.3074612    186.59895 0.0092779909 0.0076667943         3873 
 1677000   0.57762005   -9.3094229     186.4943 0.0092672578 0.0076588755         3870 
 1678000   0.58390383   -9.3267684    186.22019 0.0092481221 0.0076509707         3896 
 1679000   0.58684699   -9.3221926    186.71239 0.0092670436 0.0076430757         3864 
 1680000    0.5891458   -9.3248255    186.38137 0.0092451076 0.0076351871         3881 
 1681000   0.58102734   -9.3139282    186.60029 0.0092504605 0.0076273085         3870 
 1682000   0.59383841    -9.309063    186.34437 0.0092322817 0.0076194426         3856 
 1683000   0.59558172   -9.3095084    186.34943 0.0092270464 0.0076115911         3843 
 1684000   0.59353185   -9.3013059    186.79064 0.0092434006  0.007603753         3885 
 1685000   0.60270116   -9.3116653    186.60341 0.0092286551 0.0075959296         3855 
 1686000   0.57348571   -9.3223546    186.28294 0.0092073419 0.0075881102         3849 
 1687000   0.59194845   -9.2969973    186.54011 0.0092145875 0.0075803082         3864 
 1688000   0.58429238   -9.3086176    186.50354 0.0092073232 0.0075725109         3872 
 1689000   0.57834565   -9.3207037    186.42116 0.0091978075 0.0075647223         3860 
 1690000   0.58941927   -9.3115872    186.45066 0.0091938196 0.0075569405         3889 
 1691000   0.57427581   -9.3080753    186.55366 0.0091934584 0.0075491783         3892 
 1692000   0.57837117   -9.3191623    186.28227 0.0091746585 0.0075414193         3851 
 1693000    0.5826922   -9.3219043    186.58692 0.0091842352 0.0075336762         3843 
 1694000   0.57293612   -9.3260726    186.29298 0.0091643536 0.0075259356         3875 
 1695000    0.5793729   -9.3077093    186.22923 0.0091558127 0.0075182163         3852 
 1696000   0.57315623   -9.3024811    186.25958 0.0091519056 0.0075105024         3878 
 1697000   0.58020391   -9.3093994    186.44415  0.009155576 0.0075028015         3874 
 1698000   0.58151332   -9.3162596    186.72307 0.0091638725 0.0074951092         3879 
 1699000   0.58227776   -9.3315297    186.29129 0.0091373009 0.0074874225         3872 
 1700000   0.57173626   -9.3264926    186.25908 0.0091303469 0.0074797509         3880 
 1701000   0.57833151   -9.3193959    186.61173 0.0091422558 0.0074720959         3863 
 1702000   0.57102651   -9.3327126    186.10625 0.0091121354 0.0074644421         3875 
 1703000   0.57774339    -9.315415    186.36508 0.0091194499 0.0074568013         3879 
 1704000   0.56858473   -9.3013348    186.42378 0.0091169691  0.007449171         3862 
 1705000   0.57230134   -9.3360964    186.74358 0.0091272522 0.0074415545         3879 
 1706000   0.56538774   -9.3364952    186.31093 0.0091007682 0.0074339546         3855 
 1707000   0.55543026   -9.3175071    186.26056 0.0090929778 0.0074263581         3867 
 1708000   0.57835975   -9.3299753     186.4797 0.0090983459 0.0074187663         3875 
 1709000    0.5712289   -9.3262518    186.30888 0.0090846926 0.0074111944         3883 
 1710000   0.56571871   -9.3285918    186.25759 0.0090768806 0.0074036249         3859 
 1711000   0.58252639   -9.3412116     186.3807 0.0090775716 0.0073960614         3882 
 1712000   0.57316184   -9.3280633    186.29337 0.0090680182 0.0073885125         3871 
 1713000   0.57489172   -9.3251147    186.43578 0.0090696525 0.0073809807         3865 
 1714000   0.56677985   -9.3030292    186.63066 0.0090738362 0.0073734557         3846 
 1715000    0.5697709   -9.3251151    186.45416 0.0090599689 0.0073659446         3865 
 1716000   0.56556604   -9.3486656    186.35571 0.0090499082 0.0073584462         3889 
 1717000   0.56518333   -9.3389814    186.33662 0.0090437111 0.0073509621         3887 
 1718000   0.56960099    -9.332513    186.17608 0.0090306597 0.0073434816         3864 
 1719000   0.57266254   -9.3242977    185.85047 0.0090096215 0.0073360059         3883 
 1720000   0.57271178   -9.3410757    186.30188 0.0090262537 0.0073285394         3863 
 1721000   0.56391064   -9.3343253    186.34594 0.0090231427 0.0073210883         3873 
 1722000   0.56878716   -9.3502798    186.43387 0.0090221577 0.0073136452         3874 
 1723000   0.57646827   -9.3212237    186.21999 0.0090065773 0.0073062138         3872 
 1724000   0.57639052   -9.3547335    186.03188 0.0089922601 0.0072987899         3884 
 1725000   0.56681114   -9.3380589    186.25343 0.0089977502 0.0072913748         3865 
 1726000   0.56281877   -9.3468097    186.23836 0.0089918096 0.0072839753         3885 
 1727000   0.57011116   -9.3257574    186.50689 0.0089995604 0.0072765876         3872 
 1728000   0.56602628   -9.3350454    186.59441 0.0089985732 0.0072692117         3859 
 1729000   0.57991835   -9.3250275    186.49831 0.0089887369 0.0072618459         3853 
 1730000   0.55474791   -9.3469162    186.59695 0.0089882922 0.0072544891         3874 
 1731000   0.55892857   -9.3362409    186.28724 0.0089681901 0.0072471452         3872 
 1732000   0.56536303   -9.3236767    186.11629 0.0089547869 0.0072398068         3854 
 1733000   0.55857644   -9.3384575    186.31651 0.0089592475 0.0072324807         3874 
 1734000   0.55350964   -9.3297114    186.35971 0.0089561569 0.0072251616         3865 
 1735000   0.55028889   -9.3398509    186.23545 0.0089450265 0.0072178507         3880 
 1736000    0.5596737   -9.3682971    186.17166 0.0089368118 0.0072105493         3894 
 1737000   0.55436365   -9.3400872    186.32247  0.008938902 0.0072032609         3880 
 1738000   0.55904538   -9.3406156    186.16626 0.0089262689  0.007195978         3874 
 1739000   0.56383425    -9.354061     186.2147 0.0089234568 0.0071887108         3884 
 1740000   0.55743391   -9.3582961    186.14033 0.0089147669  0.007181458         3892 
 1741000   0.56422559   -9.3538113    186.48074 0.0089259399 0.0071742135         3876 
 1742000   0.56713696   -9.3380397    186.26251 0.0089103766 0.0071669793         3862 
 1743000   0.55687987   -9.3546558    186.07046 0.0088960825 0.0071597489         3873 
 1744000   0.55802761   -9.3599507    185.83241 0.0088796069 0.0071525288         3894 
 1745000   0.55333832   -9.3641512     186.3162  0.008897622 0.0071453196         3891 
 1746000   0.55162852   -9.3486531    186.21987  0.008887928  0.007138117         3867 
 1747000   0.56552932   -9.3634969    186.10309 0.0088772699 0.0071309243         3882 
 1748000   0.54563085   -9.3519733    185.99992 0.0088672731 0.0071237415         3874 
 1749000    0.5612065   -9.3645321    186.03889   0.00886406  0.007116572         3868 
 1750000   0.56345627     -9.35728    186.12194 0.0088629497 0.0071094119         3890 
 1751000    0.5545874   -9.3416715    185.97819 0.0088510465 0.0071022554         3855 
 1752000   0.54824964   -9.3527145    186.04888 0.0088493567 0.0070951143         3870 
 1753000   0.53932652   -9.3438476    186.27309 0.0088549672  0.007087973         3866 
 1754000   0.55311599   -9.3525865    186.26814 0.0088496836 0.0070808484         3875 
 1755000     0.555205   -9.3602099    186.16678 0.0088398283 0.0070737342         3854 
 1756000   0.54952459   -9.3631151    186.13991 0.0088335187 0.0070666265         3887 
 1757000   0.55047463   -9.3574416    185.76574 0.0088107445  0.007059533         3876 
 1758000   0.55476993    -9.355574    186.13674  0.008823319 0.0070524408         3895 
 1759000   0.55671374   -9.3471627    186.02108 0.0088128235 0.0070453604         3880 
 1760000   0.55503729   -9.3451243    186.21875 0.0088171758 0.0070382893         3877 
 1761000   0.55387433   -9.3770731    186.02244 0.0088028789 0.0070312288         3878 
 1762000   0.54209399   -9.3671418    186.06843 0.0088000582  0.007024181         3900 
 1763000   0.55022696   -9.3584335     185.9448  0.008789223 0.0070171394         3854 
 1764000   0.54586038   -9.3416116    185.82951 0.0087787941 0.0070101164         3868 
 1765000   0.53656688   -9.3621234    185.93225 0.0087786709 0.0070030925         3859 
 1766000   0.54356479   -9.3767059    185.94108 0.0087741169 0.0069960791         3877 
 1767000   0.54763519   -9.3596962    185.83833 0.0087643052 0.0069890747         3872 
 1768000   0.54613678   -9.3643955    185.96625 0.0087653774 0.0069820843         3866 
 1769000   0.55273002   -9.3677119    186.01859 0.0087628881  0.006975102         3873 
 1770000   0.54531819   -9.3448046    186.05843 0.0087598129 0.0069681293         3866 
 1771000   0.55308912   -9.3672571    185.94466 0.0087495133 0.0069611687         3895 
 1772000   0.55068662   -9.3816639    186.07247 0.0087505866 0.0069542167         3874 
 1773000   0.53313114   -9.3571275    186.10881 0.0087473591 0.0069472684         3860 
 1774000   0.55924014   -9.3487027    186.11094 0.0087425282 0.0069403346         3873 
 1775000   0.54590351   -9.3641958    185.81661 0.0087237845 0.0069334128         3863 
 1776000   0.54567657   -9.3855544    185.95667 0.0087254443 0.0069264982         3875 
 1777000   0.54967314   -9.3704641    185.90608 0.0087181617 0.0069195901         3875 
 1778000   0.52621072   -9.3831501    185.86153 0.0087111704 0.0069126918         3877 
 1779000   0.54296305   -9.3782264    185.92309 0.0087091572  0.006905802         3864 
 1780000   0.55164836   -9.3644095     185.7671 0.0086969618  0.006898928         3855 
 1781000   0.54545883   -9.3659187    186.10905 0.0087080784 0.0068920619         3880 
 1782000   0.53500953   -9.3529511    186.15379 0.0087052841 0.0068852019         3856 
 1783000    0.5388803   -9.3587563    185.88004 0.0086876071 0.0068783506         3872 
 1784000   0.53539774   -9.3777921    185.84904 0.0086812892 0.0068715101         3900 
 1785000   0.53701515   -9.3780324    185.96322 0.0086817565 0.0068646836         3892 
 1786000   0.54016176   -9.3789807     186.1402  0.008685153 0.0068578594         3874 
 1787000   0.54731435   -9.3735843    185.92588 0.0086702982 0.0068510506         3881 
 1788000   0.54368839   -9.3612626    185.91207 0.0086648057 0.0068442462         3860 
 1789000   0.54365894   -9.3833262     186.1931 0.0086730527 0.0068374586         3871 
 1790000   0.54701593   -9.3593966    186.12541 0.0086650562 0.0068306718         3877 
 1791000   0.54415948   -9.3639151    185.79621 0.0086449011 0.0068238913         3873 
 1792000   0.53937565   -9.3626972    185.63514 0.0086325865 0.0068171252         3864 
 1793000   0.52689103     -9.37111    185.78225 0.0086346093 0.0068103656         3895 
 1794000   0.52424412   -9.3772872    185.99403 0.0086396336 0.0068036204         3869 
 1795000   0.53336691   -9.3976845    185.71224 0.0086217383 0.0067968773         3854 
 1796000   0.53678418   -9.3909873    185.79228 0.0086206513 0.0067901411         3878 
 1797000   0.54187767   -9.3780615    185.68539 0.0086108973 0.0067834131         3860 
 1798000   0.54194053   -9.3820895    185.79617 0.0086112427 0.0067767032         3886 
 1799000   0.53971966   -9.3659747    185.91407 0.0086119171 0.0067699974         3873 
 1800000   0.53239743   -9.3775296    186.00378 0.0086112863 0.0067632997         3885 
 1801000     0.531687   -9.3745034     186.0177 0.0086071486 0.0067566102         3860 
 1802000   0.53931822   -9.3873978    185.71527 0.0085883867 0.0067499321         3880 
 1803000   0.53919864   -9.4024886    185.86369 0.0085904828 0.0067432641         3878 
 1804000   0.55124776   -9.3928969    186.17603  0.008600149 0.0067366045         3857 
 1805000   0.52767612    -9.393913    185.63066 0.0085702061  0.006729953         3874 
 1806000   0.52612745    -9.382146    185.63816 0.0085658065 0.0067233083         3882 
 1807000     0.528039   -9.3791645    185.93939 0.0085749582 0.0067166714         3874 
 1808000   0.52839848   -9.3636883    186.04345 0.0085750116 0.0067100481         3887 
 1809000   0.53566135     -9.37549    185.72862 0.0085557684 0.0067034349         3881 
 1810000   0.52987186   -9.3777236    185.83217 0.0085558089 0.0066968256         3873 
 1811000   0.52708286   -9.3642448    185.79264 0.0085492654 0.0066902225         3879 
 1812000   0.53191544   -9.3927638    185.82527 0.0085460482 0.0066836367         3862 
 1813000    0.5353418   -9.3656695    186.09755 0.0085538497  0.006677056         3877 
 1814000   0.53334718   -9.3861157    185.61898 0.0085271492 0.0066704801         3880 
 1815000   0.53394916   -9.4042059    185.60451 0.0085217864 0.0066639125         3870 
 1816000   0.52029876   -9.3754696    185.71895 0.0085223455 0.0066573626         3887 
 1817000   0.52960464   -9.3784122    185.49646 0.0085074507 0.0066508152         3854 
 1818000   0.52144883   -9.4001708    185.67771 0.0085110794  0.006644278         3875 
 1819000   0.52362294   -9.3892082    185.85105 0.0085143419 0.0066377467         3902 
 1820000   0.52649981    -9.383077    185.89375 0.0085116186 0.0066312269         3887 
 1821000    0.5268927   -9.3919149    185.84909 0.0085049008 0.0066247144         3892 
 1822000   0.53278722   -9.3833298    185.93954 0.0085043697 0.0066182139         3877 
 1823000   0.52240757   -9.3693303    185.67341 0.0084875395 0.0066117233         3864 
 1824000   0.52419119   -9.3822978    185.88345 0.0084924822 0.0066052354         3895 
 1825000   0.52597254   -9.3855836    185.85963  0.008486741 0.0065987589         3868 
 1826000   0.52523979   -9.3997031    185.57607 0.0084691526 0.0065922886         3879 
 1827000    0.5153984   -9.3893686     185.7197 0.0084710683 0.0065858286         3884 
 1828000    0.5138475   -9.3787163    185.79224 0.0084697409 0.0065793824         3855 
 1829000   0.52432431   -9.3988154    185.98987 0.0084741148 0.0065729368         3887 
 1830000    0.5050481   -9.4171482     185.6097  0.008452172 0.0065664956         3878 
 1831000   0.51912477   -9.3847442    185.67007 0.0084503035 0.0065600681         3889 
 1832000    0.5249217   -9.3947061    185.98866  0.008460183 0.0065536492         3890 
 1833000   0.51681687   -9.3982001    185.27789  0.008423254 0.0065472393         3874 
 1834000   0.52318574   -9.4100583    185.80908 0.0084427972 0.0065408408         3867 
 1835000   0.51993176   -9.3965378    185.61101  0.008429201 0.0065344442         3886 
 1836000    0.5203579     -9.39065    185.74004 0.0084304666 0.0065280584         3896 
 1837000   0.51978382   -9.4108521    185.71568 0.0084247721 0.0065216782         3887 
 1838000   0.52472104   -9.4106074    185.95174 0.0084308912 0.0065153092         3866 
 1839000   0.52930882    -9.401281    185.64706 0.0084125005 0.0065089483         3882 
 1840000    0.5112996   -9.4197713    185.54835 0.0084034577 0.0065025956         3874 
 1841000    0.5187464   -9.4074279    185.52059 0.0083976369 0.0064962483         3877 
 1842000   0.51101991   -9.4025229    185.75218 0.0084035552  0.006489916         3856 
 1843000   0.52427764    -9.400485    185.59488  0.008391883  0.006483584         3873 
 1844000    0.5121899   -9.3804222    185.92333 0.0084021753 0.0064772674         3854 
 1845000   0.51010789   -9.4076487    185.89951 0.0083965453 0.0064709583         3868 
 1846000    0.5130182   -9.4223462    185.33501 0.0083665137 0.0064646536         3905 
 1847000   0.51652484   -9.4043299     185.7461 0.0083805313  0.006458356         3872 
 1848000   0.51724573   -9.4030754    185.72152  0.008374888 0.0064520693         3881 
 1849000    0.5132933    -9.398839    185.93176 0.0083798342 0.0064457911         3885 
 1850000   0.52255346   -9.3946376    185.48746  0.008355291 0.0064395248         3884 
 1851000   0.51071101   -9.4017507    185.69928 0.0083603133 0.0064332648         3884 
 1852000   0.50236597   -9.4162214    185.65229 0.0083536847 0.0064270139         3873 
 1853000   0.51299492   -9.4130045    185.51483 0.0083429946 0.0064207704         3886 
 1854000   0.51026532   -9.4231382    185.63674 0.0083439743 0.0064145345         3883 
 1855000   0.51361047   -9.4060482    185.61637 0.0083385611  0.006408308         3856 
 1856000   0.51992622   -9.4223488    185.43605 0.0083259722 0.0064020823         3881 
 1857000     0.520316   -9.4048388    185.56231 0.0083271546  0.006395871         3880 
 1858000     0.501295   -9.4238771    185.48302 0.0083191163 0.0063896701         3877 
 1859000    0.5160852   -9.4214636    185.25182 0.0083042772 0.0063834703         3873 
 1860000   0.50994526   -9.4210552    185.59696 0.0083152758 0.0063772787         3880 
 1861000   0.50877251   -9.4209648    185.46439 0.0083048716 0.0063711052         3867 
 1862000   0.52647307    -9.423494    185.46759 0.0083005545 0.0063649291         3873 
 1863000   0.51371255   -9.4146087    185.77291 0.0083097562 0.0063587679         3857 
 1864000   0.50753953   -9.4322316    185.68002 0.0083011455 0.0063526179         3857 
 1865000   0.52275523   -9.4233217    185.41721 0.0082849512 0.0063464715         3878 
 1866000   0.51648796   -9.4069612    185.53969 0.0082859811 0.0063403355         3886 
 1867000   0.51139474   -9.4171242    185.55609 0.0082822752 0.0063342059         3883 
 1868000   0.51011954   -9.4126322    185.55756 0.0082779068 0.0063280859         3876 
 1869000   0.50217504   -9.4296231    185.22265 0.0082585449 0.0063219694         3877 
 1870000   0.50417422   -9.4093864    185.47408 0.0082653332 0.0063158625         3885 
 1871000   0.50168987   -9.4203569      185.491 0.0082616693 0.0063097713         3894 
 1872000   0.50305754   -9.4194662    185.41855 0.0082540309 0.0063036823         3889 
 1873000   0.49977171   -9.4172856    185.30033 0.0082443641 0.0062976002         3886 
 1874000   0.50880473   -9.4200303    185.66608 0.0082562292 0.0062915303         3899 
 1875000   0.49285541   -9.4340362    185.65826  0.008251478 0.0062854634         3885 
 1876000   0.50149921   -9.4199027    185.82116 0.0082543159 0.0062794065         3880 
 1877000   0.50414041   -9.4287023    185.27701 0.0082257599 0.0062733529         3894 
 1878000   0.50450631   -9.4278742    185.35559 0.0082248665 0.0062673134         3890 
 1879000   0.50119611   -9.4182888    185.63811 0.0082330188 0.0062612755         3883 
 1880000   0.50971634   -9.4209091    185.54837 0.0082246618 0.0062552498         3886 
 1881000   0.51096328   -9.4346166    185.45843 0.0082163046 0.0062492288         3874 
 1882000   0.49528938    -9.406003    185.39943 0.0082093263 0.0062432129         3874 
 1883000   0.50838307   -9.4350504    185.39312 0.0082046877 0.0062372074         3878 
 1884000   0.49451641   -9.4249145    185.67227 0.0082126799 0.0062312103         3898 
 1885000   0.48989972   -9.4526252     185.4268 0.0081974713 0.0062252174         3879 
 1886000   0.49333882   -9.4191491    185.34247 0.0081893985 0.0062192364         3867 
 1887000   0.50514149    -9.416828    185.42843 0.0081888549 0.0062132634         3887 
 1888000   0.50772273   -9.4388849    185.51137 0.0081881785 0.0062072981         3879 
 1889000     0.504938   -9.4325153     185.0814 0.0081648754   0.00620134         3878 
 1890000   0.48463675   -9.4464539    185.33994 0.0081719549 0.0061953904         3885 
 1891000   0.49436406   -9.4274744    185.11713 0.0081578146 0.0061894482         3878 
 1892000   0.49214012   -9.4453453    185.46114  0.008168655 0.0061835172         3887 
 1893000   0.50106748    -9.431006    185.36094 0.0081599287 0.0061775924         3854 
 1894000   0.50061796   -9.4401693    185.27858 0.0081519967 0.0061716723         3885 
 1895000   0.49012604   -9.4381264    185.34799 0.0081507471 0.0061657623         3886 
 1896000     0.494421    -9.440676    185.22574 0.0081410751 0.0061598545         3887 
 1897000   0.48961791   -9.4366994     185.3414 0.0081418643 0.0061539616         3876 
 1898000   0.49739485   -9.4433804    185.32897 0.0081370289 0.0061480746         3892 
 1899000    0.4976653   -9.4426985    185.13998 0.0081244506 0.0061421939         3878 
 1900000   0.50318074   -9.4338249    185.10559 0.0081186664 0.0061363186         3879 
 1901000   0.49081345   -9.4220608    185.75971 0.0081430698 0.0061304529         3881 
 1902000   0.48422784   -9.4353117     185.2855 0.0081180119 0.0061245946         3866 
 1903000   0.49415837   -9.4443985    185.26427 0.0081128163  0.006118745         3895 
 1904000    0.4938554   -9.4428196    185.50179 0.0081189511 0.0061129016         3885 
 1905000   0.48337229   -9.4365218    185.31481 0.0081065094 0.0061070656         3889 
 1906000   0.49263312    -9.435433    185.28458 0.0081009346 0.0061012384         3882 
 1907000   0.48886229   -9.4518864    185.54622 0.0081081203 0.0060954177         3885 
 1908000    0.4899086   -9.4353847    185.36554  0.008095979 0.0060896054         3891 
 1909000   0.49811561   -9.4475265    185.28052  0.008088027  0.006083802         3890 
 1910000   0.49339029   -9.4462448    185.60209 0.0080978222 0.0060780035         3868 
 1911000    0.4951663   -9.4416061    185.16346 0.0080744575 0.0060722125         3903 
 1912000   0.48192955   -9.4381576    185.22723 0.0080730138 0.0060664291         3888 
 1913000   0.48899695   -9.4516956    185.42268  0.008077308 0.0060606563         3892 
 1914000   0.48546889   -9.4580635    185.40356 0.0080722554  0.006054888         3883 
 1915000   0.48275251   -9.4370144    185.14312 0.0080567066 0.0060491213         3890 
 1916000   0.48395265   -9.4530932    185.27512 0.0080582427 0.0060433652         3885 
 1917000   0.48993808   -9.4289695    184.95274 0.0080400253 0.0060376201         3883 
 1918000    0.4876255   -9.4524993    185.20822 0.0080469333 0.0060318818         3888 
 1919000   0.48655767   -9.4352242    185.03017  0.008035008 0.0060261517         3869 
 1920000   0.48278756   -9.4510339    185.12976 0.0080351459 0.0060204274         3892 
 1921000    0.4870212    -9.449805    185.01611 0.0080260329 0.0060147141         3890 
 1922000   0.49140886   -9.4620318    185.34653 0.0080361831 0.0060090067         3889 
 1923000   0.48955756   -9.4600091    185.05704 0.0080194591  0.006003302         3888 
 1924000   0.48963682   -9.4317183    185.36361 0.0080285695 0.0059976043         3884 
 1925000   0.46863772   -9.4592512    185.20034 0.0080173305 0.0059919148         3890 
 1926000   0.48278238   -9.4669172    185.02724 0.0080056784 0.0059862368         3862 
 1927000    0.4887984   -9.4382273    185.29838 0.0080132494  0.005980567         3884 
 1928000   0.48516996   -9.4675888    185.53655 0.0080193873 0.0059748994         3900 
 1929000   0.48752964   -9.4417556    185.26706  0.008003588 0.0059692421         3899 
 1930000    0.4901545   -9.4422413    185.08288 0.0079914888 0.0059635938         3867 
 1931000   0.48022142   -9.4637939    185.08903 0.0079876158 0.0059579497         3884 
 1932000   0.47577301   -9.4504184    185.21098 0.0079887415 0.0059523131         3875 
 1933000   0.46139627   -9.4529436     185.1993 0.0079841049 0.0059466865         3892 
 1934000   0.48228148   -9.4476187    185.42345 0.0079896351 0.0059410617         3878 
 1935000    0.4775528   -9.4568636    185.19646 0.0079757302 0.0059354455         3887 
 1936000   0.48014561   -9.4509771    185.31646 0.0079767759 0.0059298366         3883 
 1937000   0.47985411   -9.4542056    185.25981 0.0079702208 0.0059242342         3885 
 1938000   0.47197151   -9.4596667    185.30812 0.0079681855 0.0059186378         3894 
 1939000   0.46950166   -9.4784133    185.35423 0.0079660576 0.0059130522         3860 
 1940000   0.47715029   -9.4695787    185.16504 0.0079538248 0.0059074719         3898 
 1941000   0.47221493   -9.4701684    185.07166 0.0079457178 0.0059018986         3889 
 1942000   0.47786442   -9.4507019    184.73019 0.0079269734 0.0058963342         3892 
 1943000   0.47885028   -9.4571451    185.10685 0.0079390484 0.0058907792         3888 
 1944000    0.4705517   -9.4639915    185.12244 0.0079356326   0.00588523         3896 
 1945000   0.47870168   -9.4448259     184.9237 0.0079230376 0.0058796841         3902 
 1946000   0.47344926   -9.4592566     185.0551 0.0079245931 0.0058741483         3869 
 1947000   0.47094726   -9.4469893    185.21192 0.0079272351 0.0058686223         3889 
 1948000    0.4787351   -9.4630103    185.13989 0.0079200841 0.0058630987         3894 
 1949000   0.47664745   -9.4575023    185.04809 0.0079120953 0.0058575856         3887 
 1950000   0.47867479   -9.4547538    185.16157 0.0079128876 0.0058520789         3892 
 1951000   0.47780587   -9.4735698    185.24083 0.0079122171 0.0058465825         3884 
 1952000   0.47643748   -9.4875966    185.06375 0.0079006043  0.005841089         3875 
 1953000   0.46133015   -9.4681236    184.75775 0.0078835018 0.0058356008         3885 
 1954000   0.47924636   -9.4802579    185.06465 0.0078925558 0.0058301189         3879 
 1955000   0.47510518   -9.4667784    184.93597 0.0078830336 0.0058246523         3886 
 1956000   0.47970155   -9.4527334    185.07918 0.0078851048 0.0058191895         3873 
 1957000   0.46236734   -9.4748674    185.20999  0.007886646 0.0058137285         3904 
 1958000   0.46732984   -9.4835941     184.9374 0.0078710162 0.0058082787         3896 
 1959000   0.48131027   -9.4811334    185.14506  0.007875832 0.0058028365         3873 
 1960000    0.4705889   -9.4613763    184.77513 0.0078560853 0.0057973999         3881 
 1961000   0.46940939   -9.4795712    185.21278 0.0078706774 0.0057919672         3892 
 1962000   0.47314058   -9.4754332    184.85094  0.007851297 0.0057865465         3887 
 1963000   0.47332998   -9.4742839    184.86111 0.0078477292 0.0057811284         3874 
 1964000   0.46847945   -9.4660572    185.10747 0.0078541864 0.0057757171         3892 
 1965000    0.4660358   -9.4877449    184.97284 0.0078444802 0.0057703105         3874 
 1966000   0.46217544    -9.476657    185.18648 0.0078495454  0.005764915         3889 
 1967000   0.46044344   -9.4706491    185.24472 0.0078480222 0.0057595223         3885 
 1968000   0.47085904   -9.4890778    184.82846 0.0078264082 0.0057541384         3895 
 1969000   0.46251657   -9.4666192    184.93009 0.0078267348 0.0057487615         3885 
 1970000    0.4570066   -9.4831727    185.19181 0.0078338328 0.0057433936         3896 
 1971000   0.46108128   -9.4746426    184.91468 0.0078181415 0.0057380308         3893 
 1972000   0.46590854   -9.4791482    184.75568 0.0078074577 0.0057326758         3868 
 1973000   0.46098487   -9.4779916    184.82245 0.0078063208 0.0057273251         3873 
 1974000   0.45986173   -9.4891742    184.96847 0.0078085306 0.0057219839         3898 
 1975000   0.46047636   -9.4715958    185.10188 0.0078102058  0.005716644         3894 
 1976000   0.46047075   -9.4774229    184.98669 0.0078013953 0.0057113168         3877 
 1977000   0.46879515   -9.4829231    184.79654 0.0077894342 0.0057059949         3876 
 1978000   0.46260386   -9.4679127     185.0298 0.0077953235 0.0057006814         3884 
 1979000   0.45806279   -9.4783587    185.14304  0.007796153 0.0056953708         3879 
 1980000   0.46756791    -9.494141     184.8238 0.0077787794 0.0056900654         3889 
 1981000   0.46090877   -9.4944667    184.89575 0.0077778793  0.005684771         3881 
 1982000   0.46674772   -9.4769516    184.79516 0.0077697259 0.0056794804         3864 
 1983000   0.45718549   -9.4719885    185.15825 0.0077810663 0.0056741969         3872 
 1984000   0.45168212   -9.4857348    184.71622 0.0077585778 0.0056689195         3894 
 1985000   0.45352973   -9.4937745    185.13817 0.0077723833 0.0056636504         3887 
 1986000   0.46978965    -9.479287    184.94202 0.0077602392 0.0056583891         3904 
 1987000    0.4584803   -9.4954501    185.14687  0.007764925 0.0056531364         3900 
 1988000   0.45945866   -9.4858629    184.74285 0.0077440834 0.0056478883         3891 
 1989000   0.46164482    -9.486479    184.92995 0.0077480289 0.0056426438         3864 
 1990000   0.46028716   -9.4840013     185.2787 0.0077587396 0.0056374105         3896 
 1991000   0.45115499   -9.4946319    184.98705 0.0077426357 0.0056321805         3897 
 1992000   0.46443983   -9.4860935    184.84933 0.0077329875 0.0056269617         3876 
 1993000   0.44943919   -9.4991393    184.65221 0.0077208651 0.0056217477         3862 
 1994000   0.45665801   -9.5019965    185.14069 0.0077374078 0.0056165382         3897 
 1995000   0.46176315   -9.4941673     184.8532 0.0077215203  0.005611333         3880 
 1996000   0.45682637   -9.4851793    184.48231 0.0077021673 0.0056061373         3874 
 1997000   0.45526005   -9.4901075    184.86404 0.0077142396 0.0056009509         3880 
 1998000   0.46870871    -9.486402    185.02478  0.007717083 0.0055957666         3884 
 1999000   0.44679593   -9.5053141    184.93027 0.0077092825 0.0055905886         3878 
 2000000   0.46473846   -9.4942817     184.6682 0.0076945085 0.0055854195         3877 
 2001000     0.453679   -9.4939203    184.91671 0.0077010124 0.0055802579         3899 
 2002000   0.44148335   -9.4932265    185.04169 0.0077023679 0.0055750969         3872 
 2003000   0.45258886   -9.5026192    184.96094 0.0076951633 0.0055699462         3899 
 2004000    0.4559272   -9.4885624    184.96434 0.0076914647 0.0055648037         3880 
 2005000   0.44896032   -9.4963028    184.83736 0.0076823508 0.0055596679         3882 
 2006000   0.45496607    -9.499998    184.65499 0.0076709449 0.0055545333         3897 
 2007000   0.44872606   -9.5078022    184.79468 0.0076729232 0.0055494084         3896 
 2008000    0.4438838   -9.4932831    184.90209 0.0076735596 0.0055442889         3859 
 2009000   0.44455104    -9.505753    184.56205  0.007655635 0.0055391741         3894 
 2010000   0.44562891   -9.5051459    185.04806  0.007671976  0.005534071         3885 
 2011000    0.4559994   -9.5168029    184.67499 0.0076527014 0.0055289686         3908 
 2012000   0.44370131   -9.4940874    184.49104 0.0076412789 0.0055238744         3881 
Loop time of 5242.56 on 48 procs for 2000000 steps with 4000 atoms

Performance: 65922.021 tau/day, 381.493 timesteps/s
99.4% CPU use with 48 MPI tasks x no OpenMP threads

MPI task timing breakdown:
Section |  min time  |  avg time  |  max time  |%varavg| %total
---------------------------------------------------------------
Pair    | 366.45     | 401.88     | 432.56     |  83.1 |  7.67
Neigh   | 37.354     | 39.054     | 40.558     |  12.6 |  0.74
Comm    | 320.73     | 360.83     | 406.13     | 107.4 |  6.88
Output  | 6.2801     | 6.2822     | 6.3274     |   0.3 |  0.12
Modify  | 4361.8     | 4386.2     | 4408.3     |  16.5 | 83.67
Other   |            | 48.32      |            |       |  0.92

Nlocal:        83.3333 ave          91 max          76 min
Histogram: 3 1 3 3 15 7 9 3 3 1
Nghost:        2447.50 ave        2462 max        2432 min
Histogram: 1 3 4 8 3 6 11 6 3 3
Neighs:        16955.0 ave       20447 max       13636 min
Histogram: 2 2 4 9 7 9 10 4 0 1
FullNghs:      33910.1 ave       37430 max       30848 min
Histogram: 5 1 7 5 10 8 6 0 3 3

Total # of neighbors = 1627685
Ave neighs/atom = 406.92125
Neighbor list builds = 106372
Dangerous builds = 1

#clear
#
#next RN
#
#jump SELF
Total wall time: 1:27:26
