
units lj                  # Use reduced LJ style units
atom_style atomic         # Uncharged point particles
atom_modify map hash      # Needed for indexing of clusters etc
                          # Used to be able to find where atoms are in relation to each other.

lattice fcc 1.0 spacing 1 1 1
Lattice spacing in x,y,z = 1.5874011 1.5874011 1.5874011
region box block 0 10 0 10 0 10 units lattice
create_box 2 box
Created orthogonal box = (0.0000000 0.0000000 0.0000000) to (15.874011 15.874011 15.874011)
  3 by 4 by 4 MPI processor grid
create_atoms 1 box
Created 4000 atoms
  using lattice units in orthogonal box = (0.0000000 0.0000000 0.0000000) to (15.874011 15.874011 15.874011)
  create_atoms CPU = 0.016 seconds
set type 1 type/fraction 2 0.27 78393
Setting atom values ...
  1113 settings made for type/fraction
mass 1 1.0
mass 2 1.0
pair_style lj/cut  3.5
pair_modify tail  yes
pair_coeff 1  1  1.0  1.0   # Intearaction between 1 and 1 set with epsilon = 1 and sigma = 1
pair_coeff 1  2  1.5  0.8
pair_coeff 2  2  0.5  0.88

write_data data.0
System init for write_data ...
Neighbor list info ...
  update every 1 steps, delay 10 steps, check yes
  max neighbors/atom: 2000, page size: 100000
  master list distance cutoff = 3.8
  ghost atom cutoff = 3.8
  binsize = 1.9, bins = 9 9 9
  1 neighbor lists, perpetual/occasional/extra = 1 0 0
  (1) pair lj/cut, perpetual
      attributes: half, newton on
      pair build: half/bin/atomonly/newton
      stencil: half/bin/3d
      bin: standard
WARNING: Not all mixed pair coeffs generated from mixing. Use write_data with 'pair ij' option to store all pair coeffs. (../write_data.cpp:312)


#############################
#   M E L T   S Y S T E M   #
#############################

velocity all create 2.4 6583654 mom yes dist gaussian # Assign velocities
                                                    # Temperature 2.4, random number seed, zero linear momentum
                                                                                # Gaussian distribution

timestep 0.002   # simulation timestep
thermo 1000       # output thermodynamic data every 1000 steps bf 100

# Define a fix  in this case with index 1 applied to all
# particles in the simulation. This fix is for simulations
# in the anisotropic NPT ensemble. Note that we use the MTK
# correction.
fix 1 all npt temp 2.4 2.4 0.1 iso 5.68 5.68 0.5 mtk yes tchain 5 pchain 5 # Use NPT ensemble
                                                                         # Set temperature and pressure and damping
                                                                         # Numbers of thermostats in chain and in barostat
run 10000          # run for 10000 steps
Per MPI rank memory allocation (min/avg/max) = 3.642 | 3.644 | 3.648 Mbytes
Step Temp E_pair E_mol TotEng Press Volume 
       0          2.4   -6.6079615            0   -3.0088615   -3.8965289         4000 
    1000    2.4027972   -4.9048545            0   -1.3015598    5.6119509    4266.9268 
    2000    2.3930301   -4.9676391            0   -1.3789913    5.6041429    4237.6168 
    3000    2.3187265   -4.9937329            0   -1.5165127     5.504217    4230.9708 
    4000    2.4022678    -4.978195            0   -1.3756941    5.3766202    4253.4719 
    5000    2.4079993   -4.9033088            0   -1.2922129     6.126493    4228.7618 
    6000    2.3669177   -4.9736673            0   -1.4241783    5.8456756    4207.6699 
    7000    2.3670084   -4.9683353            0   -1.4187104    5.1579884    4278.9389 
    8000    2.3921113   -4.9912439            0    -1.403974    5.9066916    4194.4927 
    9000    2.4075347   -4.9783458            0   -1.3679466    5.8444224    4213.8369 
   10000    2.4294907   -4.9829817            0   -1.3396567    5.6783608    4221.8318 
Loop time of 2.36547 on 48 procs for 10000 steps with 4000 atoms

Performance: 730509.625 tau/day, 4227.486 timesteps/s
99.6% CPU use with 48 MPI tasks x no OpenMP threads

MPI task timing breakdown:
Section |  min time  |  avg time  |  max time  |%varavg| %total
---------------------------------------------------------------
Pair    | 1.015      | 1.0836     | 1.1647     |   3.2 | 45.81
Neigh   | 0.19983    | 0.20719    | 0.22538    |   1.0 |  8.76
Comm    | 0.7344     | 0.8065     | 0.89585    |   4.2 | 34.09
Output  | 0.00025248 | 0.00025632 | 0.00032255 |   0.0 |  0.01
Modify  | 0.22857    | 0.25284    | 0.28317    |   2.7 | 10.69
Other   |            | 0.01507    |            |       |  0.64

Nlocal:        83.3333 ave          94 max          73 min
Histogram: 2 2 5 9 9 5 4 8 2 2
Nghost:        1592.02 ave        1619 max        1551 min
Histogram: 1 1 3 5 5 8 6 10 5 4
Neighs:        9036.88 ave       11151 max        7711 min
Histogram: 3 6 7 9 10 8 4 0 0 1

Total # of neighbors = 433770
Ave neighs/atom = 108.44250
Neighbor list builds = 902
Dangerous builds = 174

# Equilibrate just above the melting temperature to avoid step fn in T

fix 1 all npt temp 1.25 1.25 0.1 iso 5.68 5.68 0.5 mtk yes tchain 5 pchain 5
run 2000
Per MPI rank memory allocation (min/avg/max) = 3.643 | 3.645 | 3.649 Mbytes
Step Temp E_pair E_mol TotEng Press Volume 
   10000    2.4294907   -4.9829817            0   -1.3396567    5.6783608    4221.8318 
   11000    1.2601215   -6.7614181            0   -4.8717085    5.6499658    3432.7823 
   12000    1.2781791   -6.7536162            0   -4.8368269     5.920111    3420.2852 
Loop time of 0.552939 on 48 procs for 2000 steps with 4000 atoms

Performance: 625023.779 tau/day, 3617.036 timesteps/s
99.6% CPU use with 48 MPI tasks x no OpenMP threads

MPI task timing breakdown:
Section |  min time  |  avg time  |  max time  |%varavg| %total
---------------------------------------------------------------
Pair    | 0.2324     | 0.26372    | 0.28953    |   2.6 | 47.69
Neigh   | 0.034948   | 0.038121   | 0.040759   |   0.6 |  6.89
Comm    | 0.17511    | 0.2018     | 0.23957    |   3.3 | 36.50
Output  | 5.2211e-05 | 5.3556e-05 | 6.7094e-05 |   0.0 |  0.01
Modify  | 0.039676   | 0.044428   | 0.049298   |   1.3 |  8.03
Other   |            | 0.004813   |            |       |  0.87

Nlocal:        83.3333 ave          91 max          75 min
Histogram: 1 4 0 12 6 7 8 3 4 3
Nghost:        1821.60 ave        1841 max        1805 min
Histogram: 1 4 4 12 8 7 8 0 0 4
Neighs:        11161.9 ave       12833 max        9739 min
Histogram: 3 4 5 6 12 6 3 5 3 1

Total # of neighbors = 535773
Ave neighs/atom = 133.94325
Neighbor list builds = 141
Dangerous builds = 9

#############################
# L I N E A R  Q U E N C H  #
#############################

# Define solid atoms. This closely follows ten Wolde  Ruiz-Montero and Frenkel  Faraday Discuss  1996  104  93-110
# Compute components of the per-atom q6 vector
compute q6 all orientorder/atom degrees 1 6 components 6 nnn NULL cutoff 1.3 # compute the Q6 parameter.
                                                                             # Use all neighbours within 1.3 unit cell.

# get number of connections
compute coord_number all coord/atom orientorder q6 0.5

# An atom is solid if it has 8 or more connections (of a possible 14)
variable is_solid atom c_coord_number>=8
group solid dynamic all var is_solid    # Must be dynamic to update
dynamic group solid defined

# do clustering
compute cluster solid cluster/atom 1.3 # Create a cluster where all atoms within are solid and max 1.3 units from another member

# define chunks one chunk per cluster
compute clus_chunks solid chunk/atom c_cluster nchunk every compress yes  # Says which atoms are in which chunk

# count the size of each chunk
compute size_chunks solid property/chunk clus_chunks count


# Find the maximum entry in the vector of chunk sizes
variable max_n equal max(c_size_chunks)


# Thermo style which includes this variable
# thermo_style custom step temp pe vol v_max_n

thermo ${N}  # Print the thermo information every 100 steps
thermo 1000  

# Reset the npt fix at a lower temperature (below freezing)
fix 1  all npt temp  ${temp} ${temp}  0.1  iso  5.68  5.68  0.5  mtk yes tchain  5  pchain  5
fix 1  all npt temp  0.45 ${temp}  0.1  iso  5.68  5.68  0.5  mtk yes tchain  5  pchain  5
fix 1  all npt temp  0.45 0.45  0.1  iso  5.68  5.68  0.5  mtk yes tchain  5  pchain  5

dump dmp2 all dcd ${N} traj.dcd
dump dmp2 all dcd 1000 traj.dcd


compute msd all msd com yes
variable twopoint equal c_msd[4]/6/(step*dt+1.0e-6)
fix 9 all vector 10 c_msd[4]
variable fit equal slope(f_9)/6/(10*dt)
thermo_style custom step temp pe c_msd[4] v_twopoint v_fit v_max_n

fix 1 all npt temp 1.25 ${temp} 0.1 iso 5.68 5.68 0.5 mtk yes tchain 5 pchain 5
fix 1 all npt temp 1.25 0.45 0.1 iso 5.68 5.68 0.5 mtk yes tchain 5 pchain 5
run 500000 # 5000000  # Run for this many steps
Neighbor list info ...
  update every 1 steps, delay 10 steps, check yes
  max neighbors/atom: 2000, page size: 100000
  master list distance cutoff = 3.8
  ghost atom cutoff = 3.8
  binsize = 1.9, bins = 8 8 8
  4 neighbor lists, perpetual/occasional/extra = 1 3 0
  (1) pair lj/cut, perpetual
      attributes: half, newton on
      pair build: half/bin/atomonly/newton
      stencil: half/bin/3d
      bin: standard
  (2) compute orientorder/atom, occasional
      attributes: full, newton on
      pair build: full/bin/atomonly
      stencil: full/bin/3d
      bin: standard
  (3) compute coord/atom, occasional
      attributes: full, newton on
      pair build: full/bin/atomonly
      stencil: full/bin/3d
      bin: standard
  (4) compute cluster/atom, occasional
      attributes: full, newton on
      pair build: full/bin/atomonly
      stencil: full/bin/3d
      bin: standard
Per MPI rank memory allocation (min/avg/max) = 9.806 | 9.811 | 9.814 Mbytes
Step Temp PotEng c_msd[4] v_twopoint v_fit v_max_n 
   12000    1.2781791   -6.7536162            0            0 8.3333333e+20            2 
   13000    1.2475209   -6.7934794   0.51119034  0.003276861  0.041735756            2 
   14000    1.2610618   -6.8097972    1.0084639 0.0060027609  0.041616195            2 
   15000    1.2895773   -6.7932543    1.5259074 0.0084772628  0.042047792            1 
   16000    1.2724721   -6.8302484    2.0192396  0.010516873  0.041861228            2 
   17000    1.2654992   -6.7689046    2.5330022  0.012416677  0.041878597            1 
   18000    1.2425237   -6.8266243    3.0794876  0.014256887  0.042521211            1 
   19000    1.2192691   -6.8274327    3.7143893   0.01629118  0.043290451            1 
   20000    1.2256477   -6.7923296    4.1244466  0.017185194  0.043577893            3 
   21000    1.2339437   -6.8227468    4.5365728  0.018002273  0.043063856            1 
   22000    1.2566412   -6.8399907    4.9973148  0.018929222  0.042412774            2 
   23000    1.2514033   -6.7941124    5.4828568  0.019865423  0.041991933            1 
   24000    1.2326334   -6.8410314    5.9337669  0.020603357   0.04154159            1 
   25000    1.2017625   -6.8149506    6.4870104  0.021623368  0.041294067            1 
   26000    1.2244541   -6.8777836    6.9599659  0.022307583  0.041232555            1 
   27000    1.2190703   -6.8201205    7.4530347  0.023003193   0.04115438            3 
   28000    1.1972838   -6.8148275    7.8582416  0.023387623  0.040988171            1 
   29000    1.2201897   -6.8155887    8.2221349  0.023626824  0.040699471            1 
   30000     1.247456   -6.8640391    8.6519742  0.024033261  0.040373862            1 
   31000    1.2153525   -6.8234001    9.0218569  0.024252303  0.040084225            2 
   32000    1.2076229   -6.8597625    9.5243631  0.024803029  0.039783241            1 
   33000    1.2235744   -6.8888114     9.806392  0.024763616  0.039492565            2 
   34000    1.2135004   -6.8394828     10.23902  0.025095637  0.039161778            3 
   35000    1.2122526   -6.8431309    10.687333   0.02544603  0.038851036            3 
   36000    1.1894066   -6.8687514    11.047032  0.025571833  0.038566762            1 
   37000     1.239754   -6.8758594    11.574914  0.026069625  0.038330742            1 
   38000    1.2222759    -6.905992    12.034463  0.026391367  0.038191919            2 
   39000    1.2160844   -6.8579466    12.448881  0.026600172  0.038072016            1 
   40000    1.1939928     -6.90062    12.746137  0.026554452  0.037894581            1 
   41000    1.2167993    -6.882593    13.166191   0.02676055  0.037692545            2 
   42000    1.2013457   -6.9076319     13.64303  0.027069504  0.037516723            1 
   43000    1.1889922   -6.9000477    14.075078  0.027277283  0.037363301            2 
   44000    1.1952745   -6.8659546     14.49921  0.027460625  0.037251607            1 
   45000    1.2054694   -6.9337463    14.682291  0.027189427  0.037094021            2 
   46000    1.2099212   -6.9048318     15.06789  0.027296902  0.036888505            1 
   47000    1.2152253   -6.9275806    15.537464  0.027548695  0.036730225            2 
   48000    1.1911985   -6.8894222    16.053298  0.027870309  0.036610143            1 
   49000    1.1740309   -6.8771563    16.581767  0.028200283  0.036509078            2 
   50000    1.1966756   -6.9397406    16.828481  0.028047467  0.036415205            1 
   51000    1.2042793   -6.9399565    17.299429   0.02826704  0.036328865            1 
   52000    1.1868643   -6.9431382    17.935047  0.028742063    0.0362982            2 
   53000    1.1782438   -6.9289346    18.422179   0.02896569  0.036288826            1 
   54000    1.1818331   -6.9337871    18.702492   0.02886187   0.03627204            2 
   55000    1.1932242   -6.9514213    19.023021  0.028822758  0.036228237            1 
   56000    1.1800805   -6.9134027    19.510144  0.029032952  0.036173081            1 
   57000    1.1965041   -6.9414171    19.872528  0.029053403  0.036126777            2 
   58000    1.1973745   -6.9664193    20.353775   0.02924393  0.036094199            4 
   59000    1.1667242   -6.9348733    20.879576  0.029490926  0.036065712            2 
   60000    1.1780184   -6.9533412    21.322772   0.02961496   0.03605855            2 
   61000     1.215424   -6.9770366    21.592423  0.029497845  0.036041758            3 
   62000    1.1935247    -6.973304    22.030851  0.029611359  0.036012901            1 
   63000    1.1541414   -6.9526021    22.488837  0.029747138  0.035978801            1 
   64000    1.1854627   -6.9615605    22.837583  0.029736436  0.035940992            2 
   65000    1.1641613   -6.9682635    23.089396  0.029601789  0.035880699            2 
   66000    1.1363382   -6.9640671    23.503588  0.029676247  0.035813633            2 
   67000    1.1280258   -6.9753799    23.651943  0.029417839  0.035735143            1 
   68000    1.1650692   -6.9864543      24.1189  0.029557475  0.035649144            1 
   69000    1.1742593   -6.9842762    24.524452  0.029618903  0.035571346            2 
   70000    1.1608851   -6.9693407    25.065396  0.029839757  0.035506959            1 
   71000    1.1387599   -6.9699674    25.481368  0.029907709  0.035452258            1 
   72000    1.1558315   -7.0019466    25.831707  0.029897808  0.035398593            3 
   73000    1.1301085   -7.0205678     26.18682   0.02989363  0.035343129            4 
   74000    1.1685694   -6.9882996    26.555138  0.029904434    0.0352807            1 
   75000    1.1756152   -6.9550582    26.907593  0.029897325  0.035215092            1 
   76000    1.1419884   -7.0105257    27.227869  0.029855119  0.035152535            2 
   77000    1.1306617   -7.0021852     27.48589  0.029746635  0.035079879            2 
   78000    1.1279595   -7.0180424     27.89196  0.029799102  0.035001191            2 
   79000    1.1534984   -7.0185245    28.357142  0.029912597  0.034926791            1 
   80000    1.1559593   -6.9909391    28.718194  0.029914786  0.034864499            2 
   81000    1.1169303   -7.0278558    29.105038  0.029943455  0.034799275            2 
   82000     1.129817   -7.0224725    29.356118  0.029833453  0.034735073            2 
   83000    1.1307812   -7.0155807    29.802248  0.029921935  0.034664251            1 
   84000    1.1453271   -6.9904885     30.16714  0.029927718  0.034591558            2 
   85000    1.1199393   -7.0264162    30.397873  0.029801836  0.034514818            2 
   86000    1.1277266   -7.0479693    30.641064  0.029690953  0.034429908            2 
   87000    1.1396303   -7.0397747     30.81197  0.029513381  0.034336291            3 
   88000    1.1365642    -7.002369     31.13831  0.029487036  0.034240908            1 
   89000    1.1133378    -7.079087    31.400091  0.029400834  0.034135753            1 
   90000     1.109203   -7.0391094    31.866621  0.029506131  0.034035305            2 
   91000    1.1201058    -7.045727    32.154474  0.029445489  0.033939018            2 
   92000    1.1241548   -7.0512307    32.553367  0.029486746  0.033846842            1 
   93000    1.1008844   -7.0645448    32.881273  0.029463507  0.033756907            2 
   94000    1.1069311   -7.0344992    33.173641  0.029409256  0.033670912            1 
   95000    1.1189025   -7.0966688    33.522663  0.029405845  0.033588128            2 
   96000    1.0999983   -7.0644535    33.843865  0.029378355  0.033505848            2 
   97000    1.1084354   -7.0452916    34.374125  0.029531035  0.033427334            1 
   98000    1.1003191     -7.12042    34.481424  0.029320938  0.033348832            2 
   99000    1.1199863   -7.1121679     34.65703  0.029172584  0.033257942            2 
  100000    1.0971458   -7.0762169    35.036472   0.02919706  0.033165561            2 
  101000    1.0748903   -7.0910441    35.199404  0.029042412  0.033069351            1 
  102000     1.121219   -7.0692466    35.558769  0.029051282  0.032974063            2 
  103000    1.1209777   -7.1042899    35.773973  0.028943344  0.032881974            1 
  104000     1.106972    -7.056686    36.188027  0.028996816  0.032786737            1 
  105000    1.0908582   -7.1120359    36.475817  0.028949061  0.032693395       -1e+20 
  106000     1.086226   -7.1377152    36.748574  0.028890388  0.032601869            1 
  107000    1.0941744   -7.1450631    37.097418   0.02889207  0.032513589            2 
  108000    1.0633014   -7.1071356    37.295096   0.02877708  0.032419774            1 
  109000    1.0699913   -7.1033637    37.497006  0.028667436  0.032324641            1 
  110000    1.1192765   -7.1045647    37.831804  0.028660457  0.032228121            2 
  111000    1.0998523   -7.1277492    38.006033  0.028533058  0.032129926            1 
  112000    1.1139655   -7.1848941    38.266631  0.028472196  0.032029331            2 
  113000    1.0857185   -7.0952521     38.49886   0.02839149  0.031929216            1 
  114000    1.0868307   -7.1319902    38.887169  0.028426293  0.031831269            2 
  115000    1.0919694   -7.1309262    39.098111  0.028331965  0.031732123            2 
  116000    1.0983825   -7.1477095    39.603266  0.028450622  0.031637577            1 
  117000    1.1053455   -7.1515278    39.795757  0.028344556  0.031547824            2 
  118000    1.0677641   -7.1436926    40.116577  0.028330916  0.031458429            1 
  119000    1.0743988   -7.1379443    40.358839  0.028262492  0.031369738            1 
  120000    1.0821785   -7.1272982    40.502818  0.028126957  0.031281812            1 
  121000    1.0526048   -7.1485401    40.713272  0.028039444  0.031190417            1 
  122000      1.07545   -7.1236051    41.239615  0.028169135  0.031102502            3 
  123000    1.0812277   -7.1922324    41.372285  0.028030003  0.031014962            2 
  124000    1.0674521   -7.2048725    41.547369  0.027921619  0.030927974            4 
  125000    1.0516165   -7.1606415     41.89333  0.027928887  0.030839712            3 
  126000     1.058857   -7.1982118    42.187109  0.027901527  0.030753301            1 
  127000    1.0671426   -7.1117277    42.749129  0.028050609  0.030669085            1 
  128000    1.0632703   -7.1811691    42.837637  0.027889086  0.030586282            2 
  129000    1.0580628   -7.1999117    43.248873  0.027938548  0.030506878            2 
  130000      1.05916    -7.190126    43.611971  0.027956391  0.030430479            1 
  131000    1.0622247   -7.1826987    43.648357  0.027766131  0.030354966            3 
  132000    1.0477833   -7.1908621    44.061232  0.027816434  0.030278403            1 
  133000    1.0532113    -7.210066    44.220056  0.027706802  0.030202156            5 
  134000    1.0621707   -7.1873441    44.587888  0.027728786  0.030125666            3 
  135000    1.0670597   -7.2018613    44.733428  0.027613227  0.030050772            3 
  136000     1.050658    -7.219885    44.971422  0.027556018  0.029974998            3 
  137000    1.0518516   -7.2301592    45.229986  0.027512157   0.02989902            2 
  138000    1.0319195   -7.1857443    45.522599  0.027489492  0.029824061            2 
  139000    1.0473744   -7.1797892    45.697546   0.02739661  0.029746924            1 
  140000    1.0634476   -7.2176301    45.892478  0.027316951  0.029669442            2 
  141000    1.0205448   -7.2195036    46.165251  0.027284427  0.029588122            2 
  142000    1.0498783   -7.2256374     46.27821  0.027158574  0.029506686            1 
  143000     1.055558   -7.2624996    46.430105  0.027057171  0.029426951            2 
  144000    1.0339439   -7.2200891    46.678664  0.027013116  0.029344565            1 
  145000    1.0282882   -7.2160906    47.023764  0.027025152  0.029262859            2 
  146000    1.0563412   -7.2408565    47.269714  0.026980431  0.029183604            3 
  147000    1.0055941   -7.2197894    47.395324  0.026868097  0.029103706            3 
  148000    1.0242494   -7.2363609    47.755084  0.026889124  0.029024406            2 
  149000    1.0240963   -7.2562193    47.961021  0.026823837  0.028946229            1 
  150000    1.0440618   -7.2657203    48.047844  0.026693246  0.028867247            1 
  151000    1.0234676   -7.2802578    48.367764  0.026693027  0.028787227            3 
  152000   0.99429493   -7.3001112    48.365979  0.026516436  0.028707002            2 
  153000    1.0254197   -7.2680848    48.749386  0.026551953  0.028627106            3 
  154000    1.0149511   -7.2832886    49.002101  0.026516288  0.028550937            1 
  155000    1.0227189   -7.2906776    49.165018  0.026432805  0.028475082            4 
  156000    1.0329681    -7.299165    49.644704  0.026519607  0.028400462            1 
  157000   0.99666634   -7.2416611    49.836154  0.026452311  0.028325041            6 
  158000    1.0105847   -7.2666046    50.064915  0.026405546  0.028252097            4 
  159000   0.98836948   -7.2782238    50.150922   0.02628455  0.028177219            2 
  160000    1.0026932   -7.3049294    50.300528  0.026198192  0.028101478            2 
  161000    1.0067925   -7.2315234    50.537212  0.026157977  0.028024449            2 
  162000    1.0231247   -7.3182554    50.553767  0.026005024  0.027949373            2 
  163000     1.006015   -7.3340808    50.928271  0.026036948  0.027875328            2 
  164000   0.99938414   -7.3342547    51.365169  0.026100187   0.02780192            2 
  165000    1.0014137   -7.3085185    51.589264  0.026055184  0.027730566            1 
  166000    1.0045372   -7.3074916    51.603424  0.025905333  0.027658969            4 
  167000   0.98952678   -7.3256593    51.836158  0.025866346  0.027585559            2 
  168000    1.0070879   -7.3179819    52.018875  0.025803013  0.027511821            1 
  169000    1.0031137    -7.328258    52.346365  0.025811817  0.027439985            3 
  170000    1.0208296   -7.3236058    52.718647  0.025842474   0.02736979            2 
  171000   0.99882465   -7.3094155    52.956635  0.025807327  0.027300667            1 
  172000   0.99579684   -7.3269346    53.010659  0.025683459   0.02723164            3 
  173000   0.99406151   -7.3320666    53.375435   0.02571071  0.027162277            2 
  174000    1.0186326   -7.3280981    53.433442  0.025590729  0.027093745            1 
  175000   0.96730311   -7.2968245    53.831284  0.025633945   0.02702479            2 
  176000   0.97527135   -7.3456786    53.878972  0.025510877  0.026958166            3 
  177000   0.98503272   -7.3406849    54.067583  0.025455548  0.026890176            3 
  178000    0.9891231    -7.326398    54.223902  0.025385722  0.026822779            3 
  179000   0.98283847   -7.3817969    54.348777  0.025302038  0.026755552            1 
  180000   0.97184447   -7.3706619    54.656776  0.025304063  0.026687613            1 
  181000   0.96722703   -7.3475608    54.770128  0.025216449  0.026619341            2 
  182000   0.97120181   -7.3586916    55.182904  0.025266898  0.026550754            2 
  183000   0.96541964    -7.351894    55.242104  0.025155785  0.026483324            2 
  184000   0.96784119    -7.355507    55.382152  0.025082496  0.026414841            1 
  185000   0.97623099   -7.4122312    55.574055  0.025033358  0.026348043            2 
  186000   0.97218266   -7.3754568     55.79166  0.024996263  0.026280522            1 
  187000   0.97008297   -7.4136741    55.861834  0.024893865  0.026213749            2 
  188000   0.96533935   -7.3723792    56.044606  0.024842467  0.026145597            2 
  189000    0.9528613   -7.3996296    56.247612  0.024800534  0.026076958            2 
  190000   0.96999428   -7.4071416    56.582118  0.024816718  0.026011995            2 
  191000   0.96210295   -7.3993084    57.000746  0.024869435  0.025948795            2 
  192000   0.96015604   -7.4484579    57.007243  0.024742727  0.025885244            2 
  193000     0.955175   -7.4097337    57.257024  0.024722376  0.025822626            3 
  194000   0.94401114   -7.4464494    57.379138  0.024647396  0.025759702            1 
  195000   0.95294553   -7.4055031    57.553637  0.024595571  0.025695798            3 
  196000   0.94402069   -7.4064593    57.703254  0.024533696  0.025632236            3 
  197000   0.94569049   -7.4363865    57.970541  0.024522225  0.025568704            3 
  198000   0.94341241   -7.4515934    57.992108  0.024407453  0.025505393            2 
  199000   0.95403068   -7.4083482     58.16762    0.0243583  0.025441713            3 
  200000   0.94918459   -7.4840105    58.325392  0.024302246  0.025379115            3 
  201000   0.95742065   -7.4481409     58.47119  0.024241787  0.025314851            1 
  202000   0.94571825   -7.4338979    58.647745  0.024194614  0.025250357            2 
  203000   0.95749922   -7.4563431    58.804722   0.02413987  0.025185079            5 
  204000   0.94151917   -7.4448032    58.868624   0.02404764    0.0251205            3 
  205000   0.94439408   -7.4722265    58.896846  0.023941807  0.025055097            1 
  206000   0.93964146   -7.4586393    59.368603  0.024016425  0.024990278            1 
  207000   0.92026319   -7.4358759    59.516287  0.023959858  0.024926536            2 
  208000   0.95854856   -7.4712155    59.644433  0.023896007  0.024864023            4 
  209000   0.95980352   -7.4518093    59.754329   0.02382549  0.024800758            2 
  210000    0.9404504   -7.4804054    59.932448  0.023782717  0.024736871            1 
  211000   0.93939207   -7.4749513    60.122515  0.023745069  0.024673115            2 
  212000   0.91577976   -7.5103722    60.230865  0.023675654  0.024609014            2 
  213000   0.91277307   -7.4995259    60.302744  0.023592623  0.024546052            2 
  214000    0.9138682   -7.4785105    60.401195  0.023520714  0.024483436            3 
  215000   0.91962365   -7.4760511    60.818435  0.023573037  0.024421333            3 
  216000   0.91985552   -7.4708657    61.008439  0.023537206  0.024361029            2 
  217000   0.90076993   -7.5218216    61.101059  0.023464308  0.024299432            1 
  218000   0.93679558   -7.5213886    61.286734   0.02342765   0.02423889            2 
  219000   0.91683325   -7.5238928    61.355773  0.023346946  0.024178164            3 
  220000   0.91923863   -7.4782982    61.717995  0.023378028   0.02411826            1 
  221000   0.93652929    -7.517243    61.690948  0.023262047  0.024058224            1 
  222000   0.90141967   -7.5170334       61.881  0.023228603  0.023997805            2 
  223000   0.90913684   -7.5070528    61.895811  0.023129974  0.023936213            2 
  224000   0.92740396   -7.5254496    61.989886  0.023061714  0.023873835            2 
  225000   0.90607749   -7.5219995    62.112552  0.023004649  0.023811011            2 
  226000    0.9203502   -7.5066066    62.114713  0.022903655  0.023749171            1 
  227000    0.9076206     -7.54594    62.186146  0.022828981  0.023686406            3 
  228000   0.91079811   -7.5421715    62.454822  0.022827055  0.023623144            2 
  229000    0.9114325   -7.5755393    62.536103  0.022756952  0.023560403            4 
  230000   0.90434743   -7.5495939    62.447316  0.022625839  0.023496582            3 
  231000   0.90485215   -7.5348282    62.560759  0.022568816  0.023432089            2 
  232000   0.88824722   -7.5793753    62.742989  0.022536993  0.023368234            1 
  233000   0.88566387    -7.528545    62.918123  0.022502905  0.023304409            2 
  234000    0.9243953   -7.5680408     63.08275  0.022465367  0.023241299            2 
  235000   0.89941441   -7.5566844    63.153765  0.022394952  0.023178594            1 
  236000   0.88248843   -7.5314899    63.276972  0.022343563  0.023115639            2 
  237000   0.87780377   -7.5932061    63.239679  0.022236174  0.023052897            2 
  238000   0.88296428   -7.5816547    63.617907  0.022275177  0.022990232            2 
  239000   0.87917828   -7.5713073    63.758359  0.022230948  0.022928363            2 
  240000   0.89386406   -7.5430902    63.779338  0.022145604  0.022865968            2 
  241000   0.88766572   -7.5784514    63.735725  0.022038632   0.02280273            3 
  242000   0.89895348   -7.5977652    63.809069   0.02197282  0.022738861            2 
  243000   0.87799361   -7.5992172    63.806477  0.021881508  0.022675302            2 
  244000   0.87880778   -7.6011029    64.064535  0.021879964  0.022611618            2 
  245000    0.8648653   -7.6048637    64.196544  0.021835559  0.022548644            2 
  246000   0.88450093   -7.6119361    64.121496  0.021721374  0.022485392            2 
  247000   0.85509376   -7.6055774    64.409379   0.02173056  0.022421721            3 
  248000   0.87332423   -7.6207057    64.319022  0.021612574  0.022358538            5 
  249000   0.87022975   -7.5850056    64.366621  0.021541707  0.022294339            5 
  250000   0.89154094     -7.62477    64.458274  0.021486091  0.022229761            2 
  251000   0.85988345    -7.624414    64.416601  0.021386654  0.022165187            2 
  252000   0.85499875   -7.6250641    64.534957  0.021340925  0.022100058            1 
  253000   0.85497934   -7.6390304    64.475543  0.021237003  0.022034295            2 
  254000   0.85115935   -7.6213078    64.790181  0.021256621  0.021969058            3 
  255000   0.86637103   -7.6203255    64.891333  0.021206318  0.021904752            1 
  256000   0.85418728   -7.6180456    64.995134   0.02115727  0.021840841            1 
  257000    0.8302625   -7.6533281    65.108587  0.021111734  0.021777446            2 
  258000   0.84122695   -7.6640223     65.29032  0.021088605  0.021713885            2 
  259000   0.85997363   -7.6466988    65.076143   0.02093827  0.021649457            3 
  260000    0.8493623   -7.6612071    65.087091  0.020861247  0.021584287            3 
  261000   0.84666856   -7.6461491    65.280177  0.020842968  0.021519306            3 
  262000   0.86494353   -7.6716942    65.217236  0.020743396  0.021454625            1 
  263000   0.83509683   -7.6426016      65.5719  0.020776901  0.021389855            1 
  264000    0.8441196   -7.6461872    65.606225  0.020709036  0.021325855            6 
  265000   0.83910045   -7.7065315    65.558819  0.020615981  0.021261403            2 
  266000   0.85116804     -7.69031    65.791821  0.020611473  0.021197407            4 
  267000   0.81569391   -7.6793229    65.744271  0.020519435  0.021133486            3 
  268000   0.86424766   -7.6718334    65.709011  0.020431906  0.021070165            2 
  269000   0.82874733    -7.701263    66.084276  0.020472204  0.021006803            1 
  270000    0.8318144   -7.6666391    66.149433  0.020416492  0.020944362            1 
  271000   0.84048146   -7.6625505    66.439069  0.020430218  0.020882269            1 
  272000   0.83560259   -7.6942915    66.250848  0.020297441  0.020820913            1 
  273000   0.83079577   -7.7195691    66.349823  0.020253304  0.020758428            2 
  274000   0.84261768   -7.7042744    66.194413  0.020132121  0.020695828            2 
  275000   0.83912116   -7.7061527    66.302894  0.020091786  0.020633204            2 
  276000   0.82423683   -7.7435328    66.241106  0.020000334  0.020569815            2 
  277000   0.81176261   -7.7513536    66.344503  0.019959237  0.020506164            4 
  278000    0.8104486   -7.7016801    66.381183  0.019898436  0.020443456            2 
  279000   0.82380197   -7.7022802    66.674038  0.019914587  0.020380894            2 
  280000   0.83271832   -7.7103729    66.525831  0.019799354  0.020318603            4 
  281000   0.82510205   -7.7214742    66.603414  0.019751902  0.020256152            5 
  282000   0.83051087   -7.7196559    66.810932  0.019743183  0.020193871            4 
  283000   0.79828201   -7.7621374    66.774166  0.019662593  0.020132315            1 
  284000   0.82266799    -7.737983     66.69192  0.019569225  0.020070538            1 
  285000   0.80821302   -7.7469677    67.075218  0.019612637    0.0200086            2 
  286000   0.81579244    -7.789514    66.915146   0.01949742  0.019946963            5 
  287000   0.81777002   -7.7763129    67.031189  0.019463179   0.01988481            2 
  288000   0.82400107   -7.7945058    66.933875  0.019367441   0.01982242            4 
  289000   0.80853508   -7.7751081    66.968272  0.019310344  0.019759909            2 
  290000   0.79995037    -7.748307    67.132067  0.019290824  0.019697922            3 
  291000   0.83011153   -7.7692979    67.157933   0.01923194   0.01963629            1 
  292000   0.81213146   -7.7738122    67.208415  0.019180484  0.019574372            3 
  293000   0.80223005   -7.8030057    67.170455  0.019104225  0.019512662            3 
  294000     0.800798   -7.8099934    67.212348  0.019051119  0.019451905            4 
  295000   0.78833419    -7.780752    67.343053  0.019023461  0.019390921            2 
  296000   0.80691767   -7.7808124    67.381239  0.018969943  0.019329953            2 
  297000   0.79813806   -7.8040853    67.363251  0.018901024  0.019269411            4 
  298000   0.80297792   -7.7858471    67.611904  0.018907132  0.019208537            4 
  299000   0.78838473   -7.8236144    67.630005  0.018848942  0.019147835            2 
  300000   0.78706467   -7.8006318    67.521698  0.018756027  0.019087417            2 
  301000   0.78879706   -7.8420896    67.494168  0.018686093  0.019026492            1 
  302000   0.79243709   -7.7950976     67.56063  0.018642558  0.018965948            3 
  303000   0.78852178   -7.8135051    67.649353  0.018605433  0.018905763            1 
  304000   0.77203549    -7.809005    67.710119  0.018560888  0.018845619            3 
  305000   0.78832901   -7.8371731    67.688152  0.018494031  0.018785785            3 
  306000   0.75534716   -7.8379307    67.700507  0.018436957  0.018726116            8 
  307000   0.77480674   -7.8834009     67.64749  0.018362511  0.018666287            2 
  308000   0.77320081   -7.8527686     67.79856  0.018343766  0.018606409            5 
  309000    0.7693395   -7.8707844    67.910405  0.018314564  0.018546579            1 
  310000    0.7640862   -7.8798198    68.040024  0.018290329  0.018487302            2 
  311000   0.75829375   -7.8666488    68.048939  0.018233906   0.01842844            3 
  312000   0.76570464   -7.8773531    68.206771   0.01821762  0.018369933            2 
  313000   0.75719005   -7.8894927    68.112829  0.018134406  0.018311912            3 
  314000   0.77420166   -7.8865988    68.168479  0.018091422  0.018254027            2 
  315000   0.75232783   -7.8680547    68.389494  0.018092459  0.018196836            1 
  316000   0.77072199   -7.8944573    68.393387  0.018036231  0.018139812            2 
  317000   0.77209493   -7.8744162    68.580387  0.018028493   0.01808317            8 
  318000   0.75203485   -7.8851444    68.529142   0.01795837  0.018026864            4 
  319000   0.75969854   -7.8550809    68.609523  0.017923073  0.017971087            4 
  320000   0.76113956   -7.8667809    68.633554  0.017873321  0.017915522            4 
  321000   0.75629978    -7.878344    68.714822  0.017838739  0.017859963            8 
  322000   0.74924393   -7.8593073    68.981819  0.017852438  0.017804973            4 
  323000   0.74437816    -7.882727     68.92019  0.017781267  0.017750151            2 
  324000    0.7514572   -7.9031218    68.955073  0.017735358   0.01769574            2 
  325000   0.74531039   -7.8875029    68.837061  0.017650529  0.017641401            2 
  326000   0.76338431   -7.9250127    68.943778  0.017623665  0.017586978            2 
  327000   0.73243923   -7.9415839    69.045248  0.017595629  0.017533274            3 
  328000   0.75313644   -7.9268075    69.062264  0.017546307  0.017479357            1 
  329000   0.74234158   -7.9383908    68.983906  0.017473127  0.017425338            2 
  330000   0.74105323   -7.9237859    68.974675  0.017417847   0.01737151            2 
  331000   0.74472732   -7.9349833    69.089288  0.017394081  0.017317607            4 
  332000   0.72529496   -7.9367554    69.320199  0.017399648  0.017264122            3 
  333000    0.7411771   -7.9361072    69.179245  0.017312123  0.017211035            4 
  334000   0.74416802   -7.9314933     69.21825  0.017270022  0.017157769            1 
  335000   0.74858543   -7.9515243    69.285114  0.017235103  0.017104564            2 
  336000   0.73972259   -7.9691298    69.338674  0.017197092  0.017051169            2 
  337000   0.71792346   -7.9646716    69.221268   0.01711703  0.016998011            6 
  338000   0.73459279   -7.9472117    69.238233   0.01707057  0.016944968            2 
  339000   0.72772957   -7.9516314    69.125242  0.016992439  0.016891939            3 
  340000   0.74666156   -7.9597788    69.166789  0.016952644  0.016839094            2 
  341000   0.74576812   -7.9992207    69.289621  0.016932948  0.016786297            3 
  342000   0.72237212   -7.9834877    69.176722  0.016855926   0.01673343            3 
  343000   0.72341486   -7.9868796    69.319267  0.016841416  0.016680822            2 
  344000   0.72612043   -7.9995388    69.271417  0.016780866  0.016628598            2 
  345000   0.71336735   -8.0211526     69.34491  0.016749978   0.01657629            2 
  346000     0.710985   -7.9868519    69.448735  0.016726574  0.016524057            1 
  347000   0.73671038   -7.9874042    69.560739  0.016705269   0.01647213            3 
  348000   0.70572484   -8.0011355    69.516991  0.016646789  0.016420649            5 
  349000   0.70933572   -8.0363839    69.524719  0.016600936  0.016369493            5 
  350000   0.71432241   -8.0483736    69.470447  0.016540583  0.016318413            3 
  351000   0.69823649   -8.0034621    69.638365  0.016533325  0.016267595            7 
  352000   0.70207539   -7.9856579    69.566915   0.01646944  0.016216625            6 
  353000   0.69588874   -8.0325899    69.694539  0.016452913  0.016165775            5 
  354000   0.69580431   -8.0190807    69.509213  0.016362809  0.016115024            2 
  355000   0.70838482     -8.06959    69.576517  0.016332516  0.016064133            2 
  356000   0.69874228   -8.0215506    69.751645  0.016327632  0.016013534            2 
  357000   0.70228544   -8.0474989    69.546141  0.016233927  0.015962918            6 
  358000   0.70641611   -8.0639858    69.549672  0.016189402  0.015912614            1 
  359000   0.68373434    -8.062323    69.549379  0.016144238  0.015862284            2 
  360000   0.70149367   -8.0980702    69.674906   0.01612845  0.015812061            4 
  361000   0.70020292   -8.0698619    69.449477  0.016031735  0.015761774            2 
  362000   0.68902981   -8.0702617    69.634521  0.016030046  0.015711611            2 
  363000   0.67941262   -8.0641858    69.687743  0.015998105  0.015661713            2 
  364000   0.69531753   -8.0594982    69.572824  0.015927844  0.015611851            2 
  365000   0.68931722   -8.0683532    69.616551   0.01589419  0.015562121            3 
  366000   0.68583163   -8.0792079    69.634116  0.015854762  0.015512769            2 
  367000   0.68595236   -8.0396476    69.708456  0.015828441   0.01546331            2 
  368000    0.6870593   -8.0766696    69.691638  0.015781621  0.015413931            2 
  369000   0.67387178   -8.0936257    69.651609  0.015729812    0.0153648            3 
  370000   0.68112737   -8.0740775    69.623919  0.015681063  0.015315787            4 
  371000   0.67319895   -8.0873699    69.642634  0.015642999  0.015266906            2 
  372000   0.67228267   -8.1035764    69.682997   0.01560999  0.015218184            2 
  373000   0.66550258   -8.1016956    69.750737  0.015583275  0.015169735            2 
  374000   0.67313775   -8.1118465    69.748205  0.015541044  0.015121034            4 
  375000   0.68140509   -8.1035653    69.826031  0.015516896  0.015072559            3 
  376000    0.6580503   -8.1162009    69.739399  0.015456427  0.015024211            3 
  377000   0.65942897   -8.1199468    69.671301  0.015400376  0.014976014            3 
  378000   0.65359866   -8.1479063     69.61889   0.01534808  0.014927804            2 
  379000     0.666251   -8.1346163    69.568123  0.015296421  0.014879549            7 
  380000   0.69415412   -8.1300443    69.510479  0.015243526  0.014831313            4 
  381000   0.65676246   -8.1301115    69.673092  0.015239084   0.01478348            2 
  382000   0.66127172   -8.1239244    69.734347  0.015212554  0.014735826            3 
  383000   0.65590176   -8.1486473    69.487738  0.015119177  0.014688253            2 
  384000   0.66876414   -8.1355402    69.420561  0.015065226    0.0146409            2 
  385000   0.65612128    -8.138261     69.64316  0.015074277  0.014593586            1 
  386000   0.66005358   -8.1344868    69.814574  0.015072231  0.014546547            2 
  387000   0.64654257   -8.1541939    69.779883  0.015025815  0.014499695            1 
  388000   0.65664087   -8.1455493    69.834961  0.014998918  0.014453201            3 
  389000   0.65160902   -8.1555343    69.972807   0.01498989  0.014406788            2 
  390000    0.6354063   -8.1443661    69.618953  0.014875845  0.014360458            4 
  391000   0.62507049   -8.1782711    69.736794  0.014862914  0.014314168            1 
  392000   0.64576278   -8.1830393    69.641991  0.014804845  0.014267899            2 
  393000   0.65253303   -8.1568898    69.681963  0.014775649  0.014221867            2 
  394000   0.63293776   -8.1742837    69.689555  0.014739753  0.014176108            7 
  395000   0.62969488   -8.1701591    69.835286  0.014733183  0.014130387            4 
  396000   0.62992654   -8.1934442    69.680956  0.014663501   0.01408484            4 
  397000   0.62551852   -8.1713253    69.555758  0.014600285  0.014039342            2 
  398000   0.63158399   -8.1900924     69.73047  0.014600182  0.013994025            8 
  399000   0.62936915   -8.1953362    69.804971   0.01457915    0.0139489            2 
  400000   0.63020523   -8.1953031    69.716029  0.014524173  0.013903795            6 
  401000   0.62283488   -8.2044987    69.691114  0.014482775  0.013858799            3 
  402000   0.61493398   -8.2243444     69.75044  0.014459046  0.013813848            9 
  403000   0.60160398   -8.2054785    69.610923  0.014394318   0.01376919            7 
  404000   0.63125336   -8.2113521    69.644652  0.014365646  0.013724689            3 
  405000   0.63671852   -8.2105148     69.69393  0.014340315  0.013680126            9 
  406000   0.62007691   -8.2260317    69.756124  0.014317759   0.01363588            4 
  407000   0.62878007    -8.226573    69.727808  0.014276783  0.013591708            6 
  408000   0.61968391   -8.2208764    69.860568  0.014268907  0.013547645            3 
  409000    0.6000182   -8.2257689    69.606053  0.014182162   0.01350376            6 
  410000   0.61805851   -8.2331852    69.632651  0.014152978  0.013459867            3 
  411000    0.6137679   -8.2271357     69.62336  0.014116658   0.01341618            1 
  412000   0.62292002   -8.2067509    69.676123  0.014093067  0.013372743            3 
  413000   0.62534118   -8.2488449    69.687116  0.014061161  0.013329471            2 
  414000   0.62237374    -8.244246    69.602164  0.014010097  0.013286309            4 
  415000   0.60447628   -8.2519874    69.627869    0.0139815  0.013243278            4 
  416000   0.60959348   -8.2390294     69.66365  0.013955058  0.013200382            6 
  417000   0.60104441   -8.2616637    69.721998  0.013933253   0.01315764            3 
  418000    0.5917345   -8.2671102    69.574247  0.013870464   0.01311499            4 
  419000   0.60564903   -8.2766789    69.664542  0.013855319  0.013072394            4 
  420000   0.59171853   -8.2682623    69.698495  0.013829067  0.013029992            5 
  421000   0.59557747   -8.2578243     69.64691  0.013786007  0.012987732            2 
  422000   0.60699034   -8.2762514    69.566973  0.013737554  0.012945585            2 
  423000   0.59913711   -8.2863484    69.681434  0.013727627  0.012903624            2 
  424000      0.58225    -8.284594    69.615545  0.013682301  0.012861791            4 
  425000   0.57945499   -8.3009514    69.646374  0.013656152  0.012820156            3 
  426000   0.58243992   -8.2962363    69.512171  0.013597842  0.012778538            3 
  427000   0.58758842   -8.2777823    69.599901  0.013583119  0.012737006            2 
  428000   0.57895631   -8.2833097    69.642809  0.013559737  0.012695666            3 
  429000   0.58700473   -8.2988581    69.660585  0.013531582  0.012654566            1 
  430000   0.57365912    -8.308901    69.573168  0.013483172  0.012613543            3 
  431000   0.58420597   -8.3004635    69.678655  0.013472284  0.012572687            2 
  432000   0.57686832   -8.3021668    69.532581  0.013412921   0.01253199            3 
  433000   0.58286179   -8.3226693     69.54168  0.013383695  0.012491365            7 
  434000   0.57741544   -8.3235517    69.644916   0.01337268  0.012450864            1 
  435000   0.58734463   -8.3261591    69.524765   0.01331892  0.012410539            2 
  436000   0.55641053   -8.3182524    69.421466  0.013268629  0.012370338            1 
  437000   0.57985593    -8.326359    69.593638  0.013271098  0.012330274            2 
  438000   0.57292164   -8.3076787    69.375103  0.013199221  0.012290277            2 
  439000   0.57952023    -8.329726    69.578169  0.013207701  0.012250507            2 
  440000   0.55792047   -8.3439556    69.528822  0.013168338  0.012210781            1 
  441000   0.57235369   -8.3483189    69.388904  0.013112038  0.012171173            3 
  442000   0.56399003   -8.3281552    69.465293  0.013096775  0.012131676            2 
  443000   0.55374519   -8.3321598    69.401042  0.013055124  0.012092316            1 
  444000   0.56979855   -8.3395546    69.388614  0.013023388  0.012053128            1 
  445000   0.55363015   -8.3520469    69.371763  0.012990967  0.012014023            2 
  446000   0.55420967    -8.354223    69.316815  0.012951572  0.011974899            1 
  447000   0.54537284   -8.3487203    69.416296  0.012941144  0.011936008            2 
  448000    0.5520536   -8.3573942    69.526374  0.012932733  0.011897277            2 
  449000   0.54857569   -8.3626081    69.518505  0.012902469  0.011858777            3 
  450000   0.55093797   -8.3612288    69.449585  0.012861034  0.011820541            2 
  451000   0.53293035   -8.3654187    69.361976   0.01281633  0.011782301            2 
  452000   0.54632138   -8.3501671     69.37434  0.012790254  0.011744207            2 
  453000   0.55069262   -8.3716906    69.360134  0.012759406  0.011706231            3 
  454000   0.53311736    -8.378911    69.446129  0.012747087   0.01166839            3 
  455000   0.54400028   -8.3845302    69.356093  0.012702581  0.011630551            1 
  456000   0.53284275   -8.3681954     69.31395  0.012667023  0.011592934            3 
  457000   0.53704805   -8.3825081    69.179124   0.01261472  0.011555409            3 
  458000   0.54503667   -8.3802632    69.283651  0.012606196  0.011517959            4 
  459000   0.52224002   -8.3820848    69.283508  0.012578705  0.011480676            3 
  460000   0.53053044   -8.3966483    69.202352  0.012536658  0.011443544            2 
  461000   0.53795242   -8.4089695    69.364007  0.012538685  0.011406528            3 
  462000   0.53327338   -8.3921402    69.354387   0.01250981  0.011369703            4 
  463000   0.53309461   -8.3989632    69.411028  0.012492986  0.011333074            6 
  464000   0.52239312   -8.3965916     69.41416  0.012466624  0.011296624            5 
  465000   0.51996752       -8.413    69.183303  0.012398441  0.011260201            3 
  466000   0.52195071   -8.3989026    69.239219  0.012381835  0.011223927            2 
  467000   0.51751706   -8.4005099    69.222333  0.012352308  0.011187781            6 
  468000    0.5276188   -8.4040158     69.26029  0.012332673  0.011151817            4 
  469000   0.51484925   -8.4160327    69.237105  0.012302257  0.011115884            4 
  470000   0.51748535   -8.4264382    69.163031  0.012262949  0.011080112            5 
  471000    0.5194229   -8.4328668    69.196238  0.012242788  0.011044418            4 
  472000   0.49346876   -8.4179201      69.1709  0.012212376  0.011008912            9 
  473000   0.51912462   -8.4269573    69.137321  0.012180641  0.010973529            4 
  474000   0.49645756   -8.4270428    69.017781  0.012133928  0.010938196            8 
  475000   0.51333198   -8.4378622     69.25763  0.012150461  0.010903012            6 
  476000   0.50941044   -8.4526823    69.200729  0.012114974  0.010868039            4 
  477000   0.50694112   -8.4527973    69.129333  0.012077102  0.010833221            4 
  478000   0.50807445   -8.4299508    69.062715  0.012040222  0.010798493            6 
  479000   0.51569304   -8.4498633    69.203166  0.012039521  0.010763932            4 
  480000   0.50180511   -8.4333856    69.171308  0.012008908  0.010729498            3 
  481000   0.50578638   -8.4431658    69.069347  0.011966276  0.010695162            7 
  482000   0.50100005   -8.4417713    69.159239  0.011956992   0.01066095            2 
  483000   0.49585334   -8.4363864    69.085529  0.011919518  0.010626877            3 
  484000   0.48994914   -8.4353598    69.145978  0.011905299  0.010592954            2 
  485000   0.48253023   -8.4738312    69.126422  0.011877392  0.010559197            4 
  486000   0.49772147   -8.4583606    69.008609  0.011832752  0.010525594            4 
  487000   0.48491221   -8.4738131    69.081886  0.011820994    0.0104921            2 
  488000   0.48364379   -8.4691863     69.20606  0.011817975  0.010458752            5 
  489000   0.48667091   -8.4566735    69.038198  0.011765201  0.010425503            4 
  490000   0.48071447   -8.4710249    69.121256  0.011755316  0.010392446            6 
  491000   0.49035332    -8.491454    69.101769  0.011728067  0.010359562            6 
  492000   0.47579694   -8.4854937    69.107403  0.011705183  0.010326703            4 
  493000   0.47554582   -8.4728757    69.061295  0.011673647  0.010293956            5 
  494000   0.48508534   -8.4775825    69.077973  0.011652829  0.010261376            5 
  495000   0.46650606   -8.4919569    69.246492  0.011657659  0.010228911            7 
  496000   0.47139392   -8.4891001    69.059875  0.011602802  0.010196578           10 
  497000   0.47340573   -8.4975421    69.125627  0.011590481  0.010164353            3 
  498000   0.48469598   -8.4939638    69.165382  0.011573859  0.010132253            6 
  499000     0.469162   -8.4929442    68.997219  0.011522582   0.01010021            4 
  500000   0.46782542   -8.4980664    69.044126  0.011507354  0.010068316            3 
  501000   0.45605302   -8.4903155    68.946603  0.011468164  0.010036546            2 
  502000   0.46724131   -8.5024346    68.989799   0.01145249  0.010004838            3 
  503000    0.4649587   -8.5159758    69.012116  0.011433419 0.0099732852            3 
  504000   0.46438678   -8.4911047    68.974523  0.011404518 0.0099418784            1 
  505000   0.46546545   -8.5177954    69.001786  0.011386433 0.0099105659            2 
  506000   0.45358322   -8.4926505    68.972213   0.01135906 0.0098794521            3 
  507000   0.46186386   -8.4981719    68.946107  0.011332365 0.0098484709            4 
  508000   0.44409206   -8.4996259    68.942301  0.011309433 0.0098175444            2 
  509000   0.45409064   -8.5094206    68.906272  0.011281315 0.0097867657            3 
  510000   0.45711949   -8.5112615    68.948399  0.011266078 0.0097561186            3 
  511000   0.45074087    -8.525923    68.926329  0.011240432 0.0097255891            5 
  512000   0.44917149   -8.5242826    68.878701  0.011210726 0.0096952036            3 
Loop time of 1184.92 on 48 procs for 500000 steps with 4000 atoms

Performance: 72916.416 tau/day, 421.970 timesteps/s
99.4% CPU use with 48 MPI tasks x no OpenMP threads

MPI task timing breakdown:
Section |  min time  |  avg time  |  max time  |%varavg| %total
---------------------------------------------------------------
Pair    | 72.986     | 78.167     | 83.117     |  24.1 |  6.60
Neigh   | 7.7398     | 8.0596     | 8.4447     |   6.3 |  0.68
Comm    | 77.667     | 81.742     | 88.381     |  26.5 |  6.90
Output  | 0.82403    | 0.82456    | 0.83485    |   0.2 |  0.07
Modify  | 1002.3     | 1004.9     | 1007.9     |   4.5 | 84.81
Other   |            | 11.22      |            |       |  0.95

Nlocal:        83.3333 ave          90 max          78 min
Histogram: 5 4 4 5 9 10 5 2 2 2
Nghost:        2023.21 ave        2051 max        2001 min
Histogram: 5 1 10 5 8 5 4 5 2 3
Neighs:        13012.8 ave       14367 max       11915 min
Histogram: 5 1 8 8 4 11 4 3 1 3
FullNghs:      26024.9 ave       28435 max       24104 min
Histogram: 4 3 4 12 6 5 9 2 1 2

Total # of neighbors = 1249195
Ave neighs/atom = 312.29875
Neighbor list builds = 26799
Dangerous builds = 0

#clear
#
#next RN
#
#jump SELF
Total wall time: 0:19:48
