
units lj                  # Use reduced LJ style units
atom_style atomic         # Uncharged point particles
atom_modify map hash      # Needed for indexing of clusters etc
                          # Used to be able to find where atoms are in relation to each other.

lattice fcc 1.0 spacing 1 1 1
Lattice spacing in x,y,z = 1.5874011 1.5874011 1.5874011
region box block 0 10 0 10 0 10 units lattice
create_box 2 box
Created orthogonal box = (0.0000000 0.0000000 0.0000000) to (15.874011 15.874011 15.874011)
  3 by 4 by 4 MPI processor grid
create_atoms 1 box
Created 4000 atoms
  using lattice units in orthogonal box = (0.0000000 0.0000000 0.0000000) to (15.874011 15.874011 15.874011)
  create_atoms CPU = 0.003 seconds
set type 1 type/fraction 2 0.15 78393
Setting atom values ...
  634 settings made for type/fraction
mass 1 1.0
mass 2 1.0
pair_style lj/cut  3.5
pair_modify tail  yes
pair_coeff 1  1  1.0  1.0   # Intearaction between 1 and 1 set with epsilon = 1 and sigma = 1
pair_coeff 1  2  1.5  0.8
pair_coeff 2  2  0.5  0.88

write_data data.0
System init for write_data ...
Neighbor list info ...
  update every 1 steps, delay 10 steps, check yes
  max neighbors/atom: 2000, page size: 100000
  master list distance cutoff = 3.8
  ghost atom cutoff = 3.8
  binsize = 1.9, bins = 9 9 9
  1 neighbor lists, perpetual/occasional/extra = 1 0 0
  (1) pair lj/cut, perpetual
      attributes: half, newton on
      pair build: half/bin/atomonly/newton
      stencil: half/bin/3d
      bin: standard
WARNING: Not all mixed pair coeffs generated from mixing. Use write_data with 'pair ij' option to store all pair coeffs. (../write_data.cpp:312)


#############################
#   M E L T   S Y S T E M   #
#############################

velocity all create 2.4 9580093 mom yes dist gaussian # Assign velocities
                                                    # Temperature 2.4, random number seed, zero linear momentum
                                                                                # Gaussian distribution

timestep 0.002   # simulation timestep
thermo 1000       # output thermodynamic data every 1000 steps bf 100

# Define a fix  in this case with index 1 applied to all
# particles in the simulation. This fix is for simulations
# in the anisotropic NPT ensemble. Note that we use the MTK
# correction.
fix 1 all npt temp 2.4 2.4 0.1 iso 5.68 5.68 0.5 mtk yes tchain 5 pchain 5 # Use NPT ensemble
                                                                         # Set temperature and pressure and damping
                                                                         # Numbers of thermostats in chain and in barostat
run 10000          # run for 10000 steps
Per MPI rank memory allocation (min/avg/max) = 3.642 | 3.644 | 3.648 Mbytes
Step Temp E_pair E_mol TotEng Press Volume 
       0          2.4   -7.3553801            0   -3.7562801   -3.3553213         4000 
    1000    2.4160154   -4.7380778            0   -1.1149607    5.7067646    4636.2171 
    2000    2.3898727   -4.6372829            0   -1.0533701    5.9641669    4660.8351 
    3000    2.4475035   -4.7068753            0   -1.0365379    5.8521344     4644.447 
    4000     2.390753   -4.7500369            0   -1.1648039    5.4703128     4660.783 
    5000    2.4885061   -4.7803661            0   -1.0485401    5.6350271    4631.3466 
    6000    2.3924533   -4.7125979            0   -1.1248151    5.4198854    4692.6336 
    7000    2.3931834   -4.6937631            0   -1.1048855    5.8544937    4650.7651 
    8000    2.3575041   -4.7528975            0   -1.2175254    5.5234762    4646.5824 
    9000    2.4156351   -4.7549647            0   -1.1324178    5.4394073    4656.9517 
   10000    2.4293953   -4.7525031            0   -1.1093212    5.6256323    4637.3168 
Loop time of 2.20057 on 48 procs for 10000 steps with 4000 atoms

Performance: 785252.426 tau/day, 4544.285 timesteps/s
99.7% CPU use with 48 MPI tasks x no OpenMP threads

MPI task timing breakdown:
Section |  min time  |  avg time  |  max time  |%varavg| %total
---------------------------------------------------------------
Pair    | 0.93034    | 0.99367    | 1.0525     |   2.8 | 45.15
Neigh   | 0.19388    | 0.20126    | 0.21514    |   1.0 |  9.15
Comm    | 0.70088    | 0.76105    | 0.83516    |   3.5 | 34.58
Output  | 0.00023503 | 0.00024037 | 0.00030123 |   0.0 |  0.01
Modify  | 0.2048     | 0.23008    | 0.26749    |   3.2 | 10.46
Other   |            | 0.01427    |            |       |  0.65

Nlocal:        83.3333 ave          92 max          75 min
Histogram: 2 3 7 6 9 8 3 4 2 4
Nghost:        1485.67 ave        1511 max        1468 min
Histogram: 4 8 9 2 6 8 4 4 2 1
Neighs:        8225.77 ave        9446 max        7070 min
Histogram: 2 3 5 9 8 7 6 3 3 2

Total # of neighbors = 394837
Ave neighs/atom = 98.709250
Neighbor list builds = 910
Dangerous builds = 230

# Equilibrate just above the melting temperature to avoid step fn in T

fix 1 all npt temp 1.25 1.25 0.1 iso 5.68 5.68 0.5 mtk yes tchain 5 pchain 5
run 2000
Per MPI rank memory allocation (min/avg/max) = 3.642 | 3.644 | 3.648 Mbytes
Step Temp E_pair E_mol TotEng Press Volume 
   10000    2.4293953   -4.7525031            0   -1.1093212    5.6256323    4637.3168 
   11000    1.2362361   -6.3891528            0   -4.5352623    5.5711103    3816.7597 
   12000    1.2663212   -6.4083231            0   -4.5093162    5.6650085    3801.9292 
Loop time of 0.475802 on 48 procs for 2000 steps with 4000 atoms

Performance: 726352.086 tau/day, 4203.426 timesteps/s
99.7% CPU use with 48 MPI tasks x no OpenMP threads

MPI task timing breakdown:
Section |  min time  |  avg time  |  max time  |%varavg| %total
---------------------------------------------------------------
Pair    | 0.20558    | 0.23138    | 0.25303    |   1.9 | 48.63
Neigh   | 0.03165    | 0.033358   | 0.036465   |   0.6 |  7.01
Comm    | 0.1386     | 0.16018    | 0.18782    |   2.3 | 33.66
Output  | 4.7974e-05 | 4.9589e-05 | 6.1619e-05 |   0.0 |  0.01
Modify  | 0.040075   | 0.046527   | 0.054223   |   1.5 |  9.78
Other   |            | 0.00431    |            |       |  0.91

Nlocal:        83.3333 ave          91 max          75 min
Histogram: 2 2 1 9 5 12 8 2 5 2
Nghost:        1701.10 ave        1721 max        1677 min
Histogram: 3 0 1 5 9 11 9 5 3 2
Neighs:        10053.8 ave       11297 max        8689 min
Histogram: 1 1 5 8 11 6 5 5 3 3

Total # of neighbors = 482582
Ave neighs/atom = 120.64550
Neighbor list builds = 142
Dangerous builds = 9

#############################
# L I N E A R  Q U E N C H  #
#############################

# Define solid atoms. This closely follows ten Wolde  Ruiz-Montero and Frenkel  Faraday Discuss  1996  104  93-110
# Compute components of the per-atom q6 vector
compute q6 all orientorder/atom degrees 1 6 components 6 nnn NULL cutoff 1.3 # compute the Q6 parameter.
                                                                             # Use all neighbours within 1.3 unit cell.

# get number of connections
compute coord_number all coord/atom orientorder q6 0.5

# An atom is solid if it has 8 or more connections (of a possible 14)
variable is_solid atom c_coord_number>=8
group solid dynamic all var is_solid    # Must be dynamic to update
dynamic group solid defined

# do clustering
compute cluster solid cluster/atom 1.3 # Create a cluster where all atoms within are solid and max 1.3 units from another member

# define chunks one chunk per cluster
compute clus_chunks solid chunk/atom c_cluster nchunk every compress yes  # Says which atoms are in which chunk

# count the size of each chunk
compute size_chunks solid property/chunk clus_chunks count


# Find the maximum entry in the vector of chunk sizes
variable max_n equal max(c_size_chunks)


# Thermo style which includes this variable
# thermo_style custom step temp pe vol v_max_n

thermo ${N}  # Print the thermo information every 100 steps
thermo 1000  

# Reset the npt fix at a lower temperature (below freezing)
fix 1  all npt temp  ${temp} ${temp}  0.1  iso  5.68  5.68  0.5  mtk yes tchain  5  pchain  5
fix 1  all npt temp  0.45 ${temp}  0.1  iso  5.68  5.68  0.5  mtk yes tchain  5  pchain  5
fix 1  all npt temp  0.45 0.45  0.1  iso  5.68  5.68  0.5  mtk yes tchain  5  pchain  5

dump dmp2 all dcd ${N} traj.dcd
dump dmp2 all dcd 1000 traj.dcd


compute msd all msd com yes
variable twopoint equal c_msd[4]/6/(step*dt+1.0e-6)
fix 9 all vector 10 c_msd[4]
variable fit equal slope(f_9)/6/(10*dt)
thermo_style custom step temp pe c_msd[4] v_twopoint v_fit v_max_n

fix 1 all npt temp 1.25 ${temp} 0.1 iso 5.68 5.68 0.5 mtk yes tchain 5 pchain 5
fix 1 all npt temp 1.25 0.45 0.1 iso 5.68 5.68 0.5 mtk yes tchain 5 pchain 5
run 2000000 # 5000000  # Run for this many steps
Neighbor list info ...
  update every 1 steps, delay 10 steps, check yes
  max neighbors/atom: 2000, page size: 100000
  master list distance cutoff = 3.8
  ghost atom cutoff = 3.8
  binsize = 1.9, bins = 9 9 9
  4 neighbor lists, perpetual/occasional/extra = 1 3 0
  (1) pair lj/cut, perpetual
      attributes: half, newton on
      pair build: half/bin/atomonly/newton
      stencil: half/bin/3d
      bin: standard
  (2) compute orientorder/atom, occasional
      attributes: full, newton on
      pair build: full/bin/atomonly
      stencil: full/bin/3d
      bin: standard
  (3) compute coord/atom, occasional
      attributes: full, newton on
      pair build: full/bin/atomonly
      stencil: full/bin/3d
      bin: standard
  (4) compute cluster/atom, occasional
      attributes: full, newton on
      pair build: full/bin/atomonly
      stencil: full/bin/3d
      bin: standard
Per MPI rank memory allocation (min/avg/max) = 9.761 | 9.768 | 9.774 Mbytes
Step Temp PotEng c_msd[4] v_twopoint v_fit v_max_n 
   12000    1.2663212   -6.4083231 2.9840636e-30 2.0722663e-32 8.3333333e+20            5 
   13000    1.2421541   -6.4260549   0.53155887 0.0034074286  0.043598347            3 
   14000    1.2593797   -6.3993737    1.0734414 0.0063895321  0.043856745            2 
   15000    1.2617138   -6.4083477    1.5767675 0.0087598194  0.043201533            2 
   16000    1.2530086   -6.4033513    2.1299047  0.011093253   0.04364349            2 
   17000      1.23799   -6.3914718    2.6119104  0.012803482  0.043584821            2 
   18000    1.2324374   -6.4138153    3.1488864  0.014578177   0.04347882            1 
   19000    1.2228266   -6.3860358    3.6861421  0.016167289  0.043561265            2 
   20000    1.2478233   -6.3939255    4.1562053  0.017317522  0.043439001            1 
   21000    1.2324518   -6.3847106    4.7159867  0.018714233  0.043404583            2 
   22000    1.2472857   -6.3727255     5.223478  0.019785901  0.043399736            2 
   23000     1.235526   -6.4176988    5.7421784  0.020804994  0.043376381            2 
   24000     1.249541    -6.359292    6.1309073  0.021287872   0.04313326            2 
   25000    1.2357677   -6.4176029    6.5565642  0.021855214  0.042685978            2 
   26000     1.266144   -6.3899151    7.0729782  0.022669801  0.042296171            2 
   27000     1.261848   -6.3481496    7.5031396  0.023157838   0.04202415            4 
   28000    1.2457077   -6.3940231    8.0080497  0.023833481  0.041717767            2 
   29000      1.20407   -6.3934906    8.5030332  0.024434003  0.041528743            2 
   30000    1.2668606   -6.3948319    9.0656177  0.025182271  0.041425394            2 
   31000    1.2546386   -6.4362518    9.4649169  0.025443325  0.041357719            2 
   32000    1.2584769    -6.409649    9.9590867  0.025935121  0.041261629            1 
   33000    1.2440732   -6.4446865    10.369638  0.026185955  0.041137379            1 
   34000    1.2365173   -6.3989104    10.881001  0.026669119  0.041030252            3 
   35000    1.2298143    -6.390897    11.545204   0.02748858   0.04100155            4 
   36000    1.2210204   -6.4173206     12.16016  0.028148519  0.041143393            5 
   37000    1.2526498   -6.4225342    12.642959  0.028475133  0.041287684            2 
   38000    1.2433494   -6.4242319    13.255366  0.029068785  0.041429523            2 
   39000    1.2382944   -6.4062505    13.954183  0.029816631  0.041621339            1 
   40000    1.2432142   -6.4070381    14.412069  0.030025143  0.041850822            3 
   41000    1.2516244   -6.4185537    14.867841  0.030219188  0.041993886            2 
   42000    1.2281657   -6.4151328    15.531585  0.030816636  0.042164789            2 
   43000     1.280833   -6.3980334    16.018938  0.031044452  0.042339133            2 
   44000    1.2328482   -6.3905144    16.385208  0.031032591  0.042423973            1 
   45000    1.2556565   -6.4218127    16.928185   0.03134849  0.042485874            3 
   46000    1.2175301   -6.4025618    17.500554  0.031703902   0.04255168            2 
   47000    1.2142726   -6.3717989    18.259644  0.032375254  0.042644723            3 
   48000    1.2307956   -6.4083868     18.57984  0.032256666   0.04271806            1 
   49000    1.2074066   -6.3839626    18.988948  0.032294129   0.04276675            2 
   50000    1.2375161   -6.4513653    19.573261  0.032622101  0.042804505            3 
   51000    1.2541385   -6.4256329    20.048795  0.032759469  0.042850221            1 
   52000    1.2059174   -6.3758305     20.57638  0.032974968  0.042879751            5 
   53000    1.2510569   -6.3538191     21.02966  0.033065502  0.042885007            2 
   54000    1.2124788   -6.4211997    21.458911  0.033115604  0.042867836       -1e+20 
   55000    1.2359208   -6.4161487    21.833225  0.033080644  0.042813203            2 
   56000    1.2315787   -6.4531512    22.394185   0.03332468  0.042771023            3 
   57000    1.2010265   -6.4061324    23.240171  0.033976859  0.042773129            2 
   58000    1.2143761   -6.4009919    23.583861  0.033884858  0.042798033            1 
   59000    1.2641324    -6.461656    23.972226  0.033859076  0.042788203            2 
   60000    1.2474499   -6.3901952    24.543177  0.034087746  0.042773446            3 
   61000    1.2267863     -6.43931    24.994853  0.034145973   0.04276119            2 
   62000     1.251236   -6.4307096    25.638828   0.03446079  0.042748448            2 
   63000    1.2370094    -6.433129    26.192895  0.034646687  0.042756046            3 
   64000    1.2279483   -6.3836331    26.820992  0.034923166  0.042777225            1 
   65000    1.2395028      -6.4019    27.248151  0.034933526   0.04278929            2 
   66000    1.2470519   -6.4349445    27.785835  0.035083124  0.042791561            2 
   67000    1.2114537   -6.4536011    28.223523  0.035103884  0.042802709            3 
   68000    1.2173838    -6.417799    28.722607  0.035199273  0.042795708            2 
   69000    1.2288761   -6.4314487    29.055493  0.035091174   0.04279022            3 
   70000    1.2265201   -6.4153254     29.67492  0.035327285  0.042781397            2 
   71000    1.2226493   -6.4392099    30.041494  0.035259969  0.042764076            3 
   72000    1.2274848    -6.457739    30.633831  0.035455823  0.042743976            2 
   73000    1.2319595   -6.4179575    31.075356  0.035474151  0.042719115            3 
   74000     1.210847   -6.4082088    31.771395  0.035778597    0.0427002            2 
   75000    1.2436969   -6.4641975    31.960851  0.035512056  0.042690923            1 
   76000    1.2313931   -6.4222144    32.538068  0.035677706  0.042665894            2 
   77000     1.213091   -6.4390233    32.887395  0.035592418  0.042631039            2 
   78000    1.2255616   -6.4341139    33.397612   0.03568121  0.042591537            3 
   79000    1.2152465   -6.4379772    33.808104  0.035662557  0.042547311            2 
   80000    1.2334439   -6.4627907    34.004992  0.035421867   0.04248918            1 
   81000    1.2213582   -6.4708088     34.59767   0.03559431  0.042421011            1 
   82000    1.2158011   -6.4263717    35.386438  0.035961827   0.04236907            2 
   83000    1.2229571   -6.4571485    35.712377    0.0358558  0.042329086            1 
   84000    1.1894285   -6.4700788    36.302569  0.036014454  0.042298285            2 
   85000    1.2208038   -6.3866273    37.092923   0.03636561  0.042279666            1 
   86000    1.2215233   -6.4582274    37.299997  0.036143408  0.042259067            3 
   87000    1.2229271   -6.4361094    37.943828  0.036344663  0.042237836            2 
   88000    1.2243928   -6.4777756    38.309918  0.036278332  0.042219136            1 
   89000    1.2170226   -6.4300989    38.875986  0.036400736   0.04220088            1 
   90000    1.2118994   -6.4745425    39.283079  0.036373221   0.04217432            2 
   91000     1.193551   -6.4860627    39.658487  0.036317296  0.042149185            4 
   92000    1.2114508   -6.4807635    40.151852  0.036369431  0.042116813            1 
   93000    1.2131838   -6.4411678    40.777132  0.036538648  0.042087584            2 
   94000    1.2237831   -6.5004181    41.109658  0.036444732  0.042073399            3 
   95000    1.2388965   -6.4397312    41.707201  0.036585264  0.042053089            3 
   96000    1.2195048   -6.5223011    42.211397  0.036641837  0.042032283            2 
   97000     1.249217   -6.4397818    42.710221   0.03669263  0.042015641            2 
   98000    1.2109433   -6.4758644    43.234584  0.036764102  0.041994486            3 
   99000    1.2065981   -6.4659954    43.745068  0.036822447  0.041967072            2 
  100000    1.2065761   -6.4017191    44.205492   0.03683791  0.041940103            1 
  101000    1.1995844   -6.4641431    44.609299  0.036806353   0.04191314            3 
  102000    1.2416683   -6.4437992    44.796876  0.036598755  0.041880787            2 
  103000    1.2157588   -6.4511986    45.450548  0.036772288  0.041839716            2 
  104000    1.1960757   -6.4501902    45.699021  0.036617805  0.041798222            2 
  105000    1.2286098    -6.466735    45.975616  0.036488584   0.04174889            1 
  106000    1.2191334   -6.4640462    46.285325  0.036387834  0.041692835            3 
  107000    1.2145531    -6.446761    46.649554  0.036331429   0.04163805            3 
  108000    1.2129669   -6.4817264    47.286176  0.036486247  0.041579697            2 
  109000    1.2050569   -6.4301387     47.63664  0.036419449  0.041522761            2 
  110000    1.1930144   -6.4089797     48.08183  0.036425629  0.041467597            1 
  111000    1.2015489   -6.4882938    48.339759   0.03629111   0.04140984            2 
  112000     1.197205   -6.4085772    49.058268  0.036501688  0.041352582            4 
  113000    1.1998825   -6.4710115    49.477133  0.036487561   0.04129526            2 
  114000    1.2099882   -6.4619235    49.738755  0.036358739  0.041242171            3 
  115000    1.2105217   -6.4515916    50.232446  0.036400323   0.04118513            2 
  116000    1.1945977   -6.4536445    50.736986  0.036448984  0.041133084            2 
  117000    1.2353568   -6.5094679    51.113558  0.036405668  0.041086028            4 
  118000    1.1958022   -6.4806674    51.661705  0.036484255  0.041041042            2 
  119000    1.2102046    -6.469304    52.274583   0.03660685  0.040996474            5 
  120000    1.2335496   -6.4651017    52.758007  0.036637505  0.040954424            3 
  121000    1.2172872   -6.4141708    53.494195  0.036841732  0.040915481            2 
  122000    1.1804341   -6.4717796    53.647064  0.036644169  0.040880886            3 
  123000     1.211017   -6.4569784    54.370518  0.036836394  0.040848591            3 
  124000    1.2482439   -6.4578394    54.780594  0.036814915  0.040813708            1 
  125000    1.2195825   -6.4186777    55.389434  0.036926289  0.040786749            3 
  126000     1.197735   -6.4569567    55.336646   0.03659831   0.04075604            5 
  127000    1.1740797   -6.4606582    56.041846  0.036772865  0.040721364            1 
  128000    1.2142373   -6.4663634     56.64274  0.036876784   0.04069067            2 
  129000    1.2037225   -6.4786031    57.130386  0.036905934  0.040661226            2 
  130000    1.1837231   -6.5148323    57.573587  0.036906145    0.0406374            2 
  131000    1.1980426   -6.4529246    58.007909  0.036900705  0.040612704            1 
  132000    1.1870014   -6.4863298    58.514521  0.036940986  0.040588173            2 
  133000     1.235864   -6.4908305    58.952869  0.036937888  0.040563417            4 
  134000    1.2216994   -6.5031415    59.252189  0.036848376   0.04053783            3 
  135000    1.2017076   -6.4626995    59.809156  0.036919232   0.04051602            3 
  136000    1.2157834   -6.4547538    60.264385  0.036926706  0.040494237            3 
  137000    1.1879668   -6.4543553    60.957733  0.037078913  0.040473351            1 
  138000    1.1706274   -6.5178434    61.340033  0.037041083  0.040454602            2 
  139000    1.1847304   -6.5155692    61.979107  0.037157738  0.040436733            1 
  140000     1.207965   -6.5030615     62.22781  0.037040363  0.040422895            3 
  141000    1.2178794   -6.4714994    63.076895  0.037279489  0.040403393            1 
  142000    1.2077375   -6.4601914    63.187165   0.03708167  0.040387968            2 
  143000    1.1891377   -6.5188285    63.804921  0.037182355  0.040375507            8 
  144000    1.1988632   -6.4838057    64.385572  0.037260169   0.04036492            2 
  145000    1.1966255   -6.4843741    64.618064  0.037136818  0.040350629            3 
  146000    1.2237499    -6.490056    65.344995  0.037297371  0.040337515            5 
  147000    1.2011168   -6.4545296    65.653054  0.037218284  0.040323633            2 
  148000    1.2022928   -6.4642699    66.244763  0.037299979  0.040312133            3 
  149000    1.2073851   -6.4832885     66.35781  0.037112869  0.040297183            3 
  150000    1.1942978   -6.5016302    66.999951  0.037222195  0.040279224            2 
  151000    1.1746881   -6.5343127    67.256565  0.037117309  0.040260746            2 
  152000    1.2013723   -6.5106593    67.622267  0.037073611  0.040238154            3 
  153000    1.2266326   -6.4870622    68.380634  0.037244354  0.040218447            4 
  154000    1.1832588   -6.5188183    68.619339  0.037131677  0.040196857            4 
  155000    1.1691167   -6.5104515    68.696244  0.036933465  0.040172614            2 
  156000    1.2069122   -6.4600424    69.236514  0.036985317  0.040146295            5 
  157000    1.1993113   -6.5112641    69.894678  0.037099086   0.04012013            1 
  158000    1.1765436   -6.4456948    70.536541  0.037202817  0.040093766            2 
  159000    1.1831852   -6.5155943    70.545521  0.036973543  0.040066326            2 
  160000    1.1856085   -6.4939486    70.896675  0.036925351   0.04003801            2 
  161000    1.2029934   -6.4933766    71.480612  0.036998246  0.040009017            4 
  162000     1.184879   -6.5350881    71.992676  0.037033269  0.039984395            3 
  163000    1.1898102   -6.5176272    72.076988  0.036849176  0.039956968            2 
  164000    1.1902783    -6.493784    72.296563  0.036736058   0.03992437            5 
  165000    1.2137187   -6.5132455    72.708053  0.036721239  0.039894592            2 
  166000    1.1768745   -6.4742908    73.520902  0.036908083  0.039865356            3 
  167000    1.1645422   -6.4852452     74.00387  0.036928079  0.039836818            3 
  168000    1.1837798   -6.4870776    74.278583  0.036844535  0.039807759            1 
  169000    1.1826982   -6.5013257    74.976408  0.036970616  0.039779623            2 
  170000    1.1644171   -6.5002959    75.037203  0.036782943  0.039750689            2 
  171000    1.1795877   -6.5080785    75.618272   0.03685101  0.039721323            2 
  172000    1.2039008   -6.5541785    75.891736  0.036769252  0.039692124            2 
  173000    1.1800674   -6.5240321    76.742385  0.036966467  0.039667372            2 
  174000      1.20611   -6.4857404    77.332434  0.037036606  0.039644515            2 
  175000    1.1890775   -6.5187317    77.796904  0.037046144  0.039624098            1 
  176000    1.1782252     -6.51469    78.315266  0.037081092   0.03960611            1 
  177000    1.1674196   -6.5156313    78.890501   0.03714242  0.039587578            3 
  178000    1.1910069   -6.4799728    79.392175  0.037168621  0.039570912            2 
  179000    1.1580645   -6.5261092     79.58237   0.03704952  0.039551935            1 
  180000    1.1617429    -6.495107    80.078446  0.037073355  0.039534735            2 
  181000    1.1849617   -6.5204431    80.636675  0.037125541  0.039515491            2 
  182000    1.1935367   -6.5548525    80.685448  0.036943887  0.039496806            4 
  183000    1.1798607   -6.5179391    81.083552  0.036923293  0.039477063            2 
  184000    1.1749513   -6.5395233    81.819284  0.037055835  0.039458194            4 
  185000     1.192197   -6.4984088    82.260195  0.037054142  0.039438509            3 
  186000    1.1626848   -6.5111599    82.547308  0.036983561  0.039418288            2 
  187000    1.1776664   -6.4878351    83.074752  0.037020834  0.039396843            2 
  188000    1.1877564     -6.50839    83.347979  0.036945026  0.039374879            3 
  189000    1.1916184   -6.5710269     83.28838  0.036723271  0.039349933            4 
  190000    1.1863627   -6.4818702    84.284371  0.036966829  0.039328647            2 
  191000    1.1575026   -6.5599857    84.784783  0.036991616  0.039306783            4 
  192000    1.1876574   -6.4877348    84.922772  0.036858842  0.039282571            3 
  193000    1.1512146   -6.5133376    85.053906  0.036724484  0.039256504            2 
  194000    1.1718785   -6.5564998    85.663996  0.036797249  0.039231658            2 
  195000     1.173805   -6.5337785    85.966213  0.036737698  0.039206594            5 
  196000    1.1760464   -6.5133054    87.055922  0.037013572  0.039186129            2 
  197000    1.1493552    -6.548736    87.224383  0.036896947  0.039165018            2 
  198000    1.1876661   -6.5154168    87.499055  0.036826201  0.039143429            1 
  199000    1.1695563   -6.5403691    87.987355  0.036845626  0.039124341            2 
  200000    1.1668773     -6.55543    88.550991  0.036896246   0.03910363            1 
  201000    1.1505488   -6.5080506    89.055212   0.03692173   0.03908208            3 
  202000    1.1879741   -6.5374548    89.474805  0.036912048  0.039064728            3 
  203000    1.1605608   -6.5257593    90.006319  0.036948407   0.03905038            2 
  204000    1.1917188    -6.508601    90.849525  0.037111734  0.039036246            2 
  205000    1.1544826    -6.524097     91.24667  0.037092142  0.039023181            2 
  206000    1.1644591   -6.5032954    91.653575  0.037076689   0.03900956            2 
  207000    1.1470799   -6.5532881    92.147336  0.037096351  0.038996869            3 
  208000    1.1767445   -6.5506944     92.52292  0.037068477  0.038984235            1 
  209000    1.1928568   -6.5356832    92.746284  0.036980177  0.038970955            3 
  210000    1.1385596   -6.5313197    93.307464  0.037026771   0.03895855            2 
  211000    1.1762379   -6.5179466    94.102835  0.037165417  0.038948196            2 
  212000     1.159554   -6.5132563    94.683982  0.037218546  0.038937887            2 
  213000     1.167992   -6.5543892    94.850973  0.037109144  0.038924761            3 
  214000      1.16833   -6.5491521    95.309308  0.037114216  0.038914825            1 
  215000    1.1673167   -6.5598578    95.633388  0.037067205  0.038904472            3 
  216000    1.1925486   -6.5662387     95.99076  0.037033472  0.038893692            3 
  217000    1.1898393   -6.5391294    96.724796  0.037144699  0.038881545            2 
  218000    1.1718036   -6.5056663     97.46031   0.03725547  0.038871628            2 
  219000    1.1820974   -6.5210959    97.330979  0.037036141  0.038860152            4 
  220000    1.1654036   -6.5420482    97.762307  0.037031177  0.038848932            7 
  221000    1.1484009   -6.5551455    97.773453  0.036867818   0.03883517            3 
  222000    1.1616166   -6.5967452    98.379623  0.036929288  0.038818649            2 
  223000    1.1591436   -6.5548599    99.073376  0.037022936  0.038801648            3 
  224000    1.1654432   -6.5515173    99.424662  0.036988342  0.038788934            2 
  225000    1.1612235   -6.5417126    99.762255  0.036948983  0.038777023            2 
  226000    1.1629295   -6.5636353    100.24358  0.036962973  0.038763092            4 
  227000     1.172848   -6.5369737    100.53028   0.03690539    0.0387486            4 
  228000    1.1681158   -6.5739259    101.43671  0.037074822  0.038736066            5 
  229000    1.1409091   -6.5780372    101.51962  0.036943093  0.038725023            2 
  230000    1.1691098   -6.5539223    102.08603  0.036987692   0.03871317            2 
  231000    1.1982745   -6.5771236    102.05503   0.03681639  0.038699733            5 
  232000    1.1540674   -6.5501852    102.92359  0.036969681  0.038685719            1 
  233000    1.1333721   -6.5661974    103.42845  0.036991578  0.038671973            2 
  234000    1.1605373   -6.5943891    103.74349  0.036945688  0.038660196            2 
  235000    1.1618275   -6.5932324    104.23906  0.036964206  0.038647336            2 
  236000    1.1756887   -6.5629482    104.69201  0.036967519  0.038634518            5 
  237000    1.1366861   -6.5962403    104.95928  0.036905512  0.038620748            2 
  238000    1.1598505   -6.5755087    105.23388  0.036846598  0.038605621            3 
  239000    1.1520728   -6.5382714    105.81611  0.036895436  0.038590657            5 
  240000    1.1687252   -6.5251197    106.20495  0.036876719   0.03857638            2 
  241000    1.1741029   -6.5263098    106.73608   0.03690736  0.038562298            2 
  242000    1.1392735   -6.5752086    106.64106  0.036722127   0.03854982            2 
  243000    1.1639195   -6.5578772    107.48791  0.036861425  0.038536121            3 
  244000    1.1399487    -6.571498    107.96338  0.036872739  0.038522072            3 
  245000    1.1527446   -6.5410145    108.47654  0.036896782  0.038506524            6 
  246000    1.1429878   -6.5937479    108.38967  0.036717369  0.038490408            1 
  247000    1.1243751   -6.5729152    108.82963   0.03671715  0.038474931            3 
  248000    1.1527677   -6.5805065    109.20479  0.036695156   0.03845962            2 
  249000    1.1477515   -6.5308718    110.12317  0.036855143  0.038446136            2 
  250000    1.1374032   -6.6088039    110.74895  0.036916316  0.038430943            4 
  251000    1.1594633   -6.5408984    110.85444  0.036804263  0.038419045            3 
  252000    1.1184311   -6.5825927     111.8483  0.036986872   0.03840879            2 
  253000    1.1716107   -6.5406204    112.04358  0.036904999  0.038398472           11 
  254000    1.1534898   -6.5650853    112.72772  0.036984159  0.038388179            1 
  255000    1.1518007   -6.5461465    113.33692  0.037038209  0.038379686            1 
  256000    1.1843684   -6.5789092      113.883  0.037071289  0.038372657            3 
  257000    1.1582623   -6.5746775    114.22511  0.037037974  0.038364553            2 
  258000    1.1352115   -6.5630937    114.53048  0.036993048  0.038355085            1 
  259000    1.1778459   -6.5912511    114.98412  0.036996178  0.038346535            5 
  260000    1.1535657   -6.5679766    115.55449  0.037036696  0.038338495            1 
  261000    1.1635338   -6.5959931    115.69002  0.036938064  0.038329579            2 
  262000    1.1419365   -6.6287554    116.23126   0.03696923  0.038322568            3 
  263000    1.1459285   -6.5648957    117.32405  0.037174922  0.038317644            4 
  264000    1.1369625   -6.6167944    117.02704  0.036940353  0.038311606            2 
  265000    1.1418506    -6.583773     117.7817  0.037038269  0.038304583            5 
  266000    1.1454858   -6.6074456    118.58795  0.037151613  0.038300127            3 
  267000    1.1489872   -6.5729786    119.30217  0.037235385  0.038295633            4 
  268000    1.1572006    -6.560393    119.93223  0.037292361  0.038292286            5 
  269000    1.1304564   -6.5914853    120.11884  0.037211538  0.038289238            3 
  270000    1.1448104   -6.6025479    120.60806  0.037224709  0.038285581            4 
  271000    1.1290765   -6.5809637    120.52601  0.037062118   0.03828111            5 
  272000    1.1261009   -6.5535923    121.79098  0.037313412  0.038277423            4 
  273000    1.1509303   -6.5245139    121.96841  0.037230895  0.038274658            2 
  274000    1.1418891   -6.5734158    122.31929   0.03720173  0.038273354            4 
  275000    1.1504542   -6.5794659    123.13214   0.03731277  0.038272778            1 
  276000    1.1608533   -6.5848951    123.69734  0.037348231  0.038271833            2 
  277000     1.133281   -6.5849715    124.39568  0.037423491  0.038272493            2 
  278000    1.1575421   -6.5703374    124.60654  0.037352079  0.038272561            2 
  279000     1.128639   -6.5792395    124.56662   0.03720628  0.038271109            5 
  280000    1.1526304   -6.5533129    125.35778  0.037308863  0.038270562            2 
  281000    1.1345065   -6.6228454    125.20686  0.037131334  0.038268366            3 
  282000    1.1290854    -6.597364    125.54992  0.037101041  0.038264445            2 
  283000    1.1387946   -6.5748223     126.5869  0.037275296  0.038261133            1 
  284000     1.139783   -6.6106354    126.89771  0.037235245  0.038258986            5 
  285000    1.1619948   -6.5504741    127.36714  0.037241853  0.038256761            4 
  286000    1.1389733   -6.5740353    127.71658  0.037213457  0.038253423            2 
  287000    1.1346244   -6.5827247    128.30009  0.037253219  0.038250091            2 
  288000    1.1664333   -6.5969372    128.47004  0.037173043  0.038247661            5 
  289000    1.1360303   -6.6096047    129.10056  0.037226229  0.038244741            4 
  290000    1.1221859   -6.5812349    129.43924  0.037195185  0.038242239            3 
  291000    1.1299315   -6.6323307    129.76784  0.037161468  0.038238442            3 
  292000    1.1241935   -6.6156551    130.86427  0.037347108   0.03823485            2 
  293000    1.1409125   -6.6187613    130.95173  0.037244518   0.03823254            3 
  294000    1.1421956   -6.5877972     131.1377   0.03717055  0.038229798            1 
  295000    1.1730443   -6.5852363    132.15392  0.037331617  0.038225705            4 
  296000    1.1269401   -6.5994903    131.92788  0.037141858  0.038221421            1 
  297000    1.1530056   -6.6025264    132.48645  0.037173528   0.03821849            1 
  298000    1.1297795   -6.6183576    133.00637  0.037194174  0.038214492            3 
  299000    1.1337549   -6.5728038    133.46166  0.037196672  0.038209598            1 
  300000    1.1261606   -6.6201172    133.33778  0.037038273  0.038205953            4 
  301000     1.128996   -6.5959017    134.25515    0.0371692  0.038201633            2 
  302000    1.1254913   -6.6061434    134.73785  0.037179319  0.038197749            2 
  303000    1.1858033   -6.6197465    134.71959  0.037051593  0.038193084            1 
  304000    1.1480129   -6.6337851    135.46602  0.037134325  0.038187414            2 
  305000    1.1533897   -6.5787444    135.76937  0.037095456  0.038181611            4 
  306000    1.1055305   -6.5712334    135.83273  0.036991484  0.038173812            6 
  307000    1.1261862   -6.6159813    135.93372  0.036898404  0.038165374            4 
  308000    1.1332219    -6.626838    136.63434  0.036968166  0.038156816            1 
  309000    1.1523298   -6.6217882    136.25659  0.036746653  0.038147475            1 
  310000    1.1147854   -6.6216925    137.15866  0.036870607  0.038136646            4 
  311000    1.1055693   -6.6175679    137.86274  0.036940714  0.038126589            2 
  312000    1.1571506   -6.5913128    137.78475  0.036801482  0.038116285            2 
  313000    1.1350845   -6.5881439    138.19325  0.036792665  0.038106954            3 
  314000    1.1401402   -6.6143007    138.86641  0.036854143  0.038097911            2 
  315000    1.1202951    -6.617246    139.39478  0.036876925  0.038088053            3 
  316000    1.1280197   -6.5799303    139.97023  0.036911981  0.038079071            4 
  317000    1.1403896   -6.6302945    140.38228   0.03690386  0.038070501            5 
  318000    1.1174885   -6.6097736    141.00499  0.036950993  0.038061282            1 
  319000    1.1212485   -6.6010733    141.20377  0.036887086  0.038052463            2 
  320000    1.1402036   -6.6589071    141.76736  0.036918584  0.038042843            3 
  321000    1.1136496   -6.6177134    142.14581   0.03690182  0.038034714            1 
  322000    1.0891991   -6.6360422    142.57391  0.036898011  0.038026429            1 
  323000    1.1199986   -6.6127492    143.19648  0.036944396  0.038018782            4 
  324000    1.1397825   -6.6068092    143.36256  0.036873086  0.038010728            5 
  325000     1.120024   -6.6325838    144.06399  0.036939485  0.038002491            3 
  326000    1.1450501   -6.6644447    144.62926  0.036970669  0.037994601            1 
  327000    1.1316109   -6.6392912    145.07481  0.036971155  0.037987518            1 
  328000    1.1505744   -6.6445581    145.10574  0.036866296  0.037980478            2 
  329000    1.1028778   -6.6287382    145.74032  0.036914974  0.037973823            2 
  330000    1.1342155   -6.5893183    146.35361  0.036957983  0.037966772            1 
  331000    1.1091749   -6.6449524    146.48094  0.036878385  0.037959797            2 
  332000     1.114761    -6.622891    146.39677  0.036746177  0.037951793            1 
  333000    1.1402554   -6.6261984    147.32535  0.036868205  0.037944359            3 
  334000    1.1162258   -6.6535675    147.45274  0.036789607  0.037935022            2 
  335000    1.0961738   -6.6240999    148.36537  0.036906808  0.037925589            3 
  336000    1.1167604   -6.6164845    148.33107  0.036788461  0.037915837            2 
  337000    1.1256876   -6.6074061    148.03008  0.036604865  0.037905307            3 
  338000    1.1261505   -6.5955691    148.40027  0.036587837  0.037892791            2 
  339000    1.1164236   -6.6299643     149.0412  0.036637462  0.037879059            2 
  340000     1.118233   -6.6056292    149.38041  0.036612846  0.037866095            2 
  341000    1.1070133   -6.6295708    149.23912  0.036470948  0.037852836            2 
  342000    1.1309297   -6.6279477    150.45482   0.03666053  0.037841389            6 
  343000    1.0884154    -6.639254    150.93071  0.036669268  0.037829796            2 
  344000    1.1135943   -6.6344581     151.0805  0.036598957  0.037818649            4 
  345000    1.1247863   -6.6634436    151.70822  0.036644497  0.037807096            3 
  346000    1.1236763   -6.5869225    152.44478  0.036715987  0.037795354            3 
  347000    1.1145094   -6.6319661      152.396  0.036598462  0.037784312            5 
  348000     1.090384   -6.6887114    152.42697   0.03650071  0.037771583            3 
  349000    1.1340133   -6.6193422    152.99303  0.036531286  0.037759144            2 
  350000    1.1265373   -6.6340672    153.47331  0.036541265  0.037746661            5 
  351000    1.0961554   -6.6471968    153.11052  0.036351025  0.037733803            8 
  352000    1.1151853    -6.655163    154.03272  0.036466079  0.037719951            1 
  353000      1.08012   -6.6708299    154.28038  0.036421243  0.037706688            3 
  354000    1.1125581   -6.6686422     154.3456  0.036333709  0.037692324            5 
  355000    1.0907149   -6.6533174    155.08848  0.036405746  0.037679293            5 
  356000     1.110489   -6.6508877     156.2001  0.036563695  0.037667367            2 
  357000    1.1320595   -6.6430482    156.84358   0.03661148  0.037657056            3 
  358000    1.1183943   -6.6245934    157.37925  0.036633904  0.037646165            3 
  359000    1.1302196   -6.6628492    157.34994  0.036525055  0.037635171            2 
  360000    1.1220961   -6.6549432    157.57597  0.036475918  0.037624162            2 
  361000    1.1225205   -6.6717991    157.91368  0.036452834  0.037614358            3 
  362000     1.126807   -6.6468007    158.32684  0.036447247  0.037604428            1 
  363000    1.1281622   -6.6253736    159.93681   0.03671644  0.037595512            2 
  364000    1.1207785   -6.6749082    159.60628    0.0365399  0.037586694            2 
  365000    1.1178704   -6.6377583    159.74498  0.036471457  0.037577462            4 
  366000    1.1306376   -6.6454692    160.41589  0.036524565  0.037568136            3 
  367000    1.1091882   -6.6379738    160.97552  0.036552115  0.037559059            2 
  368000     1.123967   -6.6959156    162.05024  0.036696158  0.037549702            1 
  369000    1.0977426   -6.6404848      161.931  0.036569784  0.037541265            2 
  370000    1.0827162   -6.6717144    161.87249  0.036457767  0.037531605            3 
  371000    1.1168011   -6.6581802    162.40611  0.036479361  0.037522311            4 
  372000    1.0852807   -6.6887292    163.16686  0.036551715  0.037512902            1 
  373000    1.1219268   -6.7058607    163.18593  0.036457984  0.037503382            2 
  374000    1.1118612   -6.7197147    163.23982  0.036372509  0.037491945            3 
  375000    1.1110146   -6.6340313    164.48342  0.036551872  0.037481139            2 
  376000    1.1334987   -6.6707561    163.75804  0.036293891  0.037470879            1 
  377000    1.1025337   -6.6738692    164.71965   0.03641018  0.037460321            1 
  378000     1.092167   -6.6576943    165.01972  0.036380008  0.037449886            1 
  379000    1.0872939   -6.6660253    165.69709  0.036432957  0.037438999            3 
  380000    1.1081517   -6.6799154    165.87369   0.03637581  0.037428734            4 
  381000    1.1172879   -6.6606854     166.6634  0.036453063  0.037419532            2 
  382000    1.1066029   -6.6970233    166.55006  0.036332911  0.037409618            2 
  383000    1.1161688   -6.6848128    167.18326  0.036375819  0.037399014            4 
  384000     1.084412   -6.7013173    167.83869  0.036423327  0.037388428            2 
  385000    1.0946853    -6.677423    167.96758   0.03635662  0.037377864            3 
  386000    1.1179607   -6.6514382    168.16288  0.036304595  0.037366342            6 
  387000    1.0999957   -6.6597877    168.60273  0.036305498  0.037355544            2 
  388000    1.1114864   -6.6634721    168.66989  0.036226351  0.037344337            8 
  389000    1.1510179   -6.7130473    169.26378  0.036260449  0.037332908            8 
  390000    1.1119594    -6.703046    169.59107  0.036237409  0.037322778            3 
  391000     1.081305   -6.6718091    170.41907    0.0363212  0.037310995            3 
  392000    1.0723188   -6.6851059    169.95648  0.036130203  0.037299104            2 
  393000    1.0903691   -6.7149458    170.09368  0.036067363  0.037286899            2 
  394000    1.0755805   -6.6971311    171.06746  0.036181781  0.037274668            2 
  395000    1.1033597   -6.6747298     171.5084  0.036183207  0.037263245            2 
  396000    1.0885842    -6.705175    171.78502  0.036150047  0.037251677            2 
  397000    1.0924781   -6.7012097      171.745  0.036050589  0.037240479            4 
  398000     1.104365   -6.7128042    172.73639  0.036167585  0.037228236            5 
  399000    1.0948297   -6.6657629    172.72555  0.036074677  0.037215205            9 
  400000    1.0782098   -6.7054692    172.98865  0.036039303  0.037202258            3 
  401000    1.0977634   -6.7207857     173.3225  0.036018806  0.037189063            2 
  402000    1.0853631   -6.6995263    173.66323   0.03599984  0.037175261            2 
  403000     1.105734   -6.6811495    173.66589  0.035911061  0.037161863            7 
  404000    1.0846728   -6.6823756    174.36388  0.035966146  0.037147866            4 
  405000    1.1049105   -6.6846895    175.19253  0.036047846  0.037133778            3 
  406000    1.1043333   -6.6705343    174.39356  0.035795066  0.037118705            2 
  407000    1.0733853   -6.6625122     175.2427  0.035880979  0.037103075            2 
  408000    1.1237403   -6.6644138    175.24115  0.035792718  0.037086811            2 
  409000    1.0943318   -6.6683135    175.95903  0.035851473   0.03707088            3 
  410000    1.1063311   -6.7110964    175.39353   0.03564909  0.037053797            2 
  411000    1.1000292   -6.6965178    176.68075  0.035823347  0.037037789            4 
  412000    1.0858608   -6.7116642    176.06768  0.035612395  0.037020358            5 
  413000    1.0743309   -6.6846164    177.60648  0.035836659  0.037004522            2 
  414000    1.0998349   -6.6847475    177.25994  0.035680342  0.036988609            2 
  415000     1.096534   -6.6887869     177.5513  0.035652871  0.036971852            3 
  416000    1.1007323   -6.6695594    178.11898  0.035680886  0.036956094            4 
  417000      1.10018   -6.7325024     178.2921  0.035629915  0.036939851            2 
  418000    1.1091062    -6.694224     179.1476   0.03571523  0.036923569            3 
  419000    1.0813037   -6.6831971    179.86575  0.035772822  0.036908336            2 
  420000     1.088708   -6.7123699    179.87531  0.035689545   0.03689292            3 
  421000    1.0926022   -6.7192465    179.93544  0.035616675  0.036876723            3 
  422000    1.0880975   -6.6813319    180.27764  0.035599851  0.036860142            1 
  423000    1.0781808   -6.7483371    180.20729   0.03550183   0.03684361            2 
  424000    1.0699345   -6.7234794    180.81773  0.035538076  0.036826651            2 
  425000    1.0863833   -6.6699479    181.85157   0.03565717  0.036809968            1 
  426000    1.0788484   -6.7155899    181.58475  0.035521274  0.036793587            2 
  427000    1.0732829   -6.7580107    181.80198   0.03548048  0.036776861            2 
  428000    1.0812599   -6.7095758    182.09519  0.035454671  0.036759147            4 
  429000    1.0884121   -6.7081778    182.18985  0.035390413  0.036741619            5 
  430000    1.0856653   -6.6879968     183.2328  0.035510232  0.036723917            4 
  431000    1.0764479   -6.7285021    182.96164  0.035375414  0.036707351            2 
  432000    1.1199837   -6.6645976     184.0732  0.035507947   0.03669069            2 
  433000    1.0450961   -6.6927385    184.53434  0.035514693  0.036673963            2 
  434000    1.0759348   -6.7438877     183.9965  0.035329588  0.036656382            4 
  435000    1.0994669   -6.7156863    184.70822  0.035384716  0.036639257            2 
  436000    1.0805565    -6.701297    185.31927   0.03542035  0.036622236            2 
  437000    1.0765186    -6.701841    186.02421  0.035473724  0.036606219            5 
  438000    1.0804368    -6.685194    185.90428  0.035369915  0.036590419            3 
  439000    1.0901627   -6.7248197    185.51901  0.035216213   0.03657418            2 
  440000    1.1079877   -6.7069133     186.3378   0.03529125  0.036557541            4 
  441000    1.0756112   -6.7170607    187.08846  0.035353073   0.03654058            5 
  442000    1.0674754   -6.7281171    187.49826  0.035350351  0.036524294            2 
  443000    1.0911393   -6.6955709    188.01555  0.035367862   0.03650763            4 
  444000    1.0721454   -6.7126207    188.12502  0.035308749  0.036490871            2 
  445000     1.097748   -6.7048507    188.85458  0.035366027  0.036474205            5 
  446000    1.0589296   -6.7003159    188.59742   0.03523868  0.036457585            2 
  447000    1.0578669   -6.7329973    188.63791  0.035167396  0.036440325            2 
  448000    1.0830201   -6.7445514    189.67907  0.035282565  0.036423738            6 
  449000     1.069616   -6.7097025    190.07078  0.035276686  0.036407131            2 
  450000    1.0769856   -6.7275324    190.21853  0.035225655  0.036391071            1 
  451000    1.0571328   -6.7074676    190.38022  0.035177425  0.036374861            2 
  452000    1.0964394   -6.7501081    190.22057  0.035070165  0.036358843            4 
  453000    1.0721755   -6.7472815    191.24164  0.035180581  0.036342728            3 
  454000    1.0653367   -6.7318307    190.83685  0.035028791  0.036326456            9 
  455000    1.0751236   -6.7596082    191.55236  0.035082849  0.036309197            2 
  456000    1.0396629   -6.7047898    192.06382  0.035099383  0.036291438            5 
  457000    1.0709981   -6.7270111    192.50021  0.035102154  0.036273834            1 
  458000    1.0922122   -6.7241959    192.83526  0.035086473  0.036256749            3 
  459000    1.0668906   -6.7488214    192.54524  0.034957378  0.036239046            5 
  460000    1.0652556   -6.7014398    192.98522   0.03496109  0.036220756            3 
  461000    1.0459247   -6.7073376    193.59207  0.034994951  0.036202679            2 
  462000    1.0884411   -6.7425295    193.59305  0.034919381  0.036184349            4 
  463000    1.0698953    -6.715922    193.52865  0.034832371  0.036165338            2 
  464000    1.0653624   -6.7368796    193.30873  0.034717803  0.036146474            2 
  465000    1.0663317   -6.7414203    194.31237  0.034823006    0.0361271            2 
  466000     1.100621   -6.7597618    194.01913  0.034695839  0.036106759            2 
  467000    1.0464722   -6.7582674    194.06607   0.03462992  0.036086543            3 
  468000    1.0642965   -6.7529711    194.88544  0.034701823  0.036066104            3 
  469000    1.0630375   -6.7818057    195.43618  0.034725689  0.036046319            1 
  470000    1.0651652   -6.7249963    196.33305  0.034810824  0.036027448            1 
  471000    1.0732776   -6.7583925    195.66839   0.03461932   0.03600831            2 
  472000    1.0653433   -6.6931114    196.20907  0.034641432  0.035988876            3 
  473000    1.0615614   -6.7703693    196.70148  0.034654948  0.035968833            4 
  474000    1.0567548   -6.7437645    196.19339  0.034492508  0.035948751            4 
  475000    1.0766613   -6.7526634    196.42449  0.034460436  0.035928238            2 
  476000    1.0734766     -6.77509    197.36095  0.034551987  0.035907157            4 
  477000    1.0572899   -6.7451152    197.66961  0.034533475  0.035886327            4 
  478000    1.0651627   -6.7323819    198.42435  0.034592808  0.035866275            2 
  479000    1.0399062   -6.7471982    198.00794  0.034448145  0.035845617            4 
  480000    1.0592218   -6.7582345    198.51354  0.034464156  0.035824973            2 
  481000    1.0543304   -6.7272127    199.05868  0.034486951   0.03580428            7 
  482000    1.0680531    -6.723259    198.88457  0.034385299  0.035783863            2 
  483000    1.0798457   -6.7322545    199.89449  0.034488353  0.035763792            3 
  484000     1.073375   -6.7341047    199.55136  0.034358017  0.035743338            2 
  485000    1.0735689   -6.7246209    199.74806  0.034320973  0.035722471            4 
  486000    1.0524979   -6.7456553     200.4131  0.034364386  0.035701765            3 
  487000    1.0455889   -6.7485174    201.19498  0.034427615  0.035681076            5 
  488000       1.0788   -6.7243987    201.61975  0.034429602   0.03566103            3 
  489000    1.0317126   -6.7256875    201.59459  0.034354905  0.035641073            5 
  490000    1.0688876   -6.7694313    201.17188  0.034212905  0.035620462            5 
  491000    1.0669788   -6.7575507    201.83874  0.034256405  0.035599609            3 
  492000    1.0636726   -6.7455263    202.17578  0.034243865  0.035578633            4 
  493000    1.0429223   -6.7714256    202.27869  0.034191801  0.035557839            2 
  494000    1.0560696   -6.7481982    202.40471  0.034143844  0.035536403            2 
  495000    1.0613552    -6.748734    202.79292  0.034140222  0.035515387            7 
  496000    1.0556121   -6.8047214    202.26394  0.033982516  0.035494519            4 
  497000    1.0434402   -6.7653823    204.01899  0.034208416  0.035473849            3 
  498000    1.0668334   -6.7972759    203.26748   0.03401397  0.035452864            4 
  499000    1.0490196   -6.7378081    204.47908  0.034148143  0.035432223            5 
  500000    1.0608965   -6.7516538    204.44033  0.034073388  0.035411635            2 
  501000    1.0451377   -6.7705805    204.92729  0.034086376  0.035390654            3 
  502000    1.0442602   -6.7389555    205.76145  0.034156947   0.03537005            5 
  503000    1.0507524   -6.7634451    205.71585  0.034081487  0.035350476            3 
  504000    1.0375328   -6.7848171    205.87162   0.03403962  0.035330869            3 
  505000     1.024357   -6.7008856    207.10667  0.034176018  0.035311632            2 
  506000    1.0828405   -6.7543934    207.01376  0.034093175  0.035292416            4 
  507000    1.0518116   -6.7662268     206.9047  0.034008005  0.035272879            5 
  508000    1.0573279   -6.7355176    207.83733   0.03409405  0.035252755            4 
  509000    1.0467772   -6.7774898    207.66233  0.033998417  0.035232961            6 
  510000    1.0584892   -6.7363461    207.51865  0.033908276   0.03521285            3 
  511000    1.0671707   -6.7402959    208.01234   0.03392243  0.035192493            3 
  512000    1.0487598   -6.7674348    208.91432  0.034002982  0.035172533            2 
  513000    1.0441493   -6.7542638    208.74381     0.033909  0.035152585            2 
  514000    1.0425722   -6.8224159    208.98956  0.033882873   0.03513227            4 
  515000    1.0601502   -6.7742716    209.20494  0.033851931  0.035112122            4 
  516000    1.0387223    -6.799524     209.6777  0.033862678  0.035091962            3 
  517000    1.0294117   -6.8086628    209.74554  0.033808114  0.035071091            3 
  518000    1.0338333   -6.7626327     210.2889  0.033830261   0.03505114            3 
  519000    1.0645757    -6.777625    211.08222  0.033892457  0.035031354            4 
  520000     1.063906   -6.8021515     211.0492  0.033821988  0.035011566            2 
  521000    1.0533435   -6.8023582     211.8373  0.033883125  0.034991723            2 
  522000    1.0226559   -6.7554161    211.95378   0.03383681  0.034972119            3 
  523000    1.0429772   -6.7778304    212.07829  0.033791952  0.034953242            2 
  524000    1.0699032   -6.7880905    211.90934  0.033700595  0.034934109            3 
  525000    1.0533858   -6.7477195    213.20949  0.033842776  0.034914599            2 
  526000    1.0365397   -6.8368802    211.40386  0.033492373  0.034894711            5 
  527000    1.0422097   -6.7814939    213.09826  0.033696753  0.034874479            3 
  528000    1.0423788   -6.8071381    213.11542  0.033635641  0.034853823            5 
  529000    1.0402105    -6.815642    213.45047  0.033624837  0.034833417            6 
  530000    1.0350392   -6.7997661     213.7602  0.033610094  0.034813045            2 
  531000    1.0557977   -6.8305939    213.63379  0.033526961  0.034792479            4 
  532000    1.0379135   -6.7922524    214.13961  0.033543173  0.034771846            4 
  533000    1.0645862   -6.7543173    214.56264  0.033546379  0.034751299            3 
  534000    1.0336618   -6.7464604    215.40282  0.033614672  0.034730478            3 
  535000    1.0460967   -6.7742713    215.28572  0.033533601  0.034710216            4 
  536000    1.0323855   -6.7876923    215.84895  0.033558605  0.034690143            2 
  537000    1.0473738   -6.7943219    215.98698  0.033517532  0.034670095            2 
  538000    1.0363597   -6.7514591    216.30827  0.033504998  0.034650175            5 
  539000    1.0351464   -6.8281837    215.78354  0.033361709   0.03463028            4 
  540000    1.0330251   -6.7917522    216.38658   0.03339299  0.034609777            4 
  541000     1.013762   -6.7957962     216.9598  0.033419562  0.034589656            5 
  542000    1.0409073   -6.7955326    217.13392  0.033384675   0.03457016            3 
  543000    1.0348675   -6.7871976    218.10757  0.033472617  0.034550813            3 
  544000     1.035913   -6.7919986    217.91518  0.033381614  0.034531267            2 
  545000    1.0341609   -6.8021296    219.13167  0.033506372  0.034512205            2 
  546000    1.0250883   -6.7718165    218.94807  0.033416982  0.034492914            2 
  547000    1.0359921   -6.8381787    219.15962   0.03338812  0.034473093            6 
  548000    1.0019554   -6.7887466    219.37056  0.033359271  0.034453085            2 
  549000    1.0418642   -6.8214307    219.62248  0.033336745  0.034433228            4 
  550000     1.028622   -6.7677621    220.63148  0.033429013  0.034413702            3 
  551000    1.0342016   -6.8021136    220.85788  0.033402583  0.034394636            3 
  552000    1.0223416   -6.8088703    220.53698  0.033293627  0.034375789            2 
  553000    1.0209788   -6.7949678    221.36846   0.03335872  0.034357304            4 
  554000    1.0199412   -6.8007339    221.30957  0.033289647  0.034338875            2 
  555000    1.0296279   -6.8211572    221.62264  0.033276672  0.034319743            4 
  556000    1.0365543     -6.84982    221.81004  0.033244911  0.034300737            4 
  557000    1.0162381   -6.7874207    222.95864  0.033357068  0.034282378            2 
  558000    1.0009591    -6.809871    222.45533  0.033222122  0.034263376            2 
  559000    1.0280595   -6.8234943    222.53096  0.033173965  0.034243985            3 
  560000    1.0361199   -6.8281249     222.9165  0.033172099  0.034224632            1 
  561000    1.0514894   -6.8222083    223.54716  0.033206648  0.034205317            4 
  562000    1.0493157   -6.8452549    223.82142   0.03318823  0.034185744            4 
  563000    1.0144751   -6.8059696    223.78708  0.033124197   0.03416649            2 
  564000    1.0167128   -6.7938225    224.37246   0.03315196  0.034147033            3 
  565000    1.0259932   -6.8385486    224.04275  0.033044653  0.034127188            3 
  566000    1.0054197   -6.8232308    224.95756   0.03312096  0.034107289            5 
  567000    1.0146628   -6.7921389    224.28801   0.03296414  0.034087923            2 
  568000    1.0356983   -6.8422905    224.52536  0.032940928   0.03406804            2 
  569000    1.0298043    -6.790735    225.38535  0.033008986  0.034048358            2 
  570000    1.0293486   -6.8416571    225.05586  0.032902903  0.034028942            2 
  571000    1.0168336   -6.8296364    226.12574  0.033001421  0.034009317            4 
  572000    1.0324374   -6.8308588    225.73292  0.032886497  0.033989762            4 
  573000    1.0330929   -6.8196257    226.30205  0.032911874  0.033970138            5 
  574000    1.0240394   -6.8335584    226.99407  0.032955004  0.033950352            3 
  575000    1.0402985   -6.8339038    226.60248  0.032840939  0.033930379            6 
  576000    1.0203893   -6.7927404    227.43078  0.032903759  0.033910667            3 
  577000    1.0327391   -6.7761267    227.56603  0.032866266  0.033890967            4 
  578000    1.0044878   -6.8469687    226.50536  0.032656482  0.033870512            3 
  579000    1.0254089   -6.8236237    226.73232  0.032632746  0.033849638            3 
  580000    1.0262693   -6.8417953    227.32001  0.032660922  0.033828881            3 
  581000    1.0271626   -6.8415553    227.46375  0.032625323  0.033807637            4 
  582000    1.0270456   -6.8360349     228.4574  0.032711541   0.03378632            3 
  583000    1.0233622   -6.7984989    228.30854  0.032634153  0.033765043            3 
  584000     1.039426   -6.8243604    228.69551  0.032633491  0.033744039            5 
  585000    1.0295186   -6.8226562    229.78595  0.032733042   0.03372338            3 
  586000    1.0231607   -6.8483562    229.74751  0.032671717  0.033703107            2 
  587000    1.0036144   -6.8237201    229.47677  0.032577621  0.033682578            3 
  588000    1.0347291   -6.8214948    229.99136  0.032595147  0.033662641            2 
  589000    1.0101358   -6.8214443    229.88162  0.032524281  0.033642644            3 
  590000    1.0496204   -6.8392579    230.15568  0.032507865  0.033622189            4 
  591000    1.0044637   -6.8388714     231.0183  0.032574492  0.033601393            1 
  592000    1.0221292   -6.8267178    231.08911  0.032529436  0.033581115            2 
  593000    1.0127559   -6.8678106    231.58477  0.032544234  0.033560997            7 
  594000    1.0253659    -6.833073    231.63183  0.032496048   0.03354098            6 
  595000    1.0244884   -6.8248316    231.54943  0.032429892  0.033521087            5 
  596000    1.0158305   -6.8649223    231.06241  0.032307384  0.033500699            5 
  597000    1.0124479   -6.8311671     232.1864  0.032410162  0.033480239            4 
  598000    1.0193531   -6.8371978     232.6008  0.032413712  0.033459521            4 
  599000    1.0296823    -6.823106    232.79055  0.032385997   0.03343935            3 
  600000   0.98540709   -6.8211422    232.65357  0.032312996  0.033418637            6 
  601000    1.0060039   -6.8629628    233.22846  0.032338944  0.033397858            3 
  602000    1.0241313   -6.8753231    233.47874   0.03231987  0.033377069            3 
  603000     1.022248    -6.833348    233.09407  0.032213111  0.033356167            3 
  604000    1.0057057   -6.8415763    233.54434  0.032221901  0.033335149            4 
  605000    1.0145521   -6.8263575    233.65375  0.032183713  0.033314052            1 
  606000   0.99459891   -6.8511063    233.94181  0.032170217  0.033293209            4 
  607000    1.0294346   -6.8269212    235.40815  0.032318527  0.033272559            6 
  608000    1.0001192   -6.8453964    234.71869  0.032170873   0.03325202            2 
  609000    1.0366389   -6.8724546    234.78987  0.032127787  0.033231441            4 
  610000    1.0336372   -6.8706751    235.24375  0.032137124  0.033210696            8 
  611000    1.0299511   -6.8383127    236.21901  0.032217541  0.033190103            4 
  612000    1.0022427   -6.8479212    236.59818  0.032216527  0.033169688            4 
  613000   0.99994896   -6.8442704    236.22906  0.032113793  0.033149171            3 
  614000    1.0113845   -6.8550073    236.42631  0.032088261  0.033128619            5 
  615000    1.0236769   -6.8648328    236.55415  0.032053408  0.033108168            6 
  616000    1.0386011   -6.8684168    236.87319  0.032044533  0.033087924            2 
  617000     1.012921   -6.8691002    237.25786  0.032044551  0.033067638            2 
  618000    1.0145221    -6.847013    237.89424  0.032078512  0.033047986            4 
  619000    1.0245802   -6.8404696    237.73051  0.032004645  0.033027842            2 
  620000    1.0015756   -6.8785127    238.27796  0.032026607  0.033007928            3 
  621000    1.0137287   -6.8421267    238.53652  0.032009731  0.032988154            5 
  622000    1.0225207   -6.8534469    239.11573   0.03203587  0.032968416            3 
  623000    1.0107138   -6.8494992    238.45309  0.031895811  0.032948098            6 
  624000    1.0133627   -6.8874816    239.14359  0.031936912  0.032927771            3 
  625000    1.0243678    -6.858222    239.65645  0.031954194  0.032907614            7 
  626000    1.0168766   -6.8472466    239.51362  0.031884134  0.032887713            9 
  627000    1.0106634   -6.8875321     240.1308  0.031915311   0.03286742            4 
  628000    0.9986025   -6.8602406    240.11422  0.031862291  0.032847337            2 
  629000    1.0078988   -6.9035688    240.14144  0.031815241  0.032827367            4 
  630000   0.98460328   -6.8713981    240.65801  0.031833069  0.032807259            3 
  631000   0.99176801   -6.8472061    240.74286  0.031793828  0.032787046            3 
  632000    1.0062016   -6.8367553    241.19732  0.031803444  0.032766868            2 
  633000   0.99900161    -6.914883    241.41081  0.031781307  0.032746823            2 
  634000    1.0051574    -6.876218    241.83386  0.031786785  0.032726671            3 
  635000    1.0103735   -6.9280558    241.72887  0.031722949  0.032706531           10 
  636000     1.015061   -6.8557044    242.40453    0.0317616  0.032687105            5 
  637000   0.99061247   -6.8943668    242.29614  0.031697558   0.03266754            5 
  638000     1.007696   -6.8829607    242.55425   0.03168159  0.032647665            3 
  639000    1.0039214    -6.857537     243.0041  0.031690675  0.032627792            2 
  640000    1.0140472   -6.8918342    244.23537   0.03180148  0.032608402            2 
  641000    1.0195464    -6.846688    244.06556  0.031729791   0.03258907            1 
  642000   0.99879446   -6.8681121    244.10968  0.031686095  0.032569607            3 
  643000   0.99355303   -6.8872024    243.84119   0.03160202   0.03255014            4 
  644000   0.98944795   -6.8804219    244.91871   0.03169238  0.032530884            3 
  645000   0.99617591    -6.833921    245.31981  0.031695065  0.032511727            5 
  646000    1.0069679   -6.8591698    245.09011  0.031616371  0.032492178            3 
  647000   0.99355526   -6.8697913    245.76909  0.031654958  0.032472872            4 
  648000    1.0095736   -6.8990107    244.94012  0.031499501  0.032453499            3 
  649000    1.0100953   -6.8237089     246.4317  0.031642489  0.032434448            7 
  650000    0.9948569   -6.8951276     246.2365  0.031568782  0.032415436            3 
  651000   0.99099425   -6.8763135    246.44972  0.031547583  0.032396462            5 
  652000    1.0011566   -6.9053692    247.22351  0.031598097  0.032377519            3 
  653000   0.98768618   -6.8977216    246.83106  0.031499625  0.032358697            3 
  654000     1.001668   -6.8933844      247.454  0.031530836  0.032339588            4 
  655000   0.99272299   -6.9040746    247.84793  0.031532816  0.032320483            6 
  656000   0.99505815   -6.8614921    248.07266  0.031513295  0.032301345            5 
  657000   0.98956512   -6.8585752     248.1892  0.031480112  0.032282382            2 
  658000   0.99188675   -6.8709606    248.68792   0.03149543  0.032263278            5 
  659000   0.99614402   -6.8929797    248.21301  0.031387584  0.032244522            4 
  660000   0.97232424   -6.8936327    248.64325  0.031394349  0.032225425            2 
  661000    1.0198228   -6.8876312    249.94125  0.031510496  0.032206365            3 
  662000    0.9848797   -6.8955983    249.65915  0.031427385  0.032187739            2 
  663000   0.96816376   -6.8691131    250.63919  0.031503166  0.032168798            2 
  664000   0.99125389   -6.8787546    250.24825  0.031406658  0.032149818            2 
  665000   0.99377053   -6.8784581     250.5283  0.031394524  0.032131201            3 
  666000    1.0003509    -6.848573    250.56194  0.031351594  0.032112673            4 
  667000     1.005079   -6.8975247    250.92912  0.031350464  0.032093761            3 
  668000     1.003951   -6.9090286    250.48925  0.031248658  0.032074869            7 
  669000    0.9887078   -6.8816766    251.02885  0.031269164  0.032055913            5 
  670000     0.999951   -6.8933277     251.2892  0.031254875  0.032036862            2 
  671000   0.98196071   -6.8890548    250.76268  0.031142906  0.032017432            5 
  672000   0.96062075   -6.9236758    251.03164  0.031129916  0.031997649            6 
  673000   0.97716148    -6.920302    251.28319  0.031114808  0.031977765            3 
  674000     0.955964   -6.8959781    250.79424   0.03100819  0.031957743            6 
  675000   0.96244214   -6.8913917    251.28521  0.031022865  0.031937774            4 
  676000   0.98175668   -6.8937514    251.87331  0.031049471  0.031917583            6 
  677000    1.0078345   -6.8842025    252.16632  0.031039675   0.03189747            6 
  678000   0.99940865   -6.9075519    252.40375  0.031023077  0.031877357            7 
  679000   0.98452697   -6.8711927    252.20342  0.030952801  0.031857049            4 
  680000   0.99156654   -6.8797445    252.37754   0.03092862  0.031836861            3 
  681000   0.98381696   -6.9018281    253.20939  0.030984997  0.031816483            3 
  682000   0.97750601   -6.9035151    252.32052  0.030830952  0.031796449            2 
  683000   0.98449778   -6.9171294    253.33619  0.030909735     0.031776            3 
  684000   0.95148657   -6.8735103     253.0967  0.030835367   0.03175552            4 
  685000    0.9679954   -6.9119412    253.20979  0.030804111  0.031734976            3 
  686000   0.98202627   -6.8851079    253.53836  0.030799121   0.03171398            4 
  687000   0.97995084   -6.9298854    253.89483   0.03079753  0.031693176            4 
  688000   0.98967955    -6.908177    254.20778   0.03079067  0.031672599            4 
  689000   0.97821965   -6.9289062     253.5267  0.030663607   0.03165214            3 
  690000    1.0050136   -6.8983749    253.83445  0.030656334  0.031631441            7 
  691000   0.97465198   -6.9562756    254.11359  0.030645634  0.031610863            7 
  692000    0.9909926   -6.9107419    254.66814  0.030668129  0.031590201            5 
  693000    0.9876293   -6.9063675    254.37769  0.030588947  0.031569758            6 
  694000   0.97472828   -6.8997351    255.48774  0.030678163  0.031549099            4 
  695000   0.97306326   -6.9465671    254.48873  0.030514237  0.031527987            4 
  696000   0.95352553   -6.9381776    255.24389   0.03056081  0.031507018            4 
  697000   0.96874564   -6.9113204     255.5896  0.030558297   0.03148617            4 
  698000    0.9881355   -6.9386401    255.45204  0.030498094  0.031465548           14 
  699000    0.9871355   -6.9374149    255.62335  0.030474887  0.031445076            1 
  700000   0.96864165   -6.8990127    256.19817  0.030499783  0.031424539            3 
  701000   0.97012433   -6.9140428    256.86994  0.030536132  0.031404183            4 
  702000   0.99115112   -6.9058798    256.71378  0.030474095  0.031383756            2 
  703000   0.97805686   -6.9219776    257.19184  0.030487416  0.031363219            7 
  704000   0.96604421   -6.9314726    257.31362  0.030458525  0.031342568            2 
  705000   0.96942275   -6.9133005    257.41006  0.030426722  0.031322002            3 
  706000   0.96767815   -6.9410785    256.43701  0.030268769  0.031301139            2 
  707000    0.9675672   -6.9153373    257.95094  0.030404401  0.031280133            3 
  708000   0.97221609   -6.9245143    258.25765  0.030397558  0.031259466            4 
  709000   0.97450118     -6.93898    257.48671  0.030264071  0.031238608            4 
  710000   0.96498288   -6.9267333    258.12676  0.030296568  0.031217492            3 
  711000   0.95005997   -6.9408692    257.58804  0.030190816  0.031196617            4 
  712000   0.97274806   -6.9002265    258.49452  0.030254509  0.031175964            3 
  713000   0.97655646   -6.9420349    258.97478  0.030268207  0.031155308            2 
  714000   0.96173675   -6.9527219    259.15495  0.030246843   0.03113443            4 
  715000   0.97657266   -6.9184116    258.78616  0.030161557  0.031113772            3 
  716000   0.96082135   -6.9264699    258.79747  0.030120748  0.031093174            8 
  717000   0.96603993   -6.9491219    258.93556  0.030094789  0.031072547            5 
  718000   0.96485653   -6.9407606    259.25043  0.030089419  0.031051687            3 
  719000    0.9650887   -6.9436229    260.47076  0.030189008   0.03103081            3 
  720000   0.97188943   -6.9273181    260.80641  0.030185927  0.031010123            3 
  721000   0.96311258   -6.9460221    260.56771  0.030116471  0.030989571            2 
  722000   0.96123162    -6.960568    260.79912  0.030101469  0.030969173            4 
  723000   0.94268018   -6.9428479    261.37635  0.030126366  0.030948805            2 
  724000   0.97004094    -6.933838    261.80894  0.030134546  0.030928582            6 
  725000   0.95504864   -6.9063001    262.04982  0.030120669  0.030908714            3 
  726000   0.96558226   -6.9475238    261.73202  0.030042702  0.030888822            2 
  727000   0.99001265   -6.9713039    262.75822  0.030119008  0.030869019            3 
  728000   0.97817016   -6.9374094    263.95249  0.030214341   0.03084934            5 
  729000   0.97216175   -6.9713226    262.63333    0.0300221  0.030829919            4 
  730000   0.96964012    -6.958455      263.283  0.030055137  0.030810285            5 
  731000   0.96403877   -6.9319171    263.57659  0.030047491  0.030790889            3 
  732000   0.96126716   -6.9469664    264.03265  0.030058362  0.030771325            4 
  733000   0.98092638   -6.9664833    264.21456  0.030038036  0.030751839            4 
  734000   0.94901562   -6.9379377     264.1225  0.029986659    0.0307324            4 
  735000   0.97240979   -6.9707134    264.74953  0.030016954  0.030712842            2 
  736000    0.9782223    -6.944457    265.12541  0.030018729  0.030693323            5 
  737000   0.95545861   -6.9483187    264.82638  0.029944186  0.030673693            2 
  738000   0.96458948   -6.9551389    264.23042  0.029836317  0.030654044            3 
  739000    0.9481252   -6.9717162    265.43129  0.029931359  0.030634287            4 
  740000   0.95072732   -6.9235965     265.0723  0.029850485  0.030614977            7 
  741000   0.95181084   -6.9362923    265.25485   0.02983073  0.030595603            5 
  742000   0.94206627   -6.9600117    265.60504  0.029829856  0.030576356            6 
  743000      0.95954   -6.9494013    265.91536  0.029824513  0.030557092            4 
  744000   0.96242493   -6.9450236    266.41548  0.029840444  0.030537801            5 
  745000   0.95511892   -6.9404358    266.62249  0.029823544  0.030518197            4 
  746000   0.96550468   -6.9590228      267.044  0.029830652  0.030498361            2 
  747000   0.94350009   -6.9647146      266.347  0.029712963  0.030478506            3 
  748000   0.97320844    -6.973341    266.18891  0.029655628  0.030458856            3 
  749000   0.95005332   -6.9761866     267.3436  0.029744503  0.030439101            3 
  750000   0.97363967   -6.9593916    267.10894  0.029678771  0.030419331            2 
  751000   0.96998526   -6.9380342    267.72081  0.029707147  0.030399703            6 
  752000   0.94962589   -6.9755203    267.96845  0.029695085  0.030380127            4 
  753000   0.96161153   -6.9672095    268.05494  0.029665222  0.030360454            7 
  754000   0.94644664   -6.9408821    267.99607  0.029619371  0.030340832            3 
  755000   0.95422888   -7.0059894    268.54737   0.02964099   0.03032098            3 
  756000   0.95757391   -6.9793842    268.83533  0.029633524  0.030301369            3 
  757000   0.94345507   -7.0054796     267.9133  0.029492878  0.030281651            4 
  758000   0.95200986   -6.9362394    269.19775  0.029595179  0.030262052            3 
  759000   0.96983519   -6.9866786     268.9835  0.029532663  0.030242648            5 
  760000   0.96629113   -6.9724982    269.26857  0.029525062  0.030223179            2 
  761000   0.95178349   -6.9461366    269.77902  0.029542161  0.030203723            3 
  762000   0.92812988   -6.9991898    269.64381  0.029488606  0.030184557            9 
  763000   0.95271115   -6.9611818    270.50143  0.029543625  0.030165602            6 
  764000   0.93375284   -6.9817064    271.37869  0.029600642  0.030146693            1 
  765000    0.9356941   -6.9571584     271.7205  0.029599183  0.030127986            4 
  766000   0.93652916   -6.9759616    271.64022  0.029551809  0.030109226            3 
  767000   0.94919572   -6.9785705    271.42736  0.029490152  0.030090662            4 
  768000   0.96107772   -6.9845709    271.64392  0.029475251  0.030072287            2 
  769000   0.94633364   -6.9838279    271.97056  0.029472319  0.030053801            2 
  770000   0.94322264   -6.9978386    271.89999  0.029426405  0.030035257            3 
  771000   0.93019535    -6.989927    271.85194  0.029383045  0.030016652            5 
  772000   0.96960057   -6.9972795    272.74637  0.029441534   0.02999817            5 
  773000    0.9519207   -6.9807857    273.46455   0.02948087  0.029979515            6 
  774000   0.94618895   -7.0271321    272.92311  0.029384486  0.029960993            9 
  775000   0.95976809   -7.0161776     273.3903  0.029396806  0.029942354            3 
  776000   0.93238875     -7.00177    273.84912  0.029408196  0.029923745            2 
  777000   0.95134186    -7.003985    273.75709  0.029360477  0.029905347            6 
  778000   0.98756452   -6.9895437    274.00525   0.02934932  0.029886827            3 
  779000   0.97608058   -6.9699171    273.53539  0.029261381  0.029868253            3 
  780000   0.97013661   -6.9657916     273.9905  0.029272489  0.029849544            3 
  781000   0.92948198   -6.9936697    274.01912  0.029238062  0.029830813            3 
  782000   0.94344628   -6.9688614    274.95536  0.029300443  0.029812011            4 
  783000   0.92437184   -6.9774709    273.87466  0.029148006  0.029792943            5 
  784000   0.94641172   -6.9855068    274.63578  0.029191728  0.029774019            6 
  785000   0.95085929   -6.9909591    275.29589  0.029224617  0.029755329            6 
  786000   0.93155744   -6.9751897    275.02768  0.029158999  0.029736852            2 
  787000   0.95305541   -6.9997715    276.01449  0.029226439  0.029718395            5 
  788000   0.92882755   -6.9811193    275.84965  0.029171917   0.02969978            3 
  789000   0.93330713   -6.9869482    275.39006  0.029086402  0.029681151            5 
  790000   0.93559523   -7.0099346    276.05303  0.029119518    0.0296624            3 
  791000   0.93975065   -7.0038141     275.8893  0.029065456  0.029643523            7 
  792000   0.94219545   -6.9933918    276.40986  0.029083529  0.029624862            3 
  793000   0.92843323   -7.0020234    275.90963  0.028994287  0.029606172            6 
  794000   0.94583581     -6.99258    276.12518  0.028980392  0.029587462            6 
  795000   0.94218432   -7.0150709    277.31961  0.029069141  0.029569003            2 
  796000   0.94351365   -7.0039081    277.47562  0.029048955  0.029550398            3 
  797000   0.94600043   -7.0031667    276.84577  0.028946651  0.029531941            4 
  798000   0.95641489   -6.9869054    277.93486  0.029024108  0.029513497            6 
  799000   0.91306208   -6.9654692    276.92294  0.028882242  0.029495071            5 
  800000   0.94374469   -7.0531454    277.11848  0.028866508  0.029476253            3 
  801000   0.93958433   -7.0214075    277.31711  0.028851135  0.029457342            6 
  802000   0.94492615    -7.033109     277.6871  0.028853606  0.029438613            4 
  803000   0.91775221    -7.039505     278.4788  0.028899834  0.029419619            4 
  804000   0.94752212   -7.0318964    278.39996  0.028855717  0.029400966            5 
  805000   0.94491785   -7.0625239    278.61492  0.028842124  0.029382132            2 
  806000    0.9385126   -7.0174443    278.63131  0.028808034  0.029363506            3 
  807000   0.90249851   -7.0087332     279.3644  0.028848038  0.029344977            4 
  808000   0.95918864   -6.9922214    278.95232  0.028769835  0.029326419            4 
  809000   0.93030279   -6.9922992    279.32837  0.028773009  0.029307787            3 
  810000   0.91916147   -7.0107272    279.72781  0.028778581  0.029289197            8 
  811000   0.92724276   -7.0071352    279.59311  0.028729255  0.029270758            6 
  812000   0.92532482   -7.0249391     280.5991  0.028797116  0.029252464            4 
  813000   0.94316107    -7.024794    280.54809  0.028756467  0.029234191            4 
  814000   0.90843022   -6.9817946    281.66605   0.02883559  0.029216176            2 
  815000    0.9268789   -7.0076817    281.11469  0.028743834  0.029197896            4 
  816000   0.91642073   -7.0086701    280.29058  0.028624447   0.02917965            3 
  817000   0.90413434   -6.9864437    282.11195  0.028775189  0.029161557            8 
  818000   0.92776744   -6.9891423    281.60763  0.028688633  0.029143264            4 
  819000   0.91155988   -6.9970395    281.36409  0.028628825  0.029125049            2 
  820000   0.93798949   -7.0155965    281.83557  0.028641826   0.02910689            5 
  821000   0.92051501   -7.0059683    281.84068  0.028607459  0.029088805            3 
  822000   0.91008074    -7.020341    282.45398  0.028634832  0.029070774            3 
  823000   0.93598455   -7.0113981    283.54069  0.028710074  0.029053089            3 
  824000   0.91627836   -7.0119747    282.53116  0.028573135  0.029035418            4 
  825000   0.94808831   -7.0081916    283.13137  0.028599128  0.029017582            3 
  826000    0.9300343   -7.0047152    283.71347  0.028623232  0.028999881            3 
  827000   0.93897975   -7.0401878      283.453  0.028562374  0.028982129            3 
  828000   0.93178465   -7.0491492    282.91068  0.028473297  0.028964341            4 
  829000   0.90835453   -7.0309826     283.9643  0.028544863  0.028946336            2 
  830000   0.92734883   -7.0264142    283.97034  0.028511078  0.028928412            6 
  831000    0.9326213   -7.0122832     283.7698  0.028456659  0.028910416           11 
  832000   0.91398875   -7.0362558    284.31156  0.028476718  0.028892557            4 
  833000   0.93079228   -7.0371635    283.96992  0.028408355  0.028874561            3 
  834000   0.92311809   -7.0200018    285.09102  0.028486313  0.028856779            5 
  835000   0.92100917    -7.010908    284.17375  0.028360653  0.028838762            3 
  836000   0.91401746   -7.0220426    284.90833  0.028399953  0.028820552            4 
  837000   0.94263668   -7.0613606    284.59715  0.028335041  0.028802563            7 
  838000   0.91366105     -7.01843    285.11371  0.028352596  0.028784392            2 
  839000   0.90858609    -7.052291    284.10116  0.028218232  0.028766206            3 
  840000   0.91508827   -7.0181086    284.96245  0.028270084  0.028747937            9 
  841000   0.93571108   -7.0450674    284.47356  0.028188026  0.028729629            4 
  842000    0.8956007   -7.0306542    284.74716  0.028181627  0.028710988            3 
  843000   0.91937852   -7.0173586     285.1764  0.028190628  0.028692446            3 
  844000   0.92249651   -7.0495175    285.30866  0.028170287  0.028673779            3 
  845000   0.92841109   -7.0479558    285.66641   0.02817223  0.028655112            3 
  846000      0.91308   -7.0206362    285.79079  0.028151181  0.028636557            6 
  847000   0.90803848   -6.9976398    285.88765  0.028127474  0.028618123            2 
  848000   0.92006101    -7.008831    286.07016  0.028112241  0.028599384            4 
  849000   0.91146942   -7.0915545    285.25716  0.027999328  0.028580712            3 
  850000   0.90577908   -7.0595764    285.47511  0.027987756   0.02856178            9 
  851000    0.9104255   -7.0478481    285.73719  0.027980532   0.02854293            2 
  852000   0.89384378   -7.0223892    285.90319  0.027963927  0.028524076            4 
  853000   0.92344705   -7.0512439    286.69288  0.028008293   0.02850537            5 
  854000   0.90225597   -7.0520562    286.78045   0.02798404  0.028486801            4 
  855000    0.9307827    -7.038072    286.84651   0.02795775  0.028468286            5 
  856000   0.92722659   -7.0276605    287.18659  0.027958196  0.028449826            3 
  857000   0.90795614    -7.069062    287.87584  0.027992595  0.028431216            6 
  858000   0.92269621     -7.05863    287.14416  0.027888905  0.028412827            3 
  859000   0.92516162   -7.0520403    287.44352  0.027885479  0.028394408            2 
  860000   0.92070926   -7.0353956    288.43083  0.027948724  0.028376067            7 
  861000   0.91280777   -7.0677297    288.17176  0.027891188  0.028357689            4 
  862000    0.9000292   -7.0681481    288.05944  0.027847974   0.02833906           11 
  863000   0.91191136   -7.0242044    288.56562  0.027864583  0.028320575            2 
  864000   0.90931611   -7.0407962    289.00592    0.0278748  0.028302106            7 
  865000    0.9098533   -7.0668884    288.37749  0.027782032  0.028283927            3 
  866000    0.8871602   -7.0617268    289.25163  0.027834068  0.028265623            8 
  867000   0.91180186   -7.0692663    289.04062  0.027781682  0.028247486            2 
  868000   0.90171491   -7.0627987    289.38818  0.027783044  0.028229353            7 
  869000   0.89824408   -7.0661511    289.01102  0.027714904  0.028210849            4 
  870000   0.88076474   -7.0493242    289.71262  0.027750251  0.028192354            5 
  871000   0.88866261   -7.0793347    288.37272  0.027590195  0.028173709            8 
  872000   0.91038621   -7.0647398     289.4359  0.027660159  0.028155071            8 
  873000   0.91421061    -7.007369    290.50948  0.027730955  0.028136578            4 
  874000   0.91090096   -7.0609856     290.4524  0.027693783  0.028118118            4 
  875000   0.91690327   -7.0478148    290.15974  0.027634261  0.028099607            2 
  876000   0.89381043   -7.0711981    289.91915  0.027579827  0.028081123            2 
  877000   0.89416572   -7.0712614    289.87371  0.027544062  0.028062574           10 
  878000   0.91052612   -7.0663488    289.76828  0.027502684  0.028043904            5 
  879000   0.90017079    -7.111259    289.55941  0.027451593  0.028025106            3 
  880000   0.89353181   -7.0600858    290.84965   0.02754258  0.028006384            3 
  881000   0.90274892   -7.0459925    291.00011  0.027525549  0.027987864            2 
  882000   0.89566312   -7.0534196    291.29847  0.027522532  0.027969222            2 
  883000   0.91629092   -7.0947571    291.46933  0.027507487  0.027950615            5 
  884000   0.88758852   -7.0552467    292.27846  0.027552645  0.027932335            5 
  885000   0.89061293   -7.0701282    291.71085  0.027468065  0.027914089            4 
  886000   0.90022923   -7.0786868    291.59611  0.027426271  0.027895752            3 
  887000   0.90276139   -7.0521138    292.77337  0.027505954  0.027877652            5 
  888000   0.89598747    -7.059088    292.94551  0.027491132   0.02785976            5 
  889000   0.90565502   -7.0663712    293.05086  0.027470084  0.027841889            3 
  890000   0.89487058   -7.0441045    293.71341  0.027501256   0.02782411            5 
  891000   0.88652386   -7.0746687    293.44075  0.027444889  0.027806279            3 
  892000   0.89621384   -7.0978201    292.90696  0.027364252  0.027788278            2 
  893000   0.88313201   -7.0753896    294.22918  0.027456997   0.02777054            5 
  894000   0.89310564   -7.0797106    294.77525  0.027477186  0.027752928            7 
  895000   0.90004987   -7.1031526    294.49547  0.027420435  0.027735287            3 
  896000   0.89915414   -7.0944751    294.39521  0.027380506  0.027717705            6 
  897000   0.89176115   -7.0786895    295.00675  0.027406795   0.02770018            5 
  898000    0.8932385    -7.067621     294.7421  0.027351717  0.027682481            5 
  899000   0.87447905     -7.10543    295.01228  0.027346337  0.027664848            2 
  900000   0.88643679   -7.0853076    295.59019  0.027369462   0.02764718            2 
  901000   0.91517065   -7.0874036    295.93555  0.027371028   0.02762955            5 
  902000   0.86574454   -7.0700387    295.28365  0.027280456  0.027612004           13 
  903000   0.88271436   -7.0784328    295.56536  0.027276242  0.027594347            3 
  904000   0.90275416   -7.0797906    295.75787  0.027263815  0.027576681            5 
  905000   0.89167476   -7.1161388    295.88845  0.027245714  0.027558901            3 
  906000    0.9122802   -7.0779938    296.06342  0.027231735  0.027541195            4 
  907000   0.89335153   -7.1003727    295.38142   0.02713905  0.027523564            5 
  908000   0.89156302   -7.0808897    296.57571  0.027218769  0.027505995           12 
  909000   0.90065624   -7.1010545    296.13885  0.027148776  0.027488462            8 
  910000   0.89267566   -7.0833096    297.27254   0.02722276   0.02747103            5 
  911000   0.90331253   -7.0767056    297.13394  0.027180199  0.027453538            3 
  912000   0.88372853   -7.1048456    297.43239  0.027177667  0.027436306            3 
  913000   0.87811232   -7.1044115    297.06545  0.027114408  0.027419113            5 
  914000   0.88789149   -7.0781541    298.59069  0.027223804  0.027401846            7 
  915000   0.87916296   -7.0889386    297.59512  0.027103381  0.027384661            6 
  916000   0.88865475   -7.0754664    297.61605  0.027075696  0.027367325            4 
  917000   0.88956421   -7.1282047    297.90244  0.027072195  0.027349829            5 
  918000   0.91210906   -7.0999001     297.8809   0.02704075   0.02733237            7 
  919000   0.87732648   -7.1067277    298.27076  0.027046678   0.02731477            6 
  920000   0.87197955   -7.1182658      298.246  0.027015036  0.027296955            3 
  921000   0.85792242   -7.1111889    297.57839  0.026925297  0.027279329            6 
  922000   0.89758649   -7.0965789    298.99421  0.027024061  0.027261618            8 
  923000   0.88408183   -7.0985594     298.4005  0.026941179   0.02724402            7 
  924000   0.89583184   -7.0838064    298.59006  0.026929118  0.027226246            6 
  925000   0.86206456   -7.1145215    298.75221  0.026914613  0.027208574            7 
  926000   0.87343963   -7.0774567    299.72465  0.026973061  0.027191178            6 
  927000   0.89377271     -7.10755    299.58277  0.026931209    0.0271739            2 
  928000    0.8961865   -7.0869558    299.55586  0.026899772  0.027156568            6 
  929000   0.86069609   -7.1175505    299.32819  0.026850394   0.02713928            5 
  930000    0.8715919   -7.1123881    299.36429  0.026824757  0.027121946            3 
  931000    0.8842088   -7.1293047    300.01926   0.02685457  0.027104603            4 
  932000    0.8729989   -7.1429149    300.24283  0.026845746   0.02708737            6 
  933000   0.89276371   -7.0944081    300.15498  0.026809127  0.027070172            7 
  934000   0.87849792   -7.0902091    300.80072  0.026838037  0.027052965            3 
  935000   0.85391782   -7.1405901    300.42488  0.026775836  0.027035597            3 
  936000   0.89598144   -7.1023575    300.97377  0.026796098  0.027018147            4 
  937000   0.87706593   -7.1136522    300.46669  0.026722402  0.027000745            3 
  938000    0.8697855   -7.1280953     300.2903  0.026678242  0.026983173            3 
  939000   0.88856607   -7.1375573    300.72803  0.026688679  0.026965656            4 
  940000    0.8703222   -7.1057091     301.9356  0.026767341  0.026948251            3 
  941000    0.8835093   -7.1124668    301.19252  0.026673089  0.026930963            4 
  942000   0.87329646   -7.1444127    300.52671  0.026585873    0.0269135            4 
  943000   0.87698642   -7.1351906    301.25028  0.026621622  0.026895876            3 
  944000   0.89389224   -7.1674549    300.92062  0.026564321  0.026878333            6 
  945000   0.87459039   -7.1231361    300.73999  0.026520282  0.026860708            8 
  946000   0.87657593   -7.1394271    301.45238  0.026555002  0.026843122            7 
  947000   0.88949255   -7.1137481    301.91913  0.026568034  0.026825564            4 
  948000   0.87184587   -7.1287898    301.34764  0.026489771  0.026808151            3 
  949000   0.88135221   -7.1150017    302.09818  0.026527764  0.026790581            5 
  950000   0.85352605   -7.1360253    302.14951  0.026504343  0.026773062            4 
  951000   0.86548626   -7.1279005    302.01944  0.026465076  0.026755654            5 
  952000   0.89344506   -7.1174751    303.13457  0.026534889  0.026738139            1 
  953000   0.88731282   -7.1061374    302.56556  0.026457289  0.026720621            4 
  954000    0.8683794   -7.1099898    302.92361  0.026460833   0.02670292            4 
  955000   0.87323336   -7.1417166    302.06397  0.026358113  0.026685108            4 
  956000   0.85898863   -7.1320956    302.26465  0.026348035  0.026667365            3 
  957000   0.85337279    -7.163861    302.25249  0.026319443  0.026649438            3 
  958000   0.85872156   -7.0985811    302.21422  0.026288642  0.026631697            4 
  959000   0.86416682   -7.1167904    303.06074  0.026334788  0.026613816            4 
  960000   0.87877662   -7.1088218    302.27241  0.026238924  0.026595909            4 
  961000    0.8677301    -7.123122    302.24415   0.02620917   0.02657783            4 
  962000   0.85499123   -7.1219123    302.30988   0.02618762  0.026559702            3 
  963000   0.86657941   -7.1204704    302.82287  0.026204818  0.026541815            8 
  964000   0.88221277   -7.1127953    303.29676  0.026218599   0.02652384            6 
  965000   0.88062109   -7.1656461    301.84521  0.026066081  0.026505781            3 
  966000   0.86841153   -7.1719269    303.09529  0.026146936  0.026487695            3 
  967000   0.87169098   -7.1513079    303.75776  0.026176987  0.026469791            4 
  968000   0.86401088   -7.1720043    303.21043  0.026102826  0.026451945            5 
  969000   0.88142521   -7.1388703    303.21894   0.02607662  0.026433954            2 
  970000   0.85986119   -7.1509333    303.40142  0.026065414  0.026415917            7 
  971000   0.85772253   -7.1423801    303.40653  0.026039009     0.026398            6 
  972000   0.86864108   -7.1298832    304.04484  0.026066944  0.026380129            5 
  973000    0.8634637   -7.1659984    304.24302  0.026057127  0.026362221            5 
  974000   0.85820079   -7.1796861    303.44808  0.025962361  0.026344096            3 
  975000   0.85754272   -7.1538619    303.88634  0.025973191  0.026325893            4 
  976000   0.85493692   -7.1299177    304.29957  0.025981862  0.026308019            5 
  977000   0.87426987   -7.1658662    303.32305  0.025871977  0.026289956            5 
  978000    0.8676872   -7.1114415    305.17571  0.026003384  0.026271959            8 
  979000   0.86063308   -7.1607434    304.89628  0.025953037  0.026254108            6 
  980000   0.86225788   -7.1691665    303.94717  0.025845847  0.026236068            5 
  981000   0.87252854   -7.1368434    305.16225   0.02592272  0.026218229            6 
  982000   0.86339646   -7.1728626    304.24516  0.025818497  0.026200399            2 
  983000   0.85905506   -7.1807289     305.3794  0.025888385  0.026182516            5 
  984000   0.86143216   -7.1780658    306.04951  0.025918827  0.026164632            4 
  985000   0.85526806   -7.1611845    305.59437  0.025854007  0.026146756            4 
  986000   0.85087176   -7.1488315    305.55103  0.025824123  0.026128962            4 
  987000     0.876367   -7.1705655    305.22388  0.025770338  0.026111209            6 
  988000   0.85414859   -7.1713527    305.37278  0.025756814  0.026093365            5 
  989000   0.86818583   -7.1896524    305.63042  0.025752479  0.026075544            9 
  990000   0.85419925   -7.1802062    305.96005  0.025754213  0.026057715            5 
  991000   0.86328116   -7.1585167    306.26629  0.025753976  0.026039801            6 
  992000   0.85161107   -7.1513512    305.77204  0.025686495  0.026021953            4 
  993000   0.86867287   -7.1326442     305.6334  0.025648993  0.026003988            6 
  994000   0.86698601    -7.154711    306.20945  0.025671483  0.025986118            3 
  995000   0.85917215   -7.1602077    306.42082  0.025663385  0.025968277            5 
  996000   0.85071312   -7.1524259    305.93671  0.025597115  0.025950503            5 
  997000   0.85663051   -7.1405992      306.395  0.025609746  0.025932559            4 
  998000   0.85830786   -7.1484711    306.20149  0.025567926  0.025914625            4 
  999000   0.86062604   -7.1689788    306.14619   0.02553772  0.025896652            6 
 1000000   0.85999502   -7.1980075    306.36711  0.025530593  0.025878604            3 
 1001000   0.85446118   -7.1721127    306.68177  0.025531283  0.025860394            3 
 1002000   0.83936587   -7.1899434    306.11273  0.025458477  0.025842253            7 
 1003000     0.869048   -7.1802451    306.67757  0.025480024  0.025824244            5 
 1004000   0.86142669   -7.1911324    306.81926  0.025466406  0.025806234           10 
 1005000   0.85824442   -7.1911372    307.83424  0.025525227  0.025788288            3 
 1006000   0.85223875    -7.206748    307.32336  0.025457535  0.025770292           12 
 1007000   0.86007775   -7.1973025    307.40282   0.02543883   0.02575228            4 
 1008000    0.8591886   -7.1717624    307.44986  0.025417481  0.025734237            6 
 1009000   0.84461708   -7.1888667     308.2376  0.025457351  0.025716402            7 
 1010000   0.84765327   -7.2002636    307.13053  0.025340802  0.025698404            6 
 1011000   0.84394843   -7.1809549     307.0582  0.025309776   0.02568064            6 
 1012000   0.83684039   -7.1819717    308.53023  0.025405981  0.025662874            7 
 1013000   0.84215246   -7.1682727    309.00926  0.025420308  0.025645111           20 
 1014000   0.83862533   -7.1980814    308.05418  0.025316747  0.025627403            5 
 1015000   0.85475634   -7.1843053    308.49541  0.025328031  0.025609727            8 
 1016000   0.83982514   -7.1686782    308.76051  0.025324845  0.025592089            5 
 1017000   0.85594699   -7.1872382    308.54995   0.02528269  0.025574294            4 
 1018000   0.84866107   -7.1833928    309.10211  0.025303054  0.025556461            3 
 1019000   0.87383719   -7.2195656    308.56604  0.025234383  0.025538633            3 
 1020000    0.8499003    -7.188089    308.55258  0.025208544  0.025520897            4 
 1021000   0.84238512   -7.1681756    309.56367  0.025266379  0.025503269            5 
 1022000   0.83206775   -7.1858638    308.66229  0.025168158  0.025485737            8 
 1023000   0.83713546   -7.1754783    309.71364  0.025229198  0.025468072            3 
 1024000   0.86562754   -7.2004377    309.17032  0.025160345  0.025450335            5 
 1025000   0.83845416   -7.2066772    309.37824  0.025152703  0.025432484            4 
 1026000   0.84975054   -7.2068707    309.06316  0.025102596  0.025414567            9 
 1027000   0.84814415   -7.2100568     309.5496  0.025117624  0.025396778            4 
 1028000   0.85065107   -7.1946518    308.99366  0.025048124  0.025378929            3 
 1029000    0.8271304   -7.2309249    309.92221   0.02509898  0.025361289            2 
 1030000   0.86217964   -7.2211638    309.97857  0.025079172  0.025343505            4 
 1031000   0.82430969   -7.2153595    310.00428  0.025056925   0.02532586            3 
 1032000     0.856054   -7.1979159    310.79611  0.025096585  0.025308368            4 
 1033000   0.83574761   -7.1924733    310.63259  0.025059099  0.025290936            5 
 1034000   0.82983875   -7.1986341    310.90993  0.025057216  0.025273499            5 
 1035000   0.83891174   -7.2085553    310.01385  0.024960858  0.025256003            3 
 1036000   0.84895626   -7.2199163    311.26288  0.025037233  0.025238343            7 
 1037000   0.82958047   -7.2015155    311.19138  0.025007343  0.025220824            4 
 1038000   0.83679201   -7.2068994    310.85385  0.024956153  0.025203393            4 
 1039000   0.83861138   -7.2063721    312.08691  0.025031032  0.025186072            2 
 1040000    0.8493865   -7.1977605    311.67809  0.024974206  0.025168755            4 
 1041000   0.84062409   -7.2455011    311.20613  0.024912435  0.025151503            6 
 1042000   0.83434107   -7.2027764    311.93558  0.024946863  0.025134167            8 
 1043000    0.8482354   -7.2132141    311.86668   0.02491744  0.025116899            3 
 1044000   0.83286319   -7.1603072      312.464  0.024941252  0.025099681            5 
 1045000   0.84158492   -7.2020758    312.23458   0.02489909  0.025082508            2 
 1046000   0.82345223   -7.2067813    312.71972  0.024913936  0.025065372            3 
 1047000   0.84389154   -7.1780785    313.12687  0.024922546  0.025048138            9 
 1048000   0.84201047   -7.2026406    312.91357  0.024881804  0.025031102            4 
 1049000   0.82706832   -7.1821299    312.26657  0.024806686  0.025014017            4 
 1050000   0.83516936   -7.2092053    313.16527  0.024854386  0.024996849            2 
 1051000   0.84789258   -7.2316034      313.214  0.024834602  0.024979679            5 
 1052000   0.83615632   -7.1941852    312.99917  0.024793977  0.024962569            4 
 1053000   0.83524542   -7.1609722    313.83589  0.024836649  0.024945538            4 
 1054000   0.82193347   -7.2130524    312.91583   0.02474034  0.024928409            5 
 1055000   0.83721507   -7.1936037    313.37404  0.024753084  0.024911239            5 
 1056000   0.83457099   -7.2178892     314.2864  0.024801641  0.024894157            2 
 1057000    0.8414732   -7.2136305    313.27177  0.024698184  0.024877172            6 
 1058000   0.84571851   -7.2340729     313.5523  0.024696936  0.024859991            3 
 1059000   0.83372402   -7.2170448    314.69465  0.024763508  0.024842912            2 
 1060000   0.82124994   -7.2146675    314.22755  0.024703424  0.024825799            5 
 1061000   0.83554244   -7.2192909    314.22211  0.024679713  0.024808645            4 
 1062000   0.82384289   -7.2383548    314.82006  0.024703394  0.024791631            5 
 1063000   0.81705372   -7.2445829    313.85345  0.024604378  0.024774622            5 
 1064000   0.83736485   -7.2013724    314.35004  0.024620147   0.02475765            3 
 1065000   0.82519513   -7.2227494    315.01683  0.024649204  0.024740562            4 
 1066000   0.82029788   -7.2148707    314.92965  0.024619266  0.024723657            8 
 1067000   0.80636725    -7.209172    315.43003  0.024635273  0.024706865            8 
 1068000   0.83122883   -7.2533281    315.38946   0.02460904  0.024690064           18 
 1069000   0.83246403   -7.2612113    314.93335  0.024550463  0.024673188            9 
 1070000   0.83195686    -7.195766    315.25237  0.024552366  0.024656332            4 
 1071000   0.82775852   -7.1995973    315.07576  0.024515698  0.024639538            4 
 1072000   0.83461186   -7.2420717    315.49266  0.024525238  0.024622698            8 
 1073000   0.82200057    -7.220062    316.03607  0.024544584   0.02460587            4 
 1074000   0.82964363   -7.2546627    315.42232  0.024474109  0.024589143            7 
 1075000   0.81234478   -7.2097463    316.89674  0.024565639  0.024572367            4 
 1076000   0.83132028   -7.2289137    315.82377  0.024459709  0.024555623            3 
 1077000   0.83238385   -7.2239168    315.59368  0.024419195  0.024539026            5 
 1078000   0.83463135   -7.2551139    316.01597  0.024429188  0.024522283            3 
 1079000   0.80691387   -7.2142484    316.47634  0.024442102  0.024505533            2 
 1080000   0.83034013   -7.2516904     315.9358  0.024377762  0.024488791            4 
 1081000   0.83308969   -7.2457511    316.32797  0.024385443  0.024471958            6 
 1082000   0.81581579   -7.2239665    315.83449  0.024324899  0.024455005            6 
 1083000   0.81448705   -7.2401279     315.9052  0.024307879   0.02443803            7 
 1084000   0.81301111   -7.2429277    316.49295  0.024330639  0.024421072            3 
 1085000   0.82506455   -7.2371451    316.42382  0.024302905  0.024404037            6 
 1086000   0.81867335   -7.2639156    315.58126  0.024215873  0.024387099            4 
 1087000   0.81106188   -7.2371322    316.49029  0.024263285  0.024370129            5 
 1088000   0.80764808   -7.2182095     316.1325   0.02421358  0.024353223            4 
 1089000   0.83223047   -7.2652941    316.48788   0.02421854  0.024336313            3 
 1090000   0.81913246   -7.2362433    317.25533  0.024254995  0.024319475            3 
 1091000   0.82210357   -7.2234666    317.37543  0.024241937  0.024302657            4 
 1092000   0.82035637   -7.2191489    316.84615  0.024179346  0.024285889            8 
 1093000   0.81972743   -7.2457651    317.50543  0.024207489   0.02426905            6 
 1094000   0.82127984   -7.2480882    316.49469   0.02410837  0.024252232            4 
 1095000   0.80878991   -7.2221309    317.86238   0.02419044  0.024235417            3 
 1096000   0.81758164   -7.2209422    317.82198  0.024165297  0.024218672            5 
 1097000   0.82473485   -7.2603991    317.48804  0.024117901  0.024201989            6 
 1098000   0.81612052   -7.2332136    317.94903  0.024130922  0.024185224            4 
 1099000   0.83527108   -7.2558415    316.91835  0.024030812  0.024168422            5 
 1100000   0.82041232   -7.2547826    317.41872  0.024046872  0.024151653            4 
 1101000   0.81246314   -7.2508296    318.11066  0.024077404  0.024134804            6 
 1102000   0.80936212   -7.2538198    317.73057  0.024026813  0.024118076            6 
 1103000   0.82039321   -7.2362083     318.5738  0.024068737   0.02410143            5 
 1104000   0.81622749   -7.2389036    318.88273  0.024070254  0.024084785            8 
 1105000   0.82922822    -7.268671    317.70243  0.023959459  0.024068199            6 
 1106000   0.82342254   -7.2292312     319.2867  0.024057165  0.024051699           15 
 1107000    0.8193657   -7.2633343    318.76048   0.02399582  0.024035136           13 
 1108000   0.80175084   -7.2597922    318.65921  0.023966547  0.024018601            5 
 1109000   0.80684548   -7.2841767    318.13873  0.023905826  0.024001962            3 
 1110000   0.82639878   -7.2871436    318.67444  0.023924507  0.023985201            4 
 1111000   0.79691873   -7.2731833    319.08235   0.02393357  0.023968474            5 
 1112000   0.81152741   -7.2625885    318.85883  0.023895296  0.023951815            7 
 1113000   0.81045061   -7.2761808    319.50769  0.023922409  0.023935215            6 
 1114000   0.81292578   -7.2513535    319.65791  0.023912171   0.02391863            2 
 1115000   0.80427973   -7.2461071    319.35027  0.023867733  0.023902043            2 
 1116000   0.80920821   -7.2292135    318.71026  0.023798556  0.023885451            3 
 1117000   0.81736101   -7.2605816    318.94748  0.023794947   0.02386889            4 
 1118000   0.82135509   -7.2931851    318.69399   0.02375477  0.023852179            3 
 1119000    0.7929524   -7.2823767    318.90745  0.023749438  0.023835513            5 
 1120000   0.80432534    -7.266371    319.70317  0.023787438    0.0238188            4 
 1121000   0.78805399   -7.2634562    319.32364  0.023738005  0.023802144            3 
 1122000   0.79065821   -7.2890396    320.55668  0.023808428  0.023785586           10 
 1123000   0.80691615   -7.2563597    320.01599  0.023747105  0.023769083            5 
 1124000   0.81633783   -7.2652217    320.08059  0.023730768  0.023752609            8 
 1125000   0.80848442   -7.2815753    320.15447  0.023715146  0.023736159            4 
 1126000   0.79511112   -7.2587541    320.43536  0.023714873  0.023719795            7 
 1127000   0.80891969   -7.2840134    320.68214  0.023712078  0.023703507            6 
 1128000   0.79908345   -7.2625481    320.31938  0.023664257  0.023687269            5 
 1129000    0.8088522   -7.2670941    321.01279  0.023694478  0.023671053            6 
 1130000   0.81447495   -7.2941472    320.58936  0.023642283  0.023654826           12 
 1131000   0.79794613    -7.269098    321.74808  0.023706755  0.023638594            4 
 1132000     0.785774   -7.2999025    320.74857  0.023612233  0.023622262            5 
 1133000   0.80144362   -7.2863167    320.88224  0.023601224  0.023605986            9 
 1134000    0.8089581   -7.3223972    320.55044  0.023556028  0.023589686            7 
 1135000   0.80047915   -7.2698636    321.45674  0.023601817   0.02357345            9 
 1136000   0.78985253    -7.299691    321.55015  0.023587892  0.023557288            6 
 1137000   0.81661001   -7.3061857    322.18489  0.023613668   0.02354125            8 
 1138000   0.79103018   -7.2927963    322.09265  0.023586164  0.023525181            8 
 1139000   0.80503366   -7.2903014    321.38401  0.023513609  0.023509182            5 
 1140000   0.79159443   -7.2962592    321.99585  0.023537709  0.023493136            9 
 1141000   0.79149985   -7.3036396    322.83602  0.023578441  0.023477146            7 
 1142000    0.8082631   -7.2999006    322.26888   0.02351641  0.023461216            5 
 1143000    0.7839566   -7.2859291    322.80103  0.023534633  0.023445277            4 
 1144000    0.8016605   -7.3147035    322.31732  0.023478826  0.023429293           12 
 1145000   0.81769185    -7.343596    322.37163  0.023462273  0.023413292            4 
 1146000   0.78804906   -7.2799203    321.85941  0.023404553   0.02339715            6 
 1147000   0.79593064   -7.3073936    322.61173  0.023438806  0.023381058            7 
 1148000   0.81619573   -7.3251803    322.25853  0.023392751  0.023364912            4 
 1149000   0.80981016   -7.3014368    322.78016  0.023410223  0.023348765            5 
 1150000   0.78124749   -7.3109167    322.29002  0.023354349  0.023332661            4 
 1151000   0.79246673   -7.3127628    321.50119  0.023276947  0.023316561            7 
 1152000   0.79216507   -7.2904254    323.54715  0.023404742   0.02330061            5 
 1153000   0.79943753   -7.3057022    323.27656  0.023364886  0.023284672            5 
 1154000    0.7872426   -7.2932403    323.30136   0.02334643  0.023268687           11 
 1155000   0.81040841   -7.3213349    322.91482  0.023298328  0.023252656            5 
 1156000   0.79026871   -7.3106303    323.31644  0.023307125  0.023236623           10 
 1157000   0.77329326   -7.3340265    323.14838  0.023274876  0.023220702            5 
 1158000   0.78819685   -7.3197751    323.81014  0.023302399  0.023204787            9 
 1159000   0.79032804   -7.3067213    323.95143  0.023292452  0.023188843            4 
 1160000   0.78642684   -7.3163721    323.36097  0.023229955   0.02317279            5 
 1161000   0.78199681   -7.3355322    323.72796  0.023236288  0.023156744            4 
 1162000    0.7924019   -7.2973943    323.93763  0.023231327  0.023140734            6 
 1163000   0.78810878   -7.3161652    323.88181  0.023207352   0.02312473            8 
 1164000   0.77020979   -7.3069819    324.35103  0.023221007  0.023108696            7 
 1165000   0.80074727   -7.3023579    323.61918  0.023148725  0.023092754            8 
 1166000   0.78849726   -7.2731919    323.91719  0.023150171  0.023076765           16 
 1167000   0.77243512   -7.2898066    323.14997  0.023075548  0.023060855            8 
 1168000   0.78283628   -7.3180284    324.17872  0.023129189  0.023044848           21 
 1169000   0.79865558   -7.3252918    323.92912  0.023091611  0.023028805            8 
 1170000   0.78387299   -7.3216293    324.72885  0.023128835  0.023012834            5 
 1171000    0.8047568   -7.3325184    324.09305  0.023063838  0.022996893            8 
 1172000   0.79142607   -7.3337538    324.59767  0.023080039  0.022980892            6 
 1173000   0.77493936   -7.3303174    324.34049  0.023042092  0.022964874            5 
 1174000   0.79185999    -7.336983    324.13868   0.02300814  0.022948912            4 
 1175000   0.77436145   -7.3480032    324.50531  0.023014561  0.022933017            6 
 1176000   0.80803203   -7.3423839     324.6299   0.02300382  0.022917189            3 
 1177000   0.79194962   -7.3550555    323.70386   0.02291871  0.022901338            3 
 1178000   0.78941574   -7.3771935    324.75657  0.022973724  0.022885412            3 
 1179000   0.76890141   -7.3399196    325.02275  0.022973053  0.022869432            5 
 1180000   0.77877649   -7.3324998    325.14676  0.022962342  0.022853592            6 
 1181000   0.77556107   -7.3367819    324.72366  0.022913044  0.022837812            3 
 1182000   0.78727988   -7.3474971    324.71113  0.022892775  0.022822011            5 
 1183000   0.78527611   -7.3180602    325.06001     0.022898  0.022806273            3 
 1184000   0.77461207   -7.3243835    325.46958  0.022907487  0.022790503            5 
 1185000   0.77557975   -7.3038083    325.79136  0.022910785  0.022774688            7 
 1186000   0.76948964   -7.3317016    325.55328  0.022874739  0.022758884            5 
 1187000   0.78868255   -7.3505991    325.81485  0.022873831  0.022743092            6 
 1188000   0.76808503   -7.3333211    326.30531  0.022888981  0.022727293            9 
 1189000    0.7674394    -7.301717    325.56661  0.022817957  0.022711553            8 
 1190000   0.78349727   -7.3420707    326.80522   0.02288552  0.022695849            3 
 1191000   0.78660957   -7.3479584    325.96682  0.022807642  0.022680045            3 
 1192000   0.77408274   -7.3101589    325.69359  0.022769406  0.022664284            5 
 1193000   0.76541843   -7.3443301    326.07055  0.022776652  0.022648513            7 
 1194000   0.77282425   -7.3412008    325.45632  0.022714707  0.022632701            6 
 1195000   0.77609822   -7.3328901    325.96372  0.022731083  0.022616865            7 
 1196000   0.77773435   -7.3566114    325.60429  0.022687033  0.022601014            5 
 1197000   0.78938561   -7.3544197    326.09247  0.022702066  0.022585108            6 
 1198000   0.76700774   -7.3780538    325.21858  0.022622328  0.022569205            4 
 1199000   0.76682023   -7.3805848    325.36824  0.022613862  0.022553356            9 
 1200000   0.76046693   -7.3848675    325.64004  0.022613892  0.022537496            2 
 1201000   0.76910819   -7.3629607    325.90994   0.02261379  0.022521647            6 
 1202000   0.77369036    -7.356694    325.61169  0.022574299  0.022505803            4 
 1203000   0.77680969   -7.3425688    326.09825  0.022589239  0.022489968            5 
 1204000   0.77282061   -7.3595371    325.86545  0.022554364  0.022473986            7 
 1205000    0.7797702   -7.3116842    325.71031  0.022524918  0.022457986           10 
 1206000   0.76747965   -7.3352351    326.11912  0.022534489  0.022442037            4 
 1207000   0.76925032   -7.3296007    326.19118  0.022520794  0.022426116           13 
 1208000   0.77243419   -7.3199686    326.54877  0.022526819  0.022410176           10 
 1209000   0.76340129   -7.3515097     326.6226  0.022513275  0.022394256           17 
 1210000   0.73325944   -7.3428009    326.47581   0.02248456  0.022378391            6 
 1211000   0.77533079   -7.3305903    326.11945   0.02244147  0.022362557            5 
 1212000   0.76867013   -7.3410566    326.43273  0.022444495  0.022346728            6 
 1213000   0.76904088   -7.3651297    325.96444   0.02239382  0.022330802            3 
 1214000   0.76393329   -7.3983089    325.88365  0.022369828  0.022314883            4 
 1215000   0.76931597   -7.3629426    326.95966  0.022425217   0.02229888            8 
 1216000   0.77606677    -7.377478     327.3347  0.022432477  0.022282972            6 
 1217000   0.77640672   -7.3700804    326.70137  0.022370677  0.022267121            6 
 1218000   0.75849452   -7.3563661     326.9112  0.022366667  0.022251337            4 
 1219000   0.76651604   -7.3384342    326.62253  0.022328585  0.022235554            6 
 1220000   0.77732773   -7.3768922    326.16063  0.022278731  0.022219695            4 
 1221000   0.75335711     -7.37304    326.49167  0.022283079  0.022203841            6 
 1222000    0.7636757   -7.3367589    326.73499  0.022281437  0.022188051            6 
 1223000   0.77251563   -7.3684166    326.97729  0.022279728  0.022172145           12 
 1224000   0.75822065   -7.3590177    326.76367  0.022246982  0.022156213            9 
 1225000     0.763206   -7.3712338    327.23057  0.022260583  0.022140311            5 
 1226000   0.75784022   -7.3796585    326.97591  0.022225116  0.022124369            7 
 1227000   0.77172267   -7.3905333    326.83391  0.022197359  0.022108565            4 
 1228000   0.75729907   -7.3836214     327.0576  0.022194462  0.022092819            3 
 1229000   0.77799771   -7.4086383    326.74452  0.022155175  0.022077027            5 
 1230000   0.77054375    -7.408345    327.49729  0.022188163  0.022061215           10 
 1231000   0.75970062   -7.3853201    327.27084  0.022154809  0.022045361            8 
 1232000   0.76389207   -7.3604495    327.12473  0.022126943  0.022029523           12 
 1233000   0.75818463   -7.4006549    327.11718  0.022108487   0.02201359           18 
 1234000   0.76433443   -7.3751887    327.35119  0.022106374  0.021997712           12 
 1235000   0.75783499   -7.3902521    326.95317  0.022061618  0.021981847            9 
 1236000   0.74776557    -7.376195    327.54209  0.022083474   0.02196596            5 
 1237000   0.75490442   -7.3702182    326.82485  0.022017303  0.021950054            4 
 1238000   0.77211063   -7.3718461    327.20729  0.022025262  0.021934114            6 
 1239000   0.75846286    -7.383107    327.27441     0.022012  0.021918202            6 
 1240000    0.7761048   -7.3786511    327.51789  0.022010611  0.021902218           12 
 1241000   0.75364603   -7.3594357    327.10469  0.021965129   0.02188622            7 
 1242000   0.74592784    -7.356743     326.8944  0.021933333  0.021870303           18 
 1243000   0.75152104   -7.3523269     327.6753  0.021968041  0.021854465            6 
 1244000   0.76727286   -7.3651382    327.41704  0.021933081  0.021838565            4 
 1245000   0.76079127   -7.3633998    326.57259  0.021858942  0.021822604            7 
 1246000   0.75744137   -7.3699327    327.03705  0.021872462  0.021806569           10 
 1247000   0.75311756   -7.3677772    327.02942  0.021854412  0.021790549            9 
 1248000   0.75813508   -7.4246078    326.69145  0.021814333  0.021774503           12 
 1249000   0.74173266   -7.3858374    327.05246  0.021820954  0.021758499            8 
 1250000   0.76729796   -7.3992504    327.62039   0.02184136  0.021742471            9 
 1251000   0.74792213    -7.401581    326.49662  0.021749042  0.021726418            9 
 1252000   0.76803422   -7.3923879    327.38673  0.021790916   0.02171044            9 
 1253000   0.76333844   -7.3924396    326.78861  0.021733746  0.021694454           10 
 1254000   0.75607918   -7.4163154    327.05901  0.021734384  0.021678416            6 
 1255000   0.76988132   -7.3952573    327.65703  0.021756775  0.021662459            3 
 1256000   0.75312318   -7.3912289    327.48326  0.021727923  0.021646484            7 
 1257000   0.77219201   -7.3848675    326.84323  0.021668206  0.021630511            5 
 1258000   0.75805322   -7.4161052    326.56297  0.021632417   0.02161456            5 
 1259000   0.75647128   -7.3965448    327.38316  0.021669523  0.021598536           10 
 1260000    0.7605554   -7.4342476    326.78811   0.02161297   0.02158251            8 
 1261000   0.74897509   -7.3990843    327.28101  0.021628404  0.021566546            6 
 1262000   0.75415106   -7.4241356    327.44291  0.021621956  0.021550666            8 
 1263000   0.76573977   -7.3958046    327.73441   0.02162407  0.021534683            5 
 1264000   0.75417831   -7.3958849    328.08442  0.021630038  0.021518759            5 
 1265000    0.7522237   -7.3798129    328.17327  0.021618792  0.021502867            3 
 1266000   0.74029055   -7.3986089    327.90405  0.021583995  0.021486973            9 
 1267000   0.73632582   -7.3734983    327.43678  0.021536226  0.021471029           10 
 1268000   0.73524936     -7.40998    327.81484  0.021544088  0.021455052            7 
 1269000   0.73940383    -7.397884    328.36486  0.021563229  0.021439122            6 
 1270000   0.74115377   -7.4204691    327.67993  0.021501308  0.021423219            3 
 1271000   0.74656325   -7.4196874    327.65363  0.021482666  0.021407314            9 
 1272000   0.74625592   -7.4148126    327.57379  0.021460547  0.021391315            8 
 1273000   0.74201252   -7.3739908     328.8518   0.02152735  0.021375442            7 
 1274000   0.74843932     -7.42566    328.64796   0.02149712  0.021359617            6 
 1275000   0.75694507   -7.4226305    329.55124  0.021539297  0.021343799            4 
 1276000   0.73850187   -7.4188228    327.90564  0.021414945  0.021328016           11 
 1277000   0.73602194   -7.3973158    328.86437  0.021460739  0.021312253            7 
 1278000   0.72967818   -7.4126246    328.91456  0.021447219  0.021296584            7 
 1279000     0.713117   -7.4058619    328.84335  0.021425811  0.021280895            6 
 1280000   0.74118681   -7.4036316    328.36348  0.021377831  0.021265169            3 
 1281000   0.75149144   -7.4393605     328.4279  0.021365333   0.02124944            6 
 1282000   0.75711426   -7.4210229    329.11258  0.021393174  0.021233791            5 
 1283000   0.72862877   -7.4159029    329.44486  0.021398081  0.021218096           11 
 1284000   0.73289403    -7.405879    328.49677  0.021319884  0.021202462            3 
 1285000   0.74245934   -7.3892213    329.75253  0.021384729   0.02118687           11 
 1286000    0.7299792    -7.425468    328.55606  0.021290569  0.021171254            9 
 1287000   0.74531698   -7.4201889    329.31259  0.021323012   0.02115559            6 
 1288000    0.7430563   -7.4044795    328.96164   0.02128375  0.021139962            8 
 1289000   0.73951216   -7.4222255    329.01034  0.021270387  0.021124399            5 
 1290000   0.72688425   -7.4181939    330.05444  0.021321346  0.021108882            8 
 1291000   0.74041658   -7.4266588    329.99243  0.021300828  0.021093407            6 
 1292000   0.74002082   -7.4367356     329.6715  0.021263642  0.021077888            5 
 1293000   0.74624345   -7.4021766    329.72134  0.021250409  0.021062376            4 
 1294000   0.74100688   -7.4376398    329.93569  0.021247791  0.021046858            5 
 1295000   0.72556585   -7.4164209    329.96775  0.021233446  0.021031337            4 
 1296000   0.73667557   -7.4057166      329.316  0.021175154  0.021015788            4 
 1297000   0.74777524   -7.4495551    329.60594  0.021177457  0.021000281            7 
 1298000   0.73479291   -7.4732946    328.85295  0.021112799  0.020984661            5 
 1299000   0.74673419   -7.4322292    329.77874  0.021155936  0.020969014            9 
 1300000   0.73711161   -7.4556594    329.65178  0.021131524  0.020953531            7 
 1301000   0.75288582   -7.4355068    329.26253  0.021090349  0.020938038            9 
 1302000    0.7419896   -7.4284749    329.96138   0.02111888  0.020922545           13 
 1303000   0.73312811   -7.4312458     329.8309  0.021094327  0.020907155            7 
 1304000    0.7505959   -7.4286048    330.28307  0.021107047  0.020891761            5 
 1305000   0.74819003   -7.4419883    330.15794  0.021082882  0.020876405            9 
 1306000   0.73321945   -7.4381006    330.27655  0.021074308  0.020861037            9 
 1307000   0.74992872   -7.4240222     330.8601   0.02109539  0.020845683           15 
 1308000   0.73211726   -7.4384144    329.80462  0.021012017  0.020830332            8 
 1309000   0.72281528   -7.4664942    329.75171  0.020992597    0.0208149           14 
 1310000   0.74344445   -7.4070793    330.88294  0.021048533  0.020799588           16 
 1311000   0.74030517   -7.4340158    330.64016  0.021017046  0.020784379            6 
 1312000   0.73254721   -7.4262587    331.31679  0.021044003  0.020769134            6 
 1313000   0.73661559   -7.4368111    330.12199  0.020952145  0.020753862           12 
 1314000   0.74472914   -7.4278475     330.6034   0.02096673  0.020738608            9 
 1315000   0.72901707   -7.4387221    330.15434  0.020922328  0.020723387            6 
 1316000   0.72830348   -7.4505348    330.06865  0.020901004  0.020708149            8 
 1317000   0.71250811   -7.4570089    331.22667  0.020958407  0.020692931            5 
 1318000   0.73648284   -7.4434461      331.862  0.020982676  0.020677797            7 
 1319000   0.73104677   -7.3973908    331.45276  0.020940912  0.020662748            7 
 1320000   0.71820856   -7.4066909    331.01642  0.020897501  0.020647734            6 
 1321000   0.73284698   -7.4382087    330.97369  0.020878986  0.020632679            8 
 1322000    0.7060577   -7.4025681    331.57078  0.020900831  0.020617578            7 
 1323000   0.73221566   -7.4495276    331.06339  0.020853073  0.020602482           10 
 1324000   0.73466464   -7.4548198    331.63526  0.020873317    0.0205874           12 
 1325000   0.72898375   -7.4574409    330.63152  0.020794435  0.020572221            6 
 1326000   0.74312322    -7.464949    330.80701  0.020789782   0.02055705            8 
 1327000   0.71860584   -7.4521894    331.41445  0.020812261  0.020541874            9 
 1328000   0.72078208   -7.4465727    331.57098  0.020806412  0.020526769           24 
 1329000   0.74627987   -7.4563831    331.30407   0.02077402  0.020511704            6 
 1330000   0.73425507   -7.4785953    331.46863  0.020768711   0.02049664           16 
 1331000   0.73554698   -7.4702315    331.26127  0.020740125  0.020481593            6 
 1332000   0.72255367   -7.4722794    331.19068  0.020720137  0.020466482           17 
 1333000   0.72974601    -7.455429    331.69035  0.020735831  0.020451421            7 
 1334000   0.72006027   -7.4378194    332.40735  0.020765077  0.020436431            7 
 1335000    0.7362229   -7.4708825     332.0051  0.020724413  0.020421459           12 
 1336000   0.72108388   -7.4808801    332.11193  0.020715564  0.020406451           16 
 1337000   0.72331628   -7.4908066    332.50766  0.020724736  0.020391441            8 
 1338000   0.71448884   -7.4804138    332.44849  0.020705561   0.02037651            5 
 1339000   0.71684753   -7.4610627    332.10729  0.020668863  0.020361636           13 
 1340000   0.71526104   -7.4814398    332.26862  0.020663471  0.020346745            5 
 1341000   0.72317157   -7.4780817    332.42255  0.020657628  0.020331872            6 
 1342000   0.71941704    -7.481548    332.07126  0.020620421  0.020316975            8 
 1343000   0.73036246   -7.4578338    331.83055  0.020590131  0.020302071            4 
 1344000   0.70772854    -7.488989    331.98669  0.020584492  0.020287196            6 
 1345000   0.70367402   -7.4922784    331.74824  0.020554414  0.020272291           14 
 1346000   0.70494319   -7.4865325    332.36433  0.020577286  0.020257383           12 
 1347000   0.73265913   -7.4535698    332.42153  0.020565549  0.020242508            8 
 1348000   0.73086685   -7.4788055    331.96917  0.020522327  0.020227643            6 
 1349000   0.71195949   -7.5127926    332.74888   0.02055528  0.020212787            4 
 1350000   0.70773061   -7.4928872    332.44902  0.020521544  0.020197958           14 
 1351000    0.6977301   -7.4811093    331.32488  0.020437014  0.020183064           11 
 1352000    0.7037564   -7.4766226    332.86759  0.020516987  0.020168147           15 
 1353000   0.73022666   -7.4864773    332.45318  0.020476298  0.020153283           12 
 1354000   0.70003554   -7.4674708    333.17753  0.020505756  0.020138464            8 
 1355000   0.71351315   -7.4719366    332.42596  0.020444401  0.020123659           11 
 1356000   0.71832618   -7.4950131    332.98396  0.020463616  0.020108906           20 
 1357000   0.69956382   -7.5067556    332.60214  0.020425089  0.020094139            8 
 1358000   0.71802601   -7.4797786    332.41279  0.020398429  0.020079357           15 
 1359000   0.71183865   -7.4676501    333.27953  0.020436567  0.020064605            7 
 1360000   0.72300393    -7.499361    332.40223  0.020367784  0.020049829            6 
 1361000   0.71591533   -7.4872114    332.96589  0.020387331  0.020035089           15 
 1362000   0.71975041   -7.5065085    332.46555  0.020341749  0.020020327            5 
 1363000   0.71323584   -7.4856172    332.66087  0.020338767   0.02000554           21 
 1364000    0.7024381   -7.5075816    332.17805  0.020294358  0.019990765            7 
 1365000   0.71953305   -7.4853524    332.86833  0.020321632  0.019976036           15 
 1366000   0.69832552   -7.4921078    332.99854  0.020314699   0.01996137            6 
 1367000    0.7132393   -7.5145441    332.62632  0.020277147  0.019946716            7 
 1368000   0.72141595    -7.515045    332.22794  0.020238057  0.019932014           10 
 1369000    0.7069517   -7.4794661    333.22206  0.020283787  0.019917297            8 
 1370000   0.70987566   -7.5128139    332.65645  0.020234577  0.019902618            7 
 1371000   0.69348063    -7.507787    333.14945  0.020249784  0.019887938           15 
 1372000   0.70698811   -7.5239896    332.41894  0.020190655  0.019873228           10 
 1373000   0.69737551   -7.5171074    333.17427  0.020221793  0.019858559            4 
 1374000   0.69934728   -7.4888265    333.27913  0.020213436  0.019843918           12 
 1375000   0.71653252   -7.5207226    333.04083  0.020184293  0.019829293           10 
 1376000   0.70709096   -7.5091908    333.33677  0.020187546  0.019814636            5 
 1377000   0.69589858   -7.4890869     333.0996  0.020158533  0.019799986            8 
 1378000   0.69960446   -7.5249481    333.04641  0.020140688  0.019785362            7 
 1379000   0.72170254   -7.4888234    333.03958  0.020125669  0.019770796            5 
 1380000   0.70685396   -7.5132091    333.02504  0.020110208  0.019756149            7 
 1381000   0.69481256    -7.490192    332.84424  0.020084736  0.019741497           12 
 1382000     0.702045    -7.505787    333.46395  0.020107571  0.019726882           21 
 1383000   0.71182221   -7.4746427    333.07794  0.020069772  0.019712248           10 
 1384000    0.7052325   -7.5209929    332.91655  0.020045554  0.019697581           11 
 1385000    0.7040782   -7.5165474    332.69771  0.020017913  0.019682926            8 
 1386000   0.70637624   -7.5211551    332.89623  0.020015406  0.019668252           11 
 1387000   0.68940307   -7.5095696    333.33991  0.020027632   0.01965361            8 
 1388000   0.70039837   -7.5067313    333.49648  0.020022604  0.019638985            9 
 1389000   0.70449449   -7.5216011     332.7921  0.019965929  0.019624368           11 
 1390000    0.6854509    -7.521455    334.10354  0.020030188  0.019609772           16 
 1391000   0.69678854   -7.4858737    333.81205  0.019998326  0.019595191            8 
 1392000   0.69932881   -7.5124762    333.69887  0.019977183   0.01958066            5 
 1393000   0.69151107   -7.5111879    333.38553  0.019944097  0.019566141            4 
 1394000   0.70649309   -7.5291657    333.48737  0.019935878   0.01955156           12 
 1395000   0.68391083   -7.5159094    333.30601  0.019910754  0.019536948            9 
 1396000   0.69814242    -7.540082    333.32745   0.01989777  0.019522342           11 
 1397000   0.70254296   -7.5424694    332.77108  0.019850339  0.019507662           10 
 1398000   0.70040568   -7.5537326     332.9618  0.019847508  0.019492995            3 
 1399000   0.69792062   -7.5424951    333.63561  0.019873458   0.01947835            7 
 1400000   0.70453285   -7.5547692    333.37566  0.019843789  0.019463742            8 
 1401000   0.69468403   -7.5311983    333.26671  0.019823145  0.019449116           12 
 1402000   0.69572845   -7.5181407    334.04032  0.019854988  0.019434633            4 
 1403000   0.69437185   -7.5215309    333.52104  0.019809993  0.019420152           12 
 1404000   0.69375936   -7.5070783     333.3446  0.019785411   0.01940565            6 
 1405000   0.69067393   -7.5196518     334.4566  0.019837284  0.019391168            9 
 1406000   0.69384589   -7.5165503    334.30683  0.019814298   0.01937671            8 
 1407000   0.69347132   -7.5223088    333.57986  0.019757158  0.019362239           18 
 1408000   0.70602919   -7.5325465    333.61985  0.019745493  0.019347825           10 
 1409000   0.68329002   -7.5547747    333.10312  0.019700918  0.019333365            9 
 1410000   0.69258499   -7.5241738    333.61784  0.019717366  0.019318916            6 
 1411000   0.69336756   -7.5168061    333.36629  0.019688536  0.019304467            8 
 1412000   0.67587426   -7.5467298    333.28593   0.01966985   0.01929004            9 
 1413000   0.71668043   -7.5159298    334.29791  0.019715612  0.019275665            7 
 1414000   0.69836526   -7.5206255    334.00018  0.019684122  0.019261267            8 
 1415000   0.69247521   -7.5214101    334.22291  0.019683328  0.019246923            7 
 1416000   0.68600884   -7.5463532    333.94504  0.019653074  0.019232579           11 
 1417000   0.68748958   -7.5440563    333.88356  0.019635589  0.019218211            6 
 1418000   0.69687607    -7.558381    334.20407  0.019640578  0.019203835            4 
 1419000   0.70531954   -7.5369821     334.4652  0.019642072   0.01918947            7 
 1420000   0.67953428    -7.531176     334.2411  0.019615088  0.019175096            4 
 1421000   0.68948701   -7.5455263    333.60058  0.019563722   0.01916072           11 
 1422000   0.68249044   -7.5230675    333.87551  0.019566075  0.019146425           10 
 1423000   0.68388286    -7.531011    334.07424  0.019563963  0.019132104            5 
 1424000   0.69408926   -7.5221745    334.27849  0.019562178  0.019117816            5 
 1425000   0.67861277   -7.5413667    333.92827  0.019527969  0.019103557           10 
 1426000   0.68095422   -7.5441038    333.86796   0.01951075  0.019089319            7 
 1427000    0.6856186   -7.5390793    333.90415  0.019499191  0.019075065            5 
 1428000   0.67682928   -7.5265887    334.65603  0.019529414  0.019060806            6 
 1429000   0.68075203   -7.5319576    334.77406   0.01952263  0.019046555           10 
 1430000   0.69266881   -7.5551043    334.44804  0.019489979  0.019032318           12 
 1431000   0.66802719   -7.5563589    333.94559  0.019447099  0.019018104            8 
 1432000   0.67498169   -7.5499654    334.85618  0.019486509  0.019003879            7 
 1433000   0.68771702   -7.5548204    334.35732  0.019443901  0.018989689            9 
 1434000   0.68147622   -7.5723993     334.0012  0.019409647   0.01897551            9 
 1435000   0.66251216    -7.575952    334.58467  0.019430004   0.01896129            8 
 1436000   0.67099391   -7.5524919    334.10829  0.019388828  0.018947085           18 
 1437000   0.67089595   -7.5427259    335.20308  0.019438824  0.018932945           13 
 1438000   0.68904115   -7.5433605    333.88405  0.019348867  0.018918781           13 
 1439000   0.69393858   -7.5489124    334.01264  0.019342867  0.018904623           13 
 1440000   0.68341974   -7.5577921    333.63867  0.019307793  0.018890452           13 
 1441000   0.68544043   -7.5438669    334.54416  0.019346759  0.018876307           44 
 1442000   0.68528504   -7.5875817    334.35898  0.019322641  0.018862135           12 
 1443000   0.67595971   -7.5441328    334.95043  0.019343407  0.018848028           20 
 1444000   0.68138999   -7.5737511    334.35835  0.019295842  0.018833871           48 
 1445000   0.68005347   -7.5538054    334.31836  0.019280182  0.018819776           49 
 1446000   0.68146777     -7.56084    334.09211   0.01925381  0.018805674           28 
 1447000   0.69244295    -7.552134    334.12715  0.019242522  0.018791533           22 
 1448000   0.68815254   -7.5740502    334.68026  0.019261065  0.018777403           35 
 1449000   0.66439717   -7.5774532    334.55485  0.019240559  0.018763256           15 
 1450000   0.65947176   -7.5699682    334.33253  0.019214513  0.018749119           29 
 1451000   0.67948491   -7.5631155    334.10598   0.01918826  0.018734983           27 
 1452000   0.66770581   -7.5629573    334.85985  0.019218311  0.018720858           44 
 1453000   0.65854873   -7.5519041    334.54241  0.019186878  0.018706784           27 
 1454000   0.66261089   -7.5576099    334.21791  0.019155084  0.018692722           18 
 1455000   0.69434998   -7.5889095    334.63688  0.019165915  0.018678665           24 
 1456000   0.65693165    -7.574927    334.93026  0.019169543  0.018664589           31 
 1457000   0.66578975    -7.583362    334.61701   0.01913847    0.0186505           24 
 1458000   0.67795021   -7.5746588     334.6942  0.019129755  0.018636478           21 
 1459000   0.66657828   -7.5738323    334.74335  0.019119451  0.018622474           10 
 1460000   0.66779086   -7.5693112    334.44998  0.019089611   0.01860846           31 
 1461000   0.66322511    -7.595295     334.9879  0.019107227   0.01859444           13 
 1462000   0.67903637   -7.5877726    334.44295  0.019063096  0.018580417           12 
 1463000   0.67742065    -7.568381    334.82331  0.019071731  0.018566425           30 
 1464000   0.67568616   -7.5956022    334.58403  0.019045084  0.018552438           36 
 1465000   0.67970427   -7.5980794    335.08713  0.019060701  0.018538468           29 
 1466000   0.66816956   -7.6101866     334.2614  0.019000762   0.01852454           21 
 1467000   0.66453644   -7.5784534     334.6548  0.019010157  0.018510605           35 
 1468000   0.66956118    -7.580965    334.95644   0.01901433  0.018496648           26 
 1469000   0.65094862   -7.5741738    334.83934  0.018994743  0.018482684           32 
 1470000    0.6615417    -7.607335    334.93943  0.018987496  0.018468713           23 
 1471000   0.66354187   -7.5840612    334.93701  0.018974451  0.018454743           17 
 1472000   0.66152061   -7.5937481    335.01136   0.01896577  0.018440794           12 
 1473000   0.66688029   -7.5974307    334.88719  0.018945869   0.01842687           21 
 1474000   0.67580532   -7.5981467     334.7326  0.018924277  0.018412915           19 
 1475000   0.66033508   -7.5910973    335.38257  0.018948168  0.018398958            7 
 1476000    0.6526488    -7.582422    334.71923  0.018897879  0.018384997            8 
 1477000   0.65805977   -7.5885879    334.90567  0.018895603  0.018371035           12 
 1478000   0.65516237   -7.6049843    334.53301  0.018861807  0.018357065           11 
 1479000   0.67212991   -7.6009279    334.94378  0.018872199  0.018343103            8 
 1480000   0.65721339   -7.5956381    334.14961   0.01881473  0.018329172            9 
 1481000   0.66139791   -7.5799026    334.74693  0.018835636  0.018315281           16 
 1482000   0.65841281   -7.5982834    333.56287  0.018756347  0.018301369           22 
 1483000   0.67795713   -7.6173115    334.32632  0.018786599  0.018287446           11 
 1484000   0.67701828   -7.5969924    334.32275  0.018773739  0.018273583           15 
 1485000   0.67185724   -7.5973083     335.2048  0.018810595  0.018259712           15 
 1486000   0.66446476   -7.6256674    334.52335  0.018759721  0.018245827           25 
 1487000   0.66799668   -7.6254301    334.32394   0.01873593  0.018231908           11 
 1488000   0.67003079     -7.58824    334.94064  0.018757877  0.018217998           12 
 1489000   0.65584453    -7.597718    335.10798  0.018754644  0.018204126           17 
 1490000   0.64578883   -7.5722806    334.65379  0.018716655  0.018190268            7 
 1491000   0.63998313   -7.5584223    335.16704  0.018732788  0.018176438            6 
 1492000   0.64324647   -7.5959535    335.35037  0.018730472  0.018162662            7 
 1493000   0.66673181   -7.6150019    334.41204  0.018665553  0.018148859           13 
 1494000   0.64572317    -7.636471    334.23234  0.018643035   0.01813503           17 
 1495000   0.64486396   -7.6046467    334.02313  0.018618904  0.018121187           12 
 1496000   0.66943077   -7.6068278    335.17326  0.018670524  0.018107312            9 
 1497000   0.65209689    -7.611817    334.57369  0.018624677  0.018093496            6 
 1498000   0.64312914   -7.5875322    333.83031  0.018570889  0.018079681            6 
 1499000    0.6537781   -7.6035778    334.33179  0.018586379   0.01806586            8 
 1500000   0.66406021   -7.6178701    334.74843  0.018597135   0.01805205            8 
 1501000   0.65392105   -7.6127075    333.96601  0.018541306  0.018038262           10 
 1502000   0.65676984     -7.60623    333.83867  0.018521897  0.018024443            6 
 1503000   0.64524731   -7.5978861    334.63801  0.018553893  0.018010689           15 
 1504000    0.6500542   -7.6250814    334.29084   0.01852232  0.017996938           10 
 1505000   0.65579352   -7.6387762    334.91769  0.018544723  0.017983177            7 
 1506000   0.65866045   -7.5993195    334.94621  0.018533987  0.017969424            4 
 1507000   0.66878619   -7.6087169    334.55291   0.01849994  0.017955716           12 
 1508000   0.64418386   -7.5939522    334.96717  0.018510564  0.017942012           11 
 1509000   0.64671092   -7.5943208    335.09013  0.018505088   0.01792832            8 
 1510000   0.63792797   -7.6091488    335.67461  0.018525089  0.017914628            7 
 1511000   0.65650769   -7.6108555    334.74353  0.018461478  0.017900969            6 
 1512000   0.63127364   -7.6234303    335.16835  0.018472682  0.017887266            4 
 1513000   0.64491819   -7.6150019    334.92424  0.018447028  0.017873603            6 
 1514000   0.64751071   -7.6187874    334.58839  0.018416358   0.01785991            6 
 1515000   0.63765366   -7.6016063    334.32854  0.018389909   0.01784622            7 
 1516000   0.64601152    -7.633404    333.78533  0.018347918  0.017832532            6 
 1517000    0.6428174   -7.6433225    334.54101  0.018377335  0.017818849           12 
 1518000    0.6406754   -7.6334607    334.96418   0.01838846  0.017805176            9 
 1519000   0.65157403   -7.6159498    334.47058  0.018349275   0.01779155            7 
 1520000   0.65151788   -7.6426063    333.94336  0.018308298  0.017777935            7 
 1521000   0.65392997   -7.6514621    334.80196  0.018343303  0.017764335            4 
 1522000   0.65098986   -7.6196628     334.7425  0.018327995  0.017750781            8 
 1523000   0.63855965   -7.6249197    334.86222  0.018322511  0.017737218            6 
 1524000    0.6409284   -7.6168063    334.57431  0.018294746  0.017723653            4 
 1525000   0.63277535   -7.6357057    334.66775  0.018287855  0.017710105            9 
 1526000   0.65002604   -7.6333382    335.17191  0.018303403  0.017696562           12 
 1527000    0.6626545   -7.6110748    334.56768  0.018258441  0.017683009            9 
 1528000   0.65272123   -7.6373884    334.40609   0.01823768   0.01766945           10 
 1529000   0.65254044   -7.6218438    335.13323  0.018265382  0.017655892           10 
 1530000   0.65202182   -7.6117516    335.00263  0.018246331  0.017642357           13 
 1531000   0.63083326   -7.6423611    334.53211  0.018208802  0.017628839            6 
 1532000   0.63450837   -7.6440178     334.7253  0.018207425  0.017615299           10 
 1533000   0.64720241   -7.6275604    335.07682  0.018214656  0.017601768            6 
 1534000   0.63823648   -7.6258717    334.68722  0.018181618  0.017588247            9 
 1535000   0.63743805   -7.6249234     335.0464  0.018189273   0.01757472            6 
 1536000   0.63895653   -7.6327674    334.60255   0.01815335  0.017561187            5 
 1537000   0.64783647   -7.6348455    334.89145  0.018157203  0.017547653            5 
 1538000   0.64883478   -7.6438831    334.45586  0.018121796  0.017534143           11 
 1539000   0.64299367   -7.6379174    334.67156    0.0181217  0.017520626           10 
 1540000   0.62611621   -7.6607578     334.4513  0.018098014  0.017507157            6 
 1541000   0.63689832    -7.666678    334.34996  0.018080789  0.017493682           10 
 1542000   0.65195039   -7.6346891    334.97534  0.018102861  0.017480238            4 
 1543000   0.63880646   -7.6438456    335.42762  0.018115555  0.017466798            5 
 1544000   0.63088316   -7.6738857    335.14366  0.018088496  0.017453361            8 
 1545000   0.64608014   -7.6357316    335.39295  0.018090235  0.017439936            4 
 1546000   0.63162923   -7.6468896    334.86885  0.018050283  0.017426517            6 
 1547000   0.64573102   -7.6572646    334.58229  0.018023179  0.017413118            8 
 1548000   0.63352898   -7.6424806    334.52585  0.018008497  0.017399713           14 
 1549000   0.64104689   -7.6566197    334.84016  0.018013781  0.017386318            9 
 1550000   0.62502427   -7.6462348    335.06198  0.018014085  0.017372958            6 
 1551000    0.6414329   -7.6193159    335.47619  0.018024726  0.017359626            6 
 1552000   0.63218539   -7.6500869    334.72902  0.017972993  0.017346285           14 
 1553000   0.63208596   -7.6425846    334.81614  0.017966095  0.017332922            7 
 1554000   0.64001596   -7.6657967     334.4053  0.017932502   0.01731953           21 
 1555000   0.61496443   -7.6703026    334.32966  0.017916916   0.01730618           26 
 1556000   0.63205709   -7.6643205    335.27579  0.017956073  0.017292851           18 
 1557000   0.63292564   -7.6732229    334.98479  0.017928965  0.017279546           25 
 1558000   0.62229776   -7.6591939    334.96219  0.017916249  0.017266254           12 
 1559000   0.63760479   -7.6499896    334.23296  0.017865777  0.017252958           16 
 1560000   0.63510446   -7.6700587     334.8658   0.01788813  0.017239668           14 
 1561000   0.63229146   -7.6644381    334.88506  0.017877699  0.017226383            9 
 1562000   0.63297631   -7.6778057    335.07903  0.017876602  0.017213114           14 
 1563000   0.64175179   -7.6792709    335.29413  0.017876633  0.017199865           14 
 1564000    0.6188648   -7.6943391    334.62166  0.017829372  0.017186599           13 
 1565000   0.62219875   -7.6659316    334.82966  0.017829056  0.017173332           21 
 1566000   0.62976408   -7.6476153    334.66809  0.017809073  0.017160089           17 
 1567000   0.61825649   -7.6541807    334.92711  0.017811482  0.017146819           33 
 1568000   0.63710013   -7.6856798     334.8726  0.017797226  0.017133545           37 
 1569000    0.6416646   -7.6918256    334.80707  0.017782402  0.017120267           30 
 1570000   0.62501902   -7.6777045    333.63254  0.017708734  0.017107012           11 
 1571000   0.63024553   -7.6924662    334.90732  0.017765081  0.017093778           26 
 1572000   0.61964481    -7.680426    334.36727  0.017725152  0.017080561           27 
 1573000    0.6262108   -7.6760145    334.19982  0.017705013   0.01706731           13 
 1574000   0.63686097   -7.6783733    335.23271  0.017748449  0.017054118           18 
 1575000   0.61696806   -7.6897014    334.38646  0.017692405  0.017040924           15 
 1576000     0.615262   -7.6806159    334.73743  0.017699737  0.017027752           11 
 1577000    0.6314519   -7.6916111    334.20526  0.017660392  0.017014596           17 
 1578000   0.62120768   -7.6823148    335.25968  0.017704884  0.017001421            9 
 1579000   0.62692151   -7.6834289    334.63173   0.01766053  0.016988236           13 
 1580000   0.62520282   -7.6588334    334.29435  0.017631559  0.016975053           22 
 1581000   0.61883957   -7.6764709    334.18666   0.01761473  0.016961891           22 
 1582000   0.60801559   -7.6859439    334.20779  0.017604709  0.016948705           21 
 1583000   0.63133747   -7.6709682    334.55761  0.017612003  0.016935502           15 
 1584000   0.61181355   -7.6889149    334.05884  0.017574644  0.016922284           27 
 1585000   0.64163895   -7.6867786    333.92792  0.017556673  0.016909062           25 
 1586000   0.62638983   -7.6994855    334.44698  0.017572876  0.016895881           31 
 1587000   0.60808541   -7.6671634    334.49895  0.017564532  0.016882764           20 
 1588000   0.59917798   -7.6863098    334.56002  0.017556676  0.016869618           25 
 1589000   0.62980871   -7.6852072     334.8544  0.017561066  0.016856473           17 
 1590000   0.60821709   -7.7093335    334.19486  0.017515454  0.016843351           28 
 1591000   0.63412504   -7.7071233    334.05621  0.017497183  0.016830209           27 
 1592000   0.60739028   -7.6900769    333.86618  0.017476245  0.016817075           27 
 1593000   0.61137237   -7.7074677    333.91385  0.017467768  0.016803979           15 
 1594000   0.61349729   -7.6837107    334.46631  0.017485692  0.016790889           28 
 1595000   0.62608762   -7.6994692    334.24336  0.017463081  0.016777801           27 
 1596000   0.62377654   -7.7065542    334.56531  0.017468949  0.016764723           18 
 1597000   0.59241944   -7.7052647    334.47135  0.017453107  0.016751642           20 
 1598000   0.60551655   -7.7138127    333.60713  0.017397118   0.01673856           11 
 1599000   0.62177878   -7.7052091    334.31813  0.017423292  0.016725474           20 
 1600000   0.61707363   -7.6851398     334.2984  0.017411375  0.016712426           14 
 1601000   0.61675814   -7.7045544    334.26574    0.0173988  0.016699388           12 
 1602000   0.61081424   -7.7075492    334.20527  0.017384793  0.016686368           18 
 1603000   0.60630767   -7.7069706    334.36038  0.017382012  0.016673359           15 
 1604000   0.60629527   -7.7268061    334.00314  0.017352615  0.016660306            8 
 1605000   0.60388395   -7.7368444    334.34967  0.017359796  0.016647294           13 
 1606000   0.60675102   -7.7188473    334.73113   0.01736878   0.01663428           12 
 1607000   0.61826674   -7.7300899    333.75491  0.017307348  0.016621287            9 
 1608000   0.60664035   -7.7046772    334.01724   0.01731018  0.016608283           18 
 1609000   0.61497286     -7.72499    334.26758  0.017312388  0.016595301            7 
 1610000   0.60847012   -7.7244626    334.31618   0.01730415  0.016582338           12 
 1611000   0.60959336   -7.7283897    333.92345  0.017273094  0.016569365           13 
 1612000    0.6067303   -7.7333405    334.67844  0.017301408  0.016556426           10 
 1613000   0.61744479   -7.7209766    333.69995   0.01724013  0.016543498           19 
 1614000    0.6112723    -7.728992    334.33574  0.017262275  0.016530572           13 
 1615000   0.59943591   -7.7195585    334.08443  0.017238619  0.016517655           16 
 1616000   0.61143399   -7.7215476    334.72442  0.017260954   0.01650476           17 
 1617000   0.59907687   -7.7152196    334.47571  0.017237462  0.016491902           15 
 1618000   0.61211635   -7.7231551    333.93757  0.017199092  0.016479045           16 
 1619000    0.5955496   -7.7167988    334.60964  0.017223062  0.016466165           12 
 1620000   0.59910551   -7.7299239    334.42799  0.017203086  0.016453311           15 
 1621000   0.59407094   -7.6889575    333.80639  0.017160518  0.016440465           13 
 1622000   0.60638439    -7.734357    334.02488  0.017161163   0.01642766           13 
 1623000   0.60188333   -7.7416126    334.02982  0.017150843  0.016414847           12 
 1624000   0.60799332   -7.7403649    334.27181    0.0171527   0.01640206            6 
 1625000   0.60008721   -7.7293211    333.71699  0.017113692   0.01638924            9 
 1626000   0.60281314   -7.7418895    333.97974  0.017116633  0.016376409           12 
 1627000   0.61219449   -7.7272178    334.23668  0.017119272  0.016363601           10 
 1628000   0.59449432   -7.7346827    334.07764  0.017100616   0.01635081            9 
 1629000   0.60328476   -7.7300431    334.10295  0.017091414  0.016338037           12 
 1630000   0.60499068   -7.7432332    334.43603  0.017097957  0.016325271           15 
 1631000   0.60691078    -7.730063     333.8197  0.017055983  0.016312511            7 
 1632000   0.60857767   -7.7357797    333.95976  0.017052684  0.016299766           16 
 1633000   0.61414077   -7.7438417    334.18207  0.017053586  0.016287011           13 
 1634000   0.59892178   -7.7464617     334.0744  0.017037658  0.016274297           10 
 1635000   0.59617805    -7.767527    334.10713  0.017028906  0.016261565           12 
 1636000   0.60337464   -7.7380613    334.32141  0.017029412  0.016248851           10 
 1637000   0.59865971   -7.7406574    334.31887   0.01701888  0.016236155           14 
 1638000    0.5954099   -7.7268747    334.97895  0.017042071   0.01622347           12 
 1639000   0.59536015   -7.7213789    334.52822  0.017008756  0.016210788           18 
 1640000   0.60699545   -7.7333993    334.26706  0.016985115  0.016198117           14 
 1641000   0.60222287   -7.7489647    334.13215  0.016967913  0.016185494           14 
 1642000   0.59297513   -7.7385548     333.5609  0.016928588  0.016172867           11 
 1643000   0.61109444   -7.7563574    334.29574  0.016955556   0.01616022           13 
 1644000    0.6003299   -7.7225903    334.26849  0.016943861  0.016147603           13 
 1645000   0.58842891   -7.7398246    334.19452  0.016929813  0.016134999            8 
 1646000   0.58407629    -7.747057    334.07098  0.016913274  0.016122391            6 
 1647000   0.60135127   -7.7396844    333.71066  0.016884774  0.016109773            8 
 1648000   0.58584672   -7.7387099     333.1403  0.016845687  0.016097168           11 
 1649000   0.58445113   -7.7456459    334.37228   0.01689773  0.016084577            9 
 1650000   0.59719754   -7.7481111    333.93835  0.016865573  0.016071989           10 
 1651000   0.58654025   -7.7580359    334.15167  0.016866125  0.016059424           11 
 1652000   0.58777647   -7.7689478      334.335  0.016865164  0.016046853           12 
 1653000   0.59153735   -7.7428317    334.57855  0.016867239  0.016034313           18 
 1654000   0.59196942   -7.7443898    334.04372  0.016830095  0.016021785           13 
 1655000   0.59421032   -7.7453796    334.67064  0.016851493  0.016009284           11 
 1656000    0.5828402   -7.7554796    334.23143  0.016819215  0.015996777           10 
 1657000   0.59840382   -7.7334489    334.36899  0.016815982  0.015984251           15 
 1658000   0.58617995   -7.7470079    334.64183  0.016819553  0.015971751           15 
 1659000   0.59757131   -7.7564694    334.12969   0.01678369  0.015959243           18 
 1660000   0.59100718   -7.7394736    334.11566  0.016772874  0.015946763           13 
 1661000   0.59683164   -7.7637045    334.05989  0.016759978  0.015934278           13 
 1662000   0.58774617   -7.7604029    333.87919  0.016740834  0.015921813           14 
 1663000   0.59002194   -7.7702105    334.24824   0.01674926  0.015909375           18 
 1664000   0.59002131   -7.7421187    334.37017  0.016745301   0.01589695           16 
 1665000     0.590304   -7.7554639    334.39876  0.016736675  0.015884532           14 
 1666000   0.58275349   -7.7695519    334.33213  0.016723296  0.015872106           11 
 1667000   0.58413992   -7.7689587    333.87554  0.016690439  0.015859684            9 
 1668000   0.59424819   -7.7434604    334.27059   0.01670017  0.015847261           13 
 1669000   0.58230307   -7.7363196    333.59432  0.016656397   0.01583486           19 
 1670000     0.581404   -7.7568467    333.91877  0.016662613  0.015822482           17 
 1671000   0.58318953   -7.7695533    334.24078    0.0166687   0.01581008           12 
 1672000   0.59019176   -7.7581852    333.60672  0.016627129    0.0157977           15 
 1673000   0.58144284   -7.7590732    333.82492  0.016628059  0.015785316           11 
 1674000   0.58177996   -7.7467379    333.27178   0.01659059  0.015772941            9 
 1675000   0.58533243    -7.758468    334.19775  0.016626754    0.0157606           12 
 1676000   0.56805429    -7.764056    333.86112  0.016600095  0.015748268           12 
 1677000   0.57036031   -7.7897526    334.07535  0.016600842  0.015735937            8 
 1678000    0.5898384   -7.7678989    334.30467  0.016602338  0.015723619           11 
 1679000   0.58637588   -7.7364715    333.89621  0.016572176  0.015711353           13 
 1680000   0.58683257   -7.7658993    334.00573  0.016567745  0.015699053            9 
 1681000   0.57201936   -7.7615449    333.94276  0.016554767  0.015686774           13 
 1682000   0.58360781   -7.7604179     334.0101  0.016548261  0.015674504           16 
 1683000   0.57531869   -7.7445129     334.1995  0.016547806  0.015662256           26 
 1684000   0.58717399   -7.7830207    333.99443  0.016527832  0.015650016           37 
 1685000    0.5721771   -7.7564984    334.17145  0.016526778  0.015637789           16 
 1686000   0.56100707   -7.7731996    334.68998  0.016542605  0.015625567           19 
 1687000   0.57440343   -7.7582272    334.19712  0.016508453  0.015613352           11 
 1688000   0.57715191   -7.7751923      333.953  0.016486621   0.01560116            8 
 1689000   0.58354954   -7.7983898    334.43061  0.016500425  0.015588948           14 
 1690000   0.58054756   -7.7542932    333.95196  0.016467059  0.015576773           11 
 1691000    0.5818756   -7.7848886    333.64158  0.016442026  0.015564602           19 
 1692000    0.5714316   -7.7740633    333.87315  0.016443713  0.015552451           10 
 1693000   0.57948318    -7.750761    333.76583  0.016428718  0.015540293            9 
 1694000   0.57831961     -7.76822    334.19213  0.016439991   0.01552813           14 
 1695000   0.57132805   -7.7701646    333.50897  0.016396704  0.015515988           19 
 1696000   0.59005449   -7.7664374    334.10749  0.016416445  0.015503877           11 
 1697000   0.57723701   -7.7589585    334.08753  0.016405791  0.015491764           14 
 1698000   0.58308255    -7.764784    333.96115  0.016389927  0.015479659           18 
 1699000   0.56546479   -7.7623311    334.27071  0.016395463  0.015467564           28 
 1700000   0.58463193   -7.7935616    334.24255  0.016384439  0.015455499           21 
 1701000    0.5660399   -7.7659867    334.19213  0.016372336  0.015443441           10 
 1702000   0.57608509    -7.790005    334.12656  0.016359506  0.015431402           11 
 1703000   0.56044357   -7.7775672    334.39462  0.016363017  0.015419376           11 
 1704000   0.58137677   -7.7764951    334.54157  0.016360601  0.015407353            6 
 1705000   0.57872462   -7.7873345    333.80194  0.016314855  0.015395313           11 
 1706000   0.57359975   -7.7923637    334.03846  0.016316846  0.015383295           12 
 1707000   0.57259926   -7.7866597    333.86605   0.01629887   0.01537129            8 
 1708000   0.57059792    -7.783624    333.14853  0.016254319  0.015359265           18 
 1709000   0.56653664   -7.7981482    333.49593  0.016261748  0.015347247            8 
 1710000   0.57594983   -7.7659341    333.94325  0.016274038  0.015335254           10 
 1711000   0.57624349   -7.7869117    334.01749  0.016268142  0.015323253           15 
 1712000   0.57826157     -7.75678    333.77295  0.016246736  0.015311268           11 
 1713000   0.58101948   -7.7815508    333.04966  0.016202066  0.015299274           14 
 1714000   0.57160779    -7.790095    334.14062  0.016245655  0.015287292           10 
 1715000   0.55592862   -7.7848902    333.28855  0.016194779  0.015275303            9 
 1716000   0.56003733   -7.7848275    333.60691  0.016200802  0.015263341           12 
 1717000   0.56562819   -7.7894701    334.07974  0.016214315  0.015251373           14 
 1718000   0.56590316   -7.7911897    333.40009   0.01617191  0.015239407           13 
 1719000   0.57446302    -7.785413    333.23336  0.016154419  0.015227431            7 
 1720000   0.56062268     -7.80109    333.42598  0.016154359  0.015215459           18 
 1721000   0.55075381   -7.8138986      333.873  0.016166618  0.015203496           14 
 1722000   0.56666369   -7.8088939    333.89588  0.016158337  0.015191541            9 
 1723000   0.56748719   -7.8070927    332.96116  0.016103751  0.015179584           21 
 1724000   0.57556562   -7.7906161     333.7636  0.016133198  0.015167657           20 
 1725000   0.57510242   -7.8021009    333.13195  0.016093331  0.015155749           12 
 1726000   0.56375715   -7.7908174    334.16292  0.016133783  0.015143849           15 
 1727000   0.56664152   -7.8026118    333.67898   0.01610109  0.015131946            9 
 1728000   0.55552806   -7.8077424    333.52403  0.016084299  0.015120035           22 
 1729000   0.55887093   -7.8099368    333.04274    0.0160518  0.015108133           23 
 1730000   0.55664101   -7.8091852    333.47942  0.016063556  0.015096234           25 
 1731000   0.56556239   -7.7964485    333.17223  0.016039487  0.015084353           24 
 1732000   0.55523462   -7.8144219    332.70634  0.016007811  0.015072467           27 
 1733000   0.58040179   -7.8142794    333.26287  0.016025335  0.015060597            8 
 1734000   0.56197376   -7.8098777    333.56605  0.016030664  0.015048739           14 
 1735000   0.55785917   -7.8154174    332.69558  0.015979615  0.015036885           22 
 1736000   0.56085866   -7.8247546    332.83632  0.015977166  0.015025061           19 
 1737000   0.56678185   -7.8071193    332.94496   0.01597318  0.015013219           19 
 1738000   0.54289897   -7.7914755    332.54629  0.015944874  0.015001396           13 
 1739000   0.55304579   -7.8225256    332.86704  0.015951075  0.014989581            5 
 1740000   0.56769208   -7.7940066    333.38757  0.015966838  0.014977799           12 
 1741000   0.56575649   -7.8044526    333.42743  0.015959574   0.01496602           12 
 1742000   0.55144191   -7.8208516    333.02615  0.015931216  0.014954255            9 
 1743000   0.54917083   -7.7996293    333.14731  0.015927869  0.014942467            9 
 1744000   0.56041863   -7.8108075    333.00131   0.01591176  0.014930693            9 
 1745000   0.54037818   -7.8256317     333.2006  0.015912159  0.014918937           14 
 1746000   0.55159195   -7.8289887    332.93695  0.015890461  0.014907174           12 
 1747000    0.5474563   -7.8226941    333.54227   0.01591024  0.014895413            8 
 1748000   0.55154547    -7.815914    332.88927  0.015870007  0.014883692           18 
 1749000   0.55388468    -7.822941    333.29716  0.015880368   0.01487196            9 
 1750000   0.55855447   -7.8205709    333.34898  0.015873761  0.014860241           13 
 1751000   0.56200917   -7.8328911    333.06771  0.015851309   0.01484853           13 
 1752000   0.55062392   -7.8188413    333.16176  0.015846735  0.014836816           14 
 1753000   0.55051363   -7.8257058    333.02296  0.015831097  0.014825126            9 
 1754000   0.55864566   -7.8089139     333.3906  0.015839538  0.014813454           10 
 1755000    0.5594193   -7.8170874    332.64536  0.015795126  0.014801784            9 
 1756000   0.53827827    -7.815018    333.27146  0.015815844  0.014790137            9 
 1757000   0.55563996   -7.8179516    333.10759   0.01579907  0.014778515           10 
 1758000   0.53988657   -7.8240451    333.42305  0.015805037  0.014766892           10 
 1759000   0.55506577   -7.8233545     333.5348  0.015801345  0.014755276            7 
 1760000   0.55343832   -7.8171359    333.01223  0.015767625  0.014743664            9 
 1761000   0.54350736   -7.8329806    332.60486  0.015739393  0.014732054           11 
 1762000   0.53010668   -7.8235048    333.12804  0.015755204  0.014720454            8 
 1763000   0.54571508   -7.8378401     332.8834  0.015734704  0.014708861           15 
 1764000   0.54884039   -7.8409704    332.71679  0.015717913  0.014697279            9 
 1765000   0.56252005   -7.8363514    333.24007  0.015733714  0.014685684           13 
 1766000   0.55963931   -7.8372472    332.84506  0.015706166  0.014674113           11 
 1767000   0.54044442   -7.8216405    332.30035  0.015671588  0.014662547           11 
 1768000   0.54571386   -7.8360029    333.57689  0.015722893  0.014651014            9 
 1769000   0.53610147   -7.8225007    332.50712   0.01566361  0.014639493            8 
 1770000   0.55558848   -7.8230063    333.14572  0.015684827  0.014627968           10 
 1771000   0.55808817   -7.8401669    332.87715  0.015663333  0.014616459           10 
 1772000   0.54246197    -7.831758    333.03558  0.015661944  0.014604967           13 
 1773000   0.54383228   -7.8272919    332.23052  0.015615272  0.014593468           13 
 1774000   0.55466549   -7.8508726    332.68706  0.015627915  0.014581963           14 
 1775000   0.55844588   -7.8582807    332.49224  0.015609964   0.01457048           12 
 1776000   0.53780362   -7.8436445    332.45269  0.015599319  0.014558991           11 
 1777000   0.54728937   -7.8600011    333.09062  0.015620457  0.014547521           11 
 1778000   0.53732439   -7.8471868    332.66213  0.015591589  0.014536059           16 
 1779000   0.54597372   -7.8407998    333.14975  0.015605666  0.014524611           14 
 1780000   0.53655414   -7.8482845    332.49572  0.015566279   0.01451316           17 
 1781000   0.53614686   -7.8540966    333.03385  0.015582718  0.014501717           11 
 1782000   0.53624203   -7.8683766    332.80456  0.015563251  0.014490279           20 
 1783000   0.55515409   -7.8358368    332.46638  0.015538717  0.014478852           12 
 1784000   0.53810757   -7.8447492    332.16066  0.015515726  0.014467453           14 
 1785000   0.54715556   -7.8471132    333.22984  0.015556948  0.014456059           13 
 1786000    0.5428619     -7.84335    332.20788  0.015500554  0.014444672            9 
 1787000   0.54074842   -7.8432514    333.26888  0.015541358  0.014433302           14 
 1788000   0.53037145   -7.8586011    332.67395  0.015504938  0.014421937            9 
 1789000   0.53632096   -7.8506009    332.47968  0.015487222  0.014410578           14 
 1790000   0.54203961   -7.8452405    332.94502  0.015500233  0.014399224           15 
 1791000   0.53236799   -7.8385086    332.55452   0.01547341  0.014387882            8 
 1792000   0.54867012   -7.8631337    332.38789  0.015457026  0.014376566            9 
 1793000   0.53210485   -7.8515156    332.58955  0.015457778  0.014365257           18 
 1794000   0.54338481   -7.8475688    332.92836    0.0154649  0.014353963           12 
 1795000   0.54817182   -7.8505277    332.84457  0.015452394  0.014342684           20 
 1796000   0.52904683   -7.8533427    332.90184  0.015446448  0.014331418           12 
 1797000   0.54158175   -7.8689104    332.72394  0.015429602  0.014320156           22 
 1798000   0.53228017   -7.8431872    332.14871   0.01539436  0.014308911           10 
 1799000    0.5444376   -7.8601802    332.64062  0.015408589  0.014297663           11 
 1800000   0.53252393   -7.8753492     332.7288  0.015404111  0.014286421           12 
 1801000   0.54632622   -7.8692936    332.02018   0.01536277  0.014275199           28 
 1802000   0.53604861   -7.8652892    332.76747  0.015388803  0.014263979           14 
 1803000   0.53478451   -7.8644188    331.80561  0.015335811  0.014252768           12 
 1804000   0.53248464   -7.8583267     332.4201  0.015355696   0.01424156           14 
 1805000   0.53326908   -7.8625247    331.98316  0.015327016  0.014230356           17 
 1806000   0.52594808   -7.8469229    332.77246  0.015354949  0.014219178           17 
 1807000   0.52763489   -7.8595654     332.2039  0.015320232  0.014208004           15 
 1808000   0.54229984   -7.8694735    332.53783  0.015327149  0.014196833           13 
 1809000   0.53392545   -7.8737916    332.69712  0.015326015  0.014185685           14 
 1810000   0.53350889   -7.8540595    332.82537  0.015323451  0.014174537           20 
 1811000   0.52129641   -7.8600104    332.89705  0.015318289  0.014163402           13 
 1812000   0.53041494    -7.877445    332.41177  0.015287517  0.014152274           13 
 1813000   0.53226575   -7.8839354    332.59989  0.015287731  0.014141168           25 
 1814000   0.52921332   -7.8590475    332.39315  0.015269807  0.014130063           13 
 1815000   0.53700489   -7.8734157    332.13642  0.015249606  0.014118967           13 
 1816000   0.53598695   -7.8837587    332.82199  0.015272668  0.014107882           14 
 1817000   0.52928471   -7.8723269    332.86196  0.015266096  0.014096813           10 
 1818000   0.52255995   -7.8703233    332.32342  0.015233013  0.014085746           23 
 1819000    0.5223737   -7.8548815    331.89232  0.015204889  0.014074683           17 
 1820000   0.53937634     -7.86697     332.2915  0.015214812  0.014063634           11 
 1821000   0.52551417   -7.8709693    332.03227  0.015194594  0.014052589           15 
 1822000   0.51738129   -7.8720204    332.35781  0.015201144  0.014041547           11 
 1823000   0.52849385   -7.8625348    332.25033  0.015187892  0.014030514           22 
 1824000    0.5199271    -7.871977    332.05353  0.015170575  0.014019495           19 
 1825000   0.52648578   -7.8738498    332.91173  0.015201449  0.014008473           15 
 1826000   0.52429541   -7.8798831    332.22226  0.015161658  0.013997465           15 
 1827000   0.52634468   -7.8889054    332.64058   0.01517244  0.013986463           13 
 1828000   0.52999988   -7.8914314    332.23601  0.015145697  0.013975474           11 
 1829000   0.51296574   -7.8894708    332.38493  0.015144201  0.013964499           10 
 1830000   0.52273957   -7.8591019    332.24422  0.015129518  0.013953534           13 
 1831000   0.53077471   -7.8892456    332.08604  0.015114056  0.013942591           15 
 1832000   0.51848961   -7.8927052    332.32184  0.015116532  0.013931655           12 
 1833000   0.51776273   -7.8875514    332.17203  0.015101474  0.013920713           21 
 1834000   0.51525494   -7.8727154    332.32742  0.015100301  0.013909786           10 
 1835000   0.52732391   -7.8852184    331.96744  0.015075724  0.013898847           26 
 1836000    0.5180409    -7.881891    332.42808  0.015088421  0.013887925           11 
 1837000   0.52352478   -7.8831469    332.05477  0.015063272  0.013877014           20 
 1838000   0.51935039   -7.8799108    331.75157   0.01504133   0.01386611           17 
 1839000   0.51362395    -7.893443    332.22992  0.015054827  0.013855223           12 
 1840000   0.51133076   -7.9075656    331.73281  0.015024131  0.013844333           13 
 1841000   0.52117158   -7.8960134    332.19923  0.015037082  0.013833474           18 
 1842000   0.51832055   -7.8768849    331.85694  0.015013434  0.013822604           26 
 1843000    0.5263649   -7.8724936    332.38569  0.015029195  0.013811761           30 
 1844000   0.51261588   -7.8880734    331.90823  0.014999468  0.013800919           22 
 1845000   0.50660843   -7.8810379    331.86007  0.014989163  0.013790098           13 
 1846000   0.52142891   -7.8807902    331.54905  0.014967003  0.013779283           11 
 1847000   0.51768647   -7.8887598    332.09414  0.014983493  0.013768473           12 
 1848000   0.50948102   -7.8881777    332.24554  0.014982212  0.013757677           20 
 1849000   0.51297476   -7.8963432    331.81782  0.014954832  0.013746866           16 
 1850000   0.51516684   -7.8874914    332.01046  0.014955426  0.013736089            9 
 1851000   0.51328891   -7.8943031    331.52238  0.014925373  0.013725324            8 
 1852000   0.51368649   -7.8836895    331.77824  0.014928826  0.013714562           13 
 1853000   0.51328228   -7.8809192    332.21615  0.014940464  0.013703809           18 
 1854000   0.52162813   -7.9022236    332.48655  0.014944559  0.013693067           13 
 1855000   0.50175957   -7.8758431    331.90257  0.014910268  0.013682337           11 
 1856000   0.51259509   -7.8877637    331.63564  0.014890249  0.013671626            9 
 1857000   0.49926774   -7.8933279    331.77996  0.014888707  0.013660909           20 
 1858000   0.52147241   -7.9094763    332.37737  0.014907489  0.013650202           13 
 1859000   0.50855032   -7.8853925    331.56106  0.014862877  0.013639497           10 
 1860000   0.50240725   -7.9041673     332.1147  0.014879691  0.013628805           13 
 1861000   0.51077642   -7.8978949     332.0392  0.014868315  0.013618121           13 
 1862000   0.50733802   -7.9055057    332.25183  0.014869846  0.013607456           12 
 1863000   0.51331634   -7.8968149    332.04929  0.014852804  0.013596796           13 
 1864000    0.5085358   -7.8997059    331.67431  0.014828072  0.013586131           13 
 1865000   0.50574858   -7.8907449    331.60518  0.014817032  0.013575482            8 
 1866000   0.52660474   -7.8950147    331.91192   0.01482279  0.013564847           28 
 1867000    0.5047202   -7.9100125    332.63831  0.014847273  0.013554218           17 
 1868000     0.503278   -7.9161947    331.50236  0.014788649  0.013543598           11 
 1869000   0.50345497   -7.8974557    331.57549  0.014783997  0.013532982           30 
 1870000   0.50899884   -7.9020046    332.14586  0.014801509  0.013522384           15 
 1871000   0.51639182   -7.9021202    331.94572  0.014784684  0.013511797           19 
 1872000   0.49624691   -7.9071758    331.76046  0.014768539  0.013501217           20 
 1873000   0.50874052   -7.8983232    331.91193  0.014767393  0.013490642           12 
 1874000   0.51168998   -7.8854788    331.80107  0.014754584  0.013480085           14 
 1875000   0.49883386   -7.8986296    331.68429  0.014741524  0.013469536           22 
 1876000   0.50228632    -7.905644    332.36675  0.014763981  0.013458983           12 
 1877000     0.497803    -7.909275     331.3171  0.014709514  0.013448443           11 
 1878000   0.49826729   -7.8858118    331.92543  0.014728676  0.013437906           13 
 1879000   0.49177807   -7.9067078    331.68909  0.014710355  0.013427388           12 
 1880000   0.50506858   -7.9111818    331.60554  0.014698827  0.013416883           25 
 1881000   0.50824923   -7.9022651    331.27762  0.014676485  0.013406383           21 
 1882000   0.49901444   -7.8976457    331.15313  0.014663175  0.013395891           13 
 1883000   0.50153901   -7.9008507    332.17715  0.014700706  0.013385399           14 
 1884000   0.49311119   -7.8934752    332.04439  0.014687031  0.013374928           17 
 1885000   0.49742528   -7.9045535    331.66458  0.014662448  0.013364469           12 
 1886000   0.49651097   -7.9125403     331.9598  0.014667718  0.013354021           12 
 1887000   0.49727746   -7.9152635    331.25232  0.014628702  0.013343569           22 
 1888000   0.49504151   -7.9183646    331.38628  0.014626866  0.013333126           18 
 1889000   0.49927235   -7.9156019    331.40899  0.014620125  0.013322699           16 
 1890000   0.50289466    -7.922455    331.48368  0.014615683   0.01331227           22 
 1891000   0.50264073   -7.9330448    331.61864  0.014613901  0.013301868           24 
 1892000   0.49529305   -7.9273587    331.29257  0.014591815  0.013291467           23 
 1893000   0.48825693   -7.9187652    331.93848  0.014612541  0.013281068           24 
 1894000   0.48751379    -7.898408    331.38456  0.014580454  0.013270687           35 
 1895000   0.49542608     -7.90481     331.5486  0.014579974  0.013260312           28 
 1896000    0.4934901   -7.9267706    331.60798  0.014574894   0.01324995           14 
 1897000   0.49546159   -7.9318685    331.59927  0.014566828  0.013239597           17 
 1898000   0.50083735   -7.9234152    331.45464  0.014552803   0.01322925           10 
 1899000    0.4928055    -7.927694    331.46467   0.01454558   0.01321892           29 
 1900000   0.49140113   -7.9167627    331.63329   0.01454532  0.013208595           13 
 1901000   0.49623102   -7.9156031    331.96332  0.014552136  0.013198282           14 
 1902000   0.50369091   -7.9205744    331.82211  0.014538298  0.013187993           14 
 1903000   0.49441572   -7.9119677    331.78285  0.014528939  0.013177697           18 
 1904000   0.49851835   -7.9358479    331.65801  0.014515844   0.01316742           22 
 1905000   0.48301526   -7.9198048    331.42369  0.014497974  0.013157138           16 
 1906000   0.48280386   -7.9281652    331.53318  0.014495155  0.013146869           13 
 1907000   0.49307064   -7.9287319    331.55069  0.014488319    0.0131366           19 
 1908000   0.49256156   -7.9289243    331.16875  0.014464044  0.013126335           30 
 1909000   0.49617756   -7.9328829    331.61859  0.014476104  0.013116092           18 
 1910000   0.49352611   -7.9216556    331.09365  0.014445622  0.013105862           23 
 1911000    0.4825347   -7.9255428    331.77697   0.01446786  0.013095643           13 
 1912000   0.49132887   -7.9194921    331.89791  0.014465565  0.013085434           32 
 1913000   0.47974849   -7.9198101    331.00565  0.014419135  0.013075231           13 
 1914000   0.48470686   -7.9299364    331.45808  0.014431299  0.013065026           18 
 1915000   0.49872178   -7.9328761    331.22185  0.014413483  0.013054839           18 
 1916000   0.48134718   -7.9320325    331.64551  0.014424387  0.013044654           17 
 1917000   0.48289244   -7.9235609    331.72501  0.014420319  0.013034478           37 
 1918000   0.48005694   -7.9373476    331.29843  0.014394266  0.013024322           37 
 1919000   0.48530927   -7.9188502    331.16119  0.014380805  0.013014172           38 
 1920000   0.47573926    -7.940005    331.33799  0.014380989  0.013004041           30 
 1921000   0.48667723   -7.9514694    331.74543  0.014391178  0.012993898           31 
 1922000   0.48328309   -7.9406522    331.35321  0.014366684   0.01298377           26 
 1923000   0.47454174   -7.9287889    331.00854  0.014344277  0.012973654           16 
 1924000   0.47920862    -7.952951    330.88039  0.014331271  0.012963531           24 
 1925000   0.49348855   -7.9394691     331.0103   0.01432945  0.012953422           14 
 1926000   0.48397553   -7.9283078    330.74567   0.01431056  0.012943319           18 
 1927000   0.48031762   -7.9416775    331.55563  0.014338161  0.012933239           27 
 1928000   0.48122763   -7.9478681    331.23803  0.014316996  0.012923149           27 
 1929000   0.48204252    -7.945058    331.29369  0.014311979  0.012913074           33 
 1930000   0.49246923   -7.9356748     330.9255  0.014288666  0.012903013           60 
 1931000   0.47886901   -7.9442741    330.80831  0.014276209  0.012892954           19 
 1932000   0.48244028   -7.9195821    330.92206  0.014273726  0.012882905           29 
 1933000   0.49100148   -7.9232979    331.20909  0.014278716  0.012872881           22 
 1934000   0.47416478   -7.9357081    331.40132  0.014279616  0.012862856           15 
 1935000   0.47766944   -7.9499822    330.75382  0.014244351  0.012852833           12 
 1936000   0.48263956   -7.9403917    330.89276  0.014242974  0.012842802           21 
 1937000   0.47678762   -7.9586881    331.21504  0.014249486   0.01283278           31 
 1938000   0.47383152   -7.9331532    330.68287   0.01421925  0.012822772           20 
 1939000    0.4762898   -7.9540195    330.35931  0.014198011  0.012812768           21 
 1940000   0.48507996   -7.9329257     330.7428  0.014207165  0.012802774           31 
 1941000   0.48718801   -7.9530056    330.90706  0.014206898  0.012792795           24 
 1942000   0.46824029   -7.9655047    331.19748  0.014212044  0.012782826           34 
 1943000   0.48297903   -7.9401848    330.49224  0.014174483  0.012772865           15 
 1944000   0.47997747   -7.9386166    330.79434  0.014180141  0.012762917           33 
 1945000   0.47393683   -7.9568498    330.90901  0.014177764  0.012752989           18 
 1946000   0.47080163   -7.9722404     330.9212     0.014171  0.012743067           15 
 1947000   0.47445889    -7.943328    330.95623  0.014165221  0.012733148           31 
 1948000   0.48414796   -7.9443133    330.84245  0.014153082  0.012723239           13 
 1949000   0.47355263    -7.969604    330.77479  0.014142928  0.012713344           10 
 1950000   0.48326771   -7.9598252    331.01447  0.014145918  0.012703454           19 
 1951000   0.47277589   -7.9666068    330.66233  0.014123626  0.012693566           20 
 1952000   0.46948856   -7.9677436    330.58125  0.014112929  0.012683681           33 
 1953000    0.4747482   -7.9719444    330.73587    0.0141123  0.012673806           44 
 1954000   0.47754501   -7.9534863    330.22707  0.014083379  0.012663944           25 
 1955000    0.4686598    -7.955556    330.54916  0.014089904  0.012654091           23 
 1956000    0.4635344   -7.9502864    330.78945  0.014092939   0.01264425           30 
 1957000   0.47275273   -7.9688088    330.80973  0.014086601  0.012634426           30 
 1958000    0.4721197   -7.9716746    330.58373  0.014069788  0.012624608           27 
 1959000   0.46724435   -7.9709764    331.03408  0.014081763  0.012614802           23 
 1960000   0.46138211   -7.9512924    330.95255  0.014071112  0.012605009           20 
 1961000   0.46329105   -7.9571837    331.21272  0.014074993  0.012595226           35 
 1962000   0.46665046   -7.9485919    330.57493  0.014040729  0.012585442           23 
 1963000   0.47307028   -7.9541981    330.70456   0.01403908  0.012575673           13 
 1964000   0.46766146    -7.967427    330.84504  0.014037892  0.012565908           19 
 1965000    0.4582329   -7.9583919        330.8  0.014028838  0.012556152           25 
 1966000   0.46353874   -7.9630159    330.54497  0.014010892  0.012546404           38 
 1967000   0.46024458   -7.9636017    330.94419  0.014020682  0.012536673           28 
 1968000   0.44966278   -7.9536408    330.53849  0.013996379  0.012526945           23 
 1969000   0.46147378   -7.9591938    330.94678  0.014006551  0.012517231           28 
 1970000     0.468036    -7.963661    330.74634  0.013990962  0.012507533           22 
 1971000   0.47029266   -7.9982729     330.7215  0.013982813  0.012497826           22 
 1972000   0.46812739   -7.9862887    330.45992  0.013964669  0.012488129           27 
 1973000   0.47138267   -7.9693646    330.86757  0.013974808  0.012478443           19 
 1974000   0.46621538   -7.9748017    330.57093  0.013955207  0.012468766           15 
 1975000   0.46177481   -7.9731545    330.67485  0.013952526  0.012459103           11 
 1976000   0.46872317   -7.9766477    330.45509  0.013936196  0.012449447           29 
 1977000   0.47224745   -7.9912263    330.64221  0.013937035  0.012439797           58 
 1978000   0.46827824   -7.9612216    330.19159  0.013911004  0.012430147           27 
 1979000   0.46058597   -7.9655017    330.69019   0.01392497   0.01242051           36 
 1980000   0.45988558   -7.9882586     330.8572  0.013924966  0.012410892           34 
 1981000   0.46588021   -7.9790876    330.58387  0.013906439  0.012401275           17 
 1982000   0.46889128   -7.9804858    330.24665  0.013885244  0.012391671           29 
 1983000   0.46816329   -7.9826542    330.41194  0.013885188  0.012382074           25 
 1984000   0.45501566    -7.981013     330.7918  0.013894145  0.012372483           27 
 1985000   0.46450839   -7.9793188    330.79342  0.013887213  0.012362904           33 
 1986000   0.45446272   -7.9862128    330.64072  0.013873813  0.012353335           43 
 1987000    0.4564465   -7.9864418    330.82306  0.013874478  0.012343773           54 
 1988000   0.46804329   -7.9783025    330.19941  0.013841357  0.012334218           35 
 1989000    0.4517943   -7.9822552    330.79583  0.013859386  0.012324678           42 
 1990000   0.46399939   -7.9916469    330.34107  0.013833378  0.012315138           18 
 1991000   0.46833613   -7.9831388    330.63461  0.013838716  0.012305612           53 
 1992000    0.4547341   -7.9688785    330.33031  0.013819039  0.012296091           43 
 1993000    0.4592171   -7.9749693    330.21075  0.013807106   0.01228658           35 
 1994000   0.45856763   -7.9897276    330.80403  0.013824976  0.012277068           31 
 1995000   0.45543787   -7.9794508    331.11071  0.013830857  0.012267572           27 
 1996000   0.46846123   -7.9733224    330.48003  0.013797596  0.012258081           23 
 1997000    0.4537329   -7.9847216    330.59206  0.013795362  0.012248597           32 
 1998000   0.46540907   -7.9830694    330.29842  0.013776211  0.012239118           37 
 1999000   0.46227109    -7.986071     329.9076  0.013753026  0.012229651           25 
 2000000   0.45563349   -7.9849749    330.04582  0.013751909  0.012220195           21 
 2001000   0.44636986   -7.9841092    330.51038  0.013764384  0.012210755           53 
 2002000   0.45809292   -8.0053538    330.51529  0.013757713  0.012201321           38 
 2003000   0.45059318   -7.9971083    330.21745  0.013738453   0.01219189           28 
 2004000   0.45564972   -7.9903537    329.53245  0.013703113  0.012182469           57 
 2005000   0.45524573   -7.9802157    330.95173  0.013755267   0.01217305           26 
 2006000   0.45759008   -7.9971904    330.41718  0.013726204  0.012163644           36 
 2007000   0.45724731    -7.993775    330.81981  0.013736082   0.01215424           56 
 2008000   0.45419762   -8.0082012    330.42463  0.013712842  0.012144844           32 
 2009000   0.44446058   -8.0005874    330.10042  0.013692568  0.012135463           36 
 2010000   0.44605213    -7.986428    329.52648   0.01366196  0.012126086           35 
 2011000   0.45078212   -8.0022017    330.65261  0.013701832  0.012116723           36 
 2012000   0.44512186   -8.0028893    330.19396  0.013676025  0.012107365           30 
Loop time of 4485.57 on 48 procs for 2000000 steps with 4000 atoms

Performance: 77047.004 tau/day, 445.874 timesteps/s
99.4% CPU use with 48 MPI tasks x no OpenMP threads

MPI task timing breakdown:
Section |  min time  |  avg time  |  max time  |%varavg| %total
---------------------------------------------------------------
Pair    | 286.44     | 304.43     | 320.39     |  43.5 |  6.79
Neigh   | 28.236     | 29.057     | 29.951     |   8.6 |  0.65
Comm    | 267.12     | 281.34     | 302.42     |  46.2 |  6.27
Output  | 3.9086     | 3.9103     | 3.9406     |   0.2 |  0.09
Modify  | 3809.7     | 3822.5     | 3831.8     |   8.3 | 85.22
Other   |            | 44.33      |            |       |  0.99

Nlocal:        83.3333 ave          91 max          74 min
Histogram: 1 0 3 7 6 15 4 9 1 2
Nghost:        1877.25 ave        1898 max        1857 min
Histogram: 3 3 5 8 7 5 6 5 5 1
Neighs:        11668.2 ave       13281 max       10248 min
Histogram: 2 4 2 8 12 6 10 2 1 1
FullNghs:      23337.4 ave       25761 max       20221 min
Histogram: 1 0 1 7 8 9 15 4 1 2

Total # of neighbors = 1120193
Ave neighs/atom = 280.04825
Neighbor list builds = 107570
Dangerous builds = 0

#clear
#
#next RN
#
#jump SELF
Total wall time: 1:14:48
