
units lj                  # Use reduced LJ style units
atom_style atomic         # Uncharged point particles
atom_modify map hash      # Needed for indexing of clusters etc
                          # Used to be able to find where atoms are in relation to each other.

lattice fcc 1.0 spacing 1 1 1
Lattice spacing in x,y,z = 1.5874011 1.5874011 1.5874011
region box block 0 10 0 10 0 10 units lattice
create_box 2 box
Created orthogonal box = (0.0000000 0.0000000 0.0000000) to (15.874011 15.874011 15.874011)
  3 by 4 by 4 MPI processor grid
create_atoms 1 box
Created 4000 atoms
  using lattice units in orthogonal box = (0.0000000 0.0000000 0.0000000) to (15.874011 15.874011 15.874011)
  create_atoms CPU = 0.047 seconds
set type 1 type/fraction 2 0.4 78393
Setting atom values ...
  1612 settings made for type/fraction
mass 1 1.0
mass 2 1.0
pair_style lj/cut  3.5
pair_modify tail  yes
pair_coeff 1  1  1.0  1.0   # Intearaction between 1 and 1 set with epsilon = 1 and sigma = 1
pair_coeff 1  2  1.5  0.8
pair_coeff 2  2  0.5  0.88

write_data data.0
System init for write_data ...
Neighbor list info ...
  update every 1 steps, delay 10 steps, check yes
  max neighbors/atom: 2000, page size: 100000
  master list distance cutoff = 3.8
  ghost atom cutoff = 3.8
  binsize = 1.9, bins = 9 9 9
  1 neighbor lists, perpetual/occasional/extra = 1 0 0
  (1) pair lj/cut, perpetual
      attributes: half, newton on
      pair build: half/bin/atomonly/newton
      stencil: half/bin/3d
      bin: standard
WARNING: Not all mixed pair coeffs generated from mixing. Use write_data with 'pair ij' option to store all pair coeffs. (../write_data.cpp:312)


#############################
#   M E L T   S Y S T E M   #
#############################

velocity all create 2.4 2750902 mom yes dist gaussian # Assign velocities
                                                    # Temperature 2.4, random number seed, zero linear momentum
                                                                                # Gaussian distribution

timestep 0.002   # simulation timestep
thermo 1000       # output thermodynamic data every 1000 steps bf 100

# Define a fix  in this case with index 1 applied to all
# particles in the simulation. This fix is for simulations
# in the anisotropic NPT ensemble. Note that we use the MTK
# correction.
fix 1 all npt temp 2.4 2.4 0.1 iso 5.68 5.68 0.5 mtk yes tchain 5 pchain 5 # Use NPT ensemble
                                                                         # Set temperature and pressure and damping
                                                                         # Numbers of thermostats in chain and in barostat
run 10000          # run for 10000 steps
Per MPI rank memory allocation (min/avg/max) = 3.642 | 3.644 | 3.648 Mbytes
Step Temp E_pair E_mol TotEng Press Volume 
       0          2.4    -5.861415            0    -2.262315   -4.1716513         4000 
    1000    2.4031697   -4.9853891            0   -1.3815357    5.7048301    3909.1439 
    2000     2.384411   -5.0207379            0   -1.4450155    5.7255656    3890.3434 
    3000    2.3795822   -5.0053946            0   -1.4369138    5.9511349    3877.8257 
    4000      2.37484   -5.0454357            0   -1.4840663    5.6495202    3884.7913 
    5000    2.4085321   -5.0329698            0   -1.4210749     5.982588    3873.3954 
    6000    2.4084364   -4.9975124            0   -1.3857609    6.2028516    3856.7789 
    7000    2.4100315    -5.110596            0   -1.4964525     6.241195    3803.6436 
    8000     2.408898   -5.0264475            0   -1.4140038    5.6434456    3886.3159 
    9000    2.3761978   -5.0717086            0    -1.508303       5.9512    3850.7598 
   10000    2.3662385   -5.0564841            0   -1.5080137    5.3758997    3902.3359 
Loop time of 2.54035 on 48 procs for 10000 steps with 4000 atoms

Performance: 680220.845 tau/day, 3936.463 timesteps/s
99.6% CPU use with 48 MPI tasks x no OpenMP threads

MPI task timing breakdown:
Section |  min time  |  avg time  |  max time  |%varavg| %total
---------------------------------------------------------------
Pair    | 1.1246     | 1.1971     | 1.2909     |   3.3 | 47.13
Neigh   | 0.21324    | 0.21951    | 0.24178    |   1.2 |  8.64
Comm    | 0.7636     | 0.86143    | 0.94327    |   4.2 | 33.91
Output  | 0.00024926 | 0.00025404 | 0.00032934 |   0.0 |  0.01
Modify  | 0.22701    | 0.24651    | 0.26567    |   2.1 |  9.70
Other   |            | 0.0155     |            |       |  0.61

Nlocal:        83.3333 ave          92 max          73 min
Histogram: 1 1 3 8 6 11 7 7 2 2
Nghost:        1678.71 ave        1708 max        1653 min
Histogram: 4 2 7 7 7 5 8 3 4 1
Neighs:        9790.04 ave       11216 max        8530 min
Histogram: 2 2 5 9 10 6 8 3 2 1

Total # of neighbors = 469922
Ave neighs/atom = 117.48050
Neighbor list builds = 904
Dangerous builds = 206

# Equilibrate just above the melting temperature to avoid step fn in T

fix 1 all npt temp 1.25 1.25 0.1 iso 5.68 5.68 0.5 mtk yes tchain 5 pchain 5
run 2000
Per MPI rank memory allocation (min/avg/max) = 3.643 | 3.645 | 3.649 Mbytes
Step Temp E_pair E_mol TotEng Press Volume 
   10000    2.3662385   -5.0564841            0   -1.5080137    5.3758997    3902.3359 
   11000    1.2457241   -7.0414296            0   -5.1733106    5.4617926    3092.0538 
   12000    1.2739306   -7.0621555            0   -5.1517373    5.5523495      3084.78 
Loop time of 0.611253 on 48 procs for 2000 steps with 4000 atoms

Performance: 565395.786 tau/day, 3271.966 timesteps/s
99.7% CPU use with 48 MPI tasks x no OpenMP threads

MPI task timing breakdown:
Section |  min time  |  avg time  |  max time  |%varavg| %total
---------------------------------------------------------------
Pair    | 0.27917    | 0.29886    | 0.32057    |   1.9 | 48.89
Neigh   | 0.03991    | 0.042725   | 0.048587   |   0.7 |  6.99
Comm    | 0.19597    | 0.2197     | 0.24216    |   2.6 | 35.94
Output  | 5.4575e-05 | 5.5926e-05 | 7.305e-05  |   0.0 |  0.01
Modify  | 0.041436   | 0.045045   | 0.048378   |   0.9 |  7.37
Other   |            | 0.004871   |            |       |  0.80

Nlocal:        83.3333 ave          94 max          74 min
Histogram: 1 0 8 7 11 7 8 3 2 1
Nghost:        1957.48 ave        1981 max        1925 min
Histogram: 1 2 2 4 1 11 15 7 3 2
Neighs:        12390.2 ave       13935 max       11279 min
Histogram: 6 6 4 6 5 11 4 4 0 2

Total # of neighbors = 594730
Ave neighs/atom = 148.68250
Neighbor list builds = 144
Dangerous builds = 11

#############################
# L I N E A R  Q U E N C H  #
#############################

# Define solid atoms. This closely follows ten Wolde  Ruiz-Montero and Frenkel  Faraday Discuss  1996  104  93-110
# Compute components of the per-atom q6 vector
compute q6 all orientorder/atom degrees 1 6 components 6 nnn NULL cutoff 1.3 # compute the Q6 parameter.
                                                                             # Use all neighbours within 1.3 unit cell.

# get number of connections
compute coord_number all coord/atom orientorder q6 0.5

# An atom is solid if it has 8 or more connections (of a possible 14)
variable is_solid atom c_coord_number>=8
group solid dynamic all var is_solid    # Must be dynamic to update
dynamic group solid defined

# do clustering
compute cluster solid cluster/atom 1.3 # Create a cluster where all atoms within are solid and max 1.3 units from another member

# define chunks one chunk per cluster
compute clus_chunks solid chunk/atom c_cluster nchunk every compress yes  # Says which atoms are in which chunk

# count the size of each chunk
compute size_chunks solid property/chunk clus_chunks count


# Find the maximum entry in the vector of chunk sizes
variable max_n equal max(c_size_chunks)


# Thermo style which includes this variable
# thermo_style custom step temp pe vol v_max_n

thermo ${N}  # Print the thermo information every 100 steps
thermo 1000  

# Reset the npt fix at a lower temperature (below freezing)
fix 1  all npt temp  ${temp} ${temp}  0.1  iso  5.68  5.68  0.5  mtk yes tchain  5  pchain  5
fix 1  all npt temp  0.45 ${temp}  0.1  iso  5.68  5.68  0.5  mtk yes tchain  5  pchain  5
fix 1  all npt temp  0.45 0.45  0.1  iso  5.68  5.68  0.5  mtk yes tchain  5  pchain  5

dump dmp2 all dcd ${N} traj.dcd
dump dmp2 all dcd 1000 traj.dcd


compute msd all msd com yes
variable twopoint equal c_msd[4]/6/(step*dt+1.0e-6)
fix 9 all vector 10 c_msd[4]
variable fit equal slope(f_9)/6/(10*dt)
thermo_style custom step temp pe c_msd[4] v_twopoint v_fit v_max_n

fix 1 all npt temp 1.25 ${temp} 0.1 iso 5.68 5.68 0.5 mtk yes tchain 5 pchain 5
fix 1 all npt temp 1.25 0.45 0.1 iso 5.68 5.68 0.5 mtk yes tchain 5 pchain 5
run 500000 # 5000000  # Run for this many steps
Neighbor list info ...
  update every 1 steps, delay 10 steps, check yes
  max neighbors/atom: 2000, page size: 100000
  master list distance cutoff = 3.8
  ghost atom cutoff = 3.8
  binsize = 1.9, bins = 8 8 8
  4 neighbor lists, perpetual/occasional/extra = 1 3 0
  (1) pair lj/cut, perpetual
      attributes: half, newton on
      pair build: half/bin/atomonly/newton
      stencil: half/bin/3d
      bin: standard
  (2) compute orientorder/atom, occasional
      attributes: full, newton on
      pair build: full/bin/atomonly
      stencil: full/bin/3d
      bin: standard
  (3) compute coord/atom, occasional
      attributes: full, newton on
      pair build: full/bin/atomonly
      stencil: full/bin/3d
      bin: standard
  (4) compute cluster/atom, occasional
      attributes: full, newton on
      pair build: full/bin/atomonly
      stencil: full/bin/3d
      bin: standard
Per MPI rank memory allocation (min/avg/max) = 9.822 | 9.831 | 9.836 Mbytes
Step Temp PotEng c_msd[4] v_twopoint v_fit v_max_n 
   12000    1.2739306   -7.0621555            0            0 8.3333333e+20            1 
   13000    1.2670078   -7.1370327   0.46074848 0.0029535158  0.037745095            2 
   14000    1.2622466   -7.0791077   0.90465151 0.0053848302  0.036512492            1 
   15000    1.2565636   -7.0874387    1.4121575 0.0078453195  0.037877413            1 
   16000    1.2206867   -7.1384363    1.8368328 0.0095668373  0.038462549            1 
   17000    1.2352315   -7.1195008    2.2659294  0.011107497   0.03783077            2 
   18000    1.2354165   -7.1139967    2.7015873  0.012507348  0.037628127            1 
   19000    1.2246031   -7.1365971    3.0949612  0.013574391   0.03715166            4 
   20000    1.2517068   -7.1462768    3.4850449   0.01452102  0.036559573            1 
   21000    1.2446193   -7.1396107    3.9188176  0.015550863  0.036217355            2 
   22000    1.2440561   -7.1178278    4.3638474  0.016529725  0.036014453            2 
   23000    1.2282624   -7.1422111    4.7889024  0.017351095  0.035861237            1 
   24000    1.2202351   -7.1693592    5.1605501  0.017918576  0.035764352            2 
   25000    1.2355158   -7.1558856    5.6299546  0.018766515  0.035658068            1 
   26000    1.2211221   -7.1155396    6.0132051  0.019273093  0.035570958            1 
   27000     1.243488   -7.1345094    6.4126358  0.019792086   0.03535054            2 
   28000    1.1968863    -7.160789    6.8534497  0.020397171  0.035259621            1 
   29000    1.2169162   -7.1490323    7.3345973  0.021076429  0.035254108            1 
   30000    1.2080382   -7.1451929    7.7339313  0.021483142  0.035277153            1 
   31000    1.2101825   -7.2140885    8.0526722  0.021646968  0.035193748            2 
   32000    1.2037842   -7.2122309    8.3769858  0.021815067  0.035068687            1 
   33000    1.2299797    -7.182802    8.7770448  0.022164254  0.034901083            1 
   34000    1.1849215   -7.1845886    9.2059643  0.022563638   0.03473409            1 
   35000    1.2097141    -7.154027    9.5441787  0.022724235  0.034597556            1 
   36000    1.2090801   -7.1543545    9.9025285  0.022922519  0.034416108            2 
   37000    1.1858722   -7.1801762    10.230648  0.023042001  0.034245011            2 
   38000    1.1898027    -7.187442    10.611915  0.023271743  0.034049503            2 
   39000    1.1998223   -7.1628535    10.799807   0.02307651  0.033821734            2 
   40000    1.2029329   -7.1594303    11.212634  0.023359653  0.033576302            2 
   41000    1.1897898   -7.1739736    11.647227  0.023673225   0.03336637            1 
   42000    1.1912553   -7.2341856    11.914382  0.023639646  0.033202907            1 
   43000    1.2288376   -7.2195797    12.263592  0.023766651  0.033019216            1 
   44000    1.2347287   -7.2216162     12.70423  0.024061041  0.032859291            2 
   45000    1.1844287   -7.2542107    12.980287  0.024037568  0.032704806            2 
   46000    1.1979946   -7.2422334    13.345849  0.024177263  0.032536243            3 
   47000    1.1667644    -7.251519    13.680822  0.024256777  0.032391805            2 
   48000    1.2125887   -7.2275031    14.087757  0.024457911  0.032270076            1 
   49000    1.1953666   -7.2415857    14.411905  0.024510042  0.032167988            1 
   50000    1.2158166   -7.2439193    14.789429  0.024649049  0.032055435            1 
   51000    1.1850481    -7.234129    15.048666  0.024589324  0.031939269            1 
   52000    1.1629311   -7.2447695    15.476824  0.024802603  0.031826872            1 
   53000    1.1925882   -7.2312897    15.870531  0.024953666  0.031749051            2 
   54000     1.177814    -7.264222    16.297901  0.025151082  0.031678646            2 
   55000    1.1949924   -7.2372054    16.695757  0.025296601  0.031634065            4 
   56000    1.1777047    -7.238138    16.909436  0.025162851   0.03155874            2 
   57000    1.1686159   -7.2509675    17.248264  0.025216759  0.031470913            2 
   58000    1.1814291   -7.3158853    17.563073  0.025234301  0.031386385            1 
   59000    1.1645842    -7.290011      17.9634  0.025372034  0.031306901            4 
   60000    1.1731375   -7.2900916    18.435833  0.025605323  0.031260712            2 
   61000    1.1928056   -7.2593619    18.684557  0.025525351  0.031206609            2 
   62000    1.1893621   -7.2691111    18.964997  0.025490588  0.031139463            2 
   63000    1.1738604   -7.2856713    19.281338  0.025504416  0.031070302            2 
   64000    1.1642217   -7.2934287    19.773004  0.025746099  0.031010242            1 
   65000    1.1906333   -7.3431665    20.078333  0.025741453   0.03096627            2 
   66000    1.1736441   -7.3340341    20.284693  0.025611986  0.030909336            2 
   67000    1.1595676   -7.2839115    20.765689  0.025827971   0.03085103            1 
   68000    1.1391975   -7.2929602    21.072605  0.025824271  0.030792442            2 
   69000     1.150956    -7.280366    21.259825  0.025676116  0.030720262            1 
   70000    1.1289893   -7.3104529     21.50785  0.025604583  0.030636351            3 
   71000    1.1580567   -7.3111621    21.838043  0.025631505  0.030549126            1 
   72000    1.1528264   -7.3234147    22.209757  0.025705737  0.030467511            3 
   73000    1.1694668   -7.3309852    22.515963  0.025703154  0.030392555            2 
   74000    1.1465097   -7.2870582    22.825807  0.025704738  0.030315967            2 
   75000    1.1516988   -7.3099144    23.094347  0.025660386  0.030239793            1 
   76000    1.1663148   -7.3481086    23.474026  0.025739063  0.030172593            4 
   77000    1.1534105   -7.3630179    23.898469  0.025864144  0.030110447            1 
   78000    1.1545215   -7.3034227    24.232507  0.025889431  0.030050271            2 
   79000    1.1784627   -7.3309208    24.491718  0.025835145  0.029993729            2 
   80000    1.1645603   -7.3347581    24.936688  0.025975716  0.029938762            2 
   81000    1.1573924   -7.3386051    25.148975  0.025873431   0.02988695            2 
   82000    1.1498844    -7.352044    25.176029  0.025585395  0.029818396            2 
   83000    1.1392648   -7.3762411    25.529857  0.025632386  0.029748177            1 
   84000    1.1385503   -7.3588889    25.888802  0.025683335  0.029677899            2 
   85000    1.1212721   -7.3768511    26.207037  0.025693174  0.029614232            1 
   86000    1.1507338   -7.3733746    26.524749  0.025702276  0.029547999            2 
   87000    1.1347314   -7.3940707    26.757217  0.025629518  0.029481164            1 
   88000    1.1434538   -7.4081796    27.028396  0.025595072  0.029410132            2 
   89000    1.1251157   -7.3846529    27.232797  0.025498874  0.029338998            1 
   90000    1.1193863    -7.399357    27.489531   0.02545327  0.029263484            3 
   91000    1.1304092   -7.4020917    27.803515  0.025461094  0.029183738            3 
   92000     1.143741   -7.3564536    28.215788  0.025557779  0.029111618            3 
   93000    1.1361609   -7.3571651    28.749505  0.025761205  0.029049886            1 
   94000    1.1134256   -7.3828802     28.90635  0.025626197  0.028992629            1 
   95000    1.1273219   -7.4065847    29.176705    0.0255936  0.028929794            4 
   96000    1.1183728   -7.3885086       29.434  0.025550347   0.02886687            1 
   97000     1.105834    -7.405325    29.617143  0.025444281   0.02880127            1 
   98000     1.103139    -7.409681    29.835468  0.025370295  0.028730257            1 
   99000    1.1235735   -7.4735128    29.915102  0.025181062  0.028653864            1 
  100000     1.092842   -7.4368424    30.241849   0.02520154  0.028570199            2 
  101000    1.0954572   -7.4561761    30.614915   0.02525983   0.02849342            4 
  102000    1.1204869   -7.4432472    30.973524  0.025305167  0.028421619            1 
  103000     1.112001   -7.4425882    31.145005  0.025198224  0.028350337            1 
  104000    1.1018837   -7.4509312    31.344574  0.025115845  0.028272688            5 
  105000    1.1012951   -7.4323483    31.650984  0.025119828  0.028198814            1 
  106000    1.0989594   -7.3995906    32.039176  0.025188031  0.028129921            4 
  107000    1.1012937    -7.468449    32.150493  0.025039325  0.028057599            1 
  108000    1.0825072   -7.4482212    32.491511   0.02507061  0.027987199            3 
  109000    1.0962164   -7.4711732     32.73272  0.025025015  0.027919996            2 
  110000    1.1045462    -7.428109    33.200712  0.025152055   0.02785485            3 
  111000    1.1015354   -7.5311981    33.256297   0.02496719  0.027789186            1 
  112000    1.1328106   -7.4901984     33.55999   0.02497023  0.027722382            2 
  113000    1.1065673    -7.527809    33.757833  0.024895157  0.027653897            2 
  114000    1.1015023   -7.4640682    33.974843  0.024835412  0.027582404            3 
  115000    1.0888354   -7.4981971    34.239389  0.024811152  0.027509273            1 
  116000    1.0868468   -7.4527878    34.574485  0.024837992  0.027440122            2 
  117000    1.0768229   -7.5051608    34.795787  0.024783324  0.027373074            2 
  118000    1.0915611   -7.4781558    35.094533  0.024784275  0.027306147            3 
  119000    1.0615906   -7.4966425    35.399886  0.024789836  0.027240235            2 
  120000    1.0710699   -7.4986604     35.63501  0.024746535   0.02717455            2 
  121000    1.0790042   -7.5269358    35.980066   0.02477966  0.027113541            4 
  122000    1.0847564   -7.5110152    36.314237  0.024804807  0.027058304            1 
  123000    1.0677145   -7.5427858    36.697405  0.024862741  0.027004972            1 
  124000    1.0537587   -7.5781544    36.789512  0.024724134  0.026950137            1 
  125000    1.0570379   -7.5629182    37.086056  0.024724037  0.026895688            1 
  126000    1.0861483   -7.5241251    37.261358  0.024643755  0.026837763            3 
  127000    1.0527532   -7.5335194    37.445019  0.024570222  0.026779082            2 
  128000    1.0641909   -7.5600944    37.576761  0.024464037  0.026719534            2 
  129000    1.0589493    -7.555826     37.86974  0.024463656  0.026659084            1 
  130000    1.0574126   -7.5379249    38.172019  0.024469243  0.026599439            1 
  131000    1.0478152   -7.5320832    38.356673  0.024399919  0.026542776            1 
  132000    1.0516457   -7.5680227    38.701922  0.024433031  0.026484623            2 
  133000    1.0676683   -7.5670388    38.942948  0.024400343  0.026425291            1 
  134000    1.0493953   -7.5476996    39.033994  0.024274872  0.026364757            1 
  135000    1.0335177   -7.5478086    39.024776  0.024089368  0.026299825            5 
  136000    1.0464037   -7.5534863    39.502379  0.024204889   0.02623774            2 
  137000    1.0700534   -7.5632395    39.712236  0.024155861  0.026176339            2 
  138000    1.0485857   -7.6038378    40.022909  0.024168423  0.026116473            4 
  139000    1.0588515   -7.5958385     40.20188  0.024101847  0.026058625            1 
  140000    1.0465317   -7.5701867    40.432806  0.024067146  0.026000696            2 
  141000    1.0485905    -7.577601     40.61718  0.024005425  0.025937687            2 
  142000    1.0266573   -7.5708831    40.735789   0.02390598  0.025875039            2 
  143000    1.0562926    -7.584876    41.022638  0.023905966  0.025813298            5 
  144000    1.0519431   -7.5431706    41.289802  0.023894561  0.025752597            2 
  145000    1.0220199   -7.6096912    41.541727  0.023874556  0.025690556            1 
  146000    1.0225306    -7.598344    41.534117  0.023706687   0.02562875            1 
  147000    1.0369969     -7.63061     41.87771  0.023740198  0.025566145            2 
  148000    1.0418207   -7.5983298    42.046014  0.023674557  0.025505227            3 
  149000    1.0249948   -7.6533109    42.246122  0.023627585  0.025442778            2 
  150000    1.0328954    -7.636798    42.339097   0.02352172  0.025379361            3 
  151000    1.0215534   -7.7019215    42.598811  0.023509278   0.02531766            1 
  152000    1.0082818   -7.6392188    42.845426  0.023489817  0.025255015            1 
  153000    1.0190085   -7.6475278    42.839644   0.02333314  0.025189331            1 
  154000    1.0185555   -7.6322841    42.978182  0.023256592  0.025121209            1 
  155000    1.0171798   -7.6529056    43.046083  0.023143055  0.025052749            7 
  156000    1.0096566   -7.6607159    43.237306  0.023096852   0.02498346            3 
  157000   0.99897369   -7.6319506    43.403813  0.023038117  0.024911877            1 
  158000    1.0076992   -7.6516309    43.523415  0.022955387   0.02484014            3 
  159000    1.0092765   -7.6828703    43.799645  0.022955789   0.02477053            6 
  160000    1.0189242   -7.6432963    43.942902  0.022886928  0.024700553            1 
  161000    1.0307931   -7.7297322    43.808103  0.022675002  0.024629705            3 
  162000    1.0133268   -7.7126237     44.12928  0.022700247  0.024556276            1 
  163000    1.0081669   -7.7198102    44.103649  0.022547878  0.024481318            2 
  164000    1.0037598   -7.6802759    44.386844  0.022554291  0.024406235            1 
  165000    1.0129353   -7.6876331    44.636392  0.022543632  0.024331671            1 
  166000    1.0056177   -7.6491483    44.928081  0.022554258  0.024260054            1 
  167000   0.99275167   -7.6724705    45.207185  0.022558475  0.024190586            1 
  168000   0.99170613   -7.7041283    45.235543  0.022438265  0.024120992            3 
  169000    1.0014497    -7.686376    45.411754  0.022392384  0.024051301            3 
  170000    0.9971934    -7.707552    45.684426  0.022394327  0.023981625            1 
  171000      1.00267   -7.6899232    45.776872  0.022308417   0.02391132            2 
  172000   0.99009498   -7.7162452    45.739719  0.022160717  0.023840746            1 
  173000   0.98538026    -7.699221    46.093491   0.02220303  0.023768964            3 
  174000    1.0019795   -7.7385102    46.102586  0.022079783  0.023699047            5 
  175000   0.99304073   -7.6918835     46.20242  0.022001152  0.023627969            2 
  176000    1.0034025   -7.7120149    46.364576  0.021952924  0.023555053            2 
  177000   0.99407194   -7.7248032      46.4089  0.021849764  0.023482638            1 
  178000   0.99112334   -7.7510858    46.573216   0.02180394  0.023410156            2 
  179000   0.98014046   -7.7476374     46.76558  0.021771685  0.023337741            4 
  180000   0.97670489   -7.7310807    46.975536  0.021747933  0.023266256            2 
  181000   0.98641653   -7.7378927      47.1707  0.021717633  0.023196039            2 
  182000   0.95913299   -7.7154201     47.39745  0.021702129  0.023127308            1 
  183000   0.97407955   -7.7851942    47.535636  0.021646464  0.023059588            2 
  184000   0.96618452   -7.7721038    47.794525  0.021646071  0.022993136            2 
  185000    0.9774708   -7.7076721    47.960475  0.021603818  0.022925734            3 
  186000   0.97380768   -7.7606433    48.008637  0.021509246  0.022861072            2 
  187000   0.98299231   -7.7549619     48.41013  0.021573141  0.022795888            2 
  188000   0.96284558   -7.7425568    48.207849  0.021368727   0.02272867            2 
  189000   0.96644021   -7.7347473    48.535414  0.021400094  0.022662046            1 
  190000    0.9532187   -7.7832305    48.724349  0.021370328  0.022596708            3 
  191000   0.97452262   -7.8156072     48.77203  0.021279245  0.022530729            4 
  192000   0.94367617   -7.7982431    48.798454  0.021179885  0.022463824            4 
  193000   0.95787974   -7.7952864    49.003508  0.021158682  0.022397721            3 
  194000    0.9574293   -7.7788948    49.265862  0.021162312  0.022332969            2 
  195000   0.96905672   -7.8017665     49.45319  0.021133842  0.022269461            1 
  196000   0.96889414    -7.819914    49.511999   0.02105102  0.022204835            7 
  197000   0.95261269   -7.7938317    49.742626   0.02104172  0.022141234            5 
  198000   0.94498026   -7.8111875    49.864964  0.020986938  0.022078679            2 
  199000   0.96661004   -7.8365325    49.897249  0.020894996   0.02201582            2 
  200000   0.94506172   -7.8054727     50.29264  0.020955267  0.021954383            2 
  201000   0.94865691   -7.7975145    50.467302  0.020923425  0.021893848            3 
  202000   0.91680016   -7.8228506    50.615493  0.020880979  0.021833324            1 
  203000   0.93644568   -7.8496642    50.463369  0.020715669  0.021771452            1 
  204000    0.9520824   -7.8654119    50.322827   0.02055671  0.021708298            3 
  205000   0.91223238    -7.884238    50.721362   0.02061844  0.021644808            3 
  206000   0.94731003   -7.8656091    50.823704  0.020559751  0.021581828            4 
  207000   0.92178141   -7.8458511    50.868552  0.020478483  0.021519849            2 
  208000   0.92402606   -7.8852063    50.952112  0.020413506  0.021457467            5 
  209000   0.93961572   -7.8606769     50.95698  0.020317775  0.021394033            2 
  210000   0.94179043   -7.8337127     51.05208  0.020258762  0.021329935            2 
  211000   0.93057369   -7.8811775    51.257385  0.020243833  0.021265738            5 
  212000   0.91394082    -7.910907    51.333783  0.020178374  0.021201158            5 
  213000   0.94242801   -7.8351048    51.489992  0.020144754  0.021136907            1 
  214000   0.92862048   -7.8639525    51.716085  0.020138662  0.021073631            1 
  215000   0.91677983   -7.8859982    51.803577  0.020078906  0.021010219            4 
  216000   0.92389467   -7.8878443    51.832683  0.019997177  0.020947636            1 
  217000   0.90603955   -7.8986806    52.040745  0.019984925   0.02088546            1 
  218000   0.93425212   -7.8738359    52.271755  0.019981558  0.020824003            2 
  219000   0.93335484   -7.9038722    52.380668  0.019931761  0.020763883            1 
  220000   0.93368255   -7.9019173    52.438652  0.019863126  0.020703472            3 
  221000   0.92134873   -7.9145207      52.5376  0.019810558  0.020642881            1 
  222000   0.91056926   -7.9016262    52.600807  0.019745048  0.020582658            1 
  223000   0.92201506   -7.9324816    52.720854  0.019701366   0.02052272            2 
  224000   0.90304549   -7.9464148    52.802249  0.019643694   0.02046243            1 
  225000   0.90072445   -7.9578753    52.919209  0.019599707  0.020401915            4 
  226000   0.88389539   -7.9630087    52.862678  0.019492138  0.020341387            3 
  227000   0.91924418   -7.9694642    53.156771  0.019514233  0.020280382            4 
  228000     0.908471   -7.9545772    53.179248   0.01943686   0.02021976            4 
  229000   0.88692206   -7.9479877    53.268782  0.019384564  0.020159093            4 
  230000    0.8977751   -7.9495458     53.43441  0.019360294  0.020098698            1 
  231000   0.89884716   -7.9520507    53.515525  0.019305745  0.020039505            2 
  232000    0.9091648   -7.9321302    53.639303  0.019266991  0.019980314            2 
  233000   0.89176391   -7.9820681    53.657321  0.019190744  0.019920498            2 
  234000   0.89988244   -8.0144357    53.556804  0.019072936  0.019860094            3 
  235000   0.89483044   -7.9785437    53.853873  0.019097118  0.019800124            1 
  236000   0.88419888   -7.9794286    53.981624  0.019061308  0.019741144            4 
  237000   0.89521778   -8.0137934    53.997284  0.018986387  0.019681707            3 
  238000   0.88940586   -7.9812855     54.16497  0.018965326  0.019623143            2 
  239000   0.86820496   -8.0020352    54.168213  0.018887103  0.019564216            2 
  240000   0.87497004   -8.0053268    54.391847  0.018886058  0.019505485            3 
  241000   0.88027719    -8.040049    54.404774  0.018812163  0.019446973            3 
  242000   0.86301905   -8.0609981    54.424479  0.018741212  0.019387312            3 
  243000   0.86394442   -8.0325621    54.440958  0.018669739  0.019327301            2 
  244000   0.87349006   -8.0483152    54.471274  0.018603577   0.01926746            1 
  245000   0.87381973    -8.058844     54.26103  0.018456133  0.019206822            2 
  246000    0.8757849   -8.0861001     54.31061  0.018397903  0.019145427            2 
  247000   0.85921998   -8.0845713    54.385334  0.018348628  0.019084258            1 
  248000   0.86940457   -8.0177731    54.581633  0.018340603  0.019023246            4 
  249000   0.88204506   -8.0324885    54.519783  0.018246246  0.018961374            2 
  250000    0.8653055   -8.0396317    54.543217  0.018181072  0.018899403            3 
  251000   0.87493439   -8.0853576    54.654149  0.018145468  0.018837653            1 
  252000   0.87465776   -8.0899518    54.812494  0.018125825  0.018776265            3 
  253000   0.85961515   -8.0819423    54.818383  0.018056121  0.018715408            1 
  254000   0.87255187   -8.0876506    54.970322  0.018034883  0.018654373            2 
  255000   0.86788304   -8.0617465    54.826997  0.017917319  0.018593128            4 
  256000   0.87041412   -8.0664139    54.900558  0.017871275  0.018531251            3 
  257000   0.85520161   -8.0625854    55.069123  0.017856395  0.018470186            3 
  258000   0.83803127   -8.0773956    55.228892  0.017838789  0.018410072            1 
  259000   0.85004927   -8.0573926    55.265091  0.017781561   0.01834964            4 
  260000    0.8753263   -8.0692832    55.153294  0.017677338  0.018289753            1 
  261000   0.85507597   -8.0747001    55.282567  0.017650883  0.018228894            5 
  262000    0.8714986   -8.1146045    55.218104   0.01756301  0.018167705            2 
  263000   0.84617105   -8.1173215    55.385063  0.017549133  0.018106556            3 
  264000   0.83832028   -8.1076939     55.27524  0.017447993   0.01804568            5 
  265000   0.83961224    -8.083052    55.522832   0.01746001  0.017985412            3 
  266000   0.85119918   -8.1007012    55.513454  0.017391433   0.01792574            4 
  267000   0.83909291   -8.0992298    55.509332   0.01732501  0.017865563            4 
  268000   0.85379016   -8.0966845    55.580053  0.017282355   0.01780575            3 
  269000   0.82902186   -8.1390539    55.635004  0.017235131  0.017746235            2 
  270000   0.82845524   -8.1367768     55.49136  0.017126963  0.017686894            4 
  271000    0.8444459   -8.1205925    55.716989  0.017133145  0.017627736            1 
  272000   0.83217167   -8.1661214    55.720614  0.017071266  0.017568939            3 
  273000    0.8351716   -8.1207844    55.931509   0.01707311  0.017510562            2 
  274000   0.82609328   -8.1207188    55.944427  0.017014729  0.017452672            1 
  275000   0.82126056   -8.1079022    56.063865   0.01698905  0.017394714            2 
  276000   0.83790657   -8.1375699    56.255126  0.016985243  0.017337938            2 
  277000    0.8327403   -8.1338249    56.216062  0.016912173  0.017281245            3 
  278000   0.82931307   -8.1373001    56.328906  0.016885163  0.017225039            2 
  279000   0.83912521   -8.1450691    56.466424  0.016865718   0.01716877            4 
  280000   0.83321123   -8.1574919    56.311639  0.016759416  0.017112412            6 
  281000   0.82164459   -8.1689648    56.400263  0.016726057  0.017056356            2 
  282000   0.82425425   -8.1946196    56.236816  0.016618444  0.017000088            2 
  283000   0.80905461   -8.1916632    56.474071  0.016629585  0.016943551            3 
  284000    0.8167522   -8.1707019    56.403304  0.016550265  0.016886742            3 
  285000   0.81044832   -8.2055831     56.18613  0.016428693  0.016829248            8 
  286000   0.80206154   -8.2029357    56.321671  0.016410743  0.016772278            7 
  287000   0.80462585   -8.1693858    56.474584  0.016397963  0.016715137            3 
  288000   0.79513714   -8.2427803    56.294786  0.016289001   0.01665778            2 
  289000   0.80596326   -8.2129102    56.446878  0.016276493  0.016600291            3 
  290000   0.81601831   -8.1975835    56.535985  0.016245973  0.016543176            3 
  291000   0.82829139   -8.2304131    56.417515  0.016156218   0.01648644            7 
  292000   0.79504264   -8.2185413    56.582353  0.016147932  0.016430083            2 
  293000    0.7993729   -8.2316512    56.622374  0.016104202  0.016373813            7 
  294000   0.81429575   -8.2414519    56.598116   0.01604255  0.016317459            6 
  295000   0.80207493   -8.2864014    56.440453  0.015943631   0.01626139            5 
  296000   0.80457931   -8.2308566     56.61084  0.015937737  0.016205354            5 
  297000   0.80564014   -8.2676299    56.641445  0.015892661  0.016149685            9 
  298000   0.79803762   -8.2845594    56.532344  0.015808821  0.016093612            2 
  299000   0.78504394   -8.2480675    56.716538  0.015807285  0.016037563            4 
  300000   0.79384455   -8.3009806    56.553543  0.015709317  0.015981664            2 
  301000   0.78345268   -8.2314578    56.765013  0.015715674  0.015925632            3 
  302000   0.78544086   -8.2543472    56.651978  0.015632444  0.015869892            7 
  303000   0.79313829   -8.2761899    56.585194  0.015562485  0.015814305            5 
  304000   0.78176905   -8.2896303    56.626986  0.015522748  0.015759164            4 
  305000   0.78769145     -8.27522    56.869474  0.015538108  0.015704143            2 
  306000   0.78364945   -8.2866259    56.705564  0.015442692  0.015649158            3 
  307000   0.79212227   -8.2936372    56.847571  0.015430937  0.015594314            4 
  308000   0.78563384   -8.3078038    56.829802  0.015376029  0.015539814            2 
  309000   0.76867276   -8.2958348    56.839171  0.015328795  0.015485534            2 
  310000   0.77745089   -8.2887299    56.825705  0.015275727  0.015431384            2 
  311000   0.77213579   -8.3036182    56.927563  0.015253902   0.01537767            3 
  312000   0.76651618   -8.3256838    56.964294  0.015214822  0.015323764            3 
  313000   0.77559946   -8.3184674     56.99901  0.015175455   0.01527026            3 
  314000   0.76054019   -8.3335243    57.115311  0.015157991   0.01521663            4 
  315000   0.75501223   -8.3662837    56.937329  0.015062785  0.015162999            3 
  316000   0.76839905   -8.3662844    56.923945  0.015011589  0.015109416            6 
  317000   0.76380601   -8.3748981    56.859501  0.014947293  0.015055818            2 
  318000   0.76552684   -8.3640714    56.923758  0.014917127  0.015002234            2 
  319000   0.74929663   -8.3456532    57.163225  0.014932922  0.014949256            3 
  320000   0.73696018   -8.3379388    57.098431  0.014869383  0.014896562            2 
  321000    0.7505949    -8.323958    57.035131  0.014806628  0.014844266            3 
  322000   0.75695427   -8.3864803     57.14637  0.014789433  0.014791602            2 
  323000    0.7443658   -8.3660302    57.033185  0.014714444  0.014739414            2 
  324000   0.75649478   -8.3754693    56.980149  0.014655388  0.014686914            4 
  325000   0.76284482   -8.3680095    56.952978  0.014603328  0.014634593            2 
  326000   0.74831298   -8.3716842    57.044713  0.014581982  0.014582487            1 
  327000   0.75050493   -8.3923331    57.068063  0.014543339  0.014530434            2 
  328000   0.75678253   -8.4046292    57.011443  0.014484615  0.014478654            2 
  329000   0.75482914   -8.4178462    56.923909  0.014418417  0.014426797            1 
  330000   0.72878244    -8.371449    56.954919  0.014382555  0.014374993            1 
  331000   0.74420647   -8.3949706    57.097864  0.014375092  0.014323353            4 
  332000   0.74502345   -8.3690348    57.094915  0.014331053  0.014271803            3 
  333000   0.74132767   -8.4098887     56.94221  0.014249802  0.014220125            2 
  334000   0.74158177   -8.4069205    56.777248   0.01416598   0.01416868            4 
  335000   0.74560967   -8.4169591    57.008002  0.014181095  0.014117129            4 
  336000   0.73601508   -8.4200248    56.988408   0.01413403  0.014066285            2 
  337000   0.74159354   -8.4155597    57.167712  0.014136427  0.014015865            2 
  338000   0.72525861   -8.4358251    57.088094  0.014074974  0.013965502            2 
  339000   0.71872948   -8.4336812    57.027721  0.014018614   0.01391528            1 
  340000   0.72177522   -8.4523743    57.070922  0.013987971  0.013865011            6 
  341000   0.71619982   -8.4253161    57.213325  0.013981751  0.013815183            3 
  342000   0.72532755   -8.4523586    57.039814   0.01389859  0.013765597            3 
  343000   0.72229541   -8.4504507    57.133892  0.013880926  0.013716099            1 
  344000     0.728217   -8.4332903    57.106564  0.013833954  0.013666922            2 
  345000   0.69828421   -8.4646505    57.160601  0.013806909  0.013617911            3 
  346000   0.72360911    -8.440394    57.198375  0.013776102  0.013569163            3 
  347000   0.70588196   -8.4485911    57.147436  0.013724168  0.013520512            2 
  348000   0.71943803   -8.4868504    57.153461  0.013686174  0.013471975            4 
  349000   0.69972882   -8.4640291    57.190527  0.013655809  0.013423669            6 
  350000   0.70083398   -8.4651936    57.167554  0.013611322  0.013375581            7 
  351000   0.70451509   -8.4545349    57.184363  0.013576534  0.013327643            2 
  352000   0.70510519   -8.4643696    57.175113  0.013535775  0.013280068            3 
  353000   0.70292915   -8.4455466    57.203932  0.013504233  0.013232569            3 
  354000   0.68419904   -8.4780624    57.249896  0.013476906  0.013185124            2 
  355000   0.69032216   -8.4768497    57.110724  0.013406273  0.013137829            2 
  356000    0.6983109   -8.5000933    57.153015  0.013378515  0.013090511            5 
  357000   0.68860566   -8.4807006    57.175544  0.013346299  0.013043313            2 
  358000   0.69505595   -8.4962825    57.174219   0.01330871  0.012996235            3 
  359000   0.68531732   -8.5106936    57.083588  0.013250601  0.012949232            2 
  360000   0.71323174   -8.5074241     57.08168  0.013213352  0.012902093            2 
  361000   0.68445616   -8.5102341     57.08871  0.013178373  0.012855169            3 
  362000   0.68652837   -8.5063512    57.065297  0.013136579  0.012808579            2 
  363000   0.69116961   -8.5472196    57.190895  0.013129223  0.012761928            3 
  364000   0.68202379   -8.5401206    57.179113  0.013090456  0.012715623            3 
  365000   0.68291336   -8.5349194    57.112346  0.013039348  0.012669571            1 
  366000   0.67631453   -8.5317953    57.174389  0.013017848  0.012623719            7 
  367000   0.67073003   -8.5466631    57.155929  0.012978185  0.012578136            2 
  368000   0.69255822   -8.5610991     57.16481   0.01294493  0.012532794            4 
  369000    0.6847451   -8.5500038    57.124856  0.012900826  0.012487646            2 
  370000    0.6792302    -8.566189    57.093773  0.012858958  0.012442538            3 
  371000   0.69323843   -8.5467829    57.189583  0.012845818  0.012397597            3 
  372000   0.68336688   -8.5578171    57.197895  0.012813149  0.012352995            3 
  373000   0.67183589    -8.565828     57.10052  0.012757042  0.012308321            2 
  374000   0.66179444    -8.584219    57.059047  0.012713691  0.012263838            2 
  375000    0.6657357   -8.5760238    57.156073  0.012701349  0.012219677            2 
  376000   0.66967112   -8.5870684    57.188999  0.012674867  0.012175596            3 
  377000    0.6690509   -8.5814346    57.201016  0.012643903  0.012131761            6 
  378000   0.66671231   -8.6055436    57.086034  0.012585105  0.012088045            3 
  379000   0.68143393   -8.6247676    57.034112  0.012540482  0.012044573            6 
  380000   0.66525695   -8.5923699    57.151379  0.012533197  0.012001185            6 
  381000   0.66659093   -8.6114865    57.210694  0.012513275   0.01195798            3 
  382000   0.65954529   -8.6194798    57.110778  0.012458721  0.011914905            3 
  383000   0.65828978   -8.6340541    57.090792  0.012421843   0.01187192            2 
  384000   0.67282235    -8.622422    57.069495  0.012384873  0.011828957            3 
  385000   0.65786572   -8.6299959    57.101376  0.012359605  0.011786307            2 
  386000   0.64848988   -8.6262499    57.000759  0.012305863  0.011743782            3 
  387000   0.64092654   -8.6359535    57.098681  0.012295151   0.01170138            3 
  388000   0.64168671   -8.6306388    57.053343  0.012253725  0.011659226            3 
  389000   0.65400058   -8.6426446    57.093821  0.012230896  0.011617221            2 
  390000   0.64748726   -8.6401225      57.0638   0.01219312  0.011575544            3 
  391000   0.64817902   -8.6669029    57.081931  0.012165799  0.011533928            2 
  392000   0.62897632   -8.6713009    57.080713  0.012134505   0.01149247            2 
  393000    0.6379757   -8.6619655     56.99126  0.012084661  0.011451193            5 
  394000   0.63288553    -8.668871     57.02548  0.012061227  0.011410005            5 
  395000   0.64184958   -8.6389836    57.040689  0.012033901  0.011369115            3 
  396000   0.64786389    -8.655274    57.053156  0.012006136  0.011328342            2 
  397000   0.62793837   -8.6745658    57.014514  0.011967782    0.0112876            2 
  398000   0.63917411   -8.6896949    56.917645   0.01191743  0.011247044            6 
  399000   0.64148575   -8.6759415    56.982339  0.011901073  0.011206701            2 
  400000   0.63271924   -8.6802616    56.972966  0.011869368  0.011166543            2 
  401000   0.61367916   -8.6948631    57.039462  0.011853587  0.011126452            4 
  402000   0.61691864   -8.7043759    56.994911  0.011814865   0.01108656            8 
  403000   0.62398999   -8.6943683    57.083158  0.011803796  0.011046724            3 
  404000   0.62754517   -8.7239305     56.97215  0.011751681  0.011007154            5 
  405000   0.62741902   -8.7006441    56.956526   0.01171945   0.01096773            3 
  406000   0.61823913   -8.6947026    56.946213  0.011688467  0.010928391            4 
  407000   0.62823884   -8.6995617    56.932914  0.011657026  0.010889314            6 
  408000   0.61785212   -8.6757858     57.01767  0.011645766  0.010850459            3 
  409000   0.60032753   -8.7158035     56.97165  0.011607916  0.010811701            2 
  410000   0.62774599   -8.7226791    57.065258   0.01159863  0.010773023            6 
  411000   0.60694994   -8.7186472    56.916435  0.011540234  0.010734511            5 
  412000    0.6077801   -8.7009449    56.925771  0.011514112  0.010696141            4 
  413000   0.60515542   -8.7262548    57.033028  0.011507875  0.010657876            5 
  414000    0.6039048   -8.7180789    56.872253  0.011447716  0.010619769            2 
  415000   0.61041774   -8.7221845    56.989213  0.011443617   0.01058191            6 
  416000   0.61070745   -8.7293612    56.804715   0.01137915  0.010544127            4 
  417000    0.6101126   -8.7273824    56.925119  0.011375923  0.010506665            3 
  418000   0.60367141   -8.7320201    56.905086  0.011344714  0.010469276            4 
  419000   0.60536924   -8.7460874    57.021438  0.011340779  0.010432106            2 
  420000   0.61188927   -8.7362375    56.884546  0.011286616  0.010395075            4 
  421000   0.59174389    -8.734077    56.929709  0.011268747  0.010358332            3 
  422000   0.58640817   -8.7622201    57.011323   0.01125816  0.010321621            2 
  423000   0.59616029   -8.7354764    56.854872  0.011200723  0.010284995            5 
  424000   0.58721936    -8.736159    56.942494  0.011191528   0.01024846            3 
  425000   0.58607805   -8.7261625    56.893721  0.011155632  0.010212189            4 
  426000   0.57807317   -8.7660297     56.84302  0.011119527  0.010175969            4 
  427000   0.57512145    -8.756062    56.911256  0.011106802  0.010139895            4 
  428000   0.57327372   -8.7664527    56.786228  0.011056509  0.010103961            3 
  429000    0.5813037   -8.7738007    56.833891  0.011039994  0.010068262            4 
  430000   0.58504168   -8.7683182    56.836299  0.011014787   0.01003263            3 
  431000   0.58040379   -8.7498909    56.830095  0.010988031 0.0099971681            3 
  432000   0.57438479   -8.7520168    56.800965  0.010956976 0.0099618447            3 
  433000   0.56605368   -8.7597378    56.851487  0.010941395 0.0099265829            3 
  434000   0.55627473   -8.7789933    56.738653  0.010894519 0.0098915588            5 
  435000   0.56737701   -8.7839785    56.801929  0.010881596 0.0098566956            2 
  436000   0.55891651    -8.797213    56.813006  0.010858755 0.0098219083            3 
  437000   0.57234872   -8.7875817    56.796055  0.010830674 0.0097874168            3 
  438000   0.57909772   -8.7907821    56.843501  0.010814974 0.0097529668            2 
  439000   0.56253024    -8.807083    56.761316  0.010774737 0.0097187062            5 
  440000   0.56108836   -8.7891568    56.695684  0.010737819 0.0096845117            3 
  441000   0.55597795   -8.8039722    56.752603  0.010724226  0.009650476            4 
  442000   0.55547689   -8.7951145    56.751429  0.010699742 0.0096165422            4 
  443000   0.56167383   -8.8094604    56.773511  0.010679742 0.0095827714            1 
  444000   0.54976786    -8.801573    56.811859  0.010662886 0.0095491539            3 
  445000   0.56181131   -8.8153798    56.776589   0.01063232 0.0095156895            4 
  446000   0.56057993   -8.8251519    56.653051  0.010585398 0.0094823002            6 
  447000   0.55042924   -8.8093983    56.646046  0.010560411  0.009449083            4 
  448000   0.54717582   -8.8127677    56.701387  0.010547133   0.00941597            8 
  449000   0.54503398   -8.8436152    56.805681  0.010542999 0.0093830792            5 
  450000   0.54707742   -8.8280415    56.724639  0.010504563 0.0093502572            4 
  451000   0.54636965   -8.8254128    56.712178  0.010478969 0.0093175792            4 
  452000   0.54778886   -8.8161742    56.707658  0.010454952 0.0092851147            2 
  453000   0.54672671    -8.836741    56.695239  0.010429588 0.0092527933            3 
  454000   0.53647113   -8.8519407    56.669944  0.010401972 0.0092206217            8 
  455000   0.53248235   -8.8473165    56.739692  0.010391885 0.0091885638            2 
  456000   0.54099947   -8.8294866    56.734941  0.010368228 0.0091566067            4 
  457000   0.53307114   -8.8279553    56.725773  0.010343868 0.0091248905            3 
  458000   0.53264997   -8.8424224    56.697691  0.010316174 0.0090932739            2 
  459000    0.5412992   -8.8441776    56.655056  0.010285958  0.009061812            3 
  460000   0.53735386   -8.8408844     56.69099  0.010270107 0.0090305133            2 
  461000   0.52489349   -8.8690796    56.604427  0.010232181 0.0089993633            4 
  462000   0.52263788   -8.8621567    56.615068  0.010211953 0.0089682816            4 
  463000   0.52948939   -8.8529863    56.670946  0.010199954 0.0089373403            4 
  464000   0.52231614    -8.857231    56.667831  0.010177412 0.0089065059            5 
  465000   0.52281384   -8.8747042    56.596419  0.010142727  0.008875799            4 
  466000   0.53359662   -8.8697921    56.573029  0.010116779 0.0088452681            5 
  467000    0.5252724   -8.8821068    56.550852  0.010091158 0.0088148886            3 
  468000    0.5158734   -8.8679643    56.667642  0.010090392 0.0087846045            3 
  469000   0.51573121   -8.8805253    56.625525  0.010061394 0.0087543899            2 
  470000   0.52338066   -8.8755218    56.555768  0.010027618 0.0087243346            3 
  471000   0.51269507   -8.8866655    56.524171  0.010000738  0.008694435            2 
  472000   0.50506697   -8.8704398    56.653399  0.010002366 0.0086646192            9 
  473000   0.52156619    -8.891961    56.600178 0.0099718425 0.0086349316            4 
  474000   0.50635619    -8.882393    56.525134 0.0099376115 0.0086053503            3 
  475000   0.50703503   -8.8791976    56.461889 0.0099055945 0.0085759072            6 
  476000   0.50814944   -8.8715979    56.541809 0.0098987761 0.0085465138            6 
  477000   0.50707606   -8.9115461     56.59472 0.0098872676 0.0085172918            4 
  478000   0.50885356   -8.9104513    56.550865 0.0098589373 0.0084882209            2 
  479000   0.49896639   -8.8973829    56.559476 0.0098398532 0.0084592774            7 
  480000    0.5061098   -8.9124862    56.487102 0.0098067885 0.0084304319            4 
  481000   0.49295934   -8.9071642    56.550791 0.0097974343 0.0084016691            9 
  482000   0.49930554   -8.9122733    56.525124 0.0097726702  0.008373068            5 
  483000   0.49431308   -8.9107236    56.459504 0.0097411152 0.0083446145           10 
  484000   0.50606392   -8.9102333    56.488526 0.0097259859 0.0083162533            2 
  485000   0.48998668   -8.9156979     56.45812 0.0097007079 0.0082880227            3 
  486000   0.49053127   -8.9276799    56.453092 0.0096798855 0.0082598963            5 
  487000   0.48972357   -8.9273416     56.44126 0.0096579843 0.0082318859            7 
  488000   0.49834465   -8.9243129    56.438896 0.0096377896 0.0082040609            9 
  489000   0.48702332   -8.9348326    56.436784 0.0096177204 0.0081762699            8 
  490000    0.4800072   -8.9392276     56.47798 0.0096050986 0.0081486069            5 
  491000   0.48991985   -8.9202951    56.432527 0.0095778219 0.0081210343            7 
  492000   0.48493309   -8.9394935    56.354153 0.0095450802 0.0080936771            8 
  493000   0.48410677    -8.939509    56.423061 0.0095373666 0.0080663758            5 
  494000   0.47663063   -8.9310811    56.443571 0.0095215201 0.0080391775            5 
  495000   0.47303061   -8.9504875    56.385486 0.0094925061 0.0080121019            5 
  496000   0.47140764   -8.9389351    56.480693 0.0094893638  0.007985131            6 
  497000   0.47767207   -8.9472725    56.367881 0.0094513549  0.007958262            5 
  498000    0.4734587    -8.940984    56.404653 0.0094385296 0.0079314799            8 
  499000   0.47024162   -8.9619047    56.391312 0.0094173868 0.0079048273            6 
  500000    0.4696648   -8.9649179     56.39953 0.0093999216 0.0078783284            7 
  501000   0.46612428   -8.9623987    56.307336 0.0093658243 0.0078519315            8 
  502000   0.47569268     -8.96125    56.357291   0.00935546 0.0078256482            8 
  503000   0.46258013   -8.9730607    56.237913  0.009317083 0.0077994448            5 
  504000   0.44605171   -8.9714568    56.315182 0.0093113727 0.0077733402            5 
  505000   0.45953193    -8.982622    56.263198 0.0092843561 0.0077473755            6 
  506000   0.46422868   -8.9816285    56.280988 0.0092689374 0.0077214982            8 
  507000   0.45055074   -8.9705377    56.295919 0.0092531096 0.0076957536            6 
  508000   0.45576924   -8.9716321    56.357866 0.0092450568 0.0076701222            7 
  509000   0.45525337   -8.9862575     56.35669 0.0092267011 0.0076445781           11 
  510000   0.44476419    -8.975188    56.278319 0.0091958038  0.007619167            6 
  511000   0.45361444   -8.9932789    56.239385 0.0091714587 0.0075938326            8 
  512000   0.44635002   -8.9899065    56.304852 0.0091642012 0.0075686165            7 
Loop time of 1231.76 on 48 procs for 500000 steps with 4000 atoms

Performance: 70143.490 tau/day, 405.923 timesteps/s
99.4% CPU use with 48 MPI tasks x no OpenMP threads

MPI task timing breakdown:
Section |  min time  |  avg time  |  max time  |%varavg| %total
---------------------------------------------------------------
Pair    | 81.301     | 87.735     | 96.699     |  40.2 |  7.12
Neigh   | 8.1046     | 8.5692     | 8.974      |   7.6 |  0.70
Comm    | 75.13      | 83.9       | 91.673     |  42.0 |  6.81
Output  | 0.89227    | 0.89293    | 0.90308    |   0.2 |  0.07
Modify  | 1038       | 1040.2     | 1043       |   3.3 | 84.45
Other   |            | 10.42      |            |       |  0.85

Nlocal:        83.3333 ave          90 max          75 min
Histogram: 1 0 5 5 9 5 10 3 5 5
Nghost:        2185.10 ave        2212 max        2167 min
Histogram: 3 5 12 8 5 5 2 2 5 1
Neighs:        14550.8 ave       16057 max       12707 min
Histogram: 1 2 4 5 9 9 4 4 6 4
FullNghs:      29102.6 ave       31350 max       25918 min
Histogram: 1 1 2 8 5 10 8 4 4 5

Total # of neighbors = 1396924
Ave neighs/atom = 349.23100
Neighbor list builds = 26688
Dangerous builds = 0

#clear
#
#next RN
#
#jump SELF
Total wall time: 0:20:35
