
units lj                  # Use reduced LJ style units
atom_style atomic         # Uncharged point particles
atom_modify map hash      # Needed for indexing of clusters etc
                          # Used to be able to find where atoms are in relation to each other.

lattice fcc 1.0 spacing 1 1 1
Lattice spacing in x,y,z = 1.5874011 1.5874011 1.5874011
region box block 0 10 0 10 0 10 units lattice
create_box 2 box
Created orthogonal box = (0.0000000 0.0000000 0.0000000) to (15.874011 15.874011 15.874011)
  3 by 4 by 4 MPI processor grid
create_atoms 1 box
Created 4000 atoms
  using lattice units in orthogonal box = (0.0000000 0.0000000 0.0000000) to (15.874011 15.874011 15.874011)
  create_atoms CPU = 0.008 seconds
set type 1 type/fraction 2 0.46 78393
Setting atom values ...
  1843 settings made for type/fraction
mass 1 1.0
mass 2 1.0
pair_style lj/cut  3.5
pair_modify tail  yes
pair_coeff 1  1  1.0  1.0   # Intearaction between 1 and 1 set with epsilon = 1 and sigma = 1
pair_coeff 1  2  1.5  0.8
pair_coeff 2  2  0.5  0.88

write_data data.0
System init for write_data ...
Neighbor list info ...
  update every 1 steps, delay 10 steps, check yes
  max neighbors/atom: 2000, page size: 100000
  master list distance cutoff = 3.8
  ghost atom cutoff = 3.8
  binsize = 1.9, bins = 9 9 9
  1 neighbor lists, perpetual/occasional/extra = 1 0 0
  (1) pair lj/cut, perpetual
      attributes: half, newton on
      pair build: half/bin/atomonly/newton
      stencil: half/bin/3d
      bin: standard
WARNING: Not all mixed pair coeffs generated from mixing. Use write_data with 'pair ij' option to store all pair coeffs. (../write_data.cpp:312)


#############################
#   M E L T   S Y S T E M   #
#############################

velocity all create 2.4 5833274 mom yes dist gaussian # Assign velocities
                                                    # Temperature 2.4, random number seed, zero linear momentum
                                                                                # Gaussian distribution

timestep 0.002   # simulation timestep
thermo 1000       # output thermodynamic data every 1000 steps bf 100

# Define a fix  in this case with index 1 applied to all
# particles in the simulation. This fix is for simulations
# in the anisotropic NPT ensemble. Note that we use the MTK
# correction.
fix 1 all npt temp 2.4 2.4 0.1 iso 5.68 5.68 0.5 mtk yes tchain 5 pchain 5 # Use NPT ensemble
                                                                         # Set temperature and pressure and damping
                                                                         # Numbers of thermostats in chain and in barostat
run 10000          # run for 10000 steps
Per MPI rank memory allocation (min/avg/max) = 3.642 | 3.644 | 3.648 Mbytes
Step Temp E_pair E_mol TotEng Press Volume 
       0          2.4   -5.5244938            0   -1.9253938   -4.2019961         4000 
    1000    2.3348971   -4.9758123            0   -1.4743422    5.5795107    3762.6903 
    2000    2.4345181   -5.0096304            0   -1.3587662    5.9397674    3740.8037 
    3000    2.4220571    -5.047021            0   -1.4148437    5.7182226    3733.2811 
    4000    2.4067459   -4.9332055            0   -1.3239892    6.1283997     3751.754 
    5000    2.4091489   -4.9212712            0   -1.3084512    6.2889494    3749.6385 
    6000    2.3984437   -5.0254183            0   -1.4286522    5.7093313     3737.418 
    7000    2.4508892   -4.9379576            0   -1.2625429    5.5121929     3793.851 
    8000    2.4088593   -4.9609936            0    -1.348608    5.5719651     3780.327 
    9000     2.372648   -4.8870473            0   -1.3289651    6.4270511     3751.932 
   10000    2.3783323   -4.9740719            0   -1.4074653    5.4457457    3777.1701 
Loop time of 2.9094 on 48 procs for 10000 steps with 4000 atoms

Performance: 593936.061 tau/day, 3437.130 timesteps/s
99.3% CPU use with 48 MPI tasks x no OpenMP threads

MPI task timing breakdown:
Section |  min time  |  avg time  |  max time  |%varavg| %total
---------------------------------------------------------------
Pair    | 1.1159     | 1.2179     | 1.287      |   3.2 | 41.86
Neigh   | 0.2127     | 0.22144    | 0.23416    |   1.0 |  7.61
Comm    | 0.83252    | 0.9159     | 1.0436     |   4.3 | 31.48
Output  | 0.00024569 | 0.00025325 | 0.00041983 |   0.0 |  0.01
Modify  | 0.42825    | 0.53857    | 0.56866    |   3.0 | 18.51
Other   |            | 0.01531    |            |       |  0.53

Nlocal:        83.3333 ave          99 max          75 min
Histogram: 3 8 11 7 10 5 3 0 0 1
Nghost:        1714.83 ave        1745 max        1686 min
Histogram: 2 4 2 6 11 11 3 7 1 1
Neighs:        10098.9 ave       12784 max        8806 min
Histogram: 2 8 14 9 9 4 1 0 0 1

Total # of neighbors = 484745
Ave neighs/atom = 121.18625
Neighbor list builds = 910
Dangerous builds = 234

# Equilibrate just above the melting temperature to avoid step fn in T

fix 1 all npt temp 1.25 1.25 0.1 iso 5.68 5.68 0.5 mtk yes tchain 5 pchain 5
run 2000
Per MPI rank memory allocation (min/avg/max) = 3.644 | 3.645 | 3.649 Mbytes
Step Temp E_pair E_mol TotEng Press Volume 
   10000    2.3783323   -4.9740719            0   -1.4074653    5.4457457    3777.1701 
   11000    1.2651749     -7.07549            0   -5.1782022    5.6682746    2953.3665 
   12000    1.2435331    -7.107709            0   -5.2428756    5.6551465    2939.7587 
Loop time of 0.631257 on 48 procs for 2000 steps with 4000 atoms

Performance: 547479.217 tau/day, 3168.283 timesteps/s
99.7% CPU use with 48 MPI tasks x no OpenMP threads

MPI task timing breakdown:
Section |  min time  |  avg time  |  max time  |%varavg| %total
---------------------------------------------------------------
Pair    | 0.27996    | 0.3057     | 0.3464     |   2.5 | 48.43
Neigh   | 0.039878   | 0.042655   | 0.048079   |   0.8 |  6.76
Comm    | 0.18969    | 0.23474    | 0.26418    |   3.2 | 37.19
Output  | 5.2644e-05 | 5.3834e-05 | 7.1415e-05 |   0.0 |  0.01
Modify  | 0.037923   | 0.043331   | 0.048364   |   1.5 |  6.86
Other   |            | 0.004773   |            |       |  0.76

Nlocal:        83.3333 ave          90 max          76 min
Histogram: 2 1 6 4 7 14 3 5 2 4
Nghost:        2016.77 ave        2051 max        1986 min
Histogram: 1 4 6 5 11 7 7 2 3 2
Neighs:        13012.1 ave       14557 max       11342 min
Histogram: 1 1 8 5 7 8 5 9 2 2

Total # of neighbors = 624580
Ave neighs/atom = 156.14500
Neighbor list builds = 143
Dangerous builds = 9

#############################
# L I N E A R  Q U E N C H  #
#############################

# Define solid atoms. This closely follows ten Wolde  Ruiz-Montero and Frenkel  Faraday Discuss  1996  104  93-110
# Compute components of the per-atom q6 vector
compute q6 all orientorder/atom degrees 1 6 components 6 nnn NULL cutoff 1.3 # compute the Q6 parameter.
                                                                             # Use all neighbours within 1.3 unit cell.

# get number of connections
compute coord_number all coord/atom orientorder q6 0.5

# An atom is solid if it has 8 or more connections (of a possible 14)
variable is_solid atom c_coord_number>=8
group solid dynamic all var is_solid    # Must be dynamic to update
dynamic group solid defined

# do clustering
compute cluster solid cluster/atom 1.3 # Create a cluster where all atoms within are solid and max 1.3 units from another member

# define chunks one chunk per cluster
compute clus_chunks solid chunk/atom c_cluster nchunk every compress yes  # Says which atoms are in which chunk

# count the size of each chunk
compute size_chunks solid property/chunk clus_chunks count


# Find the maximum entry in the vector of chunk sizes
variable max_n equal max(c_size_chunks)


# Thermo style which includes this variable
# thermo_style custom step temp pe vol v_max_n

thermo ${N}  # Print the thermo information every 100 steps
thermo 1000  

# Reset the npt fix at a lower temperature (below freezing)
fix 1  all npt temp  ${temp} ${temp}  0.1  iso  5.68  5.68  0.5  mtk yes tchain  5  pchain  5
fix 1  all npt temp  0.45 ${temp}  0.1  iso  5.68  5.68  0.5  mtk yes tchain  5  pchain  5
fix 1  all npt temp  0.45 0.45  0.1  iso  5.68  5.68  0.5  mtk yes tchain  5  pchain  5

dump dmp2 all dcd ${N} traj.dcd
dump dmp2 all dcd 1000 traj.dcd


compute msd all msd com yes
variable twopoint equal c_msd[4]/6/(step*dt+1.0e-6)
fix 9 all vector 10 c_msd[4]
variable fit equal slope(f_9)/6/(10*dt)
thermo_style custom step temp pe c_msd[4] v_twopoint v_fit v_max_n

fix 1 all npt temp 1.25 ${temp} 0.1 iso 5.68 5.68 0.5 mtk yes tchain 5 pchain 5
fix 1 all npt temp 1.25 0.45 0.1 iso 5.68 5.68 0.5 mtk yes tchain 5 pchain 5
run 5000000 # 5000000  # Run for this many steps
Neighbor list info ...
  update every 1 steps, delay 10 steps, check yes
  max neighbors/atom: 2000, page size: 100000
  master list distance cutoff = 3.8
  ghost atom cutoff = 3.8
  binsize = 1.9, bins = 8 8 8
  4 neighbor lists, perpetual/occasional/extra = 1 3 0
  (1) pair lj/cut, perpetual
      attributes: half, newton on
      pair build: half/bin/atomonly/newton
      stencil: half/bin/3d
      bin: standard
  (2) compute orientorder/atom, occasional
      attributes: full, newton on
      pair build: full/bin/atomonly
      stencil: full/bin/3d
      bin: standard
  (3) compute coord/atom, occasional
      attributes: full, newton on
      pair build: full/bin/atomonly
      stencil: full/bin/3d
      bin: standard
  (4) compute cluster/atom, occasional
      attributes: full, newton on
      pair build: full/bin/atomonly
      stencil: full/bin/3d
      bin: standard
Per MPI rank memory allocation (min/avg/max) = 9.833 | 9.838 | 9.844 Mbytes
Step Temp PotEng c_msd[4] v_twopoint v_fit v_max_n 
   12000    1.2435331    -7.107709 4.9495105e-30  3.43716e-32 8.3333333e+20            2 
   13000    1.2559554   -7.1601335   0.44601169 0.0028590492  0.036142109            1 
   14000    1.2519355   -7.1654989   0.83422817 0.0049656437  0.033793359            1 
   15000    1.2657778   -7.1828732    1.2627493 0.0070152739  0.033869394            1 
   16000    1.2402877   -7.1292174    1.6354474 0.0085179547  0.033475358            4 
   17000    1.2660005    -7.127675    2.0669026  0.010131875  0.033807195            1 
   18000    1.2577366     -7.12976    2.4250088  0.011226892  0.033514604            1 
   19000    1.2286923    -7.147356    2.8062907  0.012308292   0.03313533            1 
   20000    1.2387084   -7.1499057    3.2853724  0.013689051  0.033111213            1 
   21000     1.249745   -7.1640272    3.6874821  0.014632865  0.033367676            2 
   22000    1.2573381   -7.1086717    4.0843638  0.015471075  0.033596817            3 
   23000    1.2637626   -7.1169816    4.4680448  0.016188568  0.033673339            1 
   24000    1.2822262   -7.1530766     4.870953  0.016913031  0.033684743            2 
   25000    1.2263043   -7.1239984    5.3217227  0.017739075  0.033641009            1 
   26000    1.2431675   -7.1669208    5.6770136  0.018195556  0.033703936            1 
   27000    1.2510688   -7.1449898     6.101522  0.018831858  0.033707089            1 
   28000    1.2708893   -7.1486925    6.5683837  0.019548761  0.033757987            3 
   29000    1.2532127   -7.1000008    7.0401092  0.020230199    0.0339158            1 
   30000    1.2354353   -7.1625288    7.4904507  0.020806807   0.03412629            4 
   31000    1.2307026   -7.1615352    7.9404092  0.021345186  0.034353797            6 
   32000    1.2459419   -7.1631834    8.3448355  0.021731342  0.034524353            2 
   33000    1.2848074   -7.1230862    8.7884375  0.022193024  0.034641308            1 
   34000    1.2428281   -7.1955235     9.220071  0.022598213  0.034765411            2 
   35000    1.2446915   -7.1152537    9.6872191  0.023064807  0.034873205            2 
   36000    1.2406082   -7.1283644    10.117865  0.023420982   0.03498205            1 
   37000    1.2462185    -7.147272    10.551545  0.023764741  0.035056381            3 
   38000    1.2324232   -7.1177125    10.969064  0.024054963  0.035122237            1 
   39000    1.2481977   -7.1241985    11.322147  0.024192622  0.035173052            1 
   40000    1.2486734   -7.1059981    11.754777  0.024489119  0.035192068            1 
   41000    1.2801471   -7.1764228    12.119433  0.024632993  0.035197341            3 
   42000    1.2203983   -7.1875748    12.489987   0.02478172  0.035196873            2 
   43000    1.2615428   -7.1313133    13.067825  0.025325241  0.035203423            1 
   44000    1.2231533   -7.1718782    13.407411  0.025392824  0.035220728            2 
   45000    1.2306912   -7.1925188    13.739449  0.025443423  0.035195595            1 
   46000    1.2423445    -7.145055    14.154442  0.025642105  0.035136575            2 
   47000     1.223249   -7.1820296    14.566275  0.025826729  0.035111117            2 
   48000     1.262436   -7.1944884    15.055348  0.026137757  0.035089079            1 
   49000    1.2489527   -7.1579541    15.416469  0.026218485  0.035076184            1 
   50000    1.2718421   -7.1518583    15.756203  0.026260338  0.035020193            1 
   51000    1.2499156   -7.1596593    16.267082  0.026580199    0.0349925            1 
   52000    1.2490524   -7.1423674    16.611826  0.026621516  0.034975215            4 
   53000    1.2344027   -7.2123616    17.034248  0.026783408   0.03494583            1 
   54000    1.2626854   -7.1427339    17.505868  0.027015228  0.034919356            1 
   55000    1.2407046   -7.1291171    17.900325  0.027121704  0.034898265            2 
   56000    1.2306659   -7.1247154    18.264786  0.027179741  0.034875656            1 
   57000    1.2580739   -7.1630108     18.54238  0.027108743  0.034835013            4 
   58000    1.2357316   -7.1059243    18.985645  0.027278226  0.034786349            2 
   59000    1.2658184   -7.1123104    19.466974  0.027495726  0.034744431            2 
   60000    1.1998376   -7.1542443    19.829874  0.027541492  0.034705699            2 
   61000    1.2674729   -7.1676682    20.270055  0.027691331  0.034674937            3 
   62000    1.2199568   -7.1811272    20.616517  0.027710372  0.034646323            1 
   63000    1.2532843   -7.1343548    20.895294  0.027639278  0.034598316            2 
   64000    1.2358503   -7.1715202    21.382108  0.027841286  0.034549798            2 
   65000    1.2680818   -7.1705555    21.878722  0.028049643  0.034525167            2 
   66000     1.240808   -7.1974236    22.349999  0.028219696  0.034515863            1 
   67000    1.2085492   -7.1322454    22.873587  0.028449734  0.034515199            1 
   68000    1.2175071   -7.1332699    23.312734  0.028569527  0.034526796            2 
   69000       1.2451    -7.164712    23.758001  0.028693238  0.034542757            2 
   70000    1.2630084    -7.154052    24.094413  0.028683825   0.03456302            1 
   71000    1.2123901   -7.1520145     24.53244  0.028793943  0.034568336            5 
   72000     1.221642   -7.1474105    25.002671  0.028938276  0.034575413            1 
   73000    1.2638782   -7.1688766    25.206282  0.028774294  0.034568412            1 
   74000    1.2256186   -7.1347727    25.562762  0.028786895  0.034546935            2 
   75000     1.234152   -7.1371146    25.932589  0.028813988  0.034521091            2 
   76000    1.2572049   -7.1531419    26.314271  0.028853367  0.034493696            9 
   77000    1.2626137   -7.1112401    26.760693  0.028961789  0.034477318            1 
   78000    1.2378792   -7.1843757    27.327456     0.029196  0.034467345            2 
   79000    1.2346121   -7.1369654     27.84644  0.029373882  0.034469691            1 
   80000    1.2567917   -7.1282901    28.337542  0.029518273  0.034478995            1 
   81000    1.2389875   -7.1145221     28.77605  0.029604989  0.034490575            3 
   82000    1.2556794   -7.1259272    29.074682  0.029547441  0.034497699            1 
   83000    1.2179512    -7.183398    29.299099  0.029416766  0.034490873            3 
   84000    1.2556888   -7.2470665    29.606213  0.029371243  0.034476105            4 
   85000    1.2555046    -7.164134    30.064861  0.029475354  0.034462783            2 
   86000    1.2294783   -7.2227099    30.453568  0.029509271  0.034445926            2 
   87000    1.2144842   -7.2453652    30.823702  0.029524619  0.034427351            1 
   88000    1.2512575   -7.1363946     31.47865  0.029809328  0.034411145            1 
   89000    1.2300703   -7.1542949     31.87768  0.029848015  0.034402607            2 
   90000    1.2227199   -7.1794303    32.194485  0.029809708  0.034400357            1 
   91000    1.2410254   -7.1760448    32.674208  0.029921435  0.034402192            1 
   92000    1.2309693   -7.1765689    32.978255  0.029871608  0.034405206            2 
   93000    1.2249971   -7.1447557      33.6036  0.030110753  0.034411353            1 
   94000    1.2262497   -7.1510146    33.920623  0.030071474  0.034415118            2 
   95000    1.2518456   -7.1892477    34.178997  0.029981576  0.034411963            2 
   96000    1.2258471    -7.193276     34.47102   0.02992276  0.034402846            1 
   97000    1.2530091   -7.2044289    34.744012  0.029848808  0.034378405            1 
   98000    1.2345257   -7.1602448    35.009008  0.029769565  0.034342176            2 
   99000    1.2396221   -7.1765974    35.325104  0.029734936  0.034304776            2 
  100000    1.2330404   -7.1836788     35.70956  0.029757966  0.034264993            2 
  101000     1.256452   -7.1928282    36.148748  0.029825699  0.034228933            2 
  102000    1.2321221   -7.1777786    36.597437  0.029899867  0.034193433            1 
  103000    1.2335444    -7.167883    37.053691  0.029978714  0.034167619            1 
  104000     1.246612   -7.1559942    37.551365  0.030089235  0.034148602            1 
  105000    1.2236132   -7.1533709    38.139828  0.030269704  0.034137703            2 
  106000    1.2033203   -7.1973441    38.347433  0.030147353  0.034124942            3 
  107000    1.2154621   -7.1773001    38.743951  0.030174417  0.034108195            2 
  108000    1.2618705    -7.180377    39.042165  0.030125127  0.034092473            2 
  109000    1.2571865   -7.1745635    39.276631  0.030028005   0.03406413            2 
  110000    1.2532561   -7.2113389     39.63827  0.030028992  0.034034696            1 
  111000    1.2220758   -7.1118655    40.436277  0.030357565  0.034014799            3 
  112000    1.2332602   -7.1666974    40.695644  0.030279497  0.033994193            1 
  113000    1.2103125    -7.155623    40.897193  0.030160172  0.033978607            1 
  114000    1.2511803   -7.1792453    41.423235  0.030280143  0.033958765            2 
  115000    1.2349334   -7.2057035    41.694639  0.030213507  0.033937486            1 
  116000    1.2425352   -7.2030959    42.076031  0.030227034  0.033917649            2 
  117000    1.2480622   -7.2120794    42.406919  0.030204358  0.033894018            1 
  118000    1.2296383   -7.1366593    42.873594  0.030277961  0.033869572            2 
  119000    1.2302461   -7.2417613    43.013577  0.030121552  0.033843398            1 
  120000    1.2276346   -7.2139125    43.205572  0.030003869  0.033809717            2 
  121000    1.2176361   -7.1479498     43.55871  0.029999112  0.033774523            1 
  122000    1.2322934   -7.1477607    44.046831  0.030086633  0.033737553            1 
  123000    1.2555963   -7.1782378    44.451635  0.030116284  0.033705495            2 
  124000    1.2207485   -7.1853164    44.876231  0.030158757  0.033676146            1 
  125000    1.2375619   -7.1536567    45.455106  0.030303404  0.033652157            2 
  126000    1.2393746   -7.2112759    45.844338  0.030320329   0.03363158            1 
  127000    1.2287021   -7.2243251     46.00201  0.030185046  0.033607659            1 
  128000    1.2486666   -7.1678212    46.726486  0.030420889  0.033583902            1 
  129000    1.2525467   -7.2116341    47.172563  0.030473232  0.033562837            1 
  130000    1.2136388   -7.1809115    47.456718  0.030420973  0.033542923            3 
  131000    1.2368276   -7.1460783    47.747482  0.030373716  0.033526564            2 
  132000    1.2414567   -7.2068362    47.980641  0.030290809  0.033506804            1 
  133000    1.2077153    -7.222724     48.47046  0.030369962  0.033485138            1 
  134000    1.2574458    -7.241103    48.524774  0.030177098  0.033458361            2 
  135000    1.2528313    -7.190795    48.985067  0.030237696  0.033431162            2 
  136000    1.2434855   -7.1900011    49.333421  0.030228812  0.033403852            1 
  137000    1.2427484   -7.2081228    49.618177  0.030181373  0.033373142            2 
  138000    1.2188935   -7.1721531    50.041579  0.030218345  0.033344602            5 
  139000    1.2298169    -7.187973    50.338698  0.030179075  0.033314866            2 
  140000     1.232887   -7.2185729    50.636997  0.030141069   0.03328893            1 
  141000    1.2435639   -7.2073467    50.963463   0.03012025    0.0332605            3 
  142000    1.2385513   -7.1511146    51.697709  0.030339031  0.033236351            2 
  143000    1.2321646   -7.2495997    51.821881  0.030199231  0.033209864            1 
  144000    1.2249457   -7.1781014     52.36758  0.030305313   0.03318328            2 
  145000    1.2352694   -7.2061665    52.625423  0.030244496  0.033159227            2 
  146000    1.2310347   -7.1695333    53.134694  0.030328021  0.033134835            1 
  147000    1.2650277   -7.1568639    53.354327  0.030246217   0.03311003            5 
  148000    1.2058051   -7.1546644    53.963174   0.03038467  0.033089128            1 
  149000    1.2198395   -7.2153063    54.089706  0.030251513  0.033064491            2 
  150000    1.2428471    -7.221343     54.21114    0.0301173  0.033037382            1 
  151000    1.2224151   -7.2083242    54.911415  0.030304313   0.03301029            1 
  152000    1.2206819   -7.2278885    55.329555  0.030334186  0.032988408            2 
  153000    1.2396707   -7.1746805    55.987362  0.030494206  0.032971552            2 
  154000    1.2398359   -7.1811872    56.108035  0.030361491  0.032953189            1 
  155000    1.2247541   -7.1930791    56.426215  0.030336674  0.032935208            3 
  156000    1.2113103   -7.1662116    56.943235  0.030418395  0.032917739            2 
  157000    1.2261322   -7.1733346    57.319026  0.030424111  0.032899816            3 
  158000    1.2314718   -7.2023482    57.699862  0.030432416  0.032883354            3 
  159000    1.2161294   -7.2201886    57.896129  0.030343883  0.032863611            5 
  160000    1.2528024   -7.2330509    58.009585  0.030213326  0.032841395            2 
  161000    1.2338226   -7.2205202    58.546103  0.030303366  0.032821331            1 
  162000    1.2021125   -7.2342297    59.152503  0.030428242  0.032804775            1 
  163000    1.2186977   -7.1695627     59.65382  0.030497863  0.032791363            2 
  164000    1.2222375   -7.2320134    60.114354  0.030545912  0.032779668            2 
  165000     1.205863   -7.2398013    60.423013  0.030516673  0.032768673            1 
  166000    1.2244564   -7.1893437    61.238673  0.030742306  0.032760754            1 
  167000    1.2237224   -7.1936422    61.454524   0.03066593  0.032756064            1 
  168000    1.2146359   -7.2048236    61.715397  0.030612796  0.032749945            3 
  169000    1.2271892   -7.2044059    62.219245  0.030680101  0.032739155            2 
  170000    1.2200389   -7.2296679    62.505761  0.030640079  0.032733081            1 
  171000     1.223255   -7.2089682    63.061889  0.030731915  0.032728358            2 
  172000    1.2083376   -7.2219766     63.56012  0.030794632  0.032725078            2 
  173000    1.1982796   -7.2263173    63.933085  0.030796284  0.032720885            3 
  174000    1.2391943   -7.2016124    64.346025  0.030817062  0.032718231            2 
  175000    1.2130424   -7.1971754      64.5874  0.030755905  0.032713166            4 
  176000    1.2179164   -7.2173887    64.964351  0.030759636   0.03270716            2 
  177000    1.2380173   -7.2081338    65.481075  0.030829131  0.032702848            3 
  178000    1.2128456   -7.2185956    65.918657  0.030860794  0.032700374            1 
  179000    1.2152967   -7.2016027    66.219785  0.030828578  0.032698085            2 
  180000    1.2029235   -7.1880227     66.69625  0.030877893  0.032696009            2 
  181000    1.2085607   -7.2350924    66.815025  0.030761982  0.032690965            2 
  182000     1.215553   -7.2093694    67.114285  0.030729984   0.03268516            3 
  183000    1.2066899   -7.2246389    67.265135  0.030630754   0.03267601            2 
  184000    1.2331066   -7.2022785    67.800272  0.030706645   0.03266579            1 
  185000    1.2233962   -7.1961104    68.123725  0.030686362  0.032655766            1 
  186000     1.217004     -7.19335    68.473025  0.030677879  0.032646947            2 
  187000    1.2195732   -7.1899766    69.047463  0.030769814  0.032642928            1 
  188000    1.1930909   -7.1868598    69.527764  0.030819044  0.032640146            4 
  189000    1.2004667   -7.2456426    70.037121  0.030880565  0.032636608            1 
  190000    1.2062422   -7.2098818    70.212203  0.030794826  0.032634019            3 
  191000    1.2103869   -7.2100966    70.670231  0.030833434  0.032629631            2 
  192000    1.2282584   -7.2390999    70.939304  0.030789628  0.032622668            1 
  193000    1.2429132   -7.1952607     71.66472  0.030943316  0.032615698            1 
  194000    1.2314198   -7.1689951    71.787659  0.030836623  0.032609813            1 
  195000    1.2146329   -7.1559635    72.032913  0.030783296  0.032600638            2 
  196000    1.1940801   -7.2539494    72.243386  0.030715725  0.032591723            4 
  197000    1.2164693   -7.2279417      72.7153  0.030759433  0.032581585            1 
  198000    1.2346361   -7.2405387    73.052079  0.030745824  0.032571645            1 
  199000    1.2122263   -7.1698765    73.434218  0.030751348  0.032563432            4 
  200000    1.1987746   -7.2411436    73.520872  0.030633697  0.032555914            1 
  201000    1.2506919   -7.2004427     74.17743  0.030753495  0.032545627            1 
  202000    1.2370923   -7.2230313    74.651113  0.030796664  0.032539749            1 
  203000     1.228006   -7.1741564    75.210245  0.030874485  0.032533532            2 
  204000     1.201761   -7.2341441    75.501194  0.030841991  0.032526982            1 
  205000    1.2038901   -7.2347429    75.961962  0.030878846  0.032519605            1 
  206000    1.2432048   -7.2366212    76.097078  0.030783607  0.032512873            1 
  207000    1.2485631    -7.254796    76.660255  0.030861616    0.0325063            2 
  208000    1.2300685    -7.223802    76.888458  0.030804671  0.032499717            2 
  209000    1.2270437   -7.2106278    77.285115  0.030815436  0.032493493            2 
  210000    1.2158694   -7.2247074     77.54919  0.030773488  0.032486659            3 
  211000    1.2254106   -7.2262645    78.043793  0.030822983  0.032480798            2 
  212000    1.2297913   -7.2537175    77.770947  0.030570341  0.032471265            1 
  213000    1.2126604   -7.2092346    78.500048  0.030712069  0.032461658            1 
  214000    1.2043132   -7.2618641    78.652258  0.030627826  0.032451691            1 
  215000    1.2215826   -7.2278609    79.158003  0.030681396  0.032441135            2 
  216000    1.2249465   -7.1865931    79.774689  0.030777272  0.032431421            1 
  217000    1.2577585   -7.2357059    79.778121  0.030636759  0.032420963            6 
  218000    1.2353853     -7.25527    79.888328  0.030538352  0.032407354            2 
  219000    1.2275446   -7.2534002     80.67065  0.030696594  0.032395002            3 
  220000    1.2173174   -7.2484441    80.580937  0.030523082  0.032382647            2 
  221000    1.2098396   -7.2218584    80.971203  0.030532128  0.032369014            2 
  222000    1.2446342   -7.2563629    81.209701  0.030484122  0.032353308            4 
  223000    1.2095531   -7.2168369    81.580093  0.030485834  0.032338286            1 
  224000    1.1990195   -7.1698413    82.271197  0.030606844  0.032325319            1 
  225000    1.2403186   -7.2404309    82.081919  0.030400711  0.032310134            2 
  226000    1.2269537   -7.2456821    82.626828  0.030467119  0.032293234            1 
  227000    1.2092366   -7.2513569    82.929058  0.030443854  0.032276888            1 
  228000     1.197687   -7.2513675    83.225028  0.030418504  0.032260779            1 
  229000    1.2276711   -7.1945113    83.764764  0.030482083  0.032244716            1 
  230000    1.2053359   -7.2378147    83.971758   0.03042455  0.032228513            4 
  231000    1.2297945   -7.2036466     84.38319  0.030441266  0.032212971            3 
  232000    1.2002164   -7.2561421    84.627242  0.030397716  0.032195695            1 
  233000     1.222221   -7.2327248    85.038971   0.03041451  0.032177763            1 
  234000     1.191132   -7.2132132    85.513838  0.030453646  0.032160568            1 
  235000    1.2611732   -7.1992975    86.007592  0.030499146  0.032145844            4 
  236000    1.2126376   -7.2349652    86.304193  0.030474645  0.032131908            3 
  237000    1.2129468    -7.236887    86.543807  0.030430312  0.032118006            1 
  238000    1.2179532   -7.2014389    87.429544  0.030612585  0.032106171            1 
  239000    1.2041547   -7.2036249    88.014002  0.030688285  0.032096473            2 
  240000    1.2215082   -7.2181432     88.28781  0.030655489  0.032088415            2 
  241000    1.2325709   -7.2485352    88.508226  0.030604504  0.032080171            1 
  242000    1.2421042   -7.2786385    89.081168  0.030675333  0.032072608            3 
  243000    1.2310518   -7.2308336    89.334027  0.030635812  0.032064847            2 
  244000    1.1992662   -7.2956954    89.500649  0.030567162  0.032055893            5 
  245000    1.2115893   -7.2250121    90.440178  0.030761965  0.032046279            1 
  246000    1.2109486    -7.237007    90.387025  0.030618911  0.032038301            2 
  247000    1.2265643   -7.1896741     90.71437  0.030605388   0.03203035            1 
  248000    1.1850777   -7.1984706    91.254122  0.030663347  0.032021512            1 
  249000    1.2111104   -7.2291976    91.462831  0.030610051  0.032012883            1 
  250000    1.2295178   -7.2473687    92.059639  0.030686546   0.03200409            1 
  251000    1.2146826   -7.2288212    92.186453  0.030606392  0.031995043            2 
  252000    1.1958767   -7.2147986    92.629518  0.030631454  0.031986091            2 
  253000    1.2138611   -7.2016112    92.842829  0.030580642  0.031977882       -1e+20 
  254000    1.2101863   -7.2017263     93.15566  0.030562881  0.031968871            1 
  255000    1.1793007    -7.247381    94.008906  0.030721865  0.031961587            1 
  256000    1.2009313   -7.1974804    94.559732  0.030781163  0.031955813            2 
  257000    1.2203797   -7.1980518    94.851692  0.030756061  0.031950771            1 
  258000    1.2174276   -7.2166678    94.896498  0.030651323  0.031946084            1 
  259000    1.1845174   -7.2550985    95.062992  0.030586548  0.031940303            2 
  260000    1.2266636   -7.2096873    95.661311  0.030660677  0.031934258            2 
  261000    1.1990227    -7.229284    96.060182  0.030670556  0.031928411            2 
  262000    1.2000265      -7.2194    96.303632  0.030630926  0.031920108            1 
  263000    1.2075431   -7.2979192    96.365629  0.030534103  0.031911627            4 
  264000    1.2139847   -7.2353434    97.012257  0.030622556   0.03190306            2 
  265000    1.1892832   -7.2283485    97.124393  0.030542262  0.031895406            1 
  266000    1.2014394   -7.2034985    98.268932  0.030786006  0.031888133            4 
  267000    1.1965055   -7.2538098    98.340467   0.03069303  0.031881338            4 
  268000     1.209181   -7.1903654    98.761313  0.030709364  0.031875023            2 
  269000    1.2154561   -7.2292115    98.935846  0.030649271  0.031868952            1 
  270000    1.2006951   -7.2613971    99.068973  0.030576844  0.031861675            1 
  271000    1.1910523   -7.2343155    99.929848  0.030728736  0.031855086            1 
  272000    1.2053428   -7.2180476    100.18251   0.03069317  0.031847622            1 
  273000    1.2025613   -7.2535529    100.54924  0.030692687  0.031840667            1 
  274000    1.2062489   -7.2489218    100.77117  0.030648166  0.031832789            1 
  275000    1.2026704   -7.2321849    101.16301  0.030655457  0.031825805            4 
  276000    1.1940052   -7.2200571    101.59482  0.030674766  0.031819394            2 
  277000    1.2107415   -7.2355557    101.90684  0.030657893  0.031812235            2 
  278000    1.2119088   -7.2113969    102.56427  0.030744687  0.031805412            2 
  279000    1.2041875   -7.2818208    102.32306  0.030562444  0.031798531            2 
  280000    1.2334139   -7.2434862    103.12947  0.030693296   0.03179304            1 
  281000     1.229168    -7.271325     103.8286  0.030791399  0.031789669            2 
  282000    1.2095451   -7.1972373    103.95248  0.030718819  0.031785538            1 
  283000    1.1926945   -7.2259942     104.4223  0.030748617  0.031780309            2 
  284000    1.2030299   -7.2787909     104.2223  0.030581659  0.031773924            4 
  285000    1.2262291   -7.2580143    104.98712  0.030697988  0.031766545            3 
  286000    1.2285972   -7.2596492    104.94031  0.030577014  0.031759398            2 
  287000    1.1928427   -7.2081435    105.94888  0.030763322  0.031752699            2 
  288000    1.1874153    -7.234503    105.61012  0.030558483  0.031746178            3 
  289000     1.239131   -7.2519782    106.41098  0.030683675  0.031740043            3 
  290000    1.2188501   -7.2498818    106.84055  0.030701306  0.031735457            2 
  291000    1.2008815   -7.2355202    107.33023  0.030736033  0.031730678            1 
  292000    1.2193661   -7.2809607    107.48497  0.030674936  0.031726189            1 
  293000    1.2354837   -7.2541904    108.08175  0.030739975  0.031722688            2 
  294000    1.2148256    -7.260295    108.43825  0.030736464  0.031719065            1 
  295000    1.2157878   -7.2778082    108.56968  0.030669402  0.031714768            1 
  296000    1.2142022   -7.2617171    109.23217  0.030752299   0.03170886            3 
  297000    1.1894135    -7.232974    109.58408  0.030747498  0.031704108            2 
  298000    1.2116318   -7.2457549    110.15224    0.0308032   0.03170003            1 
  299000     1.219531   -7.2733676    109.93469  0.030639545  0.031694921            1 
  300000    1.1869036   -7.2440515    110.34522  0.030651451  0.031690663            4 
  301000    1.2116016   -7.2093174    111.17266  0.030778699  0.031687385            1 
  302000    1.2207714   -7.2661993    111.10395  0.030657824  0.031682577            2 
  303000    1.1885493   -7.2439257    111.86603  0.030766235  0.031677112            2 
  304000    1.2297299   -7.2624513    111.71035  0.030622355  0.031672953            4 
  305000     1.199584   -7.2698907    112.60286  0.030765808  0.031668739            3 
  306000    1.2037222    -7.242942    112.81869  0.030724044  0.031664227            3 
  307000    1.2172437   -7.2606939    113.72188   0.03086913  0.031661985            2 
  308000    1.1987999   -7.2446679    114.22503  0.030905041  0.031660929            2 
  309000    1.2274493   -7.2522921     114.2611  0.030814753  0.031658637            2 
  310000    1.1825209   -7.2444485    114.48073   0.03077439  0.031656172            2 
  311000    1.2008976   -7.2621118    114.81588  0.030765241  0.031652629            2 
  312000    1.2092204   -7.2940307    115.18186  0.030764387  0.031649492            2 
  313000    1.1977134   -7.2487655    115.61154  0.030780496  0.031646376            1 
  314000    1.2246522   -7.2318595    116.18369  0.030834312   0.03164352            3 
  315000     1.224659    -7.265955    116.24249  0.030751981  0.031641407            2 
  316000    1.2036856   -7.2692689    117.23213  0.030915646  0.031639729            5 
  317000    1.2024437    -7.230525      117.738  0.030951105  0.031639443            2 
  318000    1.2004336   -7.2643003    117.53064  0.030799433  0.031638126            2 
  319000    1.1874621   -7.2961977    117.71618  0.030751354  0.031636374            2 
  320000    1.1932262   -7.2301021    118.66383  0.030902039  0.031634708            3 
  321000    1.2315017   -7.2753274    118.84224  0.030852088  0.031632812            1 
  322000    1.2352646   -7.2986493    119.35805  0.030889766   0.03163189            2 
  323000    1.1970773   -7.2932369     119.4197  0.030810037  0.031630659            4 
  324000    1.1905497   -7.2613372    120.16019  0.030905399  0.031629414            1 
  325000    1.2211872   -7.2500955    120.63748  0.030932686  0.031627759            2 
  326000    1.1891523   -7.2363767    120.63138  0.030836242  0.031625973            3 
  327000    1.2042961    -7.299744    120.68734  0.030756204  0.031623678            2 
  328000      1.15346   -7.2302759    121.30769  0.030820042  0.031620252            2 
  329000    1.1867959   -7.2724186    121.17089  0.030691714  0.031616697            2 
  330000    1.1642612   -7.2377288    122.08043  0.030828391  0.031613299            1 
  331000    1.2101971   -7.2867749    122.03844  0.030724683   0.03160839            2 
  332000    1.1983219   -7.2893229    122.02268  0.030628183  0.031603155            3 
  333000    1.2067989   -7.2630949      122.933  0.030764014  0.031598385            4 
  334000    1.2346155   -7.2936622    122.75783  0.030628202  0.031592529            2 
  335000    1.1964189    -7.290364    122.61313  0.030500778  0.031585971            1 
  336000      1.20426   -7.2673181    123.25042   0.03056806  0.031579102            5 
  337000    1.1822173   -7.2942099    123.53524  0.030547785  0.031572585            3 
  338000     1.184112   -7.2848291    124.21789  0.030625713  0.031566529            1 
  339000    1.2087831   -7.2750066    124.58467  0.030625532  0.031559975            3 
  340000    1.2128778   -7.2934155    123.93841   0.03037706  0.031552822            2 
  341000    1.2262797   -7.2524086    125.29631  0.030619821  0.031545496            2 
  342000    1.2099626   -7.2856606    125.13368  0.030490663  0.031538198            2 
  343000    1.1794153   -7.2862233    125.29226  0.030440297  0.031530027            2 
  344000    1.2102384   -7.2761572    126.05508    0.0305366  0.031522086            2 
  345000    1.1859201   -7.3082865    126.03413  0.030443027  0.031515022            1 
  346000    1.1801272   -7.3305355    126.36032  0.030433603  0.031507587            2 
  347000    1.1974121   -7.2622514    127.02129  0.030504633  0.031499739            1 
  348000    1.1922092   -7.2807379    127.65724  0.030569263   0.03149347            1 
  349000    1.1867497    -7.295644    127.76868  0.030508281   0.03148742            1 
  350000    1.1814481   -7.2775939    128.23818  0.030532901  0.031480634            1 
  351000    1.1971045   -7.2959185    128.15761  0.030426783  0.031473561            1 
  352000    1.1944429   -7.2913641    128.17868   0.03034533  0.031465532            4 
  353000    1.2100935   -7.2491961    128.91198  0.030432478  0.031457079            2 
  354000     1.192846   -7.2344024    129.16948  0.030407128  0.031448869            2 
  355000    1.1953358   -7.2812098     129.7383  0.030454999   0.03144088            1 
  356000    1.1738926   -7.3052497    129.42792  0.030296799  0.031431755            5 
  357000    1.2010208   -7.2967445    129.93618  0.030330575  0.031422323            3 
  358000    1.1922581   -7.2977643    129.88548  0.030234051  0.031413176            7 
  359000    1.2104539   -7.2745534    130.53182  0.030299866  0.031402936            1 
  360000    1.1845995   -7.2606799    130.64549  0.030242012  0.031393458            1 
  361000    1.2213965   -7.2446577    131.04237  0.030249855  0.031383568            1 
  362000     1.176956   -7.2723242    131.72832  0.030324199  0.031375247            2 
  363000    1.1765434   -7.2727191    132.21278  0.030351878   0.03136692            1 
  364000    1.1966827   -7.2927423      132.402  0.030311813  0.031358147            3 
  365000    1.1907106   -7.2552762    133.04125  0.030374714  0.031350025            1 
  366000    1.1862242   -7.2587526    133.19059  0.030325727  0.031341802            1 
  367000    1.1772974   -7.2812904    133.47942  0.030308679  0.031333128            2 
  368000    1.1682747   -7.2940987    133.59396  0.030252257  0.031324871            2 
  369000    1.1902802   -7.2432843    134.18116  0.030302882  0.031315557            1 
  370000    1.1756797   -7.3030987    134.51819  0.030296889  0.031306746            2 
  371000    1.1873789   -7.2766559    135.44932  0.030424376  0.031298803            1 
  372000    1.1551249   -7.2677624    135.42742  0.030337683  0.031291649            1 
  373000    1.1695557     -7.24902    135.98884  0.030381779  0.031283742            1 
  374000    1.1612858    -7.293092    135.64687  0.030224347  0.031275822            3 
  375000    1.1936174   -7.2526918    137.06629  0.030459175  0.031269026            2 
  376000    1.2116536    -7.235256    136.98023  0.030359093  0.031261912            2 
  377000    1.1887982   -7.3030474    137.27619  0.030343984  0.031254668            2 
  378000    1.2272704   -7.3127242    137.18675  0.030243992  0.031247335            7 
  379000    1.2043326    -7.345924    137.48484  0.030229737  0.031239586            1 
  380000    1.2041119   -7.2802581    138.68962  0.030414391  0.031231987            1 
  381000    1.1817536   -7.2719815    139.13326  0.030431597   0.03122403            2 
  382000     1.184839   -7.2769444    138.66978  0.030250825  0.031217462            2 
  383000    1.1677738   -7.2771445     139.7579  0.030408594  0.031210321            1 
  384000    1.1974409   -7.2879073    139.59807   0.03029472  0.031203869            2 
  385000     1.192676    -7.340648    139.98709  0.030300236  0.031196525            1 
  386000    1.1879333   -7.2454262    140.80515  0.030398349  0.031190016            1 
  387000    1.1930174   -7.2730349    141.37746  0.030443037   0.03118371            1 
  388000    1.2140341   -7.2893474    141.10803  0.030306706   0.03117705            2 
  389000    1.2226753   -7.2884143    141.41624  0.030294823  0.031170336            2 
  390000    1.1902526   -7.2912914    141.66569  0.030270447  0.031162862            2 
  391000     1.194743   -7.2973936    142.12674  0.030291291  0.031155743            2 
  392000    1.1859713   -7.2733865    142.06384  0.030200646  0.031147692            2 
  393000    1.1847849   -7.3087679    142.43251  0.030201974  0.031139605            2 
  394000    1.1892951   -7.2762304    143.32989   0.03031512  0.031131659            2 
  395000    1.2151036   -7.3147833    143.55779  0.030286453  0.031124604            2 
  396000    1.1680198   -7.3073058    144.17089  0.030338992  0.031117914            3 
  397000    1.1812357   -7.2821619    144.53738  0.030339501  0.031111674            1 
  398000    1.1491827   -7.2710293    144.67804  0.030292722  0.031104948            1 
  399000    1.1836102    -7.288655    145.08515  0.030301827  0.031098682            1 
  400000    1.1691073   -7.2660044    145.70814  0.030355862  0.031092276            5 
  401000    1.1904247   -7.2923752    146.14621  0.030371198  0.031086011            1 
  402000    1.1986353   -7.3029208    145.88967  0.030242468  0.031080179            2 
  403000    1.1959737   -7.2365329    146.55516  0.030305038   0.03107353            1 
  404000    1.1916542   -7.3117753    146.12168   0.03014061   0.03106646            1 
  405000    1.1736386   -7.2881841    146.23922  0.030090374  0.031058263            3 
  406000    1.1877394   -7.2929362    146.83313  0.030138162  0.031050806            2 
  407000    1.2183538   -7.3288248    146.74715  0.030046508  0.031043202            1 
  408000    1.1641701   -7.2764004    147.98525  0.030225746  0.031035833            2 
  409000    1.1837476   -7.3296394    147.94534  0.030143712  0.031028566            2 
  410000    1.2264109   -7.3032334    149.14852   0.03031474  0.031020814            2 
  411000    1.1855825   -7.3442216    148.64675  0.030139244  0.031013847            3 
  412000    1.1815847   -7.3042268     149.0068  0.030138916  0.031006149            2 
  413000      1.19181   -7.3436973    148.94319  0.030053105  0.030998475            1 
  414000    1.1839192   -7.3206444    149.61818   0.03011638  0.030989786            2 
  415000    1.1864885   -7.2920676    149.66682  0.030053579  0.030980475            2 
  416000    1.1823257    -7.296749    150.20181  0.030088504  0.030971509            1 
  417000     1.184908   -7.2844074    150.88514  0.030152907  0.030962321            1 
  418000    1.1792808   -7.3008926     150.4967  0.030003329  0.030953121            1 
  419000    1.1726068   -7.3194645    150.90777  0.030013479  0.030943674            2 
  420000    1.1777379   -7.2632003    151.34503  0.030028776  0.030934719            2 
  421000    1.1853296     -7.23903    151.79289    0.0300461  0.030926267            2 
  422000    1.2011123   -7.3198522    151.60444  0.029937685  0.030917665            1 
  423000     1.173072   -7.2479363    152.15913  0.029976188  0.030908577            1 
  424000     1.206026   -7.3501026     152.0631  0.029886616   0.03089885            2 
  425000    1.1637874   -7.3401643    152.37312  0.029877083  0.030889455            2 
  426000    1.1728205   -7.3151628    153.03693  0.029936802  0.030879782            3 
  427000    1.2154008   -7.2938581    153.64035  0.029984455  0.030870152            2 
  428000    1.1773026   -7.2483522    153.48189  0.029883545  0.030860517            2 
  429000    1.1692871   -7.2688758    154.07959   0.02992999  0.030850618            1 
  430000    1.1975551   -7.3437916    153.48625  0.029745396  0.030840326            1 
  431000    1.1836445    -7.286547    154.45202  0.029863114   0.03083047            1 
  432000    1.1723963   -7.3049265    154.52162  0.029807411  0.030820263            4 
  433000     1.197531   -7.3258271    154.89133  0.029809724  0.030810519            2 
  434000     1.187171   -7.2796219     155.4892  0.029855837  0.030800331            2 
  435000    1.2038154   -7.3205685    156.12614  0.029909223  0.030790708            3 
  436000    1.2086163   -7.2833942    156.07864  0.029831544  0.030781336            1 
  437000    1.1724521    -7.334624    156.41719   0.02982784  0.030772328            3 
  438000    1.1855415   -7.2852756    157.26358  0.029920773  0.030762966            4 
  439000    1.1652761   -7.2938883      157.579   0.02991249  0.030753555            3 
  440000    1.1933487   -7.2842425     157.8663  0.029898921  0.030744448            2 
  441000    1.1805276   -7.3055802    157.75358  0.029809822  0.030735245            3 
  442000    1.1861812   -7.3230055    158.41406  0.029866904  0.030725934            4 
  443000    1.1815757   -7.3195852    158.52699  0.029820728  0.030716625            2 
  444000    1.1985256   -7.2813206    159.45657  0.029928034  0.030707588            1 
  445000    1.1846385   -7.3151114    158.62759  0.029705542  0.030698582            1 
  446000    1.1692488   -7.2745988    159.96976  0.029889716  0.030689666            1 
  447000     1.165094    -7.289396    160.59576  0.029939552   0.03068021            2 
  448000    1.1822915   -7.2893619    160.51141  0.029857034  0.030671269            2 
  449000    1.2104051   -7.2888104    160.77073  0.029838666  0.030663024            2 
  450000    1.1841492   -7.2715812    161.66324  0.029937637  0.030654391            1 
  451000    1.1667508   -7.3155302     160.9354   0.02973677  0.030645315            2 
  452000    1.1887321   -7.3125361    161.31274   0.02974055  0.030635662            3 
  453000    1.1533343   -7.3171281     161.8893   0.02978096  0.030625746            1 
  454000    1.2129076   -7.2948794    162.33549  0.029797263  0.030616568            1 
  455000    1.1508235   -7.3525392    162.23561  0.029713482  0.030607293            1 
  456000     1.168351   -7.2970852    163.01925   0.02979153  0.030597916            1 
  457000    1.1512272   -7.3470316    163.12716  0.029746017   0.03058876            1 
  458000    1.1877916   -7.3331824    163.04802  0.029666671  0.030579441            2 
  459000    1.1942625   -7.3081982    163.68871  0.029718356  0.030569835            3 
  460000    1.1740405   -7.3502656    163.99627   0.02970947  0.030560015            3 
  461000    1.1909869    -7.316038     164.2745  0.029695318  0.030550351            1 
  462000    1.1498413   -7.3223916    164.09254  0.029598222  0.030540111            2 
  463000    1.1473783   -7.2719894    165.08777  0.029713421  0.030530018            2 
  464000    1.1996639   -7.3083426    164.32568  0.029512515  0.030519465            2 
  465000    1.1460947   -7.2903051    165.84926  0.029722089  0.030509027            1 
  466000    1.1614861   -7.3327103    165.39946  0.029577872  0.030498735            2 
  467000    1.1683778    -7.340586    165.64599  0.029558528  0.030487561            1 
  468000    1.1975915   -7.3172329     166.0984  0.029575926  0.030477254            3 
  469000    1.1585998   -7.3553691    165.90361  0.029478254  0.030467093            2 
  470000     1.160773   -7.2825618    167.40274  0.029681337  0.030457296            2 
  471000    1.2084489   -7.2809669    167.02788  0.029551996  0.030447079            2 
  472000     1.188223   -7.3753368    166.58081  0.029410453  0.030436396            1 
  473000    1.1884762   -7.3293979    167.70923  0.029547081  0.030425444            2 
  474000    1.1930373   -7.3287863    167.94469  0.029526142  0.030414758            2 
  475000     1.202845    -7.328673    168.55034  0.029570235  0.030404524            2 
  476000    1.1759957   -7.3443119    168.52117  0.029503006  0.030393493            1 
  477000    1.1592332   -7.2782812    168.85269  0.029499071  0.030383011            1 
  478000    1.1440922   -7.3386935    169.13306  0.029486238  0.030372295            2 
  479000       1.1802   -7.3502482    169.05966   0.02941191  0.030361129            1 
  480000    1.1507729   -7.2988474    169.45312  0.029418944  0.030349796            1 
  481000    1.1537991   -7.3628221    169.68998  0.029398818  0.030338579            3 
  482000    1.1797717   -7.3211938    169.80488   0.02935769  0.030326566            2 
  483000    1.1506576   -7.3133467      170.383  0.029396653  0.030314809            2 
  484000    1.1878555   -7.3111773      170.715  0.029393079  0.030303163            2 
  485000    1.1689673   -7.3373747    170.89276  0.029363017  0.030291451            2 
  486000    1.1519612   -7.2976799    171.20744  0.029356556  0.030280166            3 
  487000    1.1848732   -7.3330992    171.38978  0.029327478  0.030268352            2 
  488000    1.1934242   -7.2891144    172.09942  0.029388563   0.03025697            1 
  489000    1.2008626   -7.2891735    172.70873  0.029432299  0.030245747            1 
  490000      1.19573    -7.343891    172.36783  0.029314257  0.030234346            4 
  491000     1.159797   -7.2777233    173.06252  0.029372457  0.030223337            2 
  492000    1.1502473   -7.3386962     173.1187  0.029322273  0.030212237            1 
  493000     1.197954   -7.3622545    173.24051  0.029283385  0.030201119            1 
  494000    1.1886828   -7.3030667    173.39629  0.029250386  0.030189656            1 
  495000    1.1911615   -7.3094215    173.33822  0.029181518  0.030177984            1 
  496000    1.1766973   -7.3218354    173.64616  0.029174421  0.030165326            2 
  497000    1.1497339   -7.3531826    174.01113  0.029176917  0.030153052            6 
  498000    1.1680449   -7.2825366    174.93252  0.029272511  0.030141482            2 
  499000    1.1875879   -7.3239782    175.15746  0.029251412  0.030129829            5 
  500000    1.1628906   -7.3223656    175.31214   0.02921869  0.030118401            1 
  501000    1.1677606   -7.3573901     176.1239  0.029295392  0.030107206            3 
  502000    1.1956637   -7.3200441    176.39762  0.029282473  0.030096794            2 
  503000    1.1674367   -7.3619859    176.05021  0.029166702  0.030086877            5 
  504000    1.1738847   -7.3425736    176.96996  0.029260907  0.030076035            2 
  505000    1.1742826   -7.3330709    177.24252  0.029247941  0.030065398            1 
  506000    1.1412134   -7.3459436    177.43205  0.029221352  0.030054854            2 
  507000    1.1525995   -7.2817734    178.69139  0.029370708  0.030044743            2 
  508000    1.1532431   -7.2961363    178.50442  0.029282222  0.030034837            2 
  509000    1.1537539    -7.371683    177.47962  0.029056912  0.030024197            1 
  510000    1.1708025   -7.3530141    178.13537  0.029107086  0.030012809            1 
  511000    1.1782211   -7.3722004    178.44213  0.029100151   0.03000143            1 
  512000    1.1708238   -7.2952265    180.12552  0.029317305  0.029990853            2 
  513000    1.1579939   -7.3260027    179.23845  0.029116057  0.029980464            2 
  514000    1.1912177   -7.3462289    179.61229  0.029120021  0.029969532            3 
  515000    1.1792509   -7.3726265    179.89911  0.029109889  0.029958751            1 
  516000    1.1638647   -7.4104896    179.58343  0.029002492  0.029947674            2 
  517000    1.1676406   -7.3338768    180.56428  0.029104494  0.029936334            1 
  518000    1.1655577   -7.3318909    181.39966  0.029182699  0.029925395            1 
  519000    1.1593361   -7.3074031     181.5559  0.029151557  0.029915054            2 
  520000    1.1793284   -7.3357734    181.86063  0.029144332  0.029904559            2 
  521000    1.1919451   -7.3445785    181.58953   0.02904503  0.029894192            2 
  522000     1.166979   -7.3670926    182.21022  0.029088477  0.029883655            1 
  523000    1.1754352   -7.3357787    183.00203  0.029159024   0.02987328            3 
  524000    1.1644336   -7.3684635    182.90957  0.029088672  0.029863101            1 
  525000    1.1497392   -7.3260994    184.00311  0.029206844  0.029852785            1 
  526000    1.1770338   -7.3312091    184.25656   0.02919147  0.029842975            1 
  527000    1.1878082   -7.3536483    183.98165  0.029092607  0.029833609            2 
  528000    1.1591053   -7.3141853    185.36682  0.029256127  0.029824442            2 
  529000    1.1690359   -7.3177964    185.19732  0.029174121  0.029815547            2 
  530000    1.1635927   -7.3422816    184.73738  0.029046757  0.029806729            2 
  531000    1.1726821   -7.3080306    185.56981  0.029122695  0.029797124            2 
  532000    1.1860474   -7.3353254    185.61722  0.029075379  0.029787543            6 
  533000    1.1570459   -7.3336672    185.90069  0.029065148  0.029777781            2 
  534000    1.1969975    -7.395098    185.85579  0.029003713   0.02976768            3 
  535000    1.1612909   -7.3501202    186.13187  0.028992503  0.029756977            2 
  536000    1.1742256   -7.3837645    186.34897  0.028972165  0.029747245            4 
  537000    1.1498776    -7.384254    186.12257  0.028883081  0.029736878            5 
  538000    1.1755858   -7.3481246    187.57666  0.029054626  0.029726707            2 
  539000    1.1948425   -7.3429908    187.62576  0.029008312  0.029716848            1 
  540000    1.1781511   -7.3438819    187.70449  0.028966742  0.029706751            4 
  541000    1.1453918   -7.3492011     188.5473  0.029043022   0.02969761            3 
  542000    1.1639281   -7.3641784    188.68324  0.029010338  0.029688878            1 
  543000    1.1668416    -7.344814    189.67093  0.029108491  0.029679957            1 
  544000    1.1665998   -7.3282021    189.35759  0.029006984  0.029671301            2 
  545000    1.1592221   -7.3344586    189.97553  0.029048247  0.029662395            2 
  546000    1.1746013   -7.3319364    189.96498  0.028993434  0.029652762            3 
  547000    1.1688914    -7.334513    190.05067  0.028953484  0.029643323            3 
  548000    1.1796157   -7.3175111    190.51373  0.028971066  0.029633842            1 
  549000    1.1620976   -7.3936189    190.01009  0.028841847  0.029623855            3 
  550000    1.1735878   -7.3659719    190.19761   0.02881782   0.02961371            2 
  551000    1.1990412   -7.3771153    190.93435  0.028876944  0.029603127            1 
  552000    1.1487717    -7.343331    191.66188  0.028934463  0.029592958            3 
  553000     1.148907    -7.333814    191.89483  0.028917244  0.029583251            2 
  554000    1.1769767   -7.3729327     192.0121  0.028882687  0.029573521            2 
  555000    1.1601414   -7.3892298    191.94288  0.028820253   0.02956354            2 
  556000    1.1550153   -7.3625396    193.08568    0.0289397  0.029553641            1 
  557000    1.1742969    -7.388669    193.38779  0.028932943  0.029544631            3 
  558000    1.1892105   -7.3346478     194.7703   0.02908756  0.029536307            2 
  559000    1.1635259   -7.3094419    194.53867  0.029000994  0.029528111            1 
  560000    1.1744303   -7.3510051    195.07155  0.029028504  0.029519846            2 
  561000    1.1823597   -7.3438254    195.46441  0.029035117  0.029512007            3 
  562000    1.1396899   -7.3878059    195.07286  0.028925394  0.029503994            2 
  563000    1.1649987   -7.3366568    196.66027   0.02910898  0.029496286            1 
  564000    1.1650874   -7.3630756    196.20047  0.028989431  0.029488369            1 
  565000    1.1935678   -7.3225397    197.19051  0.029084145  0.029481323            1 
  566000    1.1740195   -7.3960888    196.56253  0.028940303  0.029474032            1 
  567000    1.1480852   -7.3141225    197.98894  0.029098904  0.029467077            2 
  568000    1.1537591   -7.3618561    197.51447  0.028978062  0.029459909            3 
  569000    1.1598526   -7.3848388    198.28506  0.029039991  0.029453059            4 
  570000      1.14378   -7.3209671    199.72851  0.029200074  0.029446386            2 
  571000    1.1552086   -7.3191265    198.94098  0.029034002  0.029439032            1 
  572000    1.1745457   -7.3540033    198.73423  0.028953122  0.029431683            1 
  573000    1.1590917   -7.3680753    199.75443  0.029050964  0.029425052            3 
  574000    1.1533156    -7.410298    199.97027  0.029031689  0.029417868            2 
  575000    1.1702868   -7.4018309    199.78763  0.028954729  0.029410509            1 
  576000    1.1860345   -7.3600771    200.39663  0.028992568   0.02940325            1 
  577000    1.1583167   -7.3646619    201.35617  0.029080903  0.029396553            3 
  578000     1.172761   -7.3309767    202.04147  0.029129393  0.029390133            3 
  579000    1.1625783   -7.3604917    201.67032  0.029025665  0.029384068            2 
  580000    1.1844183   -7.4304581    201.58886  0.028963916   0.02937777            3 
  581000    1.1512207    -7.369015    202.87616  0.029098703  0.029371302            1 
  582000    1.1587734   -7.3855527    202.92853  0.029056205   0.02936531            1 
  583000    1.1700386    -7.371957    204.08931  0.029172285  0.029359158            2 
  584000    1.1720256   -7.3937202    203.45898  0.029032389  0.029353493            2 
  585000    1.1579867   -7.4304482    204.02989  0.029064086  0.029347861            1 
  586000    1.1383437   -7.3936581    203.71339   0.02896948  0.029341634            3 
  587000    1.1502976   -7.3415798     205.7586  0.029210478  0.029335735            2 
  588000    1.1598179   -7.3929301    205.70572  0.029153305  0.029330545            1 
  589000    1.1689536    -7.334399     206.0148  0.029147538  0.029325221            3 
  590000    1.1360183   -7.3909852    205.57516   0.02903604  0.029320152            1 
  591000    1.1881526   -7.3116229    206.68355  0.029143197  0.029315245            3 
  592000      1.14637    -7.365581    206.43402  0.029058843   0.02931021            2 
  593000     1.158329   -7.3752046    206.52813  0.029023064  0.029305047            3 
  594000    1.1543424   -7.4163557    206.83813  0.029017695  0.029299627            2 
  595000    1.1504986   -7.3474197    207.83963  0.029109192  0.029294402            3 
  596000    1.1624524   -7.3481258    208.32835  0.029128684  0.029289715            2 
  597000    1.1526957   -7.3313826    208.10811  0.029049149  0.029285162            2 
  598000    1.1671041   -7.2850875    210.34422  0.029312183  0.029281276            2 
  599000    1.1536832    -7.311182    210.09004  0.029227885  0.029277041            4 
  600000    1.1800612   -7.3979316    208.72675  0.028989826  0.029272326            3 
  601000    1.1818188   -7.3506594    209.68972  0.029075113  0.029267304            2 
  602000    1.1585157   -7.3905432    209.37078  0.028982666  0.029262204            3 
  603000    1.1448958    -7.336649    210.17582  0.029045857   0.02925718            5 
  604000    1.1696542   -7.3664633    210.74226  0.029075918  0.029252163            2 
  605000    1.1662048   -7.4164633     209.6134  0.028872369  0.029247026            3 
  606000    1.1440893   -7.3501428    211.30576  0.029057448   0.02924217            2 
  607000    1.1622642   -7.3727613    211.49022  0.029034902  0.029237735            3 
  608000    1.1542412   -7.3812811    211.34657  0.028967458  0.029232405            1 
  609000     1.176227   -7.3491795    212.33243  0.029054794  0.029227129            1 
  610000    1.1426648   -7.3564486     212.3068  0.029003661  0.029222024            3 
  611000    1.1489661   -7.3626424    213.15924  0.029072455  0.029217148            2 
  612000     1.138994   -7.3409648    213.85226  0.029119316  0.029212255            2 
  613000     1.151694   -7.4075301    213.09064  0.028968276  0.029206766            2 
  614000    1.1379412   -7.3571238    214.38162  0.029096311  0.029202345            1 
  615000    1.1629193   -7.3718055    214.53006  0.029069114  0.029198124            6 
  616000     1.137502   -7.4286004    214.16815  0.028972963  0.029193509            4 
  617000    1.1514759   -7.3494187    215.07026  0.029047847  0.029189019            2 
  618000    1.1525856   -7.3839913    214.59364  0.028936574  0.029184671            4 
  619000    1.1497638   -7.3512001    215.95315  0.029072853   0.02918034            1 
  620000    1.1421275   -7.3855071    215.67182  0.028988147  0.029175921            1 
  621000    1.1576613   -7.4072394    216.59618   0.02906551  0.029171037            3 
  622000    1.1386874   -7.3731517    216.96546  0.029068256  0.029166318            2 
  623000    1.1821174   -7.3779697    217.03377  0.029030734  0.029162038            3 
  624000    1.1389566   -7.4099176    216.93024  0.028970385  0.029157492            1 
  625000    1.1404859   -7.4048592    216.94343  0.028925791  0.029152681            3 
  626000    1.1413137   -7.3786988    217.78401  0.028991481  0.029148055            1 
  627000    1.1769867   -7.4020663    217.58542  0.028918849  0.029143087            7 
  628000     1.157398   -7.4096921    217.32494  0.028838235  0.029137887            3 
  629000    1.1499847   -7.4050164    218.52528  0.028951415   0.02913223            5 
  630000    1.1571877   -7.4169257    217.82013  0.028812186  0.029126837            1 
  631000    1.1333381   -7.4004175     218.4822  0.028853962   0.02912135            1 
  632000    1.1328763   -7.3694393    218.82996  0.028854162  0.029115845            2 
  633000    1.1360715   -7.3379262    219.20413  0.028857838   0.02911042            3 
  634000    1.1630871    -7.361901    218.90862  0.028773477  0.029104607            2 
  635000    1.1575908   -7.3811319    219.87251   0.02885466  0.029098572            1 
  636000    1.1521765   -7.3897978    220.56409  0.028899907  0.029093053            4 
  637000    1.1427007   -7.3760813    219.93443  0.028772165  0.029087223            1 
  638000    1.1449869   -7.3822866    221.08719  0.028877636  0.029081516            2 
  639000     1.128229    -7.378472    220.86694  0.028803721  0.029075766            1 
  640000    1.1488777   -7.4553434    220.68074  0.028734472  0.029069852            1 
  641000    1.1325427    -7.373395    221.47177  0.028792482  0.029064023            2 
  642000    1.1642585   -7.3773019    222.16491  0.028837605  0.029058259            3 
  643000    1.1459059   -7.3953462    221.29911  0.028680549  0.029052518            3 
  644000    1.1605071   -7.3956931    222.33879  0.028770547  0.029046261            2 
  645000    1.1588997   -7.4364087    221.78449  0.028654327  0.029040271            2 
  646000     1.124416   -7.3514135    223.15099  0.028786247  0.029034753            6 
  647000    1.1364908   -7.3823877    223.02455  0.028725471  0.029029162            6 
  648000    1.1823115   -7.3948995    223.28478  0.028714607  0.029023368            2 
  649000    1.1710381   -7.3626811     224.6848  0.028850128  0.029017926            2 
  650000    1.1764279   -7.3865245    224.43566  0.028773802  0.029012422            2 
  651000    1.1658683   -7.3867095    225.01726  0.028804052  0.029007084            2 
  652000    1.1527568   -7.3704078    225.29802   0.02879576  0.029001807            2 
  653000    1.1627595   -7.4294477    224.67689  0.028672395  0.028996459            1 
  654000    1.1529545   -7.3683685    225.68978  0.028757617  0.028990915            3 
  655000    1.1123516    -7.394272    226.03646  0.028757819  0.028985532            2 
  656000    1.1450285   -7.4014736    226.41306  0.028761822  0.028980332            3 
  657000    1.1768316   -7.3510689    227.34794  0.028836624  0.028975173            3 
  658000    1.1628537   -7.3523577    226.79899  0.028723276  0.028970038            3 
  659000    1.1421556   -7.3702025    227.50052  0.028768401  0.028964778            1 
  660000    1.1433852   -7.3636178     227.8858  0.028773459  0.028959924            2 
  661000    1.1325858   -7.3962176    227.65348   0.02870064  0.028954848            1 
  662000    1.1171428   -7.4356771    228.32707  0.028742078  0.028949067            3 
  663000    1.1566983   -7.4049674    228.23584  0.028687259   0.02894342            2 
  664000    1.1384158   -7.3667336     228.6749  0.028699159  0.028937983            2 
  665000    1.1213576    -7.391457    228.21881  0.028598849  0.028932264            2 
  666000    1.1316386   -7.3577526     229.2392  0.028683584  0.028926609            3 
  667000    1.1253065    -7.388411    229.33628  0.028652709  0.028920729            2 
  668000    1.1393532   -7.4122638    229.67314  0.028651839  0.028915311            3 
  669000    1.1542851   -7.3415716     230.3585  0.028694382  0.028909532            3 
  670000    1.1421453   -7.3882328    230.29774  0.028643998  0.028903711            2 
  671000     1.138259   -7.4236821    230.73563  0.028655691  0.028897973            3 
  672000    1.1450597   -7.4427225    231.01624  0.028647847  0.028891901            1 
  673000    1.1615015   -7.3866161    231.77608  0.028699366  0.028886429            1 
  674000    1.1762624   -7.3649941    232.89634  0.028795294  0.028881525            2 
  675000    1.1279062   -7.3783951     232.4186  0.028693654  0.028876541            2 
  676000    1.1186735   -7.3989617     233.0717  0.028731718  0.028871307            2 
  677000    1.1235715   -7.4329994    232.54654  0.028624636  0.028865982            3 
  678000    1.1563242    -7.423193    232.72505  0.028604357  0.028860879            1 
  679000    1.1533579   -7.3960339    233.79657  0.028693738  0.028855636            5 
  680000    1.1461552   -7.4243863    233.32684  0.028593975  0.028850282       -1e+20 
  681000    1.1490892   -7.4344639    233.22043  0.028538966  0.028844647            3 
  682000    1.1542583    -7.415481     233.6388  0.028548241  0.028838494            1 
  683000    1.1146962   -7.4644014    232.79052  0.028402943  0.028832244            2 
  684000    1.1595672   -7.3798497    234.40313  0.028557886  0.028825977            2 
  685000    1.1376339   -7.4222717    234.46054   0.02852318  0.028820224            3 
  686000    1.1235764   -7.4557233     234.5536  0.028492905   0.02881418            1 
  687000    1.1359033   -7.4264438    234.81265  0.028482854  0.028808447            1 
  688000    1.1378193    -7.420606    235.37787  0.028509917  0.028802757            4 
  689000    1.1685992   -7.4080434    235.78727  0.028518054  0.028796794            1 
  690000    1.1123246   -7.3784848    235.55938    0.0284492  0.028790916            2 
  691000    1.1239743   -7.4043881    236.10648  0.028474009  0.028784804            3 
  692000    1.1235008   -7.4321779    236.38587  0.028466506  0.028778578            3 
  693000    1.1493214   -7.3998374    237.26191  0.028530774  0.028772542            2 
  694000    1.1187368   -7.4102994    236.87763   0.02844352  0.028766464            1 
  695000    1.1278264   -7.3935353    236.93695  0.028409706  0.028760057            1 
  696000    1.1358695   -7.3755952    237.90205  0.028484441  0.028753601            2 
  697000    1.1414747   -7.4456794    237.83256  0.028435265  0.028747318            4 
  698000    1.1474289   -7.4487114    237.93972  0.028407321  0.028741331            1 
  699000    1.1324595   -7.4501423    238.63486  0.028449555  0.028735082            3 
  700000    1.1419405   -7.4180145    239.08183  0.028462123  0.028728968            1 
  701000    1.1578058   -7.3869911    240.17389  0.028551342  0.028722815            2 
  702000    1.1356414   -7.4144936    239.46958  0.028427063  0.028717008            2 
  703000    1.1469441   -7.4012853    240.40115  0.028497054  0.028711055            3 
  704000    1.1198243   -7.3955028    240.39236  0.028455535  0.028705299            3 
  705000    1.1151442   -7.4212359    239.81096   0.02834645  0.028699153            3 
  706000    1.1302343   -7.3747462    241.60915  0.028518549  0.028693174            1 
  707000    1.1228688   -7.4014917    240.82052  0.028385257  0.028687358            2 
  708000    1.1268695   -7.4101812    241.74082  0.028453487  0.028681358            2 
  709000    1.1236394   -7.3892553    241.63337  0.028400725  0.028675484            2 
  710000    1.1236539   -7.3841796    241.94683  0.028397515  0.028669061            3 
  711000    1.1293445   -7.3455507    242.83272  0.028461407  0.028663306            2 
  712000    1.1298524    -7.403314    242.85819  0.028424414  0.028657391            3 
  713000    1.1344967   -7.4089533    242.62055  0.028356773  0.028651077            2 
  714000    1.1349867   -7.4244437    242.56468  0.028310537  0.028644741            5 
  715000    1.1436508   -7.4139415    243.95186  0.028432618  0.028638672            2 
  716000    1.1532551   -7.3897138    243.24224  0.028310316    0.0286328            4 
  717000    1.1333068   -7.3776831     244.4176  0.028407439  0.028626623            2 
  718000    1.1076336   -7.3870047    244.43961  0.028370428  0.028620676            1 
  719000    1.1265756   -7.4621118    244.25921  0.028310062  0.028614545            2 
  720000    1.0967945   -7.4136101    244.21526  0.028265655   0.02860824            3 
  721000    1.1417902   -7.4113539    244.22876  0.028228012  0.028601509            1 
  722000    1.1239907   -7.4251278    245.13307  0.028293291  0.028594818            3 
  723000    1.1287244   -7.4365714    244.61141  0.028194031  0.028588326            3 
  724000    1.1167532   -7.4266138    245.34138  0.028239109  0.028581769            1 
  725000    1.1501641   -7.4094158    246.94847  0.028384882  0.028575642            3 
  726000    1.1191448   -7.4177536    246.35788  0.028277993  0.028569356            2 
  727000    1.1500133   -7.4368849    246.04069  0.028202738  0.028562871            1 
  728000    1.1270601   -7.4268356    247.93868  0.028381259  0.028556414            1 
  729000    1.1497936   -7.3809252    248.75924  0.028436127  0.028550559            1 
  730000    1.1269259   -7.4074186     247.5494  0.028259063  0.028544299            2 
  731000    1.0948203   -7.4509204    247.39722  0.028203057  0.028538002            1 
  732000    1.1517497    -7.452438    248.18548  0.028254267  0.028531602            2 
  733000    1.1560424   -7.3909828    248.57223  0.028259689  0.028525383            2 
  734000    1.1303664   -7.4315103    248.86616  0.028254559  0.028518996            3 
  735000    1.1125831   -7.4488163    248.41139  0.028164556  0.028512544            2 
  736000    1.1483825   -7.4394768    249.25455  0.028221756  0.028506163            3 
  737000    1.1222066   -7.4093355    249.88158  0.028254363  0.028499761            1 
  738000    1.1395186   -7.4552376     250.5547  0.028292084  0.028493771            4 
  739000    1.1379776   -7.4068673    249.97932  0.028188918  0.028487482            2 
  740000    1.1092109   -7.4603161    249.69946  0.028119309  0.028480748            3 
  741000    1.1362549   -7.4458386    250.62769   0.02818575  0.028474388            3 
  742000    1.1352306   -7.4530647    250.75555  0.028162123  0.028468281            1 
  743000    1.1321879   -7.4801168    250.83712  0.028133369  0.028461949            2 
  744000    1.1377695   -7.4452734    251.27592  0.028144705  0.028455832            1 
  745000    1.1488622   -7.3871307    253.06838  0.028307425  0.028449946            3 
  746000    1.1085064   -7.3966967     252.0419  0.028154815  0.028444035            2 
  747000    1.1379689     -7.39851    253.30457  0.028257985  0.028437907            2 
  748000    1.1392942   -7.4307541    252.79059  0.028162944  0.028431611            3 
  749000    1.1028619   -7.4223774    252.91775  0.028139492   0.02842542            2 
  750000    1.1293209   -7.4455985    253.27859  0.028142066  0.028419327            1 
  751000    1.1430568    -7.493776    253.05318  0.028079581  0.028413074            1 
  752000    1.1255511   -7.4651764    253.03255  0.028039955  0.028406669            3 
  753000    1.1280448   -7.4639303    253.32672  0.028035272  0.028400182            2 
  754000    1.1090968   -7.3996649    254.95727  0.028178301  0.028394133            4 
  755000    1.1401332   -7.4409383    254.65732  0.028107872  0.028387827            2 
  756000    1.1298764   -7.4479527    255.24439  0.028135404  0.028381107            3 
  757000    1.1224312   -7.4690338    254.11442  0.027973846  0.028374244            2 
  758000    1.1601334   -7.4214421    255.54701  0.028094438   0.02836747            1 
  759000    1.1091769   -7.4391771    256.06788  0.028114612  0.028360852            2 
  760000    1.1412266   -7.4356415    255.74538  0.028042257  0.028354352            2 
  761000    1.1225418   -7.4032702    256.09847  0.028044072   0.02834787            2 
  762000    1.1426373   -7.4580054    255.17413  0.027906183  0.028340885            1 
  763000    1.1093052   -7.4354529    257.03179  0.028072498  0.028334168            1 
  764000    1.1486522   -7.4903626    256.62263  0.027991124  0.028327588            2 
  765000    1.1428862   -7.4545267    257.18809  0.028016132  0.028320749            1 
  766000    1.1421614   -7.4154525    258.59518  0.028132635  0.028314522            2 
  767000    1.1487058   -7.4454369     258.2045  0.028053509  0.028308261            2 
  768000    1.1160436   -7.4833524    257.15697  0.027903317   0.02830206            3 
  769000    1.1395691   -7.4591421    258.35996  0.027997395  0.028295529            3 
  770000    1.1080884   -7.4633406    258.44772  0.027970532  0.028289223            2 
  771000    1.1215038   -7.4712386    259.47139  0.028044897  0.028282909            3 
  772000    1.1349513   -7.4786831    258.68522  0.027923707  0.028276478            1 
  773000    1.1292276   -7.5216739    258.74343  0.027893859  0.028270033            1 
  774000    1.1105274    -7.455748    259.36268  0.027924491  0.028263825            2 
  775000    1.1580384   -7.4266058    261.27714  0.028094316  0.028258033            1 
  776000    1.1169533   -7.4380039    260.94413   0.02802235  0.028252261            2 
  777000    1.1220974   -7.4400169    261.42785  0.028038165  0.028246494            2 
  778000    1.1121157   -7.4719559    261.18286  0.027975885  0.028240716            5 
  779000    1.1464834   -7.4405373    262.07654  0.028035573  0.028234849            1 
  780000    1.1307543   -7.4707599    261.72395  0.027961961  0.028228812            1 
  781000    1.1220056   -7.4760905     262.1368  0.027970209  0.028222539            2 
  782000    1.1415298   -7.4481968    262.59991  0.027983793  0.028216533            9 
  783000    1.1109862   -7.4719269    261.65118  0.027847081  0.028210535            2 
  784000     1.135418   -7.4480289    263.31402   0.02798831   0.02820418            5 
  785000    1.1253318   -7.4357559    263.05128  0.027924765  0.028198227            6 
  786000    1.1501118   -7.4512695     263.7466  0.027962955  0.028192459            1 
  787000    1.1247472   -7.4702125    264.08297  0.027963042  0.028186601            3 
  788000    1.1570223   -7.4416533    264.80427  0.028003835  0.028180972            2 
  789000    1.1295546    -7.452047    264.89625  0.027978057  0.028175284            2 
  790000    1.1301153   -7.4390413    264.95128  0.027948448  0.028169581           11 
  791000    1.1169967   -7.4639848    265.15769   0.02793486  0.028163684            3 
  792000    1.1481304   -7.4702454     265.2856  0.027913047  0.028157542            1 
  793000    1.1336044   -7.4698217    265.76366  0.027928086  0.028151465            2 
  794000     1.122621   -7.4565594    266.03296  0.027921176  0.028145081            1 
  795000     1.120799    -7.448123    265.91161  0.027873335  0.028138733            2 
  796000    1.1317766   -7.4714447    265.02701  0.027745709   0.02813219            2 
  797000    1.1113578   -7.4410296    267.19347  0.027937419  0.028125448            5 
  798000     1.123207   -7.4351229    266.17124   0.02779566  0.028119124            2 
  799000    1.0944619   -7.4396591    266.57816  0.027803312  0.028112894            2 
  800000    1.1089877   -7.4633205    266.81077  0.027792788  0.028106629            7 
  801000    1.1467107   -7.4244436    267.11661   0.02778991  0.028100466            3 
  802000    1.1259203   -7.4734062    267.82934  0.027829316  0.028093841            2 
  803000      1.12103   -7.4608465    268.39628  0.027853495  0.028087549            5 
  804000    1.1262644     -7.46126    267.48047  0.027723929  0.028081259            2 
  805000    1.1099544   -7.4748168    267.86406  0.027729199  0.028074617            3 
  806000    1.1256624   -7.4135383    268.72038  0.027783331  0.028068255            1 
  807000    1.1218895    -7.414918    269.85079  0.027865633  0.028061752            2 
  808000    1.1168215   -7.4093232    269.87667  0.027833815  0.028055289            2 
  809000    1.1479501   -7.4913308    268.90604  0.027699428  0.028048506            2 
  810000    1.1117554   -7.5030126    269.06672  0.027681761  0.028041732            6 
  811000     1.116717   -7.4650011     270.6888  0.027814303  0.028034987            2 
  812000    1.1193639   -7.4661771    269.77868  0.027686646  0.028028037            2 
  813000    1.1206102   -7.4290187    270.29783  0.027705804   0.02802107            1 
  814000    1.1341137   -7.4418044    271.10435  0.027754336   0.02801407            5 
  815000    1.1475119   -7.3657926    270.72046  0.027681028  0.028007254            4 
  816000    1.1375967   -7.4614976    270.21778   0.02759577  0.028000087            2 
  817000    1.1143154   -7.4895407    269.73752  0.027513006  0.027992767            2 
  818000    1.1097321   -7.4666905    270.97346  0.027605283  0.027985275            2 
  819000     1.119257   -7.4618115    270.62884  0.027536512  0.027977628            1 
  820000    1.1085178   -7.4452232    271.49528  0.027590984   0.02797004            2 
  821000    1.1193249   -7.4662651    271.80616  0.027588932  0.027962338            2 
  822000    1.1172404   -7.4667403    271.21972  0.027495916  0.027954643            3 
  823000       1.1325   -7.4977308    271.08934  0.027449306   0.02794675            2 
  824000    1.1169967   -7.4573121    271.77416  0.027485251  0.027938732            4 
  825000    1.1057938   -7.4771571    271.73473  0.027447953   0.02793081            1 
  826000    1.1351337   -7.4326074     273.1999   0.02756254  0.027922936            2 
  827000    1.1306149   -7.4475294    272.97218  0.027506265  0.027915083            6 
  828000    1.1080137   -7.4533265    273.30764  0.027506808  0.027907265            2 
  829000    1.1030792   -7.4675839    273.64213   0.02750725  0.027899474            4 
  830000    1.1212485     -7.49411    273.36439  0.027446224  0.027891902            2 
  831000     1.111729   -7.4466917    273.93232  0.027470148  0.027884622            6 
  832000    1.1235155   -7.4453676    275.06819  0.027550901  0.027877358            1 
  833000    1.1061278   -7.4316193    274.90267  0.027501267  0.027870012            4 
  834000    1.1083966   -7.4465291    275.47964  0.027525943  0.027862345            1 
  835000    1.1131405   -7.4292655    276.00088  0.027544998  0.027854909            1 
  836000     1.106985   -7.4438862    275.17904  0.027430128  0.027847556            2 
  837000    1.1410992   -7.4636421    275.21069  0.027400506  0.027840037            2 
  838000     1.092787    -7.488974    275.15641  0.027362411  0.027832424            3 
  839000    1.1073955   -7.4322741    276.60439  0.027473618  0.027824674            2 
  840000    1.1113146   -7.4621911    276.00616  0.027381563  0.027817028            3 
  841000    1.0863654   -7.4644705    276.17528  0.027365763   0.02780922            1 
  842000    1.0931263   -7.4632493    276.87123  0.027402141  0.027801454            4 
  843000    1.1104534   -7.4977201    276.90231  0.027372708  0.027793655            4 
  844000    1.0987511    -7.450691    276.90229  0.027340274  0.027785458            1 
  845000    1.1159896   -7.4125501     278.3078  0.027446529  0.027777688            1 
  846000    1.1232223   -7.4365229    278.33237  0.027416506  0.027769882            3 
  847000    1.1043126   -7.5117115    277.32043  0.027284576  0.027762135            2 
  848000    1.1342629   -7.4391624    278.13003  0.027331961  0.027754549            2 
  849000    1.1332479   -7.4957904    276.77724  0.027166985  0.027746537            1 
  850000    1.1416991   -7.4771151    278.55637  0.027309448  0.027738412            1 
  851000    1.1022646   -7.4781004    279.14303  0.027334806   0.02773064            1 
  852000     1.119613   -7.4653555    279.64307  0.027351631  0.027722645            3 
  853000    1.1423744   -7.5118251    278.38809  0.027196961  0.027714571            2 
  854000    1.1056269   -7.4781608    278.87293  0.027212425  0.027706859            3 
  855000    1.1300358   -7.4400395     280.1386  0.027303957  0.027698972            2 
  856000     1.110167   -7.5081813    279.91748  0.027250533  0.027691056            2 
  857000    1.1268123   -7.4845863    280.55867  0.027281084  0.027683138            2 
  858000    1.0880245   -7.4737288    280.53409  0.027246901  0.027675244            2 
  859000    1.0715078   -7.4568748    281.22717  0.027282418   0.02766735            1 
  860000    1.1436603   -7.5040239    281.03355  0.027231933  0.027659423            5 
  861000    1.1011007   -7.5296535    281.18406  0.027214872  0.027651618            3 
  862000    1.1098008   -7.4894763    281.26749  0.027191366  0.027643842            2 
  863000    1.1118524   -7.5192366    282.20486  0.027250373  0.027636015            4 
  864000    1.0995562   -7.4791384    281.88186  0.027187679  0.027628004            3 
  865000    1.0994608   -7.5077282    282.30182  0.027196707  0.027620238            4 
  866000     1.098731   -7.5171765    283.00057  0.027232541  0.027612476            2 
  867000    1.1319411   -7.5265563    282.31337   0.02713508  0.027604625            1 
  868000    1.1234418   -7.4931003    282.94688  0.027164639  0.027596874            4 
  869000    1.1232856   -7.5229086     281.8769  0.027030773  0.027588849            1 
  870000    1.1241027   -7.5046039    282.93926  0.027101462  0.027580592            2 
  871000    1.1080569   -7.4508095    283.66137  0.027139435  0.027572781            5 
  872000    1.1072351   -7.4825872    283.42541  0.027085761  0.027565029            3 
  873000     1.100606   -7.4848046     284.3971   0.02714749  0.027557069            3 
  874000    1.1049225   -7.4853172    284.44079  0.027120594  0.027549151            1 
  875000    1.1008758   -7.4893318    284.50039  0.027095276  0.027541302            3 
  876000    1.1126082   -7.5035482    284.49037  0.027063392  0.027533257            2 
  877000    1.1018983   -7.4710329    285.81993  0.027158868  0.027525387            1 
  878000    1.1302791   -7.4567573    285.77184  0.027123371  0.027517713            2 
  879000    1.1165789   -7.4460985     287.2664  0.027234206  0.027510042            2 
  880000    1.0964619   -7.4537347    286.67797  0.027147535  0.027502538            1 
  881000    1.0891118   -7.4696892    285.83842  0.027037308  0.027494931            1 
  882000    1.1328476   -7.5087021    286.65884  0.027084168  0.027487259            1 
  883000    1.1048506   -7.4801447    286.80187  0.027066994  0.027479778            3 
  884000    1.1191398   -7.4683035    287.41102  0.027093799   0.02747184            2 
  885000    1.1093125   -7.5040477    286.98317  0.027022897  0.027463748            3 
  886000    1.1165311   -7.4868715     287.2498  0.027017476  0.027455655            4 
  887000    1.1178725   -7.5073295    287.56066  0.027016221  0.027447643            2 
  888000     1.122458   -7.4706401    288.40521  0.027065053  0.027439998            2 
  889000    1.1052845   -7.5441274     288.2314  0.027018317  0.027432333            8 
  890000    1.1137172   -7.4685606    289.28597  0.027086702  0.027424723            2 
  891000    1.1053784   -7.5111501    288.14609  0.026949691  0.027417124            2 
  892000    1.1118632   -7.5261275    288.84097  0.026984395  0.027409479            1 
  893000    1.0993986   -7.5474379    289.31627  0.026998532  0.027401828            1 
  894000    1.0997629   -7.4958917     289.3521  0.026971672     0.027394            3 
  895000     1.102937   -7.4751015    289.62027  0.026966505  0.027386408            2 
  896000    1.1180909   -7.5179352    289.55962  0.026930768  0.027378536            6 
  897000    1.1129033   -7.4939169    290.88717  0.027024078   0.02737079            1 
  898000    1.1079337   -7.5159431    290.26962  0.026936676  0.027363337            2 
  899000    1.0884572   -7.5443176      289.921  0.026874398  0.027355532            2 
  900000    1.1019652   -7.5033289    291.49581  0.026990353  0.027347991            5 
  901000    1.1276948   -7.5140891    290.67052  0.026884066  0.027340292            4 
  902000    1.1173681   -7.5139787    291.48568  0.026929571  0.027332551            1 
  903000    1.1113282   -7.4899533    291.96451  0.026943938  0.027324821            3 
  904000     1.115971   -7.5155365    291.57492  0.026878219  0.027317145            4 
  905000    1.1024475   -7.4777308    292.39349  0.026923894   0.02730964            1 
  906000    1.1141875   -7.5029359    292.78077  0.026929798  0.027302012            1 
  907000    1.1101389   -7.5344233     292.2233  0.026848888  0.027294388            2 
  908000    1.1149237   -7.5245663    293.78628  0.026962765  0.027286758            1 
  909000    1.1119285   -7.5161498    292.48527  0.026813831  0.027278898            3 
  910000     1.105934   -7.5363595    292.53867  0.026789255  0.027270784            4 
  911000    1.1303311   -7.5221362     292.9883  0.026800979  0.027262809            2 
  912000     1.109579   -7.4776093    293.63568  0.026830746  0.027254839            2 
  913000    1.0864239   -7.4881463    294.11165  0.026844802  0.027247096            1 
  914000    1.1200882   -7.4919531    294.14496  0.026818468   0.02723905            2 
  915000    1.1230667   -7.4704931    293.77936  0.026755862  0.027230901            2 
  916000    1.0903715   -7.4751776    293.08624  0.026663595  0.027222499            2 
  917000    1.1126665   -7.5351717    293.84187  0.026703187  0.027213855            2 
  918000    1.0950389   -7.5292318    292.90413  0.026588973   0.02720497            1 
  919000     1.063896   -7.5301286    293.73193  0.026635104  0.027196207            1 
  920000    1.0911276   -7.5101996    294.09782  0.026639295  0.027187415            2 
  921000    1.1184656   -7.5350543    294.05196  0.026606222  0.027178627            3 
  922000    1.1120157   -7.5280906    293.43225  0.026521353  0.027169674            1 
  923000    1.0967274   -7.5254879    294.22273  0.026563988   0.02716072            3 
  924000    1.0909882   -7.4934959    295.88929  0.026685542  0.027151822            2 
  925000    1.0901252   -7.4876494    295.70029  0.026639665  0.027142916            1 
  926000    1.1084446   -7.4649334    295.62953  0.026604529  0.027134184            1 
  927000    1.0887527   -7.5399787    295.61734  0.026574733  0.027125572            2 
  928000    1.0966619   -7.5093763    296.70107  0.026643415  0.027116685            1 
  929000    1.1097431   -7.5509555    295.71402  0.026526195  0.027107689            2 
  930000    1.0804995   -7.4603811    296.60332  0.026577359  0.027098829            2 
  931000    1.0979145   -7.4791281    297.07327  0.026590876  0.027090034            2 
  932000    1.1198316   -7.5206186    296.26195  0.026489803  0.027081264            7 
  933000    1.0823589   -7.4956767      297.003  0.026527599  0.027072332            2 
  934000    1.1137414    -7.460622    298.28456   0.02661354  0.027063691            2 
  935000    1.0790415   -7.5180276    297.48665  0.026513961  0.027055142            2 
  936000    1.1053759    -7.528934    297.46893  0.026484057  0.027046433            2 
  937000    1.1026981   -7.5285311     298.8208  0.026576023   0.02703789            2 
  938000    1.0873056   -7.5006254    299.34554  0.026594309  0.027029417            1 
  939000    1.0963402   -7.4945644    298.57293   0.02649742  0.027020706            4 
  940000    1.1120315   -7.4992489    298.32231  0.026447013  0.027012019            1 
  941000    1.0954874   -7.4818174    299.35014  0.026509931  0.027003276            3 
  942000    1.1129543   -7.5065055    298.90577  0.026442478  0.026994505            2 
  943000      1.11317   -7.5163629    298.84935  0.026409451  0.026985604            2 
  944000    1.1069682   -7.5170678    300.14424  0.026495784  0.026976796            1 
  945000    1.1165428   -7.5463254    299.39915  0.026402041  0.026968211            1 
  946000    1.0979965   -7.5300187    299.85672   0.02641444  0.026959361            2 
  947000    1.1176743    -7.515748     301.1889  0.026503775  0.026950433            1 
  948000    1.0688844   -7.5260488    301.14617  0.026472062  0.026941656            5 
  949000    1.0936997   -7.5530286    299.97539  0.026341358  0.026932761            5 
  950000    1.0803181   -7.5033102    301.36918  0.026435893  0.026924238            2 
  951000    1.0869703   -7.4856733     301.5444  0.026423449  0.026915844            2 
  952000    1.0915317   -7.4854611    302.47795  0.026477411  0.026907159            4 
  953000    1.0814366   -7.5258576    302.68583  0.026467806  0.026898485            1 
  954000    1.0842154    -7.488948     303.2257   0.02648722   0.02688988            3 
  955000    1.0852072   -7.5518667    302.04984  0.026356879  0.026881221            2 
  956000    1.1190779   -7.4575241    303.21569  0.026430935  0.026872455            2 
  957000    1.0962835   -7.4967161    303.77595  0.026452102  0.026863866            2 
  958000     1.097398   -7.5193995    302.50235  0.026313705  0.026855047            3 
  959000    1.0831803   -7.4929781    302.84214  0.026315792  0.026846137            1 
  960000    1.0939202   -7.4840646     303.3092  0.026328923  0.026837189            4 
  961000    1.1008775   -7.5109264    303.45078  0.026313803  0.026828288            1 
  962000    1.1120941   -7.5022914    303.02629  0.026249679  0.026819335            1 
  963000    1.0934102   -7.5092052     303.3333  0.026248987  0.026810112            2 
  964000    1.0895557   -7.5670518    303.10853  0.026202328  0.026800699            2 
  965000    1.1090636   -7.5939858    303.12393  0.026176506  0.026791278            1 
  966000    1.1154052   -7.5357632     302.7996  0.026121428   0.02678173            2 
  967000    1.0886706     -7.50133    304.32635  0.026225986  0.026772364            3 
  968000    1.0896764   -7.5567167    303.81498  0.026154871  0.026763278            6 
  969000    1.1147651   -7.5309725     303.8143   0.02612782  0.026754279            2 
  970000    1.1151839   -7.4955961    306.00863  0.026289401  0.026745296            3 
  971000    1.1024889   -7.5492098    304.82841  0.026161038  0.026736173            3 
  972000     1.144034    -7.561555    304.96007  0.026145411  0.026726977            1 
  973000    1.0986341   -7.5452839    304.75142   0.02610067   0.02671776            2 
  974000    1.0966282    -7.530744     306.1084  0.026189973  0.026708527            2 
  975000     1.078616   -7.5366802    306.67619   0.02621164  0.026699361            1 
  976000     1.114478   -7.5418154    306.25566  0.026148878  0.026690238            3 
  977000    1.0710274   -7.5211519    306.84291  0.026172203     0.026681            2 
  978000    1.1329821   -7.5040329     306.7951  0.026141368  0.026671824            2 
  979000    1.0863098   -7.5303767    306.47886  0.026087747  0.026662524            1 
  980000    1.1107758   -7.4944742    307.75541  0.026169677  0.026653383            2 
  981000      1.05862    -7.546342     306.7094  0.026054146  0.026644146            3 
  982000    1.1231314   -7.5298194    307.89083  0.026127871  0.026634932            2 
  983000      1.10256   -7.5522824    306.79765  0.026008617  0.026625841            3 
  984000    1.0830202   -7.5215886    308.17303  0.026098664  0.026616698            5 
  985000    1.1272497   -7.5137294     307.7567  0.026036946  0.026607655            1 
  986000    1.0825296   -7.5571602    307.26713  0.025969163  0.026598437            1 
  987000    1.0927765   -7.5150077    309.11999   0.02609929  0.026589305            2 
  988000    1.0757113   -7.5127159    308.12653  0.025989079   0.02658035            3 
  989000    1.0684628   -7.5009219    308.68158   0.02600957    0.0265712            3 
  990000    1.0843505   -7.5310867    309.24527  0.026030747  0.026561628            7 
  991000    1.0865116   -7.5030167    310.19652   0.02608447  0.026552059            4 
  992000    1.0714875   -7.5674026    308.79774   0.02594067  0.026542756            3 
  993000    1.1020938    -7.548018    308.73278  0.025909095  0.026533098            3 
  994000     1.105324   -7.5183897    309.28118  0.025929006  0.026523498            2 
  995000    1.0767331   -7.5552663    307.93761  0.025790419  0.026513759            2 
  996000    1.1007326   -7.5185688    309.73212  0.025914668  0.026504229            3 
  997000    1.1148908   -7.5388357     310.7322  0.025972267  0.026494859            2 
  998000    1.0999387    -7.497564    311.22429  0.025987332  0.026485599            1 
  999000    1.0922033   -7.5421139    309.02438   0.02577781  0.026476505            2 
 1000000    1.0701133   -7.5449356    310.90154  0.025908462  0.026466973            2 
 1001000    1.1010862   -7.5099002    310.87522  0.025880388  0.026457754            3 
 1002000    1.1167107   -7.5540266    310.62846  0.025834037  0.026448235            2 
 1003000    1.0793871   -7.5139344     311.3542  0.025868578  0.026438691            2 
 1004000    1.0885381    -7.554281    311.79078  0.025879049  0.026429366            2 
 1005000    1.1223344   -7.5501932    312.28442  0.025894231  0.026420343            2 
 1006000    1.1068778   -7.5540098    311.94467  0.025840347  0.026411127            2 
 1007000     1.087834   -7.5209804    312.58599  0.025867758  0.026402132            2 
 1008000    1.0718359   -7.5325561    313.18452  0.025891577  0.026393159            2 
 1009000    1.1016363   -7.5361629    313.08825  0.025857966  0.026383978            1 
 1010000    1.0861244   -7.5232485    313.55937  0.025871235  0.026374984            2 
 1011000    1.0673175   -7.5073744    313.15813  0.025812573  0.026366025            2 
 1012000    1.0908387   -7.5756592    314.51313  0.025898644  0.026357183            5 
 1013000     1.063932   -7.5081428    314.21265  0.025848359  0.026348297            2 
 1014000    1.0694893   -7.5203478    314.99505  0.025887167  0.026339599            4 
 1015000    1.0765879   -7.5721749    313.79519  0.025763152  0.026330502            5 
 1016000    1.0850634   -7.5561192    313.64964  0.025725856  0.026321313            1 
 1017000    1.1045757   -7.5582345    315.08614  0.025818268  0.026312321            6 
 1018000    1.0831744   -7.5299258    315.53973  0.025830037   0.02630342            2 
 1019000    1.0688016   -7.5432233    315.54267  0.025804929  0.026294639            2 
 1020000     1.070022    -7.507752    316.02614  0.025819129  0.026285865            3 
 1021000    1.0912634   -7.5528574    316.34155  0.025819584  0.026276805            3 
 1022000    1.0771625   -7.5285289    316.09613  0.025774309  0.026267789            3 
 1023000    1.1163607   -7.5579097    316.38689    0.0257728  0.026258862            2 
 1024000    1.1021037    -7.568136    316.01853  0.025717654  0.026249807            4 
 1025000    1.0919651   -7.5650765     317.6699  0.025826821  0.026241008            3 
 1026000    1.0871122   -7.5269724    316.82112  0.025732709  0.026232271            2 
 1027000    1.1058753   -7.5493839    317.21279  0.025739434  0.026223419            4 
 1028000    1.1020461   -7.6126325    315.99996   0.02561608  0.026214415            2 
 1029000    1.0839944   -7.5586621    317.33931  0.025699652  0.026205437            1 
 1030000    1.0641929   -7.5175226    318.67657  0.025782894  0.026196704            1 
 1031000    1.0929641   -7.5325117    318.21564   0.02572063  0.026187707            2 
 1032000    1.0849365   -7.5472463    318.19278  0.025693861  0.026178742            2 
 1033000    1.0871698   -7.5326126    318.12305  0.025663363   0.02616987            1 
 1034000    1.0952074   -7.6078798    317.87418  0.025618487  0.026160892            2 
 1035000    1.0891193   -7.5621362    318.37179    0.0256338  0.026152002            2 
 1036000    1.0841492   -7.5972335    318.80015  0.025643513  0.026143004            4 
 1037000    1.0849479   -7.5549343    318.81096  0.025619653  0.026134139            5 
 1038000    1.0643287   -7.5835665    319.59808  0.025658164   0.02612526           12 
 1039000    1.0785538   -7.5727454    319.23844  0.025604623  0.026116132            2 
 1040000    1.1003697   -7.5391352    320.15556   0.02565349  0.026107214            2 
 1041000    1.0789462   -7.5845895    320.65214  0.025668599  0.026098182            1 
 1042000    1.0742873   -7.5362859    320.33887  0.025618912  0.026089121            1 
 1043000    1.0798781   -7.5605162    320.98502  0.025645975  0.026080181            3 
 1044000    1.0848074    -7.535306    320.25134  0.025562846  0.026071488            1 
 1045000    1.0816446   -7.5103967    322.40548  0.025710166  0.026062904            1 
 1046000    1.0755412   -7.5609963    321.71105  0.025630262   0.02605414            2 
 1047000    1.0890571   -7.5258232    322.21495  0.025645889   0.02604537            3 
 1048000    1.0724234   -7.5373562    321.27298  0.025546516  0.026036761            2 
 1049000    1.0785714   -7.5719942    320.71192  0.025477591  0.026027854            2 
 1050000     1.067684   -7.5620213    322.00916  0.025556283  0.026018966            1 
 1051000     1.076473    -7.563796    321.84429  0.025518894  0.026010098            5 
 1052000    1.0978911    -7.597444    321.56329  0.025472377  0.026001258            2 
 1053000    1.0837052   -7.5351266    323.42912  0.025595847  0.025992603            2 
 1054000    1.0755394   -7.5735988    323.43065  0.025571683  0.025983883            3 
 1055000    1.1026436   -7.5616978    323.26733  0.025534544   0.02597526            3 
 1056000    1.0804203   -7.5481317    324.47654  0.025605788  0.025966694            1 
 1057000    1.0868635   -7.5537669    324.10188  0.025552024  0.025957806            3 
 1058000    1.0434141   -7.5829164    322.57657  0.025407732  0.025948954            2 
 1059000    1.0621132   -7.5421814    323.52086  0.025458047  0.025940184            2 
 1060000    1.0813708   -7.5806505    324.22971  0.025489757  0.025931463            1 
 1061000     1.090677   -7.5761674    323.87138  0.025437588  0.025922721            2 
 1062000    1.0778571    -7.567354    325.13881  0.025513089  0.025913769            2 
 1063000     1.064285   -7.5577104    325.09143  0.025485374  0.025905232            2 
 1064000    1.0631891   -7.5557442    325.31282  0.025478761  0.025896652            2 
 1065000     1.090456   -7.5316566    326.08821  0.025515509  0.025888007            2 
 1066000    1.0622891   -7.5525797    325.81927   0.02547055  0.025879444            1 
 1067000    1.0944607   -7.5887115    326.23313  0.025479001  0.025870749            1 
 1068000     1.086312   -7.5641773    325.49638  0.025397657  0.025861861            5 
 1069000    1.0659088   -7.5640617    325.89734  0.025405156  0.025852985            6 
 1070000    1.0947773   -7.5373271    326.61395  0.025437223  0.025844107            2 
 1071000    1.0841483   -7.5385116    326.65656  0.025416788  0.025835173            1 
 1072000    1.0471574   -7.5526763    326.98352  0.025418495  0.025826212            1 
 1073000    1.1131609   -7.5766114    326.69068  0.025372063  0.025817425            1 
 1074000    1.0778167   -7.6175525    326.13992  0.025305704  0.025808396            2 
 1075000    1.0789411   -7.5735584    326.19207  0.025286207  0.025799175            4 
 1076000    1.0915814   -7.5722414    325.92547   0.02524206  0.025790069            4 
 1077000     1.059025    -7.586412     326.7062  0.025279031  0.025780855            2 
 1078000    1.0725252   -7.5650347    326.17703  0.025214675  0.025771827            2 
 1079000    1.0862276    -7.525121    327.31935  0.025279529  0.025762898            2 
 1080000     1.074214   -7.5567012    328.09538  0.025316001  0.025753902            3 
 1081000    1.0895272   -7.5812048    327.05167  0.025212124  0.025744731            3 
 1082000    1.0854303   -7.5539616    327.96889  0.025259465  0.025735711            3 
 1083000    1.0876802   -7.5761895    328.45783  0.025273764   0.02572682            3 
 1084000    1.0867997    -7.613977    328.45823  0.025250479  0.025717773            2 
 1085000    1.0574892   -7.6286502    328.84756  0.025257109  0.025708588           11 
 1086000    1.0906003   -7.5623494    329.01524  0.025246719  0.025699632            3 
 1087000     1.064161   -7.5707912    329.83712  0.025286501  0.025690796            3 
 1088000     1.098191   -7.5321199    330.27979  0.025297165  0.025682122            1 
 1089000    1.0826991   -7.6088274    329.06863  0.025181254  0.025673353            1 
 1090000    1.0864906   -7.5589687    330.30864  0.025252954  0.025664267            4 
 1091000    1.0780162   -7.5758307    329.59813  0.025175537  0.025655173            2 
 1092000    1.0704563   -7.6083165    329.82493   0.02516979  0.025646123            2 
 1093000    1.0733808    -7.592671     330.6051  0.025206244  0.025637095            2 
 1094000    1.0719567   -7.6263434     329.5823  0.025105294  0.025628078            1 
 1095000    1.0649568   -7.5715589    330.64747   0.02516343  0.025618995            3 
 1096000    1.0768886   -7.5886419    331.85428   0.02523223   0.02561006            2 
 1097000    1.1008807   -7.5652459    331.64709  0.025193489  0.025601142            2 
 1098000     1.100614   -7.5500032    332.29324  0.025219584  0.025592413            1 
 1099000    1.1003222   -7.5825048    331.76484   0.02515657  0.025583446            3 
 1100000    1.0736033   -7.6368976    329.33115   0.02494933  0.025574443            2 
 1101000    1.0759163   -7.6071962    331.47321  0.025088799  0.025565446            2 
 1102000    1.0510646   -7.5919084    332.70759  0.025159376  0.025556703            2 
 1103000     1.058101   -7.6013586    332.32217  0.025107447  0.025547945            2 
 1104000    1.0653837    -7.582646     333.0993  0.025143365  0.025539309            2 
 1105000    1.0925636   -7.6028629    333.30837  0.025136378    0.0255306            2 
 1106000    1.0673771   -7.6083089    332.86171  0.025079996  0.025521762            3 
 1107000    1.0704756   -7.5558971    333.92882  0.025137671  0.025512958            2 
 1108000    1.0508394   -7.5650796    333.48328  0.025081474  0.025504188            4 
 1109000    1.0516783   -7.5761937    333.39555  0.025052266   0.02549537            2 
 1110000    1.0730329   -7.6116757    333.46966   0.02503526  0.025486433            1 
 1111000    1.0480657   -7.5357203    334.00237  0.025052683  0.025477659            1 
 1112000    1.0679889   -7.5711667    333.69489  0.025007111  0.025468687            2 
 1113000    1.0980372   -7.6000932    333.68779  0.024984111  0.025459821            3 
 1114000    1.0894634   -7.5837053    334.54091  0.025025502  0.025451003            2 
 1115000     1.067776   -7.6067511     334.6242  0.025009282  0.025442091            6 
 1116000    1.0541879   -7.5943185    333.70304  0.024918088  0.025432848            5 
 1117000    1.1188041   -7.5790822    334.68494  0.024969035  0.025423583           11 
 1118000    1.0710193   -7.5634689    335.39621  0.024999718   0.02541458            3 
 1119000    1.0691968   -7.5460629    336.55292  0.025063518  0.025405695            2 
 1120000    1.1091384   -7.5764725    335.99684  0.024999765  0.025396949            5 
 1121000    1.0973433   -7.5538195    336.91736  0.025045894   0.02538814            2 
 1122000    1.0711617   -7.6203024     336.3041  0.024978023  0.025379311            2 
 1123000    1.0899993   -7.6195368    335.31746  0.024882566  0.025370457            2 
 1124000    1.0641454   -7.5388508    336.70749  0.024963486  0.025361549            1 
 1125000    1.0718254   -7.5907356    337.11408  0.024971413  0.025352761            1 
 1126000    1.0530522   -7.5711263    336.74675  0.024922051  0.025343824            3 
 1127000    1.0681723   -7.5640148    337.21742   0.02493474  0.025335132            2 
 1128000    1.0852164   -7.5433555    338.01326  0.024971429  0.025326426            1 
 1129000    1.0847625   -7.6012416    338.43225  0.024980237  0.025317599            1 
 1130000    1.0661648   -7.6233134    336.95681  0.024849322  0.025308734            1 
 1131000    1.0656957   -7.5848796    337.45268  0.024863888   0.02529997            2 
 1132000    1.0624882   -7.5884754     337.9557  0.024878953  0.025291182            4 
 1133000    1.0711286   -7.5902782    337.50435  0.024823797   0.02528245            4 
 1134000    1.1016399   -7.5822655    338.21852  0.024854389  0.025273609            5 
 1135000    1.0823709   -7.6034559    338.40849  0.024846438  0.025264846            2 
 1136000    1.0721846   -7.5652886    339.31461  0.024891037  0.025256107            3 
 1137000    1.1062577   -7.5659229    339.13832  0.024856224  0.025247633            2 
 1138000    1.0775668   -7.6019744    338.72924  0.024804426   0.02523916            2 
 1139000    1.0729185   -7.6059978    339.42057  0.024833229  0.025230429            2 
 1140000    1.0702434   -7.5960397    339.69348  0.024831395  0.025221702            2 
 1141000    1.0530078   -7.5731387    341.67073  0.024954041  0.025213234            1 
 1142000     1.084083   -7.5764684    340.72384  0.024863094  0.025204705            1 
 1143000    1.0603635   -7.6301521    340.12012  0.024797326  0.025196108            1 
 1144000    1.0743733   -7.5563331    340.81545    0.0248263  0.025187617            2 
 1145000    1.0628366   -7.6143285    341.29787  0.024839728  0.025178985            5 
 1146000    1.0569663   -7.6312803    341.10737  0.024804201  0.025170436            6 
 1147000    1.0479697   -7.5863342    342.33723  0.024871929   0.02516193            3 
 1148000    1.0658985   -7.6329516    340.92567  0.024747799  0.025153498            2 
 1149000    1.0567269   -7.6192589    341.33024  0.024755602  0.025144967            1 
 1150000    1.0739603   -7.6082131     342.5216  0.024820406  0.025136469            2 
 1151000    1.0796172   -7.6259235    342.54777  0.024800736   0.02512821            1 
 1152000     1.106471   -7.5885615    343.93246  0.024879374  0.025119848            1 
 1153000    1.0723677   -7.6034265    343.31534  0.024813193  0.025111759            2 
 1154000     1.067305   -7.6252952    343.47525  0.024803238   0.02510355            4 
 1155000    1.0757882   -7.6250546    343.77002  0.024803032  0.025095489            4 
 1156000     1.064854   -7.6000262    343.96218  0.024795428  0.025087368            4 
 1157000    1.0624001   -7.6174874    345.91601  0.024914723  0.025079156            1 
 1158000    1.0623663   -7.6131932    344.32307  0.024778574  0.025071038            2 
 1159000    1.0710698   -7.6174992    344.42914  0.024764821  0.025062916            2 
 1160000    1.0574255   -7.6238607    345.61511  0.024828672  0.025054784            2 
 1161000    1.0576322   -7.6346819    344.42661  0.024721979  0.025046524            5 
 1162000    1.0513459   -7.5918587     345.9956  0.024813224  0.025038407            2 
 1163000    1.0448973   -7.5600342    346.78747  0.024848629  0.025030323            1 
 1164000    1.0703351   -7.5738834    346.14854  0.024781539  0.025022413            2 
 1165000    1.0684718   -7.5700749    347.01383  0.024822163  0.025014524            2 
 1166000    1.0609551   -7.6054085    346.38312  0.024755798   0.02500662            3 
 1167000    1.0703238   -7.5888613    346.67461  0.024755399  0.024998649            1 
 1168000    1.0837094   -7.6191669    346.14688  0.024696552  0.024990591            2 
 1169000    1.0491294   -7.6142703    346.86415  0.024726558  0.024982419            1 
 1170000    1.0692771   -7.5849034    347.00876  0.024715723  0.024974323            1 
 1171000    1.0646838   -7.6125219    346.37916  0.024649812  0.024966304            2 
 1172000    1.1009401   -7.6151903    347.20321  0.024687373  0.024958318            4 
 1173000    1.0525994   -7.6204916    347.07011  0.024656871  0.024950334            3 
 1174000    1.0475439   -7.6224618    347.58277  0.024672258   0.02494236            2 
 1175000    1.0433905   -7.6481048    347.71256  0.024660465  0.024934324            2 
 1176000    1.0413623    -7.660938    348.07054  0.024664862  0.024926154            1 
 1177000    1.0661405   -7.5894358    348.56715  0.024679067  0.024918079            4 
 1178000    1.0607836   -7.5795377    348.88927  0.024680905  0.024910201            2 
 1179000    1.0667598   -7.6271671    349.94309  0.024734456  0.024902478            2 
 1180000    1.0510822   -7.6410936    348.88873  0.024639034  0.024894505            4 
 1181000    1.0695727   -7.5948187    349.08228  0.024631829  0.024886564            2 
 1182000    1.0562573   -7.6249736    348.76568  0.024588669  0.024878679            3 
 1183000    1.0695142    -7.579115    350.05512  0.024658715  0.024870762            4 
 1184000    1.0638177   -7.5956834    350.96386  0.024701848  0.024862876            2 
 1185000    1.0829188    -7.581577     350.8334  0.024671829  0.024855089            5 
 1186000    1.0453099    -7.610884    350.56409  0.024632103   0.02484716            1 
 1187000    1.0478384   -7.6027977    350.86622  0.024632562  0.024839181            2 
 1188000    1.0802744   -7.6077394    351.57672  0.024661667  0.024831224            7 
 1189000    1.0513793   -7.6140576    350.44906  0.024561891  0.024823229            6 
 1190000    1.0569488   -7.6021457    351.05273  0.024583525  0.024815343            2 
 1191000     1.077395   -7.6042808       351.82  0.024616568  0.024807458            3 
 1192000    1.0676537   -7.6567381    349.95048  0.024465218  0.024799451            3 
 1193000    1.0575941   -7.6109367    350.73334  0.024499395  0.024791371            2 
 1194000    1.0757611    -7.607302    351.99088  0.024566644  0.024783284            1 
 1195000    1.0579169   -7.6284574    351.99198  0.024546163  0.024775296            5 
 1196000    1.0788148   -7.6616144    351.08809   0.02446266  0.024767203            2 
 1197000    1.0466473   -7.5600509    353.18778    0.0245884  0.024759224            3 
 1198000    1.0288903   -7.6047459    352.55155  0.024523619   0.02475113            2 
 1199000    1.0860511   -7.6285064     350.8606  0.024385641  0.024742743            4 
 1200000    1.0713723   -7.6790948    351.48107  0.024408408   0.02473448            3 
 1201000    1.0767357   -7.6540045    352.28804  0.024444077  0.024726079            3 
 1202000    1.0852588   -7.6472886    352.27203  0.024422631  0.024717816            1 
 1203000    1.0625161   -7.6433095    352.02625  0.024385304  0.024709545            1 
 1204000     1.049415   -7.5817875    352.97152  0.024430476  0.024701418            2 
 1205000    1.0725471   -7.6491454    353.06197  0.024416457  0.024693291            1 
 1206000    1.0598495   -7.6053145    353.93926  0.024456831  0.024685098            6 
 1207000    1.0623089   -7.6305082    352.89936  0.024364772  0.024676839            1 
 1208000    1.0771159   -7.6141326    353.67656  0.024398217  0.024668793            1 
 1209000    1.0578034   -7.6412353    353.83738  0.024389122  0.024660736            5 
 1210000    1.0604298   -7.6019359    354.71808   0.02442962   0.02465269            1 
 1211000    1.0638595    -7.605168    354.43348  0.024389863  0.024644668            2 
 1212000    1.0745548   -7.6036608    355.05126  0.024412215  0.024636554            2 
 1213000    1.0533235   -7.6176647    353.22621  0.024266709  0.024628291            2 
 1214000    1.0692269   -7.6252492    354.08759  0.024305848  0.024620031            5 
 1215000    1.0529163    -7.659087    353.72398  0.024260904  0.024611645            3 
 1216000    1.0335756   -7.6274033     354.5514  0.024297657  0.024603364            1 
 1217000    1.0565438   -7.6497909    355.31069  0.024329683  0.024595174            2 
 1218000    1.0583189   -7.6110896    355.23972  0.024304852  0.024586971            2 
 1219000    1.0657675   -7.5997834    357.18076  0.024417607  0.024578876            3 
 1220000    1.0374869   -7.6055887     356.2106  0.024331325  0.024570909            2 
 1221000    1.0388455    -7.608323     356.4272  0.024326181   0.02456274            1 
 1222000    1.0595614   -7.5967766    357.00266  0.024345517  0.024554649            2 
 1223000    1.0653194   -7.6301582    356.02288   0.02425885    0.0245464            2 
 1224000    1.0448662   -7.5939018    356.18172  0.024249845  0.024538238            2 
 1225000    1.0534714   -7.6238397    356.17182  0.024229375  0.024530008            1 
 1226000    1.0400568   -7.5895609    357.03773   0.02426847  0.024521767            3 
 1227000    1.0596026   -7.6423961    356.51487   0.02421318  0.024513504            1 
 1228000    1.0641792   -7.6322916    358.15008   0.02430443  0.024505297            1 
 1229000    1.0473911    -7.632143    357.48379  0.024239476   0.02449716            1 
 1230000    1.0650575   -7.6427824    357.66559  0.024232086  0.024489057            4 
 1231000    1.0434376   -7.5950973    359.04365   0.02430569  0.024481044            1 
 1232000    1.0420326    -7.628908    358.36929  0.024240347  0.024473043            4 
 1233000    1.0579628   -7.6400879     359.5054  0.024297472  0.024465034            4 
 1234000    1.0670154   -7.6258343    359.49336  0.024276969  0.024457013            3 
 1235000    1.0381208   -7.6938726    358.73657  0.024206246  0.024448903            3 
 1236000    1.0548717   -7.6233928    358.64427  0.024180439  0.024440929            3 
 1237000    1.0592735   -7.6485782    358.97418  0.024183116  0.024432822            2 
 1238000    1.0609226   -7.6166207    359.64993  0.024209069  0.024424705            2 
 1239000    1.0473303   -7.6238651    359.52924  0.024181413  0.024416676            3 
 1240000    1.0673699   -7.6966098    359.39319  0.024152768  0.024408543            3 
 1241000    1.0566115   -7.6238647    360.03053  0.024176103  0.024400404            2 
 1242000    1.0588893   -7.6174251    360.22222  0.024169499  0.024392399            7 
 1243000    1.0514338   -7.6428115    361.51542  0.024236754  0.024384535            2 
 1244000    1.0416084   -7.6695513    360.28157  0.024134618  0.024376534            2 
 1245000    1.0502785   -7.6153662    360.97394  0.024161575   0.02436863            4 
 1246000    1.0466323   -7.6488257    360.80443  0.024130847  0.024360612            2 
 1247000    1.0569518   -7.6699645    361.09235  0.024130737   0.02435267            3 
 1248000    1.0688123   -7.6684791    361.26965   0.02412324  0.024344869            2 
 1249000     1.058868   -7.6348006    361.91738  0.024147143  0.024337113            2 
 1250000    1.0592769   -7.6435541    362.61419  0.024174279  0.024329246            6 
 1251000    1.0401121   -7.6394693      361.893  0.024106915  0.024321353            3 
 1252000    1.0384174   -7.6359305    362.48716  0.024127207  0.024313565            1 
 1253000     1.074415   -7.6288664    362.70354  0.024122342  0.024305828            3 
 1254000    1.0767198   -7.6045627    363.78867  0.024175218  0.024298134            1 
 1255000    1.0471531   -7.6606556    362.37751  0.024062252  0.024290378            2 
 1256000    1.0580155   -7.6669245    363.21627  0.024098744  0.024282602            4 
 1257000    1.0474361   -7.6566453    364.31939  0.024152704  0.024274775            2 
 1258000    1.0787225   -7.6843947     362.9767  0.024044561  0.024267055            3 
 1259000    1.0513423   -7.6141551    365.63036  0.024201109  0.024259337            2 
 1260000    1.0486146   -7.6160811    364.30366  0.024094157  0.024251717            2 
 1261000    1.0482194   -7.6483592     365.0259  0.024122779  0.024244133            2 
 1262000    1.0542939   -7.6819458    364.66305  0.024079705  0.024236519            2 
 1263000    1.0596001   -7.6321273    365.56564  0.024120193   0.02422899            2 
 1264000     1.041578   -7.6642512    364.92174  0.024058659  0.024221553            3 
 1265000    1.0556648   -7.6599261    365.10081  0.024051437  0.024214008            2 
 1266000    1.0386136   -7.6631453    365.56045  0.024062694  0.024206394            3 
 1267000    1.0504319   -7.6651216    365.56231  0.024043824  0.024198815            2 
 1268000    1.0268178   -7.6331353    365.85521  0.024044112  0.024191322            2 
 1269000    1.0482588   -7.6883024    366.78332  0.024086113  0.024183717            2 
 1270000    1.0565898   -7.6593107    366.75313  0.024065166  0.024176158            2 
 1271000    1.0268408   -7.6221819    366.71911  0.024044001  0.024168696            1 
 1272000    1.0631642   -7.6344935    367.42681  0.024071463   0.02416125            3 
 1273000    1.0517196   -7.6554088    367.52743   0.02405914  0.024153806            2 
 1274000    1.0375748   -7.6676278     366.9708  0.024003846  0.024146408            2 
 1275000    1.0705849   -7.6558863    367.25103  0.024003335  0.024138991            3 
 1276000    1.0536562   -7.6560701     367.6653  0.024011579  0.024131449            2 
 1277000    1.0498441   -7.6453819    367.69797  0.023994908  0.024123952            3 
 1278000    1.0450198   -7.6215987    368.05334  0.023999305  0.024116491            3 
 1279000    1.0350054   -7.6346512    368.69961  0.024022649  0.024109152            2 
 1280000    1.0374757   -7.6412932    368.44041  0.023987006  0.024101579            1 
 1281000    1.0397136   -7.6791822    368.90429  0.023998458  0.024093926            3 
 1282000    1.0585863   -7.6477744     368.1363  0.023929816  0.024086139            2 
 1283000    1.0402392   -7.6893265    368.09802  0.023908679  0.024078341            1 
 1284000    1.0501973   -7.6167429    368.25156  0.023900023  0.024070588            4 
 1285000    1.0713659   -7.6441819     369.4651  0.023960123  0.024062902            2 
 1286000    1.0338069   -7.6497128    368.32928   0.02386789   0.02405521            4 
 1287000    1.0482101   -7.6821027    368.00806  0.023828545  0.024047288            3 
 1288000    1.0255883   -7.6676195    368.22797  0.023824274  0.024039435            2 
 1289000    1.0614835    -7.645885    369.45428  0.023885071   0.02403158            6 
 1290000    1.0559871   -7.6758142    368.39652  0.023798225  0.024023666            3 
 1291000    1.0487751   -7.6311462    369.69657  0.023863708  0.024015814            2 
 1292000    1.0294338    -7.647514    369.77004  0.023849977  0.024008062            2 
 1293000    1.0496296   -7.6485955    369.74639  0.023830007  0.024000236            2 
 1294000    1.0713699   -7.6500314    369.98834  0.023827173  0.023992434            1 
 1295000    1.0330243   -7.6314458    371.56952  0.023910522  0.023984795            2 
 1296000    1.0665858   -7.6501763    370.24528  0.023806924  0.023977133            2 
 1297000    1.0274736   -7.6401378    371.10335    0.0238437  0.023969492            1 
 1298000    1.0416819   -7.6703923     370.0325   0.02375658   0.02396178            2 
 1299000    1.0605167   -7.6885321    370.34926  0.023758613  0.023953968            2 
 1300000     1.032283    -7.662901    371.89971  0.023839725  0.023946153            4 
 1301000    1.0312107   -7.7158795    370.60644  0.023738563  0.023938383            5 
 1302000    1.0559192   -7.6985757    372.05474  0.023813027  0.023930627            2 
 1303000    1.0536713   -7.6478618    371.86631  0.023782701   0.02392299            3 
 1304000    1.0436295   -7.7094449     372.5655  0.023809145  0.023915409            2 
 1305000    1.0482132   -7.6340289    373.16991  0.023829496  0.023907825            4 
 1306000    1.0392314   -7.6561585    372.93715  0.023796398  0.023900252            1 
 1307000    1.0482399   -7.6631269    372.52661  0.023752015  0.023892535            2 
 1308000      1.06032    -7.632888    373.68023  0.023807354  0.023884896            2 
 1309000    1.0363877   -7.6623944    372.52149  0.023715399  0.023877179            1 
 1310000    1.0157768   -7.6951756    372.81709    0.0237161  0.023869476            3 
 1311000     1.042484   -7.6419326    373.81789  0.023761625  0.023861887            3 
 1312000    1.0266375    -7.692141    372.52661  0.023661497  0.023854208            2 
 1313000    1.0634854   -7.6736929    372.06606  0.023614246  0.023846478            2 
 1314000    1.0460171   -7.7320626    372.59194  0.023629626   0.02383872            7 
 1315000    1.0385519   -7.6702792    372.95787  0.023634846  0.023831036            3 
 1316000    1.0399218   -7.6449168    374.54926  0.023717658  0.023823348            4 
 1317000    1.0442112   -7.6789822    374.18231  0.023676431  0.023815614            4 
 1318000    1.0517642   -7.6718073    374.33106  0.023667872  0.023807966            3 
 1319000    1.0647327   -7.6884556    374.75352  0.023676619  0.023800225            5 
 1320000    1.0345891   -7.6785131    374.46178  0.023640264  0.023792472            1 
 1321000    1.0424843   -7.6574861     375.1609  0.023666471  0.023784817            4 
 1322000    1.0307876   -7.6716596      374.998    0.0236383   0.02377717            1 
 1323000    1.0340406    -7.655051    374.48279  0.023587981  0.023769624            5 
 1324000    1.0325757   -7.6650995    376.13755  0.023674317  0.023762078            3 
 1325000    1.0257452   -7.6455193    376.31648  0.023667703  0.023754506            2 
 1326000    1.0263046   -7.6905734    375.51724  0.023599626  0.023746891            2 
 1327000    1.0256277   -7.6617198    376.92903  0.023670499  0.023739391            3 
 1328000    1.0314222   -7.6960133    375.56544  0.023567108  0.023731781            3 
 1329000    1.0383634   -7.7176549    375.86709   0.02356829  0.023724229            2 
 1330000    1.0723062   -7.6591862    377.35663  0.023643899  0.023716708            2 
 1331000    1.0363896   -7.6234595    377.72336  0.023649096  0.023709248            2 
 1332000    1.0336116   -7.6733154    377.73986  0.023632374  0.023701737            3 
 1333000    1.0256841   -7.7263213    377.06222  0.023572282  0.023694203            1 
 1334000    1.0366485   -7.6872172    377.65138  0.023591416  0.023686665            3 
 1335000    1.0211968   -7.7163702    377.39028  0.023557445  0.023679022            1 
 1336000   0.99954693   -7.6749894    377.93944  0.023574067  0.023671556            3 
 1337000    1.0438287   -7.6481209    378.40228  0.023585283  0.023664148            2 
 1338000    1.0254467   -7.6776161    378.16775  0.023553049  0.023656765            1 
 1339000    1.0242324   -7.6903549    378.15184  0.023534469  0.023649276            1 
 1340000    1.0230751   -7.6712579    379.40781  0.023595013  0.023641709            6 
 1341000    1.0294528   -7.6617209    379.82863  0.023603569   0.02363417            2 
 1342000    1.0381809   -7.6471515    379.94832  0.023593413  0.023626737            2 
 1343000    1.0530901   -7.7161502    379.09124  0.023522663  0.023619336            3 
 1344000    1.0409535   -7.6840172    380.29248  0.023579643  0.023611962            2 
 1345000    1.0204851   -7.6965374    379.29456  0.023500283  0.023604474            3 
 1346000    1.0290379   -7.6963252    378.99305  0.023464156  0.023596919            3 
 1347000     1.055473   -7.6581199     380.3231  0.023529021  0.023589454            2 
 1348000    1.0293553   -7.6768313    379.72886   0.02347483  0.023581777            3 
 1349000    1.0494691   -7.6625301    380.80124  0.023523674  0.023574313            3 
 1350000    1.0258705   -7.6898869    380.55971   0.02349134  0.023566919            2 
 1351000    1.0389719   -7.6946072    380.60492  0.023476741  0.023559539            2 
 1352000    1.0287191   -7.6551235    381.07928  0.023488614  0.023552105            2 
 1353000    1.0285477   -7.6850248    380.00447  0.023405055  0.023544665            3 
 1354000    1.0198459   -7.7128012     380.3437  0.023408647  0.023537226            2 
 1355000    1.0143064   -7.6575908     381.4838  0.023461488  0.023529729            5 
 1356000    1.0372887   -7.7008998    381.52695  0.023446838  0.023522203            4 
 1357000    1.0323319   -7.6589453    381.46069  0.023425491   0.02351471            3 
 1358000    1.0326671   -7.6916742    381.05196  0.023383159  0.023507264            1 
 1359000    1.0169754   -7.6513496    382.02735  0.023425764  0.023499983            2 
 1360000    1.0243517   -7.6928041    381.64749  0.023385263  0.023492637            2 
 1361000    1.0410927   -7.6852584    383.35741  0.023472778  0.023485293            3 
 1362000    1.0530093   -7.6983028    382.83078  0.023423322  0.023478029            8 
 1363000      1.01374   -7.6949372    382.75253  0.023401353  0.023470871            5 
 1364000    1.0332764   -7.6924528    382.82523  0.023388638  0.023463647            4 
 1365000    1.0410008   -7.6965985     384.1331  0.023451349  0.023456386            3 
 1366000       1.0265   -7.6972052     382.9941  0.023364696  0.023449071            2 
 1367000    1.0419664   -7.7239611    382.58753  0.023322819   0.02344161            6 
 1368000    1.0019026   -7.6753891    383.79863  0.023379546  0.023434246            4 
 1369000    1.0438075   -7.6681623     383.0807  0.023318767     0.023427            2 
 1370000    1.0355737   -7.6871728     384.4924  0.023387616  0.023419646            3 
 1371000    1.0235529   -7.6601728    383.37452  0.023302609  0.023412311            4 
 1372000    1.0353113   -7.6981413    383.68376  0.023304407  0.023404878            1 
 1373000    1.0422508   -7.6898098    384.43057  0.023332761  0.023397413            2 
 1374000    1.0276084   -7.6635989    384.11257  0.023296493  0.023390093            1 
 1375000     1.034008   -7.6501135    385.06962  0.023337553  0.023382664            5 
 1376000    1.0245732    -7.703275    383.78182  0.023242601  0.023375181            1 
 1377000     1.027688   -7.6965186    384.80623  0.023287717  0.023367657            6 
 1378000    1.0460396   -7.6718854    385.43485  0.023308832  0.023360198            2 
 1379000    1.0379058   -7.6754983    384.56577  0.023239411  0.023352807            3 
 1380000     1.015258   -7.6765453    385.61332  0.023285829  0.023345618            3 
 1381000    1.0323258    -7.717932    386.15894  0.023301891  0.023338271            5 
 1382000    1.0361916   -7.6454549    386.21106  0.023288173  0.023330965            2 
 1383000    1.0195365   -7.6674478    386.95696  0.023316279  0.023323753            6 
 1384000    1.0362457   -7.6545435    387.02679  0.023303636  0.023316482            2 
 1385000    1.0445821   -7.6935037    387.18694  0.023296446  0.023309221            4 
 1386000    1.0421395   -7.6511274    387.77032  0.023314714  0.023301948            2 
 1387000    1.0164325   -7.7321923    386.75599  0.023236962  0.023294562            2 
 1388000    1.0317459   -7.7317456    386.40688   0.02319926  0.023287161            2 
 1389000    1.0595539   -7.6885812    386.67292  0.023198519  0.023279812            2 
 1390000    1.0358938   -7.6533046    387.91707  0.023256419  0.023272464            6 
 1391000    1.0295765   -7.6700623    388.19346  0.023256258  0.023265178            2 
 1392000    1.0654654   -7.6623488    388.51029  0.023258518  0.023258032            1 
 1393000     1.018308   -7.7215205    386.55964  0.023125128  0.023250762            2 
 1394000     1.012605   -7.7042962    387.52366  0.023166168  0.023243352            2 
 1395000    1.0332397   -7.6815833     388.5269  0.023209492  0.023235957            2 
 1396000    1.0273332   -7.6907111    388.40027  0.023185308  0.023228709            2 
 1397000    1.0482755   -7.7340643    388.28847  0.023162042  0.023221365            1 
 1398000    1.0147127   -7.6960941    389.05383  0.023191096  0.023214095            2 
 1399000    1.0331069   -7.7035333    388.45677  0.023138955  0.023206766            2 
 1400000    1.0185717   -7.6795041    390.15916  0.023223759  0.023199556            4 
 1401000     1.024515   -7.7142507    389.64516  0.023176609  0.023192364            2 
 1402000    1.0332956   -7.6887443    389.98054  0.023180013  0.023185276            3 
 1403000    1.0422331    -7.680528    390.45291  0.023191549  0.023178094            4 
 1404000     1.043223   -7.6546974    390.71223  0.023190422  0.023171082            7 
 1405000    1.0321604   -7.6945512    391.08147  0.023195817  0.023163958            1 
 1406000    1.0536478   -7.6936123    390.66147  0.023154426  0.023156907            5 
 1407000    1.0367002   -7.7064259    390.37953  0.023121271  0.023149777            1 
 1408000    1.0372162   -7.7216162    391.17414  0.023151879  0.023142586            4 
 1409000     1.040109   -7.7423314    391.90863  0.023178887  0.023135424            3 
 1410000    1.0258275   -7.7187752    390.75039  0.023093995  0.023128231            8 
 1411000    1.0157951   -7.7330116    390.39121  0.023056414  0.023120983            2 
 1412000    1.0312739   -7.7165817    391.71239  0.023118059  0.023113786            2 
 1413000    1.0176305   -7.7358317    391.08929   0.02306495  0.023106618            4 
 1414000    1.0268435   -7.7232877    391.36169  0.023064692  0.023099504            4 
 1415000    1.0294597   -7.7237986    391.21155   0.02303955  0.023092337            4 
 1416000    1.0116096   -7.6856748    392.71856  0.023111968  0.023085168            2 
 1417000    1.0138473    -7.673717    393.83123  0.023161093   0.02307807            2 
 1418000    1.0338365    -7.739187    392.55141  0.023069547  0.023070881            3 
 1419000    1.0219853   -7.7037941    392.04018  0.023023266  0.023063668            9 
 1420000    1.0594475   -7.7267963    392.04352  0.023007249  0.023056511            4 
 1421000    1.0149387   -7.7181051     392.5401   0.02302018  0.023049151            3 
 1422000    1.0208528   -7.6876912    392.40229  0.022995915   0.02304184            3 
 1423000    1.0225425   -7.7279452    391.79309  0.022944079  0.023034531            2 
 1424000    1.0244243   -7.7310613    392.19947  0.022951748  0.023027383            1 
 1425000    1.0186897   -7.7272986    392.91881  0.022977708  0.023020049            2 
 1426000    1.0323082   -7.7188352    392.41916  0.022932396  0.023012738            2 
 1427000    1.0195206   -7.7589729    393.69641  0.022990914  0.023005432            3 
 1428000    1.0367803   -7.7389192    392.40499  0.022899451  0.022998191            3 
 1429000    1.0101958   -7.7068831    394.41907  0.023000879  0.022990997            5 
 1430000    1.0020101    -7.716798    393.96867  0.022958547  0.022983822            3 
 1431000    1.0259023   -7.7224097     394.5511  0.022976421  0.022976669            3 
 1432000    1.0102618   -7.7041659    394.16479  0.022937895  0.022969574            3 
 1433000    1.0188258   -7.6861357    394.89855  0.022964559  0.022962444            1 
 1434000    1.0285703   -7.7351254    394.32531  0.022915232  0.022955231            1 
 1435000    1.0095009   -7.7640294    393.42658  0.022847072  0.022947899            2 
 1436000    1.0389658   -7.7172424    395.54141  0.022953889  0.022940738            2 
 1437000     1.042228   -7.6755693    396.09722  0.022970147  0.022933549            2 
 1438000    1.0221542   -7.6989484    395.58887  0.022924714  0.022926458            4 
 1439000    1.0189691   -7.7438164     394.0271   0.02281834  0.022919218            3 
 1440000    1.0247752   -7.7534539     394.7592  0.022844861  0.022911966            2 
 1441000    1.0307783   -7.7082941    395.12943  0.022850418  0.022904843            2 
 1442000    1.0279865   -7.7489339    396.07105  0.022888988  0.022897588            3 
 1443000    1.0207724   -7.6985346      397.178  0.022937052   0.02289042            1 
 1444000    1.0402216   -7.7228389    395.44643  0.022821239  0.022883189            2 
 1445000    1.0148897   -7.7334193    395.54903  0.022811363  0.022875905            4 
 1446000    1.0247739   -7.7738763     394.8571  0.022755711  0.022868583            4 
 1447000    1.0187316   -7.7392257    396.51555  0.022835496  0.022861396            2 
 1448000    1.0267861   -7.7173804    396.90768  0.022842293  0.022854251            3 
 1449000     1.018111   -7.7243483    397.28901  0.022848459  0.022847073            3 
 1450000    1.0283675   -7.7305989    397.73034  0.022858065  0.022839995            2 
 1451000    1.0118814   -7.7461418    398.00232  0.022857933  0.022832956            1 
 1452000    0.9998557   -7.7337144    398.36836  0.022863198  0.022825907            3 
 1453000    1.0038556   -7.7244043    397.78622  0.022814075  0.022818969            1 
 1454000     1.018207   -7.7351849    397.96857  0.022808836  0.022811991            3 
 1455000    1.0258602   -7.7241955    398.28648  0.022811367  0.022805002            2 
 1456000    1.0128494   -7.7537212    399.18781  0.022847288  0.022798071            3 
 1457000     1.034735   -7.7176284    398.62242  0.022799269  0.022791046            3 
 1458000   0.99429477   -7.6998415    398.85888  0.022797147  0.022784034            2 
 1459000    1.0121818   -7.7264881    399.22244  0.022802287  0.022777018            3 
 1460000   0.99453296   -7.6881818    400.04282  0.022833494  0.022770159            3 
 1461000     1.034857   -7.7232498    399.70056  0.022798344  0.022763087            4 
 1462000    1.0058095   -7.7452086    399.05425   0.02274591  0.022756032            3 
 1463000    1.0279376   -7.7427278    398.90914  0.022722097  0.022748989            3 
 1464000    1.0133846    -7.701933    399.43657  0.022736599  0.022741924            2 
 1465000    1.0199224   -7.7619656    398.94012  0.022692839  0.022734821            2 
 1466000    1.0341719   -7.7143219    399.96457  0.022735594  0.022727698            2 
 1467000   0.99919552   -7.7528077    399.50143  0.022693787  0.022720489            8 
 1468000    1.0448866   -7.7136241    400.28965  0.022723073   0.02271329            2 
 1469000     1.001409    -7.716547    400.63347  0.022727109  0.022706238            2 
 1470000    1.0323846   -7.7323076    400.98461  0.022731554  0.022699139            2 
 1471000   0.99693689   -7.7945653    400.22941  0.022673318  0.022692041            2 
 1472000    1.0200937   -7.7798543    400.36541  0.022665614  0.022684923            3 
 1473000   0.99841906   -7.7153206    400.87545  0.022679082  0.022677774            2 
 1474000    1.0079183   -7.6943468    400.51762  0.022643465  0.022670607            2 
 1475000    1.0191379   -7.7102817    402.02037  0.022713015    0.0226635            2 
 1476000    1.0251959   -7.7346327    401.20015  0.022651318  0.022656267            1 
 1477000    1.0149176   -7.7415163    401.06022  0.022628087  0.022649047            3 
 1478000    1.0240012   -7.7003669    401.77212  0.022652916  0.022641949            2 
 1479000    1.0260459    -7.735142    401.35754   0.02261424  0.022634743            6 
 1480000    1.0109182    -7.736605    401.72651  0.022619736  0.022627602            3 
 1481000   0.99156589   -7.7497001    401.54636  0.022594326  0.022620354            3 
 1482000    1.0473241   -7.7134588    402.45334   0.02263008  0.022613158            3 
 1483000    1.0173845   -7.7175195    402.09586  0.022594733     0.022606            1 
 1484000   0.99560868   -7.7665164    402.51733  0.022603174  0.022598858            1 
 1485000    1.0193426   -7.7925549    401.69146  0.022541608  0.022591648            8 
 1486000    1.0177586   -7.6778369    403.18508    0.0226102  0.022584424            3 
 1487000     1.023424   -7.7487489    402.04126  0.022530893  0.022577153            5 
 1488000    1.0188986     -7.72674    403.42505  0.022593249  0.022569849            6 
 1489000    1.0014516   -7.7179691    403.25008  0.022568283   0.02256261            2 
 1490000     1.018016   -7.7220151    403.37954  0.022560377  0.022555499            5 
 1491000    1.0002051   -7.7379737    402.71089  0.022507875  0.022548168            2 
 1492000    1.0036782   -7.7780827    402.56171  0.022484457  0.022540844            4 
 1493000    1.0051967   -7.7396755    403.24904   0.02250776  0.022533455            3 
 1494000    1.0085114   -7.7421498    403.15077  0.022487214  0.022526155            2 
 1495000    1.0136724   -7.7323152    403.70378  0.022502998  0.022518753            3 
 1496000     1.016101   -7.7482919    403.06652  0.022452458  0.022511324            3 
 1497000    1.0167326   -7.7520338    403.16318   0.02244284  0.022503973            3 
 1498000    0.9946778   -7.7831864    403.32218  0.022436704  0.022496666            1 
 1499000    1.0142843   -7.7627172    402.61097  0.022382198  0.022489302            3 
 1500000    1.0005769   -7.7824052    403.11042  0.022395023  0.022481804            4 
 1501000    1.0005787    -7.759175    405.03089  0.022486725  0.022474401            2 
 1502000    1.0355601   -7.7649741    404.17598  0.022424322  0.022467036            6 
 1503000    1.0081149   -7.7394107    403.93764  0.022396188  0.022459812            2 
 1504000    1.0212856   -7.7337603    404.12356  0.022391598  0.022452443            3 
 1505000    1.0037677   -7.7694303    404.12697  0.022376909     0.022445            3 
 1506000    1.0255878   -7.7343324    404.15303  0.022363492  0.022437536            3 
 1507000    1.0129112   -7.7333102    404.21676  0.022352176  0.022430197            2 
 1508000   0.99304923   -7.7475753     404.6655  0.022362152   0.02242284            2 
 1509000   0.99580336   -7.8019785    403.84971  0.022302281  0.022415323            5 
 1510000    1.0230386   -7.6964035    405.38709  0.022372356  0.022407952            2 
 1511000   0.99983937   -7.6944557    406.18203  0.022401392  0.022400581            6 
 1512000    1.0061771   -7.7942002    404.92935  0.022317535  0.022393079            3 
 1513000     1.013693    -7.765836    404.47563  0.022277794  0.022385581            3 
 1514000    1.0107396   -7.7506444    405.08652  0.022296704  0.022378115            2 
 1515000    1.0117935   -7.7092765    405.05507  0.022280257  0.022370697            2 
 1516000    0.9854711   -7.7529096    406.83463  0.022363381  0.022363321            2 
 1517000   0.98113512   -7.7298716    405.19755   0.02225871  0.022355831            4 
 1518000   0.99951458   -7.7277424    406.17934  0.022297944   0.02234839            4 
 1519000     1.026512   -7.7834257    404.61501  0.022197444  0.022340854            5 
 1520000    1.0072369    -7.765968     406.7832   0.02230171  0.022333415            2 
 1521000    1.0321011   -7.7672762    406.09636  0.022249417  0.022325965            2 
 1522000    1.0193807   -7.7356275    406.60664  0.022262738   0.02231865            2 
 1523000    1.0107781   -7.7725377    406.26852  0.022229619  0.022311346            3 
 1524000   0.98579186   -7.7302156    406.40407  0.022222445  0.022303995            4 
 1525000   0.99442775   -7.7178959    407.85372  0.022287089  0.022296721            1 
 1526000     1.015996   -7.7703149    407.93204   0.02227676  0.022289441            2 
 1527000    1.0103484   -7.7973726    407.12379  0.022218063  0.022282102            3 
 1528000    1.0170952   -7.7225452    407.75882  0.022238156  0.022274748            1 
 1529000    1.0149958    -7.731587    408.70577  0.022275222  0.022267609            2 
 1530000    1.0239274   -7.7109034    409.49225    0.0223035  0.022260529            4 
 1531000   0.98852446   -7.7790237    407.65392   0.02218887  0.022253378            6 
 1532000    1.0103053   -7.7750375    407.99156  0.022192753  0.022246108            2 
 1533000   0.99484868   -7.7767318    408.88545  0.022226867   0.02223888            2 
 1534000    1.0147732   -7.7351902    408.16568  0.022173277  0.022231522            2 
 1535000   0.99695655    -7.770759    408.54743  0.022179557  0.022224292            3 
 1536000    1.0298911   -7.7909519    409.09972   0.02219508  0.022216918            1 
 1537000   0.98263171   -7.7568031    409.12792  0.022182169  0.022209778            8 
 1538000    1.0027362    -7.730786    408.97317  0.022159361  0.022202554            4 
 1539000    1.0281609   -7.7659904     409.6345  0.022180772  0.022195392            4 
 1540000    1.0016578   -7.7585891    410.34257  0.022204684  0.022188166            1 
 1541000     1.013168   -7.7676875    409.07808  0.022121895  0.022180899            3 
 1542000    1.0153316   -7.7840027    410.18625  0.022167437  0.022173661            6 
 1543000   0.99993811   -7.7674705    410.19709  0.022153656  0.022166337            2 
 1544000   0.98488431   -7.7807024    409.52933  0.022103267  0.022158941            3 
 1545000    1.0025835   -7.7184616    410.63161  0.022148415    0.0221517            6 
 1546000    1.0091135   -7.7665711      410.598  0.022132277  0.022144521            2 
 1547000    1.0234445    -7.754368    410.84172  0.022131099   0.02213728            2 
 1548000   0.99173591   -7.7340136     411.5466  0.022154748  0.022130074            4 
 1549000   0.99344216   -7.7636917    411.93937  0.022161576  0.022122915            2 
 1550000    0.9978598   -7.7630443    410.98725  0.022096089  0.022115708            3 
 1551000    1.0207956   -7.7869555    410.03879  0.022030883  0.022108377            2 
 1552000   0.99484638   -7.7827787    411.27954  0.022083309  0.022101187            3 
 1553000   0.99615726   -7.7662825    411.07284  0.022057998  0.022093896            2 
 1554000    1.0229312   -7.7658122    410.83774  0.022031196  0.022086637            4 
 1555000   0.98908363   -7.7865055    411.35039  0.022044501  0.022079453            4 
 1556000   0.99403373   -7.8012187    409.88893  0.021952064  0.022072298            3 
 1557000   0.99135537   -7.7680337    413.27668  0.022119283  0.022065123            3 
 1558000   0.99432935   -7.7836855    411.77281  0.022024647  0.022057972            1 
 1559000   0.98562703   -7.7551749     413.6602  0.022111407  0.022050852            2 
 1560000    1.0111311   -7.7902661    412.37426  0.022028539  0.022043778            2 
 1561000   0.98965398   -7.7129845    413.07462  0.022051816  0.022036689            2 
 1562000     1.001982   -7.7637793    413.10047  0.022039078  0.022029716            7 
 1563000    1.0034645   -7.7251981    413.48839   0.02204566  0.022022707            2 
 1564000    1.0003573   -7.7438399     414.8742  0.022105403  0.022015714            3 
 1565000    1.0375012   -7.7309644    413.88751  0.022038738  0.022008625            2 
 1566000    1.0019126    -7.783203    413.94337  0.022027638  0.022001639            2 
 1567000    1.0024894   -7.7875241    414.67151  0.022052303  0.021994697            3 
 1568000    1.0044763   -7.7553272    415.02283  0.022056911  0.021987835            5 
 1569000   0.99695804    -7.776285    414.92759  0.022037794  0.021980938            2 
 1570000   0.99337075   -7.7489031    415.51465  0.022054918  0.021974025            3 
 1571000    1.0134497   -7.7559151    415.67454   0.02204936  0.021967132            1 
 1572000    1.0150728   -7.7852548    415.67532  0.022035375  0.021960148            1 
 1573000   0.97726946   -7.7774104    414.80353  0.021975182  0.021953184            5 
 1574000   0.99183924   -7.7915442    414.24816  0.021931817  0.021946149            1 
 1575000    1.0113058   -7.7787383    415.46514  0.021982282  0.021939063            4 
 1576000    1.0186191   -7.7862446    415.58756  0.021974808  0.021932008            2 
 1577000    1.0190731   -7.7774698    416.65787  0.022017431  0.021925086            2 
 1578000    1.0148447   -7.7575521    415.90498  0.021963719  0.021918199            4 
 1579000    1.0016435   -7.7714859    416.80001  0.021997045  0.021911285            1 
 1580000   0.97086956   -7.8052874    414.83827  0.021879656  0.021904394            2 
 1581000    0.9967317   -7.7957664    416.06653  0.021930557   0.02189738            4 
 1582000   0.98693612   -7.8011561    415.87497  0.021906604  0.021890385            3 
 1583000    1.0082045   -7.7736224    415.08193  0.021851018  0.021883474            5 
 1584000   0.97384536   -7.8093672    416.56973  0.021915495    0.0218765            2 
 1585000   0.99455704   -7.7756103    416.80001  0.021913776  0.021869514            4 
 1586000    1.0069824   -7.7590796    417.53588  0.021938623  0.021862558            4 
 1587000    1.0055132   -7.7680846    418.24856  0.021962222  0.021855706            2 
 1588000   0.99445843   -7.7887093    417.72739  0.021921043  0.021848825            2 
 1589000    1.0087864   -7.7860663    417.81539  0.021911862  0.021842056            3 
 1590000    1.0208647   -7.7658649    418.49224  0.021933556  0.021835114            2 
 1591000   0.99827129   -7.7660005    418.76129  0.021933862  0.021828293            2 
 1592000   0.99214146   -7.7828109    417.76506  0.021867937  0.021821342            1 
 1593000   0.99954597   -7.7623605    417.62044  0.021846644  0.021814404            2 
 1594000   0.99472908   -7.8269804    416.71068  0.021785376  0.021807351            2 
 1595000    1.0099516   -7.7976181    417.23004  0.021798853  0.021800263            2 
 1596000    1.0209916   -7.8103366     417.9876  0.021824749  0.021793186            2 
 1597000   0.99871858   -7.7893748    417.57148   0.02178937  0.021786114            1 
 1598000    1.0030248   -7.8060125    418.22484  0.021809806  0.021779017            2 
 1599000   0.99202153    -7.772099    418.41472  0.021806062   0.02177201            8 
 1600000   0.99745659   -7.7918743    418.36207  0.021789691  0.021765014            5 
 1601000   0.98642481   -7.7763653    418.59525  0.021788218  0.021758089            4 
 1602000    1.0007332   -7.8131896    419.66392  0.021830208  0.021751069            3 
 1603000    1.0008497   -7.8208904      418.794  0.021771366   0.02174403            2 
 1604000   0.98799462   -7.8174812    418.21842   0.02172789  0.021736895            4 
 1605000    1.0259863   -7.7876604     419.8022  0.021796584  0.021729897            2 
 1606000    1.0049605   -7.7352806    420.82854  0.021836267  0.021722917            2 
 1607000   0.99865153   -7.7594028    420.01625  0.021780557  0.021715951            2 
 1608000   0.99053388   -7.7922219    419.60247  0.021745568  0.021708962            3 
 1609000   0.97548649   -7.7952354    418.90832  0.021696101  0.021701952            2 
 1610000   0.98464017   -7.8088706    418.48827  0.021660883  0.021694897            4 
 1611000    1.0101843   -7.7658806    419.18268  0.021683358  0.021687853            2 
 1612000    0.9744819   -7.7729016    419.70059   0.02169668  0.021680833            2 
 1613000    0.9980206   -7.8258076      419.082  0.021651271  0.021673875            5 
 1614000    1.0004855   -7.7716785    421.33719  0.021754295  0.021666884            2 
 1615000   0.99071911   -7.8045391    418.66421  0.021602901  0.021659853            5 
 1616000   0.99511836   -7.8509435    419.04226  0.021609028  0.021652702            4 
 1617000   0.95754133   -7.7983331    421.02167  0.021697674  0.021645576            3 
 1618000   0.99164736   -7.7773317    422.39163  0.021754822  0.021638542            4 
 1619000   0.99719771   -7.7859731    422.00409  0.021721438  0.021631543            1 
 1620000   0.98770904   -7.7973671    420.32359  0.021621584  0.021624514            2 
 1621000   0.98642778   -7.8040655    420.91288   0.02163854  0.021617463            3 
 1622000   0.98497316   -7.7882282    421.45704  0.021653157  0.021610436            3 
 1623000   0.99112514   -7.8183597    421.75433   0.02165508  0.021603401            2 
 1624000   0.98357296   -7.7994344    421.31867   0.02161939  0.021596386            3 
 1625000    1.0047708   -7.7787112      421.622  0.021621641  0.021589316            8 
 1626000   0.98588342   -7.8217264    421.09381  0.021581274  0.021582261            8 
 1627000   0.97404905   -7.8063066    422.45577  0.021637767  0.021575206            3 
 1628000    1.0015245   -7.7894467    422.39275   0.02162125   0.02156822            1 
 1629000   0.99057032   -7.8154627    422.58976  0.021618056  0.021561237            2 
 1630000   0.99143484   -7.7952139    423.71565  0.021662354  0.021554299            2 
 1631000   0.99642345   -7.7582427    423.78683   0.02165271  0.021547425            6 
 1632000   0.99032266   -7.7793243    422.68206   0.02158303  0.021540442            3 
 1633000   0.99353144   -7.7561453    424.97984  0.021687071  0.021533503            3 
 1634000    1.0074916   -7.7932183     423.4001  0.021593233  0.021526592            4 
 1635000   0.99742542   -7.7731939    423.52746  0.021586517  0.021519697            3 
 1636000   0.98797924   -7.7549156    424.02646   0.02159874  0.021512848            2 
 1637000   0.98950025   -7.8171951    423.27628  0.021547357  0.021505988            3 
 1638000   0.99027415   -7.7859041    422.84778  0.021512402  0.021499025            3 
 1639000   0.97479901   -7.8221616    424.23366  0.021569741   0.02149205            1 
 1640000    1.0013837    -7.800813    424.43499  0.021566818  0.021485051            2 
 1641000    1.0085174   -7.8231817    424.59146  0.021561622  0.021478021            4 
 1642000   0.98658521   -7.8187275    423.54325  0.021495293   0.02147099            2 
 1643000   0.97748819   -7.8050642    425.15572  0.021563995  0.021464099            5 
 1644000    1.0063457   -7.8105481    424.98344  0.021542145  0.021457166            4 
 1645000   0.97549143   -7.8058175    424.25165  0.021491978  0.021450177            3 
 1646000   0.99554188   -7.8248547    424.92738  0.021513132  0.021443227            2 
 1647000    1.0065109   -7.7677462    426.08653  0.021558719  0.021436376            4 
 1648000    1.0071507    -7.808355    424.35134  0.021457895  0.021429419            1 
 1649000   0.98263634   -7.8461332    424.98441  0.021476876  0.021422515            2 
 1650000    1.0123704   -7.7926486    426.39543  0.021535123  0.021415655            3 
 1651000    1.0140474   -7.8431965    424.70311   0.02143666  0.021408843            3 
 1652000   0.97366808   -7.8022601    426.41539  0.021510058  0.021402046            7 
 1653000   0.96478305   -7.7957434     426.4725  0.021499924  0.021395248            3 
 1654000   0.97894951   -7.8048677    425.87131  0.021456636  0.021388351            4 
 1655000   0.97109566    -7.807172    426.03856  0.021452093  0.021381427            2 
 1656000   0.99696677   -7.8428473    425.63984  0.021419074  0.021374542            2 
 1657000   0.97488671   -7.8330523    427.76743  0.021513148  0.021367737            6 
 1658000   0.98504664   -7.8250034    425.68629  0.021395572  0.021360851            1 
 1659000   0.97649644   -7.8418307    425.63059  0.021379877  0.021353959            5 
 1660000    1.0096185   -7.7789101    426.81808   0.02142661  0.021347102            2 
 1661000   0.98435803   -7.8205087    426.98561  0.021422116  0.021340242            5 
 1662000   0.97686496   -7.7852911    425.73946  0.021346744  0.021333357            5 
 1663000   0.98458174   -7.8297158    427.03263  0.021398708  0.021326533            3 
 1664000   0.98350471   -7.7997582    426.24158  0.021346233   0.02131963            3 
 1665000   0.98885224   -7.8294408    427.04378  0.021373563  0.021312776            3 
 1666000   0.97128335   -7.8265257    427.94908  0.021406017  0.021305891            2 
 1667000   0.97686699   -7.8258228    426.76053   0.02133376   0.02129901            3 
 1668000   0.97814751   -7.8333334      427.339   0.02134987  0.021292104            2 
 1669000   0.96268664   -7.7925663    427.87558   0.02136387   0.02128525            1 
 1670000   0.99619108   -7.7719433    429.02968  0.021408666  0.021278513            1 
 1671000   0.99044945   -7.8129152    427.32388  0.021310786   0.02127164            5 
 1672000   0.96601863   -7.8340067    426.70766  0.021267328  0.021264782            1 
 1673000   0.99155508    -7.803729    427.46479  0.021292329  0.021257966            2 
 1674000   0.96781937   -7.7648517    430.27335  0.021419422  0.021251242            3 
 1675000    0.9931135   -7.8129879    428.77659  0.021332169  0.021244422            3 
 1676000   0.98735517   -7.8247516    428.29217  0.021295354  0.021237593            5 
 1677000   0.97876643   -7.8124519    429.51941   0.02134364  0.021230746            2 
 1678000   0.97852968   -7.8524766    428.47901  0.021279252  0.021223927            2 
 1679000    0.9949736   -7.8424784     429.6044  0.021322434  0.021217021            2 
 1680000   0.99629236   -7.8196698    429.76428  0.021317673  0.021210202            2 
 1681000   0.97014625   -7.8536517    428.86821  0.021260569  0.021203406            7 
 1682000   0.98312328   -7.8292419    429.44758  0.021276634  0.021196601            3 
 1683000   0.96980892   -7.8392642       428.99  0.021241335  0.021189733            4 
 1684000   0.97786941   -7.8480531    428.96899  0.021227682  0.021182853            2 
 1685000    0.9657451   -7.8510244     429.6879  0.021250638   0.02117591            7 
 1686000   0.98257399   -7.8652703    429.89241  0.021248142  0.021169008            3 
 1687000   0.96861429   -7.7851609    430.68121  0.021274511  0.021162179            3 
 1688000   0.99322247   -7.8334178    430.06539  0.021231506   0.02115534            3 
 1689000   0.99497008   -7.8233946    431.31413  0.021280547  0.021148475            4 
 1690000   0.98644392   -7.8156888    430.45875  0.021225776  0.021141703            3 
 1691000    0.9824167   -7.8140022    431.81288  0.021279957  0.021134943            2 
 1692000   0.98139554   -7.8737378    430.34772  0.021195219  0.021128077            3 
 1693000   0.97312003   -7.8700379    430.02608  0.021166868  0.021121148            4 
 1694000   0.96534312   -7.8153828    431.03294  0.021203903  0.021114352            4 
 1695000   0.98377181   -7.8593742    430.61011  0.021170605  0.021107517            3 
 1696000   0.96029496   -7.8385854    431.49819  0.021201758  0.021100681            3 
 1697000   0.99642952   -7.8452395    430.65886  0.021148048  0.021093877            1 
 1698000   0.97941162   -7.8114689    430.93351  0.021149073   0.02108706            2 
 1699000   0.97347147   -7.8564827    431.66174  0.021172344  0.021080207            4 
 1700000   0.99408624   -7.8376399    430.82573  0.021118908   0.02107339            2 
 1701000   0.98223986   -7.8025751    432.38947  0.021183102  0.021066631            1 
 1702000   0.98127869   -7.8408279    431.43174  0.021123763  0.021059839            5 
 1703000   0.96256595   -7.8657301    430.48813  0.021065185  0.021052963            3 
 1704000   0.98330093   -7.8690766     430.1435  0.021035969  0.021046061            4 
 1705000   0.99538256   -7.7971719    432.71295  0.021149216  0.021039184            4 
 1706000   0.97846146   -7.8413163    432.34968  0.021119074  0.021032305            1 
 1707000    0.9604872   -7.8515994    430.89451  0.021035662  0.021025452            3 
 1708000   0.98437997   -7.7962799    434.26132  0.021187613  0.021018655            3 
 1709000   0.96215684   -7.8041767     433.4015  0.021133289  0.021011883            3 
 1710000   0.99814513   -7.8209583    433.47419  0.021124473  0.021005077            1 
 1711000   0.97884341   -7.8485727    432.74804   0.02107676  0.020998236            4 
 1712000   0.97356792   -7.8446663    433.24287  0.021088535  0.020991417            4 
 1713000   0.99120597   -7.8269286    432.98494  0.021063677  0.020984558            2 
 1714000   0.97476652    -7.839535    432.55104  0.021030292  0.020977715            7 
 1715000     0.990435   -7.8419143    432.84115  0.021032126  0.020970864            2 
 1716000   0.99778323    -7.861797    433.87331  0.021069994   0.02096398            2 
 1717000    0.9566095   -7.8617667    433.24378  0.021027169  0.020957128            2 
 1718000   0.97565606   -7.8351488    434.64144  0.021082724  0.020950343            1 
 1719000   0.98285326   -7.8755653    433.77565  0.021028488  0.020943608            4 
 1720000    0.9617238   -7.7873108    433.48925  0.021002386  0.020936736            2 
 1721000   0.99220793   -7.8299399    434.42957  0.021035714   0.02092989            4 
 1722000   0.96839601   -7.8538674    434.52515  0.021028124  0.020923021            2 
 1723000    0.9783059    -7.827309    434.12613  0.020996621  0.020916182            2 
 1724000   0.97628411   -7.8419374    434.61759  0.021008197  0.020909361            7 
 1725000   0.99845503   -7.8129651    435.21834  0.021025041  0.020902584            2 
 1726000     1.023056   -7.8347181    434.40077  0.020973386  0.020895808            3 
 1727000   0.96822869   -7.8635064    434.29773   0.02095627  0.020889023            3 
 1728000   0.95138368    -7.870049    435.45569  0.020999985   0.02088223            3 
 1729000   0.97441485    -7.845585    434.87478  0.020959841  0.020875423            2 
 1730000   0.98166235   -7.8810862    435.75165  0.020989964  0.020868631            2 
 1731000   0.97003505   -7.8900678    434.69752   0.02092709  0.020861832            4 
 1732000   0.98685997   -7.8495237    435.95642  0.020975578  0.020854967            2 
 1733000   0.97901391   -7.8500569    435.94895  0.020963115  0.020848146            1 
 1734000   0.98047634   -7.8442825    435.61012  0.020934742  0.020841397            2 
 1735000   0.98308788   -7.8393448    437.88463  0.021031923  0.020834731            2 
 1736000    0.9684069   -7.8636292     435.3925  0.020900177  0.020827922            7 
 1737000    0.9570651   -7.8440939    436.64582  0.020948274  0.020821195            2 
 1738000   0.98447105   -7.8826485    435.40131  0.020876549  0.020814395            1 
 1739000   0.99393922   -7.8694332    435.95609  0.020891129  0.020807577            5 
 1740000   0.96122879   -7.8601646    436.34916  0.020897948  0.020800843            2 
 1741000   0.96015523   -7.8355172    437.10248  0.020922003  0.020794105            3 
 1742000   0.97990356   -7.8568474     436.5773  0.020884869  0.020787366            2 
 1743000   0.96694227   -7.8658798     436.8967  0.020888158  0.020780612            2 
 1744000   0.97576445   -7.8419286     437.3885   0.02089968  0.020773882            1 
 1745000   0.96746427   -7.8571778    438.32909  0.020932621   0.02076723            4 
 1746000   0.96968759   -7.8495817    437.46552  0.020879416   0.02076054            2 
 1747000   0.96280751   -7.8530684     438.4349  0.020913705    0.0207538            4 
 1748000   0.94617071   -7.8857202    436.64426  0.020816374  0.020746976            1 
 1749000   0.96763209   -7.8557924    437.12829  0.020827534  0.020740182            4 
 1750000    1.0018825   -7.8680952    437.85667  0.020850318  0.020733403            4 
 1751000    0.9751149   -7.8470006    438.63342  0.020875377  0.020726642            5 
 1752000   0.96281922    -7.839425    437.17944  0.020794304  0.020719973            3 
 1753000   0.97573825   -7.8188141    438.10796  0.020826581  0.020713307            1 
 1754000   0.96900628   -7.8272559    438.40767  0.020828947  0.020706615            1 
 1755000   0.98605856   -7.8159305    439.50883  0.020869365  0.020699913            2 
 1756000   0.97750223   -7.8458657    438.63252  0.020815894  0.020693223            4 
 1757000   0.98721106   -7.8645197     439.3018   0.02083579   0.02068646            5 
 1758000   0.99613399   -7.8660717    438.60924  0.020791109  0.020679743            2 
 1759000   0.97319992   -7.8611339    438.70205  0.020783686  0.020673061            1 
 1760000   0.98266684   -7.8606608    439.75496  0.020821731  0.020666435            2 
 1761000   0.98939614   -7.8727166    439.64286  0.020804603  0.020659813            3 
 1762000   0.96989296   -7.8686857     439.4032   0.02078146  0.020653231            2 
 1763000   0.94955006   -7.8193871     441.6793   0.02087726  0.020646725            2 
 1764000   0.96518854    -7.834306    439.76052  0.020774779  0.020640151            5 
 1765000   0.96815614   -7.8363318    440.89643   0.02081664  0.020633505            4 
 1766000   0.98606239   -7.8691954     439.9402   0.02075973  0.020626852            4 
 1767000   0.97205683   -7.8764112    440.22527  0.020761425  0.020620137            5 
 1768000   0.98469267   -7.8452635    439.94022  0.020736247  0.020613477            3 
 1769000   0.97818451   -7.8790326    441.11544  0.020779887  0.020606942            6 
 1770000   0.95277953   -7.8438364    440.14724  0.020722563   0.02060042            1 
 1771000   0.96675098   -7.8194167    441.96669  0.020796475  0.020593887            5 
 1772000    0.9604052   -7.8900081    439.04502  0.020647339  0.020587315            3 
 1773000   0.96295472   -7.8719137    440.45627  0.020702024  0.020580638            3 
 1774000   0.96118933   -7.8544207    441.47618  0.020738265  0.020574015            7 
 1775000   0.97066133   -7.8585258    442.06645  0.020754293  0.020567416            1 
 1776000   0.97791137   -7.8439087    442.44609  0.020760421  0.020560769            3 
 1777000   0.97281567   -7.8940531    440.81185  0.020672099  0.020554154            3 
 1778000   0.97303222   -7.8859263    441.50744  0.020693075  0.020547439            3 
 1779000   0.97570091   -7.8648129    441.47775  0.020680052  0.020540819            5 
 1780000   0.96067887   -7.8365826    442.14347    0.0206996  0.020534175            5 
 1781000   0.98144424   -7.8442135    442.85061  0.020721066  0.020527598            3 
 1782000   0.93586869   -7.9020123    441.32192   0.02063795  0.020521003            3 
 1783000   0.98795572    -7.860817    441.68762  0.020643467  0.020514354            4 
 1784000   0.94505762   -7.8459532    440.69688  0.020585616  0.020507692            1 
 1785000   0.95979166   -7.8453475    443.28472  0.020694898  0.020501066            3 
 1786000   0.97676527   -7.8595515    442.48737  0.020646107  0.020494428            1 
 1787000   0.98172854   -7.8851224    441.77969  0.020601552  0.020487765            2 
 1788000   0.97085575   -7.8809454    441.41197  0.020572892  0.020481049            3 
 1789000   0.96580734   -7.8540023    441.48737  0.020564904  0.020474403            2 
 1790000   0.97594603   -7.9025399    441.95274  0.020575081   0.02046774            3 
 1791000   0.95652786   -7.8689895    443.44778  0.020633156  0.020461018            7 
 1792000   0.98166032   -7.8754026    442.12223      0.02056  0.020454291            2 
 1793000   0.96383349   -7.8837561    442.35113  0.020559171  0.020447578            2 
 1794000   0.96768438   -7.8979821     442.7554   0.02056649  0.020440842            3 
 1795000   0.93558122   -7.8796619    443.25064  0.020578024  0.020434214            4 
 1796000   0.95579869   -7.8094327    444.78094  0.020637571  0.020427587            3 
 1797000   0.96356588   -7.8889241     442.4763  0.020519213     0.020421            2 
 1798000   0.96917762    -7.835185    444.36304  0.020595247  0.020414346            4 
 1799000   0.96111292   -7.8686135    443.07639  0.020524198  0.020407672            2 
 1800000   0.96705424   -7.8800774    442.22708  0.020473476  0.020400959            2 
 1801000   0.96440923   -7.8862896    443.61977  0.020526548   0.02039426            2 
 1802000   0.95982406   -7.8782705    444.80768  0.020570092  0.020387471            6 
 1803000   0.97772297   -7.9042318    442.75835  0.020463965  0.020380662            4 
 1804000   0.97554498   -7.8737446    443.51545  0.020487595  0.020373909            2 
 1805000    0.9701548   -7.8490037    444.88182  0.020539327  0.020367258            1 
 1806000   0.97435347   -7.8672427     443.8976   0.02048254   0.02036057            5 
 1807000   0.96216941   -7.8753982    443.11997  0.020435343  0.020353874            3 
 1808000   0.94477782   -7.8768215    444.99139  0.020510297  0.020347188            8 
 1809000   0.96583554    -7.891863    443.90726  0.020449017  0.020340401            5 
 1810000   0.95907868   -7.8812846    443.74904  0.020430435   0.02033363            3 
 1811000   0.95417018   -7.8957041    445.05646  0.020479314  0.020326876            4 
 1812000   0.96788618   -7.9055422    443.60016  0.020401038  0.020320212            3 
 1813000   0.97886647   -7.8822408    444.08536  0.020412087  0.020313585            2 
 1814000   0.94170224   -7.8551106    444.82267  0.020434706  0.020306943            2 
 1815000    0.9524105   -7.8839627    445.83728  0.020470031   0.02030032            1 
 1816000   0.95293804   -7.8338459    445.18752  0.020428943  0.020293655            4 
 1817000   0.97341048   -7.9093376    445.20494  0.020418498  0.020287033            3 
 1818000    0.9580634   -7.9088798    446.54398  0.020468646  0.020280334            3 
 1819000   0.96310135   -7.8739759     445.8591  0.020426017  0.020273681            6 
 1820000    0.9621442   -7.8850211    446.40443  0.020439763  0.020267061            2 
 1821000    0.9400713   -7.9293582    444.58472  0.020345265  0.020260417            4 
 1822000   0.97088136   -7.9237843    444.84479  0.020345993  0.020253716            2 
 1823000   0.94302357   -7.8726975    445.93913  0.020384857  0.020247044            5 
 1824000   0.95162436    -7.900532    446.10871  0.020381429  0.020240334            8 
 1825000   0.96652579   -7.8953406    444.09146  0.020278149  0.020233675            3 
 1826000   0.94860898   -7.9067293     445.5686  0.020334456  0.020226976            3 
 1827000   0.96482962   -7.8923325    444.85894  0.020290957  0.020220145            3 
 1828000   0.97259461   -7.8910526      446.316   0.02034628  0.020213411            4 
 1829000   0.95387819   -7.8948795    446.66739  0.020351166  0.020206728            4 
 1830000   0.97747241   -7.8619775    446.58486  0.020336287  0.020199954            2 
 1831000   0.95417704   -7.8599114    447.34984  0.020359996  0.020193298            2 
 1832000   0.93696019   -7.8710782    446.52272  0.020311259  0.020186596            4 
 1833000   0.95803383   -7.9088552    445.56752  0.020256752  0.020179912            1 
 1834000   0.92733292   -7.8677562    446.87958  0.020305324  0.020173139            4 
 1835000   0.96292101   -7.8840353    445.91033  0.020250242  0.020166415            4 
 1836000   0.95382802   -7.8826751     445.9592  0.020241431  0.020159644            2 
 1837000    0.9545334   -7.8870959    445.47279  0.020208347  0.020152882            4 
 1838000   0.95703588   -7.8756759     447.4937  0.020288978  0.020146107            3 
 1839000   0.97121988    -7.873646    446.36821  0.020226944  0.020139412            3 
 1840000    0.9563287    -7.855636    446.94535   0.02024209  0.020132718            1 
 1841000   0.95060047   -7.8670862    447.32109  0.020248103  0.020126084            1 
 1842000   0.99138519    -7.915586    447.03619  0.020224221  0.020119345            1 
 1843000   0.94863652   -7.9002698    447.46941  0.020232836  0.020112538            2 
 1844000   0.96534371   -7.8733147    449.20259  0.020300189  0.020105791            9 
 1845000   0.95321499   -7.9239961    445.20118  0.020108454  0.020098983            4 
 1846000   0.94018642   -7.8923695    447.37718  0.020195792  0.020092209            5 
 1847000   0.96911551    -7.938385     447.3941  0.020185621   0.02008538            1 
 1848000   0.94747589   -7.9211505    446.43332  0.020131373  0.020078486            3 
 1849000   0.95758181   -7.9303291    446.97997  0.020145122  0.020071666            2 
 1850000   0.99112101   -7.9387159    446.89298  0.020130315  0.020064793            2 
 1851000   0.94589195    -7.901793    447.22556  0.020134412  0.020058011            3 
 1852000   0.94085221    -7.904771    448.01278  0.020158962  0.020051272            2 
 1853000   0.95985757   -7.9245019    447.67021  0.020132677  0.020044483            2 
 1854000   0.93772973   -7.8897489     447.6197  0.020119548  0.020037733            2 
 1855000   0.98343928   -7.8903853    448.23481  0.020136335  0.020030953            4 
 1856000   0.97369763   -7.8878759    448.28264  0.020127633  0.020024242            4 
 1857000   0.95211328   -7.9052906    447.99389  0.020103836  0.020017439            2 
 1858000   0.95689304   -7.9012033    448.43731  0.020112904  0.020010665            3 
 1859000   0.95218576   -7.9092315    448.69394  0.020113589  0.020003964            1 
 1860000   0.94998987   -7.8936124    448.31303  0.020085709  0.019997242            2 
 1861000   0.94808488   -7.8993815    448.99794  0.020105585  0.019990496            2 
 1862000   0.96241983   -7.9177733    448.88037  0.020089526  0.019983802            7 
 1863000   0.97069762   -7.9126082    448.71645   0.02007141  0.019977036            2 
 1864000   0.95053952   -7.9035018    448.72698  0.020061113  0.019970288            2 
 1865000   0.96378529   -7.8995949    449.40354  0.020080587  0.019963541            2 
 1866000   0.94105132   -7.9331387      448.625  0.020035057  0.019956811            2 
 1867000   0.92926326    -7.890082    449.71566  0.020073007   0.01995005            2 
 1868000   0.95119554   -7.9595169    448.96952  0.020028976  0.019943283            4 
 1869000   0.93663971   -7.9089772    449.58483  0.020045694  0.019936506            5 
 1870000   0.92814027   -7.9059443    449.66693  0.020038633  0.019929743            5 
 1871000   0.94825662   -7.9099478    449.86326  0.020036667  0.019923049            8 
 1872000   0.95071352   -7.9576608    448.62512  0.019970848   0.01991621            2 
 1873000   0.93751463   -7.9438344    448.61808  0.019959872  0.019909388            4 
 1874000   0.93902524   -7.9176602    449.02148  0.019967159  0.019902611            7 
 1875000    0.9601275   -7.9104789    450.72835  0.020032371  0.019895936            2 
 1876000   0.95935825   -7.8914623    450.60658  0.020016284  0.019889206            4 
 1877000   0.95292363   -7.9206444     451.0284  0.020024347  0.019882556            6 
 1878000   0.95698254   -7.9111493    451.42884  0.020031454  0.019875857            4 
 1879000   0.96416104    -7.881383    451.47599  0.020022884  0.019869151            4 
 1880000   0.95799552    -7.898671     451.1505  0.019997806  0.019862475            2 
 1881000   0.95491414   -7.9187176    450.28519  0.019948839  0.019855747            2 
 1882000   0.95570653   -7.8832931    450.66778   0.01995518  0.019849076            4 
 1883000   0.96364306   -7.9200139    450.97416  0.019958141   0.01984241            5 
 1884000     0.945135   -7.8876478    452.73777  0.020025556  0.019835731            2 
 1885000    0.9631982    -7.876127    453.01855  0.020027345  0.019829088            1 
 1886000   0.93808576   -7.9114004    451.08296  0.019931202  0.019822389            3 
 1887000    0.9319562   -7.9277399    451.45609  0.019937118  0.019815693            3 
 1888000   0.94049678   -7.9565898    451.73746  0.019938977   0.01980896            4 
 1889000   0.96098599   -7.9233024    452.18232  0.019948046  0.019802185            4 
 1890000   0.93408318   -7.9306587    451.51666  0.019908142  0.019795426            2 
 1891000   0.95971988   -7.9421545     450.2692   0.01984264  0.019788634            5 
 1892000   0.94903821   -7.9339687    451.74678  0.019897233  0.019781803            5 
 1893000   0.94864887   -7.9058697    451.24449   0.01986461  0.019775088            2 
 1894000   0.95135221   -7.9156218    451.32742  0.019857771  0.019768318            5 
 1895000   0.93744343   -7.9155645    452.97784   0.01991987  0.019761623            2 
 1896000    0.9424652   -7.9171139    451.45392  0.019842384  0.019754908            4 
 1897000   0.97089381    -7.931807    452.12264    0.0198613  0.019748189            4 
 1898000   0.92720379   -7.9043191    452.67125  0.019874923  0.019741458            2 
 1899000   0.92959411   -7.9108443    453.27649  0.019891017  0.019734799            3 
 1900000    0.9241724   -7.8759659    454.22809  0.019922285  0.019728202            3 
 1901000   0.95348355   -7.9602536    453.12818  0.019863588  0.019721561            7 
 1902000   0.94252251   -7.8849481    454.36937  0.019907526  0.019714963            3 
 1903000   0.94255373   -7.8861068    453.40571  0.019854865  0.019708415            4 
 1904000   0.94819679   -7.9226538    453.28287  0.019839061   0.01970186            2 
 1905000     0.950055   -7.9403712    454.49066  0.019881481  0.019695258            2 
 1906000   0.93341224     -7.94289    453.17968  0.019813732  0.019688609            6 
 1907000   0.94635871   -7.9193139    453.60696  0.019822013  0.019682005            5 
 1908000    0.9278737   -7.9274493    453.51077  0.019807424  0.019675447            2 
 1909000   0.94834652   -7.9822738    454.12382  0.019823809  0.019668836            1 
 1910000   0.95107013   -7.9789723    452.91822   0.01976083  0.019662105            2 
 1911000   0.94055977   -7.9060069    454.56436  0.019822273  0.019655401            5 
 1912000   0.95470607   -7.9289879     453.6403  0.019771631  0.019648774            7 
 1913000   0.96309828    -7.902365     452.8648  0.019727513  0.019642108            2 
 1914000   0.95484577   -7.9123607    454.47119  0.019787147  0.019635521            9 
 1915000   0.93663979   -7.9115398    455.20572  0.019808778  0.019628917            5 
 1916000   0.92008485   -7.9527795    453.48432   0.01972357  0.019622294            1 
 1917000   0.94382282   -7.9477514     454.3573   0.01975123  0.019615704            4 
 1918000   0.93761806   -7.9142583    455.11199  0.019773722  0.019609087            2 
 1919000   0.93035963   -7.9429308    453.93784   0.01971243  0.019602424            4 
 1920000   0.94057408   -7.9247272    455.54359  0.019771857  0.019595788            1 
 1921000   0.93484411   -7.9521254    454.48324  0.019715567  0.019589218            1 
 1922000    0.9671233   -7.9238331    455.68572  0.019757446  0.019582624            2 
 1923000   0.96279129   -7.9490681    454.43145  0.019692817  0.019576058            2 
 1924000   0.93859108   -7.9609586     454.7806  0.019697705  0.019569436            5 
 1925000   0.92422421   -7.9436776    454.94465  0.019694574  0.019562832            3 
 1926000   0.95400601   -7.9306412    455.83842  0.019723019  0.019556224            3 
 1927000   0.92830153   -7.9648614    455.25922  0.019687736  0.019549579            3 
 1928000   0.93949116   -7.9233496    456.77868    0.0197432  0.019542995            6 
 1929000    0.9486094   -7.9346728    455.25574  0.019667174  0.019536402            2 
 1930000   0.91593113   -7.9906824    454.64381  0.019630562  0.019529757            5 
 1931000   0.93767926   -7.9468019    456.69891  0.019709085  0.019523073            2 
 1932000   0.95509426   -7.9199573    456.50074  0.019690336  0.019516487            6 
 1933000   0.93065955   -7.9267447    456.78944  0.019692595  0.019509918            2 
 1934000   0.92798476   -7.9505342    456.27445  0.019660223  0.019503332            2 
 1935000   0.94323472   -7.9624343    456.58023  0.019663231  0.019496773            4 
 1936000   0.94488139   -7.9561163    456.37969  0.019644443  0.019490212            6 
 1937000   0.93883138    -7.954418    454.61165  0.019558237  0.019483642            3 
 1938000   0.95140656   -7.9361618    457.21619  0.019660139  0.019477088            4 
 1939000   0.90697044    -7.942768    456.13667  0.019603604  0.019470534            1 
 1940000   0.95852174    -7.963017    456.03133  0.019588974  0.019463963            6 
 1941000   0.94558615   -7.9271347    457.65886  0.019648758  0.019457402            3 
 1942000   0.95827613   -7.9339208    458.13409  0.019659032  0.019450868            4 
 1943000   0.94646601   -7.9367096    456.89469  0.019595758  0.019444403            3 
 1944000   0.95771034   -7.9508068    457.36814  0.019605973  0.019437898            2 
 1945000   0.95440903   -7.9362328    458.29183  0.019635468   0.01943134            3 
 1946000   0.95795478   -7.9293302    457.22316  0.019579615  0.019424826            4 
 1947000   0.93482251    -7.928227    457.76771  0.019592866  0.019418267            3 
 1948000   0.95567141    -7.929717    457.64585  0.019577595  0.019411746            3 
 1949000   0.91801171   -7.9503127    456.65718  0.019525277  0.019405185            3 
 1950000   0.92131963   -7.9320073    458.41292  0.019590296  0.019398572            2 
 1951000    0.9780287   -7.9897112    456.17792  0.019484791  0.019391991            2 
 1952000   0.93143288   -7.9058026    458.22961  0.019562398  0.019385457            3 
 1953000   0.95899397   -7.9329833    457.29158  0.019512356  0.019378941            5 
 1954000   0.92503435   -7.9714644    456.72794  0.019478332  0.019372408            2 
 1955000   0.92114833   -7.9368193    457.21062  0.019488944  0.019365831            5 
 1956000   0.96094909   -7.9081998     458.9204  0.019551823  0.019359286            2 
 1957000   0.95580121   -7.9682865    458.70678  0.019532736  0.019352752            3 
 1958000   0.91696494   -7.9266694    458.23046  0.019502488  0.019346258            4 
 1959000   0.94353961   -7.9682259    457.57935  0.019464836  0.019339699            3 
 1960000   0.98186474   -7.9706531    458.94095  0.019512795  0.019333224           10 
 1961000   0.93343643   -7.9520058    459.20928  0.019514248  0.019326716            1 
 1962000   0.91949908   -7.9481043    460.39071  0.019554481  0.019320253            3 
 1963000   0.95232114   -7.9673658     458.6105  0.019468946  0.019313792            4 
 1964000   0.94526624   -7.9859633    457.52864   0.01941313  0.019307248            3 
 1965000   0.93114511   -7.9556666    459.84632   0.01950154  0.019300705            6 
 1966000   0.92172106   -7.9776081    459.79305  0.019489363  0.019294225            9 
 1967000    0.9361286    -7.972654    459.29005  0.019458145  0.019287795            4 
 1968000    0.9282452   -7.9463101    460.45142  0.019497435  0.019281344            2 
 1969000   0.90432282   -7.9701363    459.36013  0.019441346  0.019274864            9 
 1970000   0.94722382   -7.9679287    459.05739  0.019418671  0.019268327            5 
 1971000   0.93079543   -7.9282253    460.77199  0.019481312  0.019261835            4 
 1972000   0.94830979   -7.9864138    459.40987  0.019413872  0.019255377            4 
 1973000   0.92414145   -7.9349116    460.93479   0.01946844  0.019248994            2 
 1974000   0.95418322   -7.9829841    459.05211    0.0193791  0.019242507            2 
 1975000   0.95601781   -7.9607844    460.34227  0.019423725  0.019235985            2 
 1976000   0.92417979    -7.967817    459.77991  0.019390178  0.019229547            3 
 1977000   0.92895715   -7.9648946    460.16925  0.019396782  0.019223108            2 
 1978000   0.91919542   -7.9581055    461.09538  0.019425993  0.019216622            2 
 1979000   0.92436265   -8.0158172    461.00565  0.019412399  0.019210181            5 
 1980000   0.93984929   -7.9288417    461.61312  0.019428162  0.019203778            4 
 1981000   0.92015182   -7.9221948    463.48134  0.019496943  0.019197426            2 
 1982000   0.93769856   -7.9677643     462.3069  0.019437727  0.019191037            4 
 1983000   0.96695463   -7.9583809    461.93401  0.019412255  0.019184707            2 
 1984000   0.94236122   -7.9250915    462.44516   0.01942394  0.019178391            2 
 1985000   0.93797984   -7.9592356    461.98416  0.019394801  0.019172062           10 
 1986000   0.92691433   -7.9570187    463.06311  0.019430308  0.019165679            4 
 1987000    0.9324276   -7.9885091    462.80302  0.019409622  0.019159352            2 
 1988000    0.9142308   -7.9334201    461.92724  0.019363147  0.019152984            2 
 1989000   0.92047593   -7.9817351    462.21531  0.019365481   0.01914667            2 
 1990000   0.93393893    -7.973072    462.89229  0.019384099  0.019140274            2 
 1991000   0.94517477   -7.9659686    461.88716  0.019332294   0.01913394            2 
 1992000   0.94020956   -7.9546962    463.84819  0.019404627  0.019127564            5 
 1993000   0.92362219    -7.929826    463.52416  0.019381341  0.019121199            6 
 1994000   0.93888512    -7.954827     463.5462  0.019372543  0.019114849            3 
 1995000   0.90265575   -7.9583454    462.79865  0.019331606  0.019108465            7 
 1996000   0.92796417   -7.9462524    462.11467  0.019293364  0.019102104            2 
 1997000    0.9308803    -7.958301    464.21864    0.0193715  0.019095772            2 
 1998000   0.94366154   -7.9688634    463.22185   0.01932023  0.019089459            5 
 1999000    0.9473404   -7.9010878    463.72185  0.019331409   0.01908311            5 
 2000000    0.9100854   -7.9782874    462.43643  0.019268185    0.0190767            5 
 2001000   0.93005458    -7.990476    461.64281  0.019225505  0.019070243            3 
 2002000   0.93985986   -7.9775505    462.30202  0.019243341  0.019063852            4 
 2003000   0.94071146   -7.9305916    464.19829  0.019312626  0.019057492            2 
 2004000   0.93943653   -7.9503716    463.54599  0.019275864  0.019051136            3 
 2005000   0.95129248   -7.9495587    463.92777  0.019282118  0.019044853            2 
 2006000   0.95629408   -7.9669007    464.10281  0.019279778  0.019038483            4 
 2007000   0.92460329   -7.9252636    464.30992  0.019278771  0.019032123            4 
 2008000   0.93530631   -7.9587278    464.08186  0.019259705  0.019025756            7 
 2009000   0.92903814     -7.94055    464.32596  0.019260244  0.019019408            5 
 2010000   0.93111463   -7.9601281    464.08568    0.0192407  0.019013091            3 
 2011000   0.91750194   -7.9824636    463.15315  0.019192489  0.019006744            1 
 2012000    0.9365633    -7.915845    464.85266  0.019253341   0.01900042            4 
 2013000   0.93385389   -7.9741444    463.71457  0.019196662  0.018994065            3 
 2014000   0.89742735    -7.961299    464.01481  0.019199553  0.018987675            4 
 2015000   0.92519156   -8.0141386    463.46257  0.019167187  0.018981269            4 
 2016000   0.94530464   -7.9900978    463.29532  0.019150766  0.018974858            2 
 2017000   0.93122685   -7.9815042    464.56811  0.019193857  0.018968423            2 
 2018000   0.92397327   -7.9465968    465.41734  0.019219414  0.018962035            2 
 2019000   0.94138519   -7.9523334    464.80925  0.019184797    0.0189557            5 
 2020000   0.93761584   -7.9377522    465.27373  0.019194461  0.018949347            1 
 2021000   0.91088973   -7.9580203    465.44819  0.019192157   0.01894298            2 
 2022000   0.93774865   -7.9644905    464.31897  0.019136126  0.018936629            4 
 2023000   0.93016454   -7.9539005    465.66648  0.019182175  0.018930299            1 
 2024000   0.94722779   -7.9425253    466.30941  0.019199169  0.018923991            2 
 2025000   0.93247969   -7.9582946    466.72643  0.019206849  0.018917649            2 
 2026000   0.94567794   -7.9496015    463.98759  0.019084715  0.018911321            3 
 2027000    0.9289271   -7.9691951    464.53313  0.019097728  0.018904922            5 
 2028000   0.91821396   -7.9864392    464.78887  0.019098819  0.018898486            3 
 2029000   0.93199993   -7.9459954    465.89095   0.01913467  0.018892087            5 
 2030000   0.93895812   -7.9656834    465.68173  0.019116656  0.018885619            4 
 2031000   0.94599439   -7.9908383    464.86786   0.01907385  0.018879294            6 
 2032000   0.94095243   -7.9751935    466.21735  0.019119806  0.018872919            3 
 2033000   0.95333886   -8.0103426    464.65585  0.019046395  0.018866501            1 
 2034000    0.9327433   -8.0025646    464.03671  0.019011664  0.018860044            5 
 2035000   0.91229665     -7.98074     466.0341  0.019084116   0.01885361            5 
 2036000   0.95276758   -7.9806411    465.59768   0.01905688  0.018847158            4 
 2037000   0.92802154   -7.9753313    466.11702   0.01906877  0.018840729            7 
 2038000   0.91329633   -7.9800508    465.65834  0.019040658  0.018834318            5 
 2039000   0.94691891   -7.9938345    464.59497   0.01898786  0.018827948            4 
 2040000   0.90795324    -8.002779    466.11956  0.019040832  0.018821575            6 
 2041000   0.93153857   -7.9608438    466.52985  0.019048254   0.01881521            2 
 2042000   0.90583787   -7.9572143    467.49592  0.019078351  0.018808861            7 
 2043000   0.93372352   -8.0021284    465.81613  0.019000495  0.018802497            4 
 2044000   0.92883126   -7.9864784    466.09662  0.019002634  0.018796058            5 
 2045000   0.91248441    -8.017257    465.58127  0.018972342  0.018789595            3 
 2046000   0.92423336   -8.0106896    466.35023  0.018994389  0.018783196           11 
 2047000   0.92854744   -7.9989817    467.11619  0.019016292  0.018776815            3 
 2048000   0.91208899   -7.9968155    467.49846  0.019022561  0.018770425            2 
 2049000   0.92122538   -8.0047182    467.58075  0.019016624  0.018764077            3 
 2050000   0.93513425   -7.9728745    466.54017  0.018965047  0.018757787            2 
 2051000   0.93173074   -8.0163381    466.13212  0.018939222  0.018751455            2 
 2052000    0.9250221   -7.9834956    466.31348  0.018937357   0.01874509            1 
 2053000   0.91897421   -7.9735977    467.74921  0.018986411  0.018738759            9 
 2054000    0.9114552   -8.0055326    467.46273  0.018965544  0.018732415            5 
 2055000   0.91596899   -7.9987658    466.89403  0.018933253  0.018726121            3 
 2056000   0.91127614    -8.028745    468.61312  0.018993723  0.018719796            3 
 2057000   0.92565852   -7.9571171    467.35306  0.018933441  0.018713457            3 
 2058000   0.92402436   -7.9851336    467.72354  0.018939243  0.018707153            1 
 2059000   0.94088073   -8.0265768    467.20188  0.018908931  0.018700811            2 
 2060000    0.9164069   -8.0111406    467.88605  0.018927429  0.018694561            3 
 2061000   0.91762131   -7.9750312     469.3323  0.018976723  0.018688266            3 
 2062000   0.92925627   -8.0324045    468.00028  0.018913687  0.018682022            6 
 2063000   0.92914697   -8.0173704    468.40783  0.018920982  0.018675764            5 
 2064000   0.92674902   -8.0205875    469.11213  0.018940251  0.018669506            7 
 2065000   0.91433449   -8.0455972    468.43728  0.018903845  0.018663176            7 
 2066000   0.92017584   -8.0058187    469.29981  0.018929486  0.018656897            3 
 2067000   0.92135975   -7.9941101    468.49639  0.018887937  0.018650575            5 
 2068000   0.91448399    -8.026069    468.50629  0.018879203   0.01864421           11 
 2069000   0.91842457   -8.0090118    467.83747   0.01884314  0.018637896            2 
 2070000   0.94308858   -7.9850458    468.81581  0.018873422   0.01863157            1 
 2071000   0.92429298   -7.9860898    468.85254  0.018865787  0.018625282            6 
 2072000   0.90685546   -7.9803005    470.57947  0.018926137  0.018618988           10 
 2073000   0.94573362   -7.9852457    468.98212  0.018852794  0.018612727            2 
 2074000   0.94265102   -8.0251906    469.71769   0.01887326  0.018606492            2 
 2075000   0.92783061   -8.0261253    468.83029  0.018828526  0.018600224            6 
 2076000   0.93591916   -8.0258644    468.37296  0.018801098  0.018593895            3 
 2077000   0.93475537    -8.025327    470.06904  0.018860096  0.018587535            2 
 2078000   0.91258131   -7.9618866    469.96403  0.018846809  0.018581265            7 
 2079000   0.91435181   -8.0112037    469.08266  0.018802415   0.01857501            4 
 2080000   0.91943492     -7.97399    470.04695  0.018832009  0.018568717            2 
 2081000   0.92537997   -8.0423289    468.91867  0.018777778  0.018562453            3 
 2082000    0.9156665   -7.9469691    470.41498  0.018828649  0.018556232            2 
 2083000   0.92918838   -8.0290506    470.00624  0.018803258  0.018550011            1 
 2084000   0.93690799    -8.003283    468.74802  0.018743923  0.018543747            1 
 2085000   0.92952636   -8.0239259    469.60613   0.01876923  0.018537427            3 
 2086000   0.92160611   -8.0180061    469.92486  0.018772965  0.018531161            4 
 2087000   0.92440569   -8.0009874    469.44362  0.018744754  0.018524859            4 
 2088000   0.90887767   -8.0325336    469.68224    0.0187453  0.018518536            2 
 2089000   0.92633141   -7.9852497     470.4578  0.018767265  0.018512281            6 
 2090000   0.90931247    -7.973394    470.76974  0.018770723  0.018506059            3 
 2091000   0.93309765   -8.0162766    471.79867  0.018802753  0.018499827            2 
 2092000   0.91475979   -7.9966123    470.79235  0.018753679  0.018493598            5 
 2093000   0.92965336   -7.9763221    471.43613  0.018770351  0.018487389            5 
 2094000   0.92211385   -7.9959584    470.80404  0.018736232  0.018481171            5 
 2095000   0.91459935   -7.9781144    472.02756  0.018775957     0.018475            2 
 2096000   0.91102513   -8.0094448    471.03283   0.01872745  0.018468811            6 
 2097000   0.93073036   -7.9627714    472.28884  0.018768433  0.018462672            3 
 2098000   0.89661189   -8.0119155    471.78894  0.018739631  0.018456531            2 
 2099000   0.91254818   -8.0106619    471.46907  0.018718003  0.018450317            1 
 2100000   0.92587725   -7.9716673    473.81473  0.018802172  0.018444171            2 
 2101000   0.92080264   -7.9952144    471.45351  0.018699568  0.018438047            2 
 2102000   0.91997643   -7.9941862    471.65602    0.0186987  0.018431899            9 
 2103000    0.9185182   -7.9995761    472.09161   0.01870707   0.01842568            4 
 2104000   0.90655806    -8.010405    471.95429   0.01869274  0.018419491            4 
 2105000   0.92603376   -8.0298827    470.93097  0.018643348  0.018413245            3 
 2106000   0.91442817    -8.037711    470.16195  0.018604066   0.01840696            4 
 2107000   0.90829721   -8.0335054    472.17035   0.01867467  0.018400634            3 
 2108000   0.92895407   -8.0366689    470.89428  0.018615365  0.018394371            5 
 2109000   0.93115911   -8.0381793    473.08125  0.018692953  0.018388112            3 
 2110000   0.93184768    -8.048182    471.15526  0.018608028  0.018381856            6 
 2111000   0.92545369   -8.0445838     471.9424  0.018630286  0.018375597           10 
 2112000   0.92167356   -8.0505843    471.81966  0.018616622  0.018369304            2 
 2113000    0.9298419   -7.9819986    471.24409  0.018585111  0.018363071            5 
 2114000   0.90767648   -8.0149172    471.62223  0.018591226  0.018356824            2 
 2115000   0.90697112   -8.0345415    471.19484  0.018565597  0.018350539            3 
 2116000   0.92738099   -7.9948238    472.25643  0.018598631  0.018344273            3 
 2117000   0.91893027   -7.9696202    473.52144  0.018639641  0.018338102            4 
 2118000   0.91087943   -7.9716747    472.52037  0.018591453  0.018331896            5 
 2119000   0.90887017   -7.9778701    472.98864  0.018601095  0.018325748            6 
 2120000   0.90120013   -8.0262427    472.74238  0.018582641  0.018319588            6 
 2121000   0.90684092   -8.0165531    473.48045  0.018602878  0.018313357            2 
 2122000   0.90387387   -8.0538181    472.63083  0.018560746  0.018307104            5 
 2123000   0.94376755   -8.0193432    472.32884  0.018540149  0.018300882            2 
 2124000   0.89934397   -8.0035292    472.34433  0.018532028  0.018294656            3 
 2125000   0.93567364   -8.0549125    472.08506   0.01851314  0.018288422            3 
 2126000   0.92284864   -8.0040329    474.17257  0.018586256   0.01828218            1 
 2127000   0.90285246   -8.0250478    473.78948  0.018562509  0.018275991            4 
 2128000   0.91560697    -8.018207    473.72089    0.0185511  0.018269822            2 
 2129000   0.91452591   -8.0268717    473.07602  0.018517145  0.018263641            6 
 2130000   0.92058866   -8.0212837    474.32629  0.018557367   0.01825747            2 
 2131000   0.92142504   -8.0543237    472.62703  0.018482208  0.018251267            4 
 2132000   0.90727345   -8.0388634    474.60383  0.018550806  0.018245053            3 
 2133000   0.90922502    -8.048392    472.86239  0.018474074  0.018238835            4 
 2134000   0.89512259   -8.0342627    471.91731  0.018428511  0.018232566            2 
 2135000   0.89821018   -8.0538819    472.39677  0.018438594  0.018226279            2 
 2136000   0.91525005   -8.0245704    473.62757  0.018477979  0.018220039            3 
 2137000   0.90692549   -8.0186669    473.78622  0.018475519  0.018213828            3 
 2138000   0.91626812    -8.002256    473.06608  0.018438809  0.018207596            9 
 2139000    0.8981932   -8.0288648    473.49092   0.01844674  0.018201399            9 
 2140000   0.90304427   -8.0427353    473.92673  0.018455091  0.018195196            3 
 2141000   0.91367066   -8.0310451    474.13306  0.018454502  0.018189017            2 
 2142000   0.90143213   -8.0328957    475.28498  0.018490701  0.018182858            3 
 2143000   0.92278621   -8.0710805    474.95485  0.018469235  0.018176667            1 
 2144000   0.91385229   -8.0385248    474.46979  0.018441767  0.018170487            2 
 2145000   0.90387147   -8.0851163    474.05582  0.018417087  0.018164245            7 
 2146000   0.90268149   -8.0442823    473.30975  0.018379534  0.018158056            3 
 2147000   0.87869224   -8.0575181    475.87566  0.018470566  0.018151868            3 
 2148000   0.92302307   -8.0537017    474.77171  0.018419138  0.018145737            9 
 2149000   0.90336403   -8.0154827    475.75779  0.018448805  0.018139619            2 
 2150000   0.90135419   -8.0097291    475.52606  0.018431242  0.018133575            1 
 2151000   0.93204033   -8.0120897    475.66043   0.01842788  0.018127527            3 
 2152000   0.92718899   -8.0379128    475.43464  0.018410573  0.018121467            4 
 2153000   0.93347187   -8.0969113    475.11124  0.018389504  0.018115363            4 
 2154000   0.92509734   -8.0265075    475.57565  0.018398934  0.018109319           10 
 2155000    0.9070541   -8.0161762    477.89855  0.018480222  0.018103294            7 
 2156000   0.89867021   -8.0300534     475.5181  0.018379642  0.018097253            5 
 2157000   0.91336421   -8.0435327    476.32726  0.018402382  0.018091237            2 
 2158000   0.87283016   -8.0568793     475.0444  0.018344316  0.018085201            6 
 2159000   0.91231705   -8.0622501    475.30892  0.018346029  0.018079146            4 
 2160000   0.92436681    -8.005996    477.84121  0.018435232  0.018073137            5 
 2161000   0.91518519    -8.070611    477.32001  0.018406602  0.018067106           12 
 2162000    0.8910516   -8.0331739    477.34036  0.018398873  0.018061022            2 
 2163000   0.89240849   -8.0412126    476.87251  0.018372342  0.018054991            6 
 2164000   0.88224611   -8.0184213    476.10939  0.018334465  0.018048953            8 
 2165000   0.90181606   -8.0105593     476.8911  0.018356085  0.018042904            3 
 2166000   0.90009292    -8.052927     476.8904  0.018347584  0.018036871            3 
 2167000   0.91041844   -8.0374114    476.66594  0.018330485  0.018030839            3 
 2168000   0.90451398   -8.0783223    476.56836   0.01831828  0.018024734            2 
 2169000   0.89697461   -8.0328541     477.6124  0.018349946  0.018018604            3 
 2170000   0.90067561   -8.0509014    476.49492  0.018298576  0.018012544            5 
 2171000   0.92356582   -8.0845389    477.04924  0.018311425  0.018006477            4 
 2172000   0.91193154   -8.0443237    477.34816  0.018314463  0.018000389            5 
 2173000   0.90248193    -8.023112    478.22091  0.018339504  0.017994341            5 
 2174000    0.9112224   -8.0314611    477.62491  0.018308223  0.017988293            3 
 2175000   0.90262089   -8.0234274    478.55808  0.018335559  0.017982235            4 
 2176000   0.88993214   -8.0689234    476.56228    0.0182507  0.017976188            2 
 2177000   0.89409197    -8.027242    477.24027  0.018268269  0.017970088            5 
 2178000   0.90062468   -8.0473302    477.16018  0.018256818  0.017964032            2 
 2179000   0.90301077   -8.0688089    478.10648  0.018284629  0.017957978            2 
 2180000   0.88342095   -8.0670445    476.88654  0.018229608  0.017951945            9 
 2181000   0.87828456   -8.0573479    477.19374  0.018232987  0.017945882            5 
 2182000   0.88728526   -8.0532861    476.89676  0.018213289  0.017939858            6 
 2183000   0.91346601   -8.0389907    478.70181  0.018273852  0.017933824            8 
 2184000   0.89894325   -8.0454727    478.57974  0.018260826  0.017927768            7 
 2185000   0.90033619   -8.0535754    478.80821  0.018261183  0.017921764            3 
 2186000   0.89235059   -8.0420807    479.11999  0.018264714  0.017915749            6 
 2187000   0.90705291   -8.0531321    479.56283  0.018273237  0.017909726            3 
 2188000   0.88445339   -8.0346076     478.4039  0.018220746  0.017903702            6 
 2189000   0.90341861   -8.0232083    480.28927  0.018284196  0.017897725            4 
 2190000   0.90551227   -8.0278247    479.09368  0.018230353  0.017891756            9 
 2191000   0.89812466   -8.0648606    478.06995  0.018183096  0.017885726           20 
 2192000      0.89703   -8.0292759    481.28372  0.018296978  0.017879742            4 
 2193000   0.90724944   -8.0502529    479.46599  0.018219562  0.017873692            4 
 2194000   0.88267827   -8.0353061    480.35592  0.018245059  0.017867704            5 
 2195000   0.90647428   -8.0412994    479.62409  0.018208963  0.017861777            9 
 2196000   0.89835776   -8.0638661    478.25459  0.018148702  0.017855828            3 
 2197000   0.91808633   -8.0916675    479.78759  0.018198589  0.017849795            2 
 2198000    0.9059897   -8.0625691    481.02445  0.018237203  0.017843809            3 
 2199000   0.91169118   -8.0680516    478.47202  0.018132182  0.017837832            2 
 2200000   0.91364121   -8.0331566    479.38896  0.018158673  0.017831873            2 
 2201000   0.91068854   -8.0300029    480.71002   0.01820044  0.017825904            6 
 2202000   0.90197546   -8.0593773    479.89454  0.018161313  0.017819881            4 
 2203000   0.88114688   -8.0844626     479.0046  0.018119406  0.017813847            3 
 2204000   0.90709708   -8.0897827    479.01359  0.018111524  0.017807804            5 
 2205000   0.91136479   -8.0562319    479.21537  0.018110936   0.01780177            5 
 2206000   0.89079857   -8.0957842    478.30404    0.0180683  0.017795751            3 
 2207000   0.90865752   -8.0804711    480.11516  0.018128499  0.017789727            3 
 2208000   0.89742137   -8.0506481    480.49445  0.018134603  0.017783761            2 
 2209000     0.903562    -8.050511    479.77536  0.018099267   0.01777776            3 
 2210000   0.89671248   -8.0577553    480.19928  0.018107062  0.017771744            2 
 2211000   0.88149632   -8.0730937    479.59454  0.018076079  0.017765737            3 
 2212000    0.8996639   -8.0657742    480.74123  0.018111107  0.017759728            5 
 2213000   0.89221188   -8.0694435    480.61997  0.018098357  0.017753737            4 
 2214000   0.89851243   -8.0639187    481.47849  0.018122497  0.017747759            2 
 2215000   0.90594471   -8.0124027     482.2747   0.01814427  0.017741843            4 
 2216000   0.90935798   -8.0480452    480.79275  0.018080353  0.017735873            3 
 2217000   0.89975113   -8.0280119    481.74146  0.018107858  0.017729898            5 
 2218000   0.88596524   -8.0642289    480.18761  0.018041314  0.017723966            1 
 2219000   0.89456645   -8.0568251    480.56976  0.018047535  0.017717993            3 
 2220000   0.89770256   -8.0693098    480.56206  0.018039116  0.017712017            2 
 2221000   0.90153028   -8.1071973    480.94644  0.018045416  0.017706032            2 
 2222000   0.89513107    -8.063966    481.45881  0.018056511  0.017700026            3 
 2223000   0.90239623   -8.0961772    480.36111  0.018007239  0.017694065            7 
 2224000   0.92006719   -8.0833996    480.13677  0.017990736  0.017688096            6 
 2225000    0.8845582   -8.0786828    481.93981   0.01805018  0.017682185            2 
 2226000   0.89542501   -8.0842174    482.01204  0.018044775   0.01767624            3 
 2227000   0.89538591   -8.0785602    481.09548  0.018002375  0.017670363            4 
 2228000   0.89133908   -8.0733309    482.38334  0.018042465  0.017664444            3 
 2229000   0.88753806   -8.0555113    483.13977   0.01806265  0.017658533            4 
 2230000   0.89263175   -8.0903391    481.73683  0.018002124  0.017652583            8 
 2231000   0.88966284   -8.0730533    481.72632  0.017993662  0.017646652            3 
 2232000   0.89201208   -8.0693869    481.85623  0.017990451  0.017640717            4 
 2233000   0.88080433   -8.0480066     482.9668  0.018023839  0.017634822            4 
 2234000   0.88522115   -8.0495864    483.11185  0.018021182  0.017628942            2 
 2235000   0.89534112   -8.0827318    483.43101  0.018025019  0.017623068            2 
 2236000   0.88566312   -8.0774337    482.14887  0.017969174  0.017617161            5 
 2237000   0.87372504   -8.0736641    483.87833  0.018025567  0.017611255            3 
 2238000   0.90435596   -8.0718111    483.42404  0.018000597  0.017605378            6 
 2239000   0.89084141   -8.0584936    482.45272  0.017956406   0.01759951            6 
 2240000   0.89686604   -8.0594169    483.51568  0.017987935  0.017593628            2 
 2241000   0.89879934   -8.0482175    483.44317  0.017977211  0.017587731            4 
 2242000   0.89990921    -8.075731    482.12161  0.017920072  0.017581829            4 
 2243000   0.88038707   -8.1149509    482.59795   0.01792978   0.01757588            6 
 2244000   0.90395572   -8.0922029    481.13632   0.01786751  0.017569927            5 
 2245000   0.90208406   -8.0630867    482.21884  0.017899734  0.017563969            4 
 2246000    0.8899586   -8.1289102    481.69905  0.017872479  0.017558066            3 
 2247000   0.88321989    -8.117537    482.22943  0.017884195  0.017552089            2 
 2248000   0.89678199    -8.086048    483.17815  0.017911408   0.01754616            5 
 2249000   0.89829434   -8.0768766    482.70316  0.017885844  0.017540249            9 
 2250000   0.91071487   -8.0489227    484.03657   0.01792728  0.017534385           13 
 2251000   0.89395915   -8.0845325    483.81033  0.017910941  0.017528535            4 
 2252000   0.89664809   -8.0824753    484.08962  0.017913322  0.017522675            4 
 2253000   0.88015286   -8.0992069    483.92206  0.017899174  0.017516791            3 
 2254000   0.87354707   -8.0504609    484.47668  0.017911738  0.017510906            2 
 2255000   0.88608887   -8.0818832    484.00235  0.017886266  0.017505035            1 
 2256000    0.8882601   -8.0909831    483.58611  0.017862962  0.017499151            6 
 2257000   0.86055969   -8.0732399    482.35151  0.017809463  0.017493249            3 
 2258000   0.87194348   -8.1128479    481.79262   0.01778095  0.017487291            2 
 2259000   0.87888995   -8.1153332    483.24381  0.017826613  0.017481356            2 
 2260000   0.87714217   -8.0878094    482.91054  0.017806436  0.017475452            8 
 2261000   0.87952966   -8.1013386    484.14103  0.017843912  0.017469524            3 
 2262000   0.88804514   -8.0896989    484.04958  0.017832655  0.017463612            4 
 2263000     0.877481   -8.0986852    482.22889  0.017757729  0.017457668            3 
 2264000   0.91450026   -8.1203058    482.46006  0.017758394  0.017451725            3 
 2265000   0.89591386   -8.1056333    483.23763  0.017779162    0.0174458            7 
 2266000   0.86641166   -8.1143265    482.31608  0.017737426  0.017439858            4 
 2267000   0.88157919   -8.0828476    484.46757  0.017808689  0.017433896            3 
 2268000   0.91293811   -8.0877664    484.46072  0.017800585   0.01742798            4 
 2269000   0.88541939   -8.1279249    482.98593  0.017738575  0.017422014            6 
 2270000   0.87248615   -8.0908174    484.02072  0.017768749  0.017416065            3 
 2271000   0.91127515   -8.1133914    484.66807  0.017784679  0.017410144            4 
 2272000   0.90513814   -8.0926649    484.03997  0.017753813  0.017404232            1 
 2273000   0.86777452   -8.1136003    483.46785  0.017725027  0.017398311            4 
 2274000   0.86695678   -8.1269183    483.30283  0.017711185  0.017392307            5 
 2275000   0.88886483   -8.1116325    483.82369  0.017722479  0.017386325            6 
 2276000    0.8918997   -8.0974795    483.39822  0.017699115  0.017380358            4 
 2277000   0.86848807   -8.1029727    483.83267  0.017707242  0.017374365            6 
 2278000   0.87758779   -8.1024433    482.31678  0.017644015  0.017368297            1 
 2279000   0.88478403   -8.0845022    484.44472  0.017714082  0.017362243            4 
 2280000   0.89017609   -8.1083193    483.66714  0.017677893  0.017356224            7 
 2281000     0.903348    -8.087197    483.34767  0.017658471  0.017350223            9 
 2282000   0.87841993   -8.1445537    484.28734  0.017685047  0.017344211            4 
 2283000   0.89241555   -8.0798672    482.87523  0.017625757   0.01733818            6 
 2284000   0.88790472   -8.1156961    482.55322  0.017606291  0.017332198            5 
 2285000   0.89244583   -8.1089964    484.33081  0.017663414  0.017326191            2 
 2286000   0.87730611   -8.0901335    483.28423  0.017617535  0.017320215            4 
 2287000   0.87683785   -8.0800761     484.2975  0.017646753  0.017314214            2 
 2288000   0.90260038   -8.0722181    483.65242  0.017615546   0.01730823            2 
 2289000    0.8859147   -8.0475973    484.40537  0.017635262  0.017302276            3 
 2290000   0.88770768   -8.1108859     485.0149  0.017649742  0.017296277            2 
 2291000   0.86640375   -8.1223297    483.45706  0.017585373  0.017290239            4 
 2292000   0.88736659   -8.0884669    484.03423  0.017598685  0.017284207            5 
 2293000   0.86392622   -8.0889924    484.04206  0.017591295  0.017278228            5 
 2294000   0.90927284   -8.0707597    485.04445   0.01762004  0.017272263            4 
 2295000    0.8640764   -8.1024793    485.73166  0.017637315  0.017266308            2 
 2296000   0.87074328   -8.0666555    484.81903  0.017596509  0.017260329            3 
 2297000    0.8916181   -8.1065196    485.14201  0.017600566  0.017254379            6 
 2298000   0.87178857   -8.0828134    484.45454  0.017567977  0.017248398            3 
 2299000   0.87632775   -8.0973808    483.94579  0.017541895  0.017242405            2 
 2300000   0.88610107   -8.0671796     483.8632  0.017531276  0.017236439            9 
 2301000   0.86572585   -8.0835802    484.87006  0.017560121  0.017230448            5 
 2302000   0.87151828   -8.0883486    485.35873  0.017570183  0.017224486            3 
 2303000   0.88921194   -8.1093359    484.02136  0.017514161  0.017218486            7 
 2304000   0.89124123   -8.1141233    484.63794  0.017528861  0.017212466            3 
 2305000   0.90780366    -8.099809    484.18625  0.017504926  0.017206437            3 
 2306000    0.8728014   -8.0837809    485.36404  0.017539898  0.017200466            5 
 2307000   0.90041202   -8.1049903    485.23176  0.017527516  0.017194454            3 
 2308000   0.85698449     -8.06334    484.92059  0.017508687   0.01718847           10 
 2309000   0.88648723   -8.1187317    486.28397  0.017550309   0.01718248            3 
 2310000   0.88896852    -8.097359    485.18219  0.017502965  0.017176502           11 
 2311000   0.89775269   -8.0933969    486.00292  0.017524986  0.017170564            4 
 2312000   0.86403244   -8.0751374    485.86037  0.017512268  0.017164639            5 
 2313000   0.90114796    -8.124653     485.1052   0.01747749  0.017158741            6 
 2314000   0.88714968   -8.0943126    485.89482  0.017498373  0.017152814            2 
 2315000   0.88511262    -8.093422    485.71813  0.017484454  0.017146924            4 
 2316000   0.88994676   -8.0866585    486.50903  0.017505362  0.017141033            5 
 2317000   0.88773882   -8.0909516    485.69036  0.017468363   0.01713514            4 
 2318000   0.88539271   -8.0963529     487.0074  0.017508175   0.01712921            3 
 2319000   0.85581997   -8.0815138    486.04529  0.017466052  0.017123287            6 
 2320000    0.8976373   -8.1360718    486.11051  0.017460866  0.017117347            6 
 2321000   0.87295485   -8.1097298    486.28649  0.017459661  0.017111462            3 
 2322000   0.85939369   -8.1001862    487.25432  0.017486876  0.017105571            2 
 2323000   0.87718777   -8.1030779    486.74459  0.017461063  0.017099674            4 
 2324000   0.88863951   -8.1129086    487.05101  0.017464537  0.017093762            2 
 2325000   0.85298541   -8.1269892    486.00962    0.0174197  0.017087833            5 
 2326000   0.88961616   -8.1318764    485.93226  0.017409439  0.017081894            6 
 2327000   0.89108428   -8.1420802    485.95013  0.017402597  0.017075955            3 
 2328000   0.88673027   -8.1188547    486.84841  0.017427277  0.017070049            4 
 2329000   0.87315392   -8.1442723    486.36426  0.017402471  0.017064111            7 
 2330000   0.89688549   -8.1524491    485.41707  0.017361126  0.017058163            2 
 2331000   0.88163525   -8.1049612    487.10065  0.017413865  0.017052268            4 
 2332000   0.86450713   -8.0796883     488.1619  0.017444322  0.017046409            6 
 2333000   0.87228348   -8.0754486    487.05734   0.01739739  0.017040556            2 
 2334000   0.87057432   -8.1256934    487.39074   0.01740184  0.017034671            3 
 2335000   0.86701812   -8.1233079    487.75414  0.017407357  0.017028779            7 
 2336000    0.8687581   -8.0790102    488.18467  0.017415264  0.017022927            3 
 2337000   0.86532334   -8.0936232    488.35816  0.017413998  0.017017097            5 
 2338000   0.89428813   -8.1164335    487.79902   0.01738662  0.017011258            2 
 2339000   0.88357113   -8.1449902    486.39408  0.017329132  0.017005428            2 
 2340000   0.87096031   -8.1298261    488.14594  0.017384115  0.016999575            7 
 2341000   0.87530913   -8.1000651    487.84501  0.017365976  0.016993709            4 
 2342000   0.89596227   -8.1150012    489.11864   0.01740388  0.016987844            4 
 2343000   0.86812297   -8.1380315    487.61339  0.017342915  0.016981965            4 
 2344000   0.88091552   -8.1586851     486.6383   0.01730085  0.016976041            3 
 2345000   0.90502582   -8.1451968     486.6709   0.01729463  0.016970101            3 
 2346000   0.87516894   -8.1596204    487.60531   0.01732045  0.016964181            3 
 2347000   0.86147033   -8.1561155    487.79445  0.017319786  0.016958255            3 
 2348000    0.8853018   -8.1254413    488.62401  0.017341851  0.016952403            2 
 2349000   0.87167067   -8.1365819    487.78033  0.017304538  0.016946547            1 
 2350000   0.86935991   -8.1399159    488.08823  0.017308093  0.016940694            5 
 2351000   0.88573286   -8.1483215    487.81529  0.017291057  0.016934861            3 
 2352000    0.8657708   -8.1093063    488.12556  0.017294698  0.016929056            5 
 2353000   0.88976881    -8.143378    488.93411  0.017315984  0.016923256            4 
 2354000   0.87333932   -8.1512082    489.35181  0.017323415  0.016917448            5 
 2355000   0.88151215   -8.1431859     488.9925  0.017303344  0.016911633            1 
 2356000   0.86284224   -8.1526392    488.24065  0.017269406  0.016905806            6 
 2357000   0.86757099   -8.1475498    488.44018  0.017269134  0.016899988            5 
 2358000   0.88643716   -8.1175074    489.66787  0.017305197  0.016894192            3 
 2359000   0.87365585   -8.1011586    489.77969  0.017301812  0.016888412            2 
 2360000   0.87697033     -8.10273    489.41837  0.017281722  0.016882636            4 
 2361000   0.86751707   -8.1202172    489.39187  0.017273467  0.016876872            5 
 2362000   0.85795631   -8.1168996    489.87851  0.017283323  0.016871102            2 
 2363000   0.88119759   -8.1236105    489.21921  0.017252758  0.016865377            5 
 2364000   0.87821981   -8.1456826    488.08238  0.017205386  0.016859631            5 
 2365000   0.85686062    -8.131731     489.7147  0.017255627  0.016853871            1 
 2366000   0.86003672   -8.1453091    490.10747  0.017262168  0.016848091            6 
 2367000   0.86777533    -8.131175    489.38126  0.017229308  0.016842354            2 
 2368000   0.87443339   -8.1172515    490.22894  0.017251863  0.016836582            2 
 2369000   0.85569509   -8.1588263    488.17011  0.017172158  0.016830841            3 
 2370000   0.86591031   -8.1440828    490.98345  0.017263834   0.01682508            6 
 2371000   0.87935319   -8.1649971    490.34042  0.017233953  0.016819312            3 
 2372000   0.86661151   -8.1555235    488.93356  0.017177261  0.016813544            4 
 2373000   0.88388616   -8.1291389    491.05769  0.017244616  0.016807736            3 
 2374000   0.83891049   -8.1455186    489.33058  0.017176726  0.016801958            3 
 2375000   0.88503184    -8.153095    489.94823  0.017191166  0.016796156            5 
 2376000   0.87671126   -8.1498998     490.5365  0.017204563  0.016790358            2 
 2377000   0.86961839    -8.158105    488.74902  0.017134659  0.016784564            8 
 2378000   0.87868871   -8.1535804    490.12027  0.017175507  0.016778769            2 
 2379000   0.86978507   -8.1199243    490.35768  0.017176604  0.016773023            3 
 2380000   0.85452318   -8.1418403    489.85163  0.017151668  0.016767243            1 
 2381000   0.87011259   -8.1475913    490.13713  0.017154457  0.016761474            2 
 2382000   0.86200056   -8.1531594    490.33961  0.017154338  0.016755686            4 
 2383000     0.881202   -8.1478309    489.59927   0.01712125  0.016749904            3 
 2384000    0.8681203    -8.121687    491.41535   0.01717755  0.016744132            7 
 2385000   0.85966401   -8.1407467    491.11485  0.017159848  0.016738352            2 
 2386000   0.86857442    -8.140844     490.6921  0.017137891  0.016732592            2 
 2387000   0.86675963    -8.131569    490.65772  0.017129511  0.016726808            5 
 2388000   0.86206627   -8.1304181    491.39682   0.01714813  0.016721051            5 
 2389000   0.85799274   -8.1541048    491.27549   0.01713672  0.016715339            2 
 2390000   0.85278107   -8.1202515    492.05851  0.017156852  0.016709643            9 
 2391000   0.83946871   -8.1302821      491.173  0.017118814  0.016703935            2 
 2392000   0.86916874   -8.1130637    492.47204  0.017156913  0.016698227            5 
 2393000   0.86364452   -8.1247552    492.16643  0.017139101  0.016692523            6 
 2394000   0.86811953   -8.1689322    490.62336  0.017078229  0.016686792            4 
 2395000    0.8646883   -8.1744146    491.64438  0.017106624  0.016681023            2 
 2396000   0.86577579   -8.1525924    490.81577  0.017070665   0.01667524            4 
 2397000   0.86955992   -8.1890501    489.95904  0.017033759  0.016669497            3 
 2398000   0.87028823   -8.1691303    490.11868  0.017032203  0.016663775            3 
 2399000   0.86021949   -8.1475969    491.31138  0.017066534  0.016658049            4 
 2400000   0.89530208   -8.1261358    490.83857  0.017043006   0.01665236            2 
 2401000   0.86410406   -8.1149924    491.35895  0.017053969  0.016646668            3 
 2402000   0.84733834   -8.1398868    491.33078  0.017045892  0.016641001            4 
 2403000   0.87481667   -8.1705512    491.28352  0.017037159  0.016635325            2 
 2404000   0.85867632   -8.1369901    490.89978   0.01701677  0.016629621            2 
 2405000    0.8690663   -8.1476136    492.02349  0.017048631  0.016623926            2 
 2406000   0.87524863   -8.1338589    491.80672  0.017034037  0.016618248            4 
 2407000   0.83977012   -8.1286502    492.78928  0.017060978  0.016612586            4 
 2408000   0.87083543   -8.1206298     491.8761   0.01702229    0.0166069            4 
 2409000    0.8623533   -8.1823821     491.6289  0.017006673  0.016601211            1 
 2410000   0.87158771   -8.1632729    491.95068  0.017010743  0.016595514            7 
 2411000   0.87164483    -8.134084    493.29888  0.017050286  0.016589839            5 
 2412000   0.86673014    -8.122036     492.2024  0.017005334  0.016584151            2 
 2413000   0.87312969   -8.1728039    492.63932  0.017013376   0.01657842            3 
 2414000    0.8894779   -8.1263422    492.50625  0.017001735  0.016572703            4 
 2415000   0.86694233   -8.1471576    491.66852  0.016965788  0.016567016            5 
 2416000    0.8578173   -8.1359974    492.00457  0.016970356  0.016561335            6 
 2417000   0.86343246   -8.1438062    492.39016   0.01697663  0.016555647            5 
 2418000   0.87357395   -8.1583227    491.99004  0.016955819  0.016549952            4 
 2419000   0.87011534   -8.1774565    491.88722  0.016945267  0.016544224            3 
 2420000   0.87721525   -8.1559413    493.21226  0.016983893  0.016538497            3 
 2421000   0.89013643   -8.1931277    490.89076   0.01689697  0.016532779            5 
 2422000    0.8805981   -8.1436442    492.16508  0.016933839  0.016527038            5 
 2423000   0.86088645   -8.1611902    493.71287  0.016980082  0.016521342            4 
 2424000   0.86257758   -8.1944464    492.41071  0.016928311  0.016515655            5 
 2425000   0.87341979   -8.1774067    491.63981  0.016894839  0.016509915            4 
 2426000   0.87760367   -8.1695081    492.14163  0.016905112  0.016504182            3 
 2427000   0.86523604   -8.1291318    493.46836  0.016943701  0.016498472            5 
 2428000   0.86540133   -8.1716909    492.50526  0.016903668    0.0164928            3 
 2429000   0.87895997   -8.1832459    492.05989  0.016881429  0.016487131            4 
 2430000   0.86410735   -8.1252325    492.36152  0.016884826  0.016481422            8 
 2431000   0.88307629   -8.1652967    493.05349  0.016901601  0.016475739            4 
 2432000   0.86481874   -8.1568213    493.24208  0.016901113  0.016470024            3 
 2433000   0.86436365   -8.1695791    493.92691  0.016917623  0.016464313            3 
 2434000   0.86901208   -8.1910878    493.72469  0.016903749  0.016458647           10 
 2435000   0.83892855   -8.2153926    492.35539  0.016849945  0.016452929            3 
 2436000   0.88513624    -8.199527    493.42111  0.016879485  0.016447235            6 
 2437000   0.87000383   -8.1702461    491.93673    0.0168218   0.01644156           10 
 2438000   0.86907766   -8.1745733    493.36932  0.016863868   0.01643591            6 
 2439000   0.85091535   -8.1430389    495.08511  0.016915577  0.016430273            6 
 2440000   0.84849763   -8.1695983     492.6663  0.016826035  0.016424611            5 
 2441000   0.87221842   -8.1944206    493.48931  0.016847239  0.016418915            5 
 2442000   0.85437874   -8.1823574    493.27141  0.016832904  0.016413245            8 
 2443000   0.86878404   -8.2014654    492.31786  0.016793487  0.016407569            4 
 2444000   0.87133442   -8.1803876    493.79936   0.01683713  0.016401875           10 
 2445000   0.87093948   -8.1500773    493.04211  0.016804434   0.01639623            4 
 2446000   0.86702107   -8.1609791    493.66341  0.016818731  0.016390587            2 
 2447000   0.85259038   -8.1633631    493.27729  0.016798709  0.016384951            5 
 2448000   0.86175311   -8.1196496    495.87037  0.016880119  0.016379364            3 
 2449000   0.87622224   -8.1159503    494.57703  0.016829217   0.01637376            3 
 2450000   0.86448775   -8.1664396    494.16169  0.016808221  0.016368129            3 
 2451000   0.85683176   -8.1303124    494.99961  0.016829852  0.016362512            2 
 2452000   0.85227096   -8.1574122    494.35472  0.016801071  0.016356934            3 
 2453000   0.84826272   -8.2057084    493.59399  0.016768378  0.016351332            2 
 2454000    0.8553289   -8.1703647    493.77408  0.016767661  0.016345698            3 
 2455000   0.86242299    -8.182868    493.60048  0.016754938  0.016340109            3 
 2456000   0.85262907   -8.1577115     494.7677  0.016787721  0.016334488            3 
 2457000   0.84879263    -8.215956    493.93946  0.016752797   0.01632885            3 
 2458000   0.86149024   -8.1796543    494.76895  0.016774103  0.016323215            9 
 2459000   0.85043747   -8.1914373    494.74933  0.016766617   0.01631762            7 
 2460000   0.83761605   -8.1741062    494.88646  0.016764446  0.016312017            5 
 2461000   0.83712519   -8.1440307    496.65424  0.016817494   0.01630642            2 
 2462000   0.84612701   -8.1480001    495.56829  0.016773906  0.016300805            3 
 2463000   0.86649381   -8.1635071    493.87348  0.016709754  0.016295211            3 
 2464000   0.86901777   -8.1590579    496.24425  0.016783153  0.016289613            3 
 2465000   0.85285542   -8.1940314      493.788  0.016693306  0.016284021            3 
 2466000   0.84629264   -8.1812491    495.65776  0.016749721  0.016278454            4 
 2467000   0.85573135   -8.1841626    493.89116  0.016683258  0.016272883            6 
 2468000   0.85814765   -8.1732323    495.19505  0.016720524  0.016267315            2 
 2469000   0.86548781   -8.1551618    495.67425  0.016729926  0.016261757            5 
 2470000   0.85477307    -8.201894    495.17181  0.016706201  0.016256166            2 
 2471000   0.86423457   -8.1843303    496.30974  0.016737817  0.016250583            3 
 2472000   0.85269533   -8.1853947    495.15393  0.016692082  0.016245001            6 
 2473000   0.85690064   -8.1918477    494.51504  0.016663804  0.016239401            6 
 2474000   0.85157316   -8.2056294    494.94994  0.016671717  0.016233821            3 
 2475000   0.87229512   -8.1657888    496.46596  0.016716026  0.016228236            8 
 2476000   0.85682723   -8.1609537    496.91718  0.016724461  0.016222686            2 
 2477000   0.84741085   -8.2235817    496.41434  0.016700792  0.016217105            4 
 2478000   0.87650211   -8.2017473    496.36187  0.016692288  0.016211487            3 
 2479000   0.84165979   -8.2233225     494.0767  0.016608737  0.016205889            4 
 2480000   0.88291417   -8.1631387    495.11157  0.016636814  0.016200302            2 
 2481000   0.84352597   -8.1443498    496.40933  0.016673698  0.016194751            3 
 2482000   0.85662283   -8.1682228    497.02639  0.016687698   0.01618918            2 
 2483000   0.84297078   -8.1941184    495.77703  0.016639046  0.016183597            4 
 2484000   0.85894359   -8.1976295    495.57942  0.016625719  0.016178011            5 
 2485000   0.85461749   -8.1849064    495.68376  0.016622527  0.016172381            4 
 2486000    0.8439386   -8.1969895     495.9677  0.016625359  0.016166764            2 
 2487000   0.85460192   -8.1777622    495.38598  0.016599182  0.016161151            4 
 2488000   0.86768727   -8.2318728    495.36397  0.016591773  0.016155544            4 
 2489000   0.86499657   -8.2134447    495.27112  0.016581998  0.016149911            1 
 2490000   0.84052671   -8.1988893    497.15047  0.016638235  0.016144298            2 
 2491000   0.84526047   -8.2086672    495.05164  0.016561342  0.016138685            3 
 2492000   0.85074191   -8.1997035    494.63876   0.01654089  0.016133072            4 
 2493000   0.85867654   -8.1781871    496.27879  0.016589076  0.016127474            3 
 2494000   0.85204115   -8.2133595    495.48651  0.016555951  0.016121882           11 
 2495000   0.85363733   -8.2160109    496.69937  0.016589825  0.016116277            4 
 2496000    0.8560812   -8.1909554     494.9855  0.016525958   0.01611069           11 
 2497000   0.84853351   -8.1749117    495.85043  0.016548205  0.016105137            4 
 2498000   0.84783892   -8.1969902    496.17756  0.016552494  0.016099556            5 
 2499000   0.84976567   -8.1656314    497.54101  0.016591337  0.016093998           11 
 2500000   0.86205389     -8.19109     497.1184  0.016570613   0.01608847            8 
 2501000   0.86559532   -8.1960112    496.95391  0.016558507  0.016082942            8 
 2502000   0.83341554   -8.1859587    498.28247  0.016596139  0.016077406            3 
 2503000   0.86006865   -8.1987105    497.43304  0.016561228  0.016071868            9 
 2504000   0.85738429   -8.2035778    496.56359  0.016525679  0.016066332           14 
 2505000   0.84124469   -8.1981321    497.30757  0.016543831  0.016060779            1 
 2506000   0.86944262   -8.1939064    497.08712  0.016529899   0.01605523            5 
 2507000   0.83180419   -8.2015313    497.47044  0.016536047  0.016049708            4 
 2508000   0.85405213   -8.1821835    497.13929  0.016518451  0.016044203            3 
 2509000   0.84165918   -8.1797508    497.84465  0.016535295  0.016038732            6 
 2510000   0.84552803   -8.1579877    497.99615  0.016533737  0.016033241            2 
 2511000   0.85536201   -8.1708433    497.27924   0.01650336  0.016027751            5 
 2512000   0.82969404   -8.2224463    497.50103  0.016504148  0.016022271            5 
 2513000   0.85253362   -8.1988052    497.68491  0.016503678  0.016016716            4 
 2514000   0.85000874   -8.1842754    497.68899  0.016497248  0.016011208            5 
 2515000   0.84576959   -8.2047808    497.54328  0.016485861  0.016005686            4 
 2516000   0.84171154   -8.1780571    497.01341  0.016461759  0.016000188            3 
 2517000   0.86121681   -8.1917571    497.60777  0.016474896  0.015994675            5 
 2518000   0.85838068   -8.1902223     498.0372  0.016482566  0.015989162            4 
 2519000   0.84539197   -8.1746841    499.23274  0.016515573  0.015983681            3 
 2520000   0.83520907   -8.1650678    499.05573  0.016503166  0.015978231            7 
 2521000   0.85109676   -8.2009076    499.35176  0.016506405  0.015972785            6 
 2522000   0.84861801   -8.2036439    497.81409  0.016449051  0.015967327            7 
 2523000   0.84208858   -8.2195346    497.83915  0.016443359  0.015961855            6 
 2524000   0.84508859   -8.2050689    497.88013  0.016438198  0.015956375            3 
 2525000   0.84365447   -8.1921018    498.83714  0.016463272  0.015950896            4 
 2526000   0.83131829   -8.2097235    498.76583  0.016454402  0.015945428            4 
 2527000   0.86175577   -8.2094204    499.40547  0.016468984  0.015939938            2 
 2528000   0.84521318   -8.2027078    497.94953  0.016414476  0.015934467            4 
 2529000   0.86035092   -8.2344285    497.44378   0.01639132  0.015928994            4 
 2530000   0.85291417    -8.213353    497.30257   0.01638019  0.015923475            2 
 2531000   0.83456876     -8.20231    497.89557  0.016393243   0.01591798            5 
 2532000    0.8499708    -8.199792    497.84801  0.016385203  0.015912474            2 
 2533000   0.84480604   -8.1836303    498.36929  0.016395884  0.015906991            5 
 2534000   0.84590224   -8.2045564    497.80656  0.016370908  0.015901508           10 
 2535000   0.84395265   -8.2116593    497.77293  0.016363344  0.015896024            3 
 2536000   0.85717978   -8.2117619    497.51434  0.016348395  0.015890574            4 
 2537000   0.83275131   -8.2127282      498.443  0.016372454  0.015885092            6 
 2538000   0.83642572   -8.2006751     498.7829  0.016377164  0.015879591            3 
 2539000   0.84361624     -8.22861      498.302   0.01635493  0.015874127           12 
 2540000   0.83528744   -8.2001228     499.5179  0.016388382  0.015868671            4 
 2541000   0.83868724   -8.2151519    498.45474  0.016347066  0.015863235            4 
 2542000   0.84198404   -8.2129745    498.70869   0.01634896  0.015857766            3 
 2543000   0.85525225   -8.2149305    498.91548  0.016349308  0.015852291            3 
 2544000   0.85260969   -8.1654928    499.44084   0.01636009   0.01584686            4 
 2545000   0.83709518   -8.2009104    498.84282  0.016334081  0.015841439            7 
 2546000   0.85017301   -8.1688849    500.45887   0.01638056  0.015835995            4 
 2547000   0.84154069   -8.1764765    500.30693  0.016369158  0.015830566           11 
 2548000   0.83937666    -8.204425    498.36546  0.016299237  0.015825135           11 
 2549000   0.85110148   -8.1925748    500.21928  0.016353448  0.015819669           12 
 2550000   0.84333818    -8.214486    499.33824  0.016318243  0.015814213            5 
 2551000   0.82726882   -8.2004168    499.70508   0.01632383  0.015808744           15 
 2552000   0.83998138    -8.244081     499.3096  0.016304519  0.015803262            5 
 2553000   0.82685698    -8.246302    498.05065  0.016257039  0.015797791            5 
 2554000   0.85546564   -8.2110177    499.67317  0.016303614  0.015792325            4 
 2555000    0.8284289   -8.1929652    499.60307  0.016294947  0.015786908           11 
 2556000   0.84611118   -8.2296088    498.37301  0.016248468  0.015781455            7 
 2557000   0.83442869   -8.2137753    498.24963  0.016238092  0.015776002           11 
 2558000   0.84613823   -8.2147529    499.19746  0.016262622  0.015770519            5 
 2559000   0.83406838   -8.2008662    499.67562  0.016271839  0.015765039            3 
 2560000   0.83428102   -8.2042551    499.34737  0.016254797   0.01575956            3 
 2561000   0.83758714   -8.2392158    499.96098  0.016268417  0.015754086            5 
 2562000   0.83392322   -8.2062147    499.42142  0.016244517  0.015748623            3 
 2563000   0.85626715   -8.2216304    498.43927  0.016206245  0.015743152            4 
 2564000   0.84406673   -8.2442259    499.47693   0.01623365  0.015737659            8 
 2565000   0.83426336   -8.2107366    498.93955  0.016209862  0.015732167           11 
 2566000   0.86218504   -8.2125975     501.0628  0.016272499  0.015726708            6 
 2567000     0.832362   -8.2355825    499.37546  0.016211384  0.015721228            2 
 2568000    0.8375543   -8.2205187    499.45069  0.016207512  0.015715742            5 
 2569000   0.83465257   -8.2307783    500.05836  0.016220915  0.015710268            3 
 2570000   0.82118027   -8.2226768     499.1681  0.016185736  0.015704802            4 
 2571000   0.85110838   -8.2659723    498.58426  0.016160517  0.015699306            5 
 2572000   0.85180839   -8.2132062    500.26173  0.016208584  0.015693803            5 
 2573000   0.84421584   -8.2008389    499.21644   0.01616843   0.01568835            4 
 2574000    0.8036139    -8.214031    500.16678  0.016192916  0.015682897            4 
 2575000   0.84583698   -8.2311354    499.80625   0.01617496  0.015677446            3 
 2576000   0.85652484   -8.2407256    499.63283   0.01616307  0.015671992            4 
 2577000   0.83332164   -8.1902179    500.86436  0.016196623  0.015666565            7 
 2578000   0.83252578   -8.2411422    499.03985  0.016131363  0.015661125            6 
 2579000   0.83311188    -8.238256    500.15285  0.016161072  0.015655653           13 
 2580000   0.81955317    -8.234402    499.20691  0.016124254  0.015650205            8 
 2581000    0.8270868   -8.2493229    497.73077  0.016070346  0.015644712            3 
 2582000   0.84337342   -8.2171594     499.3577  0.016116631   0.01563925            9 
 2583000   0.83927262    -8.217814    499.60566  0.016118391    0.0156338            4 
 2584000   0.82879804   -8.2028972    500.55072  0.016142632  0.015628364            7 
 2585000   0.83326706   -8.2199528    499.59744  0.016105656  0.015622952            4 
 2586000   0.82823172   -8.2592361    498.40746  0.016061081   0.01561753            4 
 2587000    0.8271655   -8.2192263     500.8403   0.01613324  0.015612121            2 
 2588000   0.79668078   -8.2370516    499.73598  0.016091447  0.015606706            6 
 2589000   0.84821801   -8.2284482    500.77213  0.016118583  0.015601308            5 
 2590000   0.84231724    -8.179988    501.09973    0.0161229  0.015595922            6 
 2591000   0.83051256   -8.2267687     500.4413    0.0160955   0.01559054            2 
 2592000   0.83741112   -8.2018853    502.95403  0.016170076   0.01558515           11 
 2593000   0.83651227    -8.254306    501.39009  0.016113578  0.015579752            4 
 2594000   0.85810684   -8.2367905    501.66912   0.01611633  0.015574346            3 
 2595000   0.85037542   -8.2223003    501.14149  0.016093176  0.015568939            3 
 2596000   0.82714919   -8.2546082    501.39485  0.016095109  0.015563548            3 
 2597000   0.84554796   -8.2217848    501.35511  0.016087637  0.015558163           10 
 2598000    0.8625223   -8.2169165    501.12931  0.016074202  0.015552792           11 
 2599000   0.83487406    -8.217894    501.98439  0.016095434   0.01554739            5 
 2600000   0.82562096   -8.2388235    501.47636   0.01607296  0.015542027            8 
 2601000   0.84819643   -8.2199405    500.85827  0.016046978   0.01553667            3 
 2602000   0.85442002   -8.2233774     500.9101  0.016042471  0.015531318            3 
 2603000   0.83442897   -8.2095238    499.81503  0.016001249  0.015525929            3 
 2604000   0.83110172   -8.2557119    501.73015  0.016056392  0.015520564            6 
 2605000   0.83610655   -8.2791529      500.149  0.015999648  0.015515167            2 
 2606000    0.8442304    -8.222401     502.1222  0.016056607  0.015509813            6 
 2607000   0.83581852    -8.259378    500.91122  0.016011738  0.015504453            4 
 2608000   0.84284645   -8.2389237    502.11955  0.016044208  0.015499102            4 
 2609000   0.84893939    -8.223133    501.89246  0.016030805  0.015493749            5 
 2610000   0.83066947   -8.2183385    500.61983   0.01598403  0.015488447            2 
 2611000   0.83704491   -8.2299685     502.2164  0.016028865  0.015483112            4 
 2612000   0.83484241   -8.2219918    502.55577  0.016033556  0.015477775            5 
 2613000   0.84153477   -8.2124813    502.85704  0.016037028  0.015472427            4 
 2614000   0.84709755   -8.2235841    502.18007  0.016009311  0.015467084            3 
 2615000   0.84020496   -8.2321426    502.26283  0.016005826  0.015461735            4 
 2616000   0.83149169   -8.2390301    501.76107  0.015983724   0.01545639           14 
 2617000   0.82435053    -8.210554    501.92825   0.01598294  0.015451031            5 
 2618000   0.82055865   -8.2337408     501.4245    0.0159608  0.015445676            3 
 2619000   0.84190613   -8.2697437    501.52625  0.015957944  0.015440322            5 
 2620000   0.84051147   -8.2545045    501.97908  0.015966256  0.015434975            8 
 2621000    0.8186501   -8.2333484    502.69668   0.01598298  0.015429635            6 
 2622000   0.82436818   -8.2587864    501.56028  0.015940766  0.015424302            5 
 2623000   0.83464657   -8.2330908    502.17159  0.015954111  0.015418944            4 
 2624000   0.81216005   -8.2083056    502.80338  0.015968095  0.015413581            5 
 2625000   0.82913627   -8.2424376    501.07671  0.015907197  0.015408188            5 
 2626000   0.81045295    -8.249419    501.63681  0.015918914  0.015402812            3 
 2627000   0.83279962     -8.24501    502.31255   0.01593429  0.015397434            4 
 2628000   0.81921704   -8.2671127    501.76425   0.01591084  0.015392043            3 
 2629000    0.8306014   -8.2569428    502.81444  0.015938076  0.015386647            5 
 2630000   0.83060111    -8.235515    501.65266  0.015895205  0.015381281            3 
 2631000   0.81640337   -8.2559998    501.13788  0.015872858  0.015375936           18 
 2632000   0.81688589   -8.2402297    501.83018  0.015888747    0.0153706            7 
 2633000   0.81953772   -8.2558707    501.94621  0.015886385  0.015365262           11 
 2634000   0.82942869   -8.2497802    501.89825  0.015878836  0.015359911            6 
 2635000   0.81498308   -8.2695529    501.54305  0.015861577  0.015354587            4 
 2636000   0.83739847   -8.2649841    501.73764  0.015861711  0.015349227            6 
 2637000   0.83905342   -8.2473211    502.73678   0.01588727  0.015343889            5 
 2638000   0.81384579   -8.2743583    503.13041  0.015893682  0.015338531            3 
 2639000   0.84052379   -8.2663365    502.11966  0.015855743  0.015333206            4 
 2640000   0.84039289   -8.2628028    502.95369  0.015876064  0.015327864            4 
 2641000   0.80636189   -8.2455314    502.30189  0.015849485  0.015322545            5 
 2642000   0.82783821   -8.2260649    503.42889  0.015879034  0.015317257            5 
 2643000   0.81849461   -8.2460189    502.65414  0.015848598   0.01531196            6 
 2644000   0.81998004   -8.2649107    502.96535  0.015852413  0.015306655           13 
 2645000    0.8205314   -8.2419697    503.17502  0.015853025  0.015301352            1 
 2646000   0.82713107   -8.2510664    502.20896  0.015816609  0.015296011            3 
 2647000   0.82676051    -8.259072    501.43914  0.015786398  0.015290639            8 
 2648000   0.83174175   -8.2635619     501.6543  0.015787207  0.015285307           13 
 2649000   0.81360034   -8.2599238    503.64785  0.015843961  0.015279972            2 
 2650000   0.83637684   -8.2694782    502.31509  0.015796072  0.015274632            7 
 2651000   0.81979278   -8.2564583      503.313  0.015821482  0.015269315            3 
 2652000    0.8376956   -8.2881683     502.7366  0.015797405  0.015263961            4 
 2653000   0.82239347   -8.2646437    501.88113  0.015764579  0.015258611            8 
 2654000   0.83530938   -8.2580739    503.64373  0.015813983  0.015253276            2 
 2655000   0.83988005   -8.2904856    501.99714  0.015756345  0.015247902           12 
 2656000   0.83861504   -8.2942802    501.62803  0.015738831  0.015242522            6 
 2657000   0.83068022   -8.2908725    502.46926  0.015759292  0.015237136            6 
 2658000   0.82885535   -8.2848749     502.0598  0.015740526  0.015231768           10 
 2659000   0.84335847   -8.2653719    503.68036  0.015785394  0.015226428            6 
 2660000   0.82324164   -8.2758759    502.70347  0.015748855  0.015221097            8 
 2661000   0.80872867   -8.2691262    501.94238  0.015719102  0.015215739            5 
 2662000   0.82254516   -8.2583052    503.77947  0.015770707  0.015210386            5 
 2663000   0.83383829   -8.2638575    501.20169  0.015684119  0.015205034            3 
 2664000   0.82429843   -8.2564255    502.14077  0.015707607  0.015199668            3 
 2665000    0.8096523   -8.2494275    503.37952  0.015740448  0.015194338            8 
 2666000   0.82822303   -8.2536954    503.70652  0.015744765  0.015189011            7 
 2667000   0.82052917   -8.2585462    504.49913  0.015763627  0.015183689            3 
 2668000   0.80401353   -8.2598372    504.09232  0.015745012   0.01517838            4 
 2669000   0.83001109   -8.2672684    503.40365  0.015717611  0.015173063            7 
 2670000   0.82997514   -8.3195523    501.47367  0.015651488   0.01516771            9 
 2671000    0.8318518   -8.2631982    503.00204  0.015693312  0.015162363            7 
 2672000   0.82421505   -8.2608483    503.57304  0.015705247  0.015157035           19 
 2673000   0.83042866   -8.2647904    503.32508  0.015691641  0.015151708            3 
 2674000   0.82855034   -8.2926685    502.99272  0.015675415  0.015146378            6 
 2675000   0.81879635   -8.2722027    502.97784  0.015669092  0.015141076            4 
 2676000   0.83158206   -8.2591257    503.81489  0.015689303  0.015135783            3 
 2677000    0.8218571   -8.2688697    503.46216  0.015672462  0.015130507            6 
 2678000   0.82578682   -8.2731421    503.49697  0.015667693   0.01512522            2 
 2679000   0.80039387   -8.3197836     504.3696  0.015688988  0.015119937            7 
 2680000   0.83826956   -8.2670678    504.71045  0.015693733  0.015114655            2 
 2681000   0.81541242    -8.274186    503.22531  0.015641717  0.015109383            1 
 2682000   0.81341784   -8.2557143    504.80014  0.015684817  0.015104131            7 
 2683000   0.83263936   -8.2969663     504.0107  0.015654451   0.01509886            4 
 2684000   0.80290144   -8.2887116     502.9301  0.015615068  0.015093573            7 
 2685000   0.81553437    -8.293207    502.79209  0.015604969  0.015088288            4 
 2686000     0.817423   -8.2733138    504.35823  0.015647748  0.015082982            8 
 2687000   0.82621538   -8.2597274    504.13659  0.015635051  0.015077676            3 
 2688000   0.83737902   -8.2821647     503.4638  0.015608377  0.015072361            3 
 2689000   0.81760879   -8.2575901    503.57022   0.01560587  0.015067086            5 
 2690000   0.82269219   -8.2620392    503.94581  0.015611704  0.015061794            6 
 2691000   0.81908902    -8.275879    504.72218  0.015629945  0.015056477            4 
 2692000   0.82450343   -8.2837642    503.22982  0.015577942  0.015051169            6 
 2693000   0.80889751    -8.294761    503.94663  0.015594338  0.015045858            4 
 2694000   0.84002385   -8.3117715    502.98845   0.01555891  0.015040574            3 
 2695000    0.8216463   -8.2773241    504.54007  0.015601115  0.015035296            4 
 2696000   0.82698302   -8.2603168    503.90577  0.015575722  0.015030023            2 
 2697000   0.82658881   -8.3077397    503.46909  0.015556455   0.01502474            4 
 2698000   0.81801974   -8.2765826    503.55388  0.015553307  0.015019438            3 
 2699000   0.84865032   -8.3087188    503.66944  0.015551113  0.015014157            3 
 2700000   0.80414393    -8.249764    504.93612  0.015584448  0.015008872            3 
 2701000   0.82186137   -8.2593713    503.20215   0.01552518  0.015003631            3 
 2702000   0.80220598   -8.2740746    504.40474  0.015556524  0.014998387            5 
 2703000   0.81913333   -8.2920043    503.52761  0.015523727  0.014993121            4 
 2704000   0.80942661   -8.2887506    504.06656  0.015534596  0.014987865            6 
 2705000   0.81924981   -8.2747295    504.11077  0.015530215  0.014982592            3 
 2706000   0.83564791   -8.2624021    505.45147  0.015565763  0.014977332            7 
 2707000   0.81305123    -8.263849    504.85539  0.015541663  0.014972083            5 
 2708000   0.82291679   -8.2491889     504.9239  0.015538032  0.014966838            8 
 2709000   0.82490336   -8.2897266    503.82928  0.015498624  0.014961606            9 
 2710000   0.82292619   -8.2434589    505.22352  0.015535779  0.014956385            8 
 2711000   0.80027497   -8.2854469     503.5254   0.01547785  0.014951132            8 
 2712000   0.81748591   -8.2952825    503.62117  0.015475085  0.014945842           11 
 2713000   0.82293511    -8.311687    503.11694  0.015453893  0.014940517            4 
 2714000   0.81752082   -8.2945999    504.20052   0.01548147  0.014935228            9 
 2715000   0.83923607     -8.31211    503.30929  0.015448413  0.014929934            7 
 2716000   0.81528832   -8.3004339    503.44837  0.015446992  0.014924655            3 
 2717000   0.80223058   -8.2807209     504.3006  0.015467446  0.014919392            4 
 2718000   0.81900785   -8.2829174    504.58705  0.015470537   0.01491415            4 
 2719000   0.83146814   -8.3028934     504.3449  0.015457426  0.014908906            3 
 2720000   0.84764943     -8.25611    505.27274   0.01548017  0.014903676            8 
 2721000   0.81151263   -8.2633656    506.31554  0.015506417  0.014898462            8 
 2722000   0.80982218   -8.2904487    505.14456  0.015464871   0.01489322            6 
 2723000    0.8219266   -8.3108652    505.62323  0.015473841  0.014887955            6 
 2724000   0.81248675   -8.3447109    504.25853  0.015426411   0.01488271            5 
 2725000   0.81639481   -8.3164824    504.68588  0.015433819  0.014877446            7 
 2726000   0.83343128   -8.2742627    505.78172  0.015461657  0.014872214            3 
 2727000   0.79125861   -8.3072449    505.05744  0.015433854  0.014866969            5 
 2728000   0.81107248   -8.3353282    504.47778  0.015410489  0.014861697            6 
 2729000   0.83457413   -8.2802134    504.54908   0.01540702  0.014856436            4 
 2730000   0.81586748   -8.3108224     504.6978  0.015405916  0.014851176            4 
 2731000   0.83912597   -8.3190176    504.60656  0.015397491  0.014845919            6 
 2732000   0.83501657   -8.3001279    505.93221   0.01543229  0.014840678            6 
 2733000   0.83326589   -8.3026351    503.95645    0.0153664  0.014835452            5 
 2734000   0.81220955   -8.2729472    505.39298  0.015404565  0.014830246            5 
 2735000   0.80842838   -8.2606743    504.91312  0.015384312  0.014825053            4 
 2736000   0.80892262   -8.2895768    505.19377  0.015387237  0.014819869            8 
 2737000   0.81469588   -8.2765078    505.24134  0.015383064  0.014814675            5 
 2738000   0.80690311   -8.3128492    505.62672  0.015389175  0.014809477            7 
 2739000   0.81899229    -8.336601    504.29115  0.015342922  0.014804273           10 
 2740000   0.82064253   -8.2968276    505.05043  0.015360415  0.014799057            6 
 2741000   0.80960453   -8.3352206    504.85428  0.015348847  0.014793836           11 
 2742000    0.8167743   -8.3404715    505.05621  0.015349387  0.014788591           14 
 2743000    0.8267714    -8.351816    503.67736    0.0153019   0.01478336           14 
 2744000   0.83150192   -8.3253485    504.94153  0.015334716  0.014778094            8 
 2745000   0.79221375   -8.3129295    506.04326  0.015362576  0.014772838            3 
 2746000   0.82770739   -8.3333783    504.34288   0.01530538  0.014767604            7 
 2747000   0.79743103   -8.3338078    505.97658  0.015349368  0.014762385            1 
 2748000   0.80936506   -8.3405874    504.93453  0.015312183  0.014757163            5 
 2749000   0.79538444   -8.3324502    505.65511  0.015328456  0.014751928            4 
 2750000   0.79857208   -8.3256802    504.59463  0.015290746  0.014746702            5 
 2751000   0.81634853   -8.3272306    505.54609   0.01531401  0.014741478            3 
 2752000   0.81287908   -8.3277321    506.20457  0.015328385  0.014736251            3 
 2753000   0.80432977   -8.3369879    505.58918  0.015304189  0.014731032            6 
 2754000    0.7961225   -8.3015598       505.63  0.015299867  0.014725834            4 
 2755000   0.81096877   -8.3084114    505.35215  0.015285909  0.014720634            9 
 2756000   0.80972618   -8.3527778    505.89852  0.015296883   0.01471543            5 
 2757000   0.79606856   -8.3261432    505.72215  0.015286004  0.014710201            9 
 2758000   0.81120341   -8.3319277     505.1233  0.015262367  0.014704988            8 
 2759000   0.80701352   -8.2988817    506.06837   0.01528538  0.014699771            2 
 2760000   0.80861528   -8.3137785    504.94092  0.015245801  0.014694579            4 
 2761000   0.81733017   -8.3669319    504.90154   0.01523909  0.014689328            7 
 2762000   0.82274906   -8.3310843    504.95379  0.015235149  0.014684089            4 
 2763000   0.82924684   -8.3160297    505.58514  0.015248677  0.014678845            6 
 2764000   0.82970244   -8.2946355    505.93753  0.015253785   0.01467363            8 
 2765000   0.80818449   -8.3473145    505.40482  0.015232213  0.014668418            7 
 2766000   0.79850573   -8.3056196    506.39223  0.015256454  0.014663205           11 
 2767000   0.80930197   -8.3056091    506.13792  0.015243282  0.014658019            9 
 2768000   0.81750889   -8.3256709    507.17226  0.015268914  0.014652832            6 
 2769000   0.80709897   -8.3025274    507.05014  0.015259725  0.014647657            6 
 2770000   0.79900875   -8.2898521    506.35885  0.015233419  0.014642504            5 
 2771000   0.80503547   -8.3637825    505.38556  0.015198651  0.014637351            5 
 2772000   0.82196542   -8.3358453     507.7601  0.015264553  0.014632191            5 
 2773000   0.81089163   -8.3514353     504.9054   0.01517326  0.014627043           10 
 2774000    0.8060219   -8.3209854    507.10528  0.015233876    0.0146219            5 
 2775000   0.82200969   -8.3446703     506.2971  0.015204117  0.014616743            5 
 2776000   0.79600452   -8.3363605    506.52702  0.015205542  0.014611572            7 
 2777000    0.8069137   -8.3438142    504.67952  0.015144626  0.014606407            8 
 2778000   0.81889987   -8.3283621    505.82503  0.015173537  0.014601243            4 
 2779000   0.81483204   -8.3530355    506.55943  0.015190099  0.014596077            7 
 2780000   0.82001183   -8.3262373    507.55749  0.015214553  0.014590935           10 
 2781000   0.80374621   -8.3587122    506.38289  0.015173885  0.014585796            8 
 2782000   0.80347583   -8.3611195    505.60078  0.015145003  0.014580663            5 
 2783000   0.80633508   -8.3245394      506.525  0.015167236  0.014575537            4 
 2784000   0.81010874   -8.3434807    506.77186  0.015169177  0.014570377            5 
 2785000   0.78936031   -8.3197169    507.12859  0.015174404  0.014565252            4 
 2786000    0.8089413    -8.338413    506.79588  0.015159006  0.014560129            8 
 2787000   0.81609835   -8.3161823    508.41059  0.015201848  0.014555037            4 
 2788000    0.8153023   -8.3261556    507.22957  0.015161094  0.014549923           14 
 2789000   0.80506996   -8.2998333    507.57168   0.01516588  0.014544801            5 
 2790000   0.79133905   -8.3135864    506.99751  0.015143295  0.014539709            6 
 2791000   0.79222526   -8.3255076    506.62323  0.015126694  0.014534623            2 
 2792000   0.80824269   -8.3283679     506.2682  0.015110679  0.014529511            4 
 2793000   0.80261589    -8.311229    507.12043  0.015130697  0.014524404            2 
 2794000   0.79510738   -8.3436657    505.58709  0.015079548  0.014519303            3 
 2795000   0.82324569   -8.3214002    506.80534  0.015110475    0.0145142            7 
 2796000   0.80198127   -8.3395593    506.16785  0.015086071  0.014509081            3 
 2797000   0.78826473   -8.3697186    505.69579  0.015066613  0.014503924            3 
 2798000   0.79639665   -8.3354995    506.40212  0.015082265  0.014498798            7 
 2799000   0.81653979   -8.3606931    507.10781  0.015097886  0.014493666            4 
 2800000   0.79704479   -8.3885347    504.80805  0.015024049  0.014488513            2 
 2801000   0.79982017   -8.3353423     507.7725  0.015106882  0.014483378            3 
 2802000   0.81300538   -8.3658152    505.78232  0.015042301  0.014478231            3 
 2803000   0.79620175   -8.3610545    506.00769  0.015043635  0.014473118            3 
 2804000   0.80443694    -8.322992    506.85511  0.015063454  0.014468014            9 
 2805000   0.80343363   -8.3214094    507.39622   0.01507416  0.014462915            4 
 2806000   0.79794279   -8.3292033    506.16125  0.015032111  0.014457801            5 
 2807000   0.82242757   -8.3146253    507.07314  0.015053828  0.014452687            4 
 2808000   0.80172013   -8.3089051    508.47173  0.015089973  0.014447585           12 
 2809000   0.81271416   -8.3146711     507.2086  0.015047128   0.01444249            7 
 2810000   0.81954636   -8.3109069    507.84654  0.015060692  0.014437398            2 
 2811000   0.80203225   -8.3087016    506.94236   0.01502853  0.014432285            4 
 2812000   0.80626397   -8.3236701    507.12886  0.015028712  0.014427201            2 
 2813000   0.80339021   -8.3178596    507.19665  0.015025378   0.01442211            2 
 2814000   0.81627264    -8.344222    508.40645  0.015055865  0.014416993            4 
 2815000   0.79494891   -8.3304045    508.10566  0.015041612  0.014411928            3 
 2816000   0.81067992   -8.3598079     507.8512   0.01502874   0.01440683            8 
 2817000   0.80687579   -8.3237502    508.12701  0.015031565  0.014401745            9 
 2818000   0.78965195   -8.3483441    507.29237  0.015001549  0.014396673            9 
 2819000   0.79657346   -8.3393668     506.3385   0.01496803  0.014391605           11 
 2820000   0.80630688   -8.3200906    508.23979  0.015018906  0.014386524            7 
 2821000   0.81010881   -8.3555202    507.85445  0.015002199  0.014381437           12 
 2822000   0.78386951   -8.3458692    508.46007  0.015014767  0.014376366            7 
 2823000   0.80136573   -8.3480909    508.19255  0.015001551   0.01437129            7 
 2824000   0.81074587   -8.3436036    508.30327  0.014999506  0.014366192            3 
 2825000   0.81061662   -8.3375839    508.47221   0.01499918  0.014361125            8 
 2826000   0.78717745   -8.3665152    506.99854  0.014950417  0.014356052            6 
 2827000   0.79936743   -8.3330466    507.53146  0.014960838  0.014350973            7 
 2828000   0.78593686   -8.3780222    507.71713  0.014961019  0.014345909            3 
 2829000   0.80198141   -8.3565272    507.55914  0.014951076  0.014340839            3 
 2830000   0.79967506   -8.3520831    508.18617  0.014964257  0.014335799           10 
 2831000    0.7916537   -8.3596906    507.90996  0.014950841  0.014330743            4 
 2832000   0.79985306   -8.3836191    507.68423  0.014938919   0.01432566            6 
 2833000   0.81250867   -8.3706272    506.89635   0.01491047  0.014320587            3 
 2834000   0.79009371   -8.3550141    507.51701  0.014923459    0.0143155            7 
 2835000   0.80788847   -8.3526893    507.47831  0.014917058   0.01431043            2 
 2836000   0.79000302   -8.3295473    507.51914  0.014912998   0.01430538            3 
 2837000   0.80000533   -8.3631541    509.51456  0.014966354  0.014300324            9 
 2838000   0.79633302    -8.343294    508.34228  0.014926658  0.014295281            5 
 2839000   0.80556113   -8.3495299    508.36898  0.014922185  0.014290243           14 
 2840000   0.83033934   -8.3668686    508.33416  0.014915909  0.014285181            4 
 2841000   0.79731156   -8.3556563    508.01819   0.01490139  0.014280116            3 
 2842000   0.81197751   -8.3502105    507.41408  0.014878433  0.014275043            2 
 2843000   0.78902211   -8.3476043    508.68716  0.014910516  0.014269997            3 
 2844000   0.79874851   -8.3564834    507.50459  0.014870622  0.014264953            2 
 2845000   0.79859729   -8.3573796    507.62314  0.014868867  0.014259901            3 
 2846000   0.78575758   -8.3214323    508.79856  0.014898061  0.014254864            2 
 2847000   0.78807721   -8.3360109    509.26646  0.014906523  0.014249819            5 
 2848000   0.79336861    -8.342808     509.0825  0.014895906   0.01424478           10 
 2849000   0.81349067   -8.3238193    509.25055  0.014895593  0.014239753           10 
 2850000   0.80129032   -8.3757478    509.37057  0.014893876  0.014234744            7 
 2851000   0.79050418   -8.3408268    508.88548  0.014874473  0.014229732            3 
 2852000   0.77775832   -8.3681363    508.52369  0.014858687  0.014224686            5 
 2853000   0.78348342   -8.3640099     507.7207  0.014830024  0.014219652            4 
 2854000   0.80537761   -8.3422212    507.41259  0.014815831  0.014214623           10 
 2855000   0.77485016   -8.3467577    508.78646  0.014850743  0.014209609            7 
 2856000   0.77787103   -8.3427988    509.36796   0.01486251  0.014204597            4 
 2857000   0.81580361   -8.3464847    508.90524  0.014843812  0.014199596            4 
 2858000   0.77892892   -8.3445046    507.97619  0.014811529  0.014194608            3 
 2859000    0.8074641   -8.3595132    508.00452  0.014807174  0.014189607           10 
 2860000   0.80276804   -8.3271904    509.94858  0.014858642  0.014184621            4 
 2861000    0.7743288   -8.3335078    510.07422  0.014857108  0.014179644            9 
 2862000    0.7881766   -8.3399743    508.59177  0.014808752  0.014174677           12 
 2863000   0.80215231   -8.3329274    509.19241  0.014821062  0.014169719            8 
 2864000   0.78243045   -8.3374056    509.85366  0.014835128  0.014164758            7 
 2865000   0.78212934   -8.3605362    510.33435  0.014843931  0.014159802            9 
 2866000   0.80654786   -8.3452211     509.6504  0.014818865  0.014154852            7 
 2867000   0.79592956   -8.3229603    510.46086  0.014837253  0.014149923            4 
 2868000   0.78596422   -8.3319778    511.15102  0.014852133  0.014145009            4 
 2869000   0.78822395   -8.3396904    509.38596  0.014795688   0.01414009            5 
 2870000    0.7996136   -8.3387276    510.32397  0.014817769   0.01413515            3 
 2871000   0.79337428   -8.3725951     510.8214  0.014827046  0.014130214            5 
 2872000   0.78980175   -8.3551616    509.51939  0.014784105  0.014125274            5 
 2873000   0.80253182   -8.3604124    509.30251  0.014772668  0.014120321            8 
 2874000   0.78424872   -8.3777132    508.85796  0.014754638  0.014115368            4 
 2875000   0.76662939   -8.3612595    511.55847  0.014827782  0.014110422            5 
 2876000   0.78573269   -8.3929413    509.95942  0.014776293  0.014105491            4 
 2877000   0.78836278   -8.3749919    509.24942  0.014750592  0.014100522           10 
 2878000   0.78421545   -8.3785382    509.23736  0.014745117  0.014095553           11 
 2879000   0.78483375   -8.3683543    511.09938  0.014793892  0.014090588           11 
 2880000   0.78395912   -8.3775846    509.23157   0.01473471  0.014085655            6 
 2881000   0.79622497   -8.3648026    509.62852  0.014741077  0.014080709            4 
 2882000    0.7942309   -8.3847295    509.18858  0.014723241  0.014075748            2 
 2883000   0.80112992   -8.3836098     509.3424  0.014722581  0.014070781            3 
 2884000   0.78669114   -8.3766744    510.24274  0.014743491  0.014065807            3 
 2885000   0.77665539   -8.3600876    509.23893  0.014709386  0.014060857           11 
 2886000   0.78539009   -8.3719881    509.49551  0.014711698  0.014055903           11 
 2887000   0.77747432   -8.3557303    511.35166  0.014760179  0.014050952            9 
 2888000   0.79227832     -8.38675     508.3649  0.014668886  0.014045996           12 
 2889000   0.78906655    -8.375217    508.97068  0.014681282  0.014041043            6 
 2890000   0.79400727   -8.3857556     509.5947  0.014694195  0.014036084            6 
 2891000   0.78280474   -8.3774548    510.14749  0.014705047  0.014031137           15 
 2892000   0.80358702     -8.38772    510.86659  0.014720683  0.014026191            6 
 2893000   0.78582813   -8.3664722    510.17005  0.014695531   0.01402124            5 
 2894000   0.79984761   -8.3723738    509.09962   0.01465963  0.014016293            5 
 2895000   0.78404348   -8.3638519    509.69003  0.014671561  0.014011362            7 
 2896000   0.79736873    -8.375863    511.65539  0.014723049  0.014006454            7 
 2897000   0.80957936   -8.3801638      511.136  0.014703026  0.014001548            8 
 2898000   0.77692002   -8.3942507    510.59258  0.014682326  0.013996644            3 
 2899000   0.76773653   -8.3804509    509.97286  0.014659447  0.013991735            4 
 2900000   0.80597429   -8.3754396     510.4054  0.014666822  0.013986829            3 
 2901000   0.78244469   -8.3825245    510.68009  0.014669657  0.013981936            5 
 2902000   0.78877774   -8.3444679    512.23972  0.014709388   0.01397706            6 
 2903000   0.78367272   -8.3204705    512.23428  0.014704165  0.013972183            4 
 2904000    0.7758032   -8.3478308    510.36703  0.014645518   0.01396734           14 
 2905000   0.77980126   -8.3483557    511.95242  0.014685956  0.013962468            8 
 2906000   0.78286304   -8.3678073    511.96019  0.014681125  0.013957602            3 
 2907000   0.78941124   -8.3552523    512.39053  0.014688411  0.013952736            7 
 2908000   0.78930407    -8.382468    512.11099  0.014675349  0.013947874            7 
 2909000   0.78360006   -8.3735911    510.53757  0.014625231  0.013943021            8 
 2910000    0.7839099   -8.3847029    512.38644  0.014673151   0.01393818            7 
 2911000   0.78217174   -8.3697342    511.66504  0.014647459  0.013933322            9 
 2912000   0.78358601   -8.3933032    511.33391  0.014632953  0.013928448            5 
 2913000   0.79684853   -8.3848539    512.43022  0.014659292  0.013923592            9 
 2914000      0.78652   -8.3895608    512.11539  0.014645258  0.013918725            6 
 2915000   0.78805686   -8.3782325    511.32223  0.014617559  0.013913843            7 
 2916000   0.79721884   -8.4004574    510.90353  0.014600581  0.013908959            8 
 2917000    0.8128574   -8.3937466    510.09865  0.014572582  0.013904065            9 
 2918000    0.8099902   -8.4168304    509.20745  0.014542136  0.013899167           11 
 2919000   0.78621123   -8.3950835    509.83395   0.01455504  0.013894259            5 
 2920000   0.77822385   -8.4005669    509.17151   0.01453115  0.013889361           16 
 2921000   0.79236491   -8.4143984     510.1639  0.014554487   0.01388446           10 
 2922000   0.79899772   -8.4020614      511.198  0.014578999  0.013879574           10 
 2923000   0.80127331   -8.4199912     509.5522   0.01452709  0.013874692            9 
 2924000    0.7850539    -8.396314    511.07481  0.014565515  0.013869795            7 
 2925000   0.80089665   -8.4346571    512.20706  0.014592794  0.013864911            9 
 2926000   0.78245937   -8.4103978    510.70739  0.014545096  0.013860026            5 
 2927000   0.78516401   -8.3849754    511.09032  0.014551028  0.013855128           15 
 2928000    0.7847015   -8.4070732    510.62692   0.01453287  0.013850206            7 
 2929000   0.78437282   -8.4016581    511.21757  0.014544713   0.01384529            9 
 2930000   0.79081139   -8.3836749    510.51126   0.01451966  0.013840404            9 
 2931000   0.79492571    -8.396433    511.12678  0.014532207  0.013835502            7 
 2932000   0.75458179     -8.40624    510.45614  0.014508189  0.013830607            5 
 2933000   0.78375982   -8.4014296    510.79125  0.014512764  0.013825718           10 
 2934000   0.77602214   -8.3917125    511.92585  0.014540044  0.013820823            7 
 2935000   0.77862597   -8.4292279    509.91286  0.014477935  0.013815932           15 
 2936000   0.78409064   -8.4065215    510.28438  0.014483549  0.013811068            8 
 2937000    0.7931396   -8.3895689    511.12752   0.01450254  0.013806204           12 
 2938000   0.77123895   -8.3916338    511.21111  0.014499975  0.013801338           12 
 2939000   0.78099435   -8.4120195    510.94667  0.014487543  0.013796457            4 
 2940000   0.78604081   -8.4045148    510.69226  0.014475404  0.013791597            7 
 2941000     0.781613   -8.3879621    511.78699  0.014501501  0.013786714            2 
 2942000   0.78515113   -8.4157582    509.95928  0.014444802   0.01378186            6 
 2943000   0.77698028   -8.4161332    511.43852  0.014481779  0.013776986            3 
 2944000   0.77963044   -8.3863994     511.1118  0.014467612  0.013772129            3 
 2945000   0.77005182   -8.4249335    510.33933  0.014440841  0.013767271            3 
 2946000   0.76265691   -8.4377422    511.19777  0.014460222  0.013762395            3 
 2947000   0.78079726   -8.4266767    512.25557  0.014485227   0.01375751            5 
 2948000   0.78895382   -8.4226061     511.1818   0.01444996  0.013752639            3 
 2949000   0.78212525   -8.4110407    511.17125  0.014444762  0.013747788            6 
 2950000   0.77710813   -8.4285348    510.08537  0.014409191  0.013742925            6 
 2951000   0.79281665   -8.3865863      510.907  0.014427511  0.013738069            5 
 2952000   0.78714179   -8.3952857    511.49884   0.01443933  0.013733225            6 
 2953000   0.78930909   -8.3633772    512.00402  0.014448697  0.013728387            5 
 2954000   0.77503253   -8.4099225    511.02079  0.014416068   0.01372355            7 
 2955000   0.76954819   -8.3869055    511.80326  0.014433256   0.01371868            3 
 2956000   0.77881022   -8.3979898      511.968  0.014433017   0.01371383            2 
 2957000   0.77290359   -8.4003519    510.73561  0.014393406  0.013708985           13 
 2958000   0.77482015   -8.3973253    510.66801  0.014386636  0.013704155           11 
 2959000   0.79689387   -8.4035885    511.44859  0.014403757  0.013699312            2 
 2960000   0.76214104   -8.3936608    511.40962  0.014397793  0.013694469            4 
 2961000   0.76536174    -8.399042    511.98271   0.01440906  0.013689646            2 
 2962000    0.7686133   -8.4193391    511.80167  0.014399102  0.013684823            2 
 2963000   0.78422971   -8.4038136    511.62717  0.014389334   0.01367997            8 
 2964000   0.77301082   -8.4300769    510.18498  0.014343932  0.013675109            4 
 2965000   0.77836665    -8.407927    510.17222  0.014338736  0.013670282            5 
 2966000    0.7853965   -8.4206267    512.62142  0.014402715  0.013665462            3 
 2967000   0.78934655   -8.4135826    510.72273  0.014344532  0.013660633            2 
 2968000    0.7753714   -8.4271422    511.41664  0.014359182  0.013655817            2 
 2969000   0.77011858   -8.4094911    511.68673  0.014361927  0.013650994            2 
 2970000   0.77112626   -8.4137466    511.45868  0.014350692  0.013646171            7 
 2971000   0.80065621   -8.4122039    510.71856  0.014325103  0.013641355            8 
 2972000   0.76937111   -8.4413173    510.40461   0.01431148  0.013636512            3 
 2973000   0.75832444   -8.4349332    511.69383  0.014342803  0.013631672            8 
 2974000   0.78393175   -8.4115264    511.87126  0.014342952  0.013626848           11 
 2975000    0.7741033   -8.4310991    511.77204  0.014335351  0.013622025            7 
 2976000   0.79235747   -8.4075253    512.69915  0.014356495  0.013617213            4 
 2977000   0.76744666   -8.4126341    512.13696  0.014335936  0.013612409           11 
 2978000   0.78914318   -8.4109524    511.55873  0.014314941  0.013607583            2 
 2979000   0.76685046   -8.4001499    511.34963  0.014304286   0.01360277            4 
 2980000   0.77287941   -8.4201221    511.92993  0.014315714  0.013597974            2 
 2981000   0.76197482   -8.4271068    512.77967  0.014334666  0.013593163            8 
 2982000   0.77155192   -8.3933118     512.2337  0.014314601   0.01358836            3 
 2983000   0.76613574   -8.4129061    511.89004  0.014300202   0.01358358            2 
 2984000   0.76254265   -8.4179932    512.61901  0.014315768  0.013578791            7 
 2985000   0.77089403    -8.374004    512.78181  0.014315517  0.013574028            3 
 2986000    0.7677577   -8.4176563    510.82684  0.014256163  0.013569244            5 
 2987000   0.78153901    -8.438382    511.72382  0.014276415  0.013564431            5 
 2988000   0.77096787   -8.4171257    511.76493  0.014272784  0.013559617            4 
 2989000   0.76341082   -8.4311763    511.48372  0.014260168  0.013554799            4 
 2990000   0.75196711   -8.4170428    511.57697  0.014257998  0.013549992            8 
 2991000   0.77147853   -8.4111491    511.47494  0.014250388  0.013545192            6 
 2992000   0.77481014   -8.3975192    512.43145  0.014272266  0.013540399            6 
 2993000   0.78550841   -8.4044211    511.82155  0.014250516  0.013535613            7 
 2994000   0.76148775      -8.4602    511.31665  0.014231704   0.01353082            5 
 2995000   0.77013009   -8.4082318    511.86729  0.014242273  0.013526027            5 
 2996000   0.77704279   -8.4005335    513.19702  0.014274506  0.013521237            3 
 2997000   0.77289292   -8.4258462    511.47614  0.014221892  0.013516447            5 
 2998000   0.78951205   -8.4356226    510.47366  0.014189284  0.013511648            7 
 2999000   0.78731365    -8.385821     512.6661  0.014245474  0.013506863            8 
 3000000     0.778926   -8.4313734    510.86197   0.01419061   0.01350209            4 
 3001000   0.76587899   -8.4325648    512.28505  0.014225398   0.01349731            4 
 3002000   0.77588972   -8.4227353    512.00702  0.014212942  0.013492513            7 
 3003000   0.79110765   -8.4426631    512.14604  0.014212067  0.013487733           15 
 3004000   0.76378441   -8.4300797    511.13378  0.014179255  0.013482953            5 
 3005000   0.76926015   -8.4032786    512.59756  0.014215129  0.013478165           13 
 3006000   0.77063913   -8.4178344    512.24431  0.014200607    0.0134734           32 
 3007000   0.76671735    -8.426922     512.2373  0.014195691  0.013468615           29 
 3008000   0.76041177   -8.4213302    511.46066  0.014169455  0.013463835           18 
 3009000   0.79248174   -8.4105609    513.15572   0.01421169  0.013459062           44 
 3010000   0.77665092    -8.445871    511.69461  0.014166517   0.01345428           37 
 3011000    0.7757169   -8.4303924    513.25791  0.014205079  0.013449503           37 
 3012000   0.75881157   -8.4351422    511.36634  0.014148028  0.013444739           37 
 3013000   0.76734824    -8.436898    512.80818  0.014183211  0.013439959           18 
 3014000   0.76924028   -8.4084201    513.01162   0.01418413  0.013435178           34 
 3015000   0.76099201   -8.4250618    512.34682  0.014161051  0.013430414           37 
 3016000   0.74791332   -8.4267316    512.72365  0.014166768  0.013425609           37 
 3017000   0.77299479   -8.4206607    511.44886  0.014126861  0.013420803           20 
 3018000   0.77142516   -8.4233726    511.79501  0.014131738  0.013416009           40 
 3019000   0.76031914   -8.4213531    512.11204  0.014135808  0.013411222           47 
 3020000    0.7617187   -8.4299634    511.44955  0.014112846   0.01340643           53 
 3021000   0.75311959   -8.4152619    511.14984  0.014099907  0.013401642           41 
 3022000   0.76079722   -8.4214271     512.5463   0.01413375  0.013396859           38 
 3023000   0.75737541    -8.417415    511.34773  0.014096034  0.013392071           52 
 3024000    0.7760299   -8.4354562    512.17268  0.014114106  0.013387267           52 
 3025000   0.76340185   -8.4523953    511.48895  0.014090605  0.013382462           58 
 3026000   0.78678398   -8.4524466    511.14648  0.014076517  0.013377653           51 
 3027000   0.78269151   -8.4274994    511.92489  0.014093296  0.013372852           60 
 3028000   0.75012076   -8.4404535    511.78409  0.014084767  0.013368036           56 
 3029000   0.77918315   -8.4263459     511.4098   0.01406982  0.013363216           63 
 3030000    0.7523041   -8.4640109    511.73715  0.014074179  0.013358409           59 
 3031000    0.7745766   -8.4699012    511.65165  0.014067185  0.013353611           70 
 3032000   0.75988592   -8.4127381    512.29455  0.014080215  0.013348813           56 
 3033000   0.76124159   -8.4387255    512.59203  0.014083746  0.013344053           63 
 3034000   0.77750371   -8.4217367     511.5133  0.014049475  0.013339276           84 
 3035000   0.78494041   -8.4493217    511.84025  0.014053824  0.013334499           60 
 3036000   0.75177855   -8.4486467    511.64924  0.014043951  0.013329714           83 
 3037000   0.77468474   -8.4638092    511.07998  0.014023707  0.013324929           59 
 3038000   0.77315029   -8.4748789    510.79387  0.014011243  0.013320148           66 
 3039000   0.76184249   -8.4521781    511.42295  0.014023883  0.013315369           63 
 3040000   0.76818532   -8.4444792    512.48899  0.014048492  0.013310612           62 
 3041000   0.77299196   -8.4485784     511.8197  0.014025532  0.013305863           55 
 3042000   0.75494481   -8.4517129    512.41572  0.014037249    0.0133011           66 
 3043000   0.78217218   -8.4609357    511.31285  0.014002433  0.013296345           39 
 3044000   0.75614446   -8.4328646     512.6081  0.014033292  0.013291577           46 
 3045000   0.77331178   -8.4433403    512.38146  0.014022481  0.013286818           75 
 3046000    0.7626143   -8.4696025    511.74322  0.014000416  0.013282046           73 
 3047000   0.76062611   -8.4613915    511.18763  0.013980627  0.013277286           71 
 3048000   0.76581996   -8.4523329    511.72598  0.013990759  0.013272517           69 
 3049000   0.75937138   -8.4832386    511.83533  0.013989158  0.013267748           75 
 3050000   0.75276197   -8.4827957    511.47299  0.013974672  0.013262988           84 
 3051000   0.76462791   -8.4544948    512.46123  0.013997084  0.013258223           69 
 3052000   0.77345218   -8.4496713    512.04571  0.013981152  0.013253471           86 
 3053000   0.75357675   -8.4685096    511.96772  0.013974444  0.013248709           76 
 3054000   0.76800586   -8.4550874    513.07899  0.014000191  0.013243942          108 
 3055000   0.76643635    -8.428386    512.71077  0.013985564   0.01323917           79 
 3056000   0.75145432    -8.466637    511.78532  0.013955752  0.013234395          100 
 3057000   0.76389809   -8.4704402    511.42414  0.013941341  0.013229633           77 
 3058000   0.76563057   -8.4738215    511.87679  0.013949117   0.01322486           85 
 3059000   0.76236539   -8.5002544    512.00954  0.013948173  0.013220098           85 
 3060000   0.77067854   -8.4303447    513.09345  0.013973133  0.013215358          100 
 3061000   0.75336069   -8.4310489    511.34589  0.013920992  0.013210625           89 
 3062000   0.75771062   -8.4579762    512.14257  0.013938128  0.013205893           87 
 3063000   0.76313448   -8.4644419    512.67407  0.013948038  0.013201149           77 
 3064000   0.77917316   -8.4499181    512.55849  0.013940342  0.013196412           73 
 3065000   0.77886239   -8.4724053     511.2109  0.013899155  0.013191678           73 
 3066000   0.75838808   -8.4468774    512.94115  0.013941649  0.013186932           76 
 3067000   0.76132732   -8.4610257    512.92977  0.013936794  0.013182209           79 
 3068000   0.76771876   -8.4513243    511.51929   0.01389394  0.013177484           80 
 3069000   0.76194733   -8.4595427    511.81439  0.013897425  0.013172742           87 
 3070000   0.76702893   -8.4772132    512.80222  0.013919713  0.013168004           86 
 3071000   0.76492067   -8.4628162    511.88394  0.013890262  0.013163276          111 
 3072000   0.77743333   -8.4383661     512.4773  0.013901837  0.013158546           83 
 3073000   0.77359404   -8.4517275     511.4595  0.013869712  0.013153809          114 
 3074000   0.76940332   -8.4497883    511.93496  0.013878089   0.01314908           97 
 3075000   0.75051656   -8.4595846    512.45343  0.013887627   0.01314436          111 
 3076000   0.76931354   -8.4053027    513.45056  0.013910126  0.013139665           89 
 3077000    0.7702271   -8.4215191    512.08896  0.013868729  0.013134965           75 
 3078000   0.76549513   -8.4621422    512.37823  0.013872055  0.013130267          131 
 3079000   0.76053379   -8.4470153    512.11577  0.013860446  0.013125558          109 
 3080000   0.74673406   -8.4951262    512.38384  0.013863199  0.013120823          109 
 3081000   0.75935306   -8.4624869    511.30521  0.013829525  0.013116088           91 
 3082000   0.75172376   -8.4705538    510.84158  0.013812502  0.013111334          105 
 3083000   0.77073486   -8.4702099    512.28505  0.013847039  0.013106583           96 
 3084000   0.76845533   -8.4794835    511.94661  0.013833404  0.013101829           82 
 3085000   0.76194729   -8.5054787    510.83159    0.0137988  0.013097054           89 
 3086000   0.76230815   -8.4929257    511.06897  0.013800739  0.013092308           80 
 3087000   0.74601443   -8.4636496    511.98058  0.013820877  0.013087577          101 
 3088000   0.75195478    -8.493563    510.59247  0.013778942  0.013082839           90 
 3089000   0.75752057   -8.4865368    510.82426  0.013780734  0.013078098           83 
 3090000   0.75848872   -8.4878758    512.74798  0.013828155  0.013073362           88 
 3091000   0.75924715   -8.4731421    512.10759  0.013806416  0.013068635           95 
 3092000   0.75107307   -8.4833147    511.53503   0.01378652  0.013063919           99 
 3093000   0.75552211   -8.4898217    511.76652    0.0137883  0.013059191           75 
 3094000   0.74079315   -8.5078841    510.05583  0.013737768  0.013054431           94 
 3095000   0.75452075   -8.4913604     511.9665  0.013784774  0.013049691          109 
 3096000   0.77405698   -8.4815549    511.77123  0.013775066  0.013044961           95 
 3097000   0.76991141   -8.4665148    511.39218  0.013760418  0.013040251          103 
 3098000   0.75077367   -8.4919797      511.711  0.013764552  0.013035536          108 
 3099000   0.75745444    -8.505789      511.739  0.013760864  0.013030808           87 
 3100000    0.7775305   -8.4828012    511.97687  0.013762819   0.01302611           78 
 3101000   0.75607842   -8.4866181    512.51627  0.013772876  0.013021411           91 
 3102000   0.75673017   -8.4862521    512.57061  0.013769896  0.013016697           80 
 3103000   0.75229157   -8.4847858    511.92942  0.013748239   0.01301199          136 
 3104000   0.76136334    -8.482692    511.57747  0.013734361  0.013007297          125 
 3105000   0.73683315   -8.4775816    511.93245  0.013739465   0.01300258          112 
 3106000   0.73971972    -8.493984    512.75788  0.013757187  0.012997878          111 
 3107000   0.75468849   -8.5082827    511.92397  0.013730393   0.01299317           95 
 3108000   0.75447669   -8.4658175    512.12644  0.013731404  0.012988463          121 
 3109000   0.75644851   -8.4811181    512.04948  0.013724924   0.01298375          121 
 3110000   0.74978838   -8.4992017    512.20042  0.013724556  0.012979041          108 
 3111000   0.75463212   -8.4899775    511.97462  0.013714096  0.012974342          132 
 3112000   0.75236553   -8.4912114    511.48059   0.01369646  0.012969633          114 
 3113000   0.75475541   -8.5041592    511.01719  0.013679655  0.012964917          142 
 3114000   0.74533497   -8.5150707     512.0161  0.013701994    0.0129602          121 
 3115000   0.74805509    -8.487872    511.19938  0.013675746  0.012955479          111 
 3116000   0.75357247   -8.4870854    511.34524  0.013675258  0.012950748          142 
 3117000   0.74272579   -8.4888249    511.25627  0.013668492  0.012946033          134 
 3118000   0.74604577   -8.4992728     510.8901  0.013654322  0.012941313          130 
 3119000   0.75472751   -8.4968792    511.67766  0.013670986  0.012936596          147 
 3120000   0.74825235   -8.5204279    512.23987   0.01368162  0.012931875          140 
 3121000   0.74847383   -8.5047597    512.51041   0.01368446   0.01292715          139 
 3122000   0.75806175    -8.513312    511.41758  0.013650907  0.012922435          136 
 3123000   0.76829313   -8.5319607     510.3936  0.013619212  0.012917718          153 
 3124000   0.73072528   -8.5381212    511.01386  0.013631398  0.012913003          141 
 3125000   0.74549688   -8.5363958    510.58963  0.013615724  0.012908285          162 
 3126000    0.7623745   -8.5002303    511.02063  0.013622857  0.012903556          144 
 3127000   0.75270531   -8.5063439    510.71767  0.013610427   0.01289883          142 
 3128000   0.74922125    -8.511708    511.40229  0.013624315  0.012894119          135 
 3129000   0.76976139   -8.5079448    511.25768   0.01361611  0.012889401          144 
 3130000   0.74861072   -8.5366627    510.88414  0.013601814  0.012884686          148 
 3131000   0.75867975   -8.5251297    510.81264  0.013595567  0.012879962          153 
 3132000   0.76352563    -8.507898    511.62568  0.013612859   0.01287524          134 
 3133000   0.74623069   -8.5413343    510.62705  0.013581952  0.012870513          126 
 3134000   0.74205186   -8.5207217    510.32817   0.01356967  0.012865784          137 
 3135000   0.74968397   -8.5246697    509.95193  0.013555341   0.01286106          123 
 3136000   0.76323172   -8.5097067    510.86701  0.013575335  0.012856337          152 
 3137000   0.76164544   -8.5326727    510.46504   0.01356033  0.012851613          162 
 3138000   0.75629255   -8.5185973    510.23822  0.013549985  0.012846885          154 
 3139000   0.73866653   -8.5315949    512.68346  0.013610583  0.012842151          169 
 3140000   0.75950227   -8.5154038    511.21889   0.01356738  0.012837424          124 
 3141000   0.73298914   -8.5187748     510.8579  0.013553483  0.012832687          147 
 3142000   0.75083576   -8.5280972    510.65258  0.013543724  0.012827942          156 
 3143000   0.74659245   -8.5288359    510.41017  0.013532988  0.012823202          143 
 3144000   0.72920564    -8.509883     510.3162  0.013526193  0.012818467          161 
 3145000   0.75871021   -8.5256014    510.00849  0.013513738  0.012813746          145 
 3146000   0.72910952   -8.5000851     510.7734  0.013529704  0.012809019          186 
 3147000   0.74120101   -8.5290024    511.22347  0.013537323  0.012804301          162 
 3148000     0.752047   -8.5235036    511.32443  0.013535695  0.012799578          152 
 3149000   0.73688008   -8.5178959    510.17284  0.013500922  0.012794852          170 
 3150000   0.72960735   -8.5188923    510.58955   0.01350766  0.012790131          166 
 3151000   0.75737866   -8.5383081    510.50437   0.01350112  0.012785411          163 
 3152000   0.76466579   -8.5544965    511.21232  0.013515554  0.012780685          196 
 3153000   0.71613291   -8.5368288    510.80725  0.013500562  0.012775966          167 
 3154000   0.73255913   -8.5234219    511.59421  0.013517074  0.012771264          204 
 3155000   0.75922036   -8.5363882    511.19894  0.013502349  0.012766559          204 
 3156000    0.7580648   -8.5394122    511.15023  0.013496785  0.012761856          194 
 3157000   0.76744814   -8.5531123    510.85293  0.013484662  0.012757136          188 
 3158000   0.74938549   -8.5154524    509.76825  0.013451769  0.012752424          186 
 3159000   0.75403219   -8.5375536    510.52973  0.013467599  0.012747716          181 
 3160000    0.7468933   -8.5358122    510.69216   0.01346762  0.012743029          172 
 3161000   0.75057653   -8.5503453    512.02776   0.01349857  0.012738348          191 
 3162000   0.75955204   -8.5301907    511.16518  0.013471568   0.01273367          218 
 3163000   0.74809171   -8.5090524    511.60267  0.013478835  0.012728989          206 
 3164000   0.74945131   -8.5494173    510.49449  0.013445388  0.012724302          206 
 3165000   0.74953546   -8.5120381    511.11345  0.013457437  0.012719619          213 
 3166000   0.73751445   -8.5475745    511.99742  0.013476454  0.012714937          224 
 3167000   0.73772353   -8.5061348    511.68675  0.013464024  0.012710248          214 
 3168000   0.73192548    -8.516272    511.27849  0.013449034  0.012705551          206 
 3169000   0.73167319   -8.5317822    510.51248  0.013424647  0.012700853          189 
 3170000   0.73548124   -8.5340152    511.00521  0.013433365  0.012696173          239 
 3171000   0.73975816   -8.5182675    512.59462  0.013470898  0.012691505          207 
 3172000   0.74434723   -8.5321191    512.36509  0.013460621  0.012686849          233 
 3173000   0.73359994   -8.5223724    511.32195  0.013428983  0.012682179          207 
 3174000   0.74438388   -8.5390008     510.2354  0.013396225  0.012677501          203 
 3175000   0.74657465   -8.5721965    510.20571  0.013391226  0.012672825          225 
 3176000   0.72924603    -8.537696     512.1277   0.01343744  0.012668159          208 
 3177000   0.74787433   -8.5291957    511.41148  0.013414423  0.012663501          202 
 3178000   0.75992347   -8.5518692    511.18413  0.013404241  0.012658822          243 
 3179000    0.7398362   -8.5509161    510.27339  0.013376151  0.012654158          253 
 3180000   0.76140349   -8.5277374    512.38799  0.013427358  0.012649505          254 
 3181000   0.74385088   -8.5431537    512.53186  0.013426906  0.012644846          270 
 3182000   0.74809066   -8.5560557    509.89609  0.013353658  0.012640172          294 
 3183000   0.75036592   -8.5645785    511.01218  0.013378683  0.012635499          248 
 3184000   0.73634974   -8.5777246    510.94145   0.01337263  0.012630821          300 
 3185000   0.73131864   -8.5664391     510.6905  0.013361866  0.012626146          258 
 3186000   0.75845123   -8.5748201    509.88676  0.013336649  0.012621482          266 
 3187000   0.75633125    -8.557988    511.26289  0.013368447   0.01261681          275 
 3188000   0.75724258   -8.5545301    510.64159  0.013348013   0.01261214          280 
 3189000   0.74711414   -8.5744562    510.99325  0.013353017  0.012607479          296 
 3190000   0.73022673   -8.5616916    510.51186  0.013336255  0.012602819          270 
 3191000   0.75145146   -8.5525049     510.9603  0.013343787  0.012598168          304 
 3192000   0.74650299   -8.5555962    510.43931  0.013326005    0.0125935          284 
 3193000   0.74078369   -8.5572019    510.80497  0.013331375  0.012588818          270 
 3194000    0.7471064   -8.5431756    511.91043  0.013356043  0.012584164          289 
 3195000   0.73645122   -8.5546961     511.3499  0.013337243  0.012579493          278 
 3196000   0.73444987   -8.5474511    510.76433  0.013317802  0.012574829          263 
 3197000   0.73540772   -8.5564043    511.10074  0.013322405  0.012570175          286 
 3198000   0.73759485   -8.5763535    510.05954  0.013291107  0.012565515          291 
 3199000   0.74154478   -8.5800017    510.30426  0.013293328  0.012560845          289 
 3200000   0.73626144   -8.5870037    510.62557  0.013297541  0.012556179          281 
 3201000   0.73834594   -8.5586895    510.60615  0.013292881  0.012551509          259 
 3202000   0.73538728   -8.5831239    511.42209  0.013309965  0.012546851          265 
 3203000   0.73185975   -8.5681854    510.05146  0.013270149  0.012542197          285 
 3204000   0.73676564   -8.5716979    510.12089  0.013267813   0.01253754          306 
 3205000    0.7298478   -8.5810005    510.54225  0.013274629   0.01253287          345 
 3206000   0.74259876   -8.6000697    510.03339  0.013257262  0.012528203          327 
 3207000    0.7330741    -8.588595    510.22336  0.013258065  0.012523538          340 
 3208000   0.71947323   -8.5617689     510.3379  0.013256907  0.012518885          356 
 3209000   0.75182225   -8.6168744     510.2355  0.013250117  0.012514219          357 
 3210000   0.73652143   -8.5747848    510.10992  0.013242729   0.01250957          335 
 3211000   0.74471039   -8.5688282    510.44919   0.01324741  0.012504915          361 
 3212000   0.75436029     -8.62623    509.98119  0.013231143  0.012500252          342 
 3213000   0.73098936   -8.5782196    511.36368  0.013262882  0.012495597          349 
 3214000   0.75037128   -8.5958316    509.99149  0.013223177  0.012490942          380 
 3215000   0.74463463   -8.6000413    509.82551  0.013214762  0.012486293          342 
 3216000   0.72970913   -8.5749569    510.93232  0.013239332  0.012481654          331 
 3217000   0.73853013   -8.6056804    510.25667  0.013217715  0.012477016          361 
 3218000   0.73259459   -8.5655402    510.15417  0.013210953  0.012472365          346 
 3219000   0.73621429   -8.5831888    509.99601  0.013202755  0.012467724          347 
 3220000   0.73285632   -8.5965887    509.05575  0.013174321  0.012463094          343 
 3221000   0.72500111   -8.6085859    509.63302  0.013185165  0.012458457          348 
 3222000   0.72367693   -8.5811018    510.55974  0.013205042  0.012453829          313 
 3223000   0.72671382   -8.6094546     510.9273  0.013210448  0.012449211          341 
 3224000   0.73996087   -8.5827915    510.67713  0.013199884  0.012444597          374 
 3225000   0.73473416    -8.560588    511.47133  0.013216313  0.012439991          361 
 3226000   0.71560898   -8.5824836    511.37613  0.013209757  0.012435378          345 
 3227000    0.7357107   -8.5668094    511.40485  0.013206406  0.012430778          381 
 3228000   0.74800692    -8.583459    510.87191  0.013188556  0.012426171          385 
 3229000   0.73297987   -8.5927298    511.53857  0.013201677  0.012421562          372 
 3230000   0.72800398   -8.5809136    511.40373  0.013194111   0.01241696          381 
 3231000   0.72276523   -8.5832736    511.66505  0.013196767  0.012412366          366 
 3232000   0.73694008   -8.6018513    510.14126  0.013153395  0.012407765          376 
 3233000   0.72610345   -8.5819091    510.62305  0.013161745  0.012403149          393 
 3234000   0.73503007   -8.5880827    510.66789   0.01315883  0.012398544          405 
 3235000   0.74090525   -8.5794062    510.79538  0.013158047  0.012393942          401 
 3236000   0.74153524   -8.5988155    510.14842   0.01313732  0.012389336          408 
 3237000   0.73632431   -8.5869439    510.77694  0.013149442  0.012384736          414 
 3238000    0.7275083    -8.611457    510.08251   0.01312751  0.012380133          404 
 3239000   0.72357642   -8.5865148    510.81562  0.013142318  0.012375529          436 
 3240000   0.73314089   -8.5983448    510.37167  0.013126843   0.01237093          437 
 3241000   0.73802816   -8.6130659    509.90684  0.013110841  0.012366318          447 
 3242000   0.73688754   -8.6057396    509.86556  0.013105736  0.012361702          418 
 3243000   0.72524714   -8.6087512    509.88895  0.013102296  0.012357093          442 
 3244000   0.72346388   -8.6178905     508.9589  0.013074366  0.012352497          453 
 3245000   0.72247182   -8.5936624    510.76001   0.01311659  0.012347898          416 
 3246000   0.71206916   -8.6255531    510.79755  0.013113513   0.01234329          490 
 3247000   0.74597983    -8.627411    510.66976  0.013106195   0.01233868          445 
 3248000   0.72484335   -8.6259672    509.82442   0.01308047  0.012334082          437 
 3249000   0.72314535   -8.6239079    509.28519  0.013062614  0.012329477          458 
 3250000   0.72586058   -8.6142189    510.44013  0.013088208  0.012324869          451 
 3251000   0.73373196   -8.6087732     510.4576   0.01308463   0.01232026          453 
 3252000   0.73263475    -8.611167     510.1208  0.013071976  0.012315652          486 
 3253000   0.73345167   -8.6129226    509.50551  0.013052196  0.012311056          480 
 3254000   0.73309695   -8.6135533    509.18673  0.013040021  0.012306463          454 
 3255000   0.74253171   -8.6203385    510.69231   0.01307456  0.012301871          496 
 3256000   0.73162034   -8.6217137    509.33347  0.013035767  0.012297267          489 
 3257000   0.73351799   -8.6233722    509.83225  0.013044526   0.01229266          488 
 3258000   0.75655393   -8.6426097    508.54626  0.013007629  0.012288046          492 
 3259000   0.71929467   -8.6508047    510.34042  0.013049515  0.012283442          480 
 3260000   0.72177744   -8.6180159    510.71126  0.013054991  0.012278845          473 
 3261000   0.74242469    -8.635669    509.89115   0.01303003  0.012274245          513 
 3262000   0.70892104   -8.6363708    510.20913  0.013034159  0.012269637          514 
 3263000   0.72461328   -8.6264722    508.82082  0.012994709  0.012265038          509 
 3264000   0.71689489   -8.6412525    510.83345  0.013042112  0.012260434          511 
 3265000   0.71965544    -8.658127    510.28709  0.013024173  0.012255829          528 
 3266000   0.74055526   -8.6298523     510.0557  0.013014281  0.012251226          493 
 3267000    0.7429249   -8.6477774    509.24967  0.012989738  0.012246631          557 
 3268000   0.73161436   -8.6192088    509.84843  0.013001031  0.012242038          561 
 3269000    0.7213183   -8.6321529    509.74581  0.012994438  0.012237444          559 
 3270000   0.74941556    -8.604537    511.11788   0.01302543  0.012232861          533 
 3271000   0.72875082   -8.6486255    509.94451  0.012991555  0.012228284          530 
 3272000   0.72863679   -8.6410063    509.28756  0.012970853  0.012223703          534 
 3273000   0.71710734    -8.630122    510.94183  0.013009009  0.012219105          544 
 3274000   0.72289327   -8.6860148    509.38166  0.012965324  0.012214503          564 
 3275000   0.73915249   -8.6389611    510.75791  0.012996384  0.012209906          571 
 3276000   0.73000262   -8.6746189    508.42447   0.01293306  0.012205311          522 
 3277000   0.74495488   -8.6553086    509.97898  0.012968645  0.012200715          554 
 3278000   0.72478029   -8.6651932    509.89857  0.012962644  0.012196126          522 
 3279000   0.72064638   -8.6361569    509.99489  0.012961139  0.012191536          567 
 3280000   0.72072737   -8.6756219    509.17181  0.012936276  0.012186937          585 
 3281000   0.72805765   -8.6528454    509.93367  0.012951683  0.012182339          592 
 3282000   0.72899987   -8.6711011    509.28021  0.012931145  0.012177746          576 
 3283000   0.71887971   -8.6566764    510.27162  0.012952371  0.012173148          568 
 3284000   0.71619848   -8.7032849    508.80879  0.012911307  0.012168538          596 
 3285000   0.71772922   -8.6810107    509.35534  0.012921241  0.012163931          622 
 3286000   0.71822852   -8.6829361     508.7899   0.01290297  0.012159329          599 
 3287000   0.72230357   -8.6785293    509.10119  0.012906936  0.012154722          600 
 3288000   0.72129597   -8.6805301    509.23359  0.012906366  0.012150119          587 
 3289000   0.72640769   -8.7059186    507.88896  0.012868373  0.012145522          632 
 3290000   0.71494868   -8.6812261    508.44482  0.012878541  0.012140923          631 
 3291000   0.70707992   -8.6495663    509.62981  0.012904634  0.012136318          612 
 3292000    0.7041881   -8.6497345    510.49076  0.012922508   0.01213173          567 
 3293000   0.72309589   -8.6523427    509.65375  0.012897402  0.012127138          583 
 3294000   0.73976753   -8.6787577    508.62533  0.012867469  0.012122558          604 
 3295000   0.71870741   -8.6887748    509.45037   0.01288443  0.012117973          591 
 3296000   0.71537048   -8.6787182    508.94318  0.012867698  0.012113392          593 
 3297000   0.71555224   -8.6838781    509.54106  0.012878906  0.012108804          566 
 3298000   0.72338193   -8.7065796    508.24147  0.012842164  0.012104211          611 
 3299000   0.72722867   -8.6702214    509.55157  0.012871364  0.012099622          565 
 3300000     0.716826   -8.6691423    508.77911  0.012847957  0.012095038          654 
 3301000    0.7189331   -8.6533012    509.61805  0.012865244  0.012090443          600 
 3302000   0.73613911    -8.677205     508.7523  0.012839499  0.012085851          617 
 3303000   0.73633011   -8.6674387    508.72976  0.012835043  0.012081276          607 
 3304000   0.72188986   -8.6871279    508.82722  0.012833616    0.0120767          672 
 3305000   0.72755074   -8.6745598    509.28474  0.012841269  0.012072125          610 
 3306000   0.73722269    -8.671061    510.13339  0.012858777  0.012067551          658 
 3307000   0.71580623   -8.6698728    509.46125  0.012837951  0.012062989          616 
 3308000    0.7230603   -8.6692085    507.95327  0.012796082   0.01205842          582 
 3309000   0.73545705   -8.6829048     509.7067  0.012836373  0.012053854          619 
 3310000   0.71557735   -8.6804268    508.73298   0.01280798  0.012049295          641 
 3311000   0.72099454    -8.673825    508.78263  0.012805362  0.012044727          617 
 3312000   0.73411526   -8.7018311     508.3001  0.012789354  0.012040153          639 
 3313000   0.73186188   -8.6914715      508.054  0.012779304  0.012035582          639 
 3314000    0.6934194   -8.6863805    509.25631  0.012805681  0.012031018          633 
 3315000   0.72799016   -8.6847491    508.69379  0.012787677  0.012026454          633 
 3316000   0.71864694   -8.6882557    507.86689   0.01276304  0.012021883          621 
 3317000   0.72011383   -8.6784845    508.73984  0.012781124   0.01201732          660 
 3318000   0.71218755   -8.6954092    509.21978  0.012789325  0.012012761          657 
 3319000   0.73219846     -8.69893    508.58921   0.01276964  0.012008209          612 
 3320000   0.72180257    -8.679159    508.44332  0.012762131  0.012003645          677 
 3321000    0.7099409   -8.6666187    508.97983  0.012771751  0.011999102          622 
 3322000    0.7361111   -8.6664287    508.60259  0.012758443  0.011994562          620 
 3323000   0.71468967   -8.6843357    508.75457  0.012758415  0.011990023          620 
 3324000   0.70843922   -8.6931998    509.43331  0.012771593  0.011985488          665 
 3325000   0.71896542   -8.6927449      509.475  0.012768797  0.011980947          636 
 3326000   0.72899662   -8.6740069     508.8559  0.012749446  0.011976403          671 
 3327000   0.70882109   -8.6783308    508.75434   0.01274307  0.011971861          679 
 3328000   0.72060848   -8.6896736    509.31732  0.012753338  0.011967319          693 
 3329000   0.70880328   -8.7006826    508.43863  0.012727511  0.011962779          648 
 3330000   0.72071724   -8.7099941    508.57602  0.012727128  0.011958238          657 
 3331000   0.72183388   -8.6831698    509.32844   0.01274213  0.011953701          720 
 3332000   0.71108498   -8.6762674    509.55429  0.012743955  0.011949162          661 
 3333000   0.70943006    -8.689764     509.9602   0.01275028   0.01194462          698 
 3334000    0.7236221   -8.6971699    509.04053  0.012723468   0.01194009          676 
 3335000   0.72533009   -8.7004753     509.6608  0.012735153  0.011935544          655 
 3336000   0.72297753   -8.6998736    508.27003  0.012696593  0.011931003          678 
 3337000     0.724705   -8.7055072    508.57097  0.012700304  0.011926465          692 
 3338000   0.73222517   -8.7109782      509.215  0.012712577  0.011921927          686 
 3339000   0.71153513   -8.7020568    508.85111  0.012699688  0.011917385          682 
 3340000   0.72136921   -8.7237037    507.98349  0.012674239  0.011912846          685 
 3341000   0.71034921   -8.7114869    508.17502  0.012675223  0.011908309          669 
 3342000   0.71071386   -8.7159306    508.29093   0.01267432   0.01190377          662 
 3343000   0.73067929   -8.7256383     508.7673  0.012682404  0.011899234          664 
 3344000   0.72235648   -8.7061656    509.12733  0.012687583  0.011894697          705 
 3345000   0.72407745   -8.7195073     508.9368  0.012679043  0.011890164          674 
 3346000   0.73148066   -8.7039903    509.44951  0.012688023  0.011885643          647 
 3347000   0.71130694    -8.703287    508.27678  0.012655034  0.011881118          653 
 3348000   0.70699449   -8.7118005    508.95534  0.012668144  0.011876594          640 
 3349000   0.72483701   -8.6872696    509.54339  0.012678993  0.011872075          679 
 3350000   0.72143613   -8.7164678    508.59782  0.012651687  0.011867554          686 
 3351000   0.72829725   -8.7403645    507.14001  0.012611658  0.011863022          704 
 3352000   0.71463236   -8.7112263    507.97103  0.012628556    0.0118585          718 
 3353000   0.72395918   -8.6742592    509.36178  0.012659354  0.011853988          659 
 3354000   0.72590577   -8.6978511    508.81353  0.012641958  0.011849469          694 
 3355000    0.7212356   -8.6829921    509.35313  0.012651593  0.011844959          658 
 3356000    0.7304423   -8.6867979     508.5111  0.012626914  0.011840457          705 
 3357000   0.71011859   -8.6919272    509.23821  0.012641203   0.01183595          653 
 3358000   0.72591905   -8.6922353    509.21807  0.012636938  0.011831451          680 
 3359000   0.70370116   -8.7200421    509.25665  0.012634134  0.011826944          728 
 3360000   0.71839761   -8.7029318    508.59242  0.012613899  0.011822434          684 
 3361000   0.71771176   -8.7353565    507.58502  0.012585169  0.011817922          728 
 3362000   0.71877806   -8.7227463    507.32519  0.012574985  0.011813409          728 
 3363000   0.72126554   -8.7033658     508.5098    0.0126006  0.011808905          739 
 3364000   0.70250678   -8.6931353    508.04763  0.012585405  0.011804398          723 
 3365000   0.72791686   -8.6974974    507.84133  0.012576556  0.011799909          752 
 3366000   0.70701929   -8.6990506    509.67599  0.012618241  0.011795421          758 
 3367000   0.70671632   -8.7321521    507.23951  0.012554191  0.011790925          769 
 3368000   0.72576122   -8.7143981    508.44586  0.012580311  0.011786422          744 
 3369000   0.71338001   -8.7015659    509.08587  0.012592408  0.011781924          745 
 3370000   0.71107163   -8.6865522    509.56065  0.012600412  0.011777436          753 
 3371000    0.7055853   -8.6760797    509.05316  0.012584128  0.011772953          783 
 3372000    0.7180268    -8.688553    508.27625  0.012561196  0.011768473          766 
 3373000   0.72057393   -8.7035782    508.65836  0.012566913  0.011763999          824 
 3374000   0.71538324   -8.7138382     508.0846  0.012549017  0.011759517          813 
 3375000   0.70373221   -8.7299822    508.25952  0.012549618  0.011755031          764 
 3376000   0.71289162   -8.7245686    507.32389  0.012522805  0.011750539          789 
 3377000   0.71729915   -8.7102248     508.8191  0.012555994  0.011746048          801 
 3378000   0.70195191   -8.7044995      509.039  0.012557702  0.011741556          803 
 3379000   0.70435784    -8.723092    508.58107  0.012542692  0.011737075          804 
 3380000    0.7041369   -8.7372388    507.90445  0.012522299  0.011732581          796 
 3381000   0.72267556   -8.7230965    507.69716  0.012513486  0.011728091          797 
 3382000    0.7104996   -8.7389911     508.7763  0.012536376  0.011723605          805 
 3383000   0.68580793   -8.7365044    509.08487  0.012540272  0.011719131          816 
 3384000   0.70696767   -8.7071017    508.20152  0.012514813  0.011714658          800 
 3385000   0.69740918   -8.7188884    508.39741  0.012515938  0.011710177          831 
 3386000   0.71119413   -8.7256348    509.14321  0.012530597  0.011705706          841 
 3387000   0.70729861   -8.7342061    507.85135  0.012495112  0.011701227          863 
 3388000   0.71221996   -8.7434611    507.64305  0.012486301  0.011696748          872 
 3389000   0.70614382   -8.7436489    508.10363  0.012493942  0.011692273          859 
 3390000    0.7069452   -8.7443373    507.91335  0.012485579  0.011687804          852 
 3391000   0.70773653   -8.7070275    507.55521  0.012473096   0.01168333          879 
 3392000   0.72207642   -8.7404152    507.87898  0.012477373  0.011678859          854 
 3393000   0.70998091   -8.7358519    507.81722  0.012472178  0.011674384          839 
 3394000   0.70491795    -8.719078    508.78589  0.012492288  0.011669923          810 
 3395000   0.70304371   -8.7456426    507.99238  0.012469131  0.011665468          843 
 3396000   0.70827643    -8.714823    508.83134  0.012486046  0.011661008          841 
 3397000   0.71286868    -8.721258    509.39858  0.012496285  0.011656555          864 
 3398000   0.70942131    -8.740865    508.44117  0.012469128  0.011652102          848 
 3399000   0.71275155   -8.7117076    508.26834  0.012461222  0.011647648          835 
 3400000   0.70209892   -8.7306996    508.58916  0.012465421  0.011643192          835 
 3401000   0.70739434   -8.7556737    507.67036  0.012439242  0.011638738          851 
 3402000    0.7093156   -8.7164865    507.68849   0.01243603  0.011634278          855 
 3403000   0.70645553   -8.7225115    508.25152  0.012446163  0.011629817          857 
 3404000   0.72177812    -8.744035    507.82203  0.012431992  0.011625348          837 
 3405000     0.701764    -8.753355     508.7292  0.012450543   0.01162089          856 
 3406000   0.70789862   -8.7345529    508.74326  0.012447232   0.01161642          838 
 3407000   0.71333901   -8.7425531    508.87482  0.012446796  0.011611961          847 
 3408000   0.69652849   -8.7784409    507.45538  0.012408436  0.011607504          870 
 3409000   0.68785189   -8.7512015    507.99924   0.01241809  0.011603044          855 
 3410000   0.70380671   -8.7426899    507.60766  0.012404879   0.01159859          895 
 3411000    0.7181843   -8.7590234    507.77727  0.012405386  0.011594131          876 
 3412000   0.70211179   -8.7450438    507.24556  0.012388764  0.011589676          913 
 3413000    0.7123257   -8.7487144    508.56808  0.012417426  0.011585233          886 
 3414000   0.71961481   -8.7625887    507.79262   0.01239486  0.011580786          842 
 3415000   0.70915794   -8.7422235    507.62257  0.012387081  0.011576343          842 
 3416000   0.71649949   -8.7477942    508.44954  0.012403629  0.011571898          872 
 3417000   0.72775837    -8.759934    507.30947  0.012372195  0.011567458          892 
 3418000    0.7275632    -8.749374    506.63739  0.012352189  0.011563021          898 
 3419000   0.70514489   -8.7521547    507.15251  0.012361132  0.011558588          854 
 3420000   0.68828557   -8.7531056    507.54517  0.012367085  0.011554152          877 
 3421000   0.71022064   -8.7714704    507.06478  0.012351768  0.011549714          847 
 3422000   0.72013707   -8.7625342    506.58175  0.012336396   0.01154528          865 
 3423000   0.71670962   -8.7748217      507.883  0.012364471  0.011540842          882 
 3424000   0.70997494   -8.7490418    507.70645  0.012356563  0.011536424          891 
 3425000   0.70477932   -8.7770417    506.84026   0.01233188  0.011531998          906 
 3426000   0.70803492   -8.7607357    508.14363  0.012359983  0.011527576          936 
 3427000   0.71118791   -8.7705742    508.26787  0.012359398  0.011523156          869 
 3428000   0.69650341   -8.7585143    507.49222  0.012336936  0.011518746          897 
 3429000   0.69636885   -8.7254334     508.0248  0.012346282  0.011514336          912 
 3430000   0.70197908   -8.7678471    507.99067  0.012341853  0.011509922          866 
 3431000   0.72197549   -8.7514726    506.69959  0.012306898  0.011505505          946 
 3432000   0.69461666   -8.7633618    508.39732  0.012344535  0.011501096          934 
 3433000   0.70217123   -8.7901996    507.84165  0.012327451  0.011496691          941 
 3434000   0.70527092   -8.7636245    507.77508  0.012322245  0.011492283          909 
 3435000   0.70876266   -8.7765788     507.2372  0.012305609  0.011487876          920 
 3436000   0.71857625   -8.7893576    508.24371  0.012326438  0.011483474          952 
 3437000     0.698809   -8.7571796    508.09015  0.012319129  0.011479068          942 
 3438000   0.68600425   -8.7804078    507.89262  0.012310758  0.011474671          942 
 3439000   0.69694074   -8.7923135    507.69309  0.012302343  0.011470277          957 
 3440000   0.69426307   -8.7636563     507.7687  0.012300598  0.011465895          931 
 3441000   0.68856507   -8.8029277     507.1514  0.012282074    0.0114615          958 
 3442000   0.70913798    -8.778083    508.12621  0.012302107  0.011457106          949 
 3443000   0.70244062   -8.7487418    508.35205     0.012304  0.011452714          918 
 3444000   0.69789355   -8.7880453     507.2364  0.012273432  0.011448325          965 
 3445000   0.70203652   -8.7670037    506.77234  0.012258644   0.01144394          985 
 3446000   0.69215389   -8.7637051    507.96627  0.012283959  0.011439558          943 
 3447000   0.69018912   -8.7863574    507.12065  0.012259952  0.011435177          998 
 3448000   0.69820879   -8.7867422    507.29159  0.012260528  0.011430795          954 
 3449000   0.68944951   -8.7620111    507.00496  0.012250047  0.011426408          965 
 3450000   0.70223612   -8.7923605    507.73359  0.012264096  0.011422028          956 
 3451000   0.70436235   -8.7935071    507.47501  0.012254298  0.011417645          975 
 3452000   0.69205239   -8.7724913    507.63216  0.012254542  0.011413269          968 
 3453000   0.72121004   -8.8000321    507.16325  0.012239677  0.011408886          973 
 3454000   0.69224559   -8.7811624    506.46843   0.01221937  0.011404516          968 
 3455000   0.69874222   -8.7861315    507.52742  0.012241375  0.011400143         1018 
 3456000   0.70906258   -8.7792227    507.35451  0.012233664  0.011395771          990 
 3457000   0.70507851   -8.7697458     507.1726   0.01222574  0.011391413         1024 
 3458000   0.69699232     -8.76125    507.33341   0.01222608  0.011387051          988 
 3459000   0.69744044    -8.769765    508.42581  0.012248863  0.011382695          998 
 3460000   0.70475086   -8.7894838    508.20693  0.012240051  0.011378341         1007 
 3461000   0.69968857   -8.7953493    506.69507  0.012200112  0.011373972          990 
 3462000   0.69412846    -8.748571    507.57293  0.012217719   0.01136961         1007 
 3463000   0.70484418   -8.7829219    506.96812  0.012199637  0.011365245         1036 
 3464000   0.68664389   -8.7845473    507.10058  0.012199302  0.011360883         1042 
 3465000   0.68901972   -8.7824157    507.44934  0.012204169  0.011356525         1066 
 3466000   0.69613255   -8.8080173    506.59619  0.012180135  0.011352151         1056 
 3467000   0.69323692    -8.814867    506.32919  0.012170205  0.011347778         1056 
 3468000   0.68491417   -8.7928306    507.03029  0.012183542   0.01134342         1006 
 3469000   0.69650974   -8.7932698    506.43962  0.012165841  0.011339062         1035 
 3470000    0.7017211   -8.7756434    507.49575  0.012187698  0.011334709         1082 
 3471000   0.68900115   -8.7754247    507.23777  0.012177993  0.011330371         1019 
 3472000   0.69364852   -8.8039413    507.36457  0.012177529   0.01132602         1043 
 3473000   0.70364934   -8.7781134    507.83578  0.012185329  0.011321665         1016 
 3474000   0.70768713   -8.7985214    506.83659  0.012157853   0.01131731         1032 
 3475000   0.70605067   -8.7959265    507.05076  0.012159491  0.011312961         1055 
 3476000   0.71203876   -8.7931213     507.0508  0.012155994  0.011308607         1061 
 3477000     0.678356   -8.8026976    506.77566  0.012145903  0.011304246         1022 
 3478000   0.69695625   -8.7961924    507.40965  0.012157601  0.011299889         1009 
 3479000   0.69933079   -8.8008699    507.61554  0.012159039  0.011295529         1036 
 3480000   0.70114573   -8.8289004    505.48356  0.012104491  0.011291171         1068 
 3481000   0.68899287   -8.8102215    507.21488  0.012142461  0.011286819         1037 
 3482000   0.69888055   -8.7973787    507.15786  0.012137609  0.011282469         1035 
 3483000   0.68457539   -8.8250628    507.14361  0.012133783  0.011278127         1079 
 3484000   0.70123661   -8.7964531    507.17504  0.012131053  0.011273768         1063 
 3485000   0.70348019   -8.7869759    506.78551  0.012118257  0.011269423         1086 
 3486000   0.70606671   -8.8030255    507.22677  0.012125329  0.011265073         1071 
 3487000   0.68848367    -8.813167    507.05082  0.012117647  0.011260732         1167 
 3488000   0.68686928   -8.8103282    506.56532  0.012102573  0.011256385         1132 
 3489000   0.69296946   -8.7927353    506.13742  0.012088885  0.011252042         1153 
 3490000   0.67645222   -8.8018297    506.44893  0.012092859  0.011247702         1095 
 3491000   0.69331103   -8.8018683     506.1471   0.01208219   0.01124336         1093 
 3492000   0.71378095   -8.8193189    505.45671  0.012062254  0.011239016         1159 
 3493000   0.68094256   -8.8203776    506.39861  0.012081272  0.011234688         1145 
 3494000    0.6900662   -8.8084106    505.35216  0.012052856  0.011230347         1184 
 3495000   0.69311284   -8.8560526    507.01357  0.012089022  0.011226004         1154 
 3496000   0.68916854   -8.8323184    507.39823  0.012094733  0.011221659         1154 
 3497000   0.67229412   -8.8418386    506.02948  0.012058657  0.011217305         1204 
 3498000   0.69286918   -8.8367228    506.10333  0.012056969  0.011212958         1185 
 3499000   0.69302646   -8.8325628    506.56162  0.012064438  0.011208616         1194 
 3500000   0.69157659   -8.8223785     506.6752  0.012063695  0.011204268         1186 
 3501000   0.69069859   -8.8269563    505.96519  0.012043349  0.011199928         1202 
 3502000   0.68755427   -8.8208496    506.43476  0.012051084  0.011195592         1123 
 3503000   0.69781569   -8.8327305    506.57089  0.012050882   0.01119126         1175 
 3504000   0.68746758   -8.8299616    506.65948   0.01204955  0.011186926         1173 
 3505000   0.67333434    -8.825371    506.57162  0.012044023  0.011182593         1199 
 3506000   0.68989756    -8.834737     506.3931  0.012036345  0.011178263         1233 
 3507000   0.69306891   -8.8085351    506.09996  0.012025947  0.011173931         1177 
 3508000   0.67948155   -8.8387594     506.0059  0.012020285  0.011169598         1236 
 3509000   0.70713044   -8.8228751    506.80873  0.012035925  0.011165267         1184 
 3510000    0.6939604     -8.83405     506.5111   0.01202543  0.011160945         1181 
 3511000   0.69739327   -8.8501966    506.26146   0.01201608  0.011156629         1233 
 3512000   0.68992972    -8.817283    506.33377  0.012014374  0.011152301         1212 
 3513000   0.68535678   -8.8461216    504.12266  0.011958503  0.011147961         1257 
 3514000   0.69047177   -8.8507969    505.85224  0.011996116  0.011143626         1241 
 3515000   0.68769304   -8.8427578    505.73641  0.011989958  0.011139293         1233 
 3516000   0.68252688   -8.8537945    505.44462  0.011979632  0.011134966         1226 
 3517000   0.68705201   -8.8400325    507.01288  0.012013385  0.011130638         1237 
 3518000   0.69925617    -8.824338    505.22922  0.011967719  0.011126319         1204 
 3519000    0.6727282   -8.8484078    506.10571  0.011985074  0.011121993         1249 
 3520000   0.68157101   -8.8232885    507.16838  0.012006827  0.011117669         1260 
 3521000   0.69841462   -8.8390304    506.42461  0.011985814  0.011113362         1245 
 3522000   0.68701564   -8.8412555    506.29299  0.011979297  0.011109046         1266 
 3523000   0.69206101   -8.8496471    505.78057  0.011963775  0.011104739         1237 
 3524000   0.70132532   -8.8481516    505.70311  0.011958549  0.011100427         1239 
 3525000   0.67740188    -8.858015    505.45763  0.011949353  0.011096108         1234 
 3526000   0.68635642   -8.8414441    505.45698  0.011945949  0.011091796         1198 
 3527000   0.69472769   -8.8513597    505.71499  0.011948658  0.011087484         1202 
 3528000   0.68273466   -8.8409048    506.46276  0.011962934  0.011083175         1236 
 3529000   0.68104961    -8.857863    505.41992  0.011934918   0.01107887         1284 
 3530000   0.68313202   -8.8475764    505.50998  0.011933663  0.011074562         1297 
 3531000   0.67474362   -8.8700345    504.73982  0.011912107  0.011070262         1305 
 3532000   0.68858008   -8.8342295    505.71762  0.011931805  0.011065952         1222 
 3533000   0.68271019   -8.8585968    506.22616  0.011940423  0.011061654         1254 
 3534000   0.70000366   -8.8610272    506.34302  0.011939799  0.011057361         1261 
 3535000   0.68486449    -8.864873    506.40005  0.011937766   0.01105306         1291 
 3536000   0.67743375   -8.8665661    505.63458   0.01191635  0.011048756         1288 
 3537000   0.68159718   -8.8697028    505.39699  0.011907384  0.011044458         1290 
 3538000    0.6835427   -8.8533311    505.76868  0.011912773   0.01104016         1304 
 3539000   0.70142724   -8.8683244    506.04729  0.011915967  0.011035866         1303 
 3540000   0.68251059   -8.8596898    504.59153  0.011878332   0.01103156         1285 
 3541000   0.67833916   -8.8461968    505.41479  0.011894352  0.011027266         1312 
 3542000   0.69789556   -8.8473451    505.75782  0.011899064  0.011022974         1274 
 3543000   0.67916272   -8.8596847    505.85167  0.011897913  0.011018683         1282 
 3544000   0.66993978   -8.8803298    505.37043   0.01188324  0.011014389         1327 
 3545000   0.67401869   -8.8487413    505.74054  0.011888588  0.011010095         1334 
 3546000   0.68033491     -8.87119    505.72942  0.011884974  0.011005802         1356 
 3547000   0.68030142   -8.8597788    505.50123  0.011876262  0.011001513         1345 
 3548000    0.6917291    -8.856479    505.28502  0.011867837  0.010997227         1361 
 3549000   0.68568614   -8.8760808     505.8981  0.011878888  0.010992938         1327 
 3550000   0.68810036   -8.8838254    505.54307  0.011867208  0.010988647         1367 
 3551000   0.69355391    -8.859825    505.45652  0.011861835  0.010984355         1378 
 3552000   0.67787354   -8.8860592    505.43716  0.011858041  0.010980064         1412 
 3553000   0.67501824   -8.8624643    505.13726   0.01184767  0.010975778         1401 
 3554000   0.67644229   -8.8922707    505.78971  0.011859635  0.010971493         1401 
 3555000   0.67351763     -8.88062    504.66066  0.011829833  0.010967206         1405 
 3556000   0.68698584   -8.8804116    505.38237  0.011843419  0.010962918         1426 
 3557000    0.6806442   -8.9053709    504.60775  0.011821942  0.010958618         1383 
 3558000   0.68315465   -8.8787415    504.49386  0.011815951  0.010954317         1434 
 3559000    0.6894682   -8.9013564     505.0041  0.011824579  0.010950026         1444 
 3560000   0.67114304   -8.8688718    505.43605  0.011831368  0.010945732         1443 
 3561000    0.6828343    -8.899409     503.7337  0.011788208  0.010941441         1442 
 3562000   0.67955121   -8.8830614    504.25688  0.011797138   0.01093715         1462 
 3563000   0.68181115   -8.8950163     503.3841  0.011773414  0.010932862         1483 
 3564000   0.66454581   -8.9166035    504.50474  0.011796314   0.01092857         1452 
 3565000   0.68174273   -8.9014287    504.41097  0.011790813  0.010924284         1491 
 3566000   0.69300036   -8.8994898    505.22362  0.011806497  0.010920006         1428 
 3567000   0.68967236   -8.8749614    505.36775  0.011806554  0.010915725         1459 
 3568000   0.68249329   -8.9021378    504.78878  0.011789723   0.01091145         1461 
 3569000   0.67515851   -8.8993971    505.18842  0.011795751  0.010907168         1469 
 3570000    0.6786112    -8.895807    504.02618  0.011765317  0.010902901         1470 
 3571000   0.66913926   -8.9099451    504.55633  0.011774394   0.01089863         1479 
 3572000   0.67871257    -8.902848    504.49986   0.01176978  0.010894353         1451 
 3573000   0.68315409   -8.9036309    504.23672  0.011760349   0.01089009         1459 
 3574000   0.67368995   -8.9018631    504.67264  0.011767223  0.010885827         1433 
 3575000   0.67450222   -8.8945194    505.20732  0.011776394  0.010881562         1465 
 3576000   0.68171491   -8.9125831     504.7604  0.011762686  0.010877304         1508 
 3577000    0.6702992   -8.8910483    504.41192  0.011751279   0.01087305         1500 
 3578000   0.68240604   -8.9072114    504.72641   0.01175532   0.01086879         1487 
 3579000   0.68628392   -8.9206327    504.03363  0.011735905   0.01086454         1488 
 3580000   0.68157842   -8.8851475    505.02363  0.011755671  0.010860288         1450 
 3581000   0.67677637   -8.9227058    504.27874  0.011735054  0.010856038         1488 
 3582000   0.68565459   -8.9041925    505.41323  0.011758171  0.010851796         1512 
 3583000   0.68323419   -8.9136575     504.4644  0.011732822  0.010847547         1475 
 3584000   0.68414936   -8.9266805    504.37427  0.011727452  0.010843304         1506 
 3585000   0.67276267   -8.9104666     504.1328  0.011718568  0.010839063         1485 
 3586000   0.66857229    -8.929903    504.34565  0.011720246  0.010834823         1493 
 3587000   0.68440366   -8.9004909    504.99165  0.011731987   0.01083058         1498 
 3588000   0.67920619   -8.9205787    504.61185  0.011719896  0.010826341         1472 
 3589000    0.6710798    -8.920779    504.22754  0.011707707  0.010822099         1516 
 3590000   0.67677773    -8.923833    504.57025  0.011712401  0.010817858         1554 
 3591000   0.66986888   -8.9297543     505.2949  0.011725956  0.010813621         1525 
 3592000   0.67375034    -8.930173    503.39889  0.011678705   0.01080939         1511 
 3593000   0.67254126   -8.9293807    504.34827  0.011697474  0.010805156         1503 
 3594000   0.69186022   -8.9249008    505.40997  0.011718836  0.010800916         1516 
 3595000   0.67375608   -8.9344563    504.53883  0.011695383  0.010796685         1506 
 3596000   0.68186333   -8.9296259    504.08481  0.011681609  0.010792458         1504 
 3597000   0.67652224   -8.9249691    504.33419  0.011684139  0.010788225         1517 
 3598000   0.66668914   -8.9436097    504.93765  0.011694869  0.010783996         1565 
 3599000   0.67975444   -8.9419153    503.49523  0.011658221  0.010779774         1562 
 3600000     0.678912    -8.917617    505.10361  0.011692213  0.010775549         1520 
 3601000   0.68543784   -8.9183265     503.7861  0.011658477  0.010771323         1552 
 3602000   0.67350695   -8.9413905     504.1437  0.011663513  0.010767101         1540 
 3603000   0.66245372   -8.9365312    504.77503  0.011674878  0.010762869         1517 
 3604000   0.68468019   -8.9310727    503.67496  0.011646202  0.010758648         1516 
 3605000   0.68553553   -8.9514428    504.29486  0.011657302  0.010754418         1550 
 3606000   0.66874527   -8.9274302    503.54913  0.011636835  0.010750196         1533 
 3607000    0.6629362   -8.9263969    504.53924  0.011656484  0.010745971         1594 
 3608000   0.66850319   -8.9536561    503.21599   0.01162269  0.010741748         1568 
 3609000   0.65672396   -8.9510628    503.77239  0.011632317   0.01073752         1561 
 3610000   0.66405998   -8.9514023    504.17863  0.011638473  0.010733302         1564 
 3611000   0.66202341   -8.9473662    504.54675  0.011643745  0.010729081         1616 
 3612000   0.67562175   -8.9475564    503.07407  0.011606545  0.010724867         1594 
 3613000   0.66693615   -8.9490233     504.0111  0.011624945  0.010720656         1545 
 3614000   0.66829806   -8.9425983    504.05736  0.011622795  0.010716447         1572 
 3615000   0.67374911   -8.9387804      504.852  0.011637898  0.010712245         1573 
 3616000   0.67714945   -8.9297595    504.20541  0.011619778  0.010708039         1586 
 3617000   0.68625654   -8.9301936    504.21756  0.011616846   0.01070385         1537 
 3618000   0.66949283   -8.9585632    503.06115  0.011586999  0.010699657         1567 
 3619000   0.67838435   -8.9360453     504.3035  0.011612405  0.010695463         1555 
 3620000   0.67301577   -8.9159139    503.39954  0.011588387  0.010691275         1579 
 3621000   0.68572443   -8.9548359    503.49922  0.011587481  0.010687087         1590 
 3622000   0.65926184   -8.9447623    504.05172  0.011596993  0.010682898         1579 
 3623000   0.67805999     -8.91878    504.21267  0.011597494  0.010678717         1568 
 3624000   0.67069315   -8.9421344    504.76595  0.011607017  0.010674535         1565 
 3625000    0.6634825   -8.9282427    504.49598  0.011597609  0.010670356         1595 
 3626000   0.66837009   -8.9549898    504.65564  0.011598079  0.010666178         1540 
 3627000   0.67723642   -8.9347122    504.03625  0.011580651  0.010661998         1592 
 3628000   0.67278324   -8.9324558    503.92372  0.011574874  0.010657816         1609 
 3629000   0.66147582    -8.936226    504.43731  0.011583478  0.010653641         1576 
 3630000   0.67025625   -8.9347914    504.16827  0.011574111   0.01064946         1606 
 3631000   0.67063831   -8.9641995    503.63752  0.011558742  0.010645294         1633 
 3632000   0.67680817   -8.9487021    504.25266  0.011569674  0.010641121         1655 
 3633000    0.6692213   -8.9398316    503.46288  0.011548373  0.010636952         1680 
 3634000   0.67722661   -8.9345434    504.15413  0.011561047  0.010632792         1637 
 3635000   0.66905384   -8.9619412    503.78743   0.01154946  0.010628628         1648 
 3636000    0.6862365    -8.939104    504.42964  0.011561002  0.010624467         1659 
 3637000    0.6632045   -8.9418599    504.16107   0.01155167  0.010620304         1624 
 3638000   0.66977753   -8.9546684    503.72165  0.011538429  0.010616147         1612 
 3639000   0.65750666   -8.9701185    504.71993  0.011558119  0.010611992         1685 
 3640000   0.66917754   -8.9685965    503.91425  0.011536498  0.010607835         1667 
 3641000   0.68805113   -8.9660071    503.81676  0.011531099  0.010603685         1737 
 3642000   0.66781857   -8.9655072    504.22807  0.011537344  0.010599523         1725 
 3643000   0.66267424   -8.9630438    504.05604  0.011530242  0.010595375         1677 
 3644000   0.67077246   -8.9711047    503.97027  0.011525116  0.010591213         1677 
 3645000   0.67125594   -8.9830156    503.87406  0.011519754  0.010587057         1616 
 3646000    0.6629638   -8.9534904    503.45529  0.011507024  0.010582904         1648 
 3647000   0.66475609   -8.9686414     503.5194  0.011505333  0.010578758         1703 
 3648000   0.67785092   -8.9438385    505.63319  0.011550466  0.010574614         1661 
 3649000   0.67184636   -8.9549481    504.05443  0.011511246  0.010570473         1668 
 3650000   0.65438977   -8.9499968    503.46997  0.011494748  0.010566324         1724 
 3651000    0.6803175   -8.9564759    504.49764  0.011515056  0.010562183         1701 
 3652000   0.67798545   -8.9563327     503.8708  0.011497599  0.010558042         1706 
 3653000   0.66753189   -8.9872262    502.80536  0.011470147  0.010553905         1765 
 3654000   0.64605324   -8.9585904    503.30529  0.011478409  0.010549763         1753 
 3655000   0.67652008   -8.9611376    502.53471    0.0114577   0.01054562         1723 
 3656000   0.66222455    -8.970042    503.94992  0.011486823  0.010541482         1756 
 3657000   0.67954075   -8.9735424    503.74873  0.011479098  0.010537343         1739 
 3658000   0.67467423   -8.9743392     503.6255  0.011473153  0.010533208         1782 
 3659000   0.66436615   -8.9612901    503.68049  0.011471269   0.01052907         1757 
 3660000   0.67999454   -8.9805444    503.03221  0.011453375  0.010524934         1777 
 3661000   0.67524155   -8.9722465    503.23472  0.011454856  0.010520802         1776 
 3662000   0.66810117   -8.9640968    502.29215  0.011430278   0.01051667         1757 
 3663000    0.6805599   -8.9828846    503.53615  0.011455459  0.010512545         1744 
 3664000    0.6678195   -8.9652623     504.1285  0.011465805  0.010508427         1743 
 3665000   0.68004677   -8.9794474    502.97519  0.011436453  0.010504303         1772 
 3666000   0.65210538    -8.980412    503.33717  0.011441562  0.010500184         1773 
 3667000   0.66342902   -8.9815622    504.05749  0.011454811  0.010496067         1774 
 3668000   0.66186594   -8.9749596    502.93892  0.011426275  0.010491946         1798 
 3669000   0.65937453   -8.9769256     503.3294   0.01143203  0.010487829         1749 
 3670000   0.66373741   -8.9672281    503.59187  0.011434874  0.010483713         1732 
 3671000   0.65232938   -8.9920303    501.65048  0.011387689  0.010479603         1836 
 3672000   0.66308043   -8.9661376    503.96797  0.011437182  0.010475486         1875 
 3673000   0.65757092   -8.9722136    503.17168  0.011416001  0.010471375         1830 
 3674000   0.67794897   -8.9956641    502.72736  0.011402816  0.010467258         1835 
 3675000   0.67483167    -8.985072    503.76065  0.011423144   0.01046314         1888 
 3676000   0.66147275    -8.989589    503.37255  0.011411239  0.010459029         1881 
 3677000   0.66060072   -8.9878003    502.74646  0.011393946   0.01045492         1910 
 3678000   0.66356305   -8.9751466    502.53109  0.011385968  0.010450815         1951 
 3679000   0.66371444    -8.990181    503.63622  0.011407906  0.010446708         1934 
 3680000   0.67099397   -8.9805335    503.93579   0.01141159  0.010442603         1893 
 3681000   0.64797386   -8.9791438    503.60541   0.01140101  0.010438504         1907 
 3682000   0.65206029   -9.0097575    503.29093  0.011390796  0.010434402         1948 
 3683000   0.65426163   -9.0031988    502.90424  0.011378954  0.010430297         1938 
 3684000   0.65958823   -8.9829315    501.55524   0.01134535  0.010426196         1989 
 3685000   0.66105332   -8.9751925    503.66873  0.011390066  0.010422094         1933 
 3686000   0.67097734   -8.9858224    502.99943  0.011371845  0.010417998         1998 
 3687000   0.66866939   -9.0113027    502.32615  0.011353543  0.010413904         1961 
 3688000   0.66111427   -8.9851879     502.3949  0.011352018   0.01040982         1958 
 3689000   0.67168657   -9.0011484    502.29997  0.011346796  0.010405734         2020 
 3690000   0.65863437   -8.9840845    503.09679  0.011361716  0.010401647         1988 
 3691000   0.66845171   -9.0087906    504.04523  0.011380051  0.010397565         1976 
 3692000   0.67282666   -9.0106688    502.99754  0.011353321   0.01039348         1983 
 3693000   0.66164774   -8.9940282    503.05104  0.011351454  0.010389397         1989 
 3694000   0.64543901   -8.9963366    503.57424  0.011360184  0.010385326         1965 
 3695000   0.66356599   -8.9883201    503.51028  0.011355667  0.010381247         2001 
 3696000   0.66702432    -8.974023     503.7475  0.011357943   0.01037718         2006 
 3697000   0.66636083   -8.9988234    504.21301  0.011365364  0.010373112         2009 
 3698000   0.65470934   -8.9928919    503.71638  0.011351099  0.010369047         2012 
 3699000   0.65465538   -8.9979504    503.47742  0.011342647  0.010364977         2029 
 3700000   0.67929258   -8.9880922    503.31734  0.011335976  0.010360916         1967 
 3701000    0.6615749   -8.9724969    503.78587  0.011343463  0.010356857         2023 
 3702000   0.65758938    -8.990662    502.85224  0.011319382  0.010352795         1999 
 3703000   0.66438562   -9.0172025    502.63735   0.01131149  0.010348729         1965 
 3704000   0.67431814   -8.9985687     502.7838   0.01131173  0.010344668         2018 
 3705000   0.65802392   -8.9974233    502.19776  0.011295496  0.010340604         2004 
 3706000   0.66251646   -9.0173705    504.03716  0.011333809  0.010336542         2024 
 3707000    0.6653317   -8.9974344    503.06069  0.011308801  0.010332481         2050 
 3708000   0.64665704   -9.0147566    503.72769  0.011320741  0.010328421         2038 
 3709000    0.6732971   -9.0159069    503.14056  0.011304497  0.010324364         2063 
 3710000   0.64935201   -9.0146315    502.10161  0.011278114  0.010320308         2068 
 3711000    0.6541083   -9.0036983    502.53834  0.011284881  0.010316255         2061 
 3712000   0.67489884   -9.0092932    502.90516  0.011290076  0.010312208         2118 
 3713000   0.67354183   -9.0284947    502.39698   0.01127563  0.010308163         2053 
 3714000   0.65789414   -9.0175872    502.85308  0.011282828  0.010304115         2065 
 3715000   0.66175645   -9.0133204    502.19869  0.011265112  0.010300065         2077 
 3716000   0.65603571   -9.0423202    502.41274  0.011266881  0.010296009         2111 
 3717000   0.64584943   -9.0331815    502.27648  0.011260794  0.010291959         2126 
 3718000   0.65653466   -9.0247375    501.74037   0.01124575  0.010287913         2123 
 3719000   0.64366028   -9.0328691    502.58733  0.011261704  0.010283859         2094 
 3720000   0.64240251   -9.0439804    502.32347  0.011252766  0.010279808         2198 
 3721000   0.63869331   -9.0201103    502.07944  0.011244277   0.01027576         2157 
 3722000   0.65148505   -9.0433753    502.29401   0.01124606  0.010271709         2127 
 3723000   0.66672959    -9.029473    501.67889  0.011229271  0.010267666         2147 
 3724000   0.64729366   -9.0304102    502.26026  0.011239265  0.010263624         2175 
 3725000    0.6494782   -9.0393343    502.09065  0.011232453  0.010259585         2152 
 3726000   0.65177156    -9.046351    501.96484  0.011226625  0.010255548         2132 
 3727000   0.66016652   -9.0546183    502.19634  0.011228789  0.010251507         2117 
 3728000   0.65997322   -9.0298019    502.61718  0.011235184   0.01024747         2145 
 3729000   0.66348345   -9.0275583    502.70819  0.011234205  0.010243432         2149 
 3730000   0.65739573   -9.0374207    501.66082  0.011207793    0.0102394         2131 
 3731000   0.66380006   -9.0384276    502.62719  0.011226373  0.010235365         2137 
 3732000   0.66112625   -9.0274708    501.75771   0.01120395  0.010231339         2130 
 3733000   0.65134469   -9.0194713    503.08707  0.011230625  0.010227315         2162 
 3734000   0.65082183   -9.0461289    502.08379  0.011205227  0.010223287         2137 
 3735000   0.64417572   -9.0321726    501.38801  0.011186703  0.010219256         2143 
 3736000   0.65494736   -9.0442017    502.04537  0.011198371  0.010215236         2182 
 3737000   0.64404332   -9.0516453    501.78476  0.011189563  0.010211213         2163 
 3738000    0.6688587   -9.0278908    502.12055  0.011194055   0.01020719         2181 
 3739000   0.65498872    -9.053298    503.15166  0.011214042   0.01020317         2233 
 3740000   0.66730215   -9.0494695    501.61494  0.011176804  0.010199156         2184 
 3741000   0.65549431   -9.0178063    502.44136  0.011192225  0.010195144         2191 
 3742000   0.65562231   -9.0475333    502.39356  0.011188169  0.010191134         2195 
 3743000   0.65364977   -9.0584824    501.11217  0.011156652  0.010187121         2183 
 3744000   0.65442424   -9.0318375    502.75678  0.011190277  0.010183112         2183 
 3745000    0.6621348   -9.0538089    502.22966   0.01117556  0.010179107         2203 
 3746000   0.65234561   -9.0466838    502.45987  0.011177698  0.010175104         2226 
 3747000   0.65137865   -9.0346564    502.07852  0.011166233  0.010171099         2173 
 3748000    0.6363952   -9.0400575     502.8432  0.011180256  0.010167098         2205 
 3749000    0.6487999   -9.0469015    502.32188  0.011165686  0.010163103         2155 
 3750000   0.65593837   -9.0552895    501.73172  0.011149594  0.010159107         2250 
 3751000   0.64857251    -9.056994    501.41003  0.011139475  0.010155113         2206 
 3752000   0.65417498   -9.0511189     501.8755  0.011146844  0.010151119         2217 
 3753000   0.66374424   -9.0502718    501.81288  0.011142483  0.010147126         2255 
 3754000    0.6611955   -9.0562558    502.85855  0.011162728  0.010143138         2273 
 3755000    0.6454992   -9.0285824    502.53963  0.011152677  0.010139149         2222 
 3756000   0.66639828   -9.0428514    502.15413  0.011141155   0.01013517         2207 
 3757000   0.64430398   -9.0529373    502.46308  0.011145042  0.010131189         2209 
 3758000   0.63933856   -9.0544166    503.25301  0.011159593  0.010127213         2218 
 3759000   0.65417142    -9.058782    502.36207  0.011136873  0.010123231         2200 
 3760000   0.64930195    -9.042785    502.09388  0.011127967  0.010119257         2199 
 3761000   0.65663237   -9.0738316    501.32971  0.011108077  0.010115281         2226 
 3762000    0.6600031   -9.0682331    502.31972  0.011127054  0.010111301         2217 
 3763000   0.64843251   -9.0618273    500.82317  0.011090955  0.010107326         2232 
 3764000   0.64430258    -9.049201    502.51643  0.011125496  0.010103357         2174 
 3765000   0.64965752   -9.0384021     501.8051  0.011106797  0.010099392         2278 
 3766000   0.64673308   -9.0744253    501.70881  0.011101717  0.010095424         2242 
 3767000   0.63271486    -9.061769    502.02585  0.011105784  0.010091457         2222 
 3768000   0.64782084   -9.0590341    502.15769  0.011105752  0.010087497         2209 
 3769000   0.65987055   -9.0704707      502.099  0.011101508  0.010083541         2242 
 3770000   0.65832432   -9.0630221    503.03871  0.011119335  0.010079583         2235 
 3771000   0.65148823   -9.0751828    502.26719  0.011099337  0.010075619         2236 
 3772000   0.63985477   -9.0558801    501.33201  0.011075734  0.010071663         2247 
 3773000   0.66012835   -9.0805658    502.01306   0.01108784  0.010067708         2255 
 3774000   0.64421681   -9.0913092    501.87807  0.011081922  0.010063755         2205 
 3775000   0.64134479   -9.0734848    501.50728  0.011070801  0.010059798         2222 
 3776000   0.65042698   -9.0658251    501.07439  0.011058315  0.010055846         2254 
 3777000   0.65387106   -9.0585007    501.73114  0.011069878  0.010051898         2267 
 3778000      0.64294   -9.0643425    502.27148  0.011078866  0.010047947         2325 
 3779000   0.66337533   -9.0945084    502.11117  0.011072399  0.010043998         2294 
 3780000   0.64393652   -9.0682998    501.39616  0.011053707  0.010040054         2333 
 3781000   0.64140418   -9.0769624    501.90583  0.011062017   0.01003611         2299 
 3782000   0.63395584   -9.0656207    501.96116  0.011060311  0.010032166         2333 
 3783000   0.65469863    -9.100642    502.07989  0.011060003  0.010028222         2331 
 3784000    0.6424606   -9.0990612    501.32551  0.011040467  0.010024277         2310 
 3785000   0.65372531   -9.0933552    501.97591  0.011051869  0.010020332         2326 
 3786000    0.6410641   -9.0694624    500.86196  0.011024431  0.010016384         2349 
 3787000   0.64307082   -9.0833545    502.21314  0.011051253  0.010012441         2339 
 3788000   0.64579837   -9.0688775    502.26865  0.011049557  0.010008495         2309 
 3789000    0.6521422     -9.07369    502.66353  0.011055325  0.010004556         2295 
 3790000   0.64269988   -9.0899983    501.25351  0.011021405  0.010000614         2344 
 3791000   0.63748975   -9.0741596    502.69369  0.011050156  0.009996674         2326 
 3792000   0.65516274   -9.1016995     500.9083  0.011008006 0.0099927364         2362 
 3793000   0.65106098   -9.0741517    502.12555  0.011031847 0.0099887974         2373 
 3794000   0.63768533   -9.0936767    500.68811  0.010997367 0.0099848651         2387 
 3795000   0.65292029   -9.0958455    501.73299  0.011017413 0.0099809308         2438 
 3796000   0.65009233   -9.1162024     501.1444  0.011001589 0.0099769974         2445 
 3797000   0.63828767   -9.0963212    501.13247   0.01099843 0.0099730651         2404 
 3798000   0.64903492   -9.0841636    502.45142  0.011024474 0.0099691393         2403 
 3799000   0.63793462   -9.0926759    501.13332  0.010992659 0.0099652185         2362 
 3800000   0.64192838   -9.1040063    500.60363   0.01097815 0.0099612977         2438 
 3801000   0.64359004    -9.113275     500.4111   0.01097104 0.0099573715         2447 
 3802000   0.65043248   -9.1068664    501.42661  0.010990413 0.0099534448         2492 
 3803000   0.63768776   -9.1186543    501.14992   0.01098146 0.0099495229         2463 
 3804000   0.64227555   -9.0847926     501.7139  0.010990928  0.009945599         2505 
 3805000   0.63939471    -9.107073    501.96451  0.010993529 0.0099416804         2458 
 3806000     0.631432   -9.1061098     501.4849  0.010980139 0.0099377646         2463 
 3807000   0.64278225   -9.1003621     501.6112  0.010980019 0.0099338475         2464 
 3808000   0.64459393    -9.111691     499.9867  0.010941586  0.009929929         2478 
 3809000    0.6384865   -9.1145129    500.43373  0.010948493 0.0099260163         2474 
 3810000   0.63264737   -9.1042343    500.46025    0.0109462 0.0099221052         2497 
 3811000   0.64349785   -9.1184817    500.39614  0.010941925 0.0099181936         2473 
 3812000   0.63799954    -9.098082    500.95044  0.010951173 0.0099142807         2508 
 3813000   0.63367049      -9.1085     500.8403  0.010945893 0.0099103748         2539 
 3814000   0.62912798   -9.1110905    500.58636  0.010937475  0.009906469         2559 
 3815000   0.64830264   -9.1019006    501.37702  0.010951879 0.0099025579         2474 
 3816000   0.64931969   -9.1386288    501.08197  0.010942566  0.009898655         2479 
 3817000   0.65290321   -9.1284953    501.52882  0.010949455 0.0098947442         2549 
 3818000   0.65824812   -9.1250523    501.87249  0.010954088 0.0098908427         2501 
 3819000    0.6421779   -9.1296034    500.88893  0.010929758 0.0098869372         2527 
 3820000   0.64223832   -9.1323156    500.16475  0.010911098  0.009883028         2558 
 3821000   0.64155944    -9.130087    501.01821  0.010926856 0.0098791279         2521 
 3822000   0.63989425   -9.1261679    500.73673   0.01091786 0.0098752222         2556 
 3823000   0.64225314   -9.1392656    500.97405  0.010920177 0.0098713184         2491 
 3824000   0.64427519   -9.1119566     501.0133  0.010918177 0.0098674149         2525 
 3825000   0.63043737    -9.134365    500.99461  0.010914915 0.0098635136         2561 
 3826000    0.6461252   -9.1541597    501.19731  0.010916477 0.0098596179         2567 
 3827000   0.62850065   -9.1355798    500.14534  0.010890718 0.0098557289         2532 
 3828000   0.65163588   -9.1132001    501.63585  0.010920321  0.009851847         2523 
 3829000   0.62413821   -9.1037627    500.79639  0.010899199 0.0098479627         2570 
 3830000   0.63369562   -9.1467976    500.83644  0.010897224  0.009844081         2553 
 3831000   0.63562665   -9.1393643    500.22069  0.010880986 0.0098402002         2591 
 3832000   0.62876468   -9.1293044    500.37943  0.010881599  0.009836321         2593 
 3833000   0.64686362   -9.1240566    500.12635  0.010873257 0.0098324426         2602 
 3834000   0.63478299   -9.1193974    500.64182  0.010881625 0.0098285635         2588 
 3835000   0.63418053   -9.1556489    500.57908  0.010877425 0.0098246812         2648 
 3836000   0.62924239   -9.1369483      500.099   0.01086416 0.0098207989         2622 
 3837000   0.62950459   -9.1318395    499.88006  0.010856573 0.0098169207         2613 
 3838000   0.64546882   -9.1276354    500.32277  0.010863357 0.0098130368         2607 
 3839000   0.63710916    -9.166256    500.93507  0.010873818 0.0098091566         2655 
 3840000   0.62382458   -9.1481406    499.83019  0.010847009 0.0098052736         2690 
 3841000   0.65054609   -9.1626129    499.58603  0.010838888 0.0098013988         2699 
 3842000   0.65320772   -9.1418728    499.94362  0.010843823 0.0097975239         2682 
 3843000   0.63473156   -9.1583822    500.96633  0.010863178 0.0097936475         2676 
 3844000    0.6386098    -9.153203    500.22348  0.010844248 0.0097897773         2687 
 3845000   0.63251062   -9.1534281    500.00226  0.010836633 0.0097859043         2681 
 3846000   0.63148489   -9.1566503     499.7949  0.010829323  0.009782033         2706 
 3847000    0.6470683   -9.1708181    499.49578  0.010820028  0.009778168         2726 
 3848000   0.62650845     -9.15285    500.23459  0.010833216 0.0097743025         2741 
 3849000   0.63558768   -9.1683539     500.4877  0.010835882 0.0097704361         2730 
 3850000   0.64862056   -9.1786435    500.13119  0.010825351 0.0097665716         2737 
 3851000   0.63949678   -9.1857951    499.54742  0.010809907 0.0097627082         2781 
 3852000   0.64471967   -9.1769833     500.2268  0.010821798 0.0097588405         2767 
 3853000   0.63510696   -9.1829039    499.37351  0.010800534 0.0097549816         2804 
 3854000   0.63722588   -9.1794598    500.00695  0.010811429 0.0097511226         2779 
 3855000   0.62675918   -9.1845679    499.27884  0.010792885 0.0097472654         2805 
 3856000   0.62958721   -9.1582561    500.57055  0.010818001 0.0097434077         2809 
 3857000   0.61845934   -9.1784012    500.16844  0.010806509 0.0097395553         2793 
 3858000   0.64050938   -9.1849002    499.38067  0.010786692 0.0097356967         2845 
 3859000   0.62632642   -9.1808065    500.52221  0.010808547  0.009731846         2819 
 3860000   0.63829704   -9.1814202    500.16611  0.010798059 0.0097280015         2836 
 3861000   0.64173785   -9.1889633    499.56938  0.010782383 0.0097241522         2816 
 3862000   0.65340106   -9.1659349    500.38801  0.010797256 0.0097203012         2851 
 3863000    0.6323656   -9.1881054    498.93167  0.010763044 0.0097164557         2855 
 3864000   0.62115359   -9.2072993    499.64398  0.010775621  0.009712606         2862 
 3865000   0.62703756   -9.1865218    499.93053  0.010779011 0.0097087561         2850 
 3866000   0.63127288   -9.2078073    499.90231  0.010775614 0.0097049092         2876 
 3867000   0.64129927    -9.185187    500.42428  0.010784076 0.0097010639         2867 
 3868000   0.62815827   -9.2115631    499.80521  0.010767951 0.0096972201         2850 
 3869000   0.64848513   -9.1955116    499.18563  0.010751823 0.0096933759         2874 
 3870000   0.62883274    -9.194663    499.13509  0.010747956 0.0096895293         2885 
 3871000   0.63747226   -9.2064058    498.86106  0.010739281 0.0096856873         2887 
 3872000    0.6345635   -9.1977847    499.81679  0.010757076 0.0096818415         2906 
 3873000   0.62392747   -9.2210171    499.20258  0.010741083 0.0096780027         2883 
 3874000   0.64292082   -9.2115283    500.43279  0.010764773 0.0096741672         2931 
 3875000   0.64615673   -9.1974012     499.6233  0.010744587 0.0096703295         2922 
 3876000   0.63203806   -9.2148854    499.75275  0.010744598  0.009666497         2897 
 3877000   0.63220027   -9.2127949    499.31245  0.010732363 0.0096626616         2908 
 3878000   0.63284095   -9.2205851    500.20661   0.01074881 0.0096588265         2909 
 3879000   0.62954341   -9.2022782    500.03223  0.010742292 0.0096549986         2902 
 3880000   0.63515771   -9.1901593    500.85931  0.010757288  0.009651169         2891 
 3881000   0.62101969   -9.2064866    498.23859  0.010698243  0.009647334         2883 
 3882000   0.63340576   -9.2115042    499.09686  0.010713912 0.0096435015         2919 
 3883000   0.64601519   -9.2349395    499.12154  0.010711682 0.0096396727         2928 
 3884000   0.62178905   -9.2001426    498.98784  0.010706056 0.0096358462         2936 
 3885000   0.62975033   -9.2250663    498.58949  0.010694755 0.0096320178         2955 
 3886000   0.61686872   -9.2158167    498.95625  0.010699868 0.0096281899         2974 
 3887000   0.62462922   -9.2334886    498.83127  0.010694436 0.0096243619         2919 
 3888000   0.61989982   -9.2238706    499.29833  0.010701696 0.0096205406         2946 
 3889000   0.61672621    -9.230898     498.9617  0.010691731 0.0096167172         2937 
 3890000   0.63154681   -9.2200946    499.13754  0.010692749 0.0096128987         2905 
 3891000   0.61002233   -9.2338501    498.33241  0.010672758 0.0096090787         2964 
 3892000   0.63633847   -9.2337822    498.71513   0.01067821 0.0096052577         2956 
 3893000   0.62483267   -9.2440433    497.55659  0.010650668 0.0096014396         2997 
 3894000   0.63838735   -9.2356631    498.63475  0.010671006 0.0095976199         2986 
 3895000   0.62761546   -9.2319761    498.85883   0.01067306 0.0095938044         2986 
 3896000   0.62559494   -9.2467586    497.93487  0.010650558 0.0095899889         2976 
 3897000   0.63958579   -9.2233185    498.46088  0.010659073 0.0095861761         3017 
 3898000   0.62523612    -9.209084    498.35099  0.010653989 0.0095823663         2959 
 3899000   0.62332679   -9.2324346    499.02938  0.010665756 0.0095785566         2949 
 3900000   0.62036318    -9.222831    498.79151  0.010657938 0.0095747502         2978 
 3901000   0.63654549   -9.2149715    499.20058  0.010663945 0.0095709461         2999 
 3902000   0.61379965   -9.2139647    498.29517  0.010641875 0.0095671438         2978 
 3903000    0.6166985   -9.2334199    499.30707  0.010660754 0.0095633433         3006 
 3904000   0.62946509   -9.2450048      498.513  0.010641073 0.0095595422         2975 
 3905000   0.62578168   -9.2497388     497.5037   0.01061681 0.0095557433         3007 
 3906000   0.63996212   -9.2407316    498.71808      0.01064 0.0095519444         2977 
 3907000   0.61905809   -9.2476444    498.08667  0.010623809 0.0095481455         2986 
 3908000    0.6327005   -9.2348519    498.42866  0.010628383 0.0095443457         2994 
 3909000   0.62633076   -9.2366603    498.36681  0.010624346 0.0095405495         3058 
 3910000   0.62378572   -9.2557019    497.54011  0.010604009 0.0095367534         3062 
 3911000   0.61785509    -9.245048     497.9188  0.010609367 0.0095329595         3019 
 3912000   0.63362404   -9.2447299    498.28939  0.010614549 0.0095291621         3027 
 3913000   0.62581939   -9.2493016     498.5523  0.010617435 0.0095253754         2994 
 3914000   0.63757319   -9.2448325    499.20286  0.010628574 0.0095215901         3014 
 3915000   0.63796322   -9.2676478    498.47707   0.01061041 0.0095178044         3032 
 3916000   0.62558739   -9.2529387    498.84367  0.010615502 0.0095140196         3078 
 3917000   0.61151897   -9.2826142    498.54801  0.010606502 0.0095102371         3089 
 3918000   0.62870725   -9.2459796    498.57372  0.010604342 0.0095064549         3064 
 3919000   0.61861385   -9.2557091    497.91125  0.010587549 0.0095026774         3060 
 3920000   0.62324866   -9.2593522    497.68788  0.010580099 0.0094989035         3044 
 3921000   0.60829992   -9.2587049    498.36596  0.010591812 0.0094951257         3070 
 3922000   0.61780834   -9.2343525    498.63793  0.010594891 0.0094913533         3052 
 3923000    0.6250828    -9.259922     498.3273  0.010585591 0.0094875817         2988 
 3924000    0.6247389   -9.2737751    498.70553  0.010590926 0.0094838137         3061 
 3925000   0.61201747   -9.2701013    498.65586  0.010587173 0.0094800441         3068 
 3926000   0.61472312   -9.2572154    498.98426  0.010591447 0.0094762773         3038 
 3927000   0.62003048   -9.2555204    498.73328  0.010583424 0.0094725123         3065 
 3928000    0.6321588   -9.2692366    498.97156  0.010585785 0.0094687478         3055 
 3929000   0.61850525   -9.2714011    497.74416  0.010557058 0.0094649817         3031 
 3930000   0.63081364   -9.2374022    499.16662  0.010584534 0.0094612229         3067 
 3931000   0.60930298   -9.2688949    497.48051  0.010546098 0.0094574628         3074 
 3932000   0.62024184   -9.2405154    498.92342  0.010573996 0.0094537011         3051 
 3933000   0.61768632   -9.2359498    497.98561  0.010551437 0.0094499441         3065 
 3934000   0.61698573   -9.2892552    497.82991  0.010545456 0.0094461887         3099 
 3935000   0.61845958   -9.2597953    498.66721  0.010560508 0.0094424341         3098 
 3936000    0.6320446   -9.2663295     498.7031  0.010558585 0.0094386784         3112 
 3937000   0.61420181   -9.2759069    497.73662  0.010535446  0.009434923         3119 
 3938000   0.62305385   -9.2638781    497.76981  0.010533473 0.0094311674         3079 
 3939000   0.63190135   -9.2797328     498.1241  0.010538294 0.0094274145         3135 
 3940000   0.62602814   -9.2840442    498.01605  0.010533334 0.0094236629         3097 
 3941000   0.62958336    -9.253843    497.66727  0.010523287 0.0094199113         3123 
 3942000   0.62377213   -9.2815138    498.04245  0.010528548 0.0094161647         3129 
 3943000   0.61620009    -9.263344    497.76161  0.010519943 0.0094124207         3103 
 3944000   0.61593288   -9.2770713    497.98624  0.010522022 0.0094086715         3106 
 3945000   0.62004611    -9.282391    497.96154  0.010518833 0.0094049321         3106 
 3946000   0.61965412   -9.2515861    497.63657  0.010509304 0.0094011958         3115 
 3947000    0.6316897   -9.2633821    497.46332  0.010502984 0.0093974558         3155 
 3948000   0.61308164   -9.2676803    496.81463  0.010486631 0.0093937218         3121 
 3949000   0.60798634   -9.2663747    497.66689   0.01050196 0.0093899864         3150 
 3950000   0.61678067   -9.2842821    497.13548   0.01048809 0.0093862557         3201 
 3951000   0.62415236   -9.2760817    497.77434   0.01049891 0.0093825261         3156 
 3952000   0.61745516   -9.2930711    497.83945  0.010497627 0.0093787981         3135 
 3953000    0.6203631   -9.2855759    498.73173  0.010513781 0.0093750739         3120 
 3954000   0.61627924    -9.274185    498.43586  0.010504887 0.0093713515         3150 
 3955000   0.62261277   -9.2727627    498.02815   0.01049364 0.0093676342         3150 
 3956000   0.61417602   -9.2711724    498.72668  0.010505702 0.0093639162         3156 
 3957000   0.62948055   -9.2690251    497.52136  0.010477663 0.0093601991         3133 
 3958000   0.61644423   -9.2704145    497.60414  0.010476759 0.0093564842         3134 
 3959000   0.62658168    -9.288848    498.21109  0.010486888 0.0093527715         3147 
 3960000   0.61446568   -9.2656656    498.13668  0.010482674 0.0093490579         3154 
 3961000   0.60883938   -9.2765493    497.32282  0.010462905 0.0093453489         3141 
 3962000    0.6250662   -9.2800931    497.77262  0.010469725 0.0093416361         3137 
 3963000    0.6098366   -9.2901889    497.77162  0.010467063 0.0093379311         3215 
 3964000   0.62011644   -9.2705885    497.25449   0.01045355 0.0093342257         3193 
 3965000   0.60874251   -9.2801735    497.26074  0.010451045   0.00933052         3145 
 3966000   0.61928691   -9.2962416    498.18026  0.010467731 0.0093268163         3220 
 3967000   0.62033375   -9.2902314    496.56525  0.010431166  0.009323114         3168 
 3968000    0.6214671   -9.2878873    497.83845  0.010455277 0.0093194116         3179 
 3969000   0.62179177   -9.2741577    497.57499  0.010447111 0.0093157158         3146 
 3970000   0.61463566   -9.2913008    497.27244  0.010438128 0.0093120176         3220 
 3971000   0.61363266   -9.2989796    496.25071  0.010414058  0.009308325         3176 
 3972000   0.61795569   -9.2687706    496.87112  0.010424453 0.0093046347         3125 
 3973000    0.6008901   -9.2874048    497.50284  0.010435079 0.0093009452         3121 
 3974000   0.61152867    -9.276485    497.79113  0.010438499 0.0092972593         3164 
 3975000   0.61025398   -9.2973787    497.25789  0.010424694 0.0092935729         3153 
 3976000   0.62006964   -9.2681898     497.8794  0.010435098 0.0092898916         3140 
 3977000   0.61433493   -9.2742048    498.52542  0.010446011  0.009286208         3141 
 3978000   0.61960306   -9.2669369     497.0262  0.010411978  0.009282526         3156 
 3979000   0.60477069   -9.3012193    496.62968  0.010401057 0.0092788458         3177 
 3980000   0.61471098   -9.2778514     497.4984  0.010416633 0.0092751672         3176 
 3981000   0.60521169   -9.2952154    497.68123  0.010417844 0.0092714908         3162 
 3982000   0.61623708   -9.2983564    497.31034  0.010407466 0.0092678155         3160 
 3983000   0.62080448   -9.2845884    497.18043  0.010402135 0.0092641436         3165 
 3984000   0.61261716   -9.2858463     497.7674  0.010411801 0.0092604729         3174 
 3985000   0.60863146   -9.2942009      497.673  0.010407215 0.0092568011         3163 
 3986000   0.62612007   -9.2897209    498.11921  0.010413932 0.0092531302         3157 
 3987000   0.60985801     -9.29398    498.15981  0.010412169 0.0092494596         3205 
 3988000   0.61809141   -9.2866296    497.75124  0.010401021 0.0092457909         3168 
 3989000   0.60980596   -9.2803435     497.6704  0.010396724 0.0092421272         3162 
 3990000   0.62041935   -9.2782397    497.84676  0.010397802 0.0092384683         3141 
 3991000   0.60971939   -9.2982383    497.25584  0.010382858 0.0092348071         3126 
 3992000   0.61681601   -9.3029264    497.41378  0.010383554 0.0092311516         3142 
 3993000   0.61584269   -9.2978326    496.91501  0.010370545 0.0092274977         3149 
 3994000   0.60696136   -9.2817838     497.1729  0.010373329 0.0092238443         3156 
 3995000    0.6230961   -9.2935213    496.92085  0.010365474 0.0092201857         3174 
 3996000   0.61492364   -9.2913091     497.9036  0.010383375 0.0092165347         3194 
 3997000   0.61323828   -9.3010116    497.28762  0.010367935  0.009212886         3164 
 3998000   0.59083698   -9.2977386    497.56663  0.010371157 0.0092092374         3180 
 3999000   0.61144303   -9.3062463    497.28773  0.010362752 0.0092055906         3197 
 4000000   0.60512141   -9.3077978    498.05386  0.010376122 0.0092019458         3198 
 4001000   0.61739935   -9.2901694    497.52879  0.010362593 0.0091983021         3209 
 4002000    0.6040418   -9.3186277    497.45182    0.0103584 0.0091946612         3150 
 4003000   0.59713184   -9.2889989    497.15108  0.010349552 0.0091910206         3146 
 4004000   0.61081989   -9.3033098    497.82548  0.010361003 0.0091873824         3163 
 4005000   0.60966871   -9.2990827    497.67781  0.010355344 0.0091837495         3160 
 4006000    0.6135164   -9.2893505    497.83489  0.010356026 0.0091801122         3140 
 4007000   0.61239756   -9.3199649    497.33507  0.010343047 0.0091764796         3168 
 4008000   0.60407043   -9.2969398     496.3414  0.010319806 0.0091728479         3154 
 4009000   0.60967351    -9.306307    496.74425  0.010325606 0.0091692181         3197 
 4010000   0.60432768   -9.2911502    497.67904  0.010342457 0.0091655905         3195 
 4011000   0.62609418   -9.2921335    498.55148  0.010358005 0.0091619687         3189 
 4012000   0.63233887   -9.3134677    497.52964  0.010334198 0.0091583507         3204 
 4013000   0.61682604   -9.2661636    496.93827  0.010319343 0.0091547304         3152 
 4014000   0.60371885   -9.3068817    497.27547  0.010323772 0.0091511121         3174 
 4015000   0.60062157   -9.2934819    497.27831   0.01032126 0.0091474938         3180 
 4016000   0.61670032   -9.3137725    497.65266  0.010326458  0.009143876         3196 
 4017000   0.60240479   -9.2882835    497.70267  0.010324925 0.0091402656         3175 
 4018000   0.60712694   -9.2747647     497.5947  0.010320116  0.009136655         3213 
 4019000   0.60765978    -9.282663    496.75531  0.010300143 0.0091330408         3229 
 4020000   0.60906493   -9.3048181    496.63834  0.010295156 0.0091294289         3184 
 4021000   0.60632465   -9.3067193    497.55386   0.01031157 0.0091258242         3192 
 4022000   0.60518345   -9.3118257    497.02479  0.010298044 0.0091222174         3230 
 4023000   0.61113693   -9.3028545    498.04142  0.010316543 0.0091186175         3231 
 4024000   0.60279136   -9.3226989    497.71315  0.010307181 0.0091150138         3241 
 4025000   0.60539418   -9.3108619    496.80821  0.010285884 0.0091114123         3191 
 4026000    0.5947992    -9.306784    496.99668   0.01028723 0.0091078139         3192 
 4027000   0.60015051   -9.3074044    496.78341  0.010280263 0.0091042156         3172 
 4028000   0.61014959   -9.3180384    498.26587   0.01030838 0.0091006187         3212 
 4029000   0.60839274   -9.3139905    497.30749  0.010285999 0.0090970217         3215 
 4030000     0.612683   -9.3214224    497.53651  0.010288183 0.0090934285         3203 
 4031000   0.60743754   -9.2974946    496.91295  0.010272739 0.0090898373         3171 
 4032000   0.59253588   -9.2896513    497.37914  0.010279827  0.009086246         3193 
 4033000   0.61416094   -9.2980094    497.17093  0.010272976 0.0090826571         3145 
 4034000   0.61200359   -9.3229502    497.06345  0.010268209 0.0090790739         3209 
 4035000   0.60578142   -9.3043957    496.67159  0.010257571 0.0090754923         3213 
 4036000   0.60932566   -9.3020384    497.43199   0.01027073 0.0090719086         3202 
 4037000   0.59845989   -9.2997567    496.77225  0.010254567 0.0090683275         3209 
 4038000   0.59942221    -9.303589    496.86327  0.010253906  0.009064748         3220 
 4039000   0.60327525   -9.2999508    496.67865  0.010247558 0.0090611681         3173 
 4040000   0.59702294   -9.3141865    496.70358  0.010245536 0.0090575926         3191 
 4041000   0.60870585   -9.3140057    496.41933  0.010237139 0.0090540145         3209 
 4042000   0.60158904   -9.3042021    497.41705  0.010255176 0.0090504393         3194 
 4043000   0.60649355   -9.2979508    495.93659  0.010222124 0.0090468698         3183 
 4044000   0.60874336   -9.3283852    496.87214  0.010238875 0.0090433033         3218 
 4045000   0.61442792   -9.3075087    497.29251  0.010245004 0.0090397383         3218 
 4046000   0.59720477   -9.3291038    496.98097  0.010236056 0.0090361698         3220 
 4047000   0.61434141    -9.308284    497.22484  0.010238548 0.0090326056         3227 
 4048000    0.6127744   -9.3269501    496.58332  0.010222812 0.0090290408         3230 
 4049000   0.59768594   -9.3170581     497.6667  0.010242585 0.0090254822         3287 
 4050000   0.61337015   -9.3162511     497.0028  0.010226395 0.0090219212         3261 
 4051000   0.60901267   -9.3103135    496.65522  0.010216721 0.0090183577         3219 
 4052000   0.61400487   -9.3126094    496.99987  0.010221287  0.009014799         3207 
 4053000   0.60447842   -9.3118487    496.86679  0.010216029 0.0090112406         3262 
 4054000   0.59442301   -9.3159262    498.10817  0.010239027 0.0090076851         3225 
 4055000   0.59692687   -9.3178304    497.18718  0.010217575 0.0090041305         3223 
 4056000   0.60024199   -9.3055671    496.53535  0.010201663 0.0090005815         3244 
 4057000   0.59982451   -9.3166208    496.99977  0.010208688 0.0089970309         3240 
 4058000   0.60760441   -9.3242457    496.81877  0.010202456 0.0089934851         3272 
 4059000   0.60549956   -9.3128899    497.74651  0.010218989 0.0089899369         3259 
 4060000   0.61106097   -9.3181955    496.34165  0.010187637 0.0089863917         3248 
 4061000   0.60565852   -9.3279185    496.28218  0.010183907 0.0089828456         3207 
 4062000   0.59687651   -9.3172018    497.50058  0.010206396 0.0089793106         3250 
 4063000   0.59162061   -9.3100323    497.40316  0.010201886 0.0089757729         3246 
 4064000   0.60317628   -9.3283143    496.79766   0.01018696 0.0089722361         3315 
 4065000    0.5957861   -9.3144941    496.94518  0.010187478  0.008968705         3255 
 4066000   0.59541427   -9.3252901    496.51219  0.010176098 0.0089651703         3278 
 4067000   0.60220862   -9.3305686    496.83393  0.010180189 0.0089616403         3260 
 4068000   0.59649358   -9.3161909    497.00366  0.010181163 0.0089581116         3254 
 4069000   0.59898594   -9.3099842    496.93095  0.010177172 0.0089545839         3230 
 4070000   0.59576978   -9.3134897    496.41914  0.010164192 0.0089510587         3228 
 4071000   0.59860076   -9.3359277    496.06037  0.010154351 0.0089475277         3229 
 4072000    0.6001247   -9.3128246     496.5838   0.01016257 0.0089440021         3231 
 4073000   0.60096241   -9.3239661    495.76428  0.010143307   0.00894048         3272 
 4074000   0.59263301   -9.3291383    496.83439  0.010162706 0.0089369594         3254 
 4075000    0.6029303   -9.3016964    496.60623  0.010155547 0.0089334408         3270 
 4076000    0.5985421   -9.3162764    496.87309  0.010158511 0.0089299251         3268 
 4077000    0.6184382   -9.3075371    496.76558  0.010153822 0.0089264108         3291 
 4078000   0.60265959    -9.307709    497.73392   0.01017112 0.0089229024         3319 
 4079000   0.60098449    -9.321052    496.56297  0.010144704 0.0089193928         3272 
 4080000   0.59460188   -9.3398024    497.69665  0.010165373 0.0089158807         3277 
 4081000   0.61745644   -9.3268372     496.4885  0.010138212 0.0089123682         3270 
 4082000   0.58588105    -9.328384    496.71083  0.010140267 0.0089088568         3290 
 4083000   0.59216769   -9.3463219    496.29221  0.010129239 0.0089053454         3269 
 4084000    0.6099557    -9.343037    496.44394  0.010129855 0.0089018379         3287 
 4085000   0.59124537   -9.3139668    496.79346  0.010134506 0.0088983341         3263 
 4086000   0.58676553   -9.3302696    496.27236  0.010121398 0.0088948352         3249 
 4087000   0.61185598   -9.3492119    496.42418  0.010122017 0.0088913334         3299 
 4088000   0.61226545   -9.3259695    496.84002  0.010128017 0.0088878355         3276 
 4089000   0.60743102   -9.3257509    496.60351   0.01012072 0.0088843373         3297 
 4090000     0.606596   -9.3304765    496.42044  0.010114516 0.0088808429         3267 
 4091000   0.59949405   -9.3473045    496.31294  0.010109854 0.0088773485         3292 
 4092000   0.59881297   -9.3332261    496.38677  0.010108887  0.008873853         3321 
 4093000   0.59275806   -9.3356051    496.79871  0.010114804 0.0088703634         3312 
 4094000   0.59530594   -9.3351778     496.2909  0.010101997 0.0088668745         3288 
 4095000   0.61076549   -9.3388624    495.88919  0.010091355 0.0088633849         3276 
 4096000   0.59707017    -9.322841    496.43284  0.010099952 0.0088598966         3318 
 4097000   0.60082276   -9.3516929    496.30326  0.010094851 0.0088564122         3323 
 4098000   0.58032398   -9.3369853    496.62566  0.010098944 0.0088529293         3354 
 4099000   0.59640177   -9.3453871    495.54344  0.010074478 0.0088494489         3329 
 4100000   0.60449284   -9.3418515    495.93213  0.010079921 0.0088459724         3287 
 4101000   0.59160034   -9.3426558    496.82132  0.010095532 0.0088424963         3274 
 4102000   0.59548941   -9.3385839    496.20333  0.010080516 0.0088390196         3272 
 4103000   0.60105508   -9.3290589    496.40686  0.010082193 0.0088355465         3306 
 4104000   0.58556712   -9.3342454    496.26845  0.010076926 0.0088320746         3303 
 4105000   0.59563535   -9.3392979    495.77995  0.010064554 0.0088286004         3343 
 4106000   0.60427772   -9.3486966    495.39939   0.01005438  0.008825131         3289 
 4107000   0.59820244   -9.3299804     496.2177  0.010068535 0.0088216648         3314 
 4108000   0.59952577   -9.3542103    495.97966  0.010061256 0.0088181983         3318 
 4109000   0.59355795   -9.3134395    495.89193  0.010057028 0.0088147327         3304 
 4110000   0.58985943   -9.3586644    496.19703  0.010060767 0.0088112697         3321 
 4111000   0.57684928   -9.3263075    496.66788  0.010067864 0.0088078082         3297 
 4112000   0.58934931   -9.3267353    496.38129  0.010059608 0.0088043454         3323 
 4113000   0.59595027   -9.3333192    495.81041  0.010045595 0.0088008881         3342 
 4114000   0.58988032   -9.3306911    496.53736  0.010057879 0.0087974335         3309 
 4115000   0.59893187   -9.3294889       496.27   0.01005002 0.0087939806         3314 
 4116000   0.59156278   -9.3496357    496.16007  0.010045353 0.0087905295         3312 
 4117000   0.60175492   -9.3420537    496.58604  0.010051535 0.0087870789         3319 
 4118000   0.58590059   -9.3482718    496.54874  0.010048339 0.0087836299         3324 
 4119000   0.58875257   -9.3316171    496.10516  0.010036926 0.0087801819         3306 
 4120000   0.58910121   -9.3408254    495.61705  0.010024617 0.0087767347         3302 
 4121000    0.5930058    -9.337272    495.98476   0.01002962 0.0087732939         3278 
 4122000   0.59248068    -9.340338    495.64988  0.010020417 0.0087698532         3301 
 4123000   0.58304942   -9.3315633    496.72378  0.010039691 0.0087664128         3289 
 4124000   0.58363385   -9.3600501    495.53079   0.01001315 0.0087629718         3350 
 4125000   0.59014051   -9.3669731    495.12475   0.01000252 0.0087595309         3332 
 4126000   0.58923153   -9.3498395    495.49868  0.010007648 0.0087560953         3378 
 4127000   0.57950817   -9.3357908    495.88437  0.010013011 0.0087526653         3339 
 4128000   0.60168237   -9.3424544    496.74554   0.01002797 0.0087492361         3342 
 4129000    0.5892405   -9.3394835    495.75568  0.010005564  0.008745807         3327 
 4130000   0.58345648    -9.334419    495.98513  0.010007771  0.008742381         3356 
 4131000   0.59334247   -9.3635328     495.4686 0.0099949286 0.0087389535         3323 
 4132000   0.58186285   -9.3570017    496.18705  0.010006999 0.0087355285         3335 
 4133000   0.58187944   -9.3631736    495.02041 0.0099810552 0.0087321069         3316 
 4134000   0.60100876   -9.3525989     496.2546   0.01000352 0.0087286841         3295 
 4135000   0.58279526   -9.3301693    495.94261 0.0099948127 0.0087252642         3353 
 4136000   0.58518054   -9.3466603    496.06099 0.0099947814 0.0087218465         3329 
 4137000    0.6017349   -9.3342353     495.9845 0.0099908246 0.0087184279         3309 
 4138000   0.58635817   -9.3493293     496.0981 0.0099906981 0.0087150152         3314 
 4139000    0.5925557   -9.3511047     495.8301 0.0099828884 0.0087116036         3383 
 4140000   0.58574272   -9.3554212    496.46705 0.0099932981 0.0087081932         3316 
 4141000   0.59979855   -9.3584012     496.7289 0.0099961543 0.0087047889         3359 
 4142000    0.5834935   -9.3446167    496.21982 0.0099834986 0.0087013858         3320 
 4143000   0.58133464   -9.3374068     496.6836 0.0099904175 0.0086979824         3373 
 4144000   0.57214936   -9.3509118     496.6264 0.0099868565  0.008694583         3397 
 4145000   0.59664694   -9.3506832    496.34102 0.0099787096 0.0086911856         3390 
 4146000   0.59510767   -9.3613948    496.27399 0.0099749555 0.0086877908         3376 
 4147000   0.59997649   -9.3441815     496.0296 0.0099676392 0.0086843962         3417 
 4148000    0.5738803   -9.3310807    496.71987 0.0099791039 0.0086810027         3380 
 4149000   0.58428934    -9.350327    496.35587 0.0099693876 0.0086776104         3366 
 4150000     0.574714   -9.3748412    496.13645 0.0099625792 0.0086742191         3385 
 4151000   0.59644448   -9.3499785    495.83047 0.0099540365 0.0086708271         3344 
 4152000   0.57915531   -9.3481027    495.98224 0.0099546852 0.0086674392         3374 
 4153000   0.58320027   -9.3499449    495.87619 0.0099501604 0.0086640498         3363 
 4154000   0.58970745   -9.3506213     495.9436 0.0099491173 0.0086606619         3349 
 4155000   0.58186753   -9.3603779    496.40384 0.0099559535 0.0086572743         3380 
 4156000   0.57473248   -9.3602659     496.2031 0.0099495328 0.0086538898         3312 
 4157000   0.57265034   -9.3417425     496.5658 0.0099544102 0.0086505062         3297 
 4158000   0.58368158   -9.3461529    496.58241 0.0099523491 0.0086471255         3335 
 4159000   0.57550586   -9.3623598    495.58592 0.0099299895 0.0086437446         3342 
 4160000   0.59325362   -9.3370751    496.85765 0.0099530779 0.0086403669         3323 
 4161000   0.58708726   -9.3677301    495.65499 0.0099265999 0.0086369888         3329 
 4162000   0.58065204   -9.3609264    495.49417 0.0099209948 0.0086336124         3321 
 4163000    0.5864268   -9.3570517    496.74766 0.0099437036   0.00863024         3319 
 4164000   0.58763455   -9.3657187    495.96399 0.0099256322 0.0086268651         3328 
 4165000   0.58926043   -9.3523926    496.18707 0.0099277124 0.0086234941         3334 
 4166000   0.57093973   -9.3533722    494.64821 0.0098945473 0.0086201199         3330 
 4167000    0.5857169   -9.3619858    496.11518 0.0099215099 0.0086167542         3309 
 4168000   0.59436234    -9.356414    495.26757 0.0099021827  0.008613387         3331 
 4169000   0.57552836   -9.3515783    495.20425 0.0098985418 0.0086100246         3341 
 4170000   0.58548323   -9.3331112    496.47623 0.0099215872 0.0086066635         3314 
 4171000   0.58002369   -9.3637345    495.71879 0.0099040756 0.0086033022         3334 
 4172000   0.58895704   -9.3343248    495.84991 0.0099043207 0.0085999421         3342 
 4173000   0.57617689   -9.3580921     495.5624 0.0098962057 0.0085965845         3330 
 4174000   0.58433108   -9.3507392    496.01187 0.0099028085 0.0085932274         3350 
 4175000    0.5930795   -9.3736647     495.9709 0.0098996187 0.0085898716         3354 
 4176000   0.57902162   -9.3533521    495.84742  0.009894784 0.0085865205         3370 
 4177000   0.59103342   -9.3692852     495.7832  0.009891134 0.0085831686         3346 
 4178000   0.56785616   -9.3634288    495.48695 0.0098828577 0.0085798216         3390 
 4179000   0.58356139   -9.3574853    496.13774 0.0098934702 0.0085764761         3360 
 4180000    0.5915911   -9.3654734    496.10461 0.0098904428 0.0085731297         3355 
 4181000    0.5690373   -9.3673248    494.85632  0.009863197 0.0085697856         3359 
 4182000    0.5881743   -9.3443086    496.29699 0.0098895463 0.0085664436         3363 
 4183000   0.57496463   -9.3751508    495.46493 0.0098706058 0.0085631018         3360 
 4184000   0.58971516   -9.3535184    495.61226  0.009871181 0.0085597632         3347 
 4185000   0.59310618   -9.3598274    496.20796 0.0098806843 0.0085564259         3363 
 4186000   0.59195497   -9.3472249    495.93926 0.0098729747 0.0085530912         3384 
 4187000   0.59168127   -9.3586635    495.89653 0.0098697661 0.0085497582         3357 
 4188000   0.58136862   -9.3537775    495.52581 0.0098600329 0.0085464261         3350 
 4189000   0.57430865    -9.360117    496.02689 0.0098676471  0.008543098         3325 
 4190000   0.57922686   -9.3352649    496.43736 0.0098734559 0.0085397702         3351 
 4191000   0.58049392   -9.3764053    496.26976 0.0098677675 0.0085364436         3348 
 4192000   0.58275983   -9.3374419    496.33176 0.0098666461 0.0085331186         3316 
 4193000   0.57761284   -9.3703135    495.68888 0.0098515161 0.0085297949         3363 
 4194000   0.58727793   -9.3511488    495.27449 0.0098409333 0.0085264719         3359 
 4195000   0.57769887   -9.3604013    495.15911 0.0098362954 0.0085231534         3367 
 4196000   0.57338629   -9.3858703    495.54616  0.009841638 0.0085198351         3358 
 4197000    0.5697483   -9.3646138    495.27156 0.0098338408 0.0085165193         3386 
 4198000   0.56366075   -9.3943317    495.72931  0.009840585 0.0085132069         3392 
 4199000   0.61167394   -9.3531043    495.94017 0.0098424262 0.0085098943         3364 
 4200000   0.57318884   -9.3729958    495.76729 0.0098366525 0.0085065861         3358 
 4201000   0.59479282   -9.3694583    496.11936  0.009841295 0.0085032765         3375 
 4202000   0.58878771   -9.3719676    495.28618 0.0098224295 0.0084999689         3329 
 4203000   0.58870689   -9.3452007    494.78446 0.0098101447 0.0084966608         3317 
 4204000   0.57943234   -9.3640209    495.33011 0.0098186272 0.0084933575         3350 
 4205000   0.57236462   -9.3742023    495.77626 0.0098251339 0.0084900529         3331 
 4206000   0.57709656   -9.3772219    495.60902 0.0098194845 0.0084867512         3366 
 4207000   0.57848918   -9.3723476    496.57793 0.0098363427 0.0084834492         3358 
 4208000   0.57398281    -9.373246    495.49438 0.0098125472 0.0084801502         3354 
 4209000   0.58458638   -9.3659866    495.89382 0.0098181243 0.0084768527         3385 
 4210000   0.57344734    -9.369092    496.18517 0.0098215593 0.0084735566         3383 
 4211000   0.57954876    -9.364774    495.68092  0.009809248 0.0084702649         3355 
 4212000   0.57875014   -9.3629941    495.60829 0.0098054821   0.00846697         3365 
 4213000   0.57896151   -9.3652164    496.18518 0.0098145656  0.008463678         3361 
 4214000   0.57958516   -9.3758883    494.68981 0.0097826652 0.0084603891         3394 
 4215000   0.57970162    -9.370388     495.3242 0.0097928866  0.008457104         3359 
 4216000   0.57458145   -9.3591254    495.38415 0.0097917486 0.0084538206         3397 
 4217000   0.58715396   -9.3708666    495.47905 0.0097913021 0.0084505371         3387 
 4218000   0.57375404   -9.3647755    495.15674  0.009782613 0.0084472536         3390 
 4219000   0.57344171   -9.3906935    495.58657 0.0097887843 0.0084439695         3384 
 4220000   0.58970698   -9.3612729    495.16705 0.0097781803 0.0084406929         3376 
 4221000   0.59122683   -9.3803263    495.59016  0.009784217 0.0084374163         3361 
 4222000   0.57844765   -9.3521046    495.38534 0.0097778568 0.0084341441         3316 
 4223000   0.58365968   -9.3818028    495.48796 0.0097775665 0.0084308675         3349 
 4224000   0.57270086   -9.3630421    495.79399 0.0097812893 0.0084275946         3384 
 4225000   0.58744011   -9.3676521    494.59807 0.0097553859 0.0084243227         3351 
 4226000   0.59433883   -9.3798155    495.27705 0.0097664665 0.0084210566         3354 
 4227000   0.58372289   -9.3589894    495.00359 0.0097587649 0.0084177885         3385 
 4228000   0.57542862   -9.3761149    495.59721 0.0097681568  0.008414522         3384 
 4229000   0.56927734   -9.3733067    495.25241 0.0097590527 0.0084112581         3367 
 4230000   0.56339984   -9.3909137    494.76027 0.0097470503 0.0084079931         3361 
 4231000    0.5775632    -9.371217    496.52222 0.0097794496 0.0084047311         3377 
 4232000   0.57967772    -9.383152    494.36565 0.0097346734 0.0084014711         3377 
 4233000   0.57409097   -9.3791026    495.87933 0.0097621729 0.0083982145         3355 
 4234000   0.58430054   -9.3656698    495.98296 0.0097619068 0.0083949612         3377 
 4235000   0.57369644    -9.369384    495.16034 0.0097434147 0.0083917065         3343 
 4236000   0.58116836   -9.3731893    494.89763 0.0097359464 0.0083884524         3393 
 4237000   0.57549799   -9.3743953    495.20188 0.0097396326 0.0083851974         3341 
 4238000   0.56821138    -9.390418    495.04286 0.0097342076 0.0083819426         3372 
 4239000   0.56992598   -9.3691437    495.56687 0.0097422126 0.0083786915         3345 
 4240000    0.5744589   -9.3860178    495.61471 0.0097408551 0.0083754414         3371 
 4241000   0.58021397   -9.3875314    494.84282 0.0097233912 0.0083721962         3310 
 4242000   0.57468349    -9.379411    495.78838 0.0097396743 0.0083689509         3379 
 4243000   0.58239119   -9.3819135    495.33433 0.0097284612 0.0083657097         3375 
 4244000   0.57401948   -9.3775845    495.86556    0.0097366 0.0083624676         3340 
 4245000   0.57625578   -9.3807956     495.3065 0.0097233315 0.0083592264         3379 
 4246000   0.58249618    -9.378336    494.88186 0.0097127072 0.0083559889         3372 
 4247000   0.57698215   -9.3966347    495.74964 0.0097274476  0.008352753         3351 
 4248000   0.57835738   -9.3863523    495.20376 0.0097144491 0.0083495169         3350 
 4249000   0.56496569   -9.3811221    495.88028  0.009725431 0.0083462845         3385 
 4250000   0.57603813   -9.3947906    495.63321 0.0097182983 0.0083430535         3350 
 4251000   0.57073942   -9.3683903    494.97501 0.0097031092  0.008339823         3345 
 4252000   0.57537738   -9.3857222    495.45086 0.0097101532 0.0083365962         3352 
 4253000    0.5772945   -9.3866507    494.78532 0.0096948295 0.0083333695         3338 
 4254000   0.57540963    -9.374499    494.34263 0.0096838785 0.0083301434         3370 
 4255000   0.55902083   -9.3827102    495.55271 0.0097053017 0.0083269177         3328 
 4256000   0.57056645   -9.3997584    495.37203 0.0096994837 0.0083236958         3353 
 4257000   0.56726092   -9.3957184    495.65355 0.0097027162 0.0083204781         3357 
 4258000    0.5545837   -9.3746882    495.66778 0.0097007159 0.0083172577         3344 
 4259000   0.57318634   -9.3782972    495.66249 0.0096983346 0.0083140431         3361 
 4260000   0.57694581   -9.3996649    495.04763 0.0096840304 0.0083108258         3360 
 4261000   0.57027447   -9.3807413    495.09791 0.0096827409 0.0083076109         3346 
 4262000   0.56454405   -9.3835294     494.3816 0.0096664634 0.0083043962         3382 
 4263000    0.5837896   -9.3727467    495.60715 0.0096881529 0.0083011854         3348 
 4264000   0.57153706   -9.3843433    494.41467 0.0096625757 0.0082979754         3353 
 4265000   0.56713176    -9.397144    496.21678 0.0096955213 0.0082947679         3362 
 4266000   0.56962281   -9.3740547    495.12477  0.009671917 0.0082915631         3316 
 4267000   0.56519266   -9.3747923    495.46555 0.0096763056 0.0082883592         3346 
 4268000   0.56691398   -9.3822244    495.02803 0.0096654957 0.0082851583         3337 
 4269000   0.56655759   -9.4023493    495.59066 0.0096742144 0.0082819554         3329 
 4270000   0.56155424   -9.3756701    496.03379  0.009680597 0.0082787538         3366 
 4271000   0.56292637   -9.3695306    494.65642 0.0096514559  0.008275555         3362 
 4272000   0.57823483   -9.3900109    495.61709 0.0096679364 0.0082723564         3354 
 4273000   0.55967341   -9.3850687    495.37994 0.0096610489 0.0082691623         3349 
 4274000   0.56378284    -9.386394    494.75961 0.0096466934 0.0082659674         3360 
 4275000   0.55751046   -9.3646041    495.29817 0.0096549352 0.0082627757         3356 
 4276000    0.5595111   -9.3765937     495.2135 0.0096510271 0.0082595864         3345 
 4277000   0.57057286   -9.3819787    494.27313 0.0096304483 0.0082563972         3345 
 4278000   0.56699015   -9.3802341     495.0528 0.0096433847 0.0082532125         3315 
 4279000   0.56304855   -9.4026672    495.08237 0.0096417069 0.0082500286         3345 
 4280000   0.56485379   -9.3916929     495.0626 0.0096390692 0.0082468478         3323 
 4281000   0.56781684   -9.3594437    496.11581 0.0096573194 0.0082436689         3332 
 4282000   0.57204357   -9.3788935    495.25581 0.0096383273 0.0082404915         3307 
 4283000    0.5718656   -9.3948031    494.46042 0.0096206013 0.0082373136         3378 
 4284000    0.5624943   -9.4017988    495.36615  0.009635974 0.0082341365         3340 
 4285000   0.55699381   -9.3993288    495.37448 0.0096338873 0.0082309626         3390 
 4286000   0.56494945   -9.4070319     495.1604 0.0096274771  0.008227791         3348 
 4287000   0.56338248    -9.392036    495.43559 0.0096305807 0.0082246173         3343 
 4288000   0.55865939   -9.3780041     495.1829 0.0096234239 0.0082214451         3358 
 4289000   0.57643236   -9.4118877    494.44056 0.0096067568 0.0082182746         3395 
 4290000   0.56440399   -9.3774324    495.00172  0.009615418 0.0082151109         3369 
 4291000   0.56673188   -9.4080665    495.16755 0.0096163977 0.0082119444         3341 
 4292000   0.54496184   -9.3857307    494.77841 0.0096066016 0.0082087785         3328 
 4293000   0.56449321   -9.3836255    495.53434 0.0096190375 0.0082056154         3397 
 4294000   0.56295278   -9.3880387    495.36556 0.0096135219 0.0082024523         3348 
 4295000   0.57490502   -9.4025972    495.44853 0.0096128935 0.0081992889         3363 
 4296000   0.56191098   -9.3982921    494.53846 0.0095930023 0.0081961286         3363 
 4297000   0.55878941   -9.3848215    494.38382 0.0095877708 0.0081929713         3346 
 4298000   0.56086771   -9.3891925     495.6344 0.0096097876  0.008189817         3358 
 4299000   0.54770831   -9.3815011    495.16967 0.0095985436 0.0081866639         3367 
 4300000   0.56654402   -9.3903838    494.78768 0.0095889086 0.0081835128         3367 
 4301000    0.5685147   -9.4127733     495.3363 0.0095973087  0.008180364         3364 
 4302000   0.55417533   -9.3949443    494.44799 0.0095778706 0.0081772163         3356 
 4303000   0.57722327   -9.3973689    495.04406 0.0095871884 0.0081740689         3379 
 4304000   0.55491782   -9.4011233    494.53301  0.009575066 0.0081709257         3382 
 4305000   0.56544627   -9.3996379    494.38962 0.0095700661 0.0081677862         3373 
 4306000   0.57499531   -9.3850956    494.78748 0.0095755434 0.0081646459         3328 
 4307000   0.56409798   -9.3967876    494.30961 0.0095640741 0.0081615059         3391 
 4308000   0.55349564   -9.3942661    494.20323 0.0095597964 0.0081583679         3357 
 4309000   0.57885894     -9.40164    495.52624 0.0095831638 0.0081552323         3373 
 4310000   0.57405682   -9.3857134    494.53032 0.0095616844 0.0081521022         3393 
 4311000   0.54812677   -9.4052439    495.16526 0.0095717402 0.0081489715         3382 
 4312000   0.57261791   -9.4023219    494.56615  0.009557942 0.0081458415         3386 
 4313000   0.55612027    -9.374875    495.27578 0.0095694369 0.0081427123         3384 
 4314000   0.55908637    -9.381192    494.38333 0.0095499794 0.0081395852         3386 
 4315000   0.56336483   -9.3890814    494.79826 0.0095557795 0.0081364599         3413 
 4316000    0.5731546   -9.4048529    494.99796 0.0095574212 0.0081333355         3368 
 4317000   0.54887925   -9.4164033     494.8038 0.0095514593 0.0081302123         3353 
 4318000   0.56439434   -9.3948923    494.82978 0.0095497486 0.0081270894         3382 
 4319000   0.54730264   -9.3993144    494.83376 0.0095476143 0.0081239689         3379 
 4320000    0.5711698   -9.4180416    495.65553 0.0095612563 0.0081208502         3367 
 4321000   0.56008153   -9.4021583    495.44399  0.009554964  0.008117731         3353 
 4322000   0.55443374     -9.40915    494.63456 0.0095371465 0.0081146145         3365 
 4323000    0.5615167   -9.4125842    495.62309 0.0095539958  0.008111503         3356 
 4324000   0.55010211   -9.3975038     495.2788 0.0095451512 0.0081083908         3359 
 4325000   0.56060432   -9.3939309    494.74189 0.0095325991 0.0081052799         3405 
 4326000   0.56805696   -9.3903558     495.2098 0.0095394091 0.0081021696         3397 
 4327000   0.57168121   -9.4056227    494.88546  0.009530958   0.00809906         3386 
 4328000   0.56092576   -9.4113467     494.3284 0.0095180299 0.0080959538         3388 
 4329000   0.55099805   -9.3987576    495.64828  0.009541239  0.008092848         3414 
 4330000   0.55822207   -9.4068346    494.96581 0.0095259008 0.0080897403         3432 
 4331000   0.54904167    -9.388746    494.84693 0.0095214141 0.0080866361         3393 
 4332000   0.54757356   -9.4199539    495.63021 0.0095342839 0.0080835329         3409 
 4333000   0.55494982   -9.4150158    494.86899 0.0095174434 0.0080804327         3409 
 4334000   0.55121169   -9.4086567    494.36886 0.0095056311 0.0080773329         3380 
 4335000   0.54285409   -9.4073429    494.29353 0.0095019901 0.0080742336         3414 
 4336000   0.55804069   -9.3970489    495.82124 0.0095291598 0.0080711378         3414 
 4337000    0.5623951   -9.4217737    495.49577 0.0095207089 0.0080680413         3415 
 4338000   0.54723398   -9.4060866    494.49254  0.009499242  0.008064947         3433 
 4339000    0.5643012    -9.408853    494.56149 0.0094983768  0.008061854         3420 
 4340000    0.5599936   -9.4065171    494.29663 0.0094911028 0.0080587647         3423 
 4341000    0.5693873    -9.399408    494.49625 0.0094927485 0.0080556773         3428 
 4342000    0.5486648   -9.4095888    494.79997 0.0094963913  0.008052589         3405 
 4343000   0.54528515   -9.4055025    494.45572 0.0094875991 0.0080495037         3404 
 4344000   0.55099393   -9.4146734    494.14491 0.0094794526 0.0080464205         3430 
 4345000   0.55767505   -9.4200985    494.73201  0.009488531 0.0080433375         3430 
 4346000   0.55501205   -9.3947286    494.80113 0.0094876732 0.0080402569         3432 
 4347000   0.55727626   -9.4208292    494.26307 0.0094751759 0.0080371773         3408 
 4348000   0.56449196   -9.4305701     495.1637 0.0094902581  0.008034101         3406 
 4349000    0.5543018   -9.4176831    493.94748 0.0094647713 0.0080310219         3419 
 4350000   0.56522622     -9.39416    494.17428 0.0094669403 0.0080279444         3419 
 4351000   0.56176997   -9.4081862    494.79677 0.0094766868 0.0080248698         3435 
 4352000   0.55415984   -9.4147612    494.31967 0.0094653735 0.0080217966         3420 
 4353000     0.553796   -9.4049586    494.40888  0.009464907 0.0080187265         3419 
 4354000    0.5481361   -9.4227188    494.12039 0.0094572116 0.0080156512         3394 
 4355000   0.55639256   -9.4023947    494.76044 0.0094672874 0.0080125818         3410 
 4356000   0.55240409    -9.401345    494.71304 0.0094642072 0.0080095132         3432 
 4357000   0.56026198   -9.4122454    493.62505 0.0094412259 0.0080064449         3414 
 4358000   0.56699544   -9.4145206     494.9605 0.0094645957 0.0080033815         3387 
 4359000   0.55438047   -9.4362563    494.62778 0.0094560637 0.0080003171         3375 
 4360000   0.54974551   -9.4177904    494.84072 0.0094579648 0.0079972568         3344 
 4361000   0.55969335   -9.4346146    493.73899 0.0094347434 0.0079941976         3409 
 4362000   0.55688312   -9.4206958    494.64499  0.009449889 0.0079911375         3420 
 4363000    0.5573044   -9.4320344    494.26451 0.0094404559 0.0079880775         3410 
 4364000   0.53571525   -9.4273243    494.36145 0.0094401438 0.0079850185         3423 
 4365000   0.55615553   -9.4226556    494.22718 0.0094354177 0.0079819647         3418 
 4366000   0.54706041   -9.4035735    494.87991 0.0094457153 0.0079789117         3408 
 4367000   0.56619753   -9.3999532    494.73674 0.0094408202 0.0079758614         3423 
 4368000   0.53904875   -9.4388709    495.04968 0.0094446291 0.0079728106         3432 
 4369000   0.55178181   -9.4248183    494.22237 0.0094266874 0.0079697611         3408 
 4370000   0.54857513   -9.4243506     494.3366 0.0094267085 0.0079667146         3408 
 4371000   0.55397973    -9.422134    494.62815 0.0094301103 0.0079636687         3424 
 4372000    0.5514201   -9.4312064    494.06892 0.0094172941 0.0079606262         3392 
 4373000   0.56111886   -9.4290041    495.18723 0.0094364515 0.0079575841         3383 
 4374000   0.55918743   -9.4169435    493.76964 0.0094072862 0.0079545427         3425 
 4375000   0.55824906    -9.420317    494.34558 0.0094161062 0.0079515027         3427 
 4376000   0.55372459   -9.4437468     494.5589 0.0094180169 0.0079484636         3419 
 4377000   0.55230243     -9.42059    494.68352 0.0094182377 0.0079454273         3406 
 4378000   0.54551732   -9.4239185    494.03961 0.0094038299 0.0079423918         3409 
 4379000   0.55185176   -9.4237434    494.30101 0.0094066569 0.0079393578         3406 
 4380000   0.54937519   -9.4447137    493.91131  0.009397095 0.0079363271         3411 
 4381000   0.55447967   -9.4323478    494.19481 0.0094003425 0.0079332959         3406 
 4382000    0.5555934   -9.4055234    494.08333 0.0093960773 0.0079302674         3409 
 4383000   0.55199295   -9.4062533    493.55776  0.009383941 0.0079272419         3412 
 4384000   0.54796015   -9.4221209    494.51273 0.0093999531 0.0079242202         3414 
 4385000   0.56530175   -9.4183736    493.67053 0.0093818041 0.0079211949         3414 
 4386000   0.54933734   -9.4175957    494.47428 0.0093949362  0.007918173         3421 
 4387000   0.54640703   -9.4272098    494.97948 0.0094023912 0.0079151521         3445 
 4388000   0.54496588   -9.4129647    493.79411 0.0093777367 0.0079121329         3440 
 4389000   0.54073316   -9.4281863    494.68278 0.0093924732 0.0079091149         3432 
 4390000   0.54579811   -9.4185705    493.79036 0.0093733933 0.0079060988         3398 
 4391000   0.54759678   -9.4378829    494.55677 0.0093858038 0.0079030865         3437 
 4392000   0.54553849   -9.4420506    494.30323  0.009378856 0.0079000724         3402 
 4393000   0.54422415   -9.4300483    494.11157 0.0093730854 0.0078970618         3420 
 4394000   0.55664141   -9.4315369     493.9216 0.0093673494 0.0078940528         3435 
 4395000   0.54620795   -9.4265645    494.76101  0.009381134 0.0078910423         3420 
 4396000   0.55237694   -9.4297369    494.56996 0.0093753785 0.0078880358         3438 
 4397000   0.55285402   -9.4215648    493.66997 0.0093561893 0.0078850299         3408 
 4398000   0.55927706   -9.4166601    494.22023 0.0093644882 0.0078820264         3437 
 4399000   0.54006554   -9.4229704    493.89623 0.0093562216 0.0078790249         3427 
 4400000   0.54463676   -9.4232957    494.66164 0.0093685916 0.0078760271         3407 
 4401000   0.55193681   -9.4030525    493.93764 0.0093527539 0.0078730308         3423 
 4402000   0.54740486   -9.4051197     494.8812 0.0093684916 0.0078700346         3438 
 4403000   0.54804405   -9.4425478    493.85311 0.0093469057 0.0078670395         3438 
 4404000   0.55479613   -9.4390587     494.0362 0.0093482478 0.0078640441         3411 
 4405000   0.54123516   -9.4292928    494.17045 0.0093486653 0.0078610484         3453 
 4406000   0.54746177   -9.4183727    494.95524 0.0093613868  0.007858056         3428 
 4407000   0.54721441   -9.4340476    494.71503 0.0093547204 0.0078550668         3430 
 4408000   0.53537252   -9.4428096    493.79344 0.0093351754 0.0078520773         3438 
 4409000   0.54344292   -9.4188329    494.78246 0.0093517513 0.0078490894         3449 
 4410000   0.55272494   -9.4358869    494.69364 0.0093479523 0.0078461048         3446 
 4411000    0.5451474   -9.4264656    494.09651 0.0093345521 0.0078431226         3458 
 4412000   0.53429909   -9.4124643    495.30523 0.0093552664 0.0078401392         3444 
 4413000   0.55986051   -9.4392916    494.43164   0.00933665  0.007837161         3456 
 4414000   0.53508402   -9.4376977    493.03712 0.0093082072  0.007834181         3449 
 4415000   0.54898955   -9.4257804    493.91255 0.0093226227 0.0078312037         3439 
 4416000   0.55144962   -9.4307402    494.62076 0.0093338761 0.0078282294         3442 
 4417000   0.55796147   -9.4302707    494.48994 0.0093292947 0.0078252547         3451 
 4418000   0.55626018   -9.4214822    494.26343 0.0093229105 0.0078222843         3438 
 4419000   0.54441028   -9.4283383    494.23222 0.0093202123 0.0078193135         3439 
 4420000   0.55202703   -9.4189512    494.68632 0.0093266652 0.0078163455         3454 
 4421000   0.55000331   -9.4116774    494.37757 0.0093187358 0.0078133788         3442 
 4422000   0.53338891    -9.421762    494.34582 0.0093160301 0.0078104106         3435 
 4423000    0.5513426   -9.4502873    493.58074 0.0092995091 0.0078074453         3424 
 4424000   0.55069432   -9.4523866    494.09358  0.009307067 0.0078044797         3448 
 4425000   0.54828889   -9.4393053    493.90161 0.0093013486 0.0078015166         3431 
 4426000   0.54635212   -9.4309522    494.13499 0.0093036411 0.0077985548         3444 
 4427000    0.5413353   -9.4238029     494.8596 0.0093151797 0.0077955952         3449 
 4428000   0.54104294    -9.430937     494.3707 0.0093038749 0.0077926368         3444 
 4429000   0.55876478   -9.4223499    494.24631 0.0092994338 0.0077896814         3459 
 4430000   0.53148772   -9.4305918    494.22731 0.0092969773 0.0077867239         3455 
 4431000   0.54066058   -9.4284524    494.40533  0.009298227 0.0077837698         3450 
 4432000   0.54497432   -9.4259156    494.11211 0.0092906158 0.0077808188         3444 
 4433000   0.54929011   -9.4361015    493.60094 0.0092789108  0.007777868         3414 
 4434000   0.54188856   -9.4321028    494.05345 0.0092853226 0.0077749178         3428 
 4435000   0.53255496   -9.4388507    494.46077 0.0092908827 0.0077719704         3434 
 4436000   0.53202502   -9.4295547    494.50836 0.0092896822 0.0077690252         3432 
 4437000   0.54545423   -9.4405633    494.23125 0.0092823839 0.0077660811         3416 
 4438000   0.54033048   -9.4369548    493.54887 0.0092674792 0.0077631346         3448 
 4439000   0.55493935   -9.4441094    493.35008 0.0092616594 0.0077601935         3432 
 4440000   0.53800118   -9.4288329    494.05148  0.009272738 0.0077572544         3452 
 4441000    0.5531289   -9.4338595    494.32068 0.0092757014 0.0077543132         3433 
 4442000    0.5387102    -9.449091     494.1421 0.0092702629 0.0077513747         3430 
 4443000   0.54269814   -9.4472768    493.37943 0.0092538718  0.007748437         3472 
 4444000   0.55316198   -9.4245965    494.31966 0.0092694205 0.0077455017         3445 
 4445000   0.55320556   -9.4600542    494.27145 0.0092664313 0.0077425671         3466 
 4446000   0.55060098      -9.4537    493.43794 0.0092487243 0.0077396334         3459 
 4447000   0.53950717   -9.4458225    493.47178 0.0092472787 0.0077367016         3426 
 4448000   0.53929956    -9.445006     493.8581 0.0092524374 0.0077337712         3459 
 4449000   0.55733981   -9.4593648    493.58097 0.0092451668 0.0077308398         3443 
 4450000   0.54635293   -9.4472987    493.60555 0.0092435496 0.0077279132         3467 
 4451000   0.53328503   -9.4451731    494.06781 0.0092501276 0.0077249856         3474 
 4452000   0.53853879   -9.4358651    493.33055 0.0092342496 0.0077220597         3447 
 4453000   0.53451062    -9.448573    493.71798 0.0092394263 0.0077191359         3449 
 4454000   0.53623242   -9.4369525    494.38769 0.0092498819 0.0077162135         3439 
 4455000   0.53410864     -9.45329    493.73658 0.0092356263 0.0077132935         3448 
 4456000   0.53452925   -9.4409675    494.84309 0.0092542469 0.0077103751         3440 
 4457000   0.54591273   -9.4335634    494.77065 0.0092508162 0.0077074579         3456 
 4458000   0.54440185   -9.4266644    494.23326 0.0092386957 0.0077045418         3438 
 4459000   0.54905818   -9.4398483    493.62902 0.0092253312 0.0077016293         3454 
 4460000   0.53711562   -9.4415131    493.39385 0.0092188686 0.0076987156         3432 
 4461000   0.53619491   -9.4406796    494.50282 0.0092375181 0.0076958041         3465 
 4462000   0.53117983    -9.449458    494.04526 0.0092269023 0.0076928951         3449 
 4463000   0.54206323   -9.4429226    493.77769 0.0092198389 0.0076899846         3463 
 4464000    0.5426638   -9.4517854    493.88148  0.009219711 0.0076870745         3481 
 4465000   0.54133535   -9.4582667    492.84434 0.0091982893 0.0076841686         3431 
 4466000   0.54283658   -9.4435147    494.17224 0.0092210076  0.007681264         3466 
 4467000   0.52830808   -9.4677979    492.93416 0.0091958465 0.0076783565         3460 
 4468000   0.55342721   -9.4446911    494.85551 0.0092296239 0.0076754549         3457 
 4469000   0.54062978    -9.445455    493.41753 0.0092007445 0.0076725562         3430 
 4470000    0.5392423   -9.4496416    493.84699 0.0092066925 0.0076696588         3463 
 4471000   0.53068506   -9.4515897    493.94966  0.009206547 0.0076667644         3447 
 4472000   0.53574697   -9.4610077    493.95929 0.0092046678 0.0076638697         3445 
 4473000   0.53196181   -9.4474772    493.93655 0.0092021862 0.0076609761         3449 
 4474000   0.53467811   -9.4502116    494.12118 0.0092035685 0.0076580816         3465 
 4475000   0.52118586   -9.4443728     494.3997 0.0092066982 0.0076551915         3450 
 4476000   0.53145127   -9.4415873    493.80934 0.0091936503 0.0076522993         3449 
 4477000   0.54131486   -9.4442789    494.19737 0.0091988192 0.0076494105         3463 
 4478000   0.54150538   -9.4341473    493.56236 0.0091849478 0.0076465237         3430 
 4479000   0.53588185   -9.4591905    493.83323 0.0091879369 0.0076436378         3478 
 4480000   0.54015788   -9.4426851    494.20722 0.0091928426 0.0076407531         3437 
 4481000   0.53292017   -9.4476333    493.26747 0.0091733145 0.0076378692         3482 
 4482000   0.53424379   -9.4554244    494.66449 0.0091972424  0.007634987         3470 
 4483000   0.54488193   -9.4457051     494.2778 0.0091880029 0.0076321075         3468 
 4484000   0.53751717   -9.4545708    494.24853 0.0091854098   0.00762923         3475 
 4485000   0.53772597   -9.4497849    493.60425 0.0091713907 0.0076263517         3481 
 4486000   0.52537925    -9.446413    493.74275 0.0091719191 0.0076234755         3464 
 4487000    0.5390654   -9.4624027    493.57138 0.0091666923 0.0076206015         3462 
 4488000   0.54197597   -9.4644441    494.00813 0.0091727594 0.0076177301         3415 
 4489000   0.54180236   -9.4745238    493.16966 0.0091551508 0.0076148581         3466 
 4490000   0.52938502   -9.4451453    493.68786 0.0091627295 0.0076119863         3454 
 4491000   0.53705108   -9.4418676    493.49526 0.0091571153  0.007609118         3444 
 4492000    0.5340857   -9.4469596    494.07652 0.0091658601 0.0076062513         3487 
 4493000   0.52959786     -9.46107    493.54331 0.0091539303  0.007603387         3479 
 4494000   0.52990203   -9.4481188    493.91151 0.0091587211 0.0076005231         3478 
 4495000   0.53899021   -9.4511396    493.97834 0.0091579226 0.0075976598         3473 
 4496000    0.5378466   -9.4502691    493.95007 0.0091553616  0.007594799         3478 
 4497000   0.53179202   -9.4516138    493.86094 0.0091516741   0.00759194         3440 
 4498000   0.51369602    -9.472312    493.93009 0.0091509207 0.0075890795         3485 
 4499000   0.53372315   -9.4678733    493.51693 0.0091412339 0.0075862203         3479 
 4500000   0.53084762   -9.4419391    494.27751 0.0091532872 0.0075833632         3452 
 4501000   0.53916358   -9.4601159    494.30701 0.0091517999 0.0075805081         3490 
 4502000   0.53974668   -9.4425219    493.69604 0.0091384577 0.0075776555         3501 
 4503000    0.5343009   -9.4809967    494.12212 0.0091443134 0.0075748015         3476 
 4504000   0.53092061    -9.461161    493.12454 0.0091238259 0.0075719494         3466 
 4505000   0.53685612   -9.4666225    493.32068 0.0091254287 0.0075690985         3480 
 4506000   0.53290759   -9.4636384    493.12876 0.0091198542  0.007566251         3475 
 4507000   0.53198885   -9.4634936    494.15746 0.0091368513 0.0075634065         3490 
 4508000   0.53156055   -9.4644143    493.15452 0.0091162843 0.0075605616         3495 
 4509000    0.5322015   -9.4513012    493.36525 0.0091181572 0.0075577176         3471 
 4510000   0.53414015   -9.4673877    493.75981 0.0091234259 0.0075548742         3464 
 4511000   0.53380568   -9.4687812     493.1901  0.009110879 0.0075520324         3484 
 4512000   0.52980232   -9.4691959    493.37588  0.009112291 0.0075491934         3492 
 4513000   0.54207767   -9.4454044     493.3057 0.0091089758 0.0075463561         3476 
 4514000   0.51893229   -9.4550204    493.73388 0.0091148627 0.0075435206         3432 
 4515000    0.5343655   -9.4604097    493.89445 0.0091158075 0.0075406847         3452 
 4516000   0.53154317   -9.4622685    493.22384 0.0091014143  0.007537853         3442 
 4517000   0.52788225   -9.4634186    494.44162 0.0091218659 0.0075350206         3474 
 4518000   0.53558844   -9.4687893    493.89765 0.0091098136 0.0075321889         3458 
 4519000   0.52876202   -9.4718184    493.93979 0.0091085747 0.0075293582         3484 
 4520000   0.52496103   -9.4710046    494.27675  0.009112772  0.007526529         3477 
 4521000   0.52789502   -9.4596404    493.23412 0.0090915381 0.0075237027         3460 
 4522000   0.53131098   -9.4569644    494.10504 0.0091055771 0.0075208788         3486 
 4523000    0.5309959   -9.4588904    494.52293 0.0091112634 0.0075180555         3451 
 4524000   0.53205648   -9.4542593    493.49532 0.0090903205 0.0075152338         3459 
 4525000   0.53365578   -9.4520194    493.17302 0.0090823761  0.007512412         3482 
 4526000   0.53006461   -9.4699403    493.95434 0.0090947551 0.0075095903         3461 
 4527000   0.52345386   -9.4581513    493.26279 0.0090800159 0.0075067738         3456 
 4528000   0.51831418   -9.4590265    494.20499 0.0090953509 0.0075039584         3453 
 4529000   0.53150066   -9.4771279    493.68225 0.0090837243  0.007501143         3471 
 4530000   0.52583616   -9.4864724     493.0051 0.0090692624 0.0074983266         3455 
 4531000     0.537978   -9.4691666    493.27639 0.0090722502  0.007495512         3481 
 4532000   0.51916906   -9.4593486    493.41945  0.009072879 0.0074927024         3446 
 4533000   0.52850323    -9.469614    493.53624 0.0090730245 0.0074898931         3457 
 4534000     0.527986   -9.4628366    493.12993 0.0090635556 0.0074870813         3486 
 4535000   0.53969696   -9.4578886    493.34026 0.0090654218  0.007484275         3477 
 4536000   0.52624698   -9.4664992    494.04907 0.0090764452  0.007481468         3470 
 4537000   0.52354985   -9.4801854    493.35659 0.0090617256 0.0074786631         3517 
 4538000   0.52459669   -9.4601881    493.51133 0.0090625703 0.0074758586         3471 
 4539000   0.53078351   -9.4557742    493.12769 0.0090535303 0.0074730558         3458 
 4540000   0.51257343   -9.4592295    493.48983 0.0090581834 0.0074702535         3457 
 4541000   0.52556081   -9.4677753     493.6338 0.0090588307 0.0074674544         3457 
 4542000   0.53701679    -9.491796    493.17483 0.0090484154 0.0074646563         3441 
 4543000   0.52675103   -9.4829199    493.28842 0.0090485072 0.0074618589         3458 
 4544000   0.52997742   -9.4884139    493.10881  0.009043222 0.0074590655         3443 
 4545000   0.53073487   -9.4619305      493.693 0.0090519435 0.0074562696         3463 
 4546000   0.52771752   -9.4641913    492.78017  0.009033219 0.0074534738         3468 
 4547000    0.5261264   -9.4669705      493.582 0.0090459278 0.0074506823         3491 
 4548000    0.5265095    -9.468753    492.86799 0.0090308558 0.0074478942         3473 
 4549000   0.52000447   -9.4640522    492.39263 0.0090201626 0.0074451039         3444 
 4550000   0.52801928    -9.471972    493.01227 0.0090295287 0.0074423142         3488 
 4551000   0.51799556   -9.4788008    493.65101 0.0090392406 0.0074395272         3462 
 4552000   0.52812904   -9.4725131    493.45138 0.0090336003 0.0074367431         3450 
 4553000   0.53731412   -9.4844188    493.06396 0.0090245252 0.0074339605         3482 
 4554000   0.53074322   -9.4788218    493.72088 0.0090345645 0.0074311788         3475 
 4555000   0.53153471    -9.463755    492.25845 0.0090058261 0.0074283972         3454 
 4556000   0.52543282   -9.4738823     493.2936 0.0090227832 0.0074256157         3463 
 4557000   0.52764499   -9.4576422    493.85066   0.00903099 0.0074228389         3448 
 4558000    0.5262864   -9.4766187    492.52782 0.0090048235 0.0074200633         3465 
 4559000   0.51704117   -9.4943884    493.81022  0.009026289 0.0074172886         3482 
 4560000   0.52394358   -9.4732595    492.89265 0.0090075412 0.0074145155         3433 
 4561000   0.52192896   -9.4672281    494.11306 0.0090278641 0.0074117449         3436 
 4562000   0.52254854    -9.463696    493.34338 0.0090118256 0.0074089741         3456 
 4563000   0.52117601   -9.4720404    493.24935 0.0090081333  0.007406203         3484 
 4564000    0.5142825   -9.4855849    492.84978 0.0089988639 0.0074034343         3473 
 4565000   0.52786969   -9.4692075    492.59338 0.0089922122 0.0074006662         3449 
 4566000   0.52199437   -9.4746032    494.02633 0.0090163953 0.0073979008         3475 
 4567000   0.52784989   -9.4724274    493.11686  0.008997826 0.0073951383         3453 
 4568000   0.52904674   -9.4721299    492.59138 0.0089862701 0.0073923748         3464 
 4569000   0.51780754   -9.4676908    492.63042 0.0089850152 0.0073896122         3464 
 4570000   0.52145096   -9.4934298    492.93293 0.0089885655 0.0073868511         3458 
 4571000    0.5252145   -9.4745367    493.89891 0.0090042096 0.0073840927         3464 
 4572000   0.52102034     -9.47913    493.13659 0.0089883456 0.0073813351         3468 
 4573000   0.51376673   -9.4650858    492.38108 0.0089726124 0.0073785806         3434 
 4574000   0.51761893   -9.4820421    493.40829 0.0089893655 0.0073758245         3459 
 4575000   0.52177024    -9.492422    493.63879 0.0089915991  0.007373071         3420 
 4576000   0.52175897   -9.4750916    492.80874 0.0089745182  0.007370319         3464 
 4577000   0.52027564    -9.468169    493.42286 0.0089837385 0.0073675691         3464 
 4578000    0.5168059   -9.4718343    493.58455 0.0089847195 0.0073648197         3472 
 4579000   0.50838234    -9.469447    492.87663 0.0089698739 0.0073620711         3490 
 4580000    0.5110529   -9.4741438    493.66749 0.0089823051 0.0073593263         3476 
 4581000   0.53012549    -9.484683    493.18251  0.008971522 0.0073565815         3441 
 4582000   0.52452308   -9.4858077    492.57355 0.0089584889  0.007353839         3474 
 4583000   0.51968702   -9.4669891    493.54952 0.0089742803 0.0073510961         3444 
 4584000    0.5111245   -9.4852588    492.78535 0.0089584306 0.0073483559         3471 
 4585000   0.51249231   -9.4912284     493.3949 0.0089675554 0.0073456174         3441 
 4586000   0.51523355   -9.4752628    493.60145 0.0089693533 0.0073428785         3447 
 4587000   0.51554467   -9.4642332    493.65735 0.0089684135 0.0073401436         3457 
 4588000   0.51274873   -9.4724024    493.63401 0.0089660348 0.0073374079         3460 
 4589000   0.50520872   -9.4768722    492.88673 0.0089505107  0.007334673         3450 
 4590000   0.50803655   -9.4885999    493.24047 0.0089549831   0.00733194         3462 
 4591000   0.51374687   -9.4828964    493.56316 0.0089588899 0.0073292072         3462 
 4592000   0.51630708    -9.481806    493.17105 0.0089498231 0.0073264766         3469 
 4593000   0.51664418    -9.468782    492.91291 0.0089431909  0.007323749         3468 
 4594000   0.51682374   -9.4749752    492.63767 0.0089362515 0.0073210229         3460 
 4595000   0.52010833   -9.4868309    493.20943 0.0089446759 0.0073182979         3466 
 4596000   0.51641102   -9.4930775       491.91 0.0089191689 0.0073155729         3446 
 4597000   0.50658592   -9.4799662    493.08467 0.0089385227  0.007312849         3456 
 4598000   0.51008077   -9.4826975    492.49524 0.0089258961 0.0073101276         3472 
 4599000   0.52319888   -9.4696052    493.28827 0.0089383248 0.0073074079         3462 
 4600000   0.50697843   -9.4647844    492.98162 0.0089308265 0.0073046889         3427 
 4601000   0.50615116   -9.4785057    492.58631 0.0089217255 0.0073019711         3456 
 4602000   0.52027871   -9.4785739    492.79014 0.0089234779  0.007299254         3461 
 4603000   0.51646453   -9.4754178    492.94122 0.0089242744 0.0072965379         3436 
 4604000   0.51387817   -9.4865895    493.27308 0.0089283427 0.0072938246         3440 
 4605000   0.51385605   -9.4834079    492.69903 0.0089160157 0.0072911134         3442 
 4606000   0.51761229   -9.4866221    493.25486 0.0089241363 0.0072884037         3471 
 4607000   0.51942467    -9.493911    492.88255 0.0089154648 0.0072856947         3473 
 4608000   0.51199986   -9.4817993    493.29968 0.0089210734 0.0072829879         3462 
 4609000   0.51255967   -9.4837901    492.67744 0.0089078875 0.0072802799         3475 
 4610000   0.51549672   -9.4711895    493.23216 0.0089159826 0.0072775744         3484 
 4611000   0.51842101   -9.4945027    493.22514 0.0089139221 0.0072748714         3465 
 4612000   0.50445254   -9.4834657    492.20635 0.0088935811 0.0072721687         3465 
 4613000   0.50371431   -9.5017687    493.77604 0.0089200094 0.0072694654         3479 
 4614000   0.51589896   -9.4731905    492.52352 0.0088954544 0.0072667641         3449 
 4615000   0.50685042   -9.5035816    492.80114   0.00889854  0.007264065         3459 
 4616000   0.51417088   -9.4775398    492.76581 0.0088959744 0.0072613668         3494 
 4617000   0.51195031   -9.4889705    493.58573 0.0089088465 0.0072586697         3470 
 4618000   0.50985712   -9.4883847    493.08874  0.008897949 0.0072559704         3438 
 4619000   0.51309026   -9.5006427    493.34338 0.0089006166 0.0072532788         3468 
 4620000   0.52276028   -9.4784083     493.1224 0.0088947041  0.007250585         3457 
 4621000   0.50915194   -9.4816942    492.52052 0.0088819253 0.0072478943         3425 
 4622000   0.49792816   -9.4843456    492.86319 0.0088861819  0.007245206         3451 
 4623000   0.51107109   -9.4885359    492.97237 0.0088862278 0.0072425154         3457 
 4624000   0.51328018   -9.4933174    492.61182 0.0088778082  0.007239829         3449 
 4625000   0.50728727   -9.4775181     492.8446 0.0088800828 0.0072371431         3489 
 4626000    0.5173442   -9.4941296    493.74149 0.0088943199 0.0072344597         3474 
 4627000   0.50543211   -9.4663929    493.71843 0.0088919823  0.007231776         3451 
 4628000   0.50559904   -9.4982356     492.8463 0.0088743572 0.0072290949         3457 
 4629000   0.51179561   -9.4917477    491.63544 0.0088506417 0.0072264128         3447 
 4630000   0.50296609   -9.5046493    492.98356 0.0088729942 0.0072237331         3449 
 4631000   0.52286621   -9.4847794    492.97204 0.0088708709 0.0072210541         3459 
 4632000   0.52170263   -9.4912478    493.00705 0.0088695856 0.0072183765         3446 
 4633000   0.50281766   -9.5090424    492.79356 0.0088638312 0.0072156995         3451 
 4634000   0.50405049   -9.4913785    492.81629 0.0088623272 0.0072130254         3479 
 4635000   0.51026582   -9.4956439    493.52655 0.0088731851 0.0072103538         3455 
 4636000   0.52761741   -9.4969383    493.18532 0.0088651373 0.0072076822         3481 
 4637000   0.51549644   -9.5087299    493.03616 0.0088605449 0.0072050123         3437 
 4638000   0.51388513   -9.4931527     492.3378 0.0088460867 0.0072023426         3452 
 4639000   0.51484485   -9.4816836    493.20223 0.0088597081 0.0071996774         3452 
 4640000   0.50701266   -9.4871461     492.4096 0.0088435632 0.0071970131         3471 
 4641000   0.51855024    -9.489768    493.25412 0.0088568218 0.0071943479         3468 
 4642000   0.51612633   -9.5037525    492.95495 0.0088495432 0.0071916835         3475 
 4643000   0.50592836   -9.4942928    492.10893 0.0088324527 0.0071890197         3508 
 4644000   0.49007255   -9.4704112    493.10367 0.0088484007 0.0071863579         3463 
 4645000   0.49318927   -9.5037672    492.53609  0.008836313 0.0071836967         3448 
 4646000   0.51012711   -9.4856855    492.99629 0.0088426655 0.0071810387         3440 
 4647000   0.51077147   -9.4816948    492.52214 0.0088322599 0.0071783818         3474 
 4648000    0.5094338   -9.5033604    492.30282 0.0088264274 0.0071757269         3461 
 4649000   0.50972166   -9.4893569    492.66602 0.0088310392 0.0071730717         3461 
 4650000   0.51566488   -9.4886416     492.8158 0.0088318244 0.0071704174         3436 
 4651000   0.50140462   -9.4918708    493.18674 0.0088365717 0.0071677647         3451 
 4652000   0.50887125     -9.48614     492.2151 0.0088172668 0.0071651159         3483 
 4653000   0.50472576   -9.4921562    492.40287 0.0088187347 0.0071624691         3484 
 4654000   0.50456607   -9.5021039    492.37801 0.0088163947 0.0071598212         3464 
 4655000   0.50031554   -9.4909368    493.69489 0.0088380754 0.0071571741         3482 
 4656000    0.5108581   -9.4961489    492.40827 0.0088131491 0.0071545308         3471 
 4657000   0.50505457   -9.4914263    491.92988 0.0088026963 0.0071518866         3452 
 4658000    0.5002684    -9.501784    492.40968 0.0088093903 0.0071492454         3465 
 4659000   0.52047832   -9.5044133    492.39652 0.0088072641 0.0071466025         3475 
 4660000   0.50730567   -9.5046905    492.23565 0.0088024973 0.0071439616         3460 
 4661000   0.49636795    -9.491784    492.58844 0.0088069163 0.0071413238         3466 
 4662000   0.49783658   -9.4845914    492.80355 0.0088088723  0.007138686         3472 
 4663000   0.49590427   -9.4991824    492.81408 0.0088071714 0.0071360507         3443 
 4664000   0.49797786   -9.4979623    492.16088 0.0087936121 0.0071334146         3474 
 4665000   0.51133791   -9.4978698    492.07801 0.0087902466  0.007130781         3475 
 4666000   0.51724947   -9.4984258    492.84717 0.0088020997 0.0071281523         3456 
 4667000    0.5149908   -9.5050141    492.88324 0.0088008578 0.0071255229         3485 
 4668000   0.50680223   -9.4882088    492.41315 0.0087905803 0.0071228932         3448 
 4669000   0.50677506   -9.5024217    492.31592 0.0087869622 0.0071202655         3473 
 4670000   0.50792857   -9.5036354     493.0472   0.00879813  0.007117639         3469 
 4671000   0.49922819   -9.4920013    492.16398 0.0087804892  0.007115015         3470 
 4672000   0.50734171   -9.4974068    492.71738 0.0087884807 0.0071123903         3477 
 4673000   0.49177241   -9.4917194    492.54238 0.0087834792 0.0071097674         3477 
 4674000   0.50312445   -9.4879308    492.56412 0.0087819876  0.007107146         3490 
 4675000   0.50030278   -9.4902542    492.20897 0.0087737784 0.0071045277         3444 
 4676000   0.49481891   -9.4830082    492.14926  0.008770838  0.007101908         3454 
 4677000   0.49585317   -9.4881244     493.3452 0.0087902715 0.0070992891         3477 
 4678000   0.50003388   -9.5130687    492.10815 0.0087663558 0.0070966735         3454 
 4679000   0.49823527   -9.4956913    492.50095  0.008771478 0.0070940586         3460 
 4680000   0.50809916   -9.5135099    492.40262 0.0087678529 0.0070914447         3474 
 4681000   0.49569903   -9.4987625    492.91703 0.0087751376 0.0070888311         3443 
 4682000   0.49676216     -9.49483    492.01367 0.0087571847 0.0070862207         3471 
 4683000   0.50419878   -9.5030376      492.516 0.0087642537 0.0070836127         3454 
 4684000   0.51570797   -9.5009073    492.88758 0.0087689934 0.0070810046         3471 
 4685000    0.5154042   -9.5130155    492.97679 0.0087687084 0.0070783963         3479 
 4686000   0.49380154   -9.4765734    492.92241 0.0087658701 0.0070757907         3464 
 4687000   0.49604498   -9.5085906    493.33201 0.0087712825 0.0070731846         3458 
 4688000   0.50249816   -9.5034299    492.62027 0.0087567596 0.0070705819         3472 
 4689000   0.49844492   -9.5150581    492.90286 0.0087599143 0.0070679791         3472 
 4690000   0.49722822   -9.5030684    492.76963 0.0087556794 0.0070653777         3441 
 4691000   0.50970855   -9.4884126    492.13097 0.0087424673 0.0070627801         3444 
 4692000   0.51037449   -9.5072668    492.45323 0.0087463275  0.007060182         3489 
 4693000   0.49862253   -9.4926425    492.56583 0.0087464633 0.0070575866         3489 
 4694000   0.50477219    -9.486525    492.54556 0.0087442402 0.0070549904         3475 
 4695000   0.51238021   -9.5005506    492.40903 0.0087399543 0.0070523975         3470 
 4696000   0.49739081   -9.4963426    492.19084 0.0087342213 0.0070498056         3462 
 4697000   0.50161305    -9.507605    492.36163  0.008735392 0.0070472147         3497 
 4698000    0.5073937   -9.5109478      491.824  0.008723996 0.0070446249         3455 
 4699000   0.51440118   -9.5152233    492.03727 0.0087259217 0.0070420353         3479 
 4700000   0.49432755   -9.5025439    492.45984 0.0087315575 0.0070394462         3450 
 4701000   0.48973594   -9.5150164    492.44998 0.0087295252 0.0070368579         3483 
 4702000   0.50657033   -9.4926845    492.74137 0.0087328331 0.0070342735         3482 
 4703000   0.48337105   -9.5172303    492.47498 0.0087262559 0.0070316877         3481 
 4704000   0.49633965   -9.5051013    492.43277 0.0087236531 0.0070291045         3494 
 4705000    0.4948853   -9.4865241    492.49445 0.0087228914 0.0070265197         3470 
 4706000   0.49785472   -9.4999957    491.86059 0.0087098136 0.0070239371         3485 
 4707000   0.50606615   -9.5173947    492.31898 0.0087160784 0.0070213574         3514 
 4708000    0.4878355   -9.4987958    492.25463 0.0087130883 0.0070187775         3464 
 4709000   0.50688251   -9.5073585    492.48615  0.008715335  0.007016201         3489 
 4710000   0.49361816   -9.5247753    492.61054 0.0087156854 0.0070136239         3507 
 4711000   0.49928942   -9.4908848    492.29704 0.0087082898 0.0070110483         3493 
 4712000   0.49669379   -9.5019396    492.29338  0.008706377 0.0070084731         3476 
 4713000   0.49043401   -9.5070533     493.0248 0.0087174623 0.0070059005         3487 
 4714000   0.49361194   -9.4986589    492.41738 0.0087048753 0.0070033278         3464 
 4715000   0.49774783   -9.5059055    492.12264 0.0086978198 0.0070007558         3456 
 4716000   0.49651007   -9.5107414    492.40821 0.0087010215 0.0069981845         3499 
 4717000   0.50461001   -9.5119555    492.23869 0.0086961822 0.0069956139         3463 
 4718000   0.49510167   -9.4944664    492.83098 0.0087048004  0.006993046         3478 
 4719000   0.49714797    -9.515074    492.44231 0.0086960923 0.0069904806         3492 
 4720000   0.48913443     -9.50632    492.86235 0.0087016658 0.0069879143         3486 
 4721000   0.49541915   -9.5106098    492.33961 0.0086905954 0.0069853505         3500 
 4722000   0.49032169   -9.5054867    492.62337 0.0086937628 0.0069827869         3478 
 4723000   0.50010105   -9.5198711    492.74107 0.0086939987  0.006980227         3483 
 4724000   0.49723252   -9.5022654    492.06512 0.0086802343 0.0069776671         3505 
 4725000   0.49392995   -9.5080996    491.59751 0.0086701501 0.0069751071         3475 
 4726000   0.48489945   -9.5188113    492.27938  0.008680339 0.0069725502         3477 
 4727000    0.5047603   -9.5228258    493.03849 0.0086918852 0.0069699962         3492 
 4728000   0.49002842   -9.5100841    492.25322  0.008676206 0.0069674402         3504 
 4729000   0.49697111   -9.5230205    492.22895 0.0086739435  0.006964889         3437 
 4730000    0.5022019   -9.5210728    491.61093 0.0086612214 0.0069623359         3476 
 4731000   0.50133284   -9.5191785    492.17916 0.0086693996 0.0069597843         3474 
 4732000   0.49647455   -9.5092484    492.48465 0.0086729475 0.0069572335         3489 
 4733000   0.49583533   -9.5177019    491.66827 0.0086567412 0.0069546848         3487 
 4734000    0.4953428    -9.511797    492.14611 0.0086633241  0.006952137         3492 
 4735000   0.50725104   -9.5126798    492.30519 0.0086642941  0.006949592         3463 
 4736000   0.49695504   -9.5191118    492.17702 0.0086602094 0.0069470459         3477 
 4737000   0.49461781   -9.5206054     491.6305 0.0086487669 0.0069445019         3478 
 4738000   0.49140689   -9.5214923    492.30294 0.0086587685 0.0069419581         3487 
 4739000   0.49225165   -9.5105457    493.53891 0.0086786754 0.0069394154         3485 
 4740000   0.49664918   -9.5206376    491.35391 0.0086384303 0.0069368753         3480 
 4741000   0.49962833   -9.5277509    491.55458 0.0086401354 0.0069343366         3456 
 4742000    0.5065134   -9.5111122    492.41231 0.0086533865 0.0069317983         3454 
 4743000   0.49682064   -9.5299524    492.16749 0.0086472606  0.006929261         3490 
 4744000   0.49273282   -9.5176979    492.14244 0.0086449979 0.0069267256         3481 
 4745000   0.49869743   -9.5248889      492.404 0.0086477695 0.0069241897         3472 
 4746000   0.49042117   -9.5045746    491.89699 0.0086370451 0.0069216546         3477 
 4747000   0.50548567   -9.5275628    492.18474 0.0086402771 0.0069191225         3502 
 4748000   0.49372655   -9.5164558    492.01958 0.0086355586 0.0069165893         3475 
 4749000   0.48729081   -9.5232763    492.07771 0.0086347601 0.0069140572         3469 
 4750000   0.48340195   -9.5100952    492.02328 0.0086319873 0.0069115277         3489 
 4751000   0.49556141    -9.515235    491.98094 0.0086294278 0.0069089974         3475 
 4752000   0.48756888   -9.5118419    492.42681 0.0086354308 0.0069064696         3507 
 4753000    0.4977308   -9.5075773    492.38614  0.008632901 0.0069039421         3480 
 4754000   0.48170413   -9.5197327    491.89178 0.0086224193 0.0069014204         3505 
 4755000    0.4867016   -9.5147545    492.33183 0.0086283181  0.006898897         3481 
 4756000   0.49321805   -9.5372864    492.08148 0.0086221174 0.0068963774         3498 
 4757000   0.48018739    -9.508865    491.81465 0.0086156305 0.0068938582         3497 
 4758000    0.4948428   -9.5275108    491.93737 0.0086159691 0.0068913407         3483 
 4759000   0.50060503   -9.5148088    491.20412 0.0086013189 0.0068888236         3505 
 4760000    0.4924127   -9.5309821    492.94168 0.0086299314 0.0068863063         3485 
 4761000   0.49201284   -9.5141447    492.01054 0.0086118207 0.0068837884         3477 
 4762000   0.50058613   -9.5185611    491.33216 0.0085981409 0.0068812751         3469 
 4763000     0.493931   -9.5191916    491.54864 0.0086001232 0.0068787626         3494 
 4764000   0.49537626   -9.5249469    492.64871 0.0086175607 0.0068762519         3491 
 4765000   0.48903165    -9.511776    491.95841 0.0086036797 0.0068737425         3487 
 4766000   0.48257921   -9.5262575    492.36452 0.0086089753  0.006871232         3500 
 4767000   0.48785965   -9.5260509    491.83067 0.0085978371 0.0068687242         3507 
 4768000   0.48471474   -9.5147089    491.64871 0.0085928536 0.0068662187         3478 
 4769000   0.49413361   -9.5250162    491.80019 0.0085936987 0.0068637117         3513 
 4770000   0.49142238    -9.514738    491.75429 0.0085910953 0.0068612081         3472 
 4771000   0.48738062   -9.5102169    491.49267 0.0085847249 0.0068587062         3466 
 4772000   0.49748621   -9.5188361    491.89299 0.0085899167 0.0068562038         3490 
 4773000   0.47281107    -9.527029    492.17771  0.008593088 0.0068537028         3525 
 4774000    0.4897809   -9.5177501    492.14868 0.0085907813 0.0068512032         3505 
 4775000   0.47992326   -9.5208274    492.07723 0.0085877352 0.0068487051         3487 
 4776000   0.49503332   -9.5125378    492.57412 0.0085946071 0.0068462084         3502 
 4777000   0.49615477   -9.5225917    492.48563 0.0085912643 0.0068437137         3498 
 4778000   0.50288442   -9.5174807    492.60681 0.0085915796  0.006841219         3511 
 4779000   0.48984354   -9.5223216    491.68251 0.0085736644 0.0068387247         3479 
 4780000   0.49394766      -9.5134    491.98272 0.0085771046  0.006836231         3515 
 4781000   0.48220055    -9.513683    492.31867 0.0085811662 0.0068337412         3498 
 4782000   0.49060138   -9.5198723    491.42221 0.0085637497 0.0068312516         3542 
 4783000   0.47956804   -9.5287496    491.78984 0.0085683643 0.0068287627         3479 
 4784000   0.47420592   -9.5253636    492.03404  0.008570827 0.0068262737         3491 
 4785000   0.49596553   -9.5142496    491.39209  0.008557856 0.0068237873         3533 
 4786000   0.48607309   -9.5043232    491.35419  0.008555408 0.0068213032         3517 
 4787000   0.48080998   -9.5245388     492.1701 0.0085678243  0.006818819         3516 
 4788000   0.47868584   -9.5161276    492.52125 0.0085721465 0.0068163362         3503 
 4789000   0.48334056   -9.5368353    492.05322 0.0085622124 0.0068138558         3511 
 4790000   0.49492173   -9.5202573    492.39363 0.0085663471 0.0068113765         3485 
 4791000   0.48914659   -9.5241031    492.30986  0.008563102 0.0068088971         3509 
 4792000   0.48920563   -9.5308376    491.85623 0.0085534263 0.0068064189         3508 
 4793000   0.48798306   -9.5316578    491.87402 0.0085519511 0.0068039403         3518 
 4794000   0.48269637   -9.5444325    491.05814  0.008535985 0.0068014662         3512 
 4795000   0.48327235   -9.5323243    491.82993 0.0085476178  0.006798991         3516 
 4796000   0.48491425   -9.5213206    492.48429 0.0085572055 0.0067965187         3469 
 4797000   0.49014451   -9.5400014     491.5829 0.0085397628 0.0067940465         3501 
 4798000   0.48815436    -9.531036    492.05292 0.0085461463 0.0067915779         3516 
 4799000   0.49610871   -9.5344603    492.16904  0.008546382 0.0067891063         3489 
 4800000    0.4981279   -9.5265602    492.26399 0.0085462498 0.0067866396         3500 
 4801000   0.48896607    -9.540631    492.03348 0.0085404686 0.0067841727         3491 
 4802000   0.47667867   -9.5387307    492.12267  0.008540238 0.0067817076         3496 
 4803000   0.46785383   -9.5321435    491.51911 0.0085279879 0.0067792414         3528 
 4804000   0.48263871   -9.5455985    491.68462 0.0085290837 0.0067767771         3510 
 4805000   0.48631054   -9.5370837    491.90296 0.0085310955 0.0067743163         3552 
 4806000   0.48056606   -9.5277779    491.86271 0.0085286223 0.0067718562         3516 
 4807000   0.49552906   -9.5163191    491.88723 0.0085272733 0.0067693983         3508 
 4808000   0.49110582   -9.5183197    491.75811 0.0085232618 0.0067669373         3526 
 4809000    0.4765287    -9.541049    491.93979 0.0085246377 0.0067644806         3510 
 4810000   0.48428059    -9.534075    491.64849 0.0085178186 0.0067620228         3517 
 4811000   0.47514476    -9.529744    491.78602 0.0085184304 0.0067595686         3533 
 4812000    0.4746145   -9.5336851    491.10203 0.0085048148 0.0067571142         3519 
 4813000   0.48306152   -9.5381454    491.94476  0.008517639  0.006754659         3492 
 4814000   0.48325398   -9.5437925    491.65631 0.0085108764 0.0067522076         3527 
 4815000   0.48844579   -9.5358321    491.39181 0.0085045312 0.0067497582         3523 
 4816000   0.48008824   -9.5268235    491.95405 0.0085124939 0.0067473077         3472 
 4817000   0.47408891   -9.5371246    492.02492 0.0085119527 0.0067448602         3515 
 4818000   0.48670264   -9.5384811    491.33387 0.0084982336 0.0067424138         3475 
 4819000   0.47705324   -9.5322024    491.67147  0.008502308 0.0067399691         3512 
 4820000   0.48716448   -9.5372751    491.26274 0.0084934776 0.0067375256         3506 
 4821000   0.48325003   -9.5413197    491.51266 0.0084960357 0.0067350822         3507 
 4822000   0.48128007    -9.539751    491.72501 0.0084979436 0.0067326399         3524 
 4823000   0.47392912   -9.5423729     491.7905 0.0084973133 0.0067301994         3512 
 4824000   0.47919587   -9.5495666    491.28433 0.0084868077 0.0067277595         3485 
 4825000   0.48329264   -9.5390409    491.99144 0.0084972615 0.0067253203         3534 
 4826000   0.47970164    -9.527686    492.17065 0.0084985953 0.0067228826         3535 
 4827000     0.469371   -9.5494855    491.12582 0.0084787967 0.0067204466         3503 
 4828000   0.46391988   -9.5387084    491.68389  0.008486673 0.0067180116         3499 
 4829000   0.47982526   -9.5454203    491.77216 0.0084864389 0.0067155786         3513 
 4830000   0.47255788   -9.5434495    491.71037 0.0084836158 0.0067131446         3494 
 4831000   0.48380757   -9.5338042    491.91476 0.0084853853 0.0067107137         3532 
 4832000   0.48383966   -9.5380254     491.8631 0.0084827383 0.0067082833         3509 
 4833000   0.46418867   -9.5329579    491.93692 0.0084822561 0.0067058546         3522 
 4834000   0.48656639    -9.542112     492.4513 0.0084893687 0.0067034277         3508 
 4835000   0.47329062    -9.536461    491.11878 0.0084646464 0.0067009996         3512 
 4836000    0.4769572   -9.5353937    491.79784 0.0084745974 0.0066985739         3494 
 4837000   0.47795353   -9.5267638    491.83633 0.0084735085 0.0066961483         3498 
 4838000   0.48176591   -9.5346421    491.51611 0.0084662414 0.0066937274         3495 
 4839000   0.47788354   -9.5424201    491.09325 0.0084572096 0.0066913062         3489 
 4840000   0.48430709   -9.5280034    492.16044 0.0084738368 0.0066888842         3527 
 4841000   0.47102663   -9.5469612    491.54804 0.0084615445 0.0066864648         3528 
 4842000   0.47048367   -9.5230103    491.57273 0.0084602219  0.006684045         3508 
 4843000   0.48214975   -9.5367522    491.54533 0.0084580035 0.0066816284         3510 
 4844000   0.48198915   -9.5421943    491.61181  0.008457401 0.0066792129         3508 
 4845000   0.48411754   -9.5339818     490.9991  0.008445117 0.0066767975         3511 
 4846000   0.48584947   -9.5464506     491.5102 0.0084521634 0.0066743822         3507 
 4847000   0.47906606   -9.5372301    491.32199 0.0084471837 0.0066719685         3493 
 4848000   0.47482467   -9.5497864    491.16331 0.0084427136 0.0066695574         3516 
 4849000   0.48139079   -9.5374267    491.34534 0.0084441009 0.0066671471         3519 
 4850000   0.47845537   -9.5524038    491.46391 0.0084443971 0.0066647382         3507 
 4851000   0.47381539   -9.5479874    490.77748 0.0084308645 0.0066623288         3515 
 4852000   0.48877602   -9.5465163    491.55067 0.0084424064 0.0066599225         3517 
 4853000   0.48068323   -9.5489624    491.78297 0.0084446557 0.0066575151         3484 
 4854000    0.4774023   -9.5600311    489.92773 0.0084110652 0.0066551115         3487 
 4855000   0.47438821   -9.5573131    491.56199 0.0084373841 0.0066527056         3499 
 4856000   0.49257331   -9.5562949    491.79307  0.008439612 0.0066503031         3522 
 4857000   0.47408032   -9.5269511    491.41087 0.0084313168 0.0066479023         3538 
 4858000   0.47590331   -9.5455374    491.34118 0.0084283859 0.0066454999         3514 
 4859000   0.47331827   -9.5351107     490.6881 0.0084154508 0.0066430996         3490 
 4860000   0.46951612   -9.5551416    491.78478 0.0084325236 0.0066407015         3523 
 4861000   0.46670452   -9.5414923    491.32493 0.0084229057 0.0066383047         3518 
 4862000   0.48086757   -9.5451846    491.65675 0.0084268605 0.0066359086         3520 
 4863000   0.46455229   -9.5354767    491.54894 0.0084232802 0.0066335148         3510 
 4864000   0.46685699   -9.5620934    491.66277 0.0084234986 0.0066311208         3504 
 4865000   0.47608968   -9.5552722    491.39039 0.0084171015 0.0066287276         3519 
 4866000   0.47344342   -9.5503587    491.74424 0.0084214317 0.0066263377         3509 
 4867000    0.4803504   -9.5419004    491.15755  0.008409656 0.0066239489         3497 
 4868000   0.47137695   -9.5532445    491.96516 0.0084217536 0.0066215589         3514 
 4869000   0.46770371   -9.5497352    491.55895 0.0084130717 0.0066191709         3522 
 4870000   0.47437934   -9.5648837    491.23278 0.0084057628 0.0066167831         3504 
 4871000   0.46093686   -9.5374785    490.75003 0.0083957782 0.0066143982         3507 
 4872000   0.46977207   -9.5531217    491.22922 0.0084022513 0.0066120131         3507 
 4873000   0.48392195   -9.5497745    491.18842 0.0083998293 0.0066096291         3523 
 4874000   0.47259277   -9.5521101    491.59864 0.0084051198 0.0066072468         3514 
 4875000   0.47222493   -9.5460803    490.95385 0.0083923735 0.0066048667         3527 
 4876000   0.46368716   -9.5577587    491.51586 0.0084002573  0.006602488         3526 
 4877000   0.46890837   -9.5572868    490.93331 0.0083885809 0.0066001094         3530 
 4878000   0.46708369    -9.556429    491.59251 0.0083981227 0.0065977318         3484 
 4879000   0.46430559   -9.5456585    490.79921 0.0083828519 0.0065953569         3513 
 4880000   0.46695295   -9.5421989    491.01189 0.0083847658 0.0065929824         3507 
 4881000   0.47246453   -9.5491549    491.78957 0.0083963254  0.006590609         3507 
 4882000   0.45730473   -9.5501407    490.90055 0.0083794305 0.0065882355         3508 
 4883000   0.47423288   -9.5574754    490.95956 0.0083787214 0.0065858625         3495 
 4884000   0.46814492   -9.5503922    491.36971  0.008384004 0.0065834917         3519 
 4885000   0.46970814   -9.5569242    491.08098 0.0083773623 0.0065811204         3464 
 4886000   0.47233908    -9.559868    490.93418 0.0083731441 0.0065787526         3519 
 4887000   0.46997487   -9.5384304    491.61528 0.0083830448 0.0065763857         3492 
 4888000   0.46695832   -9.5519751    492.05443 0.0083888166   0.00657402         3517 
 4889000   0.46465944   -9.5492226    491.67266 0.0083805934 0.0065716543         3474 
 4890000   0.46739156   -9.5462288    492.42379 0.0083916802 0.0065692901         3497 
 4891000   0.46549367   -9.5336232    491.14125 0.0083681124 0.0065669287         3508 
 4892000   0.47998902   -9.5468288    490.88136 0.0083619746 0.0065645669         3507 
 4893000   0.47243821   -9.5489504    491.03453 0.0083628744 0.0065622081         3516 
 4894000   0.47086261   -9.5419765    491.22248 0.0083643659  0.006559849         3500 
 4895000   0.44828174   -9.5789997    491.52234  0.008367762   0.00655749         3514 
 4896000   0.46739667   -9.5324821     491.6589 0.0083683773 0.0065551329         3499 
 4897000   0.47066322   -9.5540421    491.19704 0.0083588088 0.0065527794         3478 
 4898000    0.4740659   -9.5689673    491.68422 0.0083653909 0.0065504242         3501 
 4899000    0.4758131   -9.5532434    490.85802 0.0083496296  0.006548069         3497 
 4900000   0.47114995   -9.5437277    491.73717  0.008362877 0.0065457163         3529 
 4901000   0.46615374   -9.5459102    491.69598 0.0083604703 0.0065433668         3502 
 4902000   0.46900065   -9.5533415    491.10362 0.0083486948  0.006541016         3499 
 4903000   0.45578367   -9.5616216    491.26521 0.0083497385 0.0065386681         3490 
 4904000   0.47742328   -9.5434505    491.17382 0.0083464827 0.0065363213         3501 
 4905000   0.45862549   -9.5557114    491.76662 0.0083548525 0.0065339754         3506 
 4906000   0.46787692   -9.5394251    491.20852 0.0083436697 0.0065316309         3506 
 4907000   0.47486954   -9.5457113    491.12232 0.0083405054 0.0065292882         3499 
 4908000   0.46483368   -9.5654868    491.15126 0.0083392973 0.0065269456         3503 
 4909000   0.46152889   -9.5416263    490.44652 0.0083256352 0.0065246046         3518 
 4910000   0.46773381   -9.5411421    491.36475 0.0083395239 0.0065222655         3497 
 4911000    0.4606844   -9.5474465    490.86348 0.0083293199 0.0065199267         3497 
 4912000   0.47111338   -9.5461394     491.3866  0.008336499 0.0065175898         3514 
 4913000   0.46130006   -9.5475002    491.77302 0.0083413565  0.006515252         3500 
 4914000   0.46612134   -9.5544233    490.47576 0.0083176597  0.006512916         3497 
 4915000   0.47190058   -9.5421685    491.39943 0.0083316282 0.0065105814         3495 
 4916000    0.4637997    -9.556558    491.07315 0.0083244025  0.006508249         3507 
 4917000   0.46379327   -9.5663254    491.67938 0.0083329839 0.0065059174         3497 
 4918000   0.47182432   -9.5499097    491.19541 0.0083230887 0.0065035848         3520 
 4919000   0.47160676   -9.5607217    491.08288 0.0083194904 0.0065012557         3506 
 4920000   0.47102769   -9.5739865     491.7512 0.0083291193 0.0064989274         3491 
 4921000    0.4648264   -9.5576507    490.84059 0.0083120062 0.0064966011         3520 
 4922000   0.46402384   -9.5551163    491.28307 0.0083178089 0.0064942762         3533 
 4923000   0.46042193   -9.5576822    491.06366 0.0083124054 0.0064919504         3519 
 4924000   0.46904481   -9.5468429    491.22806 0.0083134995 0.0064896265         3526 
 4925000   0.47376909   -9.5710167    491.66045 0.0083191277 0.0064873047         3485 
 4926000   0.46406052   -9.5644988    491.66589 0.0083175309 0.0064849828         3487 
 4927000   0.47323646   -9.5493933    491.07495 0.0083058479 0.0064826611         3547 
 4928000   0.46432741   -9.5615997    491.26267 0.0083073368 0.0064803409         3511 
 4929000    0.4533921   -9.5592959    491.19796 0.0083045574 0.0064780228         3508 
 4930000   0.46491057   -9.5699776    490.65391 0.0082936766 0.0064757056         3542 
 4931000   0.46156099   -9.5547189    490.57566 0.0082906723 0.0064733879         3495 
 4932000   0.45566277   -9.5571148    490.95229 0.0082953549 0.0064710731         3493 
 4933000   0.45885897   -9.5513294    492.13578 0.0083136661 0.0064687601         3497 
 4934000   0.46358257   -9.5415746    491.09041 0.0082943252 0.0064664461         3536 
 4935000   0.46446539   -9.5669495     491.0083 0.0082912581 0.0064641337         3517 
 4936000   0.46235064    -9.552558    490.61393 0.0082829203 0.0064618232         3508 
 4937000   0.46899617   -9.5727688    490.39453 0.0082775392 0.0064595127         3527 
 4938000   0.45807914   -9.5629061    490.83975 0.0082833764 0.0064572061         3518 
 4939000   0.46671079   -9.5622884    491.15215 0.0082869703 0.0064548968         3513 
 4940000   0.46385491   -9.5648489    491.55073 0.0082920164 0.0064525906         3508 
 4941000   0.46785827   -9.5674534     491.6596 0.0082921743  0.006450285         3516 
 4942000   0.45720256   -9.5674739    491.01715 0.0082796632 0.0064479804         3523 
 4943000   0.46078266   -9.5644946    490.72608 0.0082730812 0.0064456759         3531 
 4944000   0.45269023   -9.5547964    490.95503 0.0082752668 0.0064433745         3510 
 4945000   0.45973527    -9.563414    491.46071 0.0082821151 0.0064410724         3534 
 4946000   0.45617189   -9.5606656    490.58022 0.0082656055 0.0064387728         3521 
 4947000   0.46309063   -9.5720374    490.86419 0.0082687182 0.0064364725         3502 
 4948000   0.46483637   -9.5671396    491.43913 0.0082767302 0.0064341739         3537 
 4949000    0.4603925   -9.5534777     490.7217 0.0082629774 0.0064318771         3535 
 4950000   0.47119088   -9.5712258    490.94579 0.0082650807 0.0064295805         3523 
 4951000   0.45519123   -9.5614094    491.14927 0.0082668362 0.0064272856         3514 
 4952000   0.45620737   -9.5784114    490.83709 0.0082599134 0.0064249923         3532 
 4953000   0.45487707   -9.5576318     491.6301  0.008271588 0.0064226989         3501 
 4954000   0.46163898   -9.5631677    491.09214  0.008260869 0.0064204084         3498 
 4955000   0.45724518   -9.5692027    490.75222  0.008253485 0.0064181195         3503 
 4956000   0.45752881   -9.5669861    490.94189 0.0082550089 0.0064158305         3490 
 4957000   0.46044651   -9.5612244    491.45963 0.0082620474 0.0064135425         3495 
 4958000     0.466844    -9.572099    490.85624 0.0082502393 0.0064112545         3516 
 4959000   0.46616062   -9.5730145    490.79687 0.0082475781  0.006408969         3508 
 4960000   0.45806543   -9.5614535    490.83809 0.0082466078 0.0064066826         3510 
 4961000   0.46710118   -9.5521926    490.70237 0.0082426657 0.0064043995         3509 
 4962000   0.46144013   -9.5647294     490.6119 0.0082394851 0.0064021158         3527 
 4963000    0.4512999   -9.5645968    490.96207 0.0082437045 0.0063998335         3528 
 4964000   0.44677366   -9.5677829    491.05433 0.0082435926 0.0063975546         3505 
 4965000   0.46261934   -9.5713784    491.33452 0.0082466351 0.0063952737         3525 
 4966000   0.45448659   -9.5575571     490.3983 0.0082292639 0.0063929948         3494 
 4967000   0.45364457   -9.5584456    491.07818 0.0082390138 0.0063907186         3531 
 4968000   0.46383871   -9.5667767    490.85573 0.0082336241 0.0063884413         3500 
 4969000   0.45575169    -9.569686    490.67603 0.0082289534 0.0063861652         3509 
 4970000   0.46182704   -9.5733625    491.12855 0.0082348851 0.0063838914         3517 
 4971000   0.45803908   -9.5620549    490.57592 0.0082239643 0.0063816179         3499 
 4972000   0.45586777   -9.5753758    490.13114 0.0082148555 0.0063793449         3500 
 4973000   0.45752353   -9.5927836    490.62645 0.0082215037 0.0063770745         3501 
 4974000   0.45402893   -9.5874285    490.90102 0.0082244508 0.0063748035         3492 
 4975000   0.44519191   -9.5567176    491.05091 0.0082253084 0.0063725334         3505 
 4976000   0.45483451   -9.5634872    491.55811 0.0082321495 0.0063702658         3520 
 4977000   0.45852009   -9.5726213    491.05249 0.0082220296 0.0063679988         3516 
 4978000   0.46522836   -9.5876861    491.29641 0.0082244612 0.0063657321         3503 
 4979000   0.46304384   -9.5739254    490.65228 0.0082120285 0.0063634666         3530 
 4980000   0.45258205   -9.5748565    491.23003 0.0082200473 0.0063612041         3525 
 4981000   0.44753622   -9.5636036    491.60265 0.0082246311  0.006358942         3497 
 4982000   0.45148419   -9.5708875    490.52955 0.0082050306 0.0063566815         3536 
 4983000   0.45272637   -9.5670646    491.39536 0.0082178634 0.0063544205         3522 
 4984000   0.45306001    -9.572125    490.85217 0.0082071323 0.0063521618         3519 
 4985000   0.45516682   -9.5751628    491.07114 0.0082091464 0.0063499056         3529 
 4986000   0.45309729   -9.5644436    490.45773 0.0081972478 0.0063476473         3501 
 4987000   0.46217546   -9.5780826    491.19877 0.0082079869  0.006345393         3506 
 4988000   0.45138028   -9.5718822    490.79302 0.0081995626 0.0063431376         3525 
 4989000   0.44979059    -9.561079    490.69011 0.0081962002 0.0063408846         3489 
 4990000   0.45663108   -9.5719976    490.58659 0.0081928288  0.006338632         3525 
 4991000   0.45283389   -9.5691792    491.27664 0.0082027089 0.0063363803         3529 
 4992000   0.46045204   -9.5783602    491.24666 0.0082005652 0.0063341307         3523 
 4993000   0.45100098   -9.5586539    491.42826 0.0082019537 0.0063318804         3492 
 4994000    0.4640082   -9.5884509    490.55574 0.0081857519 0.0063296325         3520 
 4995000    0.4503755   -9.5751379    489.98712 0.0081746266 0.0063273852         3514 
 4996000   0.44443834   -9.5818145    490.26301 0.0081775922 0.0063251403         3501 
 4997000   0.45720806   -9.5887574    490.61759  0.008181869 0.0063228955         3510 
 4998000   0.45297624   -9.5610263    491.10399 0.0081883419 0.0063206522         3494 
 4999000   0.44239123   -9.5642524    490.32116  0.008173654 0.0063184107         3491 
 5000000   0.45093034   -9.5795497    490.49419 0.0081749031 0.0063161686         3537 
 5001000   0.45128633   -9.5791593    491.27731 0.0081863179  0.006313929         3521 
 5002000   0.44822065   -9.5691641    491.13953 0.0081823859 0.0063116886         3517 
 5003000   0.45106656    -9.581641    490.12927 0.0081639228 0.0063094508         3532 
 5004000   0.45190306   -9.5836586    490.85538 0.0081743836 0.0063072141         3528 
 5005000   0.44442556   -9.5773069    490.18199 0.0081615383 0.0063049765         3504 
 5006000   0.45307599   -9.5748537    490.40909 0.0081636883 0.0063027403         3517 
 5007000   0.45249824   -9.5959221    490.20455 0.0081586538 0.0063005058         3507 
 5008000   0.44834368   -9.5738196    490.33436 0.0081591846 0.0062982712         3507 
 5009000   0.45646201    -9.580383    491.29849 0.0081735956 0.0062960363         3520 
 5010000   0.45456111   -9.5920193    490.54207 0.0081593824 0.0062938054         3513 
 5011000   0.46539215   -9.5789927    490.69011 0.0081602159 0.0062915736         3507 
 5012000   0.45406284   -9.5835697    490.29864  0.008152079 0.0062893444         3530 
Loop time of 12765.7 on 48 procs for 5000000 steps with 4000 atoms

Performance: 67681.458 tau/day, 391.675 timesteps/s
99.4% CPU use with 48 MPI tasks x no OpenMP threads

MPI task timing breakdown:
Section |  min time  |  avg time  |  max time  |%varavg| %total
---------------------------------------------------------------
Pair    | 886.09     | 963.02     | 1064       | 128.7 |  7.54
Neigh   | 83.427     | 88.159     | 93.226     |  25.3 |  0.69
Comm    | 789.59     | 903.57     | 1001.8     | 163.5 |  7.08
Output  | 16.896     | 16.902     | 17.018     |   0.4 |  0.13
Modify  | 10629      | 10669      | 10721      |  22.7 | 83.57
Other   |            | 125.1      |            |       |  0.98

Nlocal:        83.3333 ave          92 max          76 min
Histogram: 6 3 2 11 3 8 7 3 2 3
Nghost:        2312.69 ave        2349 max        2279 min
Histogram: 2 2 6 8 7 7 8 4 3 1
Neighs:        15684.1 ave       18704 max       13205 min
Histogram: 5 3 7 4 10 5 8 2 2 2
FullNghs:      31367.9 ave       35768 max       27258 min
Histogram: 4 4 5 6 9 6 2 5 4 3

Total # of neighbors = 1505661
Ave neighs/atom = 376.41525
Neighbor list builds = 266419
Dangerous builds = 1

#clear
#
#next RN
#
#jump SELF
Total wall time: 3:32:49
