
units lj                  # Use reduced LJ style units
atom_style atomic         # Uncharged point particles
atom_modify map hash      # Needed for indexing of clusters etc
                          # Used to be able to find where atoms are in relation to each other.

lattice fcc 1.0 spacing 1 1 1
Lattice spacing in x,y,z = 1.5874011 1.5874011 1.5874011
region box block 0 10 0 10 0 10 units lattice
create_box 2 box
Created orthogonal box = (0.0000000 0.0000000 0.0000000) to (15.874011 15.874011 15.874011)
  3 by 4 by 4 MPI processor grid
create_atoms 1 box
Created 4000 atoms
  using lattice units in orthogonal box = (0.0000000 0.0000000 0.0000000) to (15.874011 15.874011 15.874011)
  create_atoms CPU = 0.002 seconds
set type 1 type/fraction 2 0.15 78393
Setting atom values ...
  634 settings made for type/fraction
mass 1 1.0
mass 2 1.0
pair_style lj/cut  3.5
pair_modify tail  yes
pair_coeff 1  1  1.0  1.0   # Intearaction between 1 and 1 set with epsilon = 1 and sigma = 1
pair_coeff 1  2  1.5  0.8
pair_coeff 2  2  0.5  0.88

write_data data.0
System init for write_data ...
Neighbor list info ...
  update every 1 steps, delay 10 steps, check yes
  max neighbors/atom: 2000, page size: 100000
  master list distance cutoff = 3.8
  ghost atom cutoff = 3.8
  binsize = 1.9, bins = 9 9 9
  1 neighbor lists, perpetual/occasional/extra = 1 0 0
  (1) pair lj/cut, perpetual
      attributes: half, newton on
      pair build: half/bin/atomonly/newton
      stencil: half/bin/3d
      bin: standard
WARNING: Not all mixed pair coeffs generated from mixing. Use write_data with 'pair ij' option to store all pair coeffs. (../write_data.cpp:312)


#############################
#   M E L T   S Y S T E M   #
#############################

velocity all create 2.4 5300450 mom yes dist gaussian # Assign velocities
                                                    # Temperature 2.4, random number seed, zero linear momentum
                                                                                # Gaussian distribution

timestep 0.002   # simulation timestep
thermo 1000       # output thermodynamic data every 1000 steps bf 100

# Define a fix  in this case with index 1 applied to all
# particles in the simulation. This fix is for simulations
# in the anisotropic NPT ensemble. Note that we use the MTK
# correction.
fix 1 all npt temp 2.4 2.4 0.1 iso 5.68 5.68 0.5 mtk yes tchain 5 pchain 5 # Use NPT ensemble
                                                                         # Set temperature and pressure and damping
                                                                         # Numbers of thermostats in chain and in barostat
run 10000          # run for 10000 steps
Per MPI rank memory allocation (min/avg/max) = 3.642 | 3.644 | 3.648 Mbytes
Step Temp E_pair E_mol TotEng Press Volume 
       0          2.4   -7.3553801            0   -3.7562801   -3.3553213         4000 
    1000    2.3911465   -4.6942863            0   -1.1084632    5.6674494    4670.9719 
    2000    2.4223237   -4.7815011            0   -1.1489239    5.5453784    4640.3188 
    3000    2.4036981   -4.7083799            0   -1.1037341    5.5707756     4664.975 
    4000    2.4038668   -4.7310589            0   -1.1261601    6.1379318    4595.3328 
    5000    2.3845415   -4.7717668            0   -1.1958487    5.8234929    4605.9191 
    6000    2.3905482    -4.717125            0   -1.1321991    5.6108921     4669.636 
    7000    2.4066731   -4.7209668            0   -1.1118596      5.98131    4626.6426 
    8000    2.3630775   -4.6522901            0     -1.10856    5.9952623    4650.0407 
    9000    2.4393288   -4.7879165            0   -1.1298381    5.5995365    4626.0157 
   10000    2.4096605   -4.7358703            0   -1.1222832    5.8963942    4624.4906 
Loop time of 2.26242 on 48 procs for 10000 steps with 4000 atoms

Performance: 763785.518 tau/day, 4420.055 timesteps/s
99.7% CPU use with 48 MPI tasks x no OpenMP threads

MPI task timing breakdown:
Section |  min time  |  avg time  |  max time  |%varavg| %total
---------------------------------------------------------------
Pair    | 0.95765    | 1.0066     | 1.0695     |   3.0 | 44.49
Neigh   | 0.19173    | 0.20127    | 0.22153    |   1.1 |  8.90
Comm    | 0.71092    | 0.78142    | 0.83624    |   3.9 | 34.54
Output  | 0.00025217 | 0.00025689 | 0.00031732 |   0.0 |  0.01
Modify  | 0.2418     | 0.25795    | 0.29529    |   2.8 | 11.40
Other   |            | 0.01492    |            |       |  0.66

Nlocal:        83.3333 ave          94 max          73 min
Histogram: 2 1 7 5 6 9 14 2 1 1
Nghost:        1489.29 ave        1522 max        1457 min
Histogram: 2 3 4 6 7 14 4 2 3 3
Neighs:        8247.96 ave        9536 max        6675 min
Histogram: 1 1 2 7 5 13 11 6 1 1

Total # of neighbors = 395902
Ave neighs/atom = 98.975500
Neighbor list builds = 902
Dangerous builds = 168

# Equilibrate just above the melting temperature to avoid step fn in T

fix 1 all npt temp 1.25 1.25 0.1 iso 5.68 5.68 0.5 mtk yes tchain 5 pchain 5
run 2000
Per MPI rank memory allocation (min/avg/max) = 3.642 | 3.644 | 3.648 Mbytes
Step Temp E_pair E_mol TotEng Press Volume 
   10000    2.4096605   -4.7358703            0   -1.1222832    5.8963942    4624.4906 
   11000    1.2234982   -6.3451822            0   -4.5103937    5.7770223    3814.4307 
   12000    1.2582939   -6.4055235            0   -4.5185545     5.546034    3810.2836 
Loop time of 0.494025 on 48 procs for 2000 steps with 4000 atoms

Performance: 699559.735 tau/day, 4048.378 timesteps/s
99.7% CPU use with 48 MPI tasks x no OpenMP threads

MPI task timing breakdown:
Section |  min time  |  avg time  |  max time  |%varavg| %total
---------------------------------------------------------------
Pair    | 0.21596    | 0.23705    | 0.26004    |   1.9 | 47.98
Neigh   | 0.031976   | 0.034108   | 0.036277   |   0.6 |  6.90
Comm    | 0.14491    | 0.16806    | 0.19876    |   2.8 | 34.02
Output  | 5.0213e-05 | 5.1869e-05 | 6.5112e-05 |   0.0 |  0.01
Modify  | 0.040778   | 0.050187   | 0.064513   |   2.6 | 10.16
Other   |            | 0.004568   |            |       |  0.92

Nlocal:        83.3333 ave          92 max          75 min
Histogram: 1 2 7 6 9 9 5 6 2 1
Nghost:        1695.62 ave        1716 max        1667 min
Histogram: 2 1 1 5 8 7 8 8 5 3
Neighs:        10016.7 ave       11064 max        8661 min
Histogram: 1 1 3 5 11 7 7 6 3 4

Total # of neighbors = 480800
Ave neighs/atom = 120.20000
Neighbor list builds = 143
Dangerous builds = 8

#############################
# L I N E A R  Q U E N C H  #
#############################

# Define solid atoms. This closely follows ten Wolde  Ruiz-Montero and Frenkel  Faraday Discuss  1996  104  93-110
# Compute components of the per-atom q6 vector
compute q6 all orientorder/atom degrees 1 6 components 6 nnn NULL cutoff 1.3 # compute the Q6 parameter.
                                                                             # Use all neighbours within 1.3 unit cell.

# get number of connections
compute coord_number all coord/atom orientorder q6 0.5

# An atom is solid if it has 8 or more connections (of a possible 14)
variable is_solid atom c_coord_number>=8
group solid dynamic all var is_solid    # Must be dynamic to update
dynamic group solid defined

# do clustering
compute cluster solid cluster/atom 1.3 # Create a cluster where all atoms within are solid and max 1.3 units from another member

# define chunks one chunk per cluster
compute clus_chunks solid chunk/atom c_cluster nchunk every compress yes  # Says which atoms are in which chunk

# count the size of each chunk
compute size_chunks solid property/chunk clus_chunks count


# Find the maximum entry in the vector of chunk sizes
variable max_n equal max(c_size_chunks)


# Thermo style which includes this variable
# thermo_style custom step temp pe vol v_max_n

thermo ${N}  # Print the thermo information every 100 steps
thermo 1000  

# Reset the npt fix at a lower temperature (below freezing)
fix 1  all npt temp  ${temp} ${temp}  0.1  iso  5.68  5.68  0.5  mtk yes tchain  5  pchain  5
fix 1  all npt temp  0.45 ${temp}  0.1  iso  5.68  5.68  0.5  mtk yes tchain  5  pchain  5
fix 1  all npt temp  0.45 0.45  0.1  iso  5.68  5.68  0.5  mtk yes tchain  5  pchain  5

dump dmp2 all dcd ${N} traj.dcd
dump dmp2 all dcd 1000 traj.dcd


compute msd all msd com yes
variable twopoint equal c_msd[4]/6/(step*dt+1.0e-6)
fix 9 all vector 10 c_msd[4]
variable fit equal slope(f_9)/6/(10*dt)
thermo_style custom step temp pe c_msd[4] v_twopoint v_fit v_max_n

fix 1 all npt temp 1.25 ${temp} 0.1 iso 5.68 5.68 0.5 mtk yes tchain 5 pchain 5
fix 1 all npt temp 1.25 0.45 0.1 iso 5.68 5.68 0.5 mtk yes tchain 5 pchain 5
run 5000000 # 5000000  # Run for this many steps
Neighbor list info ...
  update every 1 steps, delay 10 steps, check yes
  max neighbors/atom: 2000, page size: 100000
  master list distance cutoff = 3.8
  ghost atom cutoff = 3.8
  binsize = 1.9, bins = 9 9 9
  4 neighbor lists, perpetual/occasional/extra = 1 3 0
  (1) pair lj/cut, perpetual
      attributes: half, newton on
      pair build: half/bin/atomonly/newton
      stencil: half/bin/3d
      bin: standard
  (2) compute orientorder/atom, occasional
      attributes: full, newton on
      pair build: full/bin/atomonly
      stencil: full/bin/3d
      bin: standard
  (3) compute coord/atom, occasional
      attributes: full, newton on
      pair build: full/bin/atomonly
      stencil: full/bin/3d
      bin: standard
  (4) compute cluster/atom, occasional
      attributes: full, newton on
      pair build: full/bin/atomonly
      stencil: full/bin/3d
      bin: standard
Per MPI rank memory allocation (min/avg/max) = 9.760 | 9.768 | 9.774 Mbytes
Step Temp PotEng c_msd[4] v_twopoint v_fit v_max_n 
   12000    1.2582939   -6.4055235            0            0 8.3333333e+20            2 
   13000    1.2482504   -6.3902335   0.54539705 0.0034961348  0.044732421            2 
   14000    1.2125413   -6.3823154    1.1008627 0.0065527538  0.045429104            5 
   15000    1.2440441   -6.3351133    1.6322387 0.0090679927  0.045380069            1 
   16000    1.2599154   -6.3870378    2.1161023  0.011021366  0.044439758            2 
   17000    1.2702799   -6.4096414    2.6148954  0.012818114  0.043621457            1 
   18000    1.2444232   -6.3881532    3.1838794  0.014740182  0.043350553            2 
   19000    1.2353656   -6.3718096    3.8272185  0.016786046  0.043915121            2 
   20000    1.2642808    -6.433395    4.3002241    0.0179176  0.044538129            2 
   21000    1.2349789   -6.3720052    4.8448737  0.019225689  0.044737607            3 
   22000    1.2226452   -6.4078112    5.3799508  0.020378601  0.044818149            2 
   23000    1.2431666   -6.3985065    5.9693454  0.021628062  0.044946249            1 
   24000    1.2412329   -6.3976828    6.5273141  0.022664285  0.045017921            3 
   25000    1.2294846   -6.3876114    7.1378329  0.023792776  0.045268336            1 
   26000    1.2244846   -6.3735085    7.7245962  0.024758321  0.045518733            3 
   27000    1.2263965   -6.3543703    8.2493843  0.025461062  0.045669956            2 
   28000    1.2425949   -6.3676496    8.7590326  0.026068549  0.045752179            1 
   29000    1.2309394   -6.3689885    9.2635334  0.026619348  0.045785773            1 
   30000    1.2387272   -6.3809425    9.9333995  0.027592776  0.045806493            3 
   31000    1.2816575   -6.3504154    10.581214  0.028444124  0.045929204            2 
   32000    1.2446496    -6.396297    11.182644  0.029121469  0.046181421            3 
   33000    1.2487294   -6.4088669    11.756518  0.029688177  0.046369422            2 
   34000    1.2742289    -6.395234     12.22809  0.029970807  0.046461898            2 
   35000    1.2653832   -6.3565028    12.845258  0.030583947  0.046504036            4 
   36000    1.2337806   -6.3822415    13.546775  0.031358274  0.046635829            2 
   37000    1.2886077    -6.390382    14.013171  0.031561196  0.046790162            2 
   38000    1.2341724   -6.4123622    14.426677  0.031637449   0.04680373            1 
   39000    1.2317519   -6.4283741    14.818256   0.03166294  0.046752689            2 
   40000    1.2613647   -6.3621447    15.331924  0.031941508  0.046619769            2 
   41000     1.235502   -6.4214188    15.815301  0.032144921  0.046443023            1 
   42000    1.2373052   -6.4005832    16.315727  0.032372473  0.046293476            2 
   43000    1.2268197   -6.4144585     16.61785  0.032205135  0.046098891            3 
   44000    1.2322803   -6.4198889    17.036082  0.032265307  0.045835044            2 
   45000    1.2402134    -6.421393     17.54994  0.032499888   0.04558834            2 
   46000    1.2481026   -6.3747433    18.124188  0.032833674  0.045379446            2 
   47000    1.2323226   -6.4063743    18.689838  0.033138011  0.045208464            2 
   48000    1.2553904   -6.4051948    19.130063  0.033211915  0.045058466            3 
   49000    1.2660411   -6.3552085     19.68459  0.033477194  0.044911049            5 
   50000    1.2318945   -6.3845002    20.315729  0.033859548  0.044814315            2 
   51000    1.2436785   -6.4186459    20.970994   0.03426633  0.044745283            2 
   52000     1.259561   -6.4075249    21.482753  0.034427489  0.044727791            1 
   53000    1.2463521   -6.4243819    21.977677  0.034556096  0.044688668            2 
   54000    1.2550811   -6.4041148    22.280236  0.034383079  0.044617816            1 
   55000    1.2422858    -6.413627    22.856929  0.034631711  0.044547865            1 
   56000    1.2443554   -6.3906522    23.485154  0.034948145  0.044490589            2 
   57000    1.2442419   -6.3642033    24.110391  0.035249109  0.044454346            4 
   58000    1.2586505   -6.3614169    24.535561  0.035252243  0.044419852            3 
   59000    1.2574822   -6.3943056    25.057542  0.035392008  0.044367724            2 
   60000    1.2371243   -6.4240261    25.599473  0.035554823  0.044340075            2 
   61000    1.2573486    -6.402854    26.140673  0.035711302    0.0443134            4 
   62000    1.2418178   -6.4130174    26.709135  0.035899374  0.044295001            2 
   63000    1.2219188   -6.4198532    27.058043  0.035791062  0.044268597            1 
   64000    1.2568258   -6.4377377    27.536587  0.035854931  0.044220171            3 
   65000    1.2422121   -6.3613471    28.201344  0.036155569  0.044178715            3 
   66000    1.2788463   -6.4423568    28.954454  0.036558653  0.044172414            2 
   67000    1.2484303   -6.3975478    29.569961  0.036778558  0.044180322            1 
   68000    1.2549717   -6.3952486    30.100576   0.03688796  0.044196332            2 
   69000     1.263831   -6.4052618    30.605547  0.036963221  0.044214141            5 
   70000    1.2298893   -6.3975493     31.33487  0.037303416   0.04424956            1 
   71000    1.2298324   -6.4590707    31.932961  0.037480001  0.044303245            3 
   72000    1.2524824   -6.3964432    32.682387  0.037826836  0.044371149            2 
   73000    1.2506572   -6.4036669    33.475036  0.038213511  0.044455467            4 
   74000    1.2622637   -6.4468844    33.920517   0.03819878    0.0445507            3 
   75000    1.2798922   -6.3997062    34.636491  0.038484989  0.044641456            1 
   76000    1.2272153   -6.4298641    35.181326  0.038576015  0.044738295            2 
   77000    1.2174502   -6.4083076    35.716962   0.03865472  0.044827413            2 
   78000    1.2318091    -6.433189    36.163777  0.038636514  0.044897317            4 
   79000    1.2488679   -6.4100687    36.727464  0.038742051  0.044958379            2 
   80000    1.2275694   -6.3962882    37.216617  0.038767309  0.045002864            3 
   81000    1.2350867   -6.3827551    37.944713   0.03903777  0.045051395            1 
   82000    1.2261687   -6.4136796    38.366434  0.038990278  0.045106813            1 
   83000    1.2398089   -6.4198451    38.766542  0.038922231  0.045147811            1 
   84000    1.2609948   -6.4272872    39.444068   0.03913102  0.045179485            1 
   85000    1.2469348   -6.4106198    39.919076  0.039136349  0.045216601            7 
   86000    1.2303552     -6.44033    40.528837  0.039272128  0.045252935            1 
   87000    1.2271743   -6.3846292    41.194702  0.039458527    0.0452949            4 
   88000    1.2563385   -6.4108868    41.590402   0.03938485  0.045317823            2 
   89000    1.2511232   -6.4084592    42.102534  0.039421848  0.045343363            3 
   90000    1.2429384   -6.3989534    42.564938   0.03941198  0.045361925            1 
   91000    1.2446099    -6.404234    43.016789  0.039392664  0.045371534            2 
   92000    1.2523583   -6.4543936    43.669359  0.039555579  0.045384935            1 
   93000    1.2469171   -6.4192339    44.253739  0.039653888  0.045404529            2 
   94000    1.2182416    -6.422073    44.845564  0.039756705  0.045423316            2 
   95000    1.2324367    -6.407414    45.463103  0.039879915  0.045441941            1 
   96000    1.2252154   -6.4257525    46.020361   0.03994823  0.045464305            2 
   97000    1.2243712   -6.4198435    46.712686  0.040131174  0.045494105            1 
   98000    1.2475913   -6.4345998     47.18032  0.040119319  0.045510679            4 
   99000    1.2294942   -6.4273165    47.556962  0.040031113   0.04552662            2 
  100000    1.2314743   -6.4453139     48.25015  0.040208458  0.045552698            2 
  101000     1.253378   -6.4290957    48.966106  0.040401077   0.04558148            1 
  102000    1.2325495   -6.4450184    49.544554  0.040477577  0.045602327            3 
  103000    1.2372064    -6.386869    49.990293   0.04044522  0.045622149            3 
  104000    1.2295522   -6.4354309    50.266922  0.040277982  0.045632691            4 
  105000     1.208143   -6.4289125    50.495199  0.040075555  0.045626652            1 
  106000    1.1982411   -6.4072261    51.196781  0.040249041  0.045618448            4 
  107000    1.2806739   -6.4148024    51.437909  0.040060676  0.045607836            2 
  108000    1.2344443   -6.4173736    52.090919   0.04019361  0.045585383            1 
  109000    1.2285873   -6.4047903    52.466563  0.040112051  0.045558713            2 
  110000    1.2346786    -6.463187     52.80239   0.04000181  0.045528383            1 
  111000    1.2501325   -6.3816706    53.258914   0.03998417  0.045494875            2 
  112000    1.2331036   -6.4206746    53.733509  0.039980289  0.045459362            1 
  113000    1.2418437   -6.4308701     54.37601  0.040100302  0.045429924            4 
  114000    1.2234197    -6.444519    54.757073    0.0400271  0.045403272            1 
  115000    1.2303143   -6.4267881    55.267739  0.040049086  0.045374375            3 
  116000    1.2265995   -6.4323825    55.884509  0.040146918  0.045342778            1 
  117000    1.2616558   -6.4053414    56.375963  0.040153819  0.045306677            4 
  118000    1.2104683   -6.4190267     56.33813  0.039786815  0.045259681            3 
  119000    1.2252976   -6.4444336    56.857877   0.03981644   0.04521007            2 
  120000    1.2196588   -6.4314422    57.384956  0.039850664  0.045161948            2 
  121000    1.2225341   -6.4037162    57.859362  0.039848045  0.045114675            2 
  122000    1.2420599   -6.4135743    58.707785  0.040100946  0.045068423            3 
  123000    1.2359244    -6.412159    59.037234  0.039998126  0.045030869            4 
  124000    1.2171956   -6.4486606    59.639326  0.040080192  0.044990919            1 
  125000    1.2172183   -6.3623922    60.039639  0.040026426  0.044952649            1 
  126000    1.2382123   -6.4250657    60.757268  0.040183378  0.044915884            2 
  127000    1.2582763   -6.4082439    61.166365   0.04013541  0.044881397            2 
  128000    1.2394457   -6.4309204    61.602478   0.04010578  0.044846242            2 
  129000    1.2409319   -6.4253486    62.069023  0.040096268    0.0448067            2 
  130000    1.2211738   -6.4359138    62.579792  0.040115251   0.04477424            2 
  131000     1.209173   -6.4306821    63.147401  0.040170102  0.044742146            3 
  132000    1.2552191   -6.4486452     63.65631  0.040187064  0.044710016            1 
  133000    1.2256124   -6.4033756     64.62308  0.040490651  0.044684934            2 
  134000    1.2156569   -6.4138475    65.210985  0.040554095  0.044667454            2 
  135000    1.2230042   -6.4460329    65.486271  0.040423624  0.044652151            2 
  136000    1.2510982   -6.4410383    66.117533  0.040513194  0.044638445            2 
  137000     1.241732   -6.4586716    66.604258  0.040513539  0.044618327            2 
  138000    1.2337243   -6.4101338    67.322443  0.040653649  0.044600808            2 
  139000    1.2394915   -6.4626298    67.705073  0.040590571  0.044584227            2 
  140000    1.2504173   -6.4178199    68.333593  0.040674758   0.04456876            1 
  141000    1.2201705   -6.3752946     68.95536  0.040753759  0.044557076            2 
  142000    1.2529459   -6.4343268    69.303608  0.040671131  0.044545465            6 
  143000    1.2058656   -6.4513795    70.008691  0.040797606  0.044533678            2 
  144000    1.1953301   -6.4637606    70.181389   0.04061423   0.04451613            5 
  145000    1.2269212   -6.4029465    71.011657  0.040811297  0.044499395            2 
  146000    1.2249783     -6.44535    71.460101  0.040787729  0.044486447            2 
  147000    1.2215434      -6.4262    72.085454   0.04086477  0.044481345            2 
  148000    1.2411478   -6.4403377    72.633338   0.04089715  0.044471847            1 
  149000    1.2252536   -6.4056696    73.250051   0.04096759  0.044464033            2 
  150000    1.2428765   -6.4430335    73.587143  0.040881746  0.044454774            1 
  151000    1.2410536   -6.4061925    74.216737  0.040958464  0.044449295            4 
  152000    1.2483675   -6.4193323    74.903248  0.041065377  0.044445714            3 
  153000     1.222074   -6.4474929    75.295426   0.04101058  0.044443295            2 
  154000    1.2235818   -6.4201506    76.163354  0.041213936  0.044441506            1 
  155000    1.2446426   -6.4719767    76.524848  0.041142391  0.044437089            2 
  156000    1.2214759   -6.4484387    76.968956  0.041115895  0.044431865            6 
  157000    1.2119139   -6.4011072     77.76999  0.041279188  0.044429558            2 
  158000    1.2566191   -6.4052118    78.134029  0.041209931   0.04442965            2 
  159000    1.2477746   -6.4488967    78.618599  0.041204716  0.044427374            1 
  160000    1.2283372   -6.3882306    79.089227  0.041192305  0.044424009            2 
  161000     1.212984   -6.3682345    79.893063  0.041352517  0.044421149            3 
  162000    1.2360275   -6.4276619    80.142539  0.041225586  0.044418675            3 
  163000    1.2220799   -6.4277425    80.631667  0.041222734  0.044414644            1 
  164000     1.188803   -6.4069374      81.2464   0.04128374  0.044410234            2 
  165000    1.2153852   -6.4267763    81.239488  0.041030045  0.044398556            4 
  166000    1.2366787   -6.4133543    82.037365  0.041183416   0.04438562            2 
  167000    1.1981891   -6.4226913    82.864737  0.041349669  0.044377171            5 
  168000    1.2400469   -6.4617804    83.152019  0.041246041  0.044372874            2 
  169000    1.2321579   -6.4345044      83.8864  0.041364103  0.044371023            2 
  170000    1.2479389   -6.4435466    84.578472  0.041460035  0.044373767            1 
  171000    1.2382868   -6.3849116    84.857739  0.041353674  0.044373136            2 
  172000    1.2080072   -6.4763774    85.110387  0.041235652   0.04436878            4 
  173000    1.2505709   -6.4066971    85.903768  0.041379464   0.04436013            2 
  174000    1.2308846   -6.4419974    86.514039  0.041433926  0.044353536            3 
  175000    1.2429111   -6.4017462    87.094196  0.041473426  0.044349653            1 
  176000    1.2518605   -6.4670327    87.514613  0.041436843  0.044345896            1 
  177000    1.2101774   -6.4279258    88.077619  0.041467805  0.044340837            1 
  178000    1.2363119   -6.4631576    88.502105   0.04143357  0.044334649            6 
  179000    1.2335501   -6.4298062    88.736104  0.041311035  0.044325602            1 
  180000    1.2128244   -6.4533936     88.98103  0.041194921  0.044311828            1 
  181000    1.2374109    -6.450822    89.038158  0.040993627  0.044295333            1 
  182000    1.2293206   -6.4766661    89.875005  0.041151559  0.044277514            3 
  183000    1.2498075    -6.428735    90.594189  0.041254184  0.044263471            2 
  184000    1.2251522   -6.4470677    90.832395   0.04113786   0.04425022            2 
  185000     1.208017   -6.4577829    91.284121  0.041118973   0.04423457            3 
  186000    1.2130589   -6.4338118    92.048795  0.041240499  0.044220915            2 
  187000    1.2111718   -6.3990082    92.593104  0.041262524  0.044206406            2 
  188000    1.1936364    -6.453792    93.050318  0.041245708  0.044193927            1 
  189000    1.2200432    -6.427026    93.944355  0.041421673  0.044183442            4 
  190000    1.2509807   -6.4349628     94.25611  0.041340399  0.044173789            1 
  191000    1.2499984   -6.4415801    95.080033  0.041483435  0.044163606            1 
  192000    1.2288241   -6.4541716    95.529962  0.041462657  0.044156539            4 
  193000    1.2177976    -6.450352    96.031023  0.041464172  0.044147614            2 
  194000    1.2126439   -6.4674252     96.60598  0.041497414  0.044141807            4 
  195000    1.2217841   -6.4807201    97.035307   0.04146808   0.04413804            3 
  196000    1.2160408   -6.4130763    98.055545  0.041690283   0.04413805            1 
  197000     1.209201   -6.4349541    98.705006  0.041753387  0.044140703            1 
  198000    1.2314122   -6.4303612    99.424263  0.041845228  0.044143814            3 
  199000    1.2148144   -6.4487135     99.33262  0.041596575  0.044142261            4 
  200000      1.22374   -6.4299837    100.25847  0.041774363  0.044141796            2 
  201000    1.2670219   -6.4377566    100.39014  0.041621119  0.044141333            2 
  202000    1.2095233   -6.4405542     100.5496  0.041480859  0.044135515            1 
  203000     1.223797   -6.4668991    101.47144  0.041654943  0.044131084            2 
  204000    1.2019017   -6.4407972    102.12529  0.041717845  0.044128371            2 
  205000    1.2147498   -6.4749934    102.31808  0.041592716  0.044122776            1 
  206000    1.2168106   -6.4783514    103.00264  0.041667737  0.044116164            2 
  207000    1.2314031   -6.3996182    102.94274  0.041442326  0.044105478            1 
  208000    1.2198467   -6.4913103    103.00712  0.041268877  0.044091847            2 
  209000    1.2251035   -6.4704375    103.48691  0.041262722   0.04407651            2 
  210000    1.2103431   -6.4589506     104.0643  0.041295359  0.044059165            4 
  211000    1.2195432   -6.4263909    104.60445  0.041312974   0.04404261            2 
  212000    1.2277803   -6.4652887     105.6859    0.0415432  0.044027773            1 
  213000    1.2322711   -6.4886768     105.2386  0.041173163   0.04401166            2 
  214000    1.2392254   -6.4297845    106.39508  0.041431108   0.04399694            2 
  215000    1.2181346   -6.4882354    105.75676  0.040990991  0.043978866            2 
  216000    1.2278108   -6.4146556    107.01167  0.041285368  0.043959347            2 
  217000    1.2193845   -6.4533458    106.88513  0.041046516  0.043938643            1 
  218000    1.2052379   -6.4403578    107.68895  0.041165501  0.043915821            2 
  219000    1.2279794   -6.4028081    108.20884  0.041175356  0.043896171            2 
  220000    1.1990245   -6.4630766    108.73502  0.041187507  0.043877675            6 
  221000    1.2146461   -6.4767209    109.71357  0.041370126  0.043860303            2 
  222000    1.2301465   -6.4435568    109.67778  0.041170337  0.043843766            2 
  223000    1.1914363    -6.458144    110.22227  0.041189188  0.043826969            1 
  224000    1.2243121   -6.4645623    110.60799  0.041148804  0.043811502            2 
  225000    1.2432204   -6.4302884    111.27383  0.041212528   0.04379323            1 
  226000    1.2101181   -6.4289158    112.25227  0.041390955  0.043775603            2 
  227000    1.2247761   -6.4498323    112.11267  0.041157368  0.043756162            1 
  228000    1.2035053   -6.4143807     112.6721  0.041181322   0.04373663            2 
  229000    1.2069173   -6.4488618    112.74447  0.041027826  0.043716016            3 
  230000    1.2266924   -6.4682628    113.19606  0.041013065  0.043693026            2 
  231000    1.2032996   -6.4401852    113.70354  0.041018594  0.043671518            4 
  232000    1.2206223   -6.4470585     114.0035  0.040949532  0.043648487            3 
  233000    1.2204593   -6.4426125    114.33028  0.040890659  0.043624776            2 
  234000    1.2214593   -6.4219902    115.31953   0.04106821  0.043603065            3 
  235000    1.2182171   -6.4374938    115.45141  0.040940215  0.043580799            2 
  236000    1.2086357    -6.472934    115.93022  0.040935813    0.0435595            1 
  237000       1.1991   -6.4474785    116.57204  0.040988762  0.043538791            5 
  238000    1.2075167   -6.4830905    117.04462  0.040982008  0.043519706            2 
  239000    1.2270881   -6.4704879     117.5459  0.040985319  0.043500933            2 
  240000    1.2035342    -6.483049    117.93051  0.040948094  0.043480147            5 
  241000    1.2083026   -6.4546645    117.90747  0.040770219  0.043458308            3 
  242000    1.2166043   -6.4536756    119.20161  0.041047387  0.043438363            2 
  243000    1.2062249   -6.4825037    119.09566  0.040842134  0.043418017            3 
  244000    1.2188712   -6.4496433    120.00182   0.04098423  0.043397651            5 
  245000    1.2107815   -6.4625396    120.01858  0.040822646  0.043375774            2 
  246000    1.2013061   -6.4565198    120.50527  0.040821567  0.043355066            1 
  247000    1.2022152   -6.4774519    120.76763  0.040744815  0.043333882            3 
  248000    1.1963337   -6.4637482    121.86212  0.040948294  0.043311475            2 
  249000    1.1997152   -6.4522458    121.86946  0.040786298  0.043290575            2 
  250000    1.1945252   -6.4816292    122.78206  0.040927352  0.043270498            3 
  251000    1.2214745   -6.4794652    123.03894  0.040849582  0.043248782            2 
  252000    1.2099928   -6.4432391    123.69033  0.040902886  0.043227906            2 
  253000    1.1895549    -6.470452    124.44843  0.040990919  0.043209309            2 
  254000    1.2260479   -6.4285386    124.77501  0.040936683  0.043192165            1 
  255000    1.1997775   -6.4161409    125.23144  0.040925309  0.043173288            1 
  256000    1.1917253   -6.4652543    125.42121  0.040827217  0.043154484            2 
  257000    1.2206669    -6.447542    126.04092  0.040869299  0.043136937            1 
  258000    1.2165206   -6.4452701    127.33476  0.041128798  0.043121723            3 
  259000     1.210337   -6.4569302    127.38586  0.040986441  0.043108025            1 
  260000    1.2246361   -6.4729314     127.7675  0.040951121  0.043091933            2 
  261000    1.1742377   -6.4427783    127.88721  0.040832442  0.043075766            4 
  262000    1.2097779    -6.484326    127.97579  0.040704767  0.043056357            1 
  263000    1.2082166    -6.434673    129.27108  0.040960417  0.043037362            1 
  264000    1.2230111   -6.4622798    129.59976  0.040909016  0.043018548            2 
  265000    1.2206921   -6.4133863    130.40301  0.041007235  0.043002152            2 
  266000    1.2281571   -6.4178253     130.6509  0.040930732  0.042985587            2 
  267000    1.2032432   -6.4750612    130.99934  0.040886186  0.042970348            3 
  268000    1.1875442   -6.5073868    131.38715  0.040854214  0.042953705            3 
  269000    1.2146907   -6.4870571    132.16767  0.040944135  0.042936588            2 
  270000    1.2142704   -6.4649156    132.16927  0.040792984  0.042918807            4 
  271000     1.210139   -6.4764214    132.13102  0.040630694  0.042899941            1 
  272000    1.2280692   -6.4846281    132.41634  0.040568731  0.042878833            2 
  273000    1.1872803   -6.4923195    132.90025  0.040567843  0.042857369            1 
  274000    1.2115377   -6.4816243    133.89383  0.040721968  0.042836197            1 
  275000    1.2096945   -6.4829905    134.03704  0.040617285  0.042815751            4 
  276000    1.2274297   -6.5193804    134.30839   0.04055205  0.042794901            6 
  277000    1.2083641   -6.4916051    134.81888  0.040559231  0.042775476            1 
  278000    1.1976656   -6.4940657     135.3897  0.040584442  0.042754771            3 
  279000    1.2187633   -6.4641149    136.46616  0.040760501  0.042736367            2 
  280000    1.2299963   -6.4597285    136.57576  0.040647548  0.042716592            5 
  281000    1.2034266   -6.4471584    136.88985  0.040596041   0.04269637            1 
  282000    1.2074041   -6.4235685    137.60198  0.040662525  0.042676997            1 
  283000    1.2299544   -6.4737602    137.62198  0.040524728   0.04265728            6 
  284000    1.2065019   -6.4827627     138.4545  0.040626319  0.042637684            2 
  285000    1.1991924   -6.4664557    138.72053   0.04056156  0.042618513            3 
  286000    1.2092534   -6.4503921    138.89156   0.04046957  0.042599649            3 
  287000    1.1937618    -6.466949    140.48653  0.040791676  0.042582925            4 
  288000    1.2023899   -6.4641701    140.95068   0.04078434  0.042566315            2 
  289000    1.2288768   -6.4775705    140.79555  0.040598486  0.042551519            3 
  290000    1.2116096   -6.4675558    141.40707  0.040634215  0.042537021            2 
  291000    1.2090769    -6.477716    142.24667  0.040735016  0.042523342            3 
  292000    1.1908474   -6.4518163    143.06479  0.040828991  0.042510997            3 
  293000    1.2226797   -6.4569495    144.07267  0.040976299   0.04249908            2 
  294000    1.1928069   -6.4983635    143.96952  0.040807687  0.042488031            4 
  295000    1.2255625   -6.4494895    144.33191  0.040771726  0.042477572            2 
  296000    1.2038752   -6.4553525    145.52991  0.040971259    0.0424684            4 
  297000    1.2053855   -6.4676956    145.76101   0.04089815  0.042457479            2 
  298000    1.1950252   -6.4696493     145.9047   0.04080109   0.04244723            1 
  299000    1.2023401   -6.5061232    146.68737  0.040882768  0.042436822            1 
  300000    1.1924253   -6.4734131    147.28761  0.040913225  0.042428209            3 
  301000    1.2101561   -6.4144255    148.45497  0.041100491   0.04242026            2 
  302000    1.2053465   -6.4805776    148.09124  0.040864028   0.04241128            2 
  303000    1.1990394   -6.5002054    148.71205  0.040899903  0.042401397            3 
  304000    1.2034947   -6.4683819    149.45976  0.040970328  0.042392541            2 
  305000    1.2157105   -6.4509309     149.5972  0.040873551   0.04238238            2 
  306000    1.1640976   -6.4894449    150.44773  0.040971605  0.042371909            2 
  307000    1.2122694   -6.4905797    150.35004  0.040811628  0.042360596            2 
  308000    1.2365868   -6.5073595    149.63491  0.040485635  0.042346598            2 
  309000    1.2131813   -6.4888921     150.3893  0.040558063  0.042330907            2 
  310000    1.1839045   -6.4295046    151.64029   0.04076352  0.042316434            2 
  311000    1.1960271   -6.4671772    151.73443  0.040657671  0.042301524            3 
  312000    1.1902768   -6.5108376    151.92651  0.040578661  0.042285701            4 
  313000     1.216711   -6.4731135    152.26202  0.040538345   0.04227078            3 
  314000     1.200834   -6.4604496    152.88268  0.040573959  0.042256547            3 
  315000     1.206173   -6.4553455    153.61652  0.040639291  0.042242355            2 
  316000     1.205903   -6.5255743     153.2453  0.040412791  0.042227656            2 
  317000    1.1889813   -6.4369567    154.42631  0.040595769  0.042213336            1 
  318000    1.1735556   -6.5073879    154.23495  0.040417965  0.042198923            2 
  319000    1.1950646    -6.479053    155.07434  0.040510537  0.042184509            1 
  320000    1.2203862    -6.511417    155.32382  0.040448912  0.042170571            4 
  321000    1.2144712   -6.5274679    156.25205  0.040563875  0.042157424            3 
  322000    1.1991837   -6.4369742    156.76288  0.040570104     0.042145            2 
  323000    1.1943943   -6.4539987    157.63648  0.040669887  0.042131153            1 
  324000    1.2244597   -6.4783835    157.34361  0.040469035  0.042117107            1 
  325000    1.2061874   -6.4580819     157.6024  0.040410871  0.042102235            2 
  326000    1.1998817   -6.4884223    158.94799  0.040630876  0.042089451            1 
  327000    1.2033848   -6.4791162    158.59224  0.040415962  0.042076602            1 
  328000    1.1934325   -6.5443707    159.05318  0.040409852  0.042064221            3 
  329000    1.1718024   -6.4638725    159.87932  0.040496281  0.042052115            4 
  330000      1.21133   -6.4632648    160.86875  0.040623421  0.042040339            1 
  331000    1.1662746   -6.4847831    161.18727  0.040580884  0.042029099            1 
  332000     1.197559   -6.4318525    161.73951  0.040597266  0.042018293            2 
  333000    1.2066825   -6.4877257    162.60109  0.040690965   0.04200814            4 
  334000    1.2070941   -6.4700998    163.05304  0.040681895  0.041998024            1 
  335000    1.1745341   -6.4770138    162.90001   0.04052239  0.041986529            2 
  336000    1.1836493   -6.4527692    163.80348  0.040625862  0.041974593            2 
  337000    1.2188243   -6.5021216    164.31149  0.040630933  0.041963044            1 
  338000    1.1897619   -6.4802837    164.63569  0.040590654   0.04195033            5 
  339000    1.1670312   -6.4552164    165.49331  0.040681739  0.041940532            1 
  340000    1.2068881   -6.4861153     165.4765  0.040557966  0.041929831            3 
  341000    1.2129012   -6.4872963    166.17571    0.0406099  0.041919154            3 
  342000    1.2161213    -6.463036    166.56801  0.040586746  0.041908443            1 
  343000    1.1876933   -6.5073734     166.6327  0.040484136  0.041896422            3 
  344000    1.2180145   -6.4670812    167.29101  0.040525922  0.041885143            2 
  345000    1.2060494   -6.4584598    168.10198  0.040604342  0.041873766            2 
  346000    1.2004359   -6.4707697     168.9465  0.040690391  0.041862718            2 
  347000    1.2161124   -6.4546688    169.56961   0.04072277   0.04185306            1 
  348000    1.1832191   -6.5207125    169.32765   0.04054781   0.04184345            3 
  349000    1.1796775   -6.4656485    170.37469  0.040681636  0.041834579            1 
  350000    1.1787593   -6.4137163     170.7545  0.040655833  0.041825531            1 
  351000    1.1964392   -6.5041212      170.559   0.04049359  0.041815415            4 
  352000    1.2067963   -6.5218879    170.61069  0.040390788  0.041805098            4 
  353000    1.1841556   -6.5068059    171.21145  0.040418188  0.041793742            2 
  354000    1.1962848   -6.5027961    171.70367  0.040419885   0.04178246            5 
  355000    1.2033715   -6.5239029    171.89213  0.040350265   0.04177039            2 
  356000    1.2237919   -6.5373669    172.09954  0.040285472  0.041757881            1 
  357000    1.1801224   -6.4781057    173.34139   0.04046251   0.04174589            3 
  358000    1.1760415   -6.5085476    173.50979  0.040388684  0.041735427            2 
  359000    1.1761826   -6.5153724    174.33422  0.040467553  0.041724963            3 
  360000    1.2261786   -6.5374644    174.85867  0.040476544  0.041714716            4 
  361000    1.1806014   -6.5209869    175.30596  0.040467673  0.041703924            4 
  362000    1.1678062   -6.5161157    176.13555  0.040546859  0.041693652            5 
  363000    1.1816714   -6.5215603    176.24555   0.04046041  0.041683666            2 
  364000    1.1915911   -6.5299742    175.84189  0.040256843  0.041673214            2 
  365000    1.1884325   -6.5063774    177.11668  0.040437599  0.041662779            2 
  366000    1.1903316   -6.5119427      177.142  0.040332879  0.041651292            2 
  367000    1.1977379   -6.4907839    177.69156  0.040347766  0.041641372            2 
  368000    1.1758574   -6.5110954    178.27415  0.040370053   0.04163161            3 
  369000    1.1727311   -6.4614783    178.92512   0.04040766  0.041622141            2 
  370000    1.1802426   -6.4724127      179.325  0.040388513   0.04161231            2 
  371000    1.2033084   -6.5010507    179.36601  0.040288861  0.041601647            2 
  372000    1.1813412   -6.4634798    180.60252  0.040457554  0.041590977            3 
  373000    1.1876915   -6.4614232    180.81062   0.04039558   0.04158207            2 
  374000    1.1879425   -6.4892286    181.63314  0.040470843  0.041573311            2 
  375000    1.1740062   -6.5357969    182.18708  0.040486018  0.041564631            1 
  376000    1.1808175    -6.506066    182.71379  0.040495077  0.041555922            2 
  377000    1.1933598   -6.4799727    182.87875  0.040424126  0.041546233            4 
  378000    1.2070394    -6.448645    183.50958  0.040456256  0.041537221            3 
  379000    1.2022165   -6.4938567    183.79385  0.040412017  0.041527297            1 
  380000    1.1900708   -6.5348743    183.71719  0.040288858  0.041518025            6 
  381000    1.1736944   -6.5024114    184.69381  0.040396721  0.041508376            3 
  382000     1.173496   -6.4953036    185.48915  0.040464475  0.041498282            1 
  383000    1.1901155   -6.5103384    185.35137  0.040328845  0.041488523            1 
  384000    1.1740446   -6.4916477    185.84889  0.040331789  0.041478387            4 
  385000    1.1822223   -6.4880898    186.88618  0.040451554  0.041468701            1 
  386000     1.185412   -6.4876498    186.03018  0.040161956  0.041458561            2 
  387000    1.2012499   -6.4990633    186.79674  0.040223244   0.04144812            2 
  388000    1.1734992   -6.4822266    187.97978  0.040373663  0.041438027            1 
  389000    1.1836796   -6.4923027    188.23601  0.040324767  0.041428104            1 
  390000    1.2275643   -6.5017282    188.09399  0.040191024   0.04141792            2 
  391000    1.2011291   -6.5419678    188.64059   0.04020473  0.041407225            4 
  392000    1.1614762   -6.5313053    189.19003  0.040218969  0.041396933            2 
  393000    1.1920664   -6.5046461    190.83964   0.04046642  0.041386535            3 
  394000    1.2001169   -6.5028705    191.02573  0.040403073  0.041377807            2 
  395000    1.1747502    -6.512768    191.41438  0.040382781  0.041369219            3 
  396000    1.2011924   -6.4829797    191.76711  0.040355031  0.041360924            3 
  397000    1.1831146   -6.5212754    192.34418  0.040374513  0.041352792            1 
  398000    1.1837178   -6.4921555    192.14264  0.040230871   0.04134346            2 
  399000    1.2033332   -6.5205093    192.03421  0.040107396  0.041333847            4 
  400000    1.1669001   -6.4885593    193.54982   0.04032288  0.041324274            2 
  401000    1.1773586   -6.4707277     193.9642  0.040308438  0.041315329            1 
  402000    1.2082354    -6.488829     194.5801  0.040335841  0.041306609            2 
  403000    1.1996954   -6.4697563    194.47047  0.040213082  0.041296194            1 
  404000    1.1823741   -6.5488133    194.18533   0.04005473  0.041285319            2 
  405000    1.1702638   -6.5651057    193.99174  0.039915996  0.041273702            2 
  406000    1.1568994   -6.4957159    194.89711  0.040003511  0.041260762            1 
  407000    1.2149823   -6.4951121    195.47445  0.040023434  0.041247784            2 
  408000    1.1908193   -6.5060313    195.37962  0.039905967   0.04123563            5 
  409000    1.1885641   -6.5199231    196.44565  0.040025601  0.041222876            1 
  410000    1.1877834   -6.5008599    195.94652  0.039826527  0.041210217            2 
  411000    1.1859594   -6.5020638    197.58151  0.040061134  0.041197427            2 
  412000    1.1834712   -6.5067418     198.0638  0.040061448  0.041184434            2 
  413000     1.186258   -6.5029505    198.25675  0.040003379  0.041171926            2 
  414000    1.1969668   -6.5507846    198.14513  0.039884285  0.041160082            2 
  415000    1.1657997   -6.4890798    199.01083  0.039962013  0.041147034            5 
  416000    1.1785647   -6.4974231    199.48019  0.039959974  0.041134384            2 
  417000    1.1954115   -6.5280861    199.45205  0.039858523  0.041122163            3 
  418000    1.1768669   -6.4883126    200.14332   0.03990098  0.041110282            3 
  419000     1.212953   -6.4604112    200.98748  0.039973643  0.041099297            2 
  420000    1.1753885   -6.5253231     202.1132  0.040101825  0.041088726            6 
  421000    1.1561388    -6.483276    202.74136  0.040130911   0.04107847            3 
  422000    1.1916468   -6.5391339    202.92048  0.040071185  0.041069318            3 
  423000    1.2042151   -6.5120103    203.39977  0.040070876  0.041060737            1 
  424000    1.1537597   -6.4944814    203.81037   0.04005707  0.041050484            2 
  425000     1.194577   -6.5151841    204.90382   0.04017722  0.041041254            3 
  426000    1.1876418   -6.5316686    204.73195  0.040049286  0.041032508            2 
  427000    1.1708624   -6.4947261      205.389  0.040083724  0.041024191            3 
  428000    1.1805142   -6.5016714    206.65942  0.040237425  0.041015933            3 
  429000    1.1767543   -6.5142588    207.04865  0.040219241   0.04100858            3 
  430000    1.1712171   -6.5546167       206.97  0.040110466  0.041001487            2 
  431000    1.1745514    -6.511504    207.86352  0.040190162  0.040994686            3 
  432000    1.1674635    -6.506067    208.96133  0.040308898   0.04098839            2 
  433000     1.184556   -6.5335226    209.47802  0.040315246  0.040983166            3 
  434000    1.2000325   -6.5005753    210.07455  0.040336895  0.040978181            1 
  435000     1.200197    -6.499657     209.2238  0.040081188  0.040971518            4 
  436000     1.157669   -6.4752223    210.03987  0.040145235  0.040964297            2 
  437000    1.1795822   -6.5130871    210.94234  0.040225466  0.040956738            2 
  438000    1.2002753   -6.5237528    211.01179   0.04014684   0.04094886            2 
  439000    1.1847867   -6.4825025    211.00252  0.040053629  0.040941083            1 
  440000    1.1743121   -6.5441616    211.70009  0.040094714  0.040933317            3 
  441000    1.2141518   -6.5023238    212.27068  0.040111618  0.040925758            1 
  442000    1.1855199   -6.5219472    212.89137   0.04013789  0.040917857            3 
  443000    1.1691459   -6.5112438    212.20488  0.039918148  0.040908925            5 
  444000    1.1885967   -6.5374175    212.54751   0.03989255  0.040899442            1 
  445000    1.1940124   -6.5404318    213.40781  0.039964009  0.040889861            2 
  446000    1.1687243   -6.4971714    214.28323  0.040037973  0.040881366            1 
  447000      1.16429   -6.5227589    213.90871  0.039878581    0.0408727            2 
  448000    1.1943362   -6.5351665    214.49618  0.039898843  0.040863788            2 
  449000    1.2022048   -6.5478476    215.12868  0.039927371  0.040855288            5 
  450000    1.1772754   -6.5517094    216.22738  0.040042108  0.040846613            1 
  451000    1.1693762   -6.4945641    216.68716  0.040038278  0.040837682            1 
  452000    1.1652468     -6.50248    217.49917  0.040099404  0.040829174            2 
  453000    1.1828944   -6.5322861     217.4258  0.039997389  0.040821686            3 
  454000    1.1758501   -6.5265925    217.90034  0.039996392  0.040813742            2 
  455000    1.1769327   -6.5574397    217.91954  0.039912003  0.040805877            3 
  456000    1.2126334   -6.5112653    218.30473  0.039894871  0.040797495            1 
  457000    1.2109729   -6.5287072    219.05462  0.039944314  0.040789264            4 
  458000    1.1585407   -6.4985605    219.50262  0.039938613  0.040780799            4 
  459000    1.1771166   -6.5267173     219.6948  0.039886492  0.040771593            2 
  460000    1.1703554   -6.5017736    219.63852  0.039789587  0.040761701            3 
  461000    1.1918847   -6.5130886    219.81216  0.039734664  0.040751422            3 
  462000     1.194074   -6.5699998    219.83842  0.039653395  0.040740605            2 
  463000    1.1707158   -6.5284114    221.06113   0.03978782  0.040730066            2 
  464000    1.2014935    -6.482029    221.96359  0.039864151  0.040720016            3 
  465000     1.184577   -6.5358882    222.17215  0.039815798  0.040709642            1 
  466000    1.1742428   -6.5141634     222.7995  0.039842543  0.040699058            2 
  467000     1.166714   -6.5253089    222.47703  0.039699685  0.040689241            2 
  468000    1.1409265   -6.5002771    223.58437  0.039812032  0.040679735            1 
  469000    1.1779866   -6.5234496    223.09737  0.039640613  0.040669756            2 
  470000    1.1703913   -6.5035136    223.67794   0.03965921  0.040659038            1 
  471000    1.1878768   -6.5091376    224.38032  0.039699279  0.040649038            2 
  472000    1.1810549   -6.5391681    224.35576  0.039610833  0.040638683            3 
  473000    1.1771269   -6.5472061    225.50946   0.03973035  0.040628652            6 
  474000    1.1782515   -6.4986057    226.19351  0.039766792  0.040618411            4 
  475000    1.1867676   -6.5220546    226.69467  0.039770995  0.040608868            1 
  476000    1.1949364   -6.5042562    227.12248   0.03976234  0.040598797            5 
  477000     1.183704   -6.5068885       227.66  0.039772885   0.04058965            2 
  478000     1.166503    -6.553382    227.31062  0.039628769  0.040580861            2 
  479000    1.1580398   -6.5626109    228.00436  0.039666729  0.040571345            2 
  480000    1.1722452   -6.5162438    228.69246  0.039703553  0.040561814            2 
  481000    1.1647754   -6.5327968    228.92801  0.039661817  0.040551984            2 
  482000    1.1808157   -6.5358548    229.21362  0.039628911  0.040541865            2 
  483000    1.1648917   -6.5660698    228.76345  0.039469194   0.04053148            3 
  484000    1.1862291   -6.5004784    229.40293  0.039497749  0.040519868            3 
  485000    1.2023283   -6.5773684    230.33283  0.039576088  0.040509534            3 
  486000    1.1743792    -6.505239    230.62833  0.039545325  0.040498591            4 
  487000     1.169847    -6.540343    231.40284  0.039596652  0.040487938            5 
  488000    1.1725697   -6.5544582     231.6615  0.039559682  0.040477684            2 
  489000    1.1714479   -6.5223812     231.7395  0.039492075  0.040467171            2 
  490000    1.1628676   -6.5040254    232.06037  0.039466049   0.04045679            4 
  491000    1.1919411   -6.5445471    232.53265  0.039465827  0.040446376            2 
  492000    1.2129643   -6.5271151    232.99256   0.03946351  0.040435888            2 
  493000    1.1759471   -6.5089857    233.48038  0.039465919  0.040425568            2 
  494000    1.1848646   -6.5474752    234.33634  0.039530421  0.040415001            3 
  495000    1.1502228   -6.5581058    234.51651  0.039480894  0.040405035            2 
  496000    1.1915943   -6.5520478    235.19346  0.039515031  0.040394681            3 
  497000    1.1558598   -6.5556842    234.81165  0.039371504  0.040385131            2 
  498000    1.1850339   -6.5534577    236.19835  0.039524489  0.040375726            2 
  499000    1.1752123   -6.5408532     236.5729  0.039507833  0.040365621            2 
  500000    1.1864713   -6.4982369    236.68869  0.039448115  0.040355033            2 
  501000     1.193216   -6.5538354    236.91931  0.039407735  0.040343817            2 
  502000    1.1476975   -6.5239962     237.6433  0.039449419  0.040333066            3 
  503000    1.1710378    -6.512737    237.93317  0.039419015  0.040322648            1 
  504000    1.1608833   -6.5332427    238.11724  0.039371237  0.040312497            2 
  505000    1.1881294   -6.4958998    239.54994  0.039529692  0.040302378            2 
  506000    1.1751979   -6.5009815    239.83467  0.039498463  0.040292437            1 
  507000    1.1580907   -6.5409285    240.26922  0.039491982  0.040282099            2 
  508000    1.1685204   -6.5490224    240.03597  0.039375979  0.040271198            5 
  509000    1.1881642     -6.52099     241.1189  0.039475917  0.040261465            3 
  510000    1.1719428   -6.5667635    240.99835  0.039378816  0.040251611            3 
  511000    1.1761339   -6.5503349    241.64944  0.039407931   0.04024247            2 
  512000    1.1554956   -6.5748346    243.09881  0.039566864  0.040233445            2 
  513000    1.1478401    -6.542139    243.20159  0.039506431  0.040224573            3 
  514000    1.1964543   -6.5144009    244.38532  0.039621485   0.04021632            3 
  515000    1.1605758   -6.5538343    244.54391  0.039570212  0.040208033            1 
  516000    1.1687508   -6.5518297    244.67647  0.039514933  0.040200247            2 
  517000    1.1721739   -6.5504281    244.70617   0.03944329   0.04019235            2 
  518000    1.1454319    -6.506311    245.91644  0.039561846  0.040183966            1 
  519000    1.1702273   -6.5338404    245.95763  0.039492234  0.040176375            3 
  520000    1.1951882   -6.5305397    246.32583  0.039475294  0.040168794            4 
  521000    1.1690985   -6.5282836    247.11268  0.039525381  0.040160967            1 
  522000    1.1604971   -6.5570316    245.99902  0.039271874  0.040152542            4 
  523000     1.145073   -6.5137198    248.88947   0.03965734  0.040144311            2 
  524000    1.1674563   -6.5373127    248.06347  0.039450297  0.040135797            2 
  525000    1.1773441   -6.5101811     249.0348  0.039529334  0.040127514            1 
  526000    1.1866907   -6.5280444    248.87222  0.039428425  0.040119909            1 
  527000    1.1534852   -6.5304012    249.23184  0.039410475  0.040111203            1 
  528000    1.1579698    -6.494139    250.28308  0.039501748  0.040102799            6 
  529000    1.1705595   -6.5379021     249.3551  0.039280891  0.040093794            2 
  530000    1.1650453   -6.5402716    249.80785  0.039277964  0.040084055            3 
  531000    1.1611989   -6.5367437    249.79699   0.03920229  0.040075158            4 
  532000    1.1795345   -6.5073595    251.56019  0.039404792  0.040065757            2 
  533000    1.1627867   -6.5694755    252.12377  0.039418975  0.040057574            6 
  534000    1.1405447   -6.5643745    251.61901  0.039266387  0.040049293            3 
  535000    1.1855697   -6.5746732    252.14704   0.03927524  0.040040385            2 
  536000    1.1753899   -6.5213888    252.69466  0.039287105  0.040031786            3 
  537000    1.1711103    -6.526426      252.892  0.039244568  0.040022651            1 
  538000    1.1766718    -6.530644    254.22174  0.039377592  0.040013588            2 
  539000    1.1904864   -6.5445282     254.3269  0.039320794   0.04000506            3 
  540000    1.1684907   -6.5624548     255.0255  0.039355788  0.039996572            2 
  541000    1.1462928   -6.5574049    255.26174   0.03931943  0.039988292            2 
  542000    1.1522207    -6.566559    255.33546   0.03925822  0.039979527            2 
  543000    1.1614313   -6.5352911    256.46254  0.039358892  0.039971098            1 
  544000    1.1697327   -6.5453513    256.77373  0.039334211  0.039962786            4 
  545000    1.1416045    -6.530844    257.15634  0.039320541  0.039954208            4 
  546000    1.1722107   -6.5326385    258.37161  0.039434006  0.039945901            3 
  547000    1.1539138    -6.554354    258.29857  0.039350787  0.039937661            4 
  548000    1.1602597   -6.5665355    258.32215  0.039282565  0.039929878            4 
  549000    1.1677339    -6.561359    258.50833  0.039239272  0.039921954            4 
  550000    1.1786419   -6.5649882    259.71316  0.039350479  0.039913998            3 
  551000    1.1677569   -6.5764297    259.88311  0.039304766  0.039906723            2 
  552000     1.168678   -6.5778826    260.37073  0.039307176  0.039899018            4 
  553000    1.1477801   -6.5484198    261.44368  0.039397782  0.039892062            3 
  554000    1.1739315   -6.5571108    261.61951  0.039353115  0.039885008            2 
  555000    1.1447673     -6.56887    261.66206  0.039288598  0.039877747            2 
  556000     1.151627   -6.5404857    262.79128  0.039387182  0.039870015            1 
  557000    1.1640513   -6.5041189     263.4292  0.039411909  0.039863521            3 
  558000    1.1390508   -6.5312454    263.33248  0.039326834   0.03985674            4 
  559000     1.159533   -6.5318163    263.10783  0.039222991  0.039849704            4 
  560000    1.1498912   -6.5718579    263.71016  0.039242583  0.039841138            3 
  561000    1.1680926   -6.5307155    263.43242  0.039131375  0.039832552            2 
  562000    1.1622794   -6.5263176    263.51547  0.039074062  0.039823558            2 
  563000    1.1412663   -6.5370376    264.98108  0.039221593  0.039814928            2 
  564000     1.189197   -6.5619994    265.13965  0.039175481  0.039806388            3 
  565000    1.1594626   -6.5570243    265.39532  0.039143853   0.03979808            2 
  566000     1.164755    -6.543459    266.47901  0.039234247  0.039789717            1 
  567000     1.167473   -6.5415836    266.48472  0.039165891   0.03978117            3 
  568000    1.1549123   -6.6071501    266.25399  0.039063086  0.039772547            3 
  569000    1.1440314   -6.5736777    267.05677  0.039112005  0.039764004            2 
  570000    1.1626086   -6.5394039    267.50139   0.03910839  0.039755446            1 
  571000    1.1753487   -6.4977041    268.10434  0.039127895  0.039747103            4 
  572000    1.1537795   -6.5467028    268.46115  0.039111472  0.039738995            1 
  573000    1.1634832   -6.5337566    268.01075  0.038977712  0.039730078            2 
  574000    1.1386574   -6.5705322    268.76202  0.039018877  0.039720868            1 
  575000    1.1682896   -6.5367277    269.67308  0.039083055  0.039712164            2 
  576000    1.1154944   -6.5690927    269.47582  0.038986664  0.039703189            4 
  577000    1.1770599   -6.5604864    269.55439  0.038930443  0.039693564            4 
  578000    1.1519369   -6.5166782    270.30651  0.038971527  0.039684794            3 
  579000    1.1528572   -6.5932207    270.34115  0.038909205  0.039675223            2 
  580000    1.1534095   -6.5380217    271.78029  0.039048893  0.039665715            1 
  581000     1.153888   -6.5412445    271.14271  0.038890234  0.039656444            6 
  582000    1.1412535   -6.5840707    271.36408  0.038855108  0.039646696            1 
  583000    1.1521821   -6.5444103    272.40843   0.03893774  0.039636992            3 
  584000    1.1653742   -6.5647438    271.44537  0.038733643  0.039626745            5 
  585000    1.1483671   -6.5977731    272.07434  0.038757029  0.039616136            2 
  586000    1.1630113   -6.5732017    271.69244  0.038636581  0.039605262            3 
  587000     1.169571   -6.5473585    273.81436  0.038871999  0.039594655            2 
  588000    1.1634334   -6.5380584    273.97512  0.038828674  0.039583953            3 
  589000    1.1571647   -6.5896096    273.61874  0.038712329   0.03957299            3 
  590000    1.1459861   -6.5743041    274.81799  0.038816101  0.039562388            2 
  591000    1.1663259    -6.587282     274.0809  0.038646489  0.039551879            7 
  592000    1.1571909   -6.5703188    274.86429  0.038691483  0.039541296            5 
  593000    1.1595141   -6.5670364    275.53039  0.038719841  0.039530968            4 
  594000    1.1570804   -6.5578089    277.87273  0.038983267  0.039520915            2 
  595000    1.1498047   -6.5797707    277.47935  0.038862654  0.039511408            6 
  596000    1.1659406   -6.5984093    277.85553  0.038850046   0.03950196            4 
  597000    1.1472106   -6.5734957    277.79264  0.038776193  0.039492661            2 
  598000    1.1400486   -6.5667779    279.19421  0.038906663   0.03948332            2 
  599000    1.1508494   -6.5799362    279.93559  0.038944851  0.039473877            6 
  600000    1.1751633     -6.53042    279.32922  0.038795726   0.03946447            2 
  601000    1.1708921   -6.5542107    279.43973  0.038746497  0.039454513            3 
  602000    1.1638774   -6.5829769    280.03976  0.038765194  0.039444608            2 
  603000    1.1502271   -6.5566041    281.26827  0.038870684  0.039434869            4 
  604000    1.1420706   -6.5655206    280.50653  0.038701233  0.039425515            1 
  605000    1.1487067     -6.55112    280.46742  0.038631876  0.039416137            1 
  606000    1.1477839   -6.5611165    281.95932  0.038773284  0.039406559            2 
  607000    1.1318946   -6.6199426    280.97862  0.038574769  0.039396974            6 
  608000    1.1678763   -6.5483799    283.10078  0.038802191  0.039387513            2 
  609000    1.1556227   -6.5051425    283.34256  0.038771561  0.039378399            4 
  610000    1.1314457   -6.5462934    283.94259  0.038789971  0.039369309            3 
  611000    1.1396795   -6.5755504    284.24119  0.038767211   0.03936077            2 
  612000      1.14249   -6.5599729     285.0729  0.038817116   0.03935231            4 
  613000    1.1463011   -6.5517565    284.74819  0.038709651  0.039343506            3 
  614000    1.1502659   -6.5921023    285.80622  0.038790204  0.039334685            2 
  615000    1.1344512   -6.5390849    286.52889  0.038825053  0.039326251            1 
  616000    1.1836946   -6.5872015    286.16311  0.038712542  0.039318146            2 
  617000    1.1464794   -6.5849907    287.24435  0.038795834  0.039309722            2 
  618000    1.1491444    -6.599894    287.13833  0.038718761  0.039301928            3 
  619000    1.1213889   -6.5661468     287.8543  0.038752598  0.039294479            4 
  620000    1.1395381   -6.5687028    289.05842  0.038851939  0.039286863            2 
  621000    1.1485168   -6.5934124    288.70741  0.038742271  0.039279089            2 
  622000    1.1558048   -6.5987207    288.67033  0.038675018  0.039271125            1 
  623000    1.1426982   -6.5943427    288.72842  0.038620708  0.039263152            4 
  624000    1.1462518   -6.5747986    290.28681  0.038766935  0.039254834            2 
  625000    1.1725592   -6.5615086    290.35504  0.038714005  0.039246399            4 
  626000    1.1355916   -6.5474423    290.56874   0.03868061  0.039237491            2 
  627000    1.1666256   -6.5713037    290.76164  0.038644556  0.039228715            2 
  628000    1.1548915   -6.5877363    290.74344  0.038580604  0.039219881            2 
  629000     1.154972   -6.5475552    292.25174  0.038719096  0.039210824            2 
  630000     1.124445    -6.558791    291.42906  0.038548817  0.039201517            1 
  631000    1.1306937    -6.559918    291.42615  0.038487342  0.039192465            2 
  632000    1.1650294   -6.5576479    292.67615  0.038591264  0.039183257            3 
  633000    1.1493593   -6.5773695    292.25631  0.038475027  0.039174127            2 
  634000    1.1323576   -6.5660116    292.57408  0.038456109  0.039164377            2 
  635000    1.1753831   -6.5839553    293.93583  0.038574256  0.039155227            3 
  636000    1.1846277   -6.5851002    294.79394  0.038626041    0.0391467            3 
  637000    1.1338237   -6.5558376    294.66613  0.038548682  0.039138099            7 
  638000    1.1220271   -6.5994408    295.47494  0.038593905  0.039129077            6 
  639000    1.1543668   -6.5635784    295.46343  0.038532007  0.039120104            2 
  640000    1.1276205   -6.5282907    295.52492  0.038479808  0.039110785            1 
  641000    1.1783717   -6.5648228     296.8768  0.038595528   0.03910193            3 
  642000    1.1265036   -6.6151153    296.30135  0.038460715   0.03909286            2 
  643000    1.1399347   -6.5399467     296.5816  0.038437221  0.039083525            3 
  644000    1.1366985    -6.609606    296.39205  0.038353008  0.039074082            1 
  645000    1.1437922   -6.5672727    297.27676   0.03840785  0.039064332            1 
  646000     1.133874   -6.6011644    296.96382  0.038308026  0.039054659            4 
  647000    1.1415415   -6.5855065    297.76726  0.038352301  0.039044769            4 
  648000    1.1604869    -6.542998    298.33974  0.038366736  0.039034969            3 
  649000    1.1423887   -6.5834804    298.98463  0.038390425  0.039025538            1 
  650000     1.145885   -6.5888325    298.97199  0.038329742  0.039015782            2 
  651000    1.1672749   -6.5892163    300.49449  0.038465757  0.039006311            2 
  652000     1.156477   -6.5541319    301.09232   0.03848317  0.038997064            2 
  653000    1.1551611   -6.5826314    300.92761  0.038403217  0.038987832            3 
  654000    1.1601229   -6.5686564    301.59544  0.038429592  0.038979172            2 
  655000    1.1373235   -6.5854368    301.81842   0.03839929  0.038970077            1 
  656000    1.1377838   -6.5834809     302.8339  0.038469753  0.038961036            3 
  657000    1.1439027   -6.6045839    302.87501  0.038416414   0.03895162            2 
  658000     1.199637   -6.5833848    301.95701  0.038241769  0.038942191            3 
  659000    1.1539277   -6.5391996    303.29044  0.038352356  0.038933029            1 
  660000    1.1278773   -6.6054513    303.73492  0.038350368  0.038923421            1 
  661000    1.1392097   -6.5957181    303.35296  0.038244196  0.038913796            3 
  662000    1.1388713    -6.581194     304.4535  0.038324963  0.038904148            3 
  663000    1.1728977   -6.5804504    304.05033  0.038216482  0.038894025            1 
  664000    1.1294012   -6.6069685    303.76061  0.038122567  0.038884271            3 
  665000    1.1514467   -6.5816719    305.38188  0.038268406  0.038874366            3 
  666000    1.1498403   -6.5963073    304.64517  0.038118765  0.038864668            2 
  667000    1.1644938   -6.5923103    304.91676  0.038095547   0.03885461            1 
  668000    1.1658849   -6.5581225    306.41647  0.038225607  0.038844612            3 
  669000    1.1328552    -6.605661    306.39819  0.038166192  0.038835033            3 
  670000    1.1534142   -6.6070901    307.40066  0.038233912  0.038825207            3 
  671000    1.1318041   -6.5685789    305.03119  0.037882661  0.038815156            2 
  672000     1.136299   -6.5856927    306.69169  0.038032203  0.038804986            3 
  673000    1.1744895   -6.5943505    306.71284  0.037978311  0.038794125            3 
  674000    1.1794117   -6.6112369    306.36123  0.037878491  0.038782501            2 
  675000    1.1424058   -6.5730814    308.53454  0.038090684  0.038771659            2 
  676000    1.1883256   -6.5805161    308.56524  0.038038121  0.038760602            4 
  677000    1.1487778   -6.6279214    308.09308  0.037923816    0.0387495            2 
  678000    1.1330014   -6.6039582    308.65885   0.03793742  0.038738546            4 
  679000    1.1323048   -6.5698522     309.8958  0.038033358  0.038728115            1 
  680000    1.1327104   -6.5886614    310.01471  0.037991998  0.038717076            2 
  681000    1.1375305   -6.6041037    310.60003  0.038007835  0.038706351            1 
  682000    1.1276412   -6.6442161    310.37338  0.037924411  0.038694977            3 
  683000    1.1638752   -6.5939109    310.81536  0.037922811  0.038683781            3 
  684000    1.1373512   -6.5805589    311.84971  0.037993385   0.03867272            3 
  685000    1.1270578   -6.6146302    312.02854  0.037959676  0.038661852            4 
  686000    1.1424176   -6.5661499    312.67356  0.037982697  0.038651575            3 
  687000    1.1468347   -6.6428311    312.93723  0.037959392  0.038641156            4 
  688000    1.1281334   -6.5728802    313.27642  0.037945303   0.03863051            2 
  689000    1.1316886   -6.6043078     314.2911  0.038012954   0.03862035            3 
  690000    1.1400644     -6.53954     315.2599  0.038074867  0.038610228            1 
  691000    1.1300008   -6.5583651    315.11834  0.038002694  0.038600025            3 
  692000    1.1225952   -6.6203474    314.66768  0.037893507  0.038589757            2 
  693000    1.1590088   -6.5902276    316.03479  0.038003221  0.038579306            2 
  694000    1.1505158   -6.5815021     315.4938  0.037883501  0.038569302            4 
  695000    1.1302589   -6.6113928     316.6084  0.037962638  0.038559539            2 
  696000    1.1317534   -6.6037915    316.50268  0.037895436  0.038549953            1 
  697000    1.1373433   -6.5986425    318.12229  0.038034707  0.038540122            2 
  698000     1.142521   -6.5959845    317.28123  0.037879804  0.038530516            3 
  699000    1.1208234   -6.5816822    318.78503  0.038004892  0.038521347            3 
  700000    1.1566904   -6.5913319    318.31087  0.037894151  0.038511718            2 
  701000     1.132096   -6.6309875    318.89785  0.037909873  0.038502057            1 
  702000    1.1320667   -6.5884833    319.06614  0.037875848  0.038492446            2 
  703000    1.1554578   -6.6022903    318.65831  0.037773626   0.03848234            2 
  704000    1.1432806   -6.6118228    319.03569  0.037764642  0.038472324            3 
  705000     1.156104   -6.5989573    320.22845  0.037852063  0.038462271            2 
  706000    1.1137527   -6.5798395    320.45198  0.037824832  0.038452527            4 
  707000    1.1176657   -6.5522691    321.67544   0.03791554  0.038442579            3 
  708000    1.1277187   -6.5822758    322.44446  0.037952502  0.038432873            3 
  709000    1.1446127   -6.6036669    321.60623   0.03780045  0.038422705            2 
  710000    1.1409052   -6.5767284     322.0792  0.037802723  0.038412568            2 
  711000     1.161804    -6.578022    323.43997  0.037909045  0.038402855            2 
  712000    1.1354423   -6.6040601    321.82246  0.037666486  0.038393051            2 
  713000     1.155868   -6.6099866    323.93598   0.03786068  0.038383626            3 
  714000    1.1536916   -6.6233511    324.25061  0.037844375  0.038374585            1 
  715000    1.1468719   -6.6181981    325.01757  0.037880836  0.038366077            6 
  716000    1.1693352   -6.6099303    325.32276   0.03786345  0.038357385            2 
  717000    1.1242974   -6.6095725    326.33839  0.037928683  0.038348502            2 
  718000    1.1342109   -6.5951646    327.57486  0.038019366  0.038340417            2 
  719000    1.1584983   -6.5819731    326.10761  0.037796431  0.038331615            4 
  720000    1.1526117   -6.6421283    326.64216  0.037805806  0.038322813            3 
  721000     1.142718   -6.6203835    327.06099  0.037801779  0.038313868            4 
  722000    1.1311508   -6.6162893    327.20284  0.037765794  0.038304427            2 
  723000    1.1481285    -6.613716    328.42883  0.037854868   0.03829571            2 
  724000    1.1209439   -6.5626458    328.94254   0.03786171  0.038286969            5 
  725000    1.1338435   -6.6143751    328.18449  0.037722356  0.038278182            1 
  726000    1.1289036   -6.6382397    328.27229  0.037680474  0.038268733            5 
  727000    1.1222096   -6.6164846    329.31375  0.037748023  0.038259224            3 
  728000    1.1376188   -6.5697726    330.84224  0.037871135  0.038250167            1 
  729000    1.1414341   -6.5850246    330.54086  0.037784735  0.038241234            2 
  730000    1.1397336   -6.6133647    330.59319  0.037738949  0.038231929            2 
  731000    1.1175559   -6.6022997    330.61635  0.037689963  0.038222247            2 
  732000    1.1458845   -6.5710445    331.84335  0.037778159   0.03821285            2 
  733000    1.1117031   -6.5937954    330.91645  0.037621243  0.038203077            4 
  734000    1.1399183   -6.6466174    330.75057  0.037551154  0.038192927            1 
  735000     1.146942   -6.5891634    332.46828  0.037694816  0.038183361            3 
  736000    1.1611378    -6.578127    332.04286  0.037595433  0.038173819            6 
  737000    1.1207461   -6.5827085    333.49732  0.037708878  0.038164357            4 
  738000    1.1310773   -6.5996141    333.10566  0.037613557   0.03815553            3 
  739000     1.141944   -6.6004465    334.15504  0.037680992  0.038146299            2 
  740000    1.1242103   -6.6331102    333.95639  0.037607702  0.038137138            4 
  741000    1.1388313   -6.5933037    335.03239  0.037677956  0.038127984            2 
  742000    1.1333907   -6.6096976    335.42866  0.037671682  0.038118773            2 
  743000    1.1595613    -6.608337    335.59541  0.037639682  0.038109824            4 
  744000     1.130828   -6.6194002    336.35172  0.037673804  0.038100929            3 
  745000    1.1057244   -6.6011733    336.14436  0.037600041  0.038092124            4 
  746000    1.1505887   -6.6614377    337.51973  0.037703276  0.038083324            3 
  747000    1.1325942   -6.5921084     337.4249  0.037642225  0.038074658            3 
  748000    1.1390266     -6.61758    337.27979  0.037575734  0.038066124            2 
  749000    1.1423117   -6.6638259    337.65889  0.037567745   0.03805808            3 
  750000    1.1557931   -6.6027115    338.97508  0.037663898  0.038049854            2 
  751000    1.1337093   -6.6542929    336.97092  0.037391358  0.038041123            1 
  752000    1.1242217   -6.5966577     339.6669  0.037640392  0.038032122            1 
  753000    1.1307507   -6.6154958    338.13467  0.037420835  0.038023064            1 
  754000    1.1277102   -6.6134151    339.78946  0.037554096  0.038014005            3 
  755000    1.1073342   -6.6228851    339.13389  0.037431997  0.038004875            3 
  756000    1.1335166   -6.6258204    339.67128   0.03744172  0.037995523            4 
  757000    1.1189942   -6.5815847    341.39411  0.037581915  0.037986478            2 
  758000    1.1250023   -6.5850181    341.65568   0.03756109  0.037977686            4 
  759000    1.1319301   -6.6202708    339.98974  0.037328693  0.037968445            3 
  760000    1.1124227    -6.612685     341.8231  0.037480603  0.037958878            4 
  761000    1.1299283   -6.6205548    341.48239  0.037394042  0.037949367            5 
  762000    1.1454111   -6.6108057    342.42859  0.037448446  0.037939836            3 
  763000    1.1408064   -6.6253296    341.11559  0.037255962  0.037930348            4 
  764000    1.0972778   -6.6120276    343.41306  0.037457794  0.037920688            3 
  765000    1.1376334   -6.6232848    343.55284  0.037424056   0.03791112            2 
  766000    1.0926687   -6.5938914    343.45151  0.037364176  0.037901482            1 
  767000    1.1384722   -6.5927193    344.04723  0.037380186  0.037891811            3 
  768000    1.1193643   -6.6425371    343.77784  0.037302283  0.037881717            1 
  769000    1.1109955   -6.6466102    344.25872  0.037305887  0.037872037            3 
  770000    1.1352904   -6.6001409    345.14097  0.037352919  0.037862404            3 
  771000    1.1257852   -6.6294589    345.82681    0.0373786  0.037853019            3 
  772000     1.138363   -6.6420199    344.39089  0.037175183  0.037843311            2 
  773000    1.0996666   -6.6045408    345.21067  0.037215467  0.037833527            2 
  774000     1.116447    -6.616025    345.48067  0.037196454  0.037823476            4 
  775000     1.147207   -6.6251401     345.8494  0.037188107  0.037813433            5 
  776000    1.1337029   -6.6474149    346.56283  0.037216798  0.037803188            2 
  777000    1.1311327   -6.6668998    346.76081  0.037190134  0.037793351            2 
  778000    1.1250575   -6.5798606    348.28023   0.03730508  0.037783767            1 
  779000    1.1325367   -6.6270642    347.44132   0.03716745  0.037774446            7 
  780000    1.1498252   -6.6371765    348.01331   0.03718091  0.037764867            2 
  781000    1.1240558   -6.6175766    348.24161  0.037157663  0.037754979            3 
  782000    1.1006037   -6.6284817    349.62868  0.037257958  0.037745159            2 
  783000    1.0927511   -6.6257413    349.91197  0.037240525  0.037735275            4 
  784000    1.1377326   -6.6589271    348.98372  0.037094358  0.037725169            4 
  785000    1.1303867   -6.5717127    351.18439  0.037280721  0.037715306            2 
  786000     1.141685   -6.6315596    351.18063  0.037232891  0.037705255            2 
  787000    1.1332997   -6.6034746    350.93575  0.037159651  0.037695583            4 
  788000    1.1402996   -6.5953691    351.98113  0.037223046  0.037685796            1 
  789000    1.1106198   -6.6010141    352.03471  0.037181528   0.03767627            6 
  790000     1.136488   -6.5851561    352.55282  0.037189116  0.037666832            1 
  791000    1.1140942   -6.6720936    351.67757  0.037049891  0.037657174            3 
  792000     1.139148   -6.5786956    355.19407  0.037373113  0.037647888            2 
  793000    1.1097491   -6.6293989    354.02372  0.037202997  0.037638757            2 
  794000    1.0980531   -6.6280706    353.68758  0.037120863  0.037629385            2 
  795000    1.1041304   -6.6574932    352.65263  0.036965684   0.03761973            3 
  796000    1.1314782   -6.6258462    354.51731  0.037114459  0.037609982            3 
  797000    1.1140543   -6.6421813    354.52659  0.037068861  0.037600039            2 
  798000    1.1249329    -6.623867    354.74925  0.037045661  0.037590541            3 
  799000    1.0902508   -6.6221884    355.75425  0.037104115  0.037580739            2 
  800000    1.1117072    -6.576382    357.04979  0.037192687  0.037571149            2 
  801000    1.1237478   -6.5852249    357.00591  0.037141688   0.03756143            2 
  802000     1.098383   -6.6199345    356.67995  0.037061508  0.037551228            3 
  803000    1.1267786   -6.6528587    354.70533  0.036810433  0.037540954            2 
  804000    1.1087328   -6.6007984    357.32824  0.037036509  0.037530883            3 
  805000    1.1280645   -6.6185945    357.05873  0.036962601  0.037520813            4 
  806000    1.0777145   -6.6228497    358.70443  0.037086893  0.037510948            2 
  807000    1.1266154   -6.6333919    358.82351  0.037053233   0.03750135            4 
  808000    1.1342988   -6.6263687    359.22538  0.037048822  0.037491759            1 
  809000    1.1261668   -6.6322098    360.09094  0.037092186  0.037482547            6 
  810000     1.114567    -6.631564    359.63293  0.036999273   0.03747324            3 
  811000    1.1225546   -6.5676168    360.72227  0.037065584  0.037463966            2 
  812000    1.1030516    -6.623419    361.50159  0.037099916  0.037454907            2 
  813000    1.1318337   -6.5941694    361.00011  0.037002881  0.037445994            3 
  814000    1.1050881   -6.6301152    360.50216  0.036906446  0.037436894            1 
  815000     1.146428    -6.614092    360.44599  0.036855418  0.037427389            5 
  816000     1.139773   -6.6355866    360.85987   0.03685252   0.03741777            3 
  817000     1.108441   -6.6387943    362.27495  0.036951749   0.03740773            4 
  818000    1.1169602   -6.6389456      361.414  0.036818868  0.037397714            2 
  819000    1.1373732   -6.6143196     362.8025  0.036915191  0.037387559            2 
  820000    1.1039015   -6.6532505      361.516  0.036739431  0.037377138            3 
  821000    1.1421154     -6.60509    364.02929  0.036949786  0.037366359            2 
  822000    1.1116589   -6.6284686    362.85355   0.03678564  0.037355825            2 
  823000    1.0986854   -6.6577126    362.47711  0.036702826  0.037345215            3 
  824000    1.0904668   -6.5905981    362.31998  0.036642393  0.037334314            2 
  825000    1.1285069   -6.6494174    361.90122  0.036555679  0.037323378            3 
  826000    1.1260191   -6.6421772    362.97309  0.036619561  0.037312401            6 
  827000    1.0975219   -6.6607292    363.82496   0.03666112  0.037301571            4 
  828000    1.1146204   -6.6251171    365.06436  0.036741582  0.037290949            3 
  829000     1.107951   -6.6299286    364.26995  0.036617406  0.037280419            3 
  830000    1.1326168   -6.6344761    366.23111  0.036770192  0.037269864            9 
  831000    1.0926628   -6.6293748    364.42696  0.036545022  0.037259281            3 
  832000    1.1061149   -6.6483153    365.77325  0.036635942   0.03724843            4 
  833000    1.1370868   -6.6101602    365.72933  0.036587568  0.037237516            3 
  834000    1.1144163   -6.6472047    366.13051  0.036583784  0.037226661            4 
  835000    1.1215103   -6.6554295    366.27609    0.0365545  0.037215412            1 
  836000    1.1125174   -6.6237437    366.10801   0.03649402  0.037204034            3 
  837000    1.1370598   -6.6126342    366.77275  0.036516602  0.037193131            2 
  838000     1.093619   -6.6664361     365.8794  0.036384188  0.037181692            3 
  839000    1.1081441   -6.6537662    366.78635  0.036430904  0.037170214            3 
  840000    1.1163444   -6.6115477    368.59667   0.03656713  0.037158801            2 
  841000    1.1204528   -6.6284614    368.75633   0.03653947  0.037147585            1 
  842000    1.1175111   -6.6220292    368.57827  0.036478451  0.037136684            1 
  843000    1.1353936   -6.6341276    369.13465  0.036490179  0.037125693            2 
  844000    1.1287793   -6.6260606    367.65207   0.03630056   0.03711412            3 
  845000    1.1321038   -6.6519566    369.12751  0.036403108   0.03710259            3 
  846000    1.1315138   -6.6024981     369.0503  0.036352473  0.037091077            4 
  847000    1.1179317   -6.6594045    370.12774  0.036415559  0.037079677            1 
  848000    1.1193413   -6.6700108    369.80454  0.036340855  0.037068036            2 
  849000    1.0875401   -6.6317926    371.00169  0.036415556  0.037056995            2 
  850000     1.093532   -6.6338272    370.98348   0.03637093  0.037045798            1 
  851000    1.0984179   -6.6611279    371.47021  0.036375853  0.037034968            2 
  852000    1.1119868   -6.6517657    370.98742  0.036285937  0.037023994            4 
  853000    1.1164787    -6.592081    373.13389  0.036453096  0.037012969            3 
  854000    1.0954295   -6.6268846    372.35322  0.036334233  0.037002013            2 
  855000    1.1244987   -6.6504456    372.55209   0.03631112  0.036991044            5 
  856000    1.1176697   -6.6505369    373.35708  0.036347067  0.036980089            4 
  857000    1.1245017    -6.637814    374.21496  0.036388075  0.036969284            3 
  858000    1.1197966   -6.6481166    373.66112  0.036291872  0.036958305            3 
  859000    1.1159535   -6.6581317    373.16884  0.036201867  0.036946834            4 
  860000    1.1335955   -6.6616746    373.91952  0.036232512  0.036935371            4 
  861000    1.1220428   -6.6245528    374.02149  0.036200299  0.036923851            2 
  862000    1.1550398   -6.6460129    374.63319   0.03621744  0.036912442            3 
  863000    1.1176048     -6.65716    374.68739  0.036180705  0.036901404            1 
  864000    1.0816128   -6.6108512    374.89318  0.036158678  0.036890131            3 
  865000    1.1052385   -6.6448683    375.83818  0.036207917  0.036878927            2 
  866000    1.1398713   -6.6551872    377.14246  0.036291615  0.036867847            3 
  867000     1.125532   -6.6732097     376.8861  0.036225115  0.036856998            6 
  868000     1.096769    -6.664275    377.32834  0.036225839  0.036845946            2 
  869000    1.1206415   -6.6137688    378.92943   0.03633769  0.036835218            2 
  870000    1.0965877   -6.6482368    378.20451  0.036226486  0.036824357            3 
  871000    1.1308643   -6.6431578    377.66487  0.036133263  0.036813735            6 
  872000    1.1045176   -6.6350594    378.72987  0.036193604  0.036803169            2 
  873000    1.1256163   -6.6335014    380.80335  0.036350072  0.036792788            2 
  874000    1.1104033   -6.6398124    381.26061   0.03635208  0.036782414            2 
  875000    1.0917528   -6.6531471    381.28922  0.036313259  0.036772284            2 
  876000    1.1073039   -6.6739306    381.09875  0.036253686  0.036762297            3 
  877000    1.1079082   -6.6277974    382.35823  0.036332025  0.036752655            2 
  878000    1.1048314   -6.6593005    382.23087  0.036278557  0.036742855            2 
  879000    1.1243618    -6.628164    384.00503  0.036405482  0.036733047            2 
  880000    1.1062856   -6.6798823    382.63756  0.036234617  0.036723376            3 
  881000    1.1325456   -6.6678742    382.94204  0.036222289  0.036713735            4 
  882000    1.1034628    -6.689337    384.22713  0.036302639  0.036703892            3 
  883000    1.1007166   -6.6196583    385.53461  0.036384919  0.036694339            2 
  884000    1.0997845   -6.6581803    385.19959  0.036312179  0.036685138            2 
  885000    1.1117746   -6.6621543    384.98395  0.036250843  0.036675898            3 
  886000    1.1222971   -6.6955982    385.55095  0.036263257  0.036666933            3 
  887000    1.1243344    -6.684627    386.41613  0.036303657  0.036657723            2 
  888000     1.119063   -6.6614085    387.28401   0.03634422  0.036648452            7 
  889000    1.1287057    -6.656705    389.01254  0.036465367  0.036639314            2 
  890000    1.0848563   -6.6769013    387.39962  0.036273372  0.036630276            1 
  891000    1.0859994   -6.6591447    387.36997  0.036229888  0.036621079            7 
  892000     1.125952   -6.6576378    387.88674  0.036237551  0.036611892            3 
  893000    1.1061875   -6.6497083    389.02891  0.036303556  0.036602844            4 
  894000     1.128906   -6.6512458    388.41432   0.03620566  0.036593824            3 
  895000     1.090804   -6.6558878    389.05196  0.036224577  0.036584628            4 
  896000    1.1204636   -6.7230886    388.93716  0.036173471  0.036575738            2 
  897000    1.1131586    -6.639998    389.84954  0.036217906  0.036566846            6 
  898000    1.1083168   -6.6930102    390.50786  0.036238666  0.036557653            5 
  899000    1.1257428   -6.6679361    390.40448  0.036188773  0.036548928            3 
  900000    1.0871138   -6.6707346    390.92551  0.036196806  0.036539986            5 
  901000    1.1312835   -6.6353165    392.22732  0.036277037  0.036531021            2 
  902000    1.0944639   -6.6307678     392.4222  0.036254822  0.036522147            2 
  903000    1.1099602   -6.6570088    392.14171  0.036188788  0.036513103            7 
  904000    1.0999105   -6.6378793    391.23144  0.036064845  0.036504012            5 
  905000    1.0800279   -6.6488947    393.62918  0.036245781  0.036495087            4 
  906000    1.0745356   -6.6382228    393.32477  0.036177775  0.036485938            7 
  907000    1.1072811   -6.6738291    392.98812  0.036106957  0.036476978            2 
  908000    1.1239171   -6.6418971    393.56869  0.036120474  0.036467905            3 
  909000    1.1124793   -6.6447858    393.82015  0.036103791  0.036458914            1 
  910000    1.1061573   -6.6334336    394.74807  0.036149091  0.036449785            3 
  911000    1.1033906   -6.6433691    392.62415  0.035915125  0.036440585            3 
  912000    1.1212067   -6.6532955    393.63113  0.035967757  0.036430948            3 
  913000    1.0918255   -6.6641051     395.2802  0.036078879  0.036421506            4 
  914000    1.1333938   -6.6757926    394.41698  0.035960702  0.036411987            5 
  915000    1.1097494   -6.6228768    396.03888  0.036069115  0.036403112            1 
  916000     1.109643   -6.6795618    396.23276  0.036047376   0.03639423            2 
  917000    1.1075029   -6.6263682    397.51142  0.036124266  0.036385192            1 
  918000    1.1146039   -6.6881814    396.29123  0.035974149  0.036375862            3 
  919000    1.1188555   -6.6825664    397.69064  0.036061901  0.036366946            3 
  920000    1.0975334   -6.6840754    397.69442  0.036023045  0.036357904            1 
  921000    1.0849135   -6.6448293    398.15141  0.036025281  0.036348803            2 
  922000    1.1094348   -6.6346423    397.91558  0.035964894  0.036339662            2 
  923000      1.10278    -6.628345    398.81234  0.036006892  0.036330753            2 
  924000    1.0836773   -6.6550405    400.40211  0.036111301  0.036321547            1 
  925000    1.1165492   -6.6637417    399.79636   0.03601769  0.036312821            3 
  926000    1.1087631   -6.6695555    400.44028  0.036036742  0.036303943            3 
  927000    1.0805721   -6.6931299    400.82215  0.036032196  0.036294994            3 
  928000    1.1168615   -6.6944273    401.81525  0.036082547  0.036286461            3 
  929000    1.0791825   -6.6879481    402.42322  0.036098244   0.03627792            2 
  930000    1.0926946   -6.6991205    403.59853  0.036164743  0.036269731            1 
  931000    1.1016357   -6.6616077    402.95846  0.036068605  0.036261693            2 
  932000    1.0988373   -6.6672248    403.08978  0.036041647  0.036253728            1 
  933000    1.1119051   -6.6932605    402.63726  0.035962599  0.036245522            4 
  934000    1.1123917   -6.6539812    403.58196  0.036008383  0.036237418            2 
  935000    1.1213962   -6.6793204    404.09362  0.036015474  0.036229063            2 
  936000    1.1029795    -6.699087    403.33508  0.035909462  0.036220583            2 
  937000    1.1187541   -6.6791688    403.26358  0.035864779  0.036211865            2 
  938000    1.0693706   -6.6814407    404.33547  0.035921772  0.036203045            1 
  939000    1.0960825   -6.6675418    405.59087   0.03599493  0.036194354            3 
  940000    1.0958542   -6.6745024    403.94509  0.035810735  0.036185428            2 
  941000    1.1194063   -6.7111179    404.15286  0.035791079  0.036176211            2 
  942000     1.083892   -6.6927624    405.59339  0.035880519  0.036166993            2 
  943000    1.0876126   -6.6814868     404.2769  0.035726131   0.03615764            6 
  944000    1.0893687    -6.619764    406.72045  0.035903995  0.036148613            3 
  945000    1.0956279   -6.6888389    405.97435  0.035800207  0.036139461            2 
  946000    1.0982279   -6.6562153     406.7351  0.035829378    0.0361302            4 
  947000    1.1146131   -6.6372474    406.58144  0.035778022  0.036121099            2 
  948000    1.1183915   -6.7153698    406.40411  0.035724693  0.036111861            3 
  949000    1.1071631   -6.6641273    407.60051  0.035792107  0.036102426            3 
  950000    1.1201006   -6.7020559    407.07014  0.035707907  0.036092809            2 
  951000    1.1161317   -6.6580861    407.32581  0.035692763  0.036083381            2 
  952000    1.0739696   -6.6879737    408.83345  0.035787242  0.036073976            3 
  953000    1.1078429   -6.6634208    408.46563  0.035717526  0.036064659            4 
  954000    1.1024258   -6.6424838    408.38877  0.035673373  0.036055419            2 
  955000    1.1001368   -6.6630822    409.92573  0.035770133  0.036046002            2 
  956000    1.1080287   -6.6733014    409.61558  0.035705682  0.036037024            1 
  957000    1.1033594   -6.6772502    410.28926  0.035727034  0.036028013            2 
  958000    1.1031366   -6.6619524    409.68225  0.035636939  0.036018844            2 
  959000    1.1090789   -6.6215344    410.31393  0.035654669  0.036009783            4 
  960000      1.09501    -6.666033    411.49833  0.035720341  0.036000775            3 
  961000    1.1067107   -6.6760931    410.93877  0.035634648  0.035991512            4 
  962000    1.0785715   -6.6802671     409.5356  0.035476057  0.035981896            3 
  963000    1.1102816   -6.6732117    412.00115  0.035652574  0.035972233            3 
  964000    1.1160903   -6.6876437    412.43205   0.03565284  0.035962863            2 
  965000    1.0846788   -6.6696961    412.69839  0.035638894  0.035953604            2 
  966000    1.0978577   -6.6731362    412.07877  0.035548548  0.035944301            3 
  967000    1.0927631   -6.7003388    411.74022  0.035482611  0.035934813            4 
  968000    1.0808114    -6.711135    411.87532  0.035457586  0.035925316            4 
  969000    1.0902591   -6.6740619    412.86942  0.035506486  0.035915676            1 
  970000    1.1005895   -6.7018959    412.97824   0.03547923  0.035905912            3 
  971000    1.1191454   -6.7142454    412.68975  0.035417933  0.035895888            4 
  972000    1.0880353   -6.6940079    413.53232  0.035453731  0.035885951            3 
  973000    1.1067381   -6.7371122    412.42983   0.03532287  0.035875926            4 
  974000    1.1042068   -6.7067675    413.36358  0.035366494  0.035865556            2 
  975000    1.1076903   -6.7088204    412.62002  0.035266668  0.035855367            3 
  976000    1.1100191   -6.7044168    412.17604  0.035192626  0.035844887            4 
  977000    1.0906937   -6.6786849    414.65148  0.035367748  0.035834509            1 
  978000    1.1106647   -6.6986036    414.14015  0.035288015  0.035824287            2 
  979000    1.1060248   -6.6713968    414.22825   0.03525947   0.03581389            2 
  980000    1.1014015   -6.6888323    415.32302  0.035316583  0.035803498            2 
  981000    1.1032999   -6.6744251    414.63232   0.03522191  0.035793036            2 
  982000    1.0767676   -6.6500189    416.32689  0.035329845  0.035782523            1 
  983000     1.092245   -6.6681058    416.01159  0.035267175  0.035772306            5 
  984000    1.1165251    -6.715519    416.62527  0.035283305  0.035761977            3 
  985000    1.1009198   -6.6637514    417.82329   0.03534884   0.03575182           10 
  986000    1.0837537   -6.6630242    418.25252  0.035349266  0.035741861            2 
  987000    1.0967507   -6.6725181    418.73119  0.035353866  0.035731658            5 
  988000    1.0822849   -6.6781045    417.74628   0.03523501  0.035721366            4 
  989000    1.0784081   -6.6864867    418.38866  0.035253511  0.035710666            3 
  990000    1.0845955   -6.6893874    418.46385   0.03522423  0.035700433            4 
  991000    1.0954779   -6.6846625    419.19061  0.035249799  0.035690193            4 
  992000    1.0770666   -6.7104157    418.55527  0.035160893  0.035680077            2 
  993000    1.0841935   -6.7082097    418.20282  0.035095907  0.035669834            3 
  994000    1.0941461   -6.6965003    419.50926  0.035170126  0.035659331            2 
  995000     1.080906   -6.6932298    419.41414  0.035126813  0.035648959            4 
  996000     1.092197   -6.6642616    420.62869  0.035193164  0.035638734            2 
  997000    1.0994232   -6.7190398    421.36585  0.035219479  0.035628838            5 
  998000     1.082133   -6.6846788    420.53286  0.035114634   0.03561889            3 
  999000    1.1061266   -6.6747091    422.00569  0.035202343  0.035608906            1 
 1000000    1.0928372   -6.6950043    423.66299  0.035305249   0.03559912            2 
 1001000    1.0795919   -6.7153997    423.22412  0.035233443  0.035589344            3 
 1002000    1.0939864   -6.7037634    422.76574  0.035160158  0.035579545            3 
 1003000    1.0659456   -6.6819299    423.89152  0.035218637  0.035569805            5 
 1004000    1.1150669   -6.6651259    423.64921  0.035163447  0.035560271            6 
 1005000    1.0955666   -6.6772032    424.74893  0.035219646  0.035550789            3 
 1006000    1.0745787   -6.7134752    424.39493  0.035155312  0.035541019            3 
 1007000    1.0806703   -6.6978816    423.99598  0.035087386  0.035531311            4 
 1008000    1.1086036   -6.6822653    425.40781  0.035169297  0.035521523            6 
 1009000    1.0993329   -6.7200028    423.52103  0.034978611  0.035511712            3 
 1010000    1.1030606    -6.662826    427.25732  0.035252254  0.035501962            2 
 1011000    1.0639416   -6.7050178    424.81265   0.03501588  0.035492352            1 
 1012000    1.0989612   -6.7007562    427.12792  0.035171931  0.035482657            2 
 1013000     1.049489   -6.6940875    427.16572  0.035140319  0.035472943            1 
 1014000    1.0943768   -6.7003173    425.68821  0.034984238  0.035463267            2 
 1015000    1.0974172   -6.7428865    427.04801  0.035061413  0.035453556            2 
 1016000    1.0980297   -6.6704682    428.36756  0.035135134  0.035443889            3 
 1017000    1.0777257   -6.6431436    428.29983  0.035095037   0.03543437            3 
 1018000    1.0677964   -6.7094988    426.83086  0.034940312  0.035424682            3 
 1019000    1.0869252   -6.6928652    428.11819  0.035011301  0.035414921            3 
 1020000    1.1016624   -6.6964973    429.02004  0.035050657    0.0354052            2 
 1021000     1.100803   -6.6987024     428.8988  0.035006432   0.03539563            2 
 1022000    1.0903247   -6.6725471    430.80193  0.035127359   0.03538604            3 
 1023000    1.1070724   -6.6924108    430.31488  0.035053347  0.035376692            6 
 1024000    1.0800261   -6.6665312    431.57155  0.035121383  0.035367331            2 
 1025000    1.0747579   -6.7195576    431.76824  0.035103109  0.035358196            5 
 1026000    1.0955343   -6.7051759    432.10634  0.035096356   0.03534872            2 
 1027000    1.0963773   -6.7089253    431.51385  0.035014107  0.035339504            3 
 1028000    1.0929296   -6.7398696     431.5099  0.034979726  0.035330137            3 
 1029000    1.0810368   -6.6985546    431.65188   0.03495723  0.035320743            2 
 1030000    1.0803069   -6.6963912     432.2689  0.034973212  0.035311387            3 
 1031000    1.1109186   -6.7112686    431.22101  0.034854592  0.035302128            3 
 1032000    1.0896344   -6.6924492    433.10594  0.034973025  0.035292503           20 
 1033000    1.1010087   -6.6792907     434.8549  0.035080259  0.035282982            2 
 1034000    1.0782604   -6.6612314    434.79428  0.035041447  0.035273803            2 
 1035000    1.0828317   -6.7198641    431.88916  0.034773684  0.035264278            3 
 1036000    1.0819155   -6.7269653    432.76744  0.034810766  0.035254624            3 
 1037000    1.0883319   -6.7258737    433.70162  0.034852267  0.035244893            1 
 1038000    1.0966112   -6.6993345    432.71511  0.034739491  0.035234821            3 
 1039000    1.0949396   -6.7073392    434.03053   0.03481156  0.035224842            5 
 1040000    1.0970741    -6.689619    435.45885  0.034892536  0.035215193            3 
 1041000    1.0639181   -6.6886203    434.74943  0.034802228  0.035205492            2 
 1042000    1.0834005   -6.6830543    436.38637  0.034899742  0.035195884            2 
 1043000    1.0963827   -6.6893884     436.7555  0.034895774  0.035186041            1 
 1044000    1.0859549   -6.6530263    435.71102  0.034778976  0.035176483            2 
 1045000    1.0828844   -6.7226426    435.54779  0.034732678  0.035166911            4 
 1046000    1.0811083   -6.7132724    436.62968  0.034785666  0.035157087            5 
 1047000    1.0845454   -6.6891748    436.86092  0.034770847  0.035147256            3 
 1048000     1.073248   -6.7229652    437.12817  0.034758919  0.035137512            5 
 1049000    1.0445154   -6.6774447    438.47832  0.034833041  0.035127885            2 
 1050000    1.0995009    -6.693659    439.05602  0.034845716  0.035118233            2 
 1051000    1.0764544   -6.6891362    439.35066  0.034835923   0.03510868            2 
 1052000    1.0967897   -6.7064721    439.03387  0.034777714  0.035098882            2 
 1053000    1.0775384   -6.6997372    438.89971   0.03473407  0.035089231            2 
 1054000    1.0769139   -6.7006474    440.29825  0.034811689  0.035079613            3 
 1055000    1.0750841   -6.7213096    440.01454  0.034756282  0.035070133            4 
 1056000    1.0865183   -6.7520884    439.92804  0.034716544  0.035060405            4 
 1057000    1.0627156   -6.7137422    440.26252  0.034710069  0.035050785            7 
 1058000    1.0926592   -6.6972483    440.79875  0.034719498  0.035041275            3 
 1059000    1.0905889   -6.7004429      440.604  0.034671388  0.035031556            4 
 1060000    1.0561027   -6.7135469    441.24422  0.034689011  0.035021871            3 
 1061000    1.0868037   -6.7315682    441.52168  0.034678109  0.035012132            3 
 1062000     1.078556    -6.703132    440.96178  0.034601521  0.035002647            4 
 1063000    1.0898309   -6.7094034    442.76546  0.034710369  0.034993313            3 
 1064000    1.0823597   -6.7116718    443.07969  0.034702357   0.03498411            4 
 1065000    1.0972903   -6.6749226    445.59077  0.034866257  0.034975188            3 
 1066000    1.0941094    -6.694302    444.45435  0.034744712  0.034966174            3 
 1067000    1.0960197   -6.7266845    444.58173  0.034722097  0.034957228            2 
 1068000    1.1009405   -6.7181022    446.52424  0.034841155  0.034948361            3 
 1069000    1.0880785   -6.6576929    445.53571  0.034731502  0.034939274            2 
 1070000    1.0828378   -6.7180205    445.39015  0.034687706  0.034930651            1 
 1071000     1.093057    -6.736465    446.39434  0.034733453  0.034921847            2 
 1072000    1.0715769   -6.6857523    447.74976  0.034806418  0.034913055            3 
 1073000    1.0831194   -6.7086059    446.56366  0.034681862  0.034904257            3 
 1074000    1.0866625   -6.7157579    447.23879  0.034701955   0.03489562            2 
 1075000    1.0953065   -6.6923309    448.19642  0.034743908  0.034887015            5 
 1076000     1.069488   -6.7169092    447.94358  0.034692037  0.034878321            2 
 1077000    1.0742077   -6.7022377    448.33116  0.034689814  0.034869595            1 
 1078000    1.0661503   -6.6566425    451.50261  0.034902799  0.034861136            2 
 1079000    1.0791843   -6.7060924    448.56507   0.03464358   0.03485272            5 
 1080000    1.0651805   -6.6934831    450.74378  0.034779613  0.034844291            5 
 1081000    1.0718623   -6.6759147    450.90743  0.034760055   0.03483612            3 
 1082000     1.075384   -6.7330374    449.62541   0.03462919  0.034827719            2 
 1083000    1.0896049   -6.6494296    451.68378    0.0347556  0.034819428            2 
 1084000    1.0728147   -6.6937793    451.83171   0.03473491  0.034811181            4 
 1085000    1.0786461   -6.7432686    450.61271  0.034609271  0.034802574            2 
 1086000    1.0956303   -6.6954242    451.77485  0.034666578  0.034794041            2 
 1087000    1.0748663   -6.6934112    451.31587  0.034599499  0.034785477            3 
 1088000    1.0710647   -6.7018606    452.87432  0.034687065  0.034776967            3 
 1089000    1.0623589   -6.7087653    452.76376  0.034646753  0.034768413            2 
 1090000    1.0560561   -6.7303438    453.38356  0.034662352  0.034759946            5 
 1091000    1.1071892   -6.7562572    451.82708  0.034511693  0.034751379            3 
 1092000     1.080327   -6.7169822    453.63336   0.03461793  0.034742919            4 
 1093000    1.0766184   -6.7335913    452.92488  0.034532242   0.03473446            3 
 1094000    1.0707281   -6.7019677    454.70951  0.034636617  0.034725917            4 
 1095000    1.0741813    -6.728734    454.51526  0.034590202  0.034717408            2 
 1096000    1.0946558   -6.7151798    455.33701  0.034621123  0.034708691            3 
 1097000    1.0939077   -6.6929133    455.12106  0.034573158   0.03470014            2 
 1098000    1.0695149   -6.7070718    455.92086  0.034602372  0.034691715            6 
 1099000    1.0814626   -6.7073996    454.77462  0.034483972  0.034683114            3 
 1100000    1.0552682   -6.7213017     456.5931  0.034590386  0.034674517            2 
 1101000    1.0651477   -6.7108422    455.18694  0.034452538  0.034665834            2 
 1102000    1.0854977   -6.7561627     456.1028  0.034490532   0.03465732            1 
 1103000    1.0667601   -6.7468962    455.75945  0.034433322  0.034648638            2 
 1104000    1.0647984   -6.7345171    457.58619  0.034540021   0.03464013            2 
 1105000    1.0771073   -6.7123225    456.21707   0.03440551  0.034631538            3 
 1106000    1.0734429   -6.6939898    457.75814  0.034490517  0.034623027            4 
 1107000    1.0831626   -6.7036211    456.94619  0.034398238  0.034614416            4 
 1108000    1.0457837   -6.7194864    457.31182  0.034394691  0.034605487            3 
 1109000    1.0952858    -6.697194    458.91153  0.034483884  0.034596903            3 
 1110000      1.07631   -6.6921832    461.10692  0.034617637  0.034588652            3 
 1111000    1.0702478   -6.7362484    459.38226  0.034457115  0.034580302            1 
 1112000    1.0730431   -6.7374532    460.10911  0.034480599  0.034571703            4 
 1113000    1.0922826   -6.7263923    459.90156  0.034434079  0.034563245            3 
 1114000    1.0701354     -6.75775    459.09367  0.034342734  0.034554649            3 
 1115000    1.0804184   -6.7441586    460.97764  0.034452739  0.034546166            2 
 1116000    1.0971419   -6.7334112    460.36418  0.034376059   0.03453782            4 
 1117000    1.0537888   -6.7236778    460.81796  0.034379137  0.034529445            6 
 1118000    1.0807396   -6.7031079    463.57167  0.034553642   0.03452118            4 
 1119000    1.0805703   -6.7309137    462.42972  0.034437721  0.034513002            2 
 1120000    1.0699496   -6.7314299    463.24959  0.034467975  0.034504778            3 
 1121000    1.1032182   -6.7093123    463.64859  0.034466889  0.034496717            3 
 1122000    1.0807349   -6.6839189    463.70731  0.034440531  0.034488618            3 
 1123000    1.0548017   -6.7031825    464.51475   0.03446978  0.034480436            1 
 1124000    1.0774267   -6.6944625      465.614  0.034520611  0.034472358            2 
 1125000     1.081637   -6.7621963    462.53237  0.034261657  0.034464225            2 
 1126000    1.0696681   -6.7361001     463.6037  0.034310516  0.034455926            6 
 1127000    1.0755232   -6.7288394    465.49598  0.034419993  0.034447887            4 
 1128000    1.0795104    -6.749497    464.84267  0.034341214  0.034439639            2 
 1129000    1.0720782   -6.7103383    464.52551  0.034287387   0.03443145            8 
 1130000    1.0627008   -6.7444827    467.49418  0.034475972  0.034423376            3 
 1131000    1.0594388   -6.7055097    467.46548  0.034443375  0.034415413            3 
 1132000    1.0741974   -6.7618707    465.30036   0.03425356   0.03440739            1 
 1133000    1.0682841   -6.7291436    467.25568  0.034367143  0.034399183            2 
 1134000    1.0940649   -6.7410445    465.49525   0.03420747  0.034391027            1 
 1135000    1.0849872   -6.7164537    467.74785  0.034342721  0.034382935            7 
 1136000    1.0411673   -6.7398729    467.22376  0.034274043   0.03437468            2 
 1137000    1.0698096   -6.7459461    467.73462  0.034281341  0.034366286            2 
 1138000    1.0629895   -6.7596203    467.88138  0.034261964   0.03435799            4 
 1139000    1.0544767   -6.7407331    467.70186  0.034218749  0.034349636            2 
 1140000    1.0961214   -6.7763118    467.88041  0.034201784  0.034341099            7 
 1141000    1.0672505   -6.7494097    470.23589  0.034343842  0.034332741            2 
 1142000    1.0558671   -6.7544766    468.40988  0.034180523  0.034324405            3 
 1143000    1.0511816   -6.6961202     468.7136  0.034172761  0.034316085            2 
 1144000    1.0724244    -6.758904    469.43026  0.034195095  0.034307921            4 
 1145000    1.0643114   -6.7703868     470.2079  0.034221827  0.034299773            2 
 1146000    1.0830727   -6.7223869    469.99377  0.034176394  0.034291606            4 
 1147000    1.0746585   -6.7054798    470.89051  0.034211749  0.034283502            3 
 1148000    1.0582792   -6.7315157    473.79617  0.034392869  0.034275515            3 
 1149000    1.0517657   -6.7405551    471.37213  0.034187129  0.034267384            2 
 1150000    1.0441817   -6.7439177    471.75449  0.034185108  0.034259482            5 
 1151000    1.0499211   -6.7628283    471.36124  0.034126936  0.034251423            3 
 1152000     1.068854   -6.7337899    474.02584  0.034290064    0.0342436            6 
 1153000    1.0770801   -6.7434951    472.38825  0.034141966  0.034235724            3 
 1154000    1.0600166    -6.715093    474.69019   0.03427861   0.03422786            3 
 1155000    1.0554483    -6.742866    475.03161  0.034273565  0.034219881            4 
 1156000    1.0710039   -6.7401436    474.22919  0.034186072  0.034211987            3 
 1157000    1.0583329   -6.7490945    475.21089  0.034227232  0.034203909            5 
 1158000    1.0841877   -6.7051214    476.20083  0.034268914  0.034196151            2 
 1159000    1.0790999   -6.7200062    475.17988  0.034165939  0.034188336            3 
 1160000    1.0733414   -6.7335676    476.28286  0.034215723  0.034180634            4 
 1161000     1.068142    -6.744601       477.07  0.034242751  0.034172827           10 
 1162000    1.0774259   -6.7064985     475.5583  0.034104869  0.034164911            3 
 1163000    1.0793566   -6.7330644    475.78056  0.034091471  0.034156865            5 
 1164000    1.0645289   -6.7354153    476.38432  0.034105407  0.034148817            4 
 1165000    1.0467121   -6.7472367    475.99634  0.034048379  0.034140598            3 
 1166000     1.080444   -6.7056615    477.73662  0.034143555  0.034132592            3 
 1167000    1.0479934   -6.7083842    478.49639  0.034168551  0.034124656            2 
 1168000    1.0627291   -6.7288876    477.91831  0.034098053  0.034116809            3 
 1169000    1.0558536   -6.7074741    479.49545  0.034181312  0.034109124            2 
 1170000    1.0706189    -6.758893    478.55665  0.034085231  0.034101412            4 
 1171000    1.0837112   -6.7382772    481.09087  0.034236469  0.034093768            3 
 1172000    1.0721964   -6.7581879    479.85133  0.034119122   0.03408623            1 
 1173000    1.0691742    -6.736735    480.01461  0.034101635  0.034078688            3 
 1174000    1.0720999      -6.7188    480.63683  0.034116754  0.034071032           11 
 1175000    1.0791597   -6.7576165    480.54713  0.034081357  0.034063326            4 
 1176000    1.0552958   -6.7692049    480.76449  0.034067779  0.034055679            6 
 1177000    1.0658165   -6.7479058     482.7206   0.03417733  0.034048428            3 
 1178000    1.0418514   -6.7089623    482.66886  0.034144656  0.034040962            5 
 1179000    1.0647628   -6.7339476    482.20382  0.034082826  0.034033611            2 
 1180000    1.0468805   -6.7507819    481.89689  0.034032267  0.034026306            3 
 1181000    1.0628843   -6.7329803    483.15224  0.034092029  0.034019024            2 
 1182000    1.0564106   -6.7350572    483.87794   0.03411435  0.034011897            6 
 1183000    1.0448857   -6.7078324    483.70611  0.034073408  0.034004814            4 
 1184000    1.0811603   -6.7484689    485.64155  0.034180852  0.033997592            2 
 1185000    1.0573016   -6.7078969      484.957  0.034103867  0.033990311            1 
 1186000    1.0463692   -6.7586697    484.96868  0.034075933  0.033983137            1 
 1187000    1.0673699   -6.7342967    486.82281  0.034177395  0.033975705            2 
 1188000    1.0640748   -6.7164183    487.36558  0.034186699  0.033968603            4 
 1189000    1.0474052   -6.7641033    486.59505  0.034103942  0.033961296            2 
 1190000    1.0755666   -6.7206219    488.25853  0.034191774  0.033954182            3 
 1191000     1.052246   -6.7398168    487.25855  0.034093097  0.033947053            2 
 1192000    1.0763361   -6.7443965    487.08357  0.034052263  0.033939951            6 
 1193000    1.0623111   -6.7604513    487.24208  0.034034792  0.033932789            3 
 1194000    1.0492109   -6.7646426    486.69886  0.033968374   0.03392552            2 
 1195000    1.0441667   -6.7593239     488.8133  0.034087399   0.03391807            2 
 1196000    1.0601616   -6.7454369    487.42376  0.033962079  0.033911009            3 
 1197000    1.0557219   -6.7556897    488.36931  0.033999534  0.033903673            3 
 1198000    1.0702357   -6.7072238    487.94636  0.033941733  0.033896256            3 
 1199000     1.041039   -6.7647619    489.10639   0.03399405  0.033888998            2 
 1200000    1.0718582   -6.7609519    489.46565   0.03399067  0.033881534            3 
 1201000    1.0424042    -6.751034    490.02282  0.034001028  0.033874199            5 
 1202000    1.0382067   -6.7664905    489.84637  0.033960508   0.03386686           12 
 1203000    1.0711185   -6.7703087    490.31818  0.033964961  0.033859331            2 
 1204000    1.0569488   -6.7336615    490.04761  0.033918024  0.033851998            4 
 1205000    1.0539545   -6.7438125    489.06681  0.033822048  0.033844628            4 
 1206000    1.0888058   -6.7807311    490.90354  0.033920919  0.033837168            3 
 1207000    1.0725494   -6.7652164    490.72543  0.033880519  0.033829682            4 
 1208000    1.0524139   -6.7686606    490.86946  0.033862408  0.033822311            3 
 1209000    1.0728946   -6.7522949     492.6923  0.033960042  0.033814942            5 
 1210000    1.0411631   -6.7580354    492.23936  0.033900782  0.033807717            3 
 1211000    1.0614187   -6.7536527    493.04553  0.033928264  0.033800468            4 
 1212000    1.0349171    -6.729492    492.81873  0.033884676   0.03379338            2 
 1213000    1.0736426   -6.7665031    493.95892  0.033935073  0.033786073            2 
 1214000    1.0582423   -6.7969826    492.65286  0.033817467  0.033778701            3 
 1215000    1.0378591   -6.7667312    492.37731  0.033770734   0.03377117            5 
 1216000    1.0782128   -6.7354593    494.52056  0.033889841  0.033763929            2 
 1217000    1.0488418    -6.735992    495.96345  0.033960795  0.033756723            3 
 1218000    1.0645361   -6.7460149    493.71527  0.033779096  0.033749533            4 
 1219000    1.0604992   -6.7424158     494.6267  0.033813693  0.033742285            4 
 1220000    1.0563099   -6.7743737    496.27419   0.03389851  0.033735224            5 
 1221000    1.0637084    -6.765386    496.89813  0.033913331  0.033728177            2 
 1222000    1.0733175   -6.6954856    497.00186  0.033892653  0.033721297            3 
 1223000    1.0558494   -6.7401813    497.01622  0.033865918  0.033714202            2 
 1224000    1.0550226   -6.7536141    497.99824  0.033905109  0.033707153            2 
 1225000      1.08026   -6.7991048    496.86959  0.033800652  0.033700132            3 
 1226000     1.029872   -6.7792391    497.23463  0.033797895  0.033692965            2 
 1227000    1.0580017   -6.7621699    497.38862  0.033780808  0.033685762            3 
 1228000    1.0560324   -6.7648594    498.25847  0.033812328  0.033678646            3 
 1229000    1.0396036   -6.7844708    497.45259  0.033730173  0.033671383            2 
 1230000     1.033181   -6.7434883    500.03505  0.033877713  0.033664392            3 
 1231000    1.0444345    -6.753899    498.85124  0.033770054  0.033657431            3 
 1232000    1.0673535   -6.7148684    499.72145  0.033801505  0.033650464            3 
 1233000    1.0447268   -6.7459874    501.17674  0.033872448  0.033643575            2 
 1234000    1.0606015   -6.8022397    500.65447  0.033809729  0.033636455            2 
 1235000    1.0428119    -6.754356    500.25682  0.033755521  0.033629359            3 
 1236000    1.0249186   -6.7765882    500.30454  0.033731428   0.03362241            4 
 1237000    1.0778341   -6.7470462    502.03524  0.033820752  0.033615401            4 
 1238000    1.0891561   -6.7484308    502.04165  0.033793864  0.033608512            7 
 1239000    1.0455923   -6.7744063    500.96079  0.033693892  0.033601607            6 
 1240000    1.0467625   -6.7535428    503.24877  0.033820482  0.033594713            5 
 1241000    1.0711953   -6.7117645    505.49172  0.033943844  0.033588173            1 
 1242000    1.0825585    -6.752981    505.61287  0.033924643   0.03358161            2 
 1243000    1.0575395   -6.7692874    504.54254  0.033825593  0.033575059            3 
 1244000    1.0558776   -6.7439355    503.32777  0.033717026  0.033568164            4 
 1245000    1.0411126    -6.763026    504.31567  0.033756069  0.033561394            3 
 1246000    1.0676358    -6.787465    505.28076  0.033793523  0.033554526            6 
 1247000    1.0418362   -6.7863539    504.57583  0.033719315  0.033547567            3 
 1248000    1.0448418   -6.7903686    504.24349  0.033670105  0.033540658            1 
 1249000    1.0670413   -6.6946961    505.45119  0.033723725  0.033533784            1 
 1250000    1.0614344   -6.7658811    503.71893  0.033581262  0.033526743            3 
 1251000     1.054741   -6.7142817    506.48105  0.033738413  0.033519716            2 
 1252000    1.0522052   -6.7402624    505.42224  0.033640991  0.033512646            2 
 1253000    1.0616898   -6.7720876    504.22614  0.033534593  0.033505662            2 
 1254000    1.0635302   -6.7540902     506.8657   0.03368326  0.033498664            2 
 1255000     1.039582   -6.7773956    505.38516  0.033558111  0.033491675            2 
 1256000    1.0194932   -6.7696016    506.85215  0.033628725  0.033484511            4 
 1257000    1.0264577   -6.8247684    506.74225  0.033594686  0.033477181            2 
 1258000    1.0360309   -6.7612541    507.70931  0.033632042  0.033469975            5 
 1259000    1.0517258   -6.7751139    507.12979   0.03356697  0.033462889            4 
 1260000    1.0231757   -6.7749067    509.53189  0.033699199  0.033455926            2 
 1261000    1.0243677   -6.8067137    506.38399  0.033464446  0.033448836            3 
 1262000    1.0406122   -6.8030096    508.42044  0.033572401  0.033441701            2 
 1263000    1.0510659   -6.7350394    509.20162  0.033597362  0.033434641            3 
 1264000    1.0469137   -6.7596059    511.42194  0.033717164  0.033427764            2 
 1265000    1.0669666   -6.7592668    509.19005  0.033543482  0.033420883            3 
 1266000    1.0396855   -6.7589071     511.4707  0.033667108  0.033413947            2 
 1267000     1.039556   -6.7694587    510.62273  0.033584763  0.033406921            4 
 1268000    1.0664942   -6.7808752    512.42476  0.033676706  0.033399874            2 
 1269000    1.0348351   -6.7561534    511.35712  0.033580058   0.03339273            3 
 1270000    1.0523231   -6.7558004    511.43571  0.033558774  0.033385525            3 
 1271000      1.05491   -6.7775824    510.47418  0.033469328  0.033378238            3 
 1272000    1.0500898   -6.7848979    510.41106   0.03343888  0.033370878            3 
 1273000    1.0516528   -6.7821013    511.18656  0.033463378  0.033363516            3 
 1274000    1.0493589   -6.7753619    511.81484  0.033478208  0.033356372            4 
 1275000    1.0534748   -6.8072216    511.99053  0.033463433  0.033349241            3 
 1276000     1.052141   -6.7651975    512.30062   0.03345746  0.033341922            2 
 1277000    1.0531178   -6.7904879    512.71399  0.033458235  0.033334651            3 
 1278000    1.0431361   -6.7523013    514.18472  0.033527955   0.03332753            1 
 1279000    1.0564566   -6.8163989    512.55668  0.033395666  0.033320547            3 
 1280000    1.0431097   -6.8009843    512.67187  0.033377075  0.033313393            4 
 1281000    1.0620032   -6.7652905    514.93358  0.033498151  0.033306111            6 
 1282000     1.035253     -6.73889    513.42842  0.033374182  0.033298941            3 
 1283000    1.0415965   -6.7413782    514.69915  0.033430706  0.033291626            3 
 1284000    1.0299824     -6.75077    514.26896   0.03337675  0.033284559            2 
 1285000    1.0521822   -6.8088201    515.21274   0.03341198  0.033277394            4 
 1286000    1.0703729   -6.7602728     514.6722  0.033350972   0.03327021            4 
 1287000      1.04161   -6.7846821    515.97218  0.033409232   0.03326293            1 
 1288000    1.0313061   -6.7754166     516.2717  0.033402672   0.03325548            3 
 1289000    1.0519786   -6.7992132    515.06933  0.033299025  0.033248085            5 
 1290000     1.067225   -6.7958659    515.94604  0.033329847  0.033240559            3 
 1291000    1.0502563   -6.7888184    517.10945  0.033379128  0.033233233            2 
 1292000    1.0034311   -6.7662331    516.41527  0.033308518  0.033225787            3 
 1293000    1.0359731    -6.777694    515.53412  0.033225968  0.033218393            4 
 1294000    1.0462772    -6.767706    515.92911  0.033225728  0.033210828            3 
 1295000    1.0415026   -6.7590996     516.0863  0.033210187  0.033203242            3 
 1296000    1.0395679   -6.8076515    515.79684  0.033165949  0.033195655            3 
 1297000     1.018577   -6.8240757    517.12958  0.033226007  0.033187986            3 
 1298000    1.0401898   -6.7761365     519.4526  0.033349551  0.033180477            2 
 1299000    1.0497793   -6.7612636    518.74394  0.033278415  0.033173274            6 
 1300000     1.042436   -6.8005908     519.2721  0.033286673  0.033165904            5 
 1301000    1.0391759   -6.8112745    518.88038  0.033235997  0.033158472            5 
 1302000      1.06313   -6.7748157    519.70889  0.033263498  0.033151133            2 
 1303000     1.032462    -6.780123    519.93991  0.033252744  0.033143923            3 
 1304000    1.0349547   -6.7876159    520.18657  0.033243007  0.033136698            2 
 1305000    1.0467496   -6.7803111    521.84371  0.033323353   0.03312942            3 
 1306000    1.0596887   -6.7466075    522.03845  0.033310263  0.033122492            4 
 1307000     1.024557   -6.7646647    520.99544  0.033218276  0.033115469            2 
 1308000    1.0287972   -6.8023846    521.20457  0.033206204  0.033108223            2 
 1309000    1.0421215   -6.8064112     521.1855  0.033179622  0.033101031            7 
 1310000    1.0288819   -6.7889256    521.73371  0.033189167  0.033093906            4 
 1311000    1.0520775    -6.785985    523.64987  0.033285652  0.033086758            4 
 1312000    1.0462215   -6.8215292    521.56435  0.033127817   0.03307953            7 
 1313000    1.0644473   -6.7579969    523.46324  0.033223105  0.033072455            4 
 1314000    1.0417585   -6.7727789    523.30975  0.033188087  0.033065368            5 
 1315000    1.0338469     -6.79541    525.66921  0.033312371   0.03305838            2 
 1316000    1.0439871   -6.8162988    523.37161  0.033141566  0.033051234            2 
 1317000    1.0193149   -6.7905683    523.58218  0.033129725  0.033043957            6 
 1318000    1.0317857   -6.7743553    525.37131  0.033217711  0.033036718            4 
 1319000    1.0664052   -6.8006728    523.69774  0.033086792  0.033029225            3 
 1320000    1.0424628   -6.8009079    523.12542  0.033025595  0.033021761            2 
 1321000    1.0606997   -6.7540195    523.20398   0.03300555  0.033014117            3 
 1322000    1.0410254   -6.7836524    525.55356  0.033128692  0.033006546            3 
 1323000    1.0639075    -6.761653     525.2094  0.033081973   0.03299891            4 
 1324000    1.0483482   -6.8034085    523.84688  0.032971229  0.032991316            3 
 1325000    1.0358602   -6.7712074    526.24397  0.033097105  0.032983945            3 
 1326000    1.0373823   -6.7629206    527.97818  0.033181132  0.032976636            3 
 1327000    1.0348039   -6.7617218    527.44341  0.033122545  0.032969391            3 
 1328000    1.0482652   -6.7943698    526.77419  0.033055609   0.03296202            4 
 1329000    1.0328443   -6.8007304     526.1497  0.032991579  0.032954593            4 
 1330000    1.0602944   -6.7834368    525.92916  0.032952955  0.032947246            1 
 1331000    1.0630759   -6.7602818    527.07124  0.032999702  0.032939765            6 
 1332000    1.0487979   -6.7949492    527.14761  0.032979705  0.032932317            2 
 1333000    1.0498035   -6.8171669    526.50277  0.032914652  0.032924762            1 
 1334000    1.0515676   -6.8076745    527.77219  0.032969277  0.032917055            4 
 1335000     1.048425    -6.788611    527.28627  0.032914249   0.03290951            2 
 1336000    1.0586631   -6.7587409    527.98542  0.032933222  0.032901972            1 
 1337000    1.0289976   -6.8134666    528.10671   0.03291615  0.032894322            2 
 1338000    1.0412608   -6.7954702    526.66276  0.032801617  0.032886599            5 
 1339000    1.0470692   -6.7502386    529.02639  0.032924221  0.032878746            2 
 1340000    1.0439117   -6.7776726    528.56784  0.032871134  0.032870859            3 
 1341000    1.0609201    -6.770652    528.03627  0.032813588  0.032862968            3 
 1342000    1.0476166   -6.7670577     528.2261  0.032800925  0.032855142            1 
 1343000      1.06338   -6.7896923    528.92647   0.03281996  0.032847182            3 
 1344000    1.0328459   -6.7894257    528.85816  0.032791304  0.032839284            6 
 1345000    1.0383517   -6.8241091    528.48899  0.032744051  0.032831337            2 
 1346000    1.0240428   -6.7843588    530.18645  0.032824817   0.03282353            3 
 1347000    1.0587433   -6.8010767    529.25637  0.032742908  0.032815645            3 
 1348000    1.0317182   -6.7962248    529.77077  0.032750419  0.032807781            7 
 1349000    1.0630283   -6.8445338    530.04308  0.032742963  0.032800039            3 
 1350000    1.0315797   -6.7988619    531.75973  0.032824675  0.032792205            2 
 1351000    1.0310397   -6.7550605    530.89253  0.032746887  0.032784302            2 
 1352000    1.0209278   -6.8173391    529.84756  0.032658257  0.032776317            2 
 1353000    1.0386503   -6.8235951    530.91966  0.032700151  0.032768315            3 
 1354000     1.039179   -6.7673886    532.23334  0.032756852   0.03276043            4 
 1355000    1.0455698   -6.7828614    532.53268  0.032751087  0.032752634            2 
 1356000     1.055651   -6.7954344    533.56581  0.032790426  0.032744707            4 
 1357000    1.0433964   -6.8168755    531.99582  0.032669849  0.032736704            3 
 1358000    1.0325805   -6.7959381    533.31264  0.032726598  0.032728708            3 
 1359000    1.0277032   -6.7614371    534.05462  0.032748014   0.03272092            3 
 1360000    1.0241702   -6.7845945     534.3149  0.032739883  0.032713251            4 
 1361000    1.0290171   -6.7903797    533.91222  0.032691172  0.032705402            4 
 1362000    1.0357996   -6.8144166    532.85273  0.032602345  0.032697609            6 
 1363000    1.0486978   -6.7938103    534.88877  0.032702908  0.032689817            2 
 1364000    1.0579405   -6.7939553    535.11387  0.032692685  0.032682027            3 
 1365000    1.0239863   -6.8168144    532.68489  0.032520445  0.032674032           10 
 1366000    1.0417858   -6.8291498    533.63925  0.032554859  0.032666118            4 
 1367000    1.0293723    -6.759338    536.44138  0.032701864  0.032658147            2 
 1368000     1.056552   -6.7989501    535.05656  0.032593602  0.032650241            3 
 1369000    1.0595554   -6.7803992    534.63002  0.032543829  0.032642381            3 
 1370000    1.0426683   -6.8143947    535.12951  0.032550457  0.032634406            3 
 1371000    1.0061159   -6.8117779     536.7501  0.032625219  0.032626406            7 
 1372000    1.0363547   -6.8552065     536.0856  0.032561078   0.03261841            2 
 1373000    1.0390383    -6.843823    535.39184  0.032495256  0.032610463            2 
 1374000    1.0181084   -6.7682597    537.54643  0.032602282  0.032602521            3 
 1375000    1.0433269   -6.8004864    536.21214  0.032497705  0.032594572            3 
 1376000    1.0229625   -6.8509632    536.79928  0.032509646  0.032586457            6 
 1377000    1.0308094   -6.8385118    537.24294  0.032512887  0.032578314            2 
 1378000    1.0251529    -6.792022    536.45717  0.032441774  0.032570205            4 
 1379000    1.0198346   -6.8201783    538.36326  0.032533434  0.032561886            3 
 1380000    1.0225441   -6.7806082    539.65258  0.032587716  0.032553993            2 
 1381000    1.0414891   -6.8003002    538.66958  0.032504802  0.032546119            5 
 1382000    1.0213963   -6.8161942    537.98303  0.032439883  0.032538225            2 
 1383000    1.0304965   -6.8206374    540.93134  0.032594079   0.03253039            3 
 1384000    1.0352443   -6.7868502     538.9676  0.032452288  0.032522512           10 
 1385000    1.0468314   -6.8027684    539.33535  0.032450984   0.03251476            3 
 1386000    1.0350896   -6.8263874    538.65573  0.032386708  0.032507056            2 
 1387000    1.0447732   -6.8010823    542.99775  0.032624234  0.032499377            3 
 1388000    1.0280372   -6.8034082    540.73613  0.032464945   0.03249163            3 
 1389000    1.0102676   -6.8023069    541.62804  0.032495083  0.032483884            6 
 1390000    1.0396533   -6.8077184    541.73386  0.032478049  0.032476271            3 
 1391000    1.0094432   -6.8054023    542.58748   0.03250584  0.032468559            4 
 1392000    1.0233666   -6.8018963    541.90971  0.032441913  0.032460704            6 
 1393000    1.0212386    -6.847208    540.21636  0.032317322  0.032452758            7 
 1394000     1.031664   -6.8248233    541.84889  0.032391732  0.032444736            3 
 1395000    1.0241734   -6.7828254    541.70027  0.032359634  0.032436819            3 
 1396000    1.0362027   -6.8528031    542.14017  0.032362713  0.032428909            4 
 1397000    1.0411119   -6.8116505     541.0886  0.032276819   0.03242103            3 
 1398000    1.0284033   -6.8156285    541.12834    0.0322561  0.032412916            4 
 1399000    1.0345075   -6.8368325    543.87899   0.03239689  0.032404782            3 
 1400000    1.0142783   -6.8476093     540.6007  0.032178613  0.032396564            2 
 1401000    1.0303138   -6.8502736       542.98  0.032297169  0.032388378            5 
 1402000    1.0439172   -6.7635257    545.35914  0.032415545  0.032380276            3 
 1403000    1.0176203   -6.8100591    543.95444  0.032309007  0.032372261            5 
 1404000    1.0169551    -6.819858    543.60124  0.032265031  0.032364139            4 
 1405000    1.0345336   -6.8142274    545.98633  0.032383531  0.032356028            2 
 1406000    1.0064656   -6.8075182    545.00777    0.0323025  0.032347937            4 
 1407000    1.0173129   -6.7728391      542.779  0.032147536   0.03233964            4 
 1408000    1.0163113   -6.7895205    544.24151  0.032211264  0.032331431            3 
 1409000    1.0086485   -6.8116519    545.53926  0.032265156  0.032323041            3 
 1410000    1.0246529   -6.7849017    544.76532  0.032196532  0.032314848            4 
 1411000    1.0546575   -6.8133652    544.58017  0.032162779  0.032306671            2 
 1412000    1.0313219   -6.8220513    545.23249  0.032178499   0.03229843            3 
 1413000    1.0070023   -6.8493799    545.44553   0.03216829  0.032290184            2 
 1414000    1.0187288   -6.8126479    546.96812  0.032235273  0.032281932            2 
 1415000    1.0254315   -6.8146321    547.00827  0.032214857  0.032273822            6 
 1416000     1.032415    -6.825556    547.64573  0.032229622  0.032265743            2 
 1417000    1.0103852    -6.837495    547.34481   0.03218918  0.032257513            5 
 1418000    1.0302719   -6.8595756    546.45448  0.032114156   0.03224944            4 
 1419000    1.0142051   -6.8231024     547.9196  0.032177567  0.032241394            2 
 1420000    1.0205282   -6.8100677    549.78772  0.032264537  0.032233357            4 
 1421000    1.0479181   -6.7957471    549.21827  0.032208437   0.03222538            5 
 1422000    1.0170479   -6.8313835     550.0927  0.032237031  0.032217436            3 
 1423000    1.0714765   -6.7995139    550.71197  0.032250642   0.03220944            3 
 1424000    1.0324027   -6.8012585    548.00793  0.032069753  0.032201469            4 
 1425000     1.009721   -6.8110369    548.51022  0.032076621   0.03219343            4 
 1426000    1.0031218   -6.8497885    550.47154  0.032168744  0.032185352            1 
 1427000     1.006514   -6.8119195    550.56057    0.0321514  0.032177385            4 
 1428000    1.0235421   -6.8105456    550.79255  0.032142422  0.032169345            3 
 1429000   0.99763106   -6.8195739    550.48645  0.032102079  0.032161281            4 
 1430000    1.0075563    -6.862191    549.33646  0.032012614  0.032153354            1 
 1431000     1.022912   -6.8265882    549.94105  0.032025451  0.032145313            2 
 1432000    1.0101935   -6.8285636    552.46111  0.032149739  0.032137244            2 
 1433000    1.0255058   -6.8399671    553.25907  0.032173708  0.032129264            4 
 1434000    1.0233506   -6.8271348    551.58859  0.032054195    0.0321213            4 
 1435000    1.0324971   -6.8173221    551.90349  0.032050145  0.032113148            3 
 1436000    1.0156366   -6.8269489    554.27286  0.032165324  0.032105093            2 
 1437000    1.0139172   -6.7900443    553.11358  0.032075712  0.032097154            3 
 1438000    1.0300832   -6.8211059    553.95672  0.032102267  0.032089274            5 
 1439000    1.0244924   -6.8593298    553.27375  0.032040407  0.032081419            4 
 1440000    1.0119057    -6.850185    551.51269  0.031916244  0.032073534            3 
 1441000    1.0078181   -6.7843423    553.25113  0.031994629  0.032065586            3 
 1442000    1.0282641   -6.7987234    554.41604  0.032039762  0.032057663            2 
 1443000   0.99485517   -6.8708456    554.12477  0.032000737   0.03204973            4 
 1444000    1.0425188   -6.8229708    553.53169   0.03194435  0.032041734            4 
 1445000     1.007396   -6.8561183    555.36618  0.032028038  0.032033743            2 
 1446000    1.0135652   -6.8271908    556.37246  0.032063881  0.032025865            2 
 1447000    1.0170279   -6.7857568    557.66312  0.032116052  0.032018235            3 
 1448000    1.0326973   -6.8449139    556.58582  0.032031873  0.032010631            3 
 1449000     1.011919   -6.8507687    556.54502   0.03200742  0.032003025            3 
 1450000    1.0078088   -6.7982491    557.97726  0.032067659  0.031995395            4 
 1451000   0.99770508   -6.8409428    558.68832  0.032086396  0.031987906            3 
 1452000    1.0331681   -6.8384833    556.67369  0.031948673  0.031980155            3 
 1453000    1.0028275   -6.8410428    557.32315  0.031963934  0.031972464            3 
 1454000    1.0078599   -6.8319157    557.47594  0.031950707  0.031964874            2 
 1455000    1.0140754   -6.8245378    557.24028  0.031915251   0.03195713            4 
 1456000    0.9972825   -6.8485985     557.3288  0.031898397  0.031949208            2 
 1457000    1.0521564   -6.8555295    558.83584    0.0319627  0.031941426            3 
 1458000     1.026062   -6.7954221     558.8295  0.031940415  0.031933641            2 
 1459000    1.0368103   -6.8346781    558.47793  0.031898442  0.031925753            2 
 1460000    1.0127082   -6.8334353    560.08196  0.031968149  0.031917826            2 
 1461000    1.0204878   -6.8418967    557.39454  0.031792981   0.03190982            6 
 1462000   0.99291726   -6.8373054    557.32219  0.031767111  0.031901773            4 
 1463000    1.0237035   -6.8079106    558.36775  0.031804953  0.031893945            2 
 1464000    1.0374482   -6.8125179    559.06895  0.031823142  0.031885951            2 
 1465000     1.014875   -6.8362513    558.28831  0.031757014  0.031877922            3 
 1466000   0.98663331    -6.827011    559.51836  0.031805273  0.031869688            3 
 1467000   0.99475584   -6.8477226    559.25784  0.031768793  0.031861487            3 
 1468000    1.0064833   -6.8514734    559.52035  0.031762054  0.031853241            2 
 1469000    1.0312527   -6.8349171    558.54614  0.031685168  0.031845109            3 
 1470000    1.0163483   -6.8733443    558.66743  0.031670489   0.03183684            3 
 1471000     1.014274   -6.8389571    559.91165  0.031719446  0.031828562            2 
 1472000     1.009403    -6.828073    560.40409  0.031725775  0.031820416            5 
 1473000    1.0255281   -6.8474193    561.66449  0.031775543  0.031812201            2 
 1474000    1.0218889   -6.8969015    559.53474  0.031633579  0.031803987            3 
 1475000    1.0320008   -6.8499965     560.8504  0.031686463  0.031795847            2 
 1476000    1.0090807    -6.800612     563.4921  0.031814143  0.031787844            4 
 1477000    1.0076249   -6.8522803    561.85582  0.031700283  0.031779844            2 
 1478000    1.0118911   -6.8505379    561.17989  0.031640725  0.031771533            5 
 1479000    1.0100274   -6.8410274    562.40787  0.031688521  0.031763276            4 
 1480000    1.0076653   -6.8463884     561.2829  0.031603767  0.031755016            2 
 1481000    1.0184817   -6.8293635    564.35648  0.031755373  0.031746872            3 
 1482000    1.0035912     -6.82413    563.98118  0.031712842  0.031738882            4 
 1483000    1.0187501   -6.8661742    561.99601  0.031579906  0.031730676            6 
 1484000     1.024156   -6.8556338    562.02401  0.031560198  0.031722424            2 
 1485000    1.0171639   -6.8408116    563.69628  0.031632788  0.031714164            4 
 1486000    1.0122244   -6.8640055    564.50961  0.031657111  0.031706012            9 
 1487000    1.0434498   -6.8352121    563.50744  0.031579659  0.031697697            6 
 1488000     1.000854   -6.8169037    563.41954  0.031553514   0.03168959            6 
 1489000    1.0136131   -6.8553456    563.34284   0.03152803  0.031681622            4 
 1490000   0.99829058    -6.821759    565.47035  0.031625858  0.031673499            2 
 1491000     1.024223   -6.8378216    565.16111  0.031587363  0.031665312            3 
 1492000    1.0189644   -6.8397216    565.23474  0.031570305  0.031657164            1 
 1493000    1.0277005   -6.8074195    566.21229  0.031603723  0.031649073            3 
 1494000    1.0166751   -6.8351137    567.39756  0.031648681  0.031640989            3 
 1495000     1.022293   -6.8177074    566.66209  0.031586515  0.031632881            3 
 1496000    1.0158777   -6.8329117    568.31959  0.031657731  0.031624854            6 
 1497000    1.0204823   -6.8282008    566.09158  0.031512557  0.031616648            2 
 1498000    1.0269933   -6.8287512    567.67711  0.031579724  0.031608548            3 
 1499000   0.99603216   -6.8644726    567.56631  0.031552496  0.031600465            7 
 1500000    1.0110714   -6.8625742    569.07454  0.031615252  0.031592363            4 
 1501000    1.0000401   -6.8311788    568.71464  0.031574208  0.031584357            3 
 1502000    1.0105192   -6.8654237    567.94002   0.03151021  0.031576245            5 
 1503000    1.0206031   -6.8374502    568.12724  0.031499625  0.031568277           10 
 1504000    1.0009353   -6.8285532    569.42177  0.031550408  0.031560397            3 
 1505000    1.0172622   -6.8402575    569.75617  0.031547961  0.031552454            3 
 1506000     1.008407    -6.869057    570.13134  0.031547772  0.031544439            4 
 1507000    1.0029721   -6.8810469    570.01175  0.031520225  0.031536414            6 
 1508000    1.0117545   -6.8621667    570.62741  0.031533345  0.031528384            3 
 1509000    1.0233407    -6.864914    572.19215  0.031598859  0.031520505            3 
 1510000    1.0078059   -6.8073183     570.9458   0.03150915  0.031512698            7 
 1511000   0.98711407   -6.8451832    571.25844  0.031505539   0.03150487            3 
 1512000    1.0002432   -6.8447517    571.71567  0.031509902  0.031496967            5 
 1513000    1.0092591   -6.8548431    570.81113  0.031439256  0.031489042            6 
 1514000   0.99042373   -6.8414573    571.54606  0.031458942  0.031481141            2 
 1515000    1.0183585   -6.8528753    571.92479   0.03145901  0.031473252            2 
 1516000    1.0037582   -6.8535239    571.81617  0.031432287  0.031465367            3 
 1517000    1.0174998    -6.865255    571.04719  0.031369325  0.031457449            6 
 1518000    1.0091012   -6.8322304    573.32852  0.031473897  0.031449521            6 
 1519000    1.0398682   -6.8722957    573.09591  0.031440416   0.03144171            1 
 1520000   0.98958678    -6.873268    573.27809   0.03142972   0.03143372            3 
 1521000    1.0176614    -6.860976    572.36558  0.031359061  0.031425698            2 
 1522000   0.97301747   -6.8634619    573.17751  0.031382912  0.031417669            2 
 1523000    1.0104765   -6.8530058    572.63156  0.031332434  0.031409682            3 
 1524000    1.0234228   -6.8883824    573.38867  0.031353274  0.031401628            3 
 1525000    1.0018023   -6.8408142    573.43415  0.031335199   0.03139365            3 
 1526000    1.0256103   -6.8312658    573.61557  0.031324572  0.031385639            3 
 1527000   0.99601405   -6.8042109    576.43052  0.031457679  0.031377567            2 
 1528000    1.0079699   -6.8805126    574.79655  0.031347979  0.031369472            7 
 1529000   0.99828642   -6.8556187    573.27473  0.031244535  0.031361353            3 
 1530000    0.9977651   -6.8506227    574.34038  0.031282156  0.031353237            3 
 1531000    1.0047143   -6.8488716    573.98372   0.03124231  0.031345086            2 
 1532000    1.0170829   -6.8420746     573.8726  0.031215872  0.031336888            4 
 1533000   0.99766059   -6.8560274    575.28992  0.031272555   0.03132866            2 
 1534000   0.99716922    -6.846046    575.67573  0.031273128  0.031320482            2 
 1535000   0.99632584   -6.8729279    573.98756  0.031161105  0.031312218            2 
 1536000   0.97933429   -6.8591064    574.33828  0.031159846  0.031303937            4 
 1537000    1.0157332   -6.8285129    575.70869  0.031213874  0.031295672            8 
 1538000    1.0004892   -6.8629787    576.69771  0.031247167  0.031287421            3 
 1539000    1.0232099   -6.8780186    575.70401  0.031173057  0.031279179            5 
 1540000    1.0167427   -6.8128864      577.521  0.031251137  0.031270954            3 
 1541000    1.0021246   -6.8542228    578.24575  0.031270049  0.031262797            5 
 1542000    1.0196456   -6.8300458    575.65649   0.03110984  0.031254622            3 
 1543000    1.0096339   -6.8403823    576.80058  0.031151468  0.031246358            2 
 1544000   0.98937194   -6.8530988    576.91783   0.03113762  0.031238034            5 
 1545000   0.99986091   -6.8335438    575.45509   0.03103857  0.031229712            6 
 1546000    1.0011814   -6.8633591    575.07041  0.030997758  0.031221363            2 
 1547000    1.0123546   -6.8415991    577.67236  0.031117882   0.03121298            2 
 1548000    0.9815236   -6.8637764    576.54732  0.031037216  0.031204569           15 
 1549000    1.0005893   -6.8420739    577.80508  0.031084844  0.031196223            2 
 1550000   0.98125606   -6.8444454    578.62554    0.0311089  0.031187867            4 
 1551000   0.99729249   -6.8770553    578.13589  0.031062534  0.031179463            5 
 1552000    0.9779445    -6.861743      578.643  0.031069749  0.031171139            2 
 1553000   0.98118662   -6.8623521    578.51906  0.031043092  0.031162694            4 
 1554000    0.9906396   -6.8549674     578.6839  0.031031955  0.031154287            4 
 1555000   0.99789231   -6.8904417    578.09006  0.030980175  0.031145907            3 
 1556000   0.99140893   -6.8811954    578.58256  0.030986641  0.031137584            5 
 1557000    1.0049438   -6.8396891    580.50558  0.031069663  0.031129356            3 
 1558000     1.008601   -6.8482503    578.39747  0.030936964  0.031121195            3 
 1559000   0.97650536   -6.8640124    580.73338  0.031041981   0.03111301            3 
 1560000    1.0066845   -6.8411485    582.21687  0.031101328  0.031104875            3 
 1561000    1.0114341   -6.8300446    580.40037  0.030984432  0.031096693            2 
 1562000    1.0192809   -6.8913434     581.2974  0.031012452  0.031088524            2 
 1563000    1.0178259   -6.8249099    581.68891  0.031013484  0.031080463            2 
 1564000    1.0037811   -6.8842428    581.96795  0.031008523  0.031072471            4 
 1565000    1.0051291   -6.8394634    583.61742   0.03107654  0.031064435            2 
 1566000    1.0148155   -6.8746387    583.65262  0.031058568  0.031056425            3 
 1567000    1.0040391   -6.8378791    582.81487  0.030994197  0.031048266            2 
 1568000   0.98009605   -6.8434553    583.01079  0.030984842  0.031040036            5 
 1569000   0.99976663   -6.8337161    582.92733  0.030960661  0.031031818            4 
 1570000     1.018905   -6.8542337    582.71268  0.030929548  0.031023724            3 
 1571000   0.99086712   -6.8451939    583.13011  0.030932003  0.031015497            3 
 1572000   0.99082519   -6.8675453     584.8489   0.03100344  0.031007275            2 
 1573000    1.0064598   -6.8446438    584.05112  0.030941467  0.030999033            3 
 1574000    1.0085932    -6.897113    582.60548  0.030845271  0.030990942            4 
 1575000    1.0160154   -6.8623498    583.89261  0.030893789  0.030982856            3 
 1576000   0.99722588   -6.8832484     583.8787   0.03087345  0.030974652            2 
 1577000    1.0118861   -6.8554047    585.59642  0.030944643  0.030966472            3 
 1578000   0.99563608    -6.880859     584.1155  0.030846826  0.030958296           12 
 1579000   0.97585572   -6.8829668    586.11746  0.030932946   0.03095014            3 
 1580000   0.97825863    -6.844503    585.99314  0.030906811  0.030942118            4 
 1581000   0.98757072   -6.8653341    585.75064   0.03087448  0.030934108            2 
 1582000     1.014532   -6.8553704    585.69463  0.030852014  0.030925977            3 
 1583000    1.0163522   -6.8329286    585.59877  0.030827478  0.030917958            6 
 1584000     1.023709   -6.8294453    586.78675  0.030870515  0.030909836            7 
 1585000    0.9899574   -6.8784428    587.59971  0.030893781  0.030901806            2 
 1586000    1.0191223   -6.9062615    585.65846  0.030772302  0.030893712            3 
 1587000   0.99146893   -6.8828297     588.1275  0.030882561   0.03088574            2 
 1588000   0.97326496   -6.8575762    587.96506   0.03085459  0.030877803            3 
 1589000    1.0043746   -6.8494928    587.72609   0.03082264  0.030869842            3 
 1590000   0.97923801   -6.8661717    588.36574  0.030836779  0.030861793            3 
 1591000    1.0039874   -6.8857671    588.15296  0.030806252  0.030853768            3 
 1592000   0.99471455     -6.87634     588.8558  0.030823691  0.030845611            5 
 1593000   0.98384982   -6.8528681    588.56574  0.030789168  0.030837477            1 
 1594000   0.97388492   -6.9005523    589.06946  0.030796187  0.030829319            2 
 1595000   0.98287821   -6.8818104    589.11675  0.030779349  0.030821119            6 
 1596000   0.98603242   -6.8947643    587.91529  0.030697331  0.030812887            4 
 1597000   0.97798131   -6.8830246    588.01759  0.030683447  0.030804698            6 
 1598000    1.0041808     -6.88769    589.52144   0.03074267  0.030796464            2 
 1599000    1.0148681   -6.8831042     588.4006   0.03066503  0.030788351            7 
 1600000   0.99573191   -6.8762483    589.55464  0.030705971  0.030780277            3 
 1601000    1.0043864   -6.8987799    590.22178  0.030721517  0.030772132            2 
 1602000     1.001414   -6.8900542    590.28235   0.03070549  0.030763992            5 
 1603000    1.0114853   -6.8598105    590.59201  0.030702433   0.03075598            5 
 1604000   0.99600117    -6.903661     590.1728  0.030661513   0.03074798            4 
 1605000   0.98255361   -6.8644712    592.74016  0.030775709  0.030739948            2 
 1606000   0.99873485   -6.8383188    591.88037  0.030711933  0.030731996            2 
 1607000   0.99870076   -6.8728263      590.574  0.030625078  0.030724027            3 
 1608000   0.99023692   -6.8689842    591.25467  0.030641308  0.030716038            2 
 1609000   0.99028198    -6.847266    592.46899  0.030685156  0.030707971            3 
 1610000   0.99666986   -6.8929453    593.16696  0.030702223  0.030699934            3 
 1611000   0.97727633   -6.8933728    593.12142   0.03068081  0.030691898            2 
 1612000   0.98909793   -6.8629036    594.13998  0.030714432  0.030683963            3 
 1613000   0.99827952   -6.8768519    594.06387  0.030691458   0.03067615            3 
 1614000   0.99922623   -6.8773201    594.82255  0.030711615  0.030668389            4 
 1615000   0.98836073    -6.913246    595.41464   0.03072315  0.030660566            3 
 1616000   0.97347329   -6.8976602    595.21777  0.030693985  0.030652775            3 
 1617000    1.0048347   -6.8548064    596.25354  0.030728383  0.030645065            1 
 1618000   0.97514356   -6.8723122    595.50136  0.030670651  0.030637357            1 
 1619000   0.98058974   -6.8917555    595.63368  0.030658518  0.030629552            4 
 1620000   0.98535303   -6.8634557    596.32828  0.030675323  0.030621675            2 
 1621000    1.0134634   -6.8682683    597.68053  0.030725916  0.030614033            3 
 1622000   0.99450509    -6.859665    597.83185  0.030714748  0.030606353            3 
 1623000   0.99333317   -6.8791148    596.05785  0.030604737  0.030598458            5 
 1624000    1.0070569   -6.8571544    598.27617  0.030699721  0.030590608            3 
 1625000   0.99153422    -6.852852    596.78291  0.030604252  0.030582808            3 
 1626000   0.97929708   -6.9053206    595.56317  0.030522918  0.030574996            3 
 1627000    1.0161846   -6.8640036    597.13498  0.030584664  0.030567214            6 
 1628000   0.98795435   -6.8604628    598.57475  0.030639576  0.030559461            5 
 1629000   0.99817401   -6.9165531    597.07226  0.030543905  0.030551743            5 
 1630000   0.99761579   -6.9038479    597.30937  0.030537289  0.030544024            3 
 1631000   0.97939828    -6.882678    598.70156  0.030589698  0.030536416            3 
 1632000   0.99757821   -6.9167486    597.82255   0.03052607  0.030528695            3 
 1633000   0.98790678    -6.881481    600.55723  0.030646929   0.03052099            3 
 1634000   0.98511887   -6.8676847    600.34297  0.030617246  0.030513352            2 
 1635000   0.98287181   -6.8896473    599.22378  0.030541477  0.030505869            5 
 1636000    1.0079038   -6.8753474    600.56855  0.030591308  0.030498299            2 
 1637000   0.97608889   -6.8918798    599.71905  0.030529375  0.030490688            2 
 1638000   0.98252991   -6.8800814    600.32833  0.030541734  0.030483103            8 
 1639000   0.97208688   -6.8741242    601.95793  0.030605955  0.030475594            4 
 1640000   0.99766623   -6.8853451    600.72028  0.030524404  0.030468028            4 
 1641000    1.0038944   -6.8757332     602.2614  0.030584065  0.030460454            2 
 1642000   0.98517781   -6.8680044    601.53996  0.030528825  0.030452898            5 
 1643000   0.99472551   -6.9005853    599.89693  0.030426909  0.030445072            5 
 1644000    0.9764694   -6.9295088    601.49011  0.030489158  0.030437437            3 
 1645000   0.97909207   -6.8764141    602.71922  0.030532888  0.030429672            3 
 1646000   0.97842356   -6.9136247    601.05454   0.03043006  0.030421891            3 
 1647000   0.99131961   -6.8847038    599.97936  0.030357183  0.030414064            4 
 1648000   0.98196235   -6.8874375     602.1076  0.030446379  0.030406208            6 
 1649000    1.0182589   -6.8571701    601.99118  0.030422033  0.030398356            3 
 1650000   0.98149849   -6.8519877    602.75998  0.030442423  0.030390598            2 
 1651000    1.0052803   -6.8713867    603.15527  0.030443937  0.030382906            3 
 1652000   0.97084521   -6.9151109     600.8443  0.030308934  0.030375086            4 
 1653000   0.99007565   -6.8829934    603.58364  0.030428697   0.03036731            7 
 1654000    1.0025611   -6.8933249    603.47013  0.030404581  0.030359479            2 
 1655000   0.97917327   -6.8877331     603.6818  0.030396868   0.03035173            5 
 1656000   0.98336513   -6.9061561    602.18345  0.030303112   0.03034391            3 
 1657000    1.0021068   -6.9145145    602.26895  0.030289124  0.030335936            4 
 1658000    1.0065679   -6.8676936    604.91034  0.030403616  0.030328022            3 
 1659000   0.98180187   -6.8873067    603.89328  0.030334202  0.030320189            4 
 1660000   0.99314422   -6.8870332    604.74932  0.030358902  0.030312253            2 
 1661000    0.9785973   -6.8838441     605.1245  0.030359447  0.030304335            3 
 1662000   0.99247104   -6.8984878    603.69597  0.030269553  0.030296418            3 
 1663000   0.98081072   -6.9012889     604.1868  0.030275947  0.030288512            3 
 1664000   0.99410191   -6.8877948    604.86219  0.030291576  0.030280643            5 
 1665000   0.98099861   -6.9011426    606.23496   0.03034209  0.030272846            4 
 1666000   0.98147439   -6.9080604    605.13209  0.030268712  0.030265031            2 
 1667000   0.95387767    -6.911742    606.73058  0.030330463  0.030257348            3 
 1668000   0.97531743   -6.8964182    605.10646  0.030231138  0.030249542            4 
 1669000    1.0050923   -6.9172072    604.99866  0.030207642  0.030241768            8 
 1670000   0.99105415   -6.9221601    606.61107  0.030270013  0.030233926            4 
 1671000   0.96798973   -6.9151588    605.67223  0.030205078  0.030226023            4 
 1672000   0.97194403   -6.9291012    606.53341  0.030229935  0.030218248            3 
 1673000   0.97903475   -6.9055192    607.34762  0.030252422   0.03021039            3 
 1674000   0.99991217   -6.8899126    606.77097  0.030205644  0.030202725            8 
 1675000    0.9840403   -6.8853031    607.03542  0.030200767   0.03019499            2 
 1676000   0.99565392   -6.8922957    607.91034   0.03022625  0.030187158            5 
 1677000   0.97664319     -6.92277    607.65534  0.030195554  0.030179297            4 
 1678000   0.97717936   -6.9303452    608.31623  0.030210381  0.030171576            5 
 1679000    1.0018412   -6.8955739    608.83575  0.030218173  0.030163718            2 
 1680000    0.9951057   -6.9042615    607.86528  0.030152048   0.03015586            2 
 1681000   0.99038671   -6.8741474    607.44992   0.03011352  0.030148071            3 
 1682000    1.0042149   -6.8868756    608.75304  0.030160178  0.030140248            5 
 1683000   0.96780758    -6.896083    608.28312   0.03011899  0.030132378            5 
 1684000      1.01285   -6.9355453    607.28072    0.0300515  0.030124581            3 
 1685000   0.97117572   -6.8728879    610.61669  0.030198649  0.030116745            4 
 1686000   0.98318214   -6.8844217    610.49605  0.030174775  0.030108882            6 
 1687000   0.98523688   -6.9049044    609.63067  0.030114141  0.030100987            2 
 1688000   0.98454517   -6.8971677    609.74636  0.030102012  0.030093109            3 
 1689000   0.99063664   -6.9297614    610.65046  0.030128797  0.030085238            4 
 1690000   0.99011892   -6.9270921    609.47647   0.03005308  0.030077441            7 
 1691000   0.96863108   -6.9138653    611.74704  0.030147203  0.030069703            2 
 1692000   0.98387316   -6.9065402    610.55448   0.03007065  0.030061885            4 
 1693000     1.015215   -6.9503484    609.14309  0.029983417  0.030054021            9 
 1694000   0.96553488   -6.9009981    610.85732  0.030050045  0.030046116            4 
 1695000   0.97682824   -6.8995858    611.65068  0.030071322  0.030038238            1 
 1696000   0.98462379    -6.899843    613.73492     0.030156  0.030030469            5 
 1697000   0.99668268   -6.9171619    613.09863  0.030106985  0.030022753            2 
 1698000   0.98215354   -6.9522263    610.88426  0.029980578  0.030015059            3 
 1699000   0.98304391   -6.9214356    612.70561  0.030052267  0.030007518            3 
 1700000   0.98993636    -6.924893    612.84998  0.030041666  0.029999835            5 
 1701000   0.97903183   -6.9069084    613.77176  0.030069163  0.029992152            2 
 1702000   0.98222805   -6.8859492    613.12244  0.030019704  0.029984418            1 
 1703000   0.97605016   -6.8783879    614.66208  0.030077416  0.029976757            3 
 1704000   0.97771698   -6.8888052    615.48454  0.030099987  0.029969102            6 
 1705000   0.97881432    -6.933472    615.22279   0.03006954  0.029961469            2 
 1706000   0.95787652   -6.9428914    613.93528  0.029989023  0.029953711            3 
 1707000   0.98762419   -6.9283316    614.16843  0.029982837  0.029945875            6 
 1708000   0.98266277   -6.9048209    613.72022  0.029943414  0.029938159            5 
 1709000   0.96059398   -6.9018509    615.23646  0.029999827  0.029930469            3 
 1710000   0.98724481   -6.9288902    613.15604  0.029880899  0.029922613            3 
 1711000   0.98802118   -6.9111839    615.03618  0.029955006  0.029914797            5 
 1712000    0.9710135   -6.8860999    615.07093    0.0299392  0.029906927            5 
 1713000   0.96804154   -6.9100852    613.75526  0.029857718  0.029899085            3 
 1714000   0.96018141   -6.9111057    614.57438  0.029880123  0.029891251            3 
 1715000   0.99931025   -6.8850238    616.01666  0.029932782  0.029883497            8 
 1716000   0.98783175   -6.9218912    614.23903  0.029829013  0.029875744            5 
 1717000   0.98541991   -6.9317057    616.56409  0.029924485  0.029867888            6 
 1718000   0.96674806   -6.9068485    616.36588  0.029897452  0.029860016            3 
 1719000   0.99037295   -6.8860075    619.37954  0.030026156  0.029852248            3 
 1720000    1.0039012   -6.8884179    617.60292  0.029922622  0.029844545            8 
 1721000   0.97634687   -6.9139128    617.12167  0.029881932   0.02983676            6 
 1722000   0.96673876   -6.9073849    618.15583  0.029914626  0.029828889            3 
 1723000   0.97943081   -6.9052346    617.32959  0.029857303  0.029821194            8 
 1724000   0.98312981   -6.9445723    616.18375  0.029784597  0.029813401            4 
 1725000   0.98354403   -6.9327208    617.82424  0.029846582  0.029805645            7 
 1726000   0.97242075   -6.9036009    616.10058  0.029746069  0.029797807            5 
 1727000   0.96426161   -6.8960217    619.28598  0.029882551  0.029789953            3 
 1728000   0.98695139   -6.9213705    618.43624  0.029824279  0.029782148            3 
 1729000    0.9444319   -6.9093441    619.59938  0.029863089  0.029774297            4 
 1730000   0.95755065   -6.9471733    616.58865  0.029700802   0.02976644            4 
 1731000   0.99079513   -6.9538012    619.08819  0.029803976  0.029758572            5 
 1732000   0.98662452   -6.9073972    619.62428  0.029812562  0.029750739            7 
 1733000   0.97153656   -6.9195133    618.52131  0.029742321  0.029742883            5 
 1734000   0.98587867   -6.9279091    620.15924  0.029803885  0.029735093            2 
 1735000   0.96807462   -6.9014061    620.94035  0.029824224   0.02972721            8 
 1736000   0.95668073   -6.9571403    619.83008  0.029753748  0.029719355            3 
 1737000   0.97628391   -6.9137355    621.12515   0.02979875  0.029711603            5 
 1738000   0.96889124   -6.9198726    619.72908  0.029714666  0.029703888            4 
 1739000   0.97829052   -6.9460069    620.90708  0.029754029   0.02969619            3 
 1740000   0.97027685   -6.9034224    622.41915  0.029809346  0.029688487            2 
 1741000   0.98142088   -6.9007341    622.55225  0.029798595  0.029680768            4 
 1742000   0.98036379    -6.895838    620.82265  0.029698749  0.029673053            2 
 1743000   0.95629414   -6.9400722    620.68422  0.029675092  0.029665292            3 
 1744000   0.98294837   -6.9446064      621.724   0.02970776  0.029657568            3 
 1745000   0.98147526   -6.9167466    623.08723  0.029755837  0.029649824            3 
 1746000   0.98047766   -6.9476339    620.86887  0.029632917  0.029642073            5 
 1747000   0.97969506   -6.9465689    622.11828  0.029675552  0.029634371            3 
 1748000   0.98450474   -6.9330163     622.7783  0.029690041    0.0296267            3 
 1749000   0.96347004   -6.9444288    622.30786  0.029650651   0.02961904            6 
 1750000   0.96705657   -6.9339854    621.96879  0.029617562   0.02961137            4 
 1751000   0.96225567    -6.934655    622.48507  0.029625217  0.029603571            4 
 1752000   0.99276618    -6.936019    622.65469  0.029616376  0.029595763            3 
 1753000   0.95335885   -6.9164665    623.98087  0.029662525  0.029588022            2 
 1754000   0.95003846   -6.9167857    624.31591  0.029661531  0.029580216            6 
 1755000   0.95449676   -6.9458793    622.95646  0.029580079  0.029572416            4 
 1756000    0.9679312   -6.9063792    624.98241  0.029659378  0.029564726            3 
 1757000   0.97871422   -6.9528161    622.84485  0.029541114  0.029557004            8 
 1758000   0.97099082   -6.9120101    625.55448  0.029652753  0.029549253            4 
 1759000   0.96364763   -6.9340019    624.01114  0.029562779  0.029541473            2 
 1760000   0.96885355   -6.9136472    624.32821  0.029560995  0.029533618            5 
 1761000   0.95767725   -6.9332275    623.78616  0.029518558  0.029525685            3 
 1762000   0.98104339   -6.9695315    622.97271  0.029463333  0.029517652            4 
 1763000   0.98330366   -6.9605014    624.51961  0.029519739  0.029509727            4 
 1764000   0.97757132   -6.9516101    623.74795  0.029466551  0.029501878            4 
 1765000   0.97027819   -6.9310637    624.95008  0.029506614  0.029493908            4 
 1766000   0.96369708   -6.9090409    624.96883   0.02949079  0.029486044            5 
 1767000   0.95642313   -6.9693376    625.42585  0.029495654  0.029478175            3 
 1768000   0.96065767   -6.8988291    627.44992  0.029574374  0.029470238            4 
 1769000   0.96146971   -6.9074158    626.31494   0.02950419  0.029462358            2 
 1770000    0.9403735   -6.9241654    624.91802  0.029421752  0.029454513            4 
 1771000   0.98022742   -6.9481718    623.31092  0.029329518   0.02944659            3 
 1772000   0.98040025   -6.9203348    627.11452  0.029491842  0.029438592           11 
 1773000   0.98853973   -6.9454807    625.59743  0.029403903  0.029430543            4 
 1774000   0.95122116   -6.9177452    626.53017  0.029431143  0.029422582            3 
 1775000   0.99996765   -6.9231575    626.25582  0.029401682  0.029414608            3 
 1776000   0.96432397   -6.9461222    624.47759  0.029301689  0.029406505            4 
 1777000    1.0025893   -6.9431608     625.2081  0.029319457  0.029398432            5 
 1778000   0.97747392   -6.9466381    624.49418  0.029269506  0.029390321            3 
 1779000   0.97282879   -6.9245914    626.67924  0.029355407  0.029382261            6 
 1780000   0.96370492   -6.9272683    625.29777   0.02927424  0.029374158           11 
 1781000   0.96161724   -6.9302184    625.65179  0.029274368  0.029365951            6 
 1782000   0.96851565   -6.9454063    625.00529  0.029227707   0.02935789            4 
 1783000   0.95226899   -6.9375932    627.39959  0.029323219  0.029349788            7 
 1784000   0.97070536    -6.953637    626.34522  0.029257531  0.029341682            5 
 1785000   0.97552767   -6.9305172    628.74174  0.029353023  0.029333561           13 
 1786000   0.94795319   -6.9143536     628.4067  0.029320955  0.029325497            2 
 1787000    0.9797163   -6.8806938     628.1779  0.029293877  0.029317638            4 
 1788000   0.97663598   -6.9351706    629.47757  0.029338067  0.029309709            5 
 1789000   0.96278403   -6.9187428    628.98361  0.029298659  0.029301824            3 
 1790000   0.96634368   -6.9424818    629.38408  0.029300935  0.029293942            3 
 1791000   0.94680076   -6.9334031    627.96086  0.029218354  0.029285977            4 
 1792000   0.98058604   -6.9534378     628.4867  0.029226502   0.02927799            3 
 1793000   0.94209302   -6.9442444     630.4722  0.029302482  0.029269996            3 
 1794000   0.95500485   -6.9043831    630.77558   0.02930024  0.029262076            4 
 1795000    0.9514809   -6.9305941    629.07391  0.029204917  0.029254097            3 
 1796000   0.95016019   -6.9321894     629.6396  0.029214903  0.029245951            2 
 1797000   0.96313659   -6.9237226    630.01442  0.029216028  0.029237949            4 
 1798000   0.97115815   -6.9645727     630.1172  0.029204542  0.029230023            4 
 1799000   0.96811189   -6.9801761    630.17133  0.029190816  0.029221949            3 
 1800000   0.97639993   -6.9390535     629.5243  0.029144644   0.02921385            8 
 1801000   0.94902688   -6.9389018    630.41936  0.029169876  0.029205864            3 
 1802000   0.98115231   -6.9236212    630.42873  0.029154122  0.029197925            3 
 1803000   0.95749965   -6.9958151    630.87927  0.029158776  0.029189963            3 
 1804000   0.95597278   -6.9128344    630.50911  0.029125513  0.029181839            4 
 1805000   0.96347879   -6.9066508    632.63764  0.029207647  0.029173965            2 
 1806000   0.97263454   -6.9280434    631.15823  0.029123211  0.029166154            6 
 1807000   0.97857323   -6.9309174    632.71708  0.029178983  0.029158306            4 
 1808000   0.96419662   -6.9187006    632.18502  0.029138321  0.029150465            2 
 1809000   0.95410758   -6.9211686    633.51505  0.029183483    0.0291426            6 
 1810000   0.96925508   -6.9427804    634.64749  0.029219498  0.029134702            6 
 1811000   0.95668507   -6.9299825     635.4083  0.029238372  0.029126842            3 
 1812000   0.97382987   -6.9782742    633.15673  0.029118687  0.029119016            4 
 1813000   0.95203273   -6.9576431    633.33058  0.029110617  0.029111086            3 
 1814000   0.97170694   -6.9458202     634.2552  0.029137045  0.029103204            6 
 1815000   0.97663971     -6.93491    635.62093  0.029183697  0.029095351            3 
 1816000   0.97103622    -6.947999    633.96358  0.029091574  0.029087546            5 
 1817000   0.95785489    -6.931339    636.21455    0.0291788  0.029079701            4 
 1818000   0.98131827   -6.9321855    636.30848  0.029167056  0.029071896            5 
 1819000   0.96107774   -6.9366121    634.60675   0.02907306  0.029064121            4 
 1820000   0.98484627   -6.9557431    637.01127  0.029167183  0.029056388            5 
 1821000   0.93704973   -6.9518122    635.86875  0.029098881  0.029048655            4 
 1822000   0.96149464    -6.970073    635.87068  0.029082999  0.029040844            3 
 1823000   0.94924794   -6.9734649    637.12323  0.029124302  0.029033153            7 
 1824000    0.9589103   -6.9563519    636.29954  0.029070702   0.02902551            3 
 1825000    0.9627056   -6.9402479    636.27878  0.029053826  0.029017812            5 
 1826000   0.95690126   -6.9431258    638.40843  0.029135105  0.029010134            3 
 1827000   0.96542944   -6.9967654    635.57737  0.028990028  0.029002446            3 
 1828000   0.95176156   -6.9487374    636.96654  0.029037497  0.028994769            6 
 1829000   0.94471083    -6.978522    637.54831  0.029048128  0.028987121            5 
 1830000   0.95159167    -6.947218    639.06765  0.029101441  0.028979525            5 
 1831000   0.94064474   -6.9694878    639.66262  0.029112626  0.028971977            5 
 1832000   0.98072957   -6.9519039    639.46706  0.029087839  0.028964322            7 
 1833000   0.97330294   -6.9180278    639.32653  0.029065582  0.028956729            6 
 1834000   0.96154404   -6.9610879    639.62781  0.029063423  0.028949187            2 
 1835000   0.96821477   -6.9461156     640.0487  0.029066698  0.028941493            3 
 1836000   0.96065821   -6.9596334      640.997  0.029093909  0.028933832            5 
 1837000   0.94897354   -6.9575382    639.36764  0.029004157  0.028926207            7 
 1838000   0.95389474   -6.9203015    639.25095  0.028983086  0.028918622           10 
 1839000   0.96029027   -6.9428164    640.81865  0.029038366  0.028911094            1 
 1840000   0.96063681   -6.9680803    639.94429  0.028982984  0.028903467            3 
 1841000   0.95955365   -6.9327868    638.71907  0.028911781  0.028895813            3 
 1842000   0.96483219   -6.9424135    639.26969  0.028920996  0.028888158            3 
 1843000    0.9574914   -6.9837644    639.53802  0.028917436  0.028880485            6 
 1844000   0.94710969   -6.9370285    642.66673  0.029043146  0.028872862            4 
 1845000   0.95886776   -6.9858211    641.44279  0.028972123  0.028865349            4 
 1846000    0.9300978   -6.9769288    640.91769  0.028932723  0.028857828            3 
 1847000   0.95944345   -6.9483829    642.54395  0.028990433  0.028850296            7 
 1848000   0.97472045   -6.9460257    642.20626  0.028959518  0.028842786            5 
 1849000   0.95434371   -6.9799406    640.31112  0.028858442  0.028835226            4 
 1850000   0.94616615   -6.9369326    642.57786  0.028944949  0.028827611            5 
 1851000   0.96170184   -6.9381372    642.47952  0.028924884  0.028820008            3 
 1852000   0.95404329   -6.9665046    641.72763  0.028875433  0.028812393            4 
 1853000   0.95114982   -6.9453086     641.8364  0.028864742  0.028804796            2 
 1854000   0.95674794   -6.9637864    642.22384  0.028866587  0.028797137            5 
 1855000   0.93805835    -6.942642    643.09098  0.028889981  0.028789545            3 
 1856000   0.97900274   -6.9724499    643.62497  0.028898391   0.02878192            6 
 1857000   0.95974977   -6.9439687    644.36172  0.028915891  0.028774313            3 
 1858000   0.94060734   -6.9452504    644.23507  0.028894648  0.028766728            2 
 1859000   0.93624058   -6.9837197    642.70802  0.028810652  0.028759145            4 
 1860000   0.97114839   -6.9832338    643.63437  0.028836665  0.028751522            4 
 1861000    0.9320321    -6.981376    645.69126  0.028913275  0.028743929            6 
 1862000   0.96669125   -6.9612071    644.03814  0.028823762  0.028736402            4 
 1863000   0.96302262   -6.9674545    643.46638  0.028782715  0.028728771            3 
 1864000   0.96323287   -6.9714791    644.82123  0.028827845  0.028721192            6 
 1865000   0.96182283    -6.998808    643.74583  0.028764336   0.02871351            3 
 1866000   0.94015204   -6.9678877    645.18967  0.028813401  0.028705791            4 
 1867000   0.97995879   -6.9577709    645.33166  0.028804305  0.028698236            3 
 1868000   0.94324902   -6.9339491    646.63904  0.028847209  0.028690807            4 
 1869000   0.96545786   -6.9536584    646.62169  0.028831001  0.028683422            4 
 1870000   0.95439972   -6.9919297    647.55954  0.028857377  0.028675974            3 
 1871000   0.94976068   -6.9700201    646.33199  0.028787279   0.02866854            2 
 1872000   0.95272406   -6.9484936    648.34857  0.028861671  0.028661132            5 
 1873000   0.94620213   -6.9376454    646.96742  0.028784811  0.028653814            2 
 1874000   0.96125165    -6.974093    647.44124  0.028790521   0.02864641            7 
 1875000   0.95461918   -6.9895961    647.66895  0.028785287  0.028638992            4 
 1876000    0.9567815   -6.9614321    647.46425   0.02876085  0.028631544            9 
 1877000   0.94855554   -7.0018966    646.98633  0.028724309  0.028624092            3 
 1878000   0.93432999   -6.9771362    647.52247  0.028732804   0.02861664            2 
 1879000   0.92773232   -6.9718071    647.66356   0.02872377  0.028609219           12 
 1880000    0.9844772   -6.9988764    646.34405  0.028650002  0.028601681            4 
 1881000   0.93389184    -6.994456    645.92059  0.028616011  0.028594225            2 
 1882000   0.97519367   -6.9949729    647.30697  0.028662193  0.028586708            4 
 1883000   0.94861854   -6.9849567    647.69452  0.028664123  0.028579138            3 
 1884000   0.93905065   -6.9802774    647.63737   0.02864638   0.02857163            2 
 1885000   0.94970276   -6.9861696    649.44608  0.028711144  0.028564107            6 
 1886000   0.96517989   -6.9560199    648.39188  0.028649341  0.028556619            2 
 1887000   0.96200151   -6.9457541    649.83159  0.028697739  0.028549159            2 
 1888000   0.95842493   -6.9587921    648.90245  0.028641527  0.028541705            3 
 1889000   0.93799673   -6.9828252    647.01722  0.028543199  0.028534217            7 
 1890000   0.97367733   -6.9766376    651.35788  0.028719483  0.028526741            2 
 1891000   0.93723457   -6.9574155    651.50515  0.028710786  0.028519328            4 
 1892000   0.95708279   -6.9320282    651.28571  0.028685946  0.028512018            4 
 1893000   0.94112044   -6.9390322    652.20263  0.028711157  0.028504702            3 
 1894000   0.94548918   -6.9912742    650.82576  0.028635417  0.028497378            5 
 1895000   0.95094382   -6.9516219    654.67871  0.028789741   0.02849007            2 
 1896000   0.95082537   -6.9667086    652.78718  0.028691419  0.028482797            5 
 1897000   0.95002882    -6.980065    651.89246  0.028636991  0.028475488            4 
 1898000   0.93698086   -6.9585585    654.16615  0.028721731  0.028468224            2 
 1899000   0.94028446   -6.9723986    650.96732  0.028566233  0.028460981            5 
 1900000   0.94152164   -6.9877511    652.88179  0.028635166  0.028453641            5 
 1901000   0.94825085   -6.9920963    652.25048  0.028592429  0.028446288            5 
 1902000   0.95947494   -6.9245349    652.86965  0.028604524  0.028438883            2 
 1903000   0.93926047   -6.9591823    653.01577  0.028595891  0.028431502            9 
 1904000   0.91815452   -6.9316493    652.60549  0.028562915  0.028424093            7 
 1905000   0.93705689   -6.9592703     654.0231  0.028609934  0.028416738            5 
 1906000   0.92696684   -6.9583704    651.37468  0.028479131  0.028409305            5 
 1907000   0.95536198   -6.9998931      652.988  0.028534697  0.028401888            8 
 1908000   0.96065237   -6.9844034    654.21671  0.028573406  0.028394473            6 
 1909000   0.93782558   -6.9937775    652.42614  0.028480275  0.028387051            8 
 1910000   0.97396359   -6.9600629    653.47769  0.028511243  0.028379722            3 
 1911000   0.94257497   -6.9857519    654.73723  0.028551248  0.028372311            2 
 1912000   0.94904134   -6.9695499    653.21163  0.028469823  0.028364933            3 
 1913000   0.94834519   -6.9786514    655.31321  0.028546489  0.028357555            4 
 1914000   0.95270101   -6.9868877    656.11451  0.028566462  0.028350189            6 
 1915000   0.94556601   -6.9822131    655.18276  0.028510999   0.02834283            5 
 1916000   0.94810769   -6.9719609    655.31878  0.028502035  0.028335493            3 
 1917000   0.94439267   -6.9995059    657.04761   0.02856232  0.028328159            2 
 1918000   0.95715365   -6.9695656     655.6532  0.028486844  0.028320901            2 
 1919000   0.94935941   -6.9710516    654.39405   0.02841732  0.028313611            3 
 1920000   0.96286022   -6.9720549    656.46359  0.028492343  0.028306357            3 
 1921000   0.94185696    -6.955973    655.08603  0.028417753  0.028299031            3 
 1922000   0.94097729   -7.0132134    656.00607  0.028442858  0.028291657            5 
 1923000   0.93574623   -7.0338989    655.48854  0.028405639   0.02828414            4 
 1924000   0.94087748   -6.9631124    657.58769  0.028481795  0.028276725            3 
 1925000   0.92688019   -7.0099431    656.21829  0.028407718  0.028269364            4 
 1926000    0.9362316   -6.9815711    657.79274  0.028461091  0.028262047            5 
 1927000   0.93646111   -6.9822256     658.7878  0.028489353   0.02825476            2 
 1928000   0.95080672   -7.0098878    658.69344  0.028470498  0.028247426            6 
 1929000   0.94131923   -6.9818244    658.18331  0.028433701  0.028240132           12 
 1930000   0.94029117   -7.0190426    657.89604  0.028406565  0.028232794            2 
 1931000   0.94033461   -6.9738028     657.9048  0.028392232  0.028225464            6 
 1932000   0.93618515   -7.0030191    658.43511   0.02840041  0.028218146            3 
 1933000   0.94071438   -6.9906396    658.86314  0.028404171  0.028210801            4 
 1934000   0.94438215   -6.9996832    659.30598  0.028408565  0.028203562            3 
 1935000   0.91973994   -6.9596565    661.23567  0.028476988  0.028196374            4 
 1936000   0.92955101   -6.9664295    660.55512  0.028432986  0.028189289            7 
 1937000   0.92698624   -7.0055824    661.40774  0.028454988  0.028182107            5 
 1938000   0.95503132   -7.0046926    659.56819  0.028361205  0.028174875            4 
 1939000   0.93756645   -6.9827203    661.33965  0.028422711  0.028167648            5 
 1940000   0.94314982   -6.9534004    660.95982  0.028391745  0.028160431            7 
 1941000    0.9541219   -6.9798891    661.79849  0.028413124  0.028153243            5 
 1942000   0.93129016   -7.0168606     660.5624  0.028345452  0.028146047            5 
 1943000   0.93057574   -6.9742911    660.15602  0.028313434  0.028138908            2 
 1944000   0.95070341   -7.0074558    659.67751  0.028278357  0.028131785            3 
 1945000   0.94834741   -6.9919647    660.78371  0.028311213  0.028124625            6 
 1946000    0.9473821   -7.0007434    662.43437   0.02836735  0.028117479            4 
 1947000   0.94281039   -6.9781707    663.05864    0.0283795  0.028110399            4 
 1948000   0.93700633   -6.9716731    662.32773  0.028333664  0.028103164            3 
 1949000    0.9597479   -6.9841674    663.29438  0.028360457  0.028095976            8 
 1950000   0.94535233   -6.9912686    662.86514   0.02832757  0.028088801            3 
 1951000   0.93410379   -6.9838332    664.88363  0.028399267   0.02808173            4 
 1952000   0.91494923   -6.9791941    663.00022  0.028304313  0.028074686            4 
 1953000   0.93780339   -7.0375291    663.22334   0.02829934  0.028067586            4 
 1954000   0.93875461   -6.9416106    664.71622  0.028348525  0.028060461            4 
 1955000   0.93854249   -6.9983227    662.72705  0.028249235  0.028053347           10 
 1956000   0.93859532   -6.9921426    665.34937  0.028346514  0.028046202            5 
 1957000   0.94895744   -7.0214059    664.19224  0.028282756  0.028039196            2 
 1958000   0.93608078   -7.0070826    664.45574  0.028279526  0.028032075            3 
 1959000   0.95192586   -6.9757712    665.17927  0.028295868  0.028025093            3 
 1960000   0.93145306   -6.9739299    668.68464  0.028430469  0.028018176            2 
 1961000   0.93726635    -6.987822    666.56146  0.028325746  0.028011271            5 
 1962000   0.90949786   -7.0024228    667.41892  0.028347729  0.028004325            4 
 1963000   0.93343396   -6.9911332    665.80526  0.028264784  0.027997368            2 
 1964000    0.9452897   -7.0094521    666.94401   0.02829871  0.027990371            6 
 1965000   0.92674019   -7.0075561    666.67443  0.028272877  0.027983466            4 
 1966000    0.9255106   -7.0172476    665.54538  0.028210638  0.027976557            2 
 1967000    0.9243606   -6.9848949    666.97322  0.028256788   0.02796966            3 
 1968000   0.92600557   -6.9973601     668.5229   0.02830805   0.02796279            2 
 1969000   0.94134591   -6.9996304    669.02145  0.028314773   0.02795591            4 
 1970000   0.92508263   -7.0116888    668.04827  0.028259233  0.027949029            2 
 1971000   0.93272378   -6.9861669    669.53182   0.02830762  0.027942151            8 
 1972000   0.92331848   -7.0042425    667.98137  0.028227746  0.027935229            5 
 1973000    0.9356221   -6.9984665    669.09955  0.028260667   0.02792836            4 
 1974000   0.93287654   -6.9964715    669.07032  0.028245116  0.027921558            5 
 1975000   0.92432842   -7.0035262    668.70611  0.028215448  0.027914684            4 
 1976000   0.93853775   -7.0277067    668.80304  0.028205256  0.027907854            5 
 1977000   0.95086602   -7.0451548    670.52033  0.028263376  0.027900998            4 
 1978000   0.92343129   -7.0068933    669.79912  0.028218703  0.027894164            4 
 1979000   0.92478744   -7.0177863    671.71627  0.028285172  0.027887322            3 
 1980000   0.93104916    -6.989819    668.87317  0.028151228  0.027880572            2 
 1981000   0.92640778   -6.9931975    670.83666  0.028219614  0.027873813            3 
 1982000   0.91713725   -7.0289556    670.90207  0.028208126  0.027867023            3 
 1983000   0.94989313   -7.0260042    672.39024   0.02825644  0.027860285            3 
 1984000   0.93797914   -6.9967193    671.23926  0.028193853  0.027853491            7 
 1985000   0.93317131   -6.9959017    672.31245  0.028224704  0.027846728            4 
 1986000   0.95619624   -6.9808336    672.65036  0.028224671  0.027839918            2 
 1987000   0.91441618   -7.0013591    671.54628  0.028164162  0.027833135            4 
 1988000   0.93136864   -7.0038429    672.09737  0.028173096  0.027826371            6 
 1989000   0.90422482   -6.9710179     671.4681  0.028132566  0.027819553            6 
 1990000   0.92936829   -6.9917546    671.36087  0.028113939  0.027812696            8 
 1991000   0.93294879   -7.0268744    671.82632    0.0281193  0.027805846            5 
 1992000    0.9221986   -6.9984249    671.87049  0.028107032  0.027798999            4 
 1993000   0.93296345   -7.0030046    672.29235  0.028110568    0.0277921            4 
 1994000   0.93907072   -6.9800552    673.05645  0.028128404  0.027785163            4 
 1995000   0.93700037   -6.9968372    672.70067  0.028099443  0.027778257            4 
 1996000   0.95079567   -6.9957686    672.55808  0.028079412  0.027771327            5 
 1997000   0.91945137   -6.9981447    674.05348  0.028127753  0.027764412            2 
 1998000   0.94409651   -7.0228374    672.97267  0.028068597  0.027757502            3 
 1999000   0.93145721   -6.9962186    674.18008  0.028104889   0.02775061            3 
 2000000   0.92162571   -6.9966021    672.55764  0.028023235  0.027743715            4 
 2001000    0.9245814   -6.9981431    673.55556   0.02805079  0.027736888            4 
 2002000    0.9251526   -7.0438773    675.07954  0.028100214   0.02773004            2 
 2003000   0.93915039   -7.0155667    675.17844    0.0280903  0.027723176            5 
 2004000   0.93931473   -6.9791023    676.31522  0.028123554  0.027716415            2 
 2005000   0.91980676   -7.0534308    672.88096   0.02796679  0.027709673            2 
 2006000   0.93463054   -6.9792074    678.56309  0.028188896  0.027703027            2 
 2007000   0.92277612   -7.0047347    677.70406  0.028139182  0.027696436            3 
 2008000   0.92617507   -6.9372365    677.19943  0.028104226  0.027689821            6 
 2009000   0.92555663   -7.0098075    677.09207  0.028085783  0.027683241            4 
 2010000   0.91526642   -7.0257724    676.81261  0.028060224  0.027676617            2 
 2011000   0.91726727   -7.0275689    677.59816  0.028078823  0.027669914            3 
 2012000   0.94032335   -7.0126135    678.42275  0.028099021  0.027663343            3 
 2013000   0.91033795   -7.0381309    677.74558  0.028057028  0.027656758            4 
 2014000   0.94201832   -7.0086449    679.04639  0.028096921  0.027650178            3 
 2015000   0.94047761   -6.9827804    678.12246  0.028044767  0.027643655            4 
 2016000   0.91698418   -7.0097634    679.26631  0.028078138  0.027637029            3 
 2017000   0.92506318    -7.044955     677.0997  0.027974703  0.027630386            4 
 2018000   0.94618828   -7.0229513    678.78327  0.028030363  0.027623737            6 
 2019000   0.93222421   -6.9909961    681.60085  0.028132774  0.027617126            3 
 2020000   0.91954249    -7.002248    680.28593  0.028064601  0.027610676            4 
 2021000   0.92619642   -7.0248869    679.13755  0.028003363  0.027604146            9 
 2022000   0.94949318   -7.0257351    680.94256  0.028063904  0.027597665            2 
 2023000   0.92514286   -7.0181025    679.35446  0.027984613  0.027591199            4 
 2024000   0.93796919    -7.026784    679.70245  0.027985114  0.027584588            6 
 2025000   0.93524428   -7.0112096    682.70408  0.028094818  0.027578055           11 
 2026000   0.91762483   -7.0119452     680.3141  0.027982646  0.027571496            1 
 2027000   0.92189455   -7.0460813    680.03957  0.027957555   0.02756491            4 
 2028000   0.93103739   -7.0238012    680.69716  0.027970791  0.027558232            3 
 2029000    0.9233176   -7.0185088     682.2082  0.028019065  0.027551648            5 
 2030000   0.92025152   -7.0014184    682.21547  0.028005561  0.027545056            4 
 2031000   0.92759851   -7.0429383    681.37623  0.027957338  0.027538515            8 
 2032000     0.929546   -7.0275568    679.12026   0.02785106  0.027531864            9 
 2033000   0.89318785   -7.0151984    680.56317  0.027896506  0.027525204            4 
 2034000   0.93216884   -7.0228141    679.67628  0.027846455  0.027518611            4 
 2035000   0.92584114    -7.019861    680.44436  0.027864224  0.027512031            2 
 2036000    0.9425168   -7.0107978    681.74087  0.027903605  0.027505455            5 
 2037000    0.9140896   -7.0156685    682.07549  0.027903596  0.027498892            2 
 2038000   0.92251776   -7.0423809    681.20642  0.027854368  0.027492287            6 
 2039000   0.93186463   -7.0353794    680.21567  0.027800215  0.027485675            3 
 2040000   0.93686302   -7.0551117    680.56704  0.027800941  0.027479012            2 
 2041000   0.93455621    -7.014888    682.17818  0.027853102  0.027472318            2 
 2042000   0.91612533   -7.0351524    681.62117  0.027816731  0.027465648            4 
 2043000   0.92789018   -7.0723713    682.54093  0.027840632  0.027458952            3 
 2044000   0.91854579   -7.0343395    683.32518  0.027858985  0.027452215            5 
 2045000   0.93538794   -7.0011772    683.41193  0.027848897  0.027445554            4 
 2046000   0.94101849    -7.033233    681.05767  0.027739397  0.027438918            6 
 2047000   0.93140219   -7.0039656    682.06291  0.027766769   0.02743219            3 
 2048000   0.91456588   -7.0547056    681.78297   0.02774182  0.027425408            2 
 2049000   0.92404584    -6.995234     681.0485   0.02769841   0.02741869            3 
 2050000    0.9417775   -7.0321787    682.60653  0.027748233  0.027412005            3 
 2051000   0.92308377    -6.997015    684.07415  0.027794334  0.027405306            6 
 2052000   0.92373811   -7.0518695    683.08231   0.02774051  0.027398653            2 
 2053000   0.91665321   -7.0136504    685.46151  0.027823572  0.027392057            8 
 2054000   0.93273798   -7.0344801    684.01712  0.027751425  0.027385379            8 
 2055000    0.9299193   -7.0225237    684.91576  0.027774362  0.027378681            3 
 2056000   0.92440921   -7.0146191    685.56126  0.027787016  0.027372049            3 
 2057000   0.91585395   -6.9813943    685.89758  0.027787132  0.027365492            4 
 2058000    0.9131974   -7.0687456    681.30034  0.027587477  0.027358831            8 
 2059000   0.94097577   -7.0519639    684.56194  0.027706085  0.027352034            3 
 2060000   0.91506882   -7.0307864    683.94258   0.02766758  0.027345257            2 
 2061000   0.93703571   -6.9929714    685.72192  0.027726101  0.027338589            5 
 2062000    0.9283667   -7.0412315    685.44034  0.027701275  0.027331993            4 
 2063000   0.92344671   -7.0338138    683.56358  0.027612037   0.02732528            5 
 2064000   0.91626762   -7.0066966    687.20277   0.02774559   0.02731863            8 
 2065000   0.92598776   -7.0021785     686.6494  0.027709823  0.027311964            5 
 2066000   0.92549422   -7.0388027    685.91591  0.027666824  0.027305312            4 
 2067000   0.92214895   -7.0542858    685.92939  0.027653983  0.027298622            4 
 2068000   0.94035773    -7.026265    684.83646  0.027596569  0.027291938           12 
 2069000   0.90831512    -7.017321    685.90401  0.027626229  0.027285265            4 
 2070000   0.92809185   -7.0213322    685.09484  0.027580308  0.027278603            5 
 2071000   0.93144538   -7.0406213     686.1894  0.027611033  0.027271861            4 
 2072000   0.93114425   -7.0013859    685.47479  0.027568967  0.027265066            3 
 2073000   0.92433113   -6.9910576    686.05459  0.027578975  0.027258331            7 
 2074000   0.91962337   -7.0592712     685.1853   0.02753075  0.027251511            2 
 2075000   0.92555222    -7.040298    685.07427  0.027513023  0.027244617            3 
 2076000   0.93288952   -7.0272506    687.20973   0.02758549  0.027237832            3 
 2077000   0.93223114   -7.0417309    687.10671  0.027568075  0.027231002            4 
 2078000   0.91496852   -6.9836546    688.99258  0.027630437  0.027224265            4 
 2079000   0.92352186   -6.9872656     689.7434  0.027647242  0.027217634            3 
 2080000   0.90814255   -7.0374961    686.72846  0.027513159   0.02721082           12 
 2081000   0.90939017   -7.0638582    685.93802  0.027468285  0.027203956            4 
 2082000   0.91864353   -7.0284508    687.46588  0.027516245  0.027197018            5 
 2083000     0.924035   -7.0588004    685.83943  0.027437967  0.027190092            2 
 2084000   0.94654917   -7.0688875    686.07856  0.027434363  0.027183136            3 
 2085000    0.9394993   -7.0549003    687.18461  0.027465412  0.027176235            4 
 2086000   0.90975136   -7.0414231    686.49379  0.027424648  0.027169416            5 
 2087000    0.9396942   -7.0444803    686.70183  0.027419814  0.027162577            9 
 2088000    0.9197852    -7.027591    689.13825  0.027503921  0.027155795            7 
 2089000   0.89019541    -7.031942    688.43625  0.027462751  0.027148934            8 
 2090000    0.9096248    -7.019476    687.31624  0.027404954  0.027142027            4 
 2091000   0.91421465   -7.0631109    687.52777  0.027400278  0.027135162            3 
 2092000   0.93008445   -7.0493504    689.10536  0.027450022  0.027128304            6 
 2093000   0.90878159    -7.046639    688.85696  0.027427017  0.027121455            2 
 2094000   0.91920561    -7.025073    689.79438  0.027451225  0.027114639            7 
 2095000   0.93560546   -7.0201415    690.15238  0.027452362  0.027107829            4 
 2096000   0.92350525   -7.0203019    688.61202  0.027378022  0.027101004            4 
 2097000   0.91241854   -7.0260593    690.26407  0.027430618    0.0270941            5 
 2098000   0.91470401   -7.0486786    688.39662  0.027343367  0.027087261            6 
 2099000   0.91036381    -7.058004    689.63783  0.027379618  0.027080309            3 
 2100000   0.89622117   -7.0368714    689.66095  0.027367498  0.027073376            3 
 2101000   0.91900617   -7.0481428    690.05171  0.027369971  0.027066459            5 
 2102000   0.92797179   -7.0583335    690.04197  0.027356564  0.027059536            4 
 2103000   0.88245136   -7.0317496    691.23143  0.027390689  0.027052648            4 
 2104000   0.90875376   -7.0259651    689.61622  0.027313697  0.027045779            4 
 2105000   0.90887775   -7.0386964    691.73667  0.027384666  0.027038983            2 
 2106000   0.91518909   -6.9977197    691.80801  0.027374486    0.0270322            6 
 2107000   0.93650765   -7.0512783    691.93417  0.027366484  0.027025382            4 
 2108000   0.91810314   -7.0562996    691.77559  0.027347232  0.027018592            4 
 2109000   0.89379697   -7.0439926    689.37237  0.027239306  0.027011763            4 
 2110000   0.92276219   -7.0643734    689.92165   0.02724809  0.027004957            3 
 2111000   0.90251339   -7.0484188    691.53455  0.027298853  0.026998178            4 
 2112000   0.91195371   -7.0442221    692.23867   0.02731371   0.02699127            2 
 2113000   0.91216407    -7.058922    689.86762  0.027207273  0.026984335            4 
 2114000   0.91457874   -7.0541661    690.79129  0.027230814  0.026977394            2 
 2115000    0.9093296   -7.0553183    692.10457  0.027269684  0.026970472            3 
 2116000   0.91662211   -7.0216909    690.68444  0.027200868  0.026963573            4 
 2117000   0.92439597   -7.0208141    690.89732  0.027196399   0.02695661            3 
 2118000   0.92724187   -7.0182079     692.5469  0.027248461  0.026949703            5 
 2119000   0.91619202   -7.0117571    692.57839  0.027236841  0.026942772            3 
 2120000   0.92660683   -7.0375785    693.78218  0.027271312   0.02693585            3 
 2121000   0.92129243   -7.0698385    690.11525  0.027114382  0.026928892            3 
 2122000   0.91547198   -7.0583843     691.7852  0.027167185   0.02692187            3 
 2123000   0.91979095   -7.0422338    693.17885  0.027209093  0.026914895            3 
 2124000   0.92892878   -7.0348575    694.10367  0.027232567  0.026907962            5 
 2125000    0.9226926   -7.0599116    692.06962  0.027139985  0.026900983            2 
 2126000   0.92347499   -7.0396664    692.04071  0.027126086  0.026893986            3 
 2127000   0.94109212   -7.0182106    694.21596  0.027198557  0.026886983           11 
 2128000   0.90729201   -7.0406535    693.17217    0.0271449  0.026880001            2 
 2129000   0.91664704   -7.0492975     693.4444  0.027142806  0.026873016            2 
 2130000    0.9049049   -7.0453111    692.75789  0.027103204  0.026866005            5 
 2131000   0.92333204   -7.0630585    692.58561  0.027083748  0.026858939            5 
 2132000   0.90399046   -7.0429692    694.53222  0.027147132  0.026851892            4 
 2133000   0.90739668   -7.0627651    692.56758  0.027057649  0.026844865            4 
 2134000   0.90680814   -7.0363002    695.63364    0.0271647  0.026837853            3 
 2135000   0.91260591    -7.037544    695.56698  0.027149375  0.026830822            4 
 2136000   0.88470158   -7.0773999    693.89471  0.027071423  0.026823797            2 
 2137000   0.92294551   -7.0534096    693.39499  0.027039268  0.026816796            7 
 2138000   0.91573271   -7.0707549    693.01399  0.027011771  0.026809706            3 
 2139000   0.91280752   -7.0594476    693.71272  0.027026364  0.026802662            3 
 2140000   0.90900992   -7.0269429    695.45916  0.027081743  0.026795662            4 
 2141000   0.92641611   -7.0490947    695.84757  0.027084212  0.026788677            4 
 2142000   0.93629678   -7.0470123    695.85727  0.027071945  0.026781635            4 
 2143000   0.91148178   -7.0416689    694.71429  0.027014866  0.026774635            1 
 2144000   0.91228081    -7.052921    695.89447  0.027048137  0.026767587            4 
 2145000   0.92562329   -7.0758247      694.924  0.026997824  0.026760509            3 
 2146000   0.90781428   -7.0783452    692.90463  0.026906828  0.026753388            6 
 2147000   0.93478187   -7.0731242    694.20375  0.026944719  0.026746295            5 
 2148000   0.91351588   -7.0466461    692.90533  0.026881802  0.026739192            2 
 2149000   0.91638563   -7.0654346    694.05963  0.026914054  0.026732013            2 
 2150000   0.88872859   -7.0359343    695.20553  0.026945951  0.026724822            3 
 2151000   0.90619521   -7.0442352    696.66292  0.026989885  0.026717673            5 
 2152000   0.90784384   -7.0569227    695.13882  0.026918325  0.026710572            4 
 2153000   0.90032689   -7.0428374    694.41245  0.026877708   0.02670347            3 
 2154000   0.90634573   -7.0750008    696.00341   0.02692678  0.026696411            6 
 2155000   0.90177744   -7.0644714    695.44095  0.026892535  0.026689272            4 
 2156000   0.90746233    -7.056246    694.48807  0.026843231  0.026682149            4 
 2157000   0.90640809   -7.0793094    697.47719  0.026946268  0.026675001            3 
 2158000   0.91853841    -7.058899    693.97339  0.026798478  0.026667816            3 
 2159000    0.9006062    -7.073769    694.69933  0.026814086  0.026660649            3 
 2160000   0.90869947   -7.0726565    695.54315  0.026834227  0.026653459            6 
 2161000   0.91219704   -7.0758486    694.81815  0.026793851  0.026646257            3 
 2162000   0.90613259   -7.0623129    696.65032  0.026852078  0.026639047            4 
 2163000   0.89606568    -7.083427     695.2615  0.026786157  0.026631814            5 
 2164000   0.92248813   -7.0715581    695.78759  0.026794039  0.026624548            5 
 2165000   0.91375562   -7.0736356    695.03861  0.026752833  0.026617323            4 
 2166000   0.90530463   -7.0907904      695.536  0.026759618  0.026610032            5 
 2167000     0.910311   -7.0780556    695.10311  0.026730622  0.026602738            4 
 2168000   0.91289035   -7.0663854    695.08911  0.026717755  0.026595515            5 
 2169000   0.89300551   -7.0279472    697.52696  0.026799099  0.026588239            6 
 2170000   0.90237977   -7.0861512    695.81465  0.026720993  0.026580878            6 
 2171000    0.9078663   -7.0700059    694.74532  0.026667639  0.026573611            4 
 2172000     0.904264   -7.0622432    695.15123  0.026670934  0.026566331            4 
 2173000   0.91435379   -7.0675404    697.31651  0.026741698  0.026559083            2 
 2174000   0.91868202   -7.0365245    697.73938  0.026745606  0.026551879            3 
 2175000   0.89830507   -7.0851155    696.25885  0.026676584  0.026544635            3 
 2176000   0.90020563   -7.0842069    697.25347  0.026702415  0.026537423            3 
 2177000   0.92109579    -7.044455    698.12665  0.026723574  0.026530264            2 
 2178000    0.9070396   -7.0566653    698.94603  0.026742655  0.026523058            4 
 2179000   0.89450848   -7.0519337    699.51308  0.026752068  0.026515825            4 
 2180000   0.88960289   -7.0675014    698.94752  0.026718177  0.026508577            5 
 2181000   0.88738265   -7.0939264    696.36985  0.026607437  0.026501351            6 
 2182000   0.90889959   -7.0256691    698.30727  0.026669236  0.026494133            3 
 2183000   0.90243555    -7.090847    697.53396  0.026627499  0.026486887            3 
 2184000   0.91002788   -7.0379249     699.1982  0.026678808   0.02647961            4 
 2185000   0.89036282   -7.0693858    697.84753  0.026615085  0.026472382            4 
 2186000   0.92470388   -7.0861686    699.31231  0.026658749   0.02646517            3 
 2187000   0.89411842   -7.0649939    697.58741  0.026580834  0.026457939            3 
 2188000   0.90358747   -7.0833497    699.06639  0.026625015  0.026450689           12 
 2189000     0.909262   -7.0346782    699.69872  0.026636924  0.026443445            3 
 2190000   0.90129403    -7.062131    698.92015  0.026595135  0.026436245            5 
 2191000   0.90307879   -7.0990611    696.96924  0.026508795  0.026428913            3 
 2192000   0.90321853   -7.0448897    701.59133   0.02667242  0.026421572            2 
 2193000   0.88953208   -7.0565532    698.91837  0.026558686  0.026414272            2 
 2194000    0.9051084   -7.1257677    696.71233   0.02646279  0.026406881            3 
 2195000   0.91408915   -7.0535679    699.97746  0.026574695  0.026399547            7 
 2196000   0.87038732   -7.0573327    698.75407  0.026516169   0.02639222            4 
 2197000   0.91306318   -7.0753482     699.3245  0.026525736  0.026384859            4 
 2198000   0.88977542   -7.0780692    697.54747  0.026446295  0.026377535            5 
 2199000    0.8867182   -7.0805354    700.60724  0.026550221   0.02637021            2 
 2200000   0.88977909   -7.0884072    702.15408  0.026596746  0.026362971            2 
 2201000   0.91352793    -7.110381    699.99036   0.02650274  0.026355657            4 
 2202000   0.88506949   -7.0777838    699.55969  0.026474406  0.026348381            2 
 2203000   0.88481248   -7.0793554      700.884  0.026512483  0.026341098            4 
 2204000   0.89670342   -7.0614429     702.5007  0.026561581  0.026333852            4 
 2205000   0.92105161   -7.0542341    701.36081  0.026506455  0.026326605            2 
 2206000   0.92510939   -7.0824178    700.95995  0.026479297  0.026319377            3 
 2207000   0.90610002   -7.0466498    701.11774  0.026473257  0.026312102            3 
 2208000   0.89556041   -7.0339669    702.21289    0.0265026  0.026304888            3 
 2209000   0.87673015   -7.0745274    700.78701  0.026436812  0.026297653            3 
 2210000   0.88557594   -7.0886625    702.74662  0.026498741   0.02629038            4 
 2211000   0.88886775   -7.0653625    701.81372  0.026451595  0.026283115            6 
 2212000   0.89153097   -7.0943585    700.27591  0.026381703  0.026275876            5 
 2213000   0.89613926   -7.0821254    702.77698  0.026463962  0.026268629            2 
 2214000   0.91360805    -7.102198    702.30812  0.026434362  0.026261446            4 
 2215000   0.90870934   -7.0738808    703.29216  0.026459449  0.026254243            7 
 2216000   0.87383865   -7.0784151    701.78326  0.026390766  0.026246961            3 
 2217000   0.90542428   -7.0568004    702.73209  0.026414527  0.026239728            4 
 2218000   0.89120157   -7.0619107    705.08483  0.026491014  0.026232512            2 
 2219000   0.90489625   -7.0734097       701.59  0.026347829  0.026225281            3 
 2220000   0.89050506   -7.0485144    702.39773  0.026366281  0.026218006            6 
 2221000   0.88880887   -7.1023414    701.58421  0.026323886  0.026210726            6 
 2222000   0.90776399   -7.0986389    702.30036  0.026338897   0.02620341            3 
 2223000   0.90789465   -7.0734274    702.68291  0.026341389  0.026196143            6 
 2224000   0.91334643    -7.061204    702.70163  0.026330247  0.026188898            5 
 2225000   0.89396431   -7.0832749    703.80814  0.026359855  0.026181722            6 
 2226000   0.88742784    -7.086888    703.40953  0.026333091  0.026174534            6 
 2227000   0.87135793   -7.0881614    703.91444   0.02634016  0.026167345            3 
 2228000   0.88778442   -7.1158521    704.88159  0.026364512  0.026160207            8 
 2229000   0.88254907   -7.0807823    704.02605  0.026320699  0.026152979            5 
 2230000    0.9046366   -7.0968656    703.91451  0.026304727   0.02614575            5 
 2231000   0.91090914   -7.0790939     705.2605  0.026343213  0.026138546            5 
 2232000   0.90761767   -7.0797514    704.02318  0.026285214  0.026131334            4 
 2233000   0.89563603   -7.0642721    705.20512  0.026317552  0.026124148            6 
 2234000     0.894903   -7.0780181    706.30127   0.02634666  0.026116946            4 
 2235000   0.86472952   -7.0939572    706.49652  0.026342152  0.026109813            3 
 2236000   0.88591783   -7.0627782    706.18944  0.026318927  0.026102769            7 
 2237000   0.89100147    -7.047811    705.47098  0.026280397  0.026095696            1 
 2238000   0.89167123   -7.1026301    705.57691  0.026272599  0.026088558            5 
 2239000   0.89249884   -7.0871933     704.5074  0.026221058  0.026081379            7 
 2240000   0.91361032   -7.0724753    707.74895  0.026329946  0.026074242            3 
 2241000   0.90318138   -7.0680551    707.13279  0.026295285  0.026067186            6 
 2242000   0.90562862   -7.0921118    708.24731  0.026324982  0.026060143            3 
 2243000   0.90983837   -7.0861052    707.02848  0.026267963  0.026053033            4 
 2244000   0.90155819   -7.0864837    707.10518  0.026259105  0.026045901            3 
 2245000   0.89462875   -7.0885751    708.04288  0.026282215  0.026038809            9 
 2246000   0.90223167   -7.0936569    707.41102  0.026247069  0.026031711            1 
 2247000   0.89043151   -7.0962062    707.92588  0.026254483   0.02602456            6 
 2248000   0.88692279   -7.0899292    706.43481   0.02618753  0.026017487            9 
 2249000   0.88351014   -7.0933976    706.47556  0.026177396  0.026010344            6 
 2250000   0.88861984   -7.1025028    707.84973  0.026216657  0.026003162            4 
 2251000   0.87996432    -7.073723    709.00683  0.026247847  0.025996017            6 
 2252000   0.87332649   -7.1187876    709.09519  0.026239461  0.025988906            5 
 2253000   0.90608442   -7.0870406    708.95637   0.02622268  0.025981817            3 
 2254000   0.88033406   -7.0872692    708.01906  0.026176392  0.025974717            2 
 2255000   0.92668794   -7.0582214    708.24733   0.02617322  0.025967602            5 
 2256000   0.89595673    -7.114176     708.5173  0.026171591  0.025960521            5 
 2257000   0.88885352   -7.1190133    709.45391  0.026194577  0.025953431            5 
 2258000   0.87082776   -7.1015934    708.75424  0.026157154  0.025946275            4 
 2259000   0.88397079   -7.0870792      708.569  0.026138741  0.025939089            4 
 2260000   0.89820426   -7.0812633    706.73644  0.026059603  0.025931935            8 
 2261000   0.89050655   -7.1329076    708.18899  0.026101614   0.02592469            4 
 2262000   0.88552739    -7.094977    709.24664  0.026129039   0.02591741            4 
 2263000   0.88415447   -7.1380198    709.35887  0.026121626  0.025910136            4 
 2264000   0.88450376   -7.0727525    709.18364  0.026103638  0.025902939            4 
 2265000   0.89835292   -7.1114687    707.72345   0.02603839  0.025895799           10 
 2266000   0.88622531   -7.1273905    710.48433  0.026128432  0.025888645            7 
 2267000   0.91324429   -7.1033912    706.51943   0.02597116  0.025881455            4 
 2268000   0.88790145   -7.1202712    709.48688  0.026068742  0.025874267            3 
 2269000   0.89941763   -7.1020122    708.93142  0.026036853  0.025867055            3 
 2270000   0.89466991   -7.0769619    709.02618  0.026028861  0.025859848            3 
 2271000   0.89872292   -7.1378936    708.18736   0.02598662  0.025852638            5 
 2272000   0.87090779   -7.0841969     709.7298  0.026031756  0.025845441            4 
 2273000   0.89469464   -7.1037494    709.01831  0.025994219  0.025838248            4 
 2274000   0.89408014   -7.0857379    709.40351  0.025996904  0.025831029            4 
 2275000   0.89899637    -7.107004    709.10617  0.025974585  0.025823825            6 
 2276000   0.89217878   -7.1123727    710.95502  0.026030866  0.025816599            4 
 2277000   0.87960271   -7.1068366    712.66069  0.026081858  0.025809409            5 
 2278000   0.87855731   -7.0978715    711.46643  0.026026721    0.0258023            9 
 2279000   0.88867844   -7.0883329    710.88049  0.025993875  0.025795205            4 
 2280000   0.87679874   -7.1308389    711.31861  0.025998487  0.025788087            7 
 2281000   0.86523229   -7.1249958    712.12827  0.026016669  0.025780979            2 
 2282000   0.89381783   -7.1065001    711.24321  0.025972948  0.025773929            7 
 2283000   0.87374287   -7.0874144    711.50081  0.025970974  0.025766825            3 
 2284000   0.88906572   -7.0901145    711.42349  0.025956782  0.025759721            3 
 2285000   0.88314705   -7.1227334    710.20317  0.025900918   0.02575264            4 
 2286000   0.86503616   -7.1180542    713.29624  0.026002342  0.025745545            6 
 2287000   0.90050319    -7.096884    712.90669  0.025976778  0.025738487            7 
 2288000   0.88996599   -7.1291763    711.63986  0.025919284  0.025731374           10 
 2289000   0.87744155   -7.1022674    711.81694  0.025914407  0.025724257            3 
 2290000   0.90079713   -7.0757699    713.45824  0.025962818  0.025717161            8 
 2291000   0.86226358   -7.1176512    712.34907   0.02591114  0.025710034            5 
 2292000   0.88199596   -7.0940072    712.64267   0.02591051  0.025702932            3 
 2293000   0.89429418   -7.1181475    712.33872  0.025888164  0.025695925            7 
 2294000   0.87465369   -7.1088659    714.53641  0.025956713  0.025688927            3 
 2295000   0.88712004   -7.0867321    712.93739  0.025887342  0.025681896            5 
 2296000   0.87139015   -7.0767229    715.85955  0.025982126  0.025674865            7 
 2297000   0.89069206   -7.0964654    713.15909  0.025872845  0.025667854            3 
 2298000    0.8918998   -7.1094216    713.92056  0.025889199  0.025660806            4 
 2299000   0.89254506   -7.0896499    713.90967  0.025877543  0.025653736            6 
 2300000   0.87035075   -7.0917538     714.3141  0.025880946  0.025646646            3 
 2301000   0.90284218   -7.1131261     712.4622  0.025802629  0.025639577            6 
 2302000   0.87862075   -7.1081061    715.00491  0.025883468  0.025632469            7 
 2303000   0.88182744   -7.0886732     715.9917  0.025907935  0.025625408            3 
 2304000   0.89094278    -7.101804    714.62476   0.02584725  0.025618346            9 
 2305000   0.89057474   -7.0985308    715.71435  0.025875428  0.025611329            5 
 2306000   0.87450334   -7.0995504    714.44176  0.025818219  0.025604291            4 
 2307000   0.89172289   -7.0928127    715.90199  0.025859774  0.025597227            6 
 2308000   0.88963832   -7.1432489    713.06906  0.025746283  0.025590149            7 
 2309000   0.87848929   -7.1126427    715.02871  0.025805858  0.025583058            3 
 2310000   0.88734612   -7.1010646    715.89636  0.025825987  0.025575947            4 
 2311000   0.90895208   -7.1155367    714.39111  0.025760533  0.025568843            4 
 2312000   0.88156889   -7.1453179     714.5527  0.025755215  0.025561684           10 
 2313000   0.88654485   -7.1001349    716.06536  0.025798579   0.02555453            5 
 2314000   0.86015106   -7.1443652    715.65289  0.025772576  0.025547456            4 
 2315000   0.88757177   -7.1012519    715.72547  0.025764056  0.025540353            5 
 2316000    0.8960123   -7.1246388    714.91226  0.025723671   0.02553331            4 
 2317000   0.87298084   -7.1265378    715.75189  0.025742767  0.025526231            4 
 2318000   0.88515713   -7.1090317    716.44897  0.025756722  0.025519147            4 
 2319000   0.89074869   -7.1280584    713.92101  0.025654773  0.025512082            6 
 2320000   0.87800309   -7.1085818    716.86646  0.025749514  0.025505035            4 
 2321000    0.8840368   -7.0926553    717.70442  0.025768506   0.02549804           11 
 2322000   0.87610229   -7.1263779      715.784  0.025688487   0.02549105            3 
 2323000    0.8798747   -7.1166679    716.90273  0.025717561     0.025484            8 
 2324000   0.86537032   -7.1097441    717.42057  0.025725064  0.025476976            6 
 2325000   0.89134008    -7.092164    718.79295  0.025763188  0.025470019            3 
 2326000   0.88080375   -7.0947401    716.58178  0.025672893  0.025463028            6 
 2327000     0.871947   -7.1247495    717.58273  0.025697706  0.025456014            8 
 2328000   0.89162865   -7.1312227    716.90084  0.025662258  0.025448981            5 
 2329000   0.87523053   -7.1463363    717.02797  0.025655788    0.0254419            7 
 2330000    0.8748178   -7.0880515    716.96424  0.025642498  0.025434854            5 
 2331000   0.89142914   -7.1108041    717.07092  0.025635311  0.025427834            4 
 2332000   0.88764603   -7.1199193    718.19563  0.025664509   0.02542083            3 
 2333000   0.89421643   -7.1232482     717.3129  0.025621978  0.025413849            4 
 2334000   0.88389266   -7.0987368    718.55843  0.025655471  0.025406879            4 
 2335000   0.88632759   -7.1439031     717.1203  0.025593159  0.025399873            7 
 2336000   0.88964835   -7.1113257    717.99534  0.025613418   0.02539284           14 
 2337000   0.87906471   -7.1321652    718.20689  0.025610002  0.025385766            4 
 2338000   0.87330773   -7.1289403    719.22594   0.02563537  0.025378736            3 
 2339000   0.87491584   -7.1238209    718.80385  0.025609372  0.025371702            9 
 2340000   0.87580628   -7.1120112    719.06249  0.025607638   0.02536462            3 
 2341000   0.88184272   -7.1416109    719.22339  0.025602427   0.02535751            6 
 2342000   0.87066933   -7.1475481    717.80505  0.025541028  0.025350426            2 
 2343000   0.88975259   -7.0819375    719.18632  0.025579254  0.025343323            3 
 2344000   0.86045084   -7.1087254    719.28018  0.025571679  0.025336255            6 
 2345000   0.89482218    -7.125945    718.16649  0.025521197  0.025329125            3 
 2346000   0.87283461   -7.1264547    716.85777  0.025463831  0.025321982            3 
 2347000   0.88486325   -7.1061747     718.4729  0.025510329  0.025314854            9 
 2348000   0.87279797   -7.1623627    718.91275  0.025515075  0.025307709            5 
 2349000   0.86185373   -7.1280039     719.0238  0.025508152  0.025300626           17 
 2350000   0.88091308   -7.1276834    719.98205  0.025531278  0.025293553            8 
 2351000   0.85268561   -7.1337385    719.36131  0.025498416  0.025286476            5 
 2352000   0.88142908   -7.1230832    720.03087  0.025511298  0.025279382            4 
 2353000   0.87018038   -7.1332967    719.40386   0.02547825  0.025272311            8 
 2354000    0.8737582   -7.1336337    718.72586  0.025443425  0.025265243            4 
 2355000   0.87007798   -7.1096571    719.98032  0.025477011  0.025258167            2 
 2356000   0.87025589    -7.120634    720.95061  0.025500517   0.02525108            6 
 2357000   0.86645302   -7.1600361    719.28892  0.025430948  0.025243964            3 
 2358000   0.89896904   -7.1223062    719.96189  0.025443946  0.025236817            3 
 2359000   0.87677356   -7.1294692    718.21315  0.025371385  0.025229688            5 
 2360000   0.87099187   -7.1249898    718.05207  0.025354946  0.025222543            4 
 2361000   0.87837183   -7.1514207    720.12027  0.025417205  0.025215463            3 
 2362000   0.87176162   -7.1145757     721.5478  0.025456809  0.025208307            2 
 2363000   0.87669775    -7.128559    720.16389  0.025397231  0.025201149            3 
 2364000   0.86936507   -7.1015425    721.49901  0.025433552  0.025193976            5 
 2365000   0.87162148   -7.1265291    718.16461  0.025305307   0.02518681            2 
 2366000   0.88576541   -7.1042417    721.05897  0.025396554  0.025179641            4 
 2367000   0.87593413   -7.1457617    719.82982  0.025342551  0.025172558           11 
 2368000   0.85933391   -7.0943956    722.11157  0.025412147  0.025165487            5 
 2369000    0.8726581   -7.1445319    720.58794  0.025347824  0.025158396            3 
 2370000   0.87417847   -7.1483668    719.89307  0.025312696  0.025151271            3 
 2371000    0.8764118   -7.1245087    719.21778  0.025278285  0.025144107           10 
 2372000   0.85492882   -7.1227402    721.48689  0.025347347  0.025136942            2 
 2373000   0.88626016   -7.1459097    722.41016  0.025369088  0.025129758            2 
 2374000   0.87282117    -7.120859    721.17859  0.025315171  0.025122624            2 
 2375000   0.86134765   -7.1721484    721.36555  0.025311072  0.025115514            7 
 2376000   0.88471682   -7.1212315    720.59577  0.025273421  0.025108445            4 
 2377000   0.87922749   -7.1186093    720.69359  0.025266218  0.025101334            6 
 2378000   0.87981573   -7.1211671    721.98724  0.025300927  0.025094255            4 
 2379000   0.87580296   -7.1352409    721.87485  0.025286354  0.025087173           19 
 2380000   0.88156383   -7.0981032    723.58904  0.025335751  0.025080157            3 
 2381000   0.86926993   -7.1359873    723.43207  0.025319616  0.025073091            5 
 2382000   0.89500293   -7.1442691    721.16916   0.02522982  0.025065954           10 
 2383000   0.85705628   -7.1481646    721.65944  0.025236377  0.025058825            6 
 2384000   0.85443682   -7.1476251     722.1031    0.0252413  0.025051738            2 
 2385000   0.86677514   -7.1465742    721.69031  0.025216293  0.025044652            7 
 2386000   0.87103195    -7.169053    722.54949  0.025235732  0.025037557            4 
 2387000   0.86839489   -7.1477201    725.71084  0.025335527  0.025030463            5 
 2388000   0.87724108   -7.1580914    722.54454  0.025214424  0.025023354            3 
 2389000   0.87542531   -7.1549521    722.50924  0.025202638  0.025016199           18 
 2390000   0.86124275   -7.1567883    723.22503  0.025217051   0.02500899            3 
 2391000   0.87391366    -7.140242    723.02741  0.025199617  0.025001852            3 
 2392000   0.85701645   -7.1496185    722.84967   0.02518289  0.024994723            5 
 2393000   0.85785522   -7.1323723     722.7471  0.025168794  0.024987569            3 
 2394000   0.86803568   -7.1166346    722.33193  0.025143829  0.024980423            2 
 2395000   0.87431611   -7.1463843    723.75944  0.025183001   0.02497336            6 
 2396000   0.86465837     -7.12429     724.5568  0.025200222  0.024966253            4 
 2397000   0.87949666   -7.1405721    723.74111  0.025161351   0.02495918            7 
 2398000    0.8628949   -7.1459502    723.69014  0.025149087  0.024952157            1 
 2399000   0.83904577   -7.1372434    724.13447  0.025154039  0.024945131            3 
 2400000   0.88058656   -7.1618925    724.34421  0.025150841  0.024938049            3 
 2401000   0.87771222   -7.1653315    725.12583  0.025167494  0.024930983            8 
 2402000   0.86397757   -7.1364913    725.25353  0.025161446  0.024923945            5 
 2403000    0.8796613   -7.1365724    725.25305  0.025150959  0.024916892            5 
 2404000   0.85637767   -7.1601855    724.55597  0.025116333  0.024909884            5 
 2405000   0.86622723   -7.1321565      724.572  0.025106445  0.024902847            4 
 2406000   0.86767819    -7.145201    725.05785  0.025112838  0.024895749            6 
 2407000   0.85515097   -7.1625262    725.21585  0.025107875  0.024888678            7 
 2408000   0.85171958   -7.1673009    725.93962  0.025122495  0.024881668            3 
 2409000   0.86060206   -7.1573862    727.14988  0.025153932  0.024874672            4 
 2410000   0.85457576   -7.1334895    727.43759  0.025153444   0.02486773            3 
 2411000   0.88177614   -7.1409525    727.61558  0.025149163  0.024860751            4 
 2412000   0.83841164   -7.1552318     726.2303  0.025090875  0.024853764            3 
 2413000   0.88486733   -7.1360821    728.17273  0.025147559  0.024846789            3 
 2414000   0.86243207   -7.1603487    726.10146   0.02506564    0.0248398            4 
 2415000   0.85704228   -7.1054887    726.81114   0.02507975  0.024832816            7 
 2416000   0.88356595   -7.1418837    726.94248  0.025073899  0.024825812            5 
 2417000   0.87158895   -7.1542388    725.24627  0.025005043  0.024818825            4 
 2418000   0.87565114   -7.1489284    728.67403  0.025112835  0.024811898            4 
 2419000   0.87105657   -7.1372047    728.59439   0.02509971  0.024804999            6 
 2420000   0.87606798   -7.1418219    728.85508  0.025098315  0.024798065            3 
 2421000   0.83735641   -7.1499891     727.1619  0.025029668  0.024791119            3 
 2422000   0.84856899   -7.1256787    727.65312  0.025036234    0.0247842            8 
 2423000   0.85578492   -7.1396932    729.74567   0.02509787  0.024777263            6 
 2424000   0.84917519   -7.1630225     727.9281  0.025025031  0.024770307            9 
 2425000   0.86672006   -7.1681108    727.62215  0.025004198  0.024763344            6 
 2426000   0.85580151   -7.1474908    726.74919  0.024963905  0.024756369            7 
 2427000   0.85094052   -7.1721882    728.68683  0.025020149  0.024749429            4 
 2428000   0.85341592   -7.1310974    730.27252  0.025064268  0.024742498            4 
 2429000   0.87206357   -7.1598819    727.07915  0.024944392  0.024735539            4 
 2430000   0.86117399   -7.1504746    730.24095  0.025042557  0.024728606            8 
 2431000   0.84820631   -7.1522103    728.75579  0.024981345  0.024721719            3 
 2432000    0.8427114   -7.1387137    729.23153  0.024987374  0.024714817            5 
 2433000   0.85663974   -7.1532113    728.47419  0.024951164  0.024707913            4 
 2434000   0.88411475   -7.1473521    730.01697  0.024993733  0.024701036            6 
 2435000   0.87631532   -7.1688071    731.73238  0.025042176  0.024694178            4 
 2436000    0.8449255   -7.1640004    729.64889  0.024960622  0.024687243            3 
 2437000   0.86566707   -7.1525691    730.82112  0.024990464  0.024680324           10 
 2438000   0.86981895   -7.1531223    729.58395  0.024937925  0.024673402           11 
 2439000   0.86104267    -7.149531    729.27822  0.024917255  0.024666469            8 
 2440000   0.86874846   -7.2044066    727.46497  0.024845115   0.02465954            4 
 2441000   0.87995162    -7.154708    731.35818  0.024967847  0.024652661            7 
 2442000   0.87576147    -7.161776    731.94019  0.024977484  0.024645803            4 
 2443000   0.86506068   -7.1617476     729.7194  0.024891506  0.024638903            4 
 2444000   0.84913024   -7.1393965    732.01702  0.024959664  0.024632084            4 
 2445000   0.85487739   -7.1537096    729.90323  0.024877411  0.024625235            3 
 2446000   0.86128578   -7.1513589    730.15291  0.024875746  0.024618322            8 
 2447000   0.85660018   -7.1387836    731.56004  0.024913501  0.024611415            5 
 2448000   0.86462776   -7.1445849     730.8619  0.024879558  0.024604589           15 
 2449000   0.86407166   -7.1881751    731.68043  0.024897252  0.024597726            4 
 2450000     0.860908   -7.1629276    731.04539   0.02486549  0.024590858            7 
 2451000   0.85270314   -7.1465201     731.5821  0.024873593  0.024583963            8 
 2452000   0.85325538   -7.1829292    729.27617  0.024785079  0.024577006            3 
 2453000   0.86773636   -7.1880349    729.28512  0.024775279  0.024570047            6 
 2454000   0.85503543   -7.1758726    730.95243  0.024821802  0.024563092            5 
 2455000   0.86298853   -7.1842923    734.15404  0.024920368  0.024556153           10 
 2456000   0.85901042   -7.1693478    732.22273  0.024844691  0.024549222           10 
 2457000   0.86359567   -7.1780043    731.25032  0.024801598  0.024542301            7 
 2458000   0.84297132   -7.1915221    728.93446  0.024712994  0.024535356            5 
 2459000   0.85552124   -7.1744563     731.4086   0.02478679  0.024528372            4 
 2460000   0.85570301   -7.1901325     731.6195  0.024783858  0.024521371            4 
 2461000   0.87518167     -7.17326    732.36841  0.024799147  0.024514424            4 
 2462000   0.84693123   -7.1719789    733.58527  0.024830262  0.024507436            5 
 2463000   0.84861474   -7.1783683    734.03806  0.024835501  0.024500476            5 
 2464000   0.84969108   -7.1513764    731.74612  0.024747907  0.024493569            4 
 2465000   0.86166655   -7.2027867    732.52879  0.024764327  0.024486688            3 
 2466000   0.86444213   -7.1813166    732.48559  0.024752825  0.024479734            6 
 2467000   0.85103107   -7.1595134     733.5174  0.024777645   0.02447284            7 
 2468000   0.85718804   -7.1302093    734.17899  0.024789944  0.024465984            4 
 2469000   0.86885445   -7.1749741    734.10441  0.024777386  0.024459112            6 
 2470000   0.85726138   -7.1900313    733.10877  0.024733764  0.024452226            5 
 2471000   0.85660279   -7.1697297     734.8069  0.024781023  0.024445375            4 
 2472000   0.84883332    -7.165708    734.95675   0.02477605  0.024438545            7 
 2473000   0.84819617   -7.1213998    734.60535   0.02475419   0.02443172            2 
 2474000   0.86070026    -7.171274    732.90115  0.024686781  0.024424915            6 
 2475000   0.86091007   -7.1527163    734.20617  0.024720746  0.024418111            3 
 2476000   0.84944973   -7.1902871    733.92891  0.024701431  0.024411292            5 
 2477000    0.8640744   -7.1626763    736.26433  0.024770029  0.024404523            6 
 2478000   0.83986741   -7.1564435    736.16204  0.024756593  0.024397789            4 
 2479000   0.85155691   -7.1377433     734.7992  0.024700793  0.024391102            3 
 2480000    0.8685286   -7.1815045    735.16966  0.024703282  0.024384341            9 
 2481000   0.86373537   -7.1704513    732.73408  0.024611517  0.024377563            4 
 2482000   0.82441375   -7.1965871    736.18989   0.02471763  0.024370764            4 
 2483000   0.83752642   -7.1779638    735.35698  0.024679721  0.024363939            4 
 2484000   0.85088912   -7.1862104    735.06858  0.024660111  0.024357124            6 
 2485000   0.86575795   -7.1946898    734.58405  0.024633939  0.024350301            6 
 2486000   0.85059793   -7.1577635    736.45198  0.024686645  0.024343522           10 
 2487000   0.83941948   -7.1783785    736.42509  0.024675817  0.024336695            4 
 2488000    0.8463433    -7.184571    738.11301  0.024722435  0.024329843            7 
 2489000   0.85914916   -7.1655425    736.97124  0.024674275  0.024323026            4 
 2490000   0.84761046    -7.163471    735.83445   0.02462632  0.024316233            4 
 2491000   0.85077017   -7.1752974    737.18958  0.024661768  0.024309477            4 
 2492000   0.83368181   -7.1654725    737.16393  0.024651014  0.024302679            7 
 2493000   0.86672438   -7.1642822    736.68837   0.02462523  0.024295858            2 
 2494000   0.84707098   -7.1799519    737.93055  0.024656862  0.024289063            4 
 2495000   0.86873881   -7.1789748    736.59728  0.024602448  0.024282277            7 
 2496000   0.81028689   -7.1905419    735.08018   0.02454194  0.024275474            4 
 2497000   0.85851451   -7.1698742    737.83286  0.024623977  0.024268676            3 
 2498000   0.83838108   -7.2009353    736.25047  0.024561331  0.024261847           10 
 2499000   0.84588231   -7.2018925    734.20453  0.024483278  0.024255014            7 
 2500000   0.84629016   -7.2002656    736.53115  0.024551038  0.024248177            8 
 2501000   0.85601601   -7.1784911    737.28564  0.024566362  0.024241388            9 
 2502000   0.84877685   -7.1752253    737.43286  0.024561446  0.024234591            8 
 2503000   0.86008818   -7.1526337    738.55206  0.024588895  0.024227841            7 
 2504000   0.84554143   -7.1636064    738.73575  0.024585189  0.024221109            6 
 2505000   0.83667823   -7.1898312    737.51616  0.024534802  0.024214358            5 
 2506000   0.84191533   -7.1701695    740.06547  0.024609785  0.024207582            2 
 2507000   0.84782088   -7.1553707     739.2032  0.024571307  0.024200816            5 
 2508000   0.84140806   -7.1998544    738.58644  0.024541017  0.024194026            4 
 2509000   0.84741971   -7.2005753    737.80571  0.024505305  0.024187206            6 
 2510000   0.81956453   -7.1774582    735.95882  0.024434224  0.024180345            6 
 2511000    0.8620516   -7.1931483     736.5959  0.024445636  0.024173516            2 
 2512000   0.84660526   -7.1586239    738.82492   0.02450985  0.024166681            4 
 2513000   0.83360097   -7.1804783    739.26506  0.024514692  0.024159894            7 
 2514000   0.84059656   -7.1737027    737.39126  0.024442829  0.024153097            5 
 2515000    0.8689769   -7.1966791    738.32755  0.024464134  0.024146357            6 
 2516000   0.85060138   -7.1837745    739.96886  0.024508772  0.024139668           11 
 2517000   0.85801635   -7.1727514    737.90345  0.024430653  0.024132911            5 
 2518000    0.8418312   -7.1886983    737.92646  0.024421712  0.024126182            4 
 2519000   0.84588266   -7.1728493    738.65874  0.024436243  0.024119469            4 
 2520000   0.85032233   -7.1726677    739.89071  0.024467285  0.024112754            3 
 2521000   0.84734071   -7.1849723     741.7459  0.024518905   0.02410605            4 
 2522000   0.86598703   -7.1754252    738.40054  0.024398643  0.024099342            5 
 2523000   0.83771161   -7.1693528    741.42517  0.024488875   0.02409264            5 
 2524000   0.85793575   -7.1756846     739.2242  0.024406504   0.02408595            4 
 2525000   0.84635718   -7.1637924    740.37974  0.024434975  0.024079253            5 
 2526000   0.83716108   -7.1850795    740.68431  0.024435349   0.02407256            9 
 2527000   0.85145605   -7.2003147    739.84315   0.02439794   0.02406586            5 
 2528000   0.82897187   -7.1743136    742.04942  0.024461017  0.024059148            4 
 2529000   0.84524202   -7.1561037    742.42317  0.024463661  0.024052483            4 
 2530000   0.86135161   -7.1938722    741.00227  0.024407189  0.024045821            7 
 2531000   0.85801243   -7.1983226    742.01052  0.024430743  0.024039183            6 
 2532000   0.85392422   -7.1878023     742.4262  0.024434775  0.024032539            3 
 2533000   0.83735254    -7.190998    742.67133  0.024433193  0.024025889            3 
 2534000   0.84299175   -7.1996792    742.57554    0.0244204  0.024019262            4 
 2535000   0.82177342   -7.1768111    742.93833  0.024422693   0.02401262            9 
 2536000   0.83722989   -7.1818843    742.16905  0.024387784  0.024005966            8 
 2537000   0.83378403   -7.1695028    740.81469  0.024333684   0.02399923            6 
 2538000   0.83911398   -7.1890714    741.63983   0.02435119  0.023992516            4 
 2539000   0.85927528   -7.2057959    740.93453   0.02431845  0.023985805            5 
 2540000   0.85002336   -7.2242207    739.42854  0.024259467  0.023979068            4 
 2541000   0.86018938   -7.1882966    740.01611  0.024269189  0.023972303            3 
 2542000   0.85402339   -7.1789681    740.69667  0.024281952   0.02396557            4 
 2543000   0.85702386   -7.1930136    741.80655  0.024308774   0.02395886            5 
 2544000   0.85686844   -7.1819832    741.81928  0.024299636  0.023952138            7 
 2545000    0.8347202   -7.1975374    742.12082  0.024299961  0.023945366            4 
 2546000   0.84797721    -7.195016    740.46262  0.024236142  0.023938601            2 
 2547000     0.844489   -7.1914685    739.88231   0.02420764   0.02393183            4 
 2548000      0.82635   -7.1758959     740.6556   0.02422343  0.023925095            6 
 2549000   0.81711278   -7.1937927    742.16837  0.024263383  0.023918371            5 
 2550000   0.84598519   -7.1920988    743.05976  0.024282999  0.023911671            5 
 2551000   0.83280023   -7.2047794    740.73388    0.0241975   0.02390491            4 
 2552000   0.83334544   -7.1884411    741.78016  0.024222184  0.023898125            9 
 2553000   0.86333998   -7.2207847     742.2627  0.024228447  0.023891345            7 
 2554000   0.84592273   -7.1543862    743.27861  0.024252108  0.023884578            2 
 2555000   0.83596758   -7.1824572    743.54728  0.024251379  0.023877822            4 
 2556000   0.84272541   -7.1877974    742.60951  0.024211317  0.023871059            5 
 2557000   0.82615926   -7.1715212    742.27862  0.024191064  0.023864334            7 
 2558000   0.85346299   -7.2253497    741.38911  0.024152629  0.023857598            5 
 2559000   0.85935758   -7.1897665    742.25272  0.024171314  0.023850878            4 
 2560000   0.83541763   -7.2014305    743.02583  0.024187039  0.023844135            4 
 2561000   0.83597533   -7.2019104    742.87581  0.024172713  0.023837342            6 
 2562000   0.86092406   -7.1960163    741.76502  0.024127148  0.023830633            3 
 2563000   0.83941264   -7.1974167    744.68934  0.024212815  0.023823909            4 
 2564000   0.83125904   -7.2187841    742.19053  0.024122157  0.023817171            4 
 2565000   0.83500765   -7.1926653    744.28274  0.024180726  0.023810431            6 
 2566000    0.8347947   -7.2040024    741.39399  0.024077487  0.023803698            6 
 2567000   0.86991154   -7.1953786    742.71459  0.024110979  0.023796918            2 
 2568000   0.85480478   -7.2063715     742.8486  0.024105938  0.023790184            8 
 2569000   0.81316958   -7.2204006    745.08365  0.024169056  0.023783376            3 
 2570000   0.85047434   -7.1901611    742.33755  0.024070608  0.023776616            4 
 2571000   0.83844607   -7.2002061    745.89751  0.024176634  0.023769888            6 
 2572000   0.84029399   -7.1802977    743.84091    0.0241006  0.023763167            7 
 2573000   0.83293178   -7.1785965    744.04189  0.024097742  0.023756454            5 
 2574000   0.85082171   -7.2023137    745.16908  0.024124873  0.023749766            6 
 2575000   0.83399122   -7.2164481    745.50124  0.024126254  0.023743063            3 
 2576000   0.86302345    -7.187984    746.11964  0.024136893   0.02373636            7 
 2577000   0.83707626   -7.1620689    745.72916    0.0241149  0.023729681            5 
 2578000   0.83649865   -7.1944574    744.98635  0.024081534  0.023722966            3 
 2579000   0.84895418   -7.1814785    744.55708  0.024058326  0.023716151            5 
 2580000   0.86332249   -7.2097406     744.2852   0.02404022  0.023709405            5 
 2581000   0.82729087    -7.212579    743.81043  0.024015576  0.023702612            9 
 2582000   0.83247047   -7.1760893    744.14585  0.024017101  0.023695849            7 
 2583000   0.83767958   -7.2135294    744.22438  0.024010336  0.023689097            5 
 2584000   0.85957949   -7.1973253    744.98664  0.024025627  0.023682363           10 
 2585000   0.83767683   -7.2168672    745.36928  0.024028668  0.023675641            4 
 2586000   0.83106953   -7.2119971    744.61164  0.023994961  0.023668895            5 
 2587000    0.8340777   -7.2156025     746.1143   0.02403409  0.023662162            9 
 2588000   0.82767758   -7.2099305    744.81998  0.023983127  0.023655478            4 
 2589000   0.83707208   -7.2073128    744.57023  0.023965824  0.023648757            5 
 2590000   0.83402167   -7.2144045    746.31548  0.024012725  0.023642028            4 
 2591000   0.83539976   -7.2175908    745.12921  0.023965303  0.023635298            5 
 2592000   0.83834512   -7.1922586     743.9685   0.02391874  0.023628598            9 
 2593000   0.83613986   -7.1908944    745.18794  0.023948706  0.023621879           12 
 2594000   0.80254036    -7.223018    745.01866  0.023934036  0.023615166            5 
 2595000   0.84578052   -7.1992894    746.33872  0.023967203  0.023608396           13 
 2596000   0.82819931   -7.2199649    744.62054  0.023902816  0.023601601            6 
 2597000   0.83445455    -7.269951    744.79102  0.023899083  0.023594821            9 
 2598000   0.83536845   -7.2061669    747.20283  0.023967245  0.023587991            7 
 2599000   0.83897834   -7.2055415    745.45535  0.023901993  0.023581179            5 
 2600000   0.82374475   -7.2223776    745.06122  0.023880167  0.023574352            5 
 2601000   0.83883633   -7.2109278    746.61436  0.023920747  0.023567554            4 
 2602000   0.82456218     -7.20358    745.82518  0.023886279  0.023560752            5 
 2603000   0.84787601   -7.1986332    745.10825  0.023854151  0.023553959            6 
 2604000   0.82032861   -7.2564799     744.7485  0.023833477   0.02354713            5 
 2605000   0.82519931    -7.225991    745.42078  0.023845834  0.023540294            4 
 2606000   0.85227742   -7.1852432    745.42418  0.023836793  0.023533464            8 
 2607000   0.85110785   -7.2136454    744.95828  0.023812757  0.023526625            4 
 2608000   0.83485406   -7.2285785    745.79312  0.023830302  0.023519764            4 
 2609000   0.81148873   -7.2136619    747.94598  0.023889932  0.023512986            3 
 2610000   0.83671264   -7.2166359    746.66479  0.023839872  0.023506231            7 
 2611000   0.82994476   -7.2023363    746.12557  0.023813532  0.023499441            5 
 2612000   0.85103954   -7.1925812    746.28266  0.023809426  0.023492696            3 
 2613000   0.82758303   -7.1775323    746.69318  0.023813407  0.023485916            4 
 2614000   0.83892479   -7.2062809    745.55548  0.023768027  0.023479114            3 
 2615000   0.82718649   -7.1929207    745.93287  0.023770965   0.02347235            4 
 2616000   0.82937401   -7.2234041    746.54385  0.023781341   0.02346559            3 
 2617000   0.84544862   -7.1873569    747.79627  0.023812135  0.023458833            5 
 2618000   0.83797594   -7.1858269    747.23386  0.023785137  0.023452058            5 
 2619000   0.83939931   -7.2462976    745.61318  0.023724487  0.023445253            5 
 2620000   0.82919524    -7.229018    744.24282  0.023671846  0.023438425            3 
 2621000    0.8309476   -7.2244062    746.70076  0.023740963  0.023431625            4 
 2622000   0.84218258   -7.2066358    748.39405  0.023785725  0.023424849            4 
 2623000    0.8379844   -7.2248761    747.13434  0.023736636  0.023418085            5 
 2624000   0.83956523   -7.2425629    746.53816  0.023708656  0.023411283            6 
 2625000   0.84857088   -7.2187356    747.95767  0.023744688  0.023404506            8 
 2626000   0.84548294   -7.1967351     748.3373  0.023747693  0.023397726            3 
 2627000    0.8315137   -7.2051374    746.84052  0.023691173  0.023390981            4 
 2628000   0.85520343    -7.212359    747.79541  0.023712437  0.023384241            8 
 2629000   0.81965934   -7.2208697    747.48687  0.023693637  0.023377497            4 
 2630000   0.83966797   -7.2050042    747.70268  0.023691466  0.023370728            4 
 2631000   0.82321698   -7.2243993    747.47287  0.023675183  0.023363986            3 
 2632000    0.8435456   -7.2450887    746.92162  0.023648734  0.023357166            4 
 2633000   0.81333971   -7.2503562    746.04133  0.023611892  0.023350337            3 
 2634000   0.80763951   -7.2354555    749.01331  0.023696954  0.023343507            3 
 2635000   0.85222248   -7.2443917    746.09876  0.023595786  0.023336691            2 
 2636000   0.83269644   -7.2102339    748.01983  0.023647567  0.023329859            5 
 2637000   0.84137677   -7.2207641    748.24297  0.023645651  0.023323044            4 
 2638000   0.83086941   -7.2155967    747.94984  0.023627427  0.023316217            6 
 2639000   0.81951988   -7.1972862    748.48026  0.023635223   0.02330942            4 
 2640000   0.82660591   -7.2542688    746.90452  0.023576532  0.023302633            3 
 2641000     0.840408   -7.2303901    748.47517  0.023617164   0.02329586            4 
 2642000   0.82200102   -7.2470841    745.34448  0.023509478  0.023289064            4 
 2643000   0.82861177   -7.2290352    748.41475  0.023597388  0.023282249            7 
 2644000   0.82620372   -7.2386265    747.42081  0.023557136  0.023275382            4 
 2645000   0.83889632   -7.2223034    747.91117  0.023563679  0.023268548            6 
 2646000   0.82263179   -7.2052446    749.22032  0.023596004  0.023261801            8 
 2647000   0.82914957   -7.2194261    750.45337  0.023625909  0.023255051            4 
 2648000   0.83156755   -7.2250397    749.51623  0.023587495   0.02324828           10 
 2649000    0.8152166   -7.2038487    750.04719  0.023595294  0.023241541            3 
 2650000   0.82667287   -7.2366149    748.06349  0.023524009  0.023234752            7 
 2651000   0.81899056    -7.261671    747.19025  0.023487686  0.023227948            4 
 2652000   0.83459092   -7.2308072    748.28537  0.023513241   0.02322114            4 
 2653000   0.81265565   -7.2178916    749.10902   0.02353025  0.023214366            3 
 2654000   0.84674273   -7.2375406    749.73228  0.023540953  0.023207601            3 
 2655000   0.83419351   -7.2308151    748.01413  0.023478159  0.023200768           13 
 2656000   0.80934562   -7.2461152    746.86222  0.023433177  0.023193951            7 
 2657000   0.83924252   -7.2811858    747.66823  0.023449637  0.023187103            4 
 2658000   0.83790346   -7.2379979    749.61493  0.023501848  0.023180315           10 
 2659000   0.83896739   -7.2380039    750.67701  0.023526295  0.023173528            5 
 2660000    0.8228596   -7.2138865    751.96197  0.023557706   0.02316679            5 
 2661000   0.83620107    -7.234179    749.93164   0.02348527  0.023160029            5 
 2662000   0.80946126    -7.214856    750.95135  0.023508369    0.0231533           16 
 2663000    0.8205223   -7.2247829    748.30637  0.023416772  0.023146519            5 
 2664000   0.82891757   -7.2020822     750.5095  0.023476899   0.02313974            4 
 2665000   0.82115713    -7.228535    749.22023  0.023427775  0.023132969            4 
 2666000   0.82873486   -7.2287377    750.25369  0.023451291   0.02312621            4 
 2667000   0.81136454   -7.2524476    750.10553  0.023437868  0.023119465            4 
 2668000   0.83551052   -7.2205514    751.37829  0.023468837  0.023112732            6 
 2669000   0.82915437   -7.2292802    747.79595  0.023348194  0.023105968            7 
 2670000   0.83656114   -7.2272352    749.23703  0.023384427  0.023099215            4 
 2671000   0.82194926   -7.2495929    748.50401  0.023352802  0.023092432            5 
 2672000   0.78992255   -7.2451412    749.95383  0.023389279  0.023085677            4 
 2673000   0.81542063   -7.2276014    750.05871  0.023383798  0.023078933            6 
 2674000   0.82026668   -7.2464849    751.09944  0.023407487  0.023072218            7 
 2675000   0.83340889   -7.2389385    749.41311  0.023346203  0.023065458            5 
 2676000   0.81830938   -7.2438053    750.91043  0.023384106  0.023058733            4 
 2677000   0.81218295   -7.2240057    751.64473   0.02339823   0.02305202            4 
 2678000   0.83217371   -7.2145984    752.34876    0.0234114   0.02304536            6 
 2679000   0.84066865   -7.2189816    751.78299  0.023385063  0.023038684            8 
 2680000   0.84874687   -7.2263618      753.247  0.023421859  0.023032022            3 
 2681000   0.81275554   -7.2234364    752.91481  0.023402798  0.023025337            5 
 2682000   0.82029831   -7.1880595    753.05067  0.023398293  0.023018669            4 
 2683000   0.83283569    -7.243097    751.69508  0.023347468  0.023012009            5 
 2684000    0.8373827   -7.2356701    753.59812  0.023397855  0.023005296            4 
 2685000      0.83424   -7.2453946    750.37331  0.023289054  0.022998593            4 
 2686000   0.83226915   -7.2545135    750.61962  0.023288025  0.022991834            2 
 2687000   0.82299384   -7.2520343    751.15293  0.023295898   0.02298507            3 
 2688000   0.83288106   -7.2527067    753.03196  0.023345485  0.022978288            8 
 2689000   0.82300755   -7.2384514    751.74771  0.023297004  0.022971519            4 
 2690000   0.82350474   -7.2307759    750.07865  0.023236637  0.022964746            7 
 2691000   0.82211217   -7.2898855    751.12891  0.023260526  0.022957948            3 
 2692000   0.81705357   -7.2593485    751.14007  0.023252231  0.022951145            5 
 2693000   0.82742603   -7.2458898    750.85263  0.023234702  0.022944397            5 
 2694000   0.82542533   -7.2444232    751.38374  0.023242506  0.022937645            8 
 2695000    0.8094904   -7.2299065    753.60988  0.023302717  0.022930885            4 
 2696000   0.82724024   -7.2502309    752.02485  0.023245081  0.022924106            3 
 2697000   0.80580749   -7.2576697    749.95622  0.023172544   0.02291735            2 
 2698000   0.81679922   -7.2572059    753.05082  0.023259539  0.022910567            6 
 2699000   0.81831414   -7.2525423    751.92711  0.023216225    0.0229038            6 
 2700000   0.82298361   -7.2656224    752.81644  0.023235075  0.022897072            4 
 2701000   0.83290554   -7.2561447    750.33123  0.023149797  0.022890266            5 
 2702000   0.82461472    -7.260183     751.7519  0.023185045  0.022883462            9 
 2703000   0.82558586   -7.2236852    753.44962  0.023228808   0.02287672            4 
 2704000   0.83457059   -7.2486966    751.94791  0.023173937  0.022869999            3 
 2705000   0.81571516   -7.2504047    754.09677   0.02323157  0.022863284            8 
 2706000   0.81253258   -7.2354384    752.67582  0.023179226  0.022856522            3 
 2707000   0.81524409   -7.2613817    752.28077  0.023158502  0.022849744            3 
 2708000   0.81715686   -7.2241592    753.34458  0.023182687  0.022842995            4 
 2709000   0.83418056   -7.2679482    752.28103  0.023141412  0.022836243            7 
 2710000   0.82567264   -7.2749813    752.96378  0.023153868  0.022829493            5 
 2711000    0.7972733   -7.2687113    752.62189  0.023134818   0.02282274            4 
 2712000   0.82888408   -7.2513795    751.92682  0.023104929  0.022815965            7 
 2713000   0.81857502   -7.2191135    752.17025   0.02310389  0.022809177            5 
 2714000    0.8258477   -7.2448418    751.48554  0.023074353  0.022802432            6 
 2715000   0.81563052   -7.2352045    754.17903  0.023148527   0.02279568            5 
 2716000   0.81371349   -7.2389165    753.60635  0.023122433  0.022788893            4 
 2717000   0.82949798   -7.2718635    753.55015  0.023112199  0.022782105            4 
 2718000    0.7899639   -7.2533936    752.01127  0.023056514  0.022775295            9 
 2719000    0.8046515   -7.2541977    751.92899  0.023045513  0.022768503            3 
 2720000   0.82246781   -7.2585044    755.20981  0.023137556   0.02276173            7 
 2721000   0.81968461   -7.2442904    754.21736  0.023098657  0.022754982            4 
 2722000   0.81173933   -7.2372081    754.78443  0.023107532  0.022748258            4 
 2723000   0.81091463    -7.277502    752.21874  0.023020527  0.022741498            8 
 2724000   0.82052649   -7.2728682    753.37213  0.023047361  0.022734748            4 
 2725000   0.81982322   -7.2416155     753.7289  0.023049813  0.022728063           11 
 2726000   0.78468212   -7.2570012    754.93222  0.023078143  0.022721359            4 
 2727000   0.82085131   -7.2267071    757.68748  0.023153877  0.022714672            5 
 2728000   0.81075631   -7.2345524    754.53609  0.023049123  0.022708011            4 
 2729000   0.81876142   -7.2422419    753.34623  0.023004343  0.022701306            6 
 2730000   0.81050726    -7.265226    755.65464  0.023066381  0.022694601            4 
 2731000   0.81191142   -7.2382847    754.44847   0.02302113  0.022687932            4 
 2732000   0.80225107   -7.2254785    753.30389  0.022977791  0.022681226            6 
 2733000   0.82589572   -7.2250385    755.77117  0.023044614  0.022674512            7 
 2734000   0.82128118   -7.2707513     754.8708  0.023008742  0.022667824            2 
 2735000   0.81530304   -7.2692802    753.49621  0.022958446  0.022661084            5 
 2736000    0.8101419   -7.2842413    753.06128  0.022936808  0.022654286            7 
 2737000   0.81949924   -7.2795606    753.75834  0.022949651  0.022647523            6 
 2738000   0.80960918   -7.3031505    754.34942  0.022959259  0.022640753            3 
 2739000   0.81105658   -7.2696886    754.20947  0.022946619  0.022634015            7 
 2740000   0.81048198   -7.2536751    755.10964  0.022965622  0.022627299            9 
 2741000   0.81281815   -7.2472961    754.97053  0.022953014  0.022620619            4 
 2742000   0.80884832   -7.2443033    756.04199  0.022977206  0.022613955            5 
 2743000   0.82976902   -7.2300781    756.18594  0.022973203  0.022607298            8 
 2744000   0.80578558   -7.2651685    754.90386  0.022925895  0.022600609            3 
 2745000   0.82805246   -7.2582481    754.67246  0.022910518  0.022593939            3 
 2746000   0.82280202   -7.2472644    757.03323  0.022973817   0.02258726            7 
 2747000   0.80651503   -7.2445513      757.482  0.022979068  0.022580588            6 
 2748000   0.80970269   -7.2564997     755.1604  0.022900303  0.022573953            4 
 2749000    0.7995644   -7.2630566    756.36931   0.02292862  0.022567286            5 
 2750000   0.80227653   -7.2551904     755.3766    0.0228902  0.022560615            3 
 2751000   0.80620523   -7.2439691     756.9827  0.022930531  0.022553974            9 
 2752000    0.8015946   -7.2528526    757.32744  0.022932638   0.02254737            6 
 2753000   0.80559336   -7.2453525    758.75159  0.022967417  0.022540811            4 
 2754000    0.8063723    -7.278633    756.76312  0.022898908  0.022534241            8 
 2755000   0.80628769   -7.2454503    757.23911  0.022904994  0.022527615            5 
 2756000   0.82350119   -7.2866952    758.34425  0.022930099  0.022521027            4 
 2757000    0.8026718    -7.284876    756.68748  0.022871705  0.022514421           12 
 2758000   0.81675909   -7.2731708    755.88371  0.022839126  0.022507792            9 
 2759000   0.80893461   -7.2585633    757.00022  0.022864571  0.022501187            5 
 2760000   0.80630541   -7.2603226    755.93986  0.022824271  0.022494559            7 
 2761000   0.80788717   -7.3009312    756.25447    0.0228255  0.022487902            6 
 2762000   0.81594431   -7.2788823    756.60918  0.022827938  0.022481222            5 
 2763000   0.79401184   -7.2475318    755.40237  0.022783278  0.022474539            9 
 2764000   0.80111691   -7.2557125      758.276  0.022861674  0.022467872           12 
 2765000   0.81360798   -7.2718775    756.97593  0.022814223   0.02246122            7 
 2766000   0.82834812   -7.2836586    757.54088  0.022822996  0.022454581            9 
 2767000   0.81467922   -7.2846328    758.00409  0.022828698  0.022447978            4 
 2768000   0.81444662   -7.2648986    758.54706  0.022836797  0.022441364           11 
 2769000   0.80602457   -7.2758346    756.99443  0.022781823  0.022434731            4 
 2770000   0.81064422   -7.2871472    756.85603  0.022769435  0.022428052           11 
 2771000   0.79274634   -7.2651759    756.78199  0.022758992  0.022421368            6 
 2772000   0.80466579   -7.2248135    758.62131  0.022806076  0.022414712            3 
 2773000   0.80381605   -7.2518862    757.58593  0.022766737  0.022408081            2 
 2774000   0.80729234   -7.2949615    757.73903  0.022763129  0.022401423            5 
 2775000   0.81186289   -7.2609878      758.119  0.022766336  0.022394788            6 
 2776000   0.81849558   -7.2706277    757.03292  0.022725532  0.022388122           10 
 2777000   0.81866838   -7.2868846    756.52929  0.022702235  0.022381421            3 
 2778000    0.8001457   -7.2988856    757.46882  0.022722247  0.022374716           10 
 2779000    0.8110359   -7.2764707    757.37223  0.022711174  0.022367991            4 
 2780000   0.81522422     -7.25937      758.351  0.022732344  0.022361342            4 
 2781000   0.82305805   -7.2690146    757.99852  0.022713608  0.022354697            4 
 2782000   0.80135617   -7.2614018    758.76977  0.022728546  0.022348081            4 
 2783000   0.80433364   -7.2613703    759.24144  0.022734502  0.022341456            4 
 2784000   0.78857289   -7.2934567    757.30039  0.022668235  0.022334759            6 
 2785000   0.81612148   -7.3020278    756.49184  0.022635902  0.022328056           10 
 2786000   0.79621394   -7.2618013    758.43845  0.022686003   0.02232139            4 
 2787000    0.8041774   -7.2608638     758.3889  0.022676381  0.022314711            3 
 2788000   0.80127843   -7.2797681    758.03047  0.022657534  0.022308041            4 
 2789000   0.79398003   -7.2640607    756.76777  0.022611682  0.022301377            4 
 2790000   0.82997196   -7.3098189    755.91847   0.02257821   0.02229469            7 
 2791000   0.80143185   -7.2560361    759.02312  0.022662819  0.022288025            4 
 2792000   0.81486514    -7.271346    758.07292  0.022626341  0.022281324            6 
 2793000   0.79322817   -7.2566502    758.37644  0.022627296  0.022274633            4 
 2794000   0.79149075   -7.3000165    755.13441  0.022522501  0.022267961            5 
 2795000   0.80469221   -7.2992612    757.92864  0.022597753   0.02226122            9 
 2796000   0.79612941   -7.2589756     756.4445  0.022545437  0.022254529            3 
 2797000   0.80095578   -7.2404241     756.8609  0.022549782  0.022247844            5 
 2798000   0.80793779   -7.2805887    758.72448  0.022597226  0.022241162            8 
 2799000   0.80386995   -7.2617224    758.86548  0.022593351  0.022234465            2 
 2800000   0.78840861   -7.2624931    759.90544  0.022616233  0.022227809            5 
 2801000   0.80717618   -7.2779145    756.61593  0.022510292  0.022221109            8 
 2802000   0.78995195   -7.2646024    758.44077   0.02255653  0.022214425            6 
 2803000      0.79155   -7.2574662    757.94638  0.022533785   0.02220774            6 
 2804000   0.80541842   -7.2585781    758.97722  0.022556384  0.022201068            7 
 2805000   0.79095307   -7.2561145    758.24585  0.022526615  0.022194409            4 
 2806000   0.79988156   -7.2770516    759.14227  0.022545209  0.022187733            4 
 2807000   0.80381928    -7.281861    757.88878  0.022499964  0.022181077            7 
 2808000   0.80997713   -7.2925866    756.78854  0.022459299  0.022174408            4 
 2809000   0.80262739   -7.2943805    758.69675  0.022507914  0.022167737            5 
 2810000   0.82117203   -7.2607148    760.45797  0.022552134  0.022161066            4 
 2811000   0.78953882   -7.2852843    762.01166  0.022590171   0.02215442            5 
 2812000   0.78726373   -7.2612879    759.78742  0.022516223  0.022147801           12 
 2813000   0.81589367   -7.2814063     759.7491  0.022507083  0.022141179            5 
 2814000   0.79850077   -7.2780145    760.24369  0.022513732  0.022134572            6 
 2815000   0.79374953   -7.3114961    759.65196  0.022488217  0.022128015            3 
 2816000   0.79748765   -7.2904145     759.5149  0.022476175  0.022121412            5 
 2817000   0.81339203   -7.2835946    760.21391  0.022488874  0.022114813            3 
 2818000   0.80837264   -7.2819532    759.63782  0.022463858  0.022108209           15 
 2819000   0.78761755   -7.2955208    761.78856  0.022519468  0.022101626           15 
 2820000   0.80598324   -7.3093841    760.10026  0.022461592   0.02209502            6 
 2821000   0.79731713   -7.3005798    759.70068  0.022441826  0.022088448            7 
 2822000   0.79830111   -7.2679168    763.23454  0.022538228  0.022081904            6 
 2823000   0.81063325    -7.250795    761.43174  0.022477026   0.02207534            7 
 2824000   0.80034889   -7.3279239    760.12023  0.022430366  0.022068779            9 
 2825000   0.81687642   -7.2936327    760.03215  0.022419828  0.022062189            3 
 2826000   0.79513784   -7.3091819    760.70581  0.022431759  0.022055591            5 
 2827000   0.80881561   -7.2991293    760.15858  0.022407693  0.022048995           11 
 2828000   0.80942496   -7.2691054    760.11274  0.022398419  0.022042428            4 
 2829000   0.78063289   -7.3048965    759.24123   0.02236483  0.022035821            7 
 2830000   0.79639254   -7.3105721    759.81049  0.022373689  0.022029203            5 
 2831000   0.80307754   -7.2742417    760.63897  0.022390173  0.022022617            2 
 2832000   0.78527507   -7.2996267    760.51155  0.022378518  0.022016084            4 
 2833000   0.80993762   -7.2806993    762.52744  0.022429917  0.022009539            3 
 2834000   0.80662268    -7.295493    761.57009  0.022393851  0.022002989            4 
 2835000   0.78129644   -7.2875288     761.4778  0.022383239  0.021996463            3 
 2836000   0.79901673   -7.2818345    762.32667   0.02240029  0.021989911            3 
 2837000   0.78801015   -7.3302647    760.94791  0.022351895  0.021983334            4 
 2838000   0.79649335   -7.2929205    764.22068  0.022440119  0.021976794            7 
 2839000   0.79535426   -7.2911043    761.95127    0.0223656  0.021970286            7 
 2840000   0.80821609   -7.3295949    761.68973  0.022350051  0.021963749            3 
 2841000    0.8107399   -7.3146472    761.67587  0.022341777  0.021957209            3 
 2842000   0.80492034   -7.3137172    762.32212  0.022352865  0.021950673            4 
 2843000   0.80147056   -7.3103539    760.60092  0.022294551  0.021944154            8 
 2844000   0.81340562   -7.2916487    761.38141  0.022309582  0.021937604            3 
 2845000   0.80801126   -7.2881554    762.53209  0.022335445  0.021931073            3 
 2846000   0.80868927   -7.2720639    764.65577   0.02238978  0.021924551            3 
 2847000   0.78530249   -7.3247338    763.90183  0.022359847  0.021918017            7 
 2848000   0.78610741   -7.3172464    762.94489  0.022323996  0.021911482            7 
 2849000   0.76791244   -7.2873523    762.77323  0.022311139  0.021904942            6 
 2850000    0.7942686   -7.2793044     761.7552  0.022273544  0.021898412            9 
 2851000   0.78881881   -7.2761708    764.10056  0.022334285   0.02189191            7 
 2852000   0.79457311   -7.3189237    764.82788  0.022347706   0.02188539            5 
 2853000   0.79633298   -7.2818283    761.33548  0.022237863  0.021878846            6 
 2854000   0.79169435   -7.2734921     762.2707  0.022257379  0.021872319            6 
 2855000   0.80086155   -7.2956767    764.28101  0.022308261  0.021865759            7 
 2856000   0.79061281   -7.3199058    761.94833  0.022232386  0.021859186            6 
 2857000   0.79156885    -7.287935    760.51271   0.02218273  0.021852634            6 
 2858000   0.78497513   -7.3030633    764.56484   0.02229312  0.021846053            5 
 2859000   0.79869599   -7.2899671    763.71901  0.022260668  0.021839525            6 
 2860000   0.78340039   -7.2774726    764.86528  0.022286284  0.021833017            6 
 2861000    0.7923814   -7.3089446    762.46867  0.022208688  0.021826496            7 
 2862000   0.79153919   -7.3200454    762.22587  0.022193858  0.021819938            2 
 2863000   0.79641599   -7.3029244    763.23445  0.022215463  0.021813394            7 
 2864000   0.79270288   -7.3189256    762.85319  0.022196613  0.021806859           10 
 2865000   0.78101684   -7.2936757    763.80231  0.022216472  0.021800314            3 
 2866000   0.79536474   -7.2804498    763.21736  0.022191712  0.021793783            4 
 2867000   0.80295322      -7.2893     762.6771  0.022168268  0.021787271            7 
 2868000   0.79711035     -7.30279    763.57928  0.022186753  0.021780746            2 
 2869000   0.78545667   -7.3070149    762.79275  0.022156174  0.021774225            5 
 2870000    0.7964359   -7.3206185    764.23907  0.022190449  0.021767717            4 
 2871000   0.79207925   -7.2774269    763.86124  0.022171753  0.021761268            5 
 2872000   0.79801937   -7.3132915    764.23227  0.022174799  0.021754807            3 
 2873000   0.80591828   -7.2832898    764.23353  0.022167117  0.021748307            3 
 2874000   0.78821267   -7.3002702    765.13523  0.022185549  0.021741823            5 
 2875000   0.82335499   -7.3145001    766.00603  0.022203073  0.021735335           10 
 2876000   0.78501565   -7.3387158    764.62879  0.022155447  0.021728804            6 
 2877000   0.78048872   -7.2965746    764.52417  0.022144716   0.02172224            6 
 2878000   0.80326278   -7.3024854    764.03886  0.022122969    0.0217157            9 
 2879000   0.78259293   -7.3070794    762.31652  0.022065431  0.021709162            7 
 2880000   0.78164772   -7.3235663    762.71137  0.022069195  0.021702633            4 
 2881000   0.77846669   -7.2816729     764.7112   0.02211938  0.021696124           12 
 2882000   0.80387197   -7.2717348    763.77062  0.022084508  0.021689644            6 
 2883000   0.78282772   -7.2972206    764.24051   0.02209043  0.021683148            5 
 2884000   0.76353906    -7.307486    765.18629  0.022110099  0.021676652            7 
 2885000   0.78798109   -7.3244117    764.37303  0.022078944   0.02167011            3 
 2886000   0.79227789   -7.2947528    765.88461   0.02211494  0.021663562            4 
 2887000   0.80610109   -7.2820208    767.07588  0.022141666  0.021657077            2 
 2888000    0.7835337   -7.3170846    763.50686  0.022031015  0.021650562            4 
 2889000   0.77873168   -7.3052034    764.69812  0.022057751  0.021644049            8 
 2890000   0.77828076   -7.3118537    765.02204  0.022059459  0.021637515            4 
 2891000    0.7718486   -7.3252304    764.48292  0.022036289  0.021631001            4 
 2892000   0.79664559   -7.3151732    763.74201  0.022007319  0.021624473           10 
 2893000   0.78421238   -7.3091224      762.994  0.021978166   0.02161794            9 
 2894000   0.78870295   -7.2697988    764.65078  0.022018279  0.021611439            4 
 2895000   0.77665301   -7.2773806    767.57175  0.022094754  0.021604967            8 
 2896000   0.78677771   -7.3063819    764.91553  0.022010691  0.021598527            4 
 2897000   0.79789505    -7.311747    763.56823  0.021964337  0.021592038            4 
 2898000   0.78474892   -7.3093348    765.77689  0.022020269  0.021585591            6 
 2899000   0.80284731   -7.2997033    766.62174  0.022036959   0.02157915            4 
 2900000   0.79883995   -7.3066587    766.70456   0.02203174  0.021572704            5 
 2901000   0.78257346   -7.3256821    766.04082  0.022005079  0.021566241            8 
 2902000   0.78545537   -7.3063278    766.00521  0.021996474  0.021559775            7 
 2903000   0.79045566   -7.2882673    767.07787  0.022019689  0.021553363            7 
 2904000   0.77897757   -7.3310608    765.57708  0.021969039  0.021546929           10 
 2905000   0.79137628   -7.3224471    766.79081  0.021996294  0.021540477            8 
 2906000    0.7979569   -7.2960231    766.67237  0.021985328  0.021534057            6 
 2907000   0.77571243   -7.3228409    766.89332  0.021984099  0.021527643            7 
 2908000   0.78111369    -7.282869    767.65651   0.02199841  0.021521243            5 
 2909000   0.78237865   -7.3027802    767.86349  0.021996777  0.021514842            6 
 2910000   0.77887871   -7.3176621    766.99695  0.021964403  0.021508427            6 
 2911000   0.79999507   -7.2997706    766.80452  0.021951349  0.021502021            4 
 2912000   0.79177809   -7.2915327    767.98832  0.021977688  0.021495619            4 
 2913000   0.78913577   -7.3148642    768.85199   0.02199485  0.021489191            4 
 2914000   0.79649934   -7.3177806    767.30395  0.021943032  0.021482769            5 
 2915000   0.79990486   -7.3632963    766.07572  0.021900392  0.021476368            3 
 2916000   0.77904631   -7.3222079    765.80134   0.02188504   0.02146991            3 
 2917000    0.8011982   -7.3056233    769.30828  0.021977725  0.021463494            5 
 2918000    0.7834833   -7.3343988    765.76642  0.021869043  0.021457103            6 
 2919000   0.79136719   -7.3182925    766.81748  0.021891558  0.021450718            5 
 2920000   0.77459232   -7.3157478    767.92099  0.021915553  0.021444336            5 
 2921000   0.78930861   -7.3494805    767.80636   0.02190478  0.021437963            4 
 2922000   0.79629007   -7.3231195    768.78844  0.021925292  0.021431595            4 
 2923000   0.78803942   -7.3287872    766.50178    0.0218526  0.021425234            8 
 2924000   0.77096153   -7.3316704      768.469  0.021901191  0.021418875            5 
 2925000   0.78398615   -7.2711818    769.94647  0.021935797  0.021412535            4 
 2926000   0.78278002   -7.3504815    767.98044  0.021872307  0.021406215            6 
 2927000   0.79609415   -7.3372044    769.01433   0.02189427  0.021399895            6 
 2928000   0.78905855    -7.318738    770.41149  0.021926557   0.02139356           11 
 2929000   0.78156928   -7.3332134    769.31987  0.021888013  0.021387245            3 
 2930000    0.7663347   -7.3109121     769.7283  0.021892159   0.02138093            6 
 2931000   0.77150646   -7.3102482    770.35092  0.021902392  0.021374614            4 
 2932000   0.78308343   -7.3093815    768.76055   0.02184972  0.021368301            7 
 2933000   0.77055081   -7.3295783    769.32834  0.021858403  0.021362011            4 
 2934000   0.78248003   -7.3161433    770.09654  0.021872772  0.021355699            5 
 2935000   0.78393202   -7.3449723    768.83661  0.021829546  0.021349376            4 
 2936000    0.7767159   -7.3351177    770.60609  0.021872335  0.021343029            7 
 2937000    0.7827815   -7.3165879    767.46313   0.02177571  0.021336684            6 
 2938000    0.7835631   -7.3366664    770.33347  0.021849713  0.021330418            4 
 2939000   0.78049081   -7.3606858     770.5067   0.02184719   0.02132415            2 
 2940000   0.78838243   -7.3191181    769.72468  0.021817593  0.021317886            3 
 2941000   0.76749399   -7.3232316    771.00487  0.021846449  0.021311631            4 
 2942000   0.76628461   -7.3448379    770.29296  0.021818858  0.021305364           14 
 2943000   0.75283651   -7.3286229     769.4809   0.02178845  0.021299106           20 
 2944000   0.78495548   -7.3509617    771.24739  0.021831052  0.021292831            8 
 2945000   0.78476657    -7.338254    769.34673  0.021769857  0.021286568            4 
 2946000   0.77839745   -7.3544737    770.08475  0.021783343  0.021280304           11 
 2947000    0.7744977   -7.3584462    770.10976  0.021776659  0.021274027           13 
 2948000    0.7805858   -7.3307711    770.12775   0.02176978  0.021267764           11 
 2949000   0.77558854   -7.3655704    771.14089  0.021791028  0.021261474            9 
 2950000    0.7659737   -7.3368305     770.9766     0.021779  0.021255214           10 
 2951000   0.77424113   -7.3262273    772.17233  0.021805386   0.02124894           18 
 2952000    0.7915851    -7.359981    770.87198  0.021761291  0.021242655            5 
 2953000   0.79017584   -7.3797996     769.8084  0.021723908  0.021236398           11 
 2954000   0.77107718   -7.3495886    770.25242   0.02172908  0.021230139           14 
 2955000   0.77817657   -7.3677293    770.33755  0.021724127  0.021223875            8 
 2956000   0.78929712   -7.3400307    773.29598   0.02180018   0.02121764            5 
 2957000   0.77007043   -7.3352132    771.86813  0.021752568  0.021211423            9 
 2958000   0.77175426   -7.3301235    771.47281  0.021734077  0.021205208            6 
 2959000   0.76089967   -7.3121188    772.61945  0.021759025  0.021199013            7 
 2960000   0.77834485    -7.338823    772.02139  0.021734836  0.021192804            7 
 2961000   0.79921002   -7.3453042    772.05193  0.021728355  0.021186594            6 
 2962000   0.77775937   -7.3419681     771.4834  0.021705025  0.021180357            5 
 2963000   0.78039643   -7.3413525    772.22884  0.021718665  0.021174141            7 
 2964000   0.77975769   -7.3374835    772.63656    0.0217228  0.021167931            4 
 2965000   0.77187194   -7.3435783    771.83016  0.021692809  0.021161723           13 
 2966000   0.77140721   -7.3466701    771.04405  0.021663409  0.021155469            9 
 2967000   0.79500243   -7.3556362    771.68297  0.021674053  0.021149219            8 
 2968000    0.7728926   -7.3458807    771.05373  0.021649083  0.021142977            4 
 2969000   0.78539831   -7.3324231    772.33367  0.021677716  0.021136728            6 
 2970000   0.77001428   -7.3314264    772.36771  0.021671372   0.02113051            3 
 2971000   0.76425574   -7.3119766    773.39076  0.021692774  0.021124287           10 
 2972000   0.77050888   -7.3450983    770.92932  0.021616457  0.021118066            7 
 2973000   0.77640494    -7.327998    772.08739  0.021641647  0.021111836            4 
 2974000   0.76614924   -7.3426588    772.09339  0.021634538   0.02110561            5 
 2975000   0.78941082   -7.3330748    773.33393  0.021662015  0.021099389            3 
 2976000   0.76158629   -7.3410999    771.32674  0.021598531  0.021093159            6 
 2977000   0.76522276   -7.3462258    772.59573  0.021626798  0.021086935            4 
 2978000   0.79281768   -7.3519448    770.99816  0.021574831  0.021080698            6 
 2979000   0.76718061   -7.3636533    773.10216  0.021626445  0.021074464            9 
 2980000   0.76543842   -7.3583482     771.5126  0.021574737  0.021068226            4 
 2981000   0.77435681    -7.303974    774.34045  0.021646552  0.021062048            8 
 2982000   0.78115898   -7.3529859    772.78832  0.021595918  0.021055858            4 
 2983000    0.7719841   -7.3200491    772.48663   0.02158025  0.021049648            4 
 2984000    0.7685829   -7.3330727    773.98753  0.021614933  0.021043463            4 
 2985000   0.76534912    -7.336491    774.43074  0.021620065  0.021037268            7 
 2986000   0.79185766    -7.328211    773.02514  0.021573597  0.021031065            3 
 2987000   0.78894647   -7.3296476     772.6139  0.021554902  0.021024886            7 
 2988000   0.77247069   -7.3110799    772.08271  0.021532874  0.021018724            4 
 2989000   0.77490769   -7.3846242    773.12644  0.021554769  0.021012552            5 
 2990000   0.76612836   -7.3355272    773.16423  0.021548613  0.021006363            9 
 2991000   0.78398362   -7.3502806    772.94647  0.021535341  0.021000197           17 
 2992000   0.78769866   -7.3788732    773.25848  0.021536834  0.020994017            7 
 2993000   0.78905368   -7.3370746    774.87824  0.021574737  0.020987852            3 
 2994000   0.77471007    -7.373483    774.29988  0.021551433  0.020981695            8 
 2995000   0.77514473   -7.3446325    773.10928   0.02151111  0.020975558            5 
 2996000   0.76041318   -7.3394997     773.5488  0.021516155  0.020969375            7 
 2997000   0.76802963   -7.3632629    774.98778  0.021548987  0.020963215            3 
 2998000   0.75099506   -7.3259667    774.58809   0.02153069   0.02095707            6 
 2999000   0.74769179   -7.3104698    775.36432   0.02154508   0.02095095            4 
 3000000   0.77809953   -7.3443116    775.48552  0.021541264   0.02094483            5 
 3001000   0.76322571   -7.3285146     775.6911  0.021539795  0.020938689            5 
 3002000   0.76619155   -7.3435115    773.12688  0.021461439  0.020932566            4 
 3003000   0.77017507   -7.3650128    772.62193   0.02144028  0.020926412            6 
 3004000   0.77092168   -7.3571342    774.50319   0.02148533  0.020920231            3 
 3005000   0.75883861   -7.3702795    774.53817  0.021479151  0.020914055            4 
 3006000   0.77004943    -7.356649    772.90042  0.021426603   0.02090787            4 
 3007000   0.76107101   -7.3467079    775.04539  0.021478921  0.020901692            5 
 3008000   0.75545205   -7.3582545    773.05438  0.021416622  0.020895502            6 
 3009000   0.76963676   -7.3587508    773.59606  0.021424506  0.020889308            7 
 3010000   0.78436173   -7.3558419    773.87495  0.021425109  0.020883097            7 
 3011000   0.76863956   -7.3303478    772.23227  0.021372531    0.0208769           17 
 3012000   0.78061339   -7.3576401    773.72473  0.021406727  0.020870698            5 
 3013000   0.77937316    -7.365668    773.32559  0.021388583  0.020864461            6 
 3014000   0.77824134     -7.37154    775.72977  0.021447959  0.020858276            7 
 3015000   0.76726186   -7.3587954    775.49585  0.021434379  0.020852087            5 
 3016000   0.75947653    -7.352275    773.48354  0.021371672  0.020845893           10 
 3017000    0.7799702   -7.3393158    775.68611  0.021425426  0.020839726            8 
 3018000   0.75383306   -7.3463323    774.70955  0.021391361  0.020833533           13 
 3019000   0.75601306   -7.3842542     773.9856  0.021364293  0.020827341           12 
 3020000   0.76537399   -7.3703707    774.61981  0.021374719   0.02082113           10 
 3021000   0.75723659   -7.3518087    774.76823  0.021371738  0.020814924            6 
 3022000   0.77381809   -7.3358062    772.44827  0.021300691  0.020808751            4 
 3023000   0.76333903   -7.3592193     772.9905  0.021308592  0.020802561            7 
 3024000   0.76511761   -7.3612137    775.85896  0.021380593  0.020796389            6 
 3025000   0.77096554   -7.3736102    773.70792  0.021314268  0.020790219            5 
 3026000   0.76678759   -7.3608881    774.68267  0.021334068  0.020784051            9 
 3027000   0.77853207   -7.3616087    776.10968  0.021366306  0.020777872            5 
 3028000   0.76254886   -7.3478377    776.35982  0.021366133  0.020771697           11 
 3029000   0.75891122   -7.3391333    775.60423  0.021338292  0.020765554            4 
 3030000   0.76817588   -7.3798894    776.57579   0.02135797  0.020759399            3 
 3031000   0.75310607   -7.3794583    773.29604  0.021260751  0.020753232            7 
 3032000    0.7671799   -7.3480331    775.35217  0.021310251  0.020747077            4 
 3033000   0.75375797   -7.3395557    776.91864  0.021346264  0.020740956            9 
 3034000   0.74155498   -7.3601615    775.28911  0.021294471  0.020734809            6 
 3035000   0.76699005   -7.3720429    774.68585  0.021270891  0.020728656            3 
 3036000   0.76626307   -7.3601717    777.47344    0.0213404  0.020722504            7 
 3037000   0.78037231   -7.3621906    775.04511  0.021266741  0.020716356            7 
 3038000   0.77448313   -7.3756129    773.73914  0.021223918  0.020710201           10 
 3039000   0.75997473   -7.3829818    775.00057  0.021251524  0.020704043           11 
 3040000   0.75187844   -7.3737901    776.38601  0.021282511  0.020697873            7 
 3041000   0.76645656   -7.3865885    773.99435  0.021209974  0.020691716            9 
 3042000   0.77593389   -7.3631892    778.34317  0.021322134  0.020685596            5 
 3043000   0.77151275   -7.3543363     776.0566  0.021252508  0.020679423            7 
 3044000   0.76515745   -7.3677308    775.71677  0.021236223  0.020673278            9 
 3045000   0.75840488    -7.379721    773.88819  0.021179206   0.02066711            9 
 3046000   0.76807625   -7.3965458    774.88516  0.021199528  0.020660938            6 
 3047000   0.76331652   -7.3991449     775.5118  0.021209709  0.020654773            5 
 3048000   0.76749755   -7.3673374    776.40427  0.021227151  0.020648638            6 
 3049000   0.75251447   -7.3679766    777.03694  0.021237481  0.020642498            6 
 3050000   0.76439881   -7.3640002    775.77755  0.021196108  0.020636364           10 
 3051000    0.7726874   -7.3458452    774.94387   0.02116639  0.020630218            7 
 3052000   0.75175987   -7.3879671    775.30935  0.021169434  0.020624056            6 
 3053000   0.75950601   -7.3803499     774.9686  0.021153199  0.020617862           10 
 3054000    0.7462378   -7.3761606      775.154  0.021151331  0.020611697            4 
 3055000   0.77606005   -7.3781831    774.40594  0.021124003  0.020605534           15 
 3056000   0.74737559   -7.3843956    776.05898  0.021162167  0.020599374            6 
 3057000   0.75990613   -7.3676981     775.8531  0.021149632  0.020593249            6 
 3058000   0.77665923   -7.3872031     776.6207  0.021163634  0.020587116           10 
 3059000    0.7621859   -7.3850522    777.12446  0.021170439  0.020580996           11 
 3060000   0.76712215    -7.367116    777.29681  0.021168214  0.020574889            4 
 3061000   0.74445521   -7.3555353    776.20243  0.021131505  0.020568789            3 
 3062000   0.76270355   -7.3898922    776.05931  0.021120708   0.02056267            8 
 3063000   0.76186574   -7.3653542    776.12671  0.021115647  0.020556542            4 
 3064000   0.76026384   -7.3576862    777.18591  0.021137563   0.02055041            6 
 3065000    0.7483961   -7.3671177    776.56703   0.02111384  0.020544295            7 
 3066000   0.75040831   -7.3690513    776.04584  0.021092788  0.020538174           13 
 3067000   0.77029462   -7.3547784    777.35134  0.021121382  0.020532072            4 
 3068000   0.76889127   -7.3977691    776.42437  0.021089319  0.020525933            4 
 3069000   0.76504267   -7.3902439    777.53267  0.021112541   0.02051981            8 
 3070000   0.75215161   -7.3898408     776.4784  0.021077047   0.02051368            4 
 3071000   0.76765677   -7.3744423    778.24949  0.021118243  0.020507582            6 
 3072000    0.7609412   -7.3601278    776.94987  0.021076114   0.02050145            4 
 3073000   0.74979453   -7.3760129    777.51418  0.021084558   0.02049532            7 
 3074000   0.76075536   -7.3725664    778.08556  0.021093189   0.02048919           10 
 3075000   0.75524565   -7.3816019    776.72517  0.021049463  0.020483054           14 
 3076000   0.77324931   -7.3746682    778.27872  0.021084707  0.020476953           11 
 3077000    0.7605947   -7.3928035    776.86821  0.021039655  0.020470823            8 
 3078000   0.75052046   -7.3597163    778.92279  0.021088445  0.020464707            5 
 3079000   0.76479434    -7.380886    776.62254  0.021019339  0.020458576            5 
 3080000    0.7535865   -7.3576499    778.87265  0.021073394  0.020452453            6 
 3081000   0.76504274    -7.351429    776.91202  0.021013524  0.020446347            7 
 3082000   0.76126372   -7.3808607    777.48383  0.021022167  0.020440281            7 
 3083000   0.75250536   -7.3926489    777.26228   0.02100936  0.020434189            8 
 3084000   0.75603685   -7.3843378    776.38817  0.020978928  0.020428073            6 
 3085000   0.75704113   -7.3807137    775.85298  0.020957671  0.020421957            3 
 3086000   0.76432784   -7.3449558    776.34916  0.020964278  0.020415876            4 
 3087000   0.76912201   -7.3672121    778.73426  0.021021873  0.020409786            5 
 3088000   0.73932078   -7.3805406    776.82529  0.020963549  0.020403703            6 
 3089000   0.75473058   -7.4017066    777.65055  0.020979026   0.02039761           10 
 3090000   0.75405364    -7.378162    777.51679   0.02096863  0.020391499            8 
 3091000   0.76650044    -7.389677    777.75997  0.020968402   0.02038543            6 
 3092000    0.7452632   -7.3905619    776.71033  0.020933331  0.020379344            5 
 3093000   0.74512258   -7.3622371    776.59341  0.020923413  0.020373257            6 
 3094000   0.75048642   -7.3934401     778.8427  0.020977233   0.02036717            5 
 3095000   0.76103716   -7.3804356    778.87112   0.02097122  0.020361096           16 
 3096000   0.74496601   -7.3829674    776.33592  0.020896208  0.020355004            3 
 3097000   0.76692791   -7.4137628    778.87168  0.020957692  0.020348903            8 
 3098000    0.7673056   -7.4141039      777.255   0.02090744  0.020342779            7 
 3099000   0.74856754   -7.4035364    777.59772   0.02090991  0.020336704            6 
 3100000   0.74662049   -7.4207439    777.73859  0.020906951  0.020330621            6 
 3101000   0.75566085   -7.4045184    779.90301  0.020958374  0.020324558            5 
 3102000   0.74755204   -7.3909115    778.66724  0.020918419    0.0203185           13 
 3103000    0.7603763   -7.3696781    779.39526   0.02093123   0.02031248            8 
 3104000   0.75799717   -7.4094431    778.55818  0.020902013  0.020306473            3 
 3105000    0.7616429   -7.3947621    780.53514   0.02094834  0.020300456            8 
 3106000    0.7444646   -7.4028067    779.91774  0.020925031   0.02029444            4 
 3107000   0.75897329   -7.3677186    780.51088  0.020934205   0.02028843            5 
 3108000   0.73565975   -7.3971429    780.25291  0.020920552  0.020282423            7 
 3109000   0.74063613   -7.4095682      778.374  0.020863461  0.020276399            8 
 3110000   0.76933905   -7.3812759    782.32333  0.020962576  0.020270363            7 
 3111000     0.758423   -7.3950165    780.72697  0.020913077  0.020264373            6 
 3112000   0.75275382   -7.3924965    780.43134   0.02089844  0.020258404            5 
 3113000   0.75480333   -7.3747908    781.54407  0.020921514  0.020252444            5 
 3114000    0.7483445   -7.3950554    782.57273  0.020942323  0.020246494            6 
 3115000   0.75902833   -7.3891197    780.70164  0.020885544  0.020240543            3 
 3116000   0.76672721   -7.3885002    781.07904  0.020888935  0.020234582            9 
 3117000   0.73876478   -7.3919693    778.85553  0.020822787  0.020228633           13 
 3118000   0.76341051   -7.3785226    781.54762  0.020888059  0.020222669            7 
 3119000   0.74527499   -7.3934241    781.01994  0.020867264  0.020216731            5 
 3120000   0.76839891   -7.3650738    780.90938  0.020857622  0.020210796            2 
 3121000   0.75068487   -7.4007895    780.37972  0.020836797  0.020204848           11 
 3122000   0.74835983   -7.3625455    782.17168  0.020877954  0.020198903            8 
 3123000   0.73762903   -7.4200807    779.84679  0.020809232  0.020192978           12 
 3124000   0.73595132   -7.3715667    781.86383  0.020856376   0.02018704            7 
 3125000    0.7668305   -7.3861084    781.38934  0.020837049  0.020181111            6 
 3126000   0.75901168   -7.3973794    780.75896  0.020813579   0.02017517            7 
 3127000   0.75077656   -7.3884667    782.22026  0.020845866  0.020169229           10 
 3128000   0.77002656   -7.3930502    782.01823  0.020833819  0.020163267            8 
 3129000   0.74276082   -7.3975997    783.16905   0.02085781  0.020157344            5 
 3130000   0.76290484   -7.3869481    781.50704  0.020806897  0.020151406            6 
 3131000    0.7467592   -7.3988765     780.2309  0.020766286  0.020145462            4 
 3132000   0.75012865   -7.4249776    780.99898  0.020780092  0.020139493           13 
 3133000   0.74324724   -7.3993901    781.92484  0.020798086  0.020133545            7 
 3134000   0.74812052   -7.3971309    783.23466  0.020826278  0.020127586            4 
 3135000   0.75564465    -7.374873    781.04314  0.020761381  0.020121658            7 
 3136000   0.76313426   -7.4115126    781.33009  0.020762385  0.020115744           11 
 3137000   0.73811003   -7.3842761    781.38275  0.020757166  0.020109815            8 
 3138000   0.74589276   -7.3908031    783.34407  0.020802636  0.020103858            8 
 3139000   0.76406904   -7.3923364    782.06334  0.020762009  0.020097908            7 
 3140000   0.76373077   -7.4101536    782.54794  0.020768257  0.020091948            4 
 3141000   0.74180411   -7.4053203    781.51227  0.020734168  0.020085989            6 
 3142000   0.74270982   -7.4300686    780.84365  0.020709836  0.020080028            7 
 3143000   0.75082639    -7.408077    780.63772  0.020697787  0.020074054            5 
 3144000   0.73867906   -7.3852921    781.65628  0.020718201  0.020068102            8 
 3145000   0.75415562   -7.3880576    781.73983  0.020713827   0.02006216            7 
 3146000    0.7324182   -7.4046605     782.4111  0.020725024   0.02005622            8 
 3147000   0.75989578   -7.4107939    782.01973  0.020708075  0.020050265           10 
 3148000   0.74084273   -7.4018862    780.20656  0.020653498  0.020044321            5 
 3149000   0.73824888   -7.3927458     780.8262  0.020663338  0.020038359            7 
 3150000   0.75953235   -7.3886526    781.50772  0.020674807  0.020032417            6 
 3151000   0.74378865   -7.3978291    781.30957  0.020663006  0.020026488            5 
 3152000   0.76086432    -7.380378    782.51138  0.020688224  0.020020565            4 
 3153000   0.74887138   -7.4169681     782.1856  0.020673052  0.020014639            7 
 3154000   0.74542094   -7.4140412    781.47405  0.020647697  0.020008693            6 
 3155000   0.75066504   -7.4259395     780.9708  0.020627861  0.020002741           12 
 3156000   0.74890766   -7.4120234    781.54305  0.020636434  0.019996794           15 
 3157000   0.72665773   -7.4282562    781.88026  0.020638799  0.019990842            7 
 3158000    0.7475178   -7.4377235    779.95024  0.020581334  0.019984883           15 
 3159000   0.76060659   -7.4342917     781.0946  0.020605007  0.019978926           17 
 3160000   0.74954059   -7.4269717    781.75597  0.020615927  0.019972965            8 
 3161000   0.73154563   -7.4109956    782.33461   0.02062466  0.019967013            7 
 3162000   0.75383456   -7.4270431    782.25786  0.020616115  0.019961075            6 
 3163000   0.74329401    -7.421743    783.11821  0.020632264   0.01995514            7 
 3164000   0.74013666   -7.4164764    782.71493  0.020615121  0.019949195            6 
 3165000   0.73052443   -7.4118919    781.84789  0.020585779  0.019943278            6 
 3166000   0.73146633   -7.4226745    782.96573    0.0206087  0.019937347            5 
 3167000   0.74398596   -7.3999768    782.56048  0.020591529  0.019931452           13 
 3168000   0.73367738    -7.410296    781.37156  0.020553755  0.019925548            4 
 3169000   0.75088478   -7.4097547    782.45785  0.020575835  0.019919662            7 
 3170000   0.75363138   -7.3833784    783.84934  0.020605924  0.019913753            6 
 3171000   0.73837635   -7.4093195    781.95218  0.020549568  0.019907841            5 
 3172000   0.73359734    -7.426506    783.88272  0.020593808  0.019901934            7 
 3173000   0.74915603   -7.4103224    783.62818  0.020580633  0.019896016           12 
 3174000   0.73960199   -7.4379527    782.40349  0.020541994  0.019890108            7 
 3175000   0.74574593    -7.429929    783.12561  0.020554478  0.019884179            5 
 3176000    0.7534712   -7.4129121    784.36227  0.020580454  0.019878269            8 
 3177000   0.74529247   -7.4078195    782.24541  0.020518451  0.019872385            4 
 3178000   0.74377683   -7.4136146    784.19298  0.020563063  0.019866495            4 
 3179000    0.7522613   -7.4180764    782.58344  0.020514403  0.019860602            8 
 3180000    0.7490709   -7.3989031    783.71977   0.02053773  0.019854733            7 
 3181000   0.73979982   -7.3895752    782.90613  0.020509958  0.019848854            4 
 3182000   0.74497367    -7.413786      783.388  0.020516133  0.019842967            4 
 3183000   0.75390761   -7.4238713    783.48151  0.020512135  0.019837083            6 
 3184000   0.75221462   -7.4135628    784.47803  0.020531774  0.019831202           10 
 3185000   0.73690739   -7.4214601    783.78177  0.020507111  0.019825331            9 
 3186000   0.74374564   -7.4343825     783.6212  0.020496474  0.019819462            8 
 3187000   0.74829521   -7.4113037    782.89933  0.020471167  0.019813581            7 
 3188000   0.74343608   -7.4197112     784.5828  0.020508752  0.019807697            9 
 3189000   0.75075076   -7.4297291    783.19526  0.020466062  0.019801814            4 
 3190000   0.74595579    -7.415024    783.35358  0.020463782  0.019795943            5 
 3191000   0.73847696   -7.4172264    782.78732  0.020442581  0.019790066            6 
 3192000   0.73321412   -7.4069083    783.94613   0.02046643  0.019784217            5 
 3193000   0.74831236   -7.4261141    784.52054  0.020475012  0.019778369           11 
 3194000    0.7556958   -7.4375832     784.9551  0.020479939  0.019772485            6 
 3195000    0.7181762   -7.4078293    784.83649  0.020470435  0.019766604            5 
 3196000     0.736627   -7.4291819    783.06798  0.020417918  0.019760718            7 
 3197000   0.75084758   -7.4145452    784.44481   0.02044742  0.019754841            6 
 3198000   0.72519692   -7.4317567    782.78119  0.020397675  0.019748972           12 
 3199000   0.73934025   -7.4338171    782.92605  0.020395073   0.01974308            3 
 3200000   0.74646885   -7.4437381    783.45131  0.020402378  0.019737206            9 
 3201000    0.7389354   -7.4334131    784.38687   0.02042036  0.019731323            9 
 3202000   0.74919951   -7.4232577    784.25311  0.020410501  0.019725454            7 
 3203000   0.75401028    -7.433325    785.10848  0.020426384  0.019719582            6 
 3204000   0.73633509   -7.4358645    781.89925  0.020336539  0.019713711            7 
 3205000   0.74175642   -7.3833941    784.43025  0.020396002  0.019707834            3 
 3206000   0.74398883   -7.4050126    783.76512  0.020372352  0.019701983            4 
 3207000   0.73878125   -7.4053868    786.36999  0.020433686  0.019696133            5 
 3208000   0.72940199   -7.4169065     785.8143  0.020412882  0.019690271            5 
 3209000   0.73037702   -7.4039409    785.99336  0.020411171  0.019684424            4 
 3210000   0.72630337   -7.3971783    783.62871  0.020343424  0.019678583            5 
 3211000   0.73125187   -7.4411029    784.95767  0.020371579  0.019672706            9 
 3212000    0.7393217   -7.3954945    784.65151  0.020357293  0.019666854            8 
 3213000   0.72087565   -7.4283683    785.42962  0.020371139  0.019661007            9 
 3214000   0.73139178   -7.4325876     783.3918  0.020311963  0.019655143            4 
 3215000     0.728137   -7.4445063    782.40481  0.020280063  0.019649297            4 
 3216000   0.73920847   -7.4325672    783.63742  0.020305696  0.019643433            5 
 3217000   0.73538816   -7.4387355    783.26518  0.020289741  0.019637581            4 
 3218000   0.74354011   -7.4302391    784.70317  0.020320675  0.019631716            6 
 3219000   0.73513886   -7.4198355    784.36434   0.02030559  0.019625873            6 
 3220000       0.7466   -7.4021471    785.79549  0.020336322   0.01962005            6 
 3221000   0.72743707   -7.4262495    785.20293  0.020314678  0.019614214           12 
 3222000   0.74045781   -7.3807342    783.84322  0.020273206  0.019608398            4 
 3223000   0.73416084   -7.4567707    784.73353  0.020289935  0.019602551            6 
 3224000   0.72402802   -7.4398157    783.21234  0.020244322  0.019596695            4 
 3225000   0.73536146   -7.4248931    784.33392  0.020267026  0.019590847            6 
 3226000   0.74083596   -7.4237751    783.92598  0.020250206  0.019584996           10 
 3227000   0.73122095   -7.4433761     785.2806  0.020278912  0.019579154           14 
 3228000   0.75386009   -7.4321345    784.56282    0.0202541  0.019573322            7 
 3229000   0.74534531   -7.4491291    786.11648  0.020287924  0.019567476            6 
 3230000   0.73326341   -7.4413715    783.51504  0.020214526  0.019561601            6 
 3231000   0.74694938   -7.4501844     784.7324  0.020239668  0.019555757            4 
 3232000   0.73001857   -7.4450328    785.29873  0.020248008  0.019549935            8 
 3233000    0.7205037   -7.4320586     785.5676  0.020248675  0.019544125            5 
 3234000   0.73729406   -7.3929482    785.96574  0.020252673  0.019538342            4 
 3235000   0.74593069   -7.4366223    786.96561  0.020272169  0.019532541            6 
 3236000   0.73882363   -7.4261658    784.65987  0.020206527   0.01952674            8 
 3237000   0.73359065   -7.4470159    785.52779  0.020222629  0.019520949            4 
 3238000   0.73975682   -7.4110539    784.96287  0.020201844  0.019515164            5 
 3239000   0.73522443   -7.4484584    785.04817  0.020197802  0.019509374            7 
 3240000   0.73056605   -7.4189587    784.40518   0.02017503   0.01950357            8 
 3241000   0.73441004   -7.4658724    784.89581  0.020181421  0.019497781            6 
 3242000   0.72993486   -7.4556681    786.43187  0.020214679  0.019491989            8 
 3243000   0.75161015   -7.4585445    785.88448   0.02019438  0.019486192            4 
 3244000   0.73528851   -7.4309268    785.11163  0.020168301  0.019480389           14 
 3245000   0.73431796   -7.4530559    784.31795  0.020141704  0.019474576           14 
 3246000   0.71497288   -7.4769684    785.01854  0.020153485  0.019468764            9 
 3247000   0.72487973   -7.4198527    785.45343  0.020158439   0.01946296            5 
 3248000    0.7351063    -7.440661    785.22651  0.020146411  0.019457161            6 
 3249000   0.72493326   -7.4288808    785.56747  0.020148955  0.019451368            5 
 3250000   0.73439405   -7.4451912    786.10192  0.020156459  0.019445599            4 
 3251000   0.74004608   -7.4495703     787.5843  0.020188257  0.019439824            9 
 3252000   0.74227449   -7.4506672    784.59266  0.020105388  0.019434039           11 
 3253000   0.74103517   -7.4346429    786.06251  0.020136861  0.019428252            9 
 3254000   0.74727452   -7.4296136    786.70557  0.020147141  0.019422461           13 
 3255000    0.7283459   -7.4470932     787.3748  0.020158085  0.019416679            6 
 3256000   0.73005296   -7.4788952     786.3877   0.02012663  0.019410888            5 
 3257000   0.73877568   -7.4356934     785.5197  0.020098242  0.019405092            4 
 3258000   0.72611239   -7.4649259    786.36094  0.020113591  0.019399272           19 
 3259000   0.72539023   -7.4478441    786.08988  0.020100488  0.019393481           12 
 3260000   0.73616098   -7.4612356    788.05734  0.020144615   0.01938769           31 
 3261000   0.71865543   -7.4463926    787.02699  0.020112107   0.01938191           17 
 3262000   0.71795532   -7.4616482    786.95289  0.020104049  0.019376137            9 
 3263000   0.73752476   -7.4438145    786.69962   0.02009142   0.01937035           12 
 3264000   0.73306507   -7.4796715    786.18698  0.020072176  0.019364562           15 
 3265000   0.74222041   -7.4454722    786.38495  0.020071081  0.019358772            8 
 3266000   0.73548692   -7.4528959    785.71212  0.020047768  0.019353021            6 
 3267000   0.72975764   -7.4149136    787.58882  0.020089502   0.01934726            5 
 3268000   0.73372377   -7.4681387    787.94985   0.02009256  0.019341533            5 
 3269000    0.7166024   -7.4411401    787.46542  0.020074065  0.019335788            7 
 3270000   0.74068443   -7.4414096    787.02328  0.020056658  0.019330027            7 
 3271000   0.72806393   -7.4456056    787.35429   0.02005896  0.019324262           13 
 3272000   0.72820531   -7.4329395    786.91515  0.020041645  0.019318528           17 
 3273000   0.72956628   -7.4579229    786.22049  0.020017835  0.019312773           14 
 3274000    0.7493137   -7.4621461    786.39066  0.020016052  0.019306994           11 
 3275000   0.72796179   -7.4562013    788.07449  0.020052786  0.019301232            6 
 3276000   0.71005104   -7.4419805    786.73702  0.020012643  0.019295492            5 
 3277000   0.71628184   -7.4389533    787.12415  0.020016381  0.019289755           10 
 3278000   0.72575292    -7.453427    788.53368  0.020046107  0.019284002            6 
 3279000   0.73452631   -7.4484686    785.24248  0.019956351  0.019278252           10 
 3280000   0.72492468   -7.4281158    787.82867  0.020015972  0.019272512            7 
 3281000    0.7262976   -7.4286895    788.79059  0.020034303  0.019266765            7 
 3282000   0.72004196   -7.4356834    786.55048   0.01997132  0.019261022            7 
 3283000   0.72724639   -7.4520289    787.92017  0.020000004  0.019255263           10 
 3284000    0.7098924   -7.4159169    788.20831  0.020001226  0.019249506           11 
 3285000   0.72243732   -7.4385743    787.40205  0.019974684  0.019243762            9 
 3286000   0.73287186   -7.4809423    787.10833  0.019961157  0.019238008           15 
 3287000   0.71834065   -7.4491263    787.24376  0.019958517   0.01923227            9 
 3288000   0.72988095   -7.4550196    787.53526  0.019959835  0.019226512            6 
 3289000    0.7086211   -7.4342287    787.10328  0.019942821  0.019220739           12 
 3290000   0.72702132    -7.442087    787.70932   0.01995211  0.019214997            3 
 3291000   0.74483406   -7.4480399    786.43567  0.019913797  0.019209245            9 
 3292000   0.73124699   -7.4367924    788.30254  0.019955006  0.019203502            6 
 3293000   0.70889277   -7.4577982    787.96515  0.019940408  0.019197755            4 
 3294000   0.72231878   -7.4522482    786.94476   0.01990854  0.019192009           10 
 3295000   0.71863874   -7.4639951    788.26677  0.019935932   0.01918626            7 
 3296000   0.72062479   -7.4634429    787.07291  0.019899699  0.019180498            7 
 3297000   0.72043989   -7.4491133    788.42375  0.019927807  0.019174756            7 
 3298000   0.72583029   -7.4614341     787.3894  0.019895629  0.019169003            7 
 3299000   0.73653684   -7.4470742    788.32655   0.01991327  0.019163263            7 
 3300000   0.71789189   -7.4748944    788.33279  0.019907394  0.019157556            4 
 3301000   0.74766218    -7.434422    788.56136  0.019907133  0.019151829            9 
 3302000   0.71122646   -7.4578051    788.62273  0.019902653  0.019146081           10 
 3303000   0.73196924   -7.4447869    788.10624  0.019883597   0.01914035            8 
 3304000   0.73372768   -7.4874269    786.47456  0.019836424  0.019134611            7 
 3305000   0.72216988   -7.4686737    787.30642  0.019851397  0.019128857            7 
 3306000   0.72007461   -7.4752549    789.21656  0.019893541   0.01912314            7 
 3307000   0.71222856   -7.4651731    787.23264  0.019837533  0.019117451            5 
 3308000   0.72610817   -7.4577253    789.03383   0.01987691  0.019111761            5 
 3309000   0.74102388   -7.4475055    788.30567  0.019852566  0.019106073            5 
 3310000   0.71335533    -7.452102    786.55693  0.019802541  0.019100377            7 
 3311000   0.70774155   -7.4701599    789.67761  0.019875103  0.019094679            9 
 3312000   0.72321711   -7.4706319    787.27216  0.019808579  0.019088991           12 
 3313000   0.71867946   -7.4567249    788.10845  0.019823635  0.019083291           11 
 3314000   0.70540483   -7.4523611    788.16054  0.019818963   0.01907762            8 
 3315000   0.71917363     -7.45691    789.87793  0.019856157  0.019071939           12 
 3316000   0.72266848   -7.4696777    788.25242  0.019809319   0.01906627           12 
 3317000    0.7213241   -7.4399479    789.94605  0.019845896   0.01906061            7 
 3318000   0.72575851   -7.4606428    787.92061  0.019789045  0.019054947            6 
 3319000   0.72654766   -7.4761087    790.62885  0.019851081  0.019049295            9 
 3320000   0.71488208   -7.4401456    790.26009  0.019835846  0.019043654            7 
 3321000   0.72773149   -7.4623115    790.11899  0.019826332  0.019038006            6 
 3322000   0.74059538   -7.4865623    789.32452  0.019800434  0.019032336            7 
 3323000   0.70273868   -7.4808997     787.6212   0.01975176  0.019026669            8 
 3324000   0.73620817   -7.4619654    789.21988  0.019785898  0.019020999            7 
 3325000   0.70840061   -7.4981236    789.22571  0.019780093  0.019015334            8 
 3326000    0.7316467   -7.4826725    788.73554  0.019761864  0.019009669            6 
 3327000   0.70771161   -7.4732288    789.53793  0.019776023  0.019004015           10 
 3328000   0.70789549   -7.4885992    788.03112   0.01973235   0.01899835            8 
 3329000    0.7025784   -7.4757059    788.24041  0.019731661  0.018992688           15 
 3330000   0.72472911   -7.4876526    788.35209  0.019728531  0.018987034            6 
 3331000   0.73068975   -7.4706468    787.83593  0.019709695  0.018981359            8 
 3332000   0.71581272   -7.4545216    791.38178  0.019792461  0.018975725           10 
 3333000   0.70904415   -7.4772075    789.46763  0.019738665  0.018970101            8 
 3334000    0.7174318   -7.4445835    790.41997  0.019756548  0.018964484            6 
 3335000   0.71408445   -7.4438638    789.60772  0.019730328  0.018958879            3 
 3336000   0.70467924   -7.4729137    790.49533  0.019746586  0.018953248            5 
 3337000   0.72541514    -7.461513    788.26053   0.01968486  0.018947616           10 
 3338000   0.73763868    -7.454218    789.75051   0.01971616  0.018941975            6 
 3339000   0.71670403   -7.4618371    788.59347  0.019681378  0.018936326            8 
 3340000   0.71540598   -7.4913617    788.86125  0.019682167  0.018930684           15 
 3341000   0.72421552    -7.483513     790.1471  0.019708348   0.01892503           16 
 3342000   0.71969619   -7.4801568    789.38265   0.01968339  0.018919376           10 
 3343000   0.71306997   -7.4704982    789.46218  0.019679484  0.018913729           13 
 3344000   0.72511696   -7.4850424    788.84192  0.019658142  0.018908089           12 
 3345000   0.72352134   -7.4690141    789.84681    0.0196773  0.018902455            7 
 3346000    0.7276042   -7.4978557    789.98907  0.019674962  0.018896827            8 
 3347000   0.72469985   -7.4651297    790.35642   0.01967823  0.018891209           11 
 3348000   0.69880247   -7.4650172    789.76163  0.019657547  0.018885563           11 
 3349000   0.70916615   -7.4863011    788.28073  0.019614828  0.018879914            8 
 3350000   0.71850466   -7.4682782     789.4631  0.019638386  0.018874254           16 
 3351000    0.7188048   -7.4851097    790.06567   0.01964751  0.018868604           12 
 3352000    0.7152314   -7.5013165    789.07401  0.019616995  0.018862951            9 
 3353000   0.71639067   -7.4864948     788.7156  0.019602237  0.018857298            6 
 3354000   0.70162656   -7.4714832    789.83247  0.019624142  0.018851644            7 
 3355000   0.70815885   -7.4514571    788.55246  0.019586499  0.018845998            5 
 3356000   0.71452684   -7.5096562    789.21831  0.019597197  0.018840356            5 
 3357000   0.70908063   -7.4495391    790.69642  0.019628051  0.018834705            2 
 3358000   0.72288105   -7.5126944    788.68892  0.019572387  0.018829064            8 
 3359000   0.73295512   -7.4675442    789.71771  0.019592084  0.018823378            5 
 3360000   0.72510313   -7.4947531    789.08009  0.019570439  0.018817691           10 
 3361000   0.70551049   -7.4644424    790.14418  0.019590999  0.018812015            7 
 3362000   0.71472461   -7.4776347    789.49243  0.019569017  0.018806342           12 
 3363000   0.72331917   -7.4887086    788.67861  0.019543032  0.018800665            5 
 3364000   0.71684278   -7.4688107    789.24863  0.019551343   0.01879499            5 
 3365000   0.70431891   -7.4863673    789.63992  0.019555223  0.018789324            8 
 3366000   0.71651426   -7.4947716    790.14666  0.019561959   0.01878368            8 
 3367000   0.71714844   -7.4816827    788.54154  0.019516423  0.018778048           10 
 3368000   0.72860926   -7.4755612     790.5306  0.019559843  0.018772394           11 
 3369000   0.72968161   -7.4697673    789.63678  0.019531928   0.01876676            9 
 3370000   0.69611766   -7.4795659    787.60515  0.019475894  0.018761124            9 
 3371000   0.69853458   -7.4750102    790.42091  0.019539724  0.018755483            8 
 3372000    0.7190963   -7.4887267    790.27758  0.019530387   0.01874983            4 
 3373000   0.71636022   -7.4938727    789.24819  0.019499165  0.018744184           21 
 3374000   0.70007236   -7.4760511    790.49057  0.019524071  0.018738541            5 
 3375000   0.70308907   -7.4809163    789.29227  0.019488698  0.018732899           13 
 3376000   0.69985143   -7.4990688    789.23903  0.019481611  0.018727282            8 
 3377000   0.70597278   -7.4913533    790.48617  0.019506618   0.01872162            9 
 3378000   0.71431226    -7.502502    791.49664  0.019525771  0.018715972            6 
 3379000   0.72240504   -7.4876514    791.38931  0.019517345  0.018710371           10 
 3380000   0.70567468    -7.482424    790.81266  0.019497353   0.01870475            3 
 3381000   0.72382052   -7.4940456    789.97985   0.01947106  0.018699131            8 
 3382000   0.70358248    -7.484568    789.89698  0.019463261  0.018693513            9 
 3383000   0.71332291   -7.4767585    790.25662  0.019466367  0.018687878           15 
 3384000   0.70203238    -7.474528    788.79825  0.019424701  0.018682235            6 
 3385000   0.71820139   -7.4813721    791.37136  0.019482308  0.018676607           17 
 3386000   0.70581237   -7.4982281    790.35342  0.019451502  0.018670968           12 
 3387000   0.71453376   -7.4775958    790.74062  0.019455285  0.018665334            5 
 3388000   0.71530458   -7.4719359    790.88768   0.01945316  0.018659702           16 
 3389000    0.7133571   -7.4923356    789.61479  0.019416121  0.018654073           17 
 3390000    0.7234741   -7.4944773    790.46784  0.019431363  0.018648448            8 
 3391000   0.70942575   -7.4754585    791.39214  0.019448347   0.01864283            8 
 3392000   0.69972751   -7.4777332    791.82607  0.019453274  0.018637226            4 
 3393000   0.70778314   -7.4899327    791.10959  0.019429944  0.018631635            4 
 3394000   0.72462495   -7.4796827    790.24201  0.019402917  0.018626048            3 
 3395000   0.71219979   -7.4826896    790.28567  0.019398274  0.018620455            5 
 3396000    0.7100337   -7.4859999    790.72634  0.019403375  0.018614859            4 
 3397000   0.69415216    -7.491702    790.50922  0.019392337  0.018609258           10 
 3398000   0.70404756   -7.5086377    789.72117  0.019367304   0.01860365           10 
 3399000   0.70200555   -7.4837165    790.77967  0.019387557  0.018598051            3 
 3400000   0.71045687    -7.474166    792.49405  0.019423874  0.018592489            7 
 3401000   0.69999848   -7.4867493    792.40529  0.019415988  0.018586942            5 
 3402000   0.70169987   -7.4745759    791.80238  0.019395512  0.018581388            8 
 3403000   0.70089411   -7.4703752    792.54608  0.019408024  0.018575816           19 
 3404000   0.71304239   -7.4711189    790.97281  0.019363808  0.018570257            8 
 3405000   0.70842216   -7.5180021    791.70416   0.01937602  0.018564704           17 
 3406000   0.72863138   -7.4783811    793.05443  0.019403367  0.018559161           16 
 3407000   0.71727944   -7.4824397    793.44675  0.019407268  0.018553616           11 
 3408000   0.71299195   -7.5006917     792.9196  0.019388684  0.018548073           20 
 3409000   0.71640635    -7.525115    791.33622   0.01934429   0.01854252           13 
 3410000   0.69998313   -7.4884831    792.74047  0.019372934  0.018536958            6 
 3411000   0.70401807   -7.4784288     791.9002  0.019346726  0.018531389            9 
 3412000   0.72256685   -7.4959181    793.58312  0.019382159  0.018525838            7 
 3413000    0.7192501   -7.5146211     790.7695  0.019307782  0.018520302            5 
 3414000   0.72216744   -7.5320373    790.93186  0.019306089  0.018514729            9 
 3415000   0.71671316   -7.4930471    793.21783  0.019356218  0.018509159            8 
 3416000   0.69977113   -7.5137765    790.92221   0.01929455  0.018503608            8 
 3417000   0.69755774   -7.5082238       791.75  0.019309092  0.018498054            6 
 3418000   0.69192354   -7.5026098    792.35023  0.019318077  0.018492493           12 
 3419000   0.70792006   -7.4994512    793.18765  0.019332837  0.018486947            6 
 3420000   0.71472229   -7.4747975    793.60672  0.019337396  0.018481404           10 
 3421000   0.70340886   -7.5077833    791.74138  0.019286305  0.018475877            9 
 3422000    0.7166654   -7.4882691    792.05055  0.019288198   0.01847034           13 
 3423000   0.69995783   -7.5047678    793.36808  0.019314638  0.018464809            4 
 3424000   0.70564272   -7.4991458    791.18701  0.019255914  0.018459275           11 
 3425000   0.70528272    -7.499754    793.38694  0.019303819  0.018453742            5 
 3426000   0.70486249   -7.4991421    791.30816   0.01924762  0.018448189            6 
 3427000   0.71569228   -7.4975534    791.75186  0.019252793  0.018442667            8 
 3428000    0.7159797   -7.4961171    793.87297   0.01929874   0.01843714           10 
 3429000   0.71272569   -7.5302549    793.57674  0.019285913  0.018431608           12 
 3430000    0.6856977   -7.4913312    790.81885  0.019213286  0.018426065           11 
 3431000    0.7126928   -7.5080482    791.72912  0.019229795  0.018420534            5 
 3432000   0.70448499   -7.5231972    791.07861  0.019208397  0.018415009            5 
 3433000   0.71599005   -7.5073845    791.72813  0.019218568  0.018409468            9 
 3434000   0.70682501   -7.5156201     791.8087  0.019214927  0.018403918            9 
 3435000   0.70849134   -7.5106846    792.02806  0.019214655  0.018398402            2 
 3436000   0.69240861   -7.4961721     792.5371  0.019221408  0.018392895            3 
 3437000    0.7056091   -7.4968421    793.51711  0.019239577  0.018387408            8 
 3438000   0.70342458   -7.4756569    791.71406  0.019190277  0.018381918            4 
 3439000   0.69881156   -7.4784046    792.98077  0.019215391  0.018376427            5 
 3440000   0.70158709   -7.5008176    791.76968  0.019180467  0.018370934           17 
 3441000   0.71253971   -7.5174683    793.01383  0.019205024  0.018365432           20 
 3442000   0.68961745   -7.5264653    792.14637  0.019178442  0.018359919           22 
 3443000    0.7027542   -7.4893873    794.33767  0.019225909  0.018354435           12 
 3444000   0.70615125   -7.5059253    792.96896  0.019187209  0.018348956            6 
 3445000   0.68885733   -7.5062132     794.5412  0.019219671  0.018343471            9 
 3446000    0.6961673   -7.5062269    791.66053  0.019144431  0.018337978           19 
 3447000   0.70965081   -7.5135216     793.0089  0.019171475  0.018332486            8 
 3448000   0.69543791   -7.5290857     792.0244  0.019142121  0.018326996           20 
 3449000   0.68701014   -7.5320446    792.43769  0.019146557  0.018321476           14 
 3450000   0.69449124   -7.5229071     792.2691  0.019136935  0.018315961           10 
 3451000   0.69730565   -7.5259091    791.51165  0.019113099  0.018310467            6 
 3452000     0.696372   -7.5451237    793.10456  0.019146016  0.018304956            5 
 3453000    0.7177765   -7.5252817    792.92586  0.019136158  0.018299451           10 
 3454000   0.70422792   -7.5244262    792.14282  0.019111726   0.01829396            8 
 3455000   0.68717074   -7.5101742    792.40334  0.019112478  0.018288482           10 
 3456000   0.70047126   -7.5187595     792.1653  0.019101208  0.018283007            4 
 3457000   0.70162802   -7.4961011    793.80826  0.019135287   0.01827754            9 
 3458000   0.68316184   -7.5116091    794.18811  0.019138908  0.018272102           15 
 3459000   0.70234053   -7.5354346     792.6663  0.019096711  0.018266657           10 
 3460000   0.69386822   -7.5196627    793.18809  0.019103759  0.018261203           14 
 3461000   0.69486416   -7.5373898    793.39429  0.019103205  0.018255718            6 
 3462000   0.69846802   -7.5240345    793.38599  0.019097487  0.018250256           13 
 3463000   0.69804561    -7.558451    792.23814   0.01906435  0.018244785            8 
 3464000   0.68224433   -7.5195349     794.4427  0.019111882  0.018239314           10 
 3465000   0.69912532   -7.4913232    793.68837  0.019088224  0.018233872           22 
 3466000   0.68324527   -7.5430972    792.82416  0.019061939  0.018228407           15 
 3467000   0.70125286   -7.5138417    792.46688  0.019047853  0.018222935           14 
 3468000   0.70061453    -7.505724    793.81842  0.019074837  0.018217472           15 
 3469000   0.69645444   -7.5225732    794.59213  0.019087925   0.01821202           10 
 3470000   0.70554803    -7.505624    795.08622   0.01909429  0.018206588            8 
 3471000   0.70679563   -7.5111806    795.34527  0.019095008   0.01820114           17 
 3472000   0.71155864   -7.5074888    793.66923  0.019049281  0.018195706           10 
 3473000   0.68034836   -7.5176743    793.33161  0.019035695  0.018190278           11 
 3474000   0.71165132   -7.5062261    793.54508  0.019035336  0.018184845           10 
 3475000   0.72114527    -7.537231    794.03389   0.01904158  0.018179415           14 
 3476000   0.68826086    -7.547645    795.08961  0.019061412  0.018173975           12 
 3477000   0.68461269   -7.5257592    792.99442  0.019005714   0.01816853            8 
 3478000   0.70756898   -7.5424681    794.42579  0.019034545   0.01816308           15 
 3479000   0.69502037   -7.5269399    792.69553  0.018987629  0.018157641            7 
 3480000   0.70130411   -7.5150659    794.49969  0.019025376  0.018152182           14 
 3481000   0.69139504   -7.5184812    793.71212  0.019001056  0.018146746           19 
 3482000   0.68412841   -7.5500744    793.37672  0.018987572  0.018141288            4 
 3483000   0.69228831   -7.5115244     794.1588  0.019000833  0.018135842           20 
 3484000   0.70385715   -7.5321465    793.98748  0.018991281  0.018130403           16 
 3485000   0.70028124   -7.5153913    794.66841  0.019002114  0.018124959           31 
 3486000   0.69644987   -7.5161065    794.87616  0.019001629   0.01811952           25 
 3487000   0.67375902    -7.518878    793.25985  0.018957553  0.018114094           20 
 3488000   0.69841199    -7.522248    793.91142  0.018967685  0.018108669           11 
 3489000    0.7033504   -7.5250321    794.36148  0.018972998  0.018103222           30 
 3490000   0.69330711   -7.5382552    792.97787  0.018934524  0.018097784           22 
 3491000   0.67983977   -7.5501921    792.56445  0.018919232  0.018092351           11 
 3492000    0.7120541    -7.522231      794.152  0.018951699   0.01808692            7 
 3493000   0.70451842   -7.5300916    793.45793  0.018929715  0.018081476           12 
 3494000   0.69227517   -7.5424319    793.60148  0.018927721  0.018076062           10 
 3495000   0.70031275   -7.5497324     792.0606  0.018885565  0.018070628           13 
 3496000   0.69908727   -7.5410395    794.05106  0.018927609  0.018065193           13 
 3497000   0.68627332   -7.5386959    793.57228  0.018910787  0.018059768           19 
 3498000   0.69419024   -7.5496069    794.27685  0.018922166  0.018054354           27 
 3499000   0.70719558   -7.5562268    795.17986  0.018938265  0.018048943           16 
 3500000   0.70954598   -7.5547347     794.2263   0.01891015  0.018043521            6 
 3501000   0.68320739   -7.5367389    792.80683  0.018870961  0.018038108            9 
 3502000   0.68231596   -7.5631217    794.40238   0.01890354  0.018032694           10 
 3503000   0.70850791   -7.5413924     794.9694  0.018911633  0.018027282            7 
 3504000   0.67922189   -7.5149497    792.07058  0.018837295  0.018021878           14 
 3505000   0.68753942   -7.5305057    795.20599  0.018906467  0.018016473            9 
 3506000   0.68250229   -7.5309584    794.80477  0.018891538  0.018011088           11 
 3507000    0.7054008   -7.5351013     794.1602  0.018870834  0.018005716           11 
 3508000   0.69685038   -7.5129936    794.16186  0.018865495  0.018000334            9 
 3509000   0.68486155    -7.522932    796.25503  0.018909828  0.017994968            6 
 3510000   0.68913697   -7.5211626    795.67901  0.018890765  0.017989587            7 
 3511000   0.68587391   -7.5040066    795.21524  0.018874377  0.017984213            7 
 3512000   0.69795886   -7.5272508     794.5792   0.01885391  0.017978865           11 
 3513000   0.68615876   -7.5414376    794.72265  0.018851946    0.0179735           15 
 3514000   0.69101995   -7.5308204    795.46928  0.018864288  0.017968146           15 
 3515000   0.68638567    -7.530065    794.41895   0.01883402  0.017962773           17 
 3516000   0.67931656   -7.5194356    795.74021  0.018859978  0.017957404            6 
 3517000    0.6901689   -7.5194416    795.08225  0.018839026  0.017952044            9 
 3518000   0.69734557   -7.5518859    794.10817  0.018810597   0.01794669           11 
 3519000   0.70010122   -7.5508339    794.58089  0.018816446  0.017941308            8 
 3520000   0.69512348   -7.5427752    795.36535  0.018829672  0.017935909            5 
 3521000   0.67377142   -7.5615415    793.75169  0.018786133  0.017930509            4 
 3522000   0.67881846   -7.5542422    795.57809  0.018824013   0.01792513           12 
 3523000   0.68550411   -7.5479225    794.58403  0.018795156  0.017919746            8 
 3524000   0.69155406   -7.5551391    794.20697  0.018780906   0.01791434            4 
 3525000   0.69512557   -7.5314507    796.39523   0.01882731  0.017908952           13 
 3526000   0.69467724   -7.5588983    793.87971  0.018762519  0.017903555            7 
 3527000   0.69518817    -7.552638    794.26651  0.018766338  0.017898157            7 
 3528000    0.6891729    -7.560458    794.02483  0.018755311  0.017892767            9 
 3529000   0.68464777   -7.5537445    794.60188  0.018763622  0.017887367            6 
 3530000   0.68567581   -7.5529377    793.35306  0.018728826  0.017881987            5 
 3531000   0.67968106   -7.5222672    795.58237  0.018776135  0.017876625           13 
 3532000   0.67889794   -7.5182825    796.42798   0.01879077  0.017871251            7 
 3533000   0.69965903   -7.5513768    794.95859  0.018750792  0.017865869            5 
 3534000   0.68735707   -7.5580498    795.75658  0.018764303  0.017860481            9 
 3535000   0.68354549   -7.5108481    795.60097  0.018755327  0.017855113            8 
 3536000   0.67855736   -7.5028124    793.80526  0.018707703  0.017849753           27 
 3537000   0.68360936   -7.5545263    793.63395  0.018698378  0.017844392            8 
 3538000   0.69427599    -7.524544    794.43106  0.018711868  0.017839017            5 
 3539000   0.68577692   -7.5314242    794.19532  0.018701029  0.017833641           13 
 3540000    0.6748227   -7.5500677    794.07133  0.018692828  0.017828258            4 
 3541000   0.68482529   -7.5355002    795.31898  0.018716911  0.017822877            5 
 3542000   0.68459359   -7.5307961    794.72248  0.018697593  0.017817506           20 
 3543000   0.68639741   -7.5252054     795.9493  0.018721171  0.017812136            7 
 3544000   0.68751693    -7.539149    796.06093  0.018718513  0.017806762            5 
 3545000   0.69448764   -7.5533567    795.45321  0.018698947  0.017801392            7 
 3546000   0.67969368   -7.5522498    793.54468  0.018648822  0.017796008           10 
 3547000   0.69118974   -7.5395619    794.24433  0.018660002   0.01779061            7 
 3548000   0.69089787   -7.5589852    795.03421  0.018673295  0.017785218           14 
 3549000   0.68212212   -7.5537422     794.2702  0.018650094  0.017779818           14 
 3550000   0.68688127   -7.5867387    792.34212   0.01859958   0.01777442           11 
 3551000   0.68924558   -7.5580542    794.21082  0.018638196  0.017769031           10 
 3552000   0.69812363   -7.5616956    794.87018  0.018648418  0.017763655            8 
 3553000   0.68663794   -7.5660751    794.32859  0.018630467  0.017758272           15 
 3554000   0.70071023   -7.5572486    795.26996  0.018647298  0.017752874           13 
 3555000   0.66645213   -7.5496233    796.29698  0.018666127  0.017747498           13 
 3556000   0.67870253   -7.5489973    795.27219  0.018636862  0.017742121            5 
 3557000   0.69743537    -7.542727    794.07432  0.018603559  0.017736732           12 
 3558000   0.68249743   -7.5455902    795.94583  0.018642164  0.017731339           14 
 3559000   0.69189109   -7.5713467    794.60661  0.018605568  0.017725972           13 
 3560000   0.68536897   -7.5621401    794.13847  0.018589384  0.017720606           10 
 3561000   0.67498465   -7.5380155    795.26879  0.018610615  0.017715254            8 
 3562000   0.69297451   -7.5440113    794.69226  0.018591902  0.017709908            9 
 3563000   0.69044326   -7.5537711    795.31347  0.018601213  0.017704554           26 
 3564000   0.68997342   -7.5571564    796.39183  0.018621208  0.017699194           10 
 3565000     0.686106   -7.5622341    795.67569  0.018599245  0.017693846            5 
 3566000   0.67690835   -7.5493729    796.23639  0.018607132  0.017688491            6 
 3567000   0.68999556   -7.5611537    795.86125  0.018593151  0.017683125            6 
 3568000   0.67755544   -7.5677034     794.5917  0.018558289  0.017677773            6 
 3569000   0.67230997   -7.5456342     797.3258  0.018616928  0.017672416            8 
 3570000    0.6976427   -7.5429751    795.41211  0.018567043  0.017667079            7 
 3571000   0.69411397   -7.5612314    795.69058  0.018568342  0.017661739           14 
 3572000   0.67706749    -7.541986     796.5339  0.018582818  0.017656405           12 
 3573000   0.69682923   -7.5597716     793.9994  0.018518505  0.017651068            6 
 3574000   0.68016882   -7.5567984    794.97984  0.018536184  0.017645738           12 
 3575000    0.6772429   -7.5670599    795.55263   0.01854435  0.017640418           11 
 3576000    0.6736534   -7.5858565      793.999   0.01850296  0.017635094           17 
 3577000   0.66091134   -7.5687263     796.1346   0.01854754  0.017629765           15 
 3578000   0.68171603   -7.5493247    795.87152  0.018536229  0.017624439            5 
 3579000   0.69151827   -7.5685974    795.71687  0.018527449  0.017619109           13 
 3580000   0.68044882   -7.5606416    795.23907  0.018511151  0.017613774            6 
 3581000   0.67988268   -7.5485199    794.91259  0.018498385  0.017608449            7 
 3582000   0.67780037   -7.5456572     796.6176  0.018532887  0.017603133           12 
 3583000   0.68212605   -7.5683281    794.15885  0.018470529  0.017597813           10 
 3584000   0.67641992   -7.5700035    794.33779  0.018469536  0.017592499            7 
 3585000   0.68767006   -7.5925245    795.15054  0.018483276  0.017587174            9 
 3586000   0.66942194   -7.5809953    794.51525  0.018463359  0.017581834           12 
 3587000    0.6928027   -7.5593616    795.27891  0.018475953  0.017576513           19 
 3588000   0.68757471   -7.5766561    794.58131  0.018454601  0.017571189            9 
 3589000   0.67981959   -7.5881359    794.41853   0.01844568  0.017565852            5 
 3590000   0.67660071   -7.5784315    795.23775  0.018459558  0.017560522            8 
 3591000   0.67716213   -7.5638818     796.1502  0.018475592  0.017555197            9 
 3592000   0.67374511   -7.5713559    795.24981  0.018449559  0.017549846            7 
 3593000   0.66894483   -7.5810623    795.63491  0.018453356  0.017544505            5 
 3594000   0.68567071   -7.5833395    795.44027  0.018443709  0.017539177            8 
 3595000   0.68689787   -7.5518947    794.75511  0.018422696  0.017533856           11 
 3596000   0.66328667   -7.5622492    795.07758  0.018425046  0.017528558           10 
 3597000   0.67140814   -7.5766908    796.26598  0.018447456  0.017523248           12 
 3598000   0.67502554   -7.5817458    795.23112   0.01841836  0.017517938            6 
 3599000   0.68790311   -7.5737003       795.82  0.018426878  0.017512646           10 
 3600000    0.6798541   -7.5996233    795.66057  0.018418069  0.017507355           10 
 3601000   0.68079879   -7.5702622    795.51339  0.018409548  0.017502079            5 
 3602000    0.6761387   -7.5834252    795.87878  0.018412891  0.017496804            3 
 3603000   0.67909099   -7.5707128    797.29212  0.018440469  0.017491526            6 
 3604000   0.65511322    -7.580282    796.25586  0.018411392  0.017486244            6 
 3605000   0.69203781    -7.590285    794.94486  0.018375979  0.017480956           11 
 3606000    0.6700299   -7.5825228    795.65505  0.018387295  0.017475668            6 
 3607000   0.67566273   -7.5800396     797.3438  0.018421213  0.017470366            8 
 3608000   0.67964653   -7.5665016    796.04027     0.018386    0.0174651            6 
 3609000   0.66957216   -7.5480411    796.81309  0.018398751  0.017459833            4 
 3610000   0.67076927   -7.5784148    795.12946  0.018354789  0.017454561           13 
 3611000   0.66478336    -7.575192     796.2619   0.01837584  0.017449283            8 
 3612000   0.67016417   -7.5773682    796.11308  0.018367319   0.01744401           14 
 3613000   0.68562419   -7.5872027    795.58651   0.01835009  0.017438737            7 
 3614000   0.66498935   -7.5873217    793.91437  0.018306456  0.017433453            7 
 3615000   0.68218201   -7.5836278    795.00001  0.018326418  0.017428162            8 
 3616000   0.67693933   -7.5645264    795.92594  0.018342689  0.017422878           11 
 3617000   0.66637491    -7.600297    795.26656  0.018322426  0.017417573            7 
 3618000   0.68366597   -7.5983282    796.91837  0.018355408  0.017412274           12 
 3619000   0.65960221   -7.5907771     795.5981  0.018319934  0.017406987            8 
 3620000   0.67908832   -7.5933809    796.90862  0.018345042    0.0174017           11 
 3621000   0.66390114   -7.5728804    795.15867  0.018299702  0.017396432            8 
 3622000   0.68980293   -7.5666809    798.01519  0.018360372   0.01739115           15 
 3623000   0.67932975   -7.5831535    795.48067  0.018297007  0.017385887           14 
 3624000    0.6827547   -7.5744103    794.82792  0.018276948  0.017380624           12 
 3625000   0.66229724   -7.5736365    796.77875  0.018316753  0.017375378           10 
 3626000   0.66449783   -7.5812414    795.43292  0.018280771  0.017370118           13 
 3627000   0.66415637   -7.5812195    796.81767  0.018307547  0.017364859           13 
 3628000   0.66728592   -7.5914839    794.82242  0.018256671  0.017359592           14 
 3629000   0.66680943   -7.5861047    795.03773  0.018256584  0.017354323           13 
 3630000   0.67265763   -7.5823693    797.78699  0.018314669  0.017349063            3 
 3631000   0.67954556   -7.5986371    797.16582  0.018295369  0.017343804            6 
 3632000   0.66671332   -7.5880166    796.55404  0.018276295  0.017338541           12 
 3633000   0.66178965   -7.5980829    797.54808  0.018294065  0.017333273            6 
 3634000   0.66662612   -7.5672807    797.73934  0.018293417   0.01732802           10 
 3635000   0.67090619   -7.5919779    797.36289  0.018279755  0.017322769           10 
 3636000   0.66436305   -7.5847024    794.00913  0.018197862  0.017317514           23 
 3637000   0.68014624    -7.612105    796.41127  0.018247898  0.017312261            6 
 3638000   0.67990752   -7.5762543    795.76955  0.018228183  0.017307007           10 
 3639000   0.67903213   -7.5824893    797.72707  0.018268001  0.017301761            6 
 3640000   0.67155296   -7.6201656    797.09062  0.018248412  0.017296531            6 
 3641000   0.66511272   -7.5655134    797.25316   0.01824712  0.017291295            8 
 3642000   0.66709768    -7.580632    796.57214  0.018226527  0.017286059            9 
 3643000   0.67885538   -7.5674082    797.13423  0.018234382   0.01728082           11 
 3644000   0.67015739   -7.5649974    795.58304  0.018193904  0.017275583            9 
 3645000   0.67040113   -7.5809111     796.5858  0.018211838  0.017270356           12 
 3646000   0.68889807   -7.5946804    795.74159  0.018187548  0.017265127            8 
 3647000   0.67879117   -7.5798266    797.02833  0.018211962  0.017259889            8 
 3648000   0.67281837   -7.6019678    797.23116  0.018211604  0.017254651           15 
 3649000   0.67587985   -7.6261708    796.05424  0.018179735  0.017249418           18 
 3650000    0.6731945   -7.6078185     796.4945  0.018184806  0.017244167            7 
 3651000   0.66909394   -7.5813143     797.3127    0.0181985  0.017238934           15 
 3652000   0.67124859    -7.569991    797.94432   0.01820793  0.017233724           15 
 3653000   0.67557741   -7.5780403    795.41378  0.018145218  0.017228514            6 
 3654000   0.66873616   -7.6082777     796.5984  0.018167269  0.017223284           12 
 3655000   0.66348923   -7.5926758    796.56771  0.018161598  0.017218057           12 
 3656000   0.66194741   -7.5823805     795.5754  0.018134013  0.017212837           22 
 3657000    0.6754247   -7.5795162    797.80721  0.018179911  0.017207619           14 
 3658000   0.66866877   -7.6170307    795.14757  0.018114351  0.017202397           12 
 3659000   0.69056532    -7.598456    796.38244  0.018137525  0.017197167           15 
 3660000   0.66548873     -7.60426    796.20412  0.018128509  0.017191945           25 
 3661000   0.64395491   -7.6107909    795.44371  0.018106248  0.017186717           14 
 3662000    0.6767138   -7.6007824    795.30544  0.018098158  0.017181496           15 
 3663000   0.66054872   -7.5902904    796.07472  0.018110718  0.017176285           16 
 3664000   0.65958055   -7.6115775    798.25399   0.01815534   0.01717108            8 
 3665000   0.66095566   -7.5945376    798.74909  0.018161644   0.01716589           13 
 3666000   0.66462417   -7.5955867    795.92361  0.018092463  0.017160697            5 
 3667000   0.67005942   -7.5955735    798.15218  0.018138173  0.017155515            5 
 3668000   0.66103415   -7.6132636    800.34565  0.018183062  0.017150344            4 
 3669000    0.6384541   -7.5961455    796.77491  0.018097004  0.017145166           11 
 3670000   0.67577292   -7.6095944    798.72653  0.018136388  0.017139996            8 
 3671000   0.66687933   -7.5827564    798.88097  0.018134953  0.017134828            8 
 3672000   0.66047394   -7.5757767    799.15533  0.018136241  0.017129687            9 
 3673000   0.65647816   -7.5746445    798.89979  0.018125506  0.017124543           10 
 3674000   0.67075493   -7.5718123    797.06363  0.018078925  0.017119387           11 
 3675000    0.6592119   -7.5801959    797.92472  0.018093531  0.017114244            4 
 3676000   0.64677088   -7.5837584    798.70225  0.018106235  0.017109092            5 
 3677000   0.67430829   -7.5777152    798.85363  0.018104742  0.017103949            5 
 3678000   0.67927889   -7.6034341    797.49136  0.018068954  0.017098794            3 
 3679000   0.65547977   -7.5575958    797.55959  0.018065588   0.01709363            6 
 3680000   0.68215294   -7.5848515    798.43866  0.018080586  0.017088479            4 
 3681000   0.65320962    -7.621071    796.34785   0.01802834  0.017083321            7 
 3682000   0.65773016   -7.6008846     796.3743  0.018024043  0.017078165            5 
 3683000   0.66959614   -7.5926259    799.40695  0.018087767  0.017073021            8 
 3684000   0.66305018   -7.5916519    798.54623  0.018063387  0.017067876            8 
 3685000   0.67219632   -7.5892262    797.35927  0.018031643  0.017062732            5 
 3686000   0.65830556   -7.6034665     798.1949  0.018045643  0.017057581            8 
 3687000   0.65449322   -7.5906449    798.35152  0.018044289  0.017052438            6 
 3688000   0.66886739   -7.5878582    798.72165   0.01804776  0.017047305           16 
 3689000   0.66725994   -7.6340842    799.32008  0.018056386  0.017042168           10 
 3690000   0.67018087   -7.6133406    798.92947  0.018042671  0.017037024           12 
 3691000    0.6674641   -7.5888964    798.35539  0.018024821  0.017031886           11 
 3692000   0.65778045   -7.6006828    799.00885  0.018034689  0.017026734           12 
 3693000   0.66207469   -7.6076255    797.92652  0.018005382   0.01702159           18 
 3694000   0.67335304   -7.6139544    797.01996  0.017980057  0.017016446           16 
 3695000   0.65248767   -7.5772407    797.52411  0.017986561  0.017011306           18 
 3696000   0.67156479   -7.6017511    797.44565  0.017979925  0.017006161           14 
 3697000   0.66035297   -7.6060494    798.02347  0.017988086  0.017001017           17 
 3698000   0.64801224   -7.6094807    797.55622  0.017972693  0.016995873           19 
 3699000   0.66215439   -7.6052208    796.87939  0.017952586  0.016990716            7 
 3700000   0.66285877   -7.6278751    798.18807  0.017977209  0.016985578           12 
 3701000   0.65968014   -7.6230047    798.66827  0.017983164  0.016980441            9 
 3702000   0.66621359   -7.6146706    798.15127  0.017966668  0.016975295           12 
 3703000   0.65610184   -7.6239852    796.32154   0.01792064  0.016970147            6 
 3704000   0.65241241   -7.6055434    796.41491  0.017917902     0.016965           17 
 3705000   0.65629235   -7.6197964    797.26893  0.017932275  0.016959849            7 
 3706000   0.65143595   -7.6230104    797.10696  0.017923794  0.016954692            6 
 3707000   0.65555836   -7.6187256    796.24934   0.01789968  0.016949558            5 
 3708000   0.66916176   -7.6188761    797.62869  0.017925851  0.016944413           13 
 3709000   0.65708988   -7.6155757    796.98628  0.017906585  0.016939274           13 
 3710000    0.6673221    -7.608596    796.92529  0.017900388  0.016934137            8 
 3711000   0.66082143   -7.6163154    797.38101  0.017905798  0.016928994            7 
 3712000    0.6635503   -7.6116007    797.35475  0.017900385  0.016923858            9 
 3713000   0.67116627   -7.5908088    797.19761  0.017892037  0.016918727           16 
 3714000   0.64800741   -7.5946172    797.31739  0.017889907  0.016913611            6 
 3715000   0.65169244   -7.6243805    796.20839  0.017860215  0.016908485            8 
 3716000   0.65091597   -7.6147095    797.82252  0.017891607  0.016903354           12 
 3717000   0.64792961   -7.6239477    799.24986  0.017918793  0.016898231            8 
 3718000   0.64666433   -7.6057625    796.51423  0.017852659   0.01689311           14 
 3719000   0.65673608   -7.6344824    798.29097  0.017887671  0.016887991           10 
 3720000   0.64882762   -7.6057495     797.2473  0.017859483  0.016882863           10 
 3721000   0.64020404   -7.6171377    797.30864  0.017856057  0.016877744           18 
 3722000   0.65534829   -7.6178753    797.50145  0.017855576  0.016872628           17 
 3723000   0.64260054   -7.6209139    798.35008  0.017869775   0.01686751           23 
 3724000   0.65252345   -7.6153509    798.20229   0.01786167  0.016862387            9 
 3725000   0.65491332    -7.612322    798.34569  0.017860083   0.01685727            9 
 3726000    0.6504353    -7.583022    798.62832   0.01786161  0.016852163            6 
 3727000   0.66629178   -7.6212869    798.47502   0.01785339  0.016847062           10 
 3728000   0.66210331   -7.6134325    796.38577  0.017801899  0.016841952           13 
 3729000    0.6622281   -7.5838834    798.98274  0.017855161   0.01683686           10 
 3730000   0.65891775   -7.5980614    799.29333  0.017857313  0.016831776           35 
 3731000   0.65542654    -7.592366    799.06588  0.017847447  0.016826686           22 
 3732000   0.66263493   -7.6221422    798.07109  0.017820451  0.016821595           12 
 3733000   0.65312654   -7.5972135    798.08642   0.01781602  0.016816494           19 
 3734000   0.65386763   -7.6089575    797.99608  0.017809232  0.016811396           11 
 3735000   0.66925922     -7.60478    798.10208  0.017806829  0.016806296            8 
 3736000   0.64814563   -7.6366077    797.05553  0.017778719  0.016801195            8 
 3737000   0.65309488   -7.6237145    796.51879  0.017761993  0.016796086           10 
 3738000   0.66605299   -7.5974376    797.81914   0.01778623  0.016790978            7 
 3739000   0.65296905   -7.6043137      798.606  0.017799011  0.016785873            7 
 3740000   0.66228611   -7.6043205    797.67071  0.017773411  0.016780777           12 
 3741000   0.66262068   -7.6029643    797.30765  0.017760573  0.016775686           12 
 3742000   0.66206913   -7.6035461    797.61685  0.017762713  0.016770606            7 
 3743000   0.65496837   -7.6183569    798.64909  0.017780949  0.016765521            5 
 3744000    0.6510921   -7.6086398    798.56857  0.017774407  0.016760433           12 
 3745000   0.66303602    -7.599291    798.05865  0.017758314  0.016755339            5 
 3746000   0.65502052   -7.6227898    798.24876  0.017757803   0.01675026           11 
 3747000   0.65383467   -7.6059094    797.47283  0.017735807   0.01674518            8 
 3748000   0.64375269   -7.6289804    800.35059  0.017795059  0.016740105           17 
 3749000   0.66281876   -7.6220979    799.87299  0.017779697  0.016735034            6 
 3750000   0.65112515   -7.5844034    797.34228  0.017718717  0.016729968            6 
 3751000   0.63957466   -7.6184926    800.42298  0.017782435  0.016724905            8 
 3752000   0.64081195   -7.5995658    797.60062   0.01771501  0.016719845           11 
 3753000    0.6470327   -7.6021344    799.15752   0.01774486  0.016714791            8 
 3754000   0.64734315   -7.6221221    799.04892  0.017737722  0.016709736           14 
 3755000    0.6506097   -7.5957046    799.76325  0.017748851  0.016704677            6 
 3756000   0.65650795   -7.6153662     799.4167  0.017736437   0.01669962           12 
 3757000   0.66356995   -7.6205202    799.73631  0.017738806  0.016694559           10 
 3758000   0.64234734   -7.6116962    798.44789  0.017705515  0.016689498           13 
 3759000    0.6578306   -7.6430092    798.46146  0.017701105  0.016684423           10 
 3760000   0.65865547   -7.6278685    797.29829  0.017670618  0.016679364           11 
 3761000   0.65278251   -7.6183689    798.44202  0.017691262  0.016674297            5 
 3762000   0.63578915   -7.6225059    798.52562  0.017688411  0.016669241           16 
 3763000   0.64032643   -7.6315265     798.5118  0.017683404  0.016664183           10 
 3764000    0.6484174   -7.6432751    799.52488  0.017701135  0.016659116           15 
 3765000   0.64221281    -7.611597    798.72714  0.017678777  0.016654046           24 
 3766000   0.64492497   -7.6313754    798.32936  0.017665281  0.016648977            9 
 3767000   0.66202058   -7.6385075    798.01942  0.017653735  0.016643902           10 
 3768000   0.65287471   -7.6168604    799.18157  0.017674752  0.016638831           10 
 3769000   0.64849417   -7.6138525    798.18261  0.017647975  0.016633763           17 
 3770000   0.65735211   -7.6344469    796.80987   0.01761295  0.016628693           15 
 3771000   0.65065972   -7.6218735    796.97986  0.017612036  0.016623626           10 
 3772000   0.63786491   -7.6351194    798.27119  0.017635896  0.016618567           15 
 3773000   0.63830356   -7.6166279    798.05434  0.017626432  0.016613506           10 
 3774000    0.6483251   -7.6200574    797.20754  0.017603064  0.016608443           18 
 3775000   0.65576787   -7.6440139    798.85826   0.01763484  0.016603382           19 
 3776000   0.65454077   -7.6117128    798.42971  0.017620712  0.016598316           12 
 3777000    0.6442545   -7.5901758    798.83272  0.017624939  0.016593258           10 
 3778000    0.6517298   -7.6258316    797.88697  0.017599413  0.016588205            9 
 3779000   0.63893845   -7.6223662    798.99944  0.017619287  0.016583158            9 
 3780000   0.65234588   -7.6358756    798.81152  0.017610483  0.016578095           17 
 3781000     0.652609   -7.6370097    798.04119  0.017588848  0.016573028           16 
 3782000   0.65673673   -7.6511784    797.73695  0.017577493  0.016567962           15 
 3783000   0.64059468   -7.6514316    797.33103  0.017563905  0.016562885           13 
 3784000    0.6460871   -7.6361245    798.13876  0.017577052  0.016557805            7 
 3785000   0.65061685   -7.6216422    796.06488  0.017526748  0.016552724           22 
 3786000   0.65542301   -7.6659879    796.38317  0.017529124  0.016547643           12 
 3787000   0.64308927   -7.6505095    797.03642   0.01753887  0.016542574            7 
 3788000   0.64125975   -7.6520548    797.88476  0.017552903  0.016537502           28 
 3789000   0.63407982   -7.6417205    798.06121  0.017552151  0.016532439            6 
 3790000   0.63445819   -7.6253342    798.65518   0.01756058  0.016527389            5 
 3791000   0.64652428   -7.6155635    798.34297  0.017549085  0.016522348           14 
 3792000    0.6409533   -7.6440543    797.10831  0.017517324    0.0165173            5 
 3793000   0.64600266   -7.6450377    798.00954  0.017532506  0.016512259           12 
 3794000   0.63646916   -7.6218081     799.6971  0.017564951  0.016507223            6 
 3795000    0.6469712   -7.6284526    797.90125  0.017520888  0.016502186            8 
 3796000   0.64823551   -7.6286934    798.75343   0.01753498   0.01649715            7 
 3797000   0.65050162   -7.6476516    799.32317  0.017542867  0.016492109            8 
 3798000   0.65203594   -7.6248456    798.32811  0.017516414  0.016487076            6 
 3799000   0.63267128   -7.6487114    797.77861   0.01749975  0.016482054            9 
 3800000   0.65743964   -7.6290761    797.56392  0.017490437  0.016477021           14 
 3801000   0.65112747   -7.6219915    798.58413  0.017508202  0.016471988           14 
 3802000   0.65095045    -7.627607    798.78789  0.017508064  0.016466968           10 
 3803000   0.65054212   -7.6399837    798.39838  0.017494925  0.016461948           11 
 3804000   0.64470145   -7.6379145    799.00858  0.017503693  0.016456924            7 
 3805000   0.64637867   -7.6260367    799.18527  0.017502962  0.016451913            7 
 3806000   0.63894583   -7.6606473    797.38687  0.017458987  0.016446894            7 
 3807000   0.64849157   -7.6455384    797.91811   0.01746603  0.016441875            8 
 3808000   0.65406084   -7.6353795    798.66787  0.017477851  0.016436846           12 
 3809000   0.63192826   -7.6175752    797.79682  0.017454205  0.016431827            9 
 3810000   0.64373614   -7.6575237    798.83191  0.017472264   0.01642681            8 
 3811000   0.64234232   -7.6493147    798.87662  0.017468657   0.01642178           15 
 3812000   0.65445474   -7.6266079    797.36365     0.017431  0.016416758            6 
 3813000   0.64230968   -7.6268806    798.08124  0.017442111  0.016411738            9 
 3814000   0.62413538   -7.6447337    799.06843  0.017459107  0.016406722            9 
 3815000   0.64146273   -7.6436765    798.42214  0.017440414  0.016401708            4 
 3816000   0.65201541   -7.6249856    800.31733   0.01747723  0.016396692            9 
 3817000   0.63545622   -7.6370651    800.20632  0.017470228  0.016391702           10 
 3818000   0.64170979   -7.6335256    797.45599  0.017405622  0.016386697            6 
 3819000    0.6483697   -7.6357129    798.94113  0.017433471  0.016381688            8 
 3820000     0.633261   -7.6481177    797.92815  0.017406809  0.016376675            8 
 3821000   0.63448624   -7.6382873    799.42593   0.01743492  0.016371671           10 
 3822000   0.64398947   -7.6408578    799.30985  0.017427827  0.016366661           10 
 3823000   0.63168005   -7.6355098    797.55873  0.017385097  0.016361639            7 
 3824000   0.64507653   -7.6337801    799.14478  0.017415115  0.016356628            9 
 3825000   0.64124826   -7.6495487    799.37884  0.017415661  0.016351622            6 
 3826000   0.62810204   -7.6674329    797.62258  0.017372856  0.016346616           10 
 3827000    0.6272069    -7.656858    798.86051  0.017395273  0.016341597           14 
 3828000   0.63297087   -7.6274315    799.12025  0.017396383  0.016336595            6 
 3829000   0.63654491   -7.6619654    799.44248  0.017398853  0.016331603            6 
 3830000   0.64260904   -7.6283959    797.67857  0.017355931  0.016326603           14 
 3831000   0.63105956    -7.644812    796.72624  0.017330685  0.016321615            5 
 3832000   0.64918439   -7.6573725    797.61275  0.017345441  0.016316618           10 
 3833000   0.64292517   -7.6578395     799.0512  0.017372189  0.016311609            4 
 3834000   0.62045836    -7.652479    797.49724  0.017333882   0.01630661            4 
 3835000   0.64766408   -7.6614198     797.7139   0.01733407  0.016301604            6 
 3836000   0.63772606   -7.6632522    796.79273   0.01730954  0.016296596           13 
 3837000   0.64190646   -7.6483245    796.76704   0.01730447  0.016291598           10 
 3838000   0.63622249   -7.6552027    796.57009  0.017295685  0.016286601            7 
 3839000    0.6455392   -7.6498111    797.78011  0.017317446  0.016281616           13 
 3840000    0.6345537   -7.6666123    798.86633  0.017336509  0.016276627            6 
 3841000    0.6282919   -7.6736605    798.06918  0.017314701  0.016271634           10 
 3842000   0.63854869   -7.6516314    798.26832  0.017314513  0.016266634            8 
 3843000   0.63814707   -7.6669952    798.18057  0.017308105  0.016261654           10 
 3844000   0.63790607   -7.6641429    798.39099  0.017308164   0.01625667            7 
 3845000    0.6345657   -7.6528399    798.83553  0.017313297  0.016251689            6 
 3846000   0.63500189   -7.6537173    797.92074  0.017288974  0.016246722            8 
 3847000   0.62885345   -7.6582518    796.54566  0.017254693  0.016241748            8 
 3848000   0.63546274   -7.6485557    798.85104  0.017300135  0.016236782            7 
 3849000   0.62438889   -7.6472351    800.72725  0.017336262  0.016231816            6 
 3850000    0.6462726   -7.6663607    799.21792  0.017299089  0.016226858            6 
 3851000   0.64065711   -7.6377647    800.29197  0.017317839  0.016221898            5 
 3852000   0.63263326   -7.6598793    798.29112  0.017270057  0.016216953            8 
 3853000   0.64450668   -7.6690616    797.92352  0.017257624  0.016211984            9 
 3854000   0.63676871   -7.6892767    798.56273  0.017266968  0.016207031           11 
 3855000   0.62622737   -7.6443552    798.51625  0.017261484  0.016202075           12 
 3856000   0.63711759   -7.6610436    798.51743  0.017257033  0.016197112           11 
 3857000   0.63197808   -7.6674838    798.44064    0.0172509  0.016192141            7 
 3858000    0.6478393   -7.6768728    797.44859     0.017225  0.016187177            5 
 3859000   0.64285161   -7.6573927    798.52888  0.017243865  0.016182214           13 
 3860000   0.62677262     -7.65996    797.28647  0.017212575  0.016177259           13 
 3861000   0.62544438   -7.6567053     795.9117  0.017178445    0.0161723            8 
 3862000   0.63262909   -7.6530726    797.71713  0.017212954  0.016167339           10 
 3863000   0.65148556   -7.6716501    796.58721  0.017184123   0.01616238           17 
 3864000   0.64353253   -7.6818582    797.62265  0.017202007  0.016157424           18 
 3865000   0.62045412   -7.6606605    797.72514  0.017199766  0.016152473           17 
 3866000    0.6394933   -7.6522437     798.6815  0.017215932  0.016147524           16 
 3867000   0.62826518   -7.6530246    800.04092  0.017240775  0.016142584           13 
 3868000   0.62690285    -7.656055    798.27038  0.017198173  0.016137651           15 
 3869000    0.6445454    -7.634591    798.31948  0.017194785  0.016132724            7 
 3870000   0.64487055   -7.6542243    798.56034  0.017195528  0.016127783            5 
 3871000   0.63647439   -7.6554756    798.02418  0.017179544  0.016122848            8 
 3872000    0.6326626   -7.6718466    798.48018  0.017184921  0.016117913            4 
 3873000   0.64007118   -7.6633664    797.13294  0.017151496  0.016112977           13 
 3874000   0.62565199   -7.6476879    797.66754  0.017158569  0.016108043            4 
 3875000   0.63122776   -7.6736132    798.90285  0.017180706  0.016103113            6 
 3876000   0.63435858   -7.6801558    797.60659  0.017148404  0.016098186            8 
 3877000   0.64668564   -7.6766392    798.31406  0.017159188  0.016093261           12 
 3878000   0.62948604   -7.6654996    800.11665  0.017193499  0.016088342            9 
 3879000   0.63630824    -7.671621    799.69813  0.017180075  0.016083417            7 
 3880000   0.63741245   -7.6831157    796.88152  0.017115153  0.016078488           13 
 3881000   0.63158434    -7.665878    799.84183  0.017174307  0.016073573           13 
 3882000   0.64375429   -7.6800967    797.86183  0.017127379  0.016068654            9 
 3883000   0.63756504   -7.6854737    799.09751  0.017149487  0.016063725            7 
 3884000   0.62664497   -7.6600477    797.62003  0.017113372  0.016058805            9 
 3885000   0.62954907    -7.672631    798.44643  0.017126693  0.016053898            8 
 3886000    0.6202244    -7.675083    799.38878  0.017142494   0.01604899           11 
 3887000     0.640498   -7.6808403    799.28816  0.017135927   0.01604407           19 
 3888000   0.63073296   -7.6708677    796.87643  0.017079827  0.016039174           11 
 3889000   0.62622421   -7.6619091    798.72034  0.017114947  0.016034266           13 
 3890000   0.61997768    -7.689875    797.85883  0.017092091  0.016029356           16 
 3891000   0.63577746    -7.670622    799.01266   0.01711241  0.016024441           13 
 3892000   0.63052897   -7.6786704     797.9868  0.017086048  0.016019525            9 
 3893000   0.62435824   -7.6741302    797.81365  0.017077953  0.016014608           13 
 3894000   0.63322703   -7.6728991    799.53183  0.017110337  0.016009694            9 
 3895000   0.62391815   -7.6713996    799.74879  0.017110586  0.016004786            9 
 3896000   0.63236707    -7.663564    799.91966  0.017109849  0.015999893           13 
 3897000   0.63462212    -7.684716    798.59819    0.0170772  0.015994992            8 
 3898000   0.61683944    -7.655471    798.36652  0.017067867  0.015990097           11 
 3899000   0.63074768   -7.6752967    798.54826  0.017067373    0.0159852           12 
 3900000   0.63867894   -7.6911036    798.60582  0.017064227  0.015980297           10 
 3901000   0.62892548   -7.7039964    798.80137   0.01706403  0.015975398           13 
 3902000   0.63338432    -7.664119    798.10664   0.01704482  0.015970497            8 
 3903000    0.6259265   -7.6604868    799.31004  0.017066146  0.015965613           27 
 3904000   0.63980273   -7.6863918    800.64351  0.017090239  0.015960718           15 
 3905000   0.62356931   -7.6878256    798.71293  0.017044663  0.015955827           12 
 3906000   0.62251002   -7.6991416    798.48332  0.017035401  0.015950935            8 
 3907000   0.63188954   -7.6793228    799.46994  0.017052085  0.015946038           11 
 3908000   0.61715123   -7.6591607    799.64707  0.017051498  0.015941147            9 
 3909000   0.62875983   -7.6595194    799.40917  0.017042065  0.015936259            8 
 3910000   0.61571948   -7.6762255    798.59178  0.017020285   0.01593138           19 
 3911000   0.62164579   -7.6783169    797.90776  0.017001359  0.015926493           14 
 3912000   0.62071421   -7.6887235    799.20081  0.017024557  0.015921615           13 
 3913000   0.62336485   -7.6840906    797.51249  0.016984251   0.01591672           16 
 3914000   0.62669427   -7.6828947    799.18941  0.017015615  0.015911836            9 
 3915000   0.60709027   -7.6767002    798.26138  0.016991515  0.015906959           11 
 3916000   0.63968213    -7.681303    798.21761  0.016986245  0.015902078           12 
 3917000   0.63035415   -7.6989754    800.28049  0.017025795  0.015897198           13 
 3918000   0.62329533   -7.6878028    798.37603  0.016980943  0.015892314           10 
 3919000    0.6218703   -7.6790439    799.25005  0.016995195  0.015887429            7 
 3920000   0.61142425   -7.6804993    798.39788  0.016972744  0.015882539           16 
 3921000   0.64011812   -7.6755078    799.83664  0.016998993  0.015877653           10 
 3922000   0.63170965   -7.6880757    797.24749  0.016939646  0.015872764           17 
 3923000   0.62186426   -7.6795623    797.96395  0.016950547  0.015867869           21 
 3924000   0.61490588   -7.6762773    799.47852  0.016978392  0.015862979           19 
 3925000   0.62710344   -7.6746286    798.98111  0.016963506   0.01585809           23 
 3926000   0.62236147   -7.7001232    798.58725  0.016950825  0.015853213           18 
 3927000   0.63113092   -7.6913253        799.1  0.016957389  0.015848346           25 
 3928000   0.61558873   -7.6894653    798.34918  0.016937143  0.015843476           24 
 3929000   0.61481167   -7.6911651    799.09239  0.016948596  0.015838605           24 
 3930000   0.61445063   -7.6842284    798.91593  0.016940541  0.015833733           16 
 3931000   0.63396487   -7.6698795    799.20761  0.016942415  0.015828863           39 
 3932000   0.61743371   -7.6715447    798.15033  0.016915699     0.015824           47 
 3933000   0.61874862   -7.7018814    798.42033  0.016917119   0.01581913           32 
 3934000   0.61655174   -7.7036436    798.40933  0.016912585  0.015814266           66 
 3935000   0.62657515    -7.690064    799.93067  0.016940506  0.015809406           15 
 3936000   0.61773427     -7.67049    798.14264  0.016898345  0.015804529           26 
 3937000   0.61997813   -7.6997922    798.65532  0.016904905  0.015799664           26 
 3938000   0.61521164   -7.6940241     798.0532   0.01688787  0.015794785           15 
 3939000   0.61462152   -7.6891666    798.72126  0.016897716  0.015789912           23 
 3940000   0.61388904    -7.704484    797.44803  0.016866498  0.015785043           22 
 3941000   0.63102266   -7.6974167    797.43482  0.016861939  0.015780171           32 
 3942000   0.62887313   -7.7074703    798.11549  0.016872051  0.015775307           14 
 3943000     0.614619    -7.705535    796.94167  0.016842964  0.015770437           30 
 3944000   0.60882122   -7.6885788    799.58229  0.016894487  0.015765562           20 
 3945000   0.61893343   -7.6939235    798.32707   0.01686369  0.015760697           18 
 3946000   0.61957028   -7.6912438    797.82423  0.016848797   0.01575583           38 
 3947000   0.61339067   -7.7149713     797.4729   0.01683711  0.015750967            9 
 3948000   0.63220482   -7.6997527    797.24532  0.016828042    0.0157461           11 
 3949000   0.62101113   -7.6928144    797.53987  0.016829996  0.015741252           39 
 3950000   0.60895005   -7.6869692    797.06084  0.016815629  0.015736394           25 
 3951000   0.61851089   -7.6842286    799.12475  0.016854905   0.01573154           41 
 3952000   0.62484057   -7.6922865    797.95227  0.016825917  0.015726687           15 
 3953000   0.60173419   -7.7020716    797.49279  0.016811974  0.015721833            9 
 3954000   0.62382459   -7.7081109    797.66891  0.016811434  0.015716971           13 
 3955000   0.62447242   -7.7129297    796.78964  0.016788657  0.015712107           15 
 3956000   0.61223585   -7.6902016    798.05542  0.016811076  0.015707247           35 
 3957000   0.63629695   -7.7187761     796.8965  0.016782421  0.015702393            9 
 3958000   0.62308464   -7.7245127    798.37438  0.016809297  0.015697546           11 
 3959000   0.61870675   -7.7145558    798.29142  0.016803305  0.015692697           12 
 3960000   0.61740778   -7.7058478    797.66645   0.01678591  0.015687851           15 
 3961000   0.59962398   -7.6896782    798.07632  0.016790295  0.015683018           20 
 3962000   0.63032328   -7.7197055    797.96155  0.016783644  0.015678186           14 
 3963000   0.61019462    -7.719967    798.25086  0.016785492   0.01567336           14 
 3964000   0.60377409   -7.7126734    799.36995  0.016804784  0.015668538           26 
 3965000   0.60883512   -7.6886514     798.4459  0.016781124  0.015663713           14 
 3966000   0.61264211   -7.6933062    797.14255  0.016749507  0.015658897            7 
 3967000   0.61386548   -7.7002304    799.19216   0.01678834  0.015654083            5 
 3968000   0.63380894   -7.6959526    799.81909  0.016797276  0.015649278           13 
 3969000   0.62019806   -7.7118422    798.60064  0.016767461  0.015644464           25 
 3970000   0.61834551    -7.698188    799.94585  0.016791475  0.015639659           29 
 3971000   0.61349432   -7.7205498    799.88525  0.016785974   0.01563485           24 
 3972000   0.61519349   -7.7096589    799.18483  0.016767053   0.01563005            7 
 3973000   0.60809118   -7.7141748     799.0035   0.01675903  0.015625244           10 
 3974000    0.6051442    -7.700887    797.88675  0.016731395  0.015620442           11 
 3975000   0.61155548   -7.7059059    799.55957  0.016762255   0.01561564           12 
 3976000   0.62081418   -7.7106602    797.39045  0.016712576  0.015610849           12 
 3977000   0.61875162   -7.7047159     800.0332   0.01676375  0.015606049            6 
 3978000   0.60628938   -7.7124713    797.70336  0.016710729  0.015601243            7 
 3979000   0.62327205   -7.7130637    798.48136  0.016722823  0.015596431            6 
 3980000   0.61944525   -7.7077401    796.75544  0.016682484  0.015591615            8 
 3981000   0.60894466   -7.6949221      798.798   0.01672105  0.015586806           15 
 3982000   0.62186807   -7.6942154    798.83571   0.01671764  0.015582017           14 
 3983000   0.61635153     -7.70562    798.49038  0.016706218  0.015577221            6 
 3984000    0.6134733   -7.6997583    798.36724  0.016699449  0.015572433            8 
 3985000   0.62409304   -7.7038711    798.88561  0.016706098  0.015567643           14 
 3986000   0.60969858   -7.7193533     797.5414  0.016673804  0.015562837            8 
 3987000    0.6138079   -7.6921244    798.18511  0.016683076  0.015558036           12 
 3988000   0.62437658   -7.7072325    798.82597  0.016692285  0.015553234            8 
 3989000   0.62914443   -7.7092663    798.21909  0.016675422  0.015548436           21 
 3990000   0.61797645   -7.6930103    800.25745  0.016713815  0.015543642           12 
 3991000   0.61147536   -7.6961733    798.75104  0.016678173  0.015538853           13 
 3992000   0.60665828   -7.7053084    797.86876  0.016655577  0.015534062           18 
 3993000   0.61787586     -7.70494    799.12847  0.016677696  0.015529275           16 
 3994000   0.61083113    -7.720446    797.05578  0.016630274  0.015524481           18 
 3995000   0.61332694   -7.6924794    798.64298  0.016659219  0.015519688           15 
 3996000   0.61606746   -7.7129895    797.14419  0.016623794  0.015514896           15 
 3997000   0.63126087   -7.6937462    799.50944  0.016668948  0.015510108           15 
 3998000   0.62751231   -7.7154049    799.21693  0.016658682  0.015505328           25 
 3999000   0.59976265   -7.6982305    798.02867  0.016629755  0.015500552           36 
 4000000   0.61241964   -7.7343177    797.38859  0.016612262  0.015495767           21 
 4001000   0.60672836   -7.7046908    798.38443  0.016628852  0.015490978           22 
 4002000    0.6011746    -7.715548    796.66521  0.016588898  0.015486189           26 
 4003000   0.61088411   -7.7098393    797.44324   0.01660095  0.015481406           31 
 4004000    0.6214002   -7.7094195    797.98775  0.016608137   0.01547661           22 
 4005000   0.61476102   -7.7242489    797.32988  0.016590301   0.01547182           46 
 4006000   0.61472795   -7.6852236    797.62465  0.016592292  0.015467034           45 
 4007000   0.60353602   -7.6980577    797.95742  0.016595072  0.015462249            9 
 4008000   0.60770376   -7.7298862    798.01316   0.01659209  0.015457465           29 
 4009000   0.62810379   -7.7660742    797.15032  0.016570016  0.015452682           33 
 4010000   0.61441569    -7.705454    798.09906    0.0165856  0.015447897           27 
 4011000   0.61357009   -7.7250095    797.19181  0.016562615   0.01544312           42 
 4012000   0.61262391   -7.7177141    797.40588  0.016562934  0.015438334           17 
 4013000   0.60952332   -7.7223285    797.81132  0.016567226  0.015433543           23 
 4014000   0.60044456   -7.7616364    797.89222  0.016564778  0.015428757           35 
 4015000    0.6029535   -7.7459126    797.50144  0.016552541  0.015423969           20 
 4016000    0.6202482   -7.7208793    797.77315  0.016554058  0.015419185           20 
 4017000   0.62223238   -7.7501452    797.11714  0.016536328  0.015414402           31 
 4018000   0.61288945   -7.7378259    798.82693  0.016567673  0.015409634           18 
 4019000   0.61137512   -7.7082176     796.8679  0.016522931  0.015404859           12 
 4020000   0.59888992   -7.7125649    797.73649  0.016536826  0.015400085           23 
 4021000   0.61412672   -7.7257698    798.08727  0.016539983  0.015395315           20 
 4022000   0.60601165   -7.7295876    797.69778  0.016527801  0.015390544           13 
 4023000   0.59937475   -7.7715395    797.73369  0.016524436  0.015385761           34 
 4024000    0.6106413   -7.7406578    798.76001  0.016541584  0.015380981           20 
 4025000    0.5967025   -7.7487864    796.30694  0.016486686  0.015376204           29 
 4026000   0.61046122   -7.7449378    796.67717  0.016490254  0.015371423           35 
 4027000   0.60644593   -7.7571033    796.11324   0.01647449  0.015366648           33 
 4028000   0.61163081   -7.7467142    797.95694  0.016508543   0.01536187           30 
 4029000   0.61714696   -7.7382001    796.33382  0.016470874  0.015357093           20 
 4030000   0.59809765   -7.7290897    795.91415  0.016458109  0.015352326           37 
 4031000   0.60865469   -7.7229134    798.07344  0.016498665  0.015347559           22 
 4032000   0.60713458   -7.7415449    796.88172  0.016469943  0.015342786           19 
 4033000   0.61075419   -7.7145803    796.00795  0.016447804  0.015338013           50 
 4034000   0.59744729   -7.7409998    797.49551  0.016474457  0.015333244           34 
 4035000   0.61174916   -7.7500984     797.1066  0.016462342  0.015328472           15 
 4036000   0.59070737   -7.7569501    797.21539  0.016460509  0.015323702           33 
 4037000   0.62458786   -7.7183275    796.19178  0.016435302  0.015318927           27 
 4038000   0.60612833   -7.7449872    796.56704  0.016438976  0.015314159           21 
 4039000   0.59537891   -7.7690041    797.72327  0.016458762  0.015309396           18 
 4040000   0.59124202   -7.7255429    797.02789  0.016440344  0.015304634           39 
 4041000   0.61274976   -7.7199937    797.51323  0.016446284  0.015299875           32 
 4042000   0.60159563     -7.74897    797.23629  0.016436506  0.015295116           36 
 4043000   0.61730936   -7.7276643    797.91109  0.016446349  0.015290358           36 
 4044000    0.6056917   -7.7469971    797.35735  0.016430872  0.015285596           62 
 4045000   0.58486179   -7.7327634    793.91435  0.016355879  0.015280828           42 
 4046000   0.61188891   -7.7534714    797.34423   0.01642248  0.015276067           16 
 4047000   0.61279757   -7.7511582    797.86971  0.016429242   0.01527131           39 
 4048000   0.60643066   -7.7313535    796.41785  0.016395295  0.015266548           29 
 4049000   0.61958311   -7.7460795    795.42882   0.01637089  0.015261792           24 
 4050000   0.61040749   -7.7262492    797.07938   0.01640081  0.015257039           17 
 4051000   0.60027322   -7.7469118    797.11326  0.016397459  0.015252279           15 
 4052000   0.59264761   -7.7256405    798.43816   0.01642066  0.015247523           33 
 4053000   0.60685625   -7.7299921    796.13424  0.016369238  0.015242777           29 
 4054000    0.6110138   -7.7443273    796.66636  0.016376138  0.015238034           41 
 4055000   0.60028041   -7.7186066    798.43343  0.016408414  0.015233286           28 
 4056000   0.60842374   -7.7529988    797.01202  0.016375165  0.015228528           23 
 4057000   0.59734466    -7.743455    797.05579  0.016372028  0.015223782           18 
 4058000   0.59847296   -7.7560172    797.09064  0.016368709  0.015219026           11 
 4059000   0.59443327   -7.7418735    797.48162  0.016372703  0.015214278            8 
 4060000   0.60288352   -7.7676765    797.39237  0.016366838   0.01520953           28 
 4061000   0.61056387   -7.7431424    796.43287  0.016343119   0.01520478           38 
 4062000   0.59677459   -7.7457284    795.49314  0.016319817  0.015200039           27 
 4063000   0.60397279   -7.7384115    797.58411  0.016358686  0.015195299           20 
 4064000   0.59936523   -7.7282563    796.20509  0.016326384  0.015190572           33 
 4065000    0.6116253    -7.732003    796.55425  0.016329525  0.015185837           24 
 4066000   0.59574207   -7.7505074    796.09195  0.016316034  0.015181098           26 
 4067000   0.59906035   -7.7147165    797.09961   0.01633267  0.015176369           15 
 4068000   0.59667184   -7.7561094    798.23953  0.016352006  0.015171631           11 
 4069000   0.60061091   -7.7535028    797.17417  0.016326169  0.015166895           21 
 4070000   0.59217536   -7.7353478    797.89957   0.01633701  0.015162162           14 
 4071000   0.59768522   -7.7415975    797.17484  0.016318162  0.015157435           17 
 4072000   0.58919393   -7.7489424     797.7188  0.016325286   0.01515272           14 
 4073000    0.5925015   -7.7255053    797.70163  0.016320927  0.015148003           10 
 4074000   0.60072885   -7.7194832    796.78687  0.016298209  0.015143281           23 
 4075000   0.60156717   -7.7334203    796.88119  0.016296139  0.015138564           35 
 4076000   0.59638677   -7.7330655      795.826  0.016270568  0.015133839           21 
 4077000   0.59620193   -7.7444765    795.59758  0.016261908  0.015129105           10 
 4078000   0.60196743   -7.7651726    795.63879  0.016258762  0.015124373           19 
 4079000    0.5950117   -7.7634524    796.16372  0.016265501  0.015119646           17 
 4080000   0.60019129   -7.7563255    796.08391  0.016259884  0.015114919           26 
 4081000   0.59556266   -7.7416315     796.7142   0.01626877  0.015110184           22 
 4082000   0.59359137   -7.7493972    796.65157  0.016263506   0.01510545           20 
 4083000   0.59129006   -7.7649108    796.43372  0.016255076  0.015100723           20 
 4084000   0.59454863   -7.7622174    797.25304  0.016267814  0.015095997           31 
 4085000   0.59172922    -7.756959    795.00093  0.016217889  0.015091265           13 
 4086000   0.60866758    -7.751541    797.12552  0.016257251  0.015086536           20 
 4087000   0.59532363    -7.742564     795.6356  0.016222894  0.015081803           13 
 4088000   0.59987023   -7.7300278    797.05936  0.016247948  0.015077084            8 
 4089000   0.59194839   -7.7534585    795.56068  0.016213432  0.015072368           17 
 4090000   0.59442736   -7.7543892    796.04377  0.016219311  0.015067651            9 
 4091000   0.59940731   -7.7697069    797.66345  0.016248339  0.015062934            9 
 4092000   0.59929753   -7.7314564     795.2419  0.016195053  0.015058217           11 
 4093000   0.60129929   -7.7439398    796.92635  0.016225392  0.015053512           16 
 4094000     0.593342    -7.743244    796.89042  0.016220697   0.01504881           14 
 4095000   0.60668401   -7.7577496    794.95367  0.016177323  0.015044105           18 
 4096000   0.59773846   -7.7527127    796.59352  0.016206737  0.015039409           15 
 4097000   0.59934139   -7.7586547    796.58297  0.016202566  0.015034722           14 
 4098000   0.58007247   -7.7348403    797.41778  0.016215589  0.015030024           17 
 4099000   0.60450351   -7.7602507    797.21964  0.016207604  0.015025334           14 
 4100000   0.59123255    -7.745262    798.37766  0.016227188  0.015020643           10 
 4101000   0.59506672   -7.7398986    797.07448   0.01619675  0.015015959           11 
 4102000   0.60487331   -7.7395553    795.78118  0.016166528  0.015011278           18 
 4103000   0.58455978   -7.7330667     796.7864  0.016183004  0.015006602           22 
 4104000   0.59654504     -7.74063    798.04174  0.016204551  0.015001923           18 
 4105000   0.59694887   -7.7401854     796.8063  0.016175524   0.01499725           28 
 4106000   0.57785072   -7.7666242    796.67317  0.016168882  0.014992576           26 
 4107000   0.60678715   -7.7636929    797.44979  0.016180703  0.014987908           12 
 4108000   0.59049613   -7.7416723    797.51348  0.016178057  0.014983234           14 
 4109000   0.58833612   -7.7306957    798.73166  0.016198825  0.014978568           17 
 4110000   0.58883624   -7.7361257    797.12178  0.016162242  0.014973891           23 
 4111000   0.59245977   -7.7627424    796.64342  0.016148614  0.014969219           38 
 4112000    0.5920203    -7.777328    797.30906  0.016158176  0.014964546           15 
 4113000   0.59047142   -7.7464458    796.42169  0.016136269  0.014959876           13 
 4114000   0.59504758   -7.7584098    797.46656  0.016153512  0.014955204           22 
 4115000   0.59085589   -7.7689184    797.80458  0.016156431  0.014950541           24 
 4116000    0.5804359   -7.7461669    797.18728  0.016140008   0.01494587           14 
 4117000   0.58569322   -7.7320316    797.59925  0.016144427  0.014941207           15 
 4118000    0.5949295   -7.7527757    798.06023  0.016149835  0.014936549            8 
 4119000   0.58571712    -7.739894    796.56115  0.016115585  0.014931897           19 
 4120000   0.58866979   -7.7457536    798.24972  0.016145828  0.014927242           15 
 4121000   0.58313412   -7.7523966    796.43496  0.016105212  0.014922587           31 
 4122000   0.58030223   -7.7519951    797.09942  0.016114738  0.014917934           23 
 4123000   0.58181341   -7.7575129     796.8262  0.016105308  0.014913283           22 
 4124000   0.58832684   -7.7673129    796.71433  0.016099142  0.014908629           22 
 4125000   0.58732272   -7.7601696    795.94954  0.016079789  0.014903981            8 
 4126000   0.58472416   -7.7491393    795.78937  0.016072656  0.014899333           13 
 4127000   0.60657254   -7.7363466    795.96009  0.016072209  0.014894689           22 
 4128000   0.59631633   -7.7580225    797.95615  0.016108611  0.014890051           11 
 4129000   0.57802566   -7.7470306    797.19896  0.016089428  0.014885407           25 
 4130000   0.58459362   -7.7612009    798.37713  0.016109304  0.014880761           19 
 4131000   0.58699585   -7.7647455    797.59572  0.016089642  0.014876122           26 
 4132000   0.58260462   -7.7554362     795.3966  0.016041397  0.014871485           10 
 4133000     0.581065   -7.7538988    797.12295  0.016072323  0.014866852           11 
 4134000   0.58477103   -7.7505517    795.88235  0.016043428  0.014862212           13 
 4135000   0.60413565    -7.766264     797.9515  0.016081248  0.014857575           19 
 4136000   0.58536364   -7.7683123     796.5232  0.016048581  0.014852942           14 
 4137000   0.61073138    -7.757428    796.93518  0.016053001  0.014848307           14 
 4138000   0.58150968   -7.7522836    794.01537  0.015990321  0.014843672           20 
 4139000   0.59014494   -7.7462011    797.18569  0.016050288  0.014839039           20 
 4140000   0.59117905   -7.7424079    795.98937   0.01602233  0.014834414           14 
 4141000   0.58561186   -7.7654845     796.8481  0.016035742  0.014829779           22 
 4142000   0.58008637   -7.7463856    795.52733  0.016005298  0.014825148           27 
 4143000   0.60040772   -7.7678759    796.78259  0.016026683  0.014820519           17 
 4144000   0.59669828   -7.7699638    796.72844  0.016021727  0.014815885           16 
 4145000   0.59026351   -7.7575461    796.59771  0.016015233   0.01481125           17 
 4146000   0.58600287   -7.7504533    795.62353   0.01599179  0.014806622           12 
 4147000   0.59284605   -7.7525367    796.21357   0.01599979  0.014801992            7 
 4148000   0.58847548   -7.7455168    796.57683  0.016003231   0.01479737           16 
 4149000    0.5968902   -7.7655576    795.74411  0.015982649  0.014792743           15 
 4150000   0.59560546   -7.7818441    795.22663  0.015968406  0.014788118           23 
 4151000   0.58363495   -7.7899667    796.75387  0.015995219  0.014783495           16 
 4152000   0.58273604    -7.744221    798.83361  0.016033109   0.01477888           35 
 4153000   0.58582824   -7.7680345    796.23025   0.01597701  0.014774266           11 
 4154000   0.58931822   -7.7622291    797.15137  0.015991642  0.014769653           15 
 4155000    0.5939596   -7.7653303    796.44181  0.015973562  0.014765037           18 
 4156000   0.58779457   -7.7708107    797.28628  0.015986651  0.014760433           16 
 4157000   0.58318056    -7.751303      797.935   0.01599581  0.014755824            9 
 4158000   0.57641728   -7.7591893     796.9187  0.015971595  0.014751208           14 
 4159000   0.58191206   -7.7741405    796.78119  0.015964999  0.014746594            7 
 4160000   0.59499918   -7.7557913    796.07559  0.015947027  0.014741984           22 
 4161000   0.58808129    -7.772337    795.88472  0.015939372  0.014737376           10 
 4162000   0.58745129   -7.7838608    796.44921  0.015946845  0.014732766           19 
 4163000   0.59350141   -7.7770478    797.26394  0.015959323   0.01472816           16 
 4164000   0.59165756   -7.7577658    795.59376  0.015922065  0.014723552           26 
 4165000   0.58048059   -7.7537474    795.90452   0.01592446  0.014718952           19 
 4166000   0.58628538   -7.7709318    796.50324  0.015932614  0.014714346           25 
 4167000   0.58704052   -7.7552016    794.28536  0.015884436  0.014709739           18 
 4168000   0.56408037   -7.7687817    795.28989   0.01590071  0.014705139           16 
 4169000    0.5929791   -7.7602825    796.11889  0.015913466  0.014700538           18 
 4170000   0.57749515   -7.7538734    796.11326  0.015909538  0.014695942           14 
 4171000   0.59630841   -7.7755551    796.00086  0.015903478  0.014691344           21 
 4172000   0.58481291   -7.7802224    796.07128  0.015901072  0.014686742           17 
 4173000   0.59071675    -7.776695    795.95184  0.015894877  0.014682144           11 
 4174000   0.58108326   -7.7765669    796.77906  0.015907584  0.014677547           21 
 4175000   0.58318087   -7.7674613    795.50591  0.015878361  0.014672952           27 
 4176000   0.59037667   -7.7690833    795.34028  0.015871254  0.014668358           19 
 4177000   0.57547749   -7.7486753    796.46964  0.015889986  0.014663768           34 
 4178000   0.57743703   -7.7777016    796.41684  0.015885129  0.014659183           37 
 4179000   0.58876928   -7.7778871    794.26496  0.015838417  0.014654597           18 
 4180000   0.59041866   -7.7687705    796.17405  0.015872688  0.014650012           12 
 4181000   0.58825906   -7.7642334     795.9599  0.015864624  0.014645427           18 
 4182000   0.58249108   -7.7768578    797.68464  0.015895199  0.014640842           10 
 4183000    0.5868161   -7.7559812    796.98466  0.015877454  0.014636264           17 
 4184000   0.59847412   -7.7729127    794.68731  0.015827902  0.014631686           10 
 4185000    0.5799988   -7.7856245    795.87916  0.015847853  0.014627106           16 
 4186000   0.57883823    -7.774217    795.48271  0.015836174  0.014622528           12 
 4187000   0.57865316   -7.7483966    795.22582  0.015827279  0.014617953           13 
 4188000   0.57754917   -7.7662011    795.41608  0.015827286  0.014613375           15 
 4189000   0.58232124   -7.7586166    797.20309  0.015859057  0.014608803           20 
 4190000   0.58576785   -7.7558126    797.12592  0.015853737  0.014604237           12 
 4191000   0.58876613   -7.7672941    797.30151  0.015853446  0.014599679           10 
 4192000   0.58539813   -7.7603767    796.33723  0.015830495  0.014595113           26 
 4193000   0.59116308   -7.7582409    796.41476  0.015828261  0.014590553           11 
 4194000   0.56871123   -7.7908159    797.75374  0.015851092   0.01458599            8 
 4195000   0.58410058   -7.7734516     796.4756  0.015821923  0.014581426           16 
 4196000    0.5791001   -7.7732016    795.33282  0.015795456  0.014576859           21 
 4197000   0.57634443   -7.7537619    795.48024   0.01579462  0.014572291           12 
 4198000    0.5902016   -7.7516634    796.09071  0.015802976  0.014567724           20 
 4199000   0.57835113   -7.7721278    796.15323  0.015800453  0.014563167           13 
 4200000   0.58296329   -7.7618122     796.5521  0.015804605  0.014558606           17 
 4201000   0.57941037   -7.7713867    796.04397  0.015790764  0.014554047           20 
 4202000   0.57710648   -7.7882491    796.13495   0.01578881  0.014549488           17 
 4203000   0.59082562   -7.7720115    796.59635  0.015794202  0.014544924           12 
 4204000   0.58825875    -7.765159    796.67628  0.015792029  0.014540363           16 
 4205000   0.57397463   -7.7818369    796.77806  0.015790291  0.014535812           19 
 4206000   0.57645191   -7.7761223    795.93723  0.015769877  0.014531261           14 
 4207000   0.58290511   -7.7774106    795.83252  0.015764054  0.014526714           15 
 4208000    0.5880543   -7.7831337    795.88402  0.015761328  0.014522165           18 
 4209000   0.59048367   -7.7733173    796.45098  0.015768809  0.014517615            9 
 4210000   0.57279092   -7.7831273    796.45769  0.015765196  0.014513071           15 
 4211000   0.57376729   -7.7540709    796.22248  0.015756797  0.014508525           13 
 4212000    0.5798814   -7.7703165     795.5342  0.015739439  0.014503979           11 
 4213000   0.58895874   -7.7810009     795.6599  0.015738189   0.01449943           10 
 4214000   0.57236188   -7.7688951    796.24234  0.015745973  0.014494884           13 
 4215000   0.57657322   -7.7905033    796.79546  0.015753172  0.014490337           19 
 4216000   0.57795446   -7.7761516    795.87844   0.01573131  0.014485796            8 
 4217000   0.57783746    -7.772913    797.43834  0.015758405  0.014481258            8 
 4218000   0.57147792   -7.7626095    794.54124  0.015697432  0.014476726            7 
 4219000   0.56369613   -7.7654108    795.05638  0.015703887  0.014472192            7 
 4220000   0.58262163   -7.7815202    794.82769  0.015695649  0.014467658           10 
 4221000   0.57045231   -7.7804704    795.88827   0.01571287  0.014463133            8 
 4222000    0.5741542   -7.7930227    796.83989  0.015727931  0.014458605            8 
 4223000   0.57012398   -7.7639992    796.42597  0.015716039  0.014454072           27 
 4224000   0.59202338   -7.7980808    796.01274  0.015704165  0.014449543           13 
 4225000   0.57025119   -7.7759529    795.04616  0.015681384  0.014445018            8 
 4226000   0.57038254   -7.7890327    795.60505  0.015688694  0.014440486           15 
 4227000   0.56989751   -7.7809322     794.6383  0.015665923  0.014435955            5 
 4228000   0.58139964   -7.7940118    794.59565  0.015661378  0.014431428            5 
 4229000   0.58594018    -7.794878    795.48114  0.015675123  0.014426908           11 
 4230000   0.57574567   -7.7776492    796.14009  0.015684399  0.014422386            5 
 4231000   0.57774837   -7.7859121    794.94522  0.015657158  0.014417865            9 
 4232000   0.58323792   -7.7634556    795.59626  0.015666278  0.014413346            7 
 4233000   0.57375816   -7.7856029    794.43999  0.015639814  0.014408827           15 
 4234000   0.57026395   -7.7802795    794.08025   0.01562904  0.014404303           12 
 4235000   0.57627547   -7.7872594    795.67305  0.015656691  0.014399788            8 
 4236000   0.57417305   -7.7701676    796.33197  0.015665958  0.014395281           11 
 4237000   0.57633674   -7.7618617    794.81488  0.015632422  0.014390775           10 
 4238000   0.57969591   -7.7919739    796.03631  0.015652751  0.014386276           14 
 4239000   0.58106544   -7.7864377    795.52598  0.015639026  0.014381764           11 
 4240000    0.5721852   -7.8056755    796.17122  0.015648019  0.014377252           16 
 4241000   0.57670882   -7.7919989    795.53533  0.015631835  0.014372752           18 
 4242000   0.58163597   -7.7977011     794.5764  0.015609312  0.014368245           16 
 4243000   0.58084207   -7.7958085    797.40892  0.015661264  0.014363743           10 
 4244000   0.55641234   -7.7875475    797.10147  0.015651537  0.014359239           10 
 4245000   0.57456601   -7.7963024     794.9744  0.015606093  0.014354735           11 
 4246000   0.56458226   -7.7922926    795.32089  0.015609218  0.014350233           14 
 4247000   0.56409187   -7.7919823    796.36108  0.015625953  0.014345733           28 
 4248000   0.58604546    -7.788756    796.15715  0.015618274  0.014341242           22 
 4249000   0.56002199   -7.8072092    794.86994  0.015589353  0.014336745           23 
 4250000   0.58171414   -7.8178114    795.59895  0.015599979   0.01433225           15 
 4251000   0.57606685   -7.7732125    795.72848  0.015598849   0.01432775           19 
 4252000   0.58137797   -7.8068357    795.21526  0.015585122  0.014323259           11 
 4253000   0.56986771    -7.806053    795.99678   0.01559677  0.014318767           21 
 4254000   0.56331047   -7.7989998    794.44508  0.015562707  0.014314272           14 
 4255000   0.57127827   -7.7933426    796.01366   0.01558977  0.014309782           11 
 4256000   0.56140817   -7.8123416    795.38915  0.015573879  0.014305287           18 
 4257000   0.56457238   -7.7806985    794.05091  0.015544024  0.014300803           25 
 4258000   0.57969981   -7.7832242    793.64222  0.015532375  0.014296314           11 
 4259000    0.5763391   -7.7955045    796.13587   0.01557752  0.014291834           11 
 4260000   0.56652172   -7.7982101    795.31731   0.01555785  0.014287351           16 
 4261000   0.58454622   -7.7834979    795.10139  0.015549976  0.014282866           19 
 4262000   0.57513927   -7.7871219    795.84217  0.015560812  0.014278387           12 
 4263000    0.5588117   -7.7923166    795.50305  0.015550533  0.014273901           20 
 4264000   0.57805935   -7.7838301    795.47716   0.01554638  0.014269419           12 
 4265000   0.56399552   -7.7921645    795.02199  0.015533841  0.014264937           16 
 4266000   0.56004977   -7.8006317    794.44068  0.015518844  0.014260453           19 
 4267000   0.57538447    -7.804843    795.43591  0.015534644  0.014255978           12 
 4268000   0.56066443   -7.7876421    793.69568  0.015497026  0.014251508           12 
 4269000   0.55958864   -7.8167156    796.32358  0.015544694  0.014247037           26 
 4270000   0.57677767   -7.8076311     794.7239  0.015509834  0.014242563           22 
 4271000   0.56133633   -7.8211822    794.83178  0.015508308  0.014238088           21 
 4272000   0.56453254   -7.7903963     794.2476  0.015493282  0.014233616           22 
 4273000    0.5723098   -7.7910967    795.74872  0.015518931  0.014229151           22 
 4274000   0.55629317   -7.8127144    795.23577  0.015505299  0.014224688           18 
 4275000   0.56625806   -7.8039645    795.00848  0.015497241  0.014220213           24 
 4276000   0.56707625    -7.797717    792.99094  0.015454298  0.014215743           15 
 4277000   0.57723301   -7.7967765    794.52928  0.015480658  0.014211272           12 
 4278000   0.56200774   -7.8069208    793.90233  0.015464826    0.0142068           20 
 4279000   0.56420105   -7.7967728    794.40211  0.015470945   0.01420233           18 
 4280000   0.56765669   -7.8217344    795.11395  0.015481191  0.014197861           19 
 4281000   0.56452211   -7.8272687    793.88102  0.015453574  0.014193392           17 
 4282000   0.56380074   -7.7951451    794.63532  0.015464645  0.014188921           30 
 4283000   0.57187661   -7.8067686    795.49372  0.015477736  0.014184453           13 
 4284000   0.57938377   -7.8164407    793.80286  0.015441232  0.014179981           26 
 4285000   0.55750237    -7.817442    794.84294  0.015457856   0.01417551           29 
 4286000   0.56086787   -7.8208747    795.26885   0.01546253  0.014171049           22 
 4287000   0.56032485   -7.8077367    794.52026  0.015444372  0.014166585           14 
 4288000    0.5734642   -7.8147836    794.88871  0.015447931  0.014162126           18 
 4289000   0.57363906   -7.8304473    794.34389  0.015433743  0.014157664           22 
 4290000   0.56099536   -7.8048285    794.31143  0.015429515  0.014153208           22 
 4291000    0.5658671   -7.8088555    793.40994  0.015408412  0.014148759           23 
 4292000   0.54631042   -7.8046737    793.97525  0.015415798  0.014144309           24 
 4293000   0.56843726   -7.8274673      794.647  0.015425246  0.014139855           20 
 4294000   0.56057873   -7.8145184    794.36054  0.015416095  0.014135404           17 
 4295000   0.55599749   -7.8109692    793.80622  0.015401751  0.014130953           15 
 4296000   0.56671667    -7.810431    793.87886  0.015399574  0.014126502           13 
 4297000   0.57258691   -7.8121099    794.72653   0.01541243  0.014122053           18 
 4298000   0.56393003   -7.8202534    794.74703  0.015409241  0.014117607           22 
 4299000   0.56334812   -7.8096387    795.06495   0.01541182  0.014113162           24 
 4300000   0.56901415   -7.8257992    794.38013  0.015394964  0.014108721           19 
 4301000   0.55593241   -7.8196977    795.18355  0.015406951  0.014104283           29 
 4302000   0.57213355    -7.820587    793.86354    0.0153778   0.01409985           19 
 4303000   0.56264016   -7.8332909    794.15721  0.015379914  0.014095408           20 
 4304000   0.55154291   -7.8239717    794.80543  0.015388891  0.014090972           16 
 4305000   0.56299853   -7.8245446    793.68034  0.015363537   0.01408654           18 
 4306000   0.55953476   -7.8240004    793.61365  0.015358679  0.014082105           24 
 4307000   0.56940008   -7.8091336    794.80862  0.015378234  0.014077678           16 
 4308000   0.56350257   -7.8083288    795.65842  0.015391102  0.014073255           12 
 4309000   0.55237584   -7.8182553    794.74854  0.015369934  0.014068827           28 
 4310000   0.56660517    -7.809264    794.83417  0.015368023  0.014064405           35 
 4311000   0.56025184   -7.8064986     793.1813  0.015332508  0.014059984           22 
 4312000   0.57041197   -7.8291954    794.32568  0.015351068  0.014055551           19 
 4313000   0.56958357   -7.8187708    792.86884  0.015319361  0.014051131           19 
 4314000   0.56814581   -7.8351027     795.8932  0.015374231  0.014046713           33 
 4315000   0.55362122   -7.8229432    794.18343  0.015337648  0.014042298           40 
 4316000   0.56681968   -7.8191151    793.47586  0.015320433  0.014037882           29 
 4317000   0.55613887   -7.8346197     794.7458  0.015341398  0.014033467           27 
 4318000    0.5526428   -7.7944525    795.25758  0.015347722  0.014029057           32 
 4319000   0.56251269   -7.8028195    794.97566  0.015338729  0.014024649           24 
 4320000   0.57659573   -7.8204216    794.76716  0.015331157  0.014020242           37 
 4321000   0.55942408   -7.7999592    793.97243  0.015312282  0.014015839           28 
 4322000    0.5534688   -7.8087869    795.16201  0.015331675  0.014011435           15 
 4323000   0.56815048     -7.80884    794.94514  0.015323948  0.014007031           25 
 4324000   0.55148871   -7.7967974    794.57188  0.015313211  0.014002631           20 
 4325000   0.55479003   -7.8044786    793.61271  0.015291189  0.013998233           16 
 4326000   0.55981899   -7.8260404    795.33728  0.015320875  0.013993838           27 
 4327000    0.5493181   -7.8107595    794.43343  0.015299927  0.013989443           19 
 4328000   0.54511817   -7.8239624    795.74868  0.015321717  0.013985051           29 
 4329000   0.55649955   -7.8158812    794.42965  0.015292786  0.013980659           18 
 4330000   0.55743379   -7.8088901    796.35162  0.015326244  0.013976277           12 
 4331000   0.55943816   -7.8194631    793.89933   0.01527552  0.013971894           28 
 4332000   0.56004852   -7.7925988    795.15108  0.015296073  0.013967511           19 
 4333000   0.55865147   -7.8235236    794.78586  0.015285519  0.013963129           15 
 4334000   0.56465184   -7.8231639    794.26891  0.015272053  0.013958744           18 
 4335000   0.56282802   -7.8250534    795.99078   0.01530163  0.013954361           10 
 4336000   0.56724539   -7.7956005    794.72028  0.015273683  0.013949982           10 
 4337000   0.55836845   -7.8040305    794.92786   0.01527415  0.013945604           30 
 4338000   0.55492199   -7.8227659    796.05132  0.015292211   0.01394123           38 
 4339000   0.56494192   -7.8152861    794.26235  0.015254328  0.013936862           21 
 4340000   0.56046931   -7.8149176    793.77271  0.015241411  0.013932487           37 
 4341000   0.56239329   -7.8177186    793.25105  0.015227886  0.013928115           32 
 4342000   0.55775034   -7.8172628    793.26078  0.015224566  0.013923744           22 
 4343000   0.57054527    -7.804091    794.88863  0.015252295  0.013919377           28 
 4344000   0.55720673   -7.8174438     793.5442  0.015222993  0.013915014           22 
 4345000   0.54562777   -7.8271729    794.30768  0.015234133  0.013910644           23 
 4346000   0.55285817   -7.8368993    794.41168  0.015232622   0.01390628           29 
 4347000    0.5577147    -7.825113    795.20684  0.015244361  0.013901917           14 
 4348000   0.54598793   -7.8124059    794.16204   0.01522083  0.013897556           22 
 4349000    0.5517817   -7.8103328    793.11166  0.015197204  0.013893194           19 
 4350000   0.56556868   -7.8282142    794.65252  0.015223228  0.013888831           39 
 4351000   0.56187905   -7.8426711    794.39131  0.015214727  0.013884471           17 
 4352000   0.55740259   -7.8215119    793.00695  0.015184723  0.013880115           13 
 4353000   0.56229068    -7.811909     794.9794  0.015218995  0.013875761           24 
 4354000   0.55682424     -7.83221    794.50611  0.015206441  0.013871401           19 
 4355000   0.54664068   -7.8379674     795.2807  0.015217771  0.013867053           23 
 4356000   0.54648523   -7.8168477    794.54618  0.015200225  0.013862699            9 
 4357000   0.56666775   -7.8223841    794.27323  0.015191516  0.013858355           34 
 4358000   0.55305108   -7.8347426    795.47104  0.015210935  0.013854011           28 
 4359000   0.54549921   -7.8112314    795.05521  0.015199495  0.013849666           34 
 4360000   0.55985146   -7.8220761    795.33779   0.01520141  0.013845322           35 
 4361000    0.5588345   -7.8212967     795.1126  0.015193621  0.013840982           13 
 4362000   0.55998721   -7.8343735    795.27555  0.015193251  0.013836637           19 
 4363000   0.55441179   -7.8218858     793.6252  0.015158247  0.013832296           18 
 4364000   0.55021872   -7.8206213    793.94955  0.015160968  0.013827955           19 
 4365000   0.55753351   -7.8315173     793.6225   0.01515125  0.013823615            8 
 4366000   0.54627729   -7.8185297    794.67433  0.015167856  0.013819274           22 
 4367000   0.56284093   -7.8355522     794.6029   0.01516302  0.013814938           31 
 4368000   0.55224452   -7.8347968      794.521  0.015157986    0.0138106           20 
 4369000    0.5581702   -7.8336019    792.46248  0.015115253  0.013806267           37 
 4370000   0.55574077   -7.8317589    794.27743  0.015146404  0.013801929            9 
 4371000   0.55788578   -7.8354068    795.07644  0.015158172  0.013797596           32 
 4372000   0.54555068   -7.8339413    793.73637  0.015129162   0.01379326           19 
 4373000   0.54030018   -7.8318178    795.02606  0.015150279  0.013788925            9 
 4374000   0.55465117   -7.8291702    795.08305  0.015147901  0.013784589           14 
 4375000   0.56393768    -7.828128    794.26826  0.015128919  0.013780258           13 
 4376000   0.54942411   -7.8341562    795.51082  0.015149124  0.013775922            9 
 4377000   0.54547685   -7.8253296     794.6987  0.015130201  0.013771593            8 
 4378000   0.56164591   -7.8471795     794.3321  0.015119767  0.013767262           11 
 4379000   0.54163211    -7.855353    793.85356  0.015107208  0.013762925            8 
 4380000   0.54215862   -7.8352088    792.83819  0.015084441  0.013758588           22 
 4381000   0.54175346   -7.8512537    794.25144  0.015107879  0.013754256           12 
 4382000   0.55023047   -7.8309225    792.85974  0.015077966  0.013749922           15 
 4383000   0.55779999   -7.8423558    793.96469  0.015095534  0.013745591           11 
 4384000   0.55290446   -7.8105793    794.15637  0.015095734  0.013741265           10 
 4385000   0.54905428   -7.8517973    794.05969  0.015090454  0.013736938           11 
 4386000   0.54494759   -7.8478917    793.76043  0.015081327  0.013732603           13 
 4387000   0.54683171   -7.8501087    793.76559  0.015077988  0.013728274           13 
 4388000   0.54369069   -7.8519417    792.55995  0.015051655   0.01372395           20 
 4389000   0.55019944    -7.827403    793.46213  0.015065355  0.013719623           16 
 4390000   0.54703571   -7.8416977    792.51384  0.015043922  0.013715306           16 
 4391000    0.5621229   -7.8342653    791.49577  0.015021175  0.013710988           16 
 4392000   0.55689227   -7.8323804    793.15766  0.015049288  0.013706663           10 
 4393000   0.55076783   -7.8316444    793.09287  0.015044633  0.013702344            9 
 4394000   0.55023296   -7.8309876    793.51433  0.015049202  0.013698029           13 
 4395000   0.55905421   -7.8318469    792.83436  0.015032885  0.013693712           16 
 4396000   0.53690902   -7.8396488    793.41349  0.015040444  0.013689395           10 
 4397000   0.56555786   -7.8368925    793.36504  0.015036105  0.013685081            9 
 4398000   0.54716979   -7.8498068    794.29363  0.015050281  0.013680772           13 
 4399000   0.56039084   -7.8374524     793.5728  0.015033205  0.013676463           12 
 4400000   0.54523104   -7.8323573    792.84407  0.015015986  0.013672154            7 
 4401000   0.53355335   -7.8569269    794.05934  0.015035585  0.013667843           11 
 4402000   0.54220077   -7.8385622    793.58663  0.015023221  0.013663544           11 
 4403000   0.54662904   -7.8554044    793.33866  0.015015116  0.013659245           12 
 4404000   0.55139063    -7.850762    794.62756  0.015036095  0.013654943           15 
 4405000   0.54636487   -7.8621563    793.26828  0.015006967  0.013650646           11 
 4406000   0.55387331   -7.8478027    792.56417  0.014990244  0.013646345           17 
 4407000   0.53669626   -7.8474166    793.15569  0.014998028  0.013642048           18 
 4408000   0.54688837   -7.8421496    794.14004  0.015013234  0.013637754           15 
 4409000   0.54949205   -7.8580194    793.06225  0.014989458  0.013633466           10 
 4410000   0.53417971   -7.8528154     793.8407  0.015000769  0.013629175           12 
 4411000   0.54402733   -7.8489003    793.20442  0.014985348  0.013624885           11 
 4412000   0.55574498   -7.8695439     791.6314   0.01495224  0.013620591           10 
 4413000   0.54654084   -7.8631331    793.72096   0.01498831  0.013616304           17 
 4414000   0.54692674   -7.8420171    792.73289  0.014966261   0.01361202           20 
 4415000   0.55163305   -7.8397614    793.92027  0.014985283   0.01360773           14 
 4416000   0.55682317    -7.829951    794.03807  0.014984112  0.013603449           15 
 4417000   0.53305565    -7.840725    793.39049  0.014968502  0.013599166           14 
 4418000   0.55487886   -7.8519004    792.85011  0.014954921  0.013594885           10 
 4419000    0.5397788   -7.8634393    792.92682  0.014952984  0.013590604           17 
 4420000     0.558297   -7.8385098    792.71331  0.014945575   0.01358632           11 
 4421000   0.53386487   -7.8533704    793.22211  0.014951785  0.013582041           18 
 4422000   0.53583659   -7.8556483    792.96366  0.014943533  0.013577766           13 
 4423000   0.54278724   -7.8645141    792.63874  0.014934033  0.013573491           16 
 4424000   0.53988263   -7.8560304    793.60408  0.014948841  0.013569223           11 
 4425000   0.54948863   -7.8683415    793.14056  0.014936734  0.013564956           15 
 4426000   0.54624644   -7.8451247    792.80358  0.014927014  0.013560693           17 
 4427000   0.55281543      -7.8645    793.15452  0.014930248  0.013556428           13 
 4428000    0.5384944   -7.8531136    794.29737  0.014948385  0.013552164           15 
 4429000   0.55909902   -7.8553132    794.52841  0.014949357  0.013547903           18 
 4430000    0.5416306   -7.8466687    793.36516    0.0149241  0.013543645            9 
 4431000   0.55740972   -7.8396506    794.43106  0.014940778  0.013539387           17 
 4432000   0.54073101   -7.8630279    792.20283  0.014895511   0.01353513           16 
 4433000   0.54159254     -7.84788    791.92194   0.01488687  0.013530878           22 
 4434000   0.53404583    -7.823213    793.48072  0.014912809  0.013526629           11 
 4435000   0.52442233   -7.8487251     792.7704  0.014896099  0.013522376           13 
 4436000   0.53861305   -7.8458857    793.02213   0.01489747  0.013518119            9 
 4437000   0.54459114   -7.8471027    794.58214  0.014923412  0.013513867           20 
 4438000     0.539678   -7.8648182    793.90571  0.014907348  0.013509616           25 
 4439000   0.54303599   -7.8603582      792.458  0.014876812   0.01350537           16 
 4440000   0.53507629   -7.8707487    793.22563  0.014887868  0.013501126           23 
 4441000   0.54612091   -7.8604077    793.73373   0.01489405   0.01349688           16 
 4442000   0.54635396   -7.8453242    792.04642  0.014859043  0.013492636           14 
 4443000    0.5304954   -7.8669141    793.56743  0.014884227  0.013488396           15 
 4444000   0.54712893   -7.8495716    793.61931   0.01488185  0.013484152           19 
 4445000   0.53354194   -7.8594764    792.84907  0.014864062   0.01347991           20 
 4446000   0.54078028    -7.857187    793.42915  0.014871591  0.013475667           17 
 4447000   0.53281324   -7.8640556    793.54776   0.01487047  0.013471428           19 
 4448000   0.53746315   -7.8637981    792.52582  0.014847981  0.013467186           18 
 4449000   0.53664251     -7.86732    793.72213  0.014867051   0.01346295           12 
 4450000     0.540125   -7.8609273    794.03007  0.014869477  0.013458723           18 
 4451000   0.54612245     -7.84495    793.73568  0.014860625  0.013454492           10 
 4452000   0.54395185   -7.8570701    793.81474  0.014858766  0.013450262           22 
 4453000   0.54006115   -7.8466266    793.92253  0.014857447  0.013446035           15 
 4454000   0.53503152   -7.8542396    793.61527  0.014848362  0.013441804           11 
 4455000   0.53976205    -7.858079    792.56913  0.014825461  0.013437573           12 
 4456000    0.5371851   -7.8787381    792.59015  0.014822527   0.01343334           23 
 4457000   0.54119359   -7.8606923    793.16359  0.014829923  0.013429114           19 
 4458000   0.53816943   -7.8435023    792.34459  0.014811287   0.01342489           12 
 4459000   0.54305834   -7.8717808    794.40257  0.014846426  0.013420673           26 
 4460000   0.53920864   -7.8448631    793.73989  0.014830715  0.013416454           20 
 4461000   0.52907954   -7.8566572    794.27359  0.014837361  0.013412239           19 
 4462000    0.5305887   -7.8695813    793.14032   0.01481287   0.01340803           26 
 4463000   0.53132603   -7.8584229    792.06055   0.01478939  0.013403818           30 
 4464000   0.54168092    -7.832947    792.44727  0.014793296  0.013399608           14 
 4465000   0.53446522   -7.8641539    793.53051    0.0148102  0.013395398           24 
 4466000    0.5370868   -7.8549458     793.5694  0.014807609  0.013391185           23 
 4467000   0.54494078   -7.8637125    792.27451  0.014780138  0.013386979           13 
 4468000    0.5234574   -7.8606225    792.76157  0.014785914  0.013382769           14 
 4469000   0.54194821   -7.8628383    793.46499  0.014795722  0.013378562           15 
 4470000   0.53496137   -7.8783979    794.66503  0.014814784  0.013374357            9 
 4471000   0.53302752   -7.8592492    793.77192  0.014794824  0.013370153           14 
 4472000   0.53100103   -7.8640489    792.37576  0.014765499  0.013365954           14 
 4473000   0.54581054   -7.8543237    793.55227  0.014784117  0.013361755           13 
 4474000   0.54232474   -7.8750009    793.30575  0.014776221   0.01335756           11 
 4475000   0.53265203   -7.8556939     792.5795  0.014759395  0.013353364           21 
 4476000   0.54309496   -7.8814102    792.40835  0.014752911  0.013349174           21 
 4477000   0.53999163   -7.8596716    794.74357  0.014793083  0.013344986           18 
 4478000   0.53740364   -7.8577453    792.98578  0.014757068  0.013340801           16 
 4479000   0.53538119   -7.8770616    792.04114  0.014736197  0.013336613           26 
 4480000   0.54576097   -7.8686765    794.33842   0.01477564  0.013332425           20 
 4481000   0.53269977   -7.8660007    791.88983  0.014726806  0.013328242           25 
 4482000    0.5361326   -7.8562598    791.75256  0.014720968  0.013324061           29 
 4483000   0.52973691   -7.8649653    792.07245  0.014723631  0.013319876           23 
 4484000   0.53011409   -7.8543424    792.17716  0.014722293  0.013315687           17 
 4485000   0.53493663   -7.8579794    793.29218  0.014739728    0.0133115           22 
 4486000    0.5404754   -7.8733001    793.73095  0.014744593  0.013307312           22 
 4487000   0.52745561   -7.8748171    793.15476  0.014730606  0.013303128           18 
 4488000   0.53526583   -7.8790171    791.61869  0.014698802  0.013298944           31 
 4489000   0.53531471   -7.8777694    792.38359  0.014709727  0.013294768           30 
 4490000   0.53587412   -7.8658446    794.31343  0.014742268   0.01329059           26 
 4491000    0.5369231   -7.8836944    792.56773  0.014706593  0.013286414           25 
 4492000   0.54121189   -7.8641434     793.4368  0.014719442   0.01328224           29 
 4493000   0.53040715   -7.8843607    792.38706  0.014696696  0.013278065           24 
 4494000   0.52149741   -7.8668805    792.12505  0.014688567  0.013273885           14 
 4495000   0.53099972   -7.8915465    794.06411  0.014721248  0.013269718           17 
 4496000   0.53018106   -7.8660962    792.86335  0.014695718   0.01326555           30 
 4497000    0.5266183   -7.8616464    794.14023  0.014716111  0.013261378           13 
 4498000   0.53186792   -7.8690353    792.66873  0.014685577  0.013257207           31 
 4499000   0.52527717   -7.8869853    793.59714   0.01469951   0.01325304           14 
 4500000   0.53639653   -7.8786238    792.42269  0.014674494  0.013248872           25 
 4501000   0.52732919   -7.8762021    791.73684  0.014658536  0.013244709           31 
 4502000   0.52959299   -7.8671613    793.33206  0.014684808  0.013240544           24 
 4503000    0.5190305   -7.8749498     791.5665  0.014648873  0.013236382           30 
 4504000   0.53519088   -7.8692197    794.02566   0.01469112  0.013232224           32 
 4505000   0.53785001   -7.8956456     791.9007  0.014648552  0.013228064           31 
 4506000   0.52855672   -7.8843121    793.14088  0.014668237  0.013223902           24 
 4507000   0.53289934   -7.8732363    792.53735  0.014653823  0.013219746           25 
 4508000   0.52696269   -7.8632281     791.6745  0.014634622  0.013215589           33 
 4509000    0.5462402   -7.8563387    792.72511  0.014650793  0.013211432           18 
 4510000   0.52805862   -7.8842474    792.86005  0.014650038  0.013207283           33 
 4511000   0.53879859    -7.886163    792.12998  0.014633303  0.013203133           39 
 4512000   0.53333558   -7.8811203    791.38862  0.014616368  0.013198982           21 
 4513000    0.5251917   -7.8964313     791.9406  0.014623321  0.013194829           31 
 4514000   0.53393174   -7.8781075    792.99366  0.014639523  0.013190675           43 
 4515000   0.53245595   -7.8718306    792.08131  0.014619441  0.013186524           29 
 4516000   0.52712453   -7.8791522    792.83534  0.014630118  0.013182379           27 
 4517000    0.5328848   -7.8871663     793.3591  0.014636542  0.013178234           29 
 4518000   0.52687201   -7.8954239    790.93135  0.014588523  0.013174089           25 
 4519000   0.52865769   -7.8767181    790.28429  0.014573362   0.01316994           42 
 4520000   0.51857224   -7.8852393    791.79014  0.014597901  0.013165797           30 
 4521000   0.53010882   -7.8801661    793.86753  0.014632963  0.013161655           23 
 4522000   0.53284168   -7.8799095    792.54316  0.014605321  0.013157517           14 
 4523000   0.55087821   -7.9009384    791.19905  0.014577328  0.013153377           39 
 4524000   0.52938237   -7.8979499    791.70082  0.014583348  0.013149238           18 
 4525000   0.52216552   -7.8828019    793.41427  0.014611681  0.013145098           18 
 4526000   0.53595408   -7.8572676    791.80297  0.014578785  0.013140964           22 
 4527000   0.53457901   -7.8887484    793.33891  0.014603838  0.013136833           25 
 4528000   0.51483658   -7.8847413    793.72034  0.014607633  0.013132705           31 
 4529000   0.53027655    -7.873697    792.77102   0.01458694  0.013128576           24 
 4530000   0.52190199   -7.8665996    792.75421  0.014583411  0.013124449           23 
 4531000   0.52270022   -7.8906082    792.63494  0.014577999  0.013120324           10 
 4532000   0.52977029   -7.8817998     792.0614  0.014564236  0.013116197           16 
 4533000   0.51992585   -7.8575071    793.05641  0.014579315  0.013112074           22 
 4534000   0.51952009   -7.8848476    792.67916  0.014569166  0.013107958           21 
 4535000   0.53334534   -7.8801677     792.2341  0.014557775   0.01310384           13 
 4536000   0.52502945   -7.8828238    792.68477  0.014562845  0.013099728           21 
 4537000   0.52180092   -7.8865993    792.13086  0.014549461  0.013095613           15 
 4538000   0.52011273   -7.8649351    794.01841  0.014580917  0.013091499           15 
 4539000    0.5270048   -7.9020456     791.4167  0.014529939  0.013087386           18 
 4540000   0.52070501   -7.8876662    792.24377  0.014541919  0.013083275           13 
 4541000   0.53124788   -7.8818191     791.0143  0.014516155  0.013079158           22 
 4542000   0.53831598   -7.8880606    792.20124  0.014534736  0.013075045           14 
 4543000   0.52525741   -7.8829906    791.25768  0.014514228  0.013070935           18 
 4544000   0.52184353   -7.8871743     791.8066  0.014521101  0.013066825           15 
 4545000   0.52411456   -7.8794614    792.06655  0.014522672  0.013062719           21 
 4546000   0.51974065   -7.8745737    791.22412  0.014504035  0.013058616           18 
 4547000   0.52629675   -7.8809852      790.979  0.014496353  0.013054511           20 
 4548000   0.52070042    -7.887541    791.42947  0.014501419  0.013050405           13 
 4549000   0.52358516   -7.8833018    790.82538  0.014487165  0.013046301           18 
 4550000   0.53533634    -7.877273    791.84777  0.014502706    0.0130422           17 
 4551000   0.52179799   -7.9027601    791.61758  0.014495305  0.013038094           17 
 4552000   0.52130483   -7.8954973    792.06361  0.014500286  0.013033995           12 
 4553000   0.52868581   -7.8772123    792.01189  0.014496154  0.013029897           17 
 4554000    0.5213804   -7.8974142    792.38955  0.014499882  0.013025801           13 
 4555000    0.5261547   -7.8751667    791.46186  0.014479727  0.013021707           16 
 4556000   0.52709199    -7.884454    791.98753  0.014486164  0.013017611           15 
 4557000   0.50976537   -7.8971154    792.02919  0.014483746  0.013013518           35 
 4558000   0.51905355   -7.8828446    790.78956  0.014457905  0.013009429           21 
 4559000   0.51920302   -7.8900856    791.22151  0.014462629  0.013005339           18 
 4560000   0.52166336   -7.8825791    790.23389  0.014441409  0.013001252           15 
 4561000   0.52760425   -7.8775343    791.88716  0.014468449  0.012997165           19 
 4562000    0.5359629   -7.8851499    790.93709  0.014447923  0.012993076           25 
 4563000   0.52241871   -7.8757187    792.52674  0.014473788  0.012988991           24 
 4564000   0.52624568   -7.8873521    792.49268  0.014469995  0.012984909           27 
 4565000   0.53467634   -7.8979588    791.65351  0.014451506  0.012980824           14 
 4566000   0.52275643    -7.888978    791.84163  0.014451774  0.012976742           19 
 4567000   0.51889469   -7.8982409    791.55211  0.014443327  0.012972662           19 
 4568000   0.51449289   -7.9005646    793.12397  0.014468841  0.012968588           22 
 4569000   0.51904653   -7.8872819    792.93096  0.014462154  0.012964515           20 
 4570000   0.52490126   -7.8915279    790.60825  0.014416635  0.012960439           31 
 4571000   0.52758649   -7.9032151     791.4609  0.014429025  0.012956367            8 
 4572000   0.52446123   -7.9065876    791.88003  0.014433509  0.012952294           16 
 4573000   0.52332325   -7.8823144    791.72883  0.014427597  0.012948225           11 
 4574000    0.5247388   -7.8651558    790.78243  0.014407201  0.012944154           15 
 4575000   0.52014337   -7.8903688    791.89481  0.014424313  0.012940083           19 
 4576000   0.51597449   -7.9005963    790.88463  0.014402765  0.012936017           25 
 4577000   0.52244311   -7.9016699    790.39521  0.014390707  0.012931953           17 
 4578000   0.52435549   -7.9049658    791.62674  0.014409981  0.012927891           23 
 4579000   0.52491789   -7.8651706    791.36082  0.014401995  0.012923831           20 
 4580000   0.51832259   -7.8951738    792.61697  0.014421706  0.012919772           17 
 4581000   0.52368874   -7.8774126    791.97046  0.014406797  0.012915711           10 
 4582000   0.52329229   -7.8878804    792.59958  0.014415095  0.012911654           13 
 4583000   0.52762968    -7.902616    792.29884  0.014406481  0.012907602           19 
 4584000   0.50648679   -7.9056957    791.85506  0.014395271  0.012903545           13 
 4585000   0.51631421   -7.8966309      790.709  0.014371301  0.012899493           10 
 4586000   0.50548956   -7.9013081    791.52315  0.014382962  0.012895443           16 
 4587000   0.52041555    -7.894999    791.14738  0.014372999  0.012891392           11 
 4588000   0.51531183   -7.8845351    793.12258  0.014405743  0.012887347           18 
 4589000   0.51769765   -7.8958142    792.10753  0.014384171  0.012883301           14 
 4590000   0.51797436   -7.8793334    791.62385  0.014372256  0.012879259           31 
 4591000   0.52149778   -7.8957383    792.34082  0.014382139  0.012875218           16 
 4592000   0.52221093   -7.8900609    791.98978  0.014372637  0.012871178           19 
 4593000   0.52097168      -7.8801    792.34503  0.014375953  0.012867138           13 
 4594000   0.51659416   -7.8929065    790.06846  0.014331528  0.012863101           18 
 4595000   0.51819037   -7.9235225    792.59426  0.014374216   0.01285906           14 
 4596000   0.51368077   -7.9243108    792.21853  0.014364276  0.012855022           25 
 4597000   0.51206161   -7.9094227    791.48513  0.014347856  0.012850985           17 
 4598000   0.50679778   -7.8803263     791.2665  0.014340773  0.012846947           16 
 4599000   0.52111239   -7.9161409    792.42141  0.014358582  0.012842916           17 
 4600000   0.52109039   -7.9043111    790.84637  0.014326927  0.012838883           18 
 4601000   0.51616529   -7.8910122    792.08696  0.014346283  0.012834854            8 
 4602000   0.51607272   -7.9070532    791.13503  0.014325928   0.01283082           11 
 4603000   0.51736094   -7.9109017    791.19642  0.014323927   0.01282679           11 
 4604000   0.51581945   -7.9132771    790.07798  0.014300572  0.012822757           24 
 4605000   0.51385865   -7.9203715    793.06214  0.014351468  0.012818727           18 
 4606000   0.51606031   -7.8901132    790.16254  0.014295892  0.012814696           13 
 4607000    0.5268247   -7.9205576    792.02325  0.014326446   0.01281067           19 
 4608000   0.51244655    -7.890283    791.09999  0.014306641  0.012806643           13 
 4609000   0.51936029   -7.9016627    791.67619  0.014313954  0.012802615           19 
 4610000   0.51959105   -7.9129606    789.78113  0.014276593  0.012798588           24 
 4611000   0.51042087   -7.8997985    790.20356  0.014281131  0.012794565           37 
 4612000   0.52360183   -7.9155921    790.37913  0.014281207  0.012790542           15 
 4613000   0.52232125   -7.9031074     790.9744  0.014288865  0.012786523           22 
 4614000   0.50744619   -7.8925662    791.15454  0.014289021  0.012782506           20 
 4615000    0.5124099   -7.9295418    791.43752  0.014291035  0.012778488           30 
 4616000   0.52268462   -7.9099248    791.65369  0.014291842  0.012774469           16 
 4617000   0.50771751   -7.9141327    789.95481  0.014258083  0.012770446           15 
 4618000    0.5091298   -7.9239225     789.2265  0.014241853  0.012766429           14 
 4619000   0.52626205   -7.9009095    790.96153  0.014270072  0.012762412           24 
 4620000   0.51962865    -7.912324    791.25816  0.014272333  0.012758397            8 
 4621000   0.50991665   -7.9151539    791.42937  0.014272332  0.012754386           12 
 4622000   0.51227484    -7.904559    791.51184  0.014270731  0.012750377           29 
 4623000   0.51567182   -7.9097501    791.99247  0.014276308  0.012746366           11 
 4624000   0.51227838   -7.9064889    789.76375  0.014233055  0.012742358           10 
 4625000   0.51291967   -7.9088047    791.33179   0.01425823  0.012738353           18 
 4626000   0.52099372   -7.9094867    790.31334  0.014236802  0.012734352           18 
 4627000   0.52238871   -7.9068526    791.03076  0.014246646  0.012730351           20 
 4628000   0.50670556   -7.9081049    790.24356  0.014229393  0.012726349           31 
 4629000   0.51030981   -7.9247791    789.76791  0.014217756   0.01272235           14 
 4630000   0.50978365   -7.9157624    792.92752  0.014271554  0.012718351           18 
 4631000   0.51026169   -7.9071943    791.99772   0.01425174  0.012714353           18 
 4632000   0.50687382    -7.921311    790.76062  0.014226407  0.012710359           23 
 4633000   0.50821902   -7.9129418    790.90928  0.014226011  0.012706366           17 
 4634000   0.51635091   -7.9054588     792.3533  0.014248908  0.012702378           16 
 4635000   0.50846697   -7.9297782    790.54174  0.014213264  0.012698383           19 
 4636000   0.50987267   -7.9127742    790.40601  0.014207758   0.01269439           28 
 4637000   0.51085011   -7.9222596    790.22571  0.014201454  0.012690398           13 
 4638000    0.5154083   -7.9068579    791.29128  0.014217538  0.012686411           16 
 4639000   0.49550009   -7.9092209    791.00924  0.014209406  0.012682424           10 
 4640000   0.51462404   -7.9102265    789.97202  0.014187716  0.012678441           12 
 4641000   0.51434236   -7.9164861    790.96346  0.014202461  0.012674457           10 
 4642000    0.4965068    -7.918658    789.75991  0.014177795  0.012670474           26 
 4643000   0.51089641   -7.9021619    790.17176  0.014182134  0.012666493           12 
 4644000   0.51209837   -7.9109811    791.16747  0.014196947  0.012662514           14 
 4645000   0.51807042   -7.9153314    790.34851  0.014179198  0.012658534           12 
 4646000   0.51164435   -7.9214637    791.00904  0.014187994  0.012654556           13 
 4647000   0.49686271   -7.9059264    791.02872  0.014185294  0.012650585           12 
 4648000   0.50003418   -7.9108241    791.01666  0.014182026  0.012646609            7 
 4649000   0.50498177   -7.9158642    790.05955  0.014161819  0.012642637           13 
 4650000   0.51057544    -7.909005    789.60342  0.014150599  0.012638667           16 
 4651000   0.51716868   -7.9143835    789.74759   0.01415014  0.012634696           16 
 4652000   0.51087537   -7.9224556    790.51955  0.014160926  0.012630726           18 
 4653000    0.5128329   -7.9207071    791.04745  0.014167337   0.01262676           16 
 4654000     0.517167    -7.907138    790.84366  0.014160644  0.012622795           19 
 4655000   0.50615272   -7.9243723    789.56117  0.014134643   0.01261883            8 
 4656000   0.49782523   -7.9159222    790.79558  0.014153701  0.012614871           27 
 4657000   0.52206133   -7.9163385    789.21537  0.014122385  0.012610907           17 
 4658000   0.50488837   -7.9069772     790.0301  0.014133929  0.012606947           13 
 4659000   0.49839661   -7.9179257    791.27358  0.014153137  0.012602989           21 
 4660000   0.51607823   -7.9216442     789.9316  0.014126102  0.012599034           11 
 4661000   0.51649611   -7.9178357     790.2951   0.01412957  0.012595079           21 
 4662000   0.49721173   -7.9109794    790.37842  0.014128028  0.012591126           13 
 4663000   0.49863428   -7.9265393    789.73928  0.014113576  0.012587175           21 
 4664000   0.49837919   -7.9252061    791.33821  0.014139119  0.012583224           14 
 4665000   0.52101647   -7.9051922    791.84931  0.014145218  0.012579278           11 
 4666000   0.50568679   -7.9454707     790.8827  0.014124923  0.012575329           14 
 4667000   0.50281035   -7.9143636    790.40037  0.014113284  0.012571378           14 
 4668000   0.50048328   -7.9351292    790.55791  0.014113073   0.01256743           11 
 4669000   0.49653214    -7.924724    789.38673  0.014089147  0.012563485           15 
 4670000   0.50181555    -7.915116    791.54134  0.014124578  0.012559541            8 
 4671000   0.50156932   -7.9020759    789.66302  0.014088044  0.012555601            8 
 4672000   0.50630778    -7.934487     789.2278  0.014077265  0.012551661           13 
 4673000   0.50965806   -7.9279672    790.24589  0.014092408  0.012547721           16 
 4674000   0.49874701    -7.945817    791.66574  0.014114708  0.012543782           12 
 4675000   0.50244344    -7.935317    790.69019  0.014094299  0.012539844           11 
 4676000   0.50589366   -7.9360284    790.93501  0.014095648  0.012535905           13 
 4677000   0.49588791   -7.9302632    791.15159  0.014096493   0.01253197           10 
 4678000   0.50543381   -7.9191292    789.53861  0.014064747  0.012528034           23 
 4679000   0.50721513   -7.9470696    790.49866  0.014078839  0.012524103           15 
 4680000   0.50274393   -7.9338504    790.39209  0.014073933  0.012520174           11 
 4681000   0.50852296    -7.925964    790.60051  0.014074637  0.012516246           16 
 4682000   0.50835323   -7.9206813    790.16423  0.014063866  0.012512318           15 
 4683000   0.50853482   -7.9269113    791.16345  0.014078643  0.012508393           19 
 4684000   0.51132157   -7.9441125    790.95129  0.014071863  0.012504465           15 
 4685000   0.51602014   -7.9257059    788.89175  0.014032226  0.012500541           13 
 4686000   0.50581263   -7.9296168    789.41538  0.014038544  0.012496618           16 
 4687000   0.51491293   -7.9173874     790.0842   0.01404744  0.012492698           10 
 4688000   0.50156981     -7.93224     791.1933  0.014064159  0.012488782           10 
 4689000   0.51095493   -7.9253854    790.41596  0.014047344  0.012484864           13 
 4690000   0.51171309   -7.9221942     789.7313  0.014032184  0.012480949           10 
 4691000   0.49776327     -7.93355    790.41425  0.014041325  0.012477039            9 
 4692000   0.50507843   -7.9398642    789.99288  0.014030848   0.01247313            9 
 4693000   0.50174426   -7.9188718    790.38583  0.014034836  0.012469217           14 
 4694000   0.49920056   -7.9285277    790.18538  0.014028287  0.012465313           10 
 4695000   0.49922684   -7.9183711    789.66717  0.014016102  0.012461404           14 
 4696000   0.50160486   -7.9385408    788.96846  0.014000718  0.012457499           19 
 4697000   0.50177436   -7.9251418    790.24595  0.014020402  0.012453592           14 
 4698000   0.50784502   -7.9113482    790.20783  0.014016742  0.012449689           13 
 4699000   0.50539804   -7.9419247    788.10702  0.013976502  0.012445786           15 
 4700000   0.49910395   -7.9046532    790.40883  0.014014341  0.012441885            9 
 4701000   0.50080574   -7.9405964    791.34221  0.014027906  0.012437983           15 
 4702000   0.50094395   -7.9449349    790.59911  0.014011752  0.012434084           13 
 4703000   0.49981015   -7.9370292    789.47098  0.013988783  0.012430185           10 
 4704000   0.49681817   -7.9408826    789.75361  0.013990817  0.012426283           10 
 4705000   0.50574335   -7.9371787    788.57367  0.013966944  0.012422387           24 
 4706000   0.49503514   -7.9256981    789.91441  0.013987718   0.01241849            9 
 4707000    0.5027983   -7.9223967    789.32154   0.01397425  0.012414599           12 
 4708000   0.51025472   -7.9315443    790.78239  0.013997139  0.012410708            9 
 4709000   0.49646327   -7.9134602    789.53754  0.013972137  0.012406817           11 
 4710000   0.50242055   -7.9177916    790.24161  0.013981628  0.012402925           19 
 4711000   0.49633986   -7.9338535    789.15893  0.013959508  0.012399036           11 
 4712000   0.50144393   -7.9243142    788.43594   0.01394376  0.012395149            9 
 4713000   0.49410361   -7.9580978    790.41549  0.013975803  0.012391267           13 
 4714000    0.4942837   -7.9318924    790.77582  0.013979208  0.012387383           13 
 4715000   0.50240391   -7.9441959    790.23829  0.013966743  0.012383506           13 
 4716000   0.48774139   -7.9248768    790.46455  0.013967779  0.012379624           16 
 4717000   0.50311228   -7.9303232    791.06826  0.013975483   0.01237575           11 
 4718000   0.49868911   -7.9327343    789.29647  0.013941226   0.01237187           25 
 4719000   0.50246748   -7.9257199     788.1621   0.01391824  0.012367996           15 
 4720000   0.50433208   -7.9344178     791.4066  0.013972574  0.012364119           17 
 4721000    0.4945103   -7.9417891    789.23774  0.013931331  0.012360249           18 
 4722000   0.47961295   -7.9329581      789.942  0.013940809  0.012356377           18 
 4723000   0.48933729   -7.9422011    790.70302  0.013951285  0.012352503           19 
 4724000   0.49087459   -7.9527685    789.82551  0.013932852  0.012348633           11 
 4725000    0.4955072   -7.9298543    789.46957  0.013923626  0.012344764           14 
 4726000   0.48249947   -7.9401914    789.25467   0.01391689  0.012340893           14 
 4727000    0.4900603   -7.9359432    790.32274  0.013932775  0.012337027           16 
 4728000   0.49021306   -7.9250958    789.71889  0.013919185  0.012333161           24 
 4729000   0.49439813   -7.9415547    789.58017  0.013913797  0.012329298           27 
 4730000   0.50926102   -7.9521241    790.51405  0.013927309  0.012325436           16 
 4731000   0.48869355   -7.9396576    788.08065  0.013881502  0.012321574           10 
 4732000   0.48681257   -7.9316698    789.59943  0.013905315   0.01231771           13 
 4733000   0.49947237   -7.9277254    789.67307  0.013903674  0.012313852           20 
 4734000   0.49846057   -7.9531638    789.99494  0.013906403  0.012309992           16 
 4735000   0.49157459    -7.937777    788.94005  0.013884901  0.012306135           19 
 4736000   0.48866597   -7.9437812    790.49761  0.013909375   0.01230228           12 
 4737000   0.49168272   -7.9387886    791.33063  0.013921093  0.012298428           27 
 4738000   0.49069538   -7.9538546    789.60034  0.013887722  0.012294577           13 
 4739000   0.49791642   -7.9305688    789.49594  0.013882956  0.012290729            8 
 4740000    0.4981578   -7.9360459    789.57671  0.013881447  0.012286881           20 
 4741000   0.49973528   -7.9288783    789.01466   0.01386864  0.012283034           16 
 4742000   0.48396978   -7.9410344     790.4085   0.01389021  0.012279188           22 
 4743000   0.49244115   -7.9485119    789.92164  0.013878727  0.012275344           23 
 4744000   0.49771625   -7.9319645    790.25156  0.013881597  0.012271502           18 
 4745000   0.48363221   -7.9419508    790.33292    0.0138801  0.012267662           17 
 4746000   0.49998671   -7.9522065    790.11229  0.013873302  0.012263826           16 
 4747000   0.48579398   -7.9487273    789.54166  0.013860362  0.012259989            9 
 4748000   0.49214619   -7.9403312    789.97395   0.01386503  0.012256152           17 
 4749000   0.48332936   -7.9433597    790.12526  0.013864765  0.012252318           18 
 4750000   0.48893731   -7.9204411    788.76815  0.013838038  0.012248484           16 
 4751000   0.48903066   -7.9368614    788.81554  0.013835956  0.012244652           10 
 4752000   0.48936471   -7.9527141    790.54906  0.013863444  0.012240818           15 
 4753000   0.49758327   -7.9380643    789.72024  0.013845996   0.01223699           19 
 4754000   0.49540319   -7.9306747    790.35052  0.013854132  0.012233162           11 
 4755000   0.48710939   -7.9423471    790.90697   0.01386097  0.012229333           17 
 4756000   0.48466939   -7.9562712    788.89985  0.013822888  0.012225511           14 
 4757000   0.48440302   -7.9513576    789.14078  0.013824203  0.012221685           16 
 4758000   0.47938091   -7.9508405    789.24107  0.013823054  0.012217861           14 
 4759000   0.50002853   -7.9349548    789.93849  0.013832361   0.01221404           12 
 4760000   0.48853776   -7.9347035     790.5995  0.013841028  0.012210223           26 
 4761000   0.48451224   -7.9416583    789.37888  0.013816756  0.012206409           19 
 4762000   0.48931604   -7.9594769    788.92497  0.013805911  0.012202595           18 
 4763000   0.50376842   -7.9414197    790.13337  0.013824154   0.01219878           18 
 4764000   0.49552594   -7.9449367    790.25348  0.013823354  0.012194967           22 
 4765000   0.50717177   -7.9498259    789.90254  0.013814315  0.012191156           24 
 4766000   0.49382413   -7.9579263    788.71251  0.013790609  0.012187348           16 
 4767000   0.48810885   -7.9399372    788.63853  0.013786423  0.012183539           12 
 4768000   0.48175971   -7.9385432    790.02314  0.013807731  0.012179727           18 
 4769000   0.48444537   -7.9522841    790.28419  0.013809397  0.012175919           16 
 4770000   0.49155438   -7.9528626    789.15208  0.013786724   0.01217211           14 
 4771000   0.48454325   -7.9442436    789.64301  0.013792409  0.012168307           20 
 4772000    0.4895392   -7.9355705     790.0494  0.013796616  0.012164506           13 
 4773000   0.49223848   -7.9658344    789.32473  0.013781073  0.012160704           24 
 4774000   0.49704681    -7.954207    789.53844  0.013781917  0.012156903           21 
 4775000   0.49385947   -7.9532328    789.74819  0.013782691  0.012153107           17 
 4776000   0.49768751   -7.9474331     789.7316  0.013779516  0.012149313           21 
 4777000   0.48892005   -7.9515673    790.41424   0.01378854  0.012145521           21 
 4778000   0.49199867   -7.9476498    788.67504   0.01375532  0.012141722           22 
 4779000   0.48398059   -7.9563238     789.5313  0.013767373  0.012137928           13 
 4780000   0.48263679   -7.9550485    789.48951  0.013763764  0.012134136           19 
 4781000   0.49410799   -7.9402369    789.20231  0.013755879  0.012130344           25 
 4782000   0.49163451    -7.969716    788.93729  0.013748384  0.012126552           20 
 4783000   0.48338687    -7.945238    788.88022  0.013744516  0.012122761           17 
 4784000   0.48070136   -7.9550031    788.35868  0.013732558  0.012118969           34 
 4785000   0.49210264   -7.9511004    788.70759  0.013735764  0.012115177           22 
 4786000   0.48933707   -7.9492092     789.5552  0.013747653  0.012111387            9 
 4787000    0.4741608   -7.9467227    790.22537  0.013756447  0.012107603           10 
 4788000   0.48833187   -7.9681987    789.11626  0.013734271  0.012103818           13 
 4789000   0.48953996   -7.9503052    788.88289  0.013727342  0.012100037           11 
 4790000   0.48832762   -7.9645899    788.73999   0.01372199  0.012096254           13 
 4791000   0.48584784   -7.9611511    789.26545  0.013728266  0.012092478           21 
 4792000   0.48638856   -7.9579627    790.51086  0.013747059  0.012088702           20 
 4793000   0.48638632   -7.9464397     789.2268  0.013721865  0.012084926           25 
 4794000   0.48054977   -7.9515372    789.05977    0.0137161  0.012081153           31 
 4795000   0.48716463   -7.9557993     788.8419  0.013709453  0.012077384           19 
 4796000   0.48771249   -7.9548646    790.67353   0.01373842   0.01207361           19 
 4797000   0.48567214   -7.9478309     789.5529  0.013716088  0.012069841           25 
 4798000   0.49099673   -7.9684809    790.40487  0.013728027  0.012066073           15 
 4799000   0.47393608   -7.9566432    788.86754  0.013698471  0.012062305           20 
 4800000   0.48566558   -7.9575229    788.37148  0.013687005  0.012058532           24 
 4801000   0.47465637   -7.9539628    789.83778  0.013709605  0.012054767           13 
 4802000   0.48307961   -7.9444877     788.7919    0.0136886  0.012051002           18 
 4803000   0.48276477   -7.9612532    788.71637   0.01368444  0.012047237           12 
 4804000   0.47460728   -7.9436995    788.66166  0.013680642  0.012043474           25 
 4805000   0.49945831   -7.9677081    788.16427  0.013669169  0.012039712           17 
 4806000   0.48288298   -7.9802228    788.92013  0.013679431  0.012035952           20 
 4807000   0.48521998    -7.951544    788.79802  0.013674468   0.01203219           24 
 4808000   0.48545402   -7.9678863    789.99057  0.013692293  0.012028433           18 
 4809000   0.48881144   -7.9580589    789.16418  0.013675126  0.012024678           15 
 4810000   0.50269878    -7.950845    790.58284  0.013696861  0.012020923           18 
 4811000   0.47777853   -7.9670473    789.47168  0.013674768  0.012017169           16 
 4812000   0.48419917   -7.9782117    789.97092  0.013680571  0.012013418           14 
 4813000   0.48559676   -7.9580849     789.4143  0.013668092  0.012009667           20 
 4814000   0.47903748   -7.9633832      789.873  0.013673193  0.012005916           17 
 4815000   0.48476128    -7.955963    787.97779  0.013637553  0.012002167           21 
 4816000   0.49922875    -7.950472     789.6375   0.01366344  0.011998422           18 
 4817000   0.47003085   -7.9748731    789.64095  0.013660663  0.011994679           21 
 4818000   0.47552152   -7.9424671    788.75015   0.01364242  0.011990937            8 
 4819000   0.48484711    -7.957797    789.92573  0.013659918  0.011987195           14 
 4820000   0.47500669   -7.9673952    787.86853  0.013621517  0.011983453           24 
 4821000    0.4741542   -7.9530021    787.68842  0.013615578  0.011979714           16 
 4822000   0.47363507   -7.9644336    789.13661  0.013637782  0.011975974           18 
 4823000   0.47678276   -7.9661855    788.16685  0.013618198  0.011972237           14 
 4824000   0.47928247   -7.9438577     789.2733  0.013634489  0.011968498           17 
 4825000   0.46846893    -7.958586    788.86084   0.01362454  0.011964761           18 
 4826000   0.48108369   -7.9724544    789.45956  0.013632055  0.011961027           22 
 4827000    0.4858511    -7.974453    789.76216  0.013634455  0.011957292           16 
 4828000   0.47366304   -7.9725423    789.75458    0.0136315  0.011953561           10 
 4829000   0.47426611   -7.9492766    787.90708  0.013596795   0.01194983           13 
 4830000   0.47974082   -7.9961144    788.47737  0.013603819  0.011946104           21 
 4831000   0.47767917   -7.9791706    788.81593  0.013606844  0.011942378           15 
 4832000    0.4743366   -7.9840585    789.12893  0.013609426  0.011938651           21 
 4833000   0.48032608   -7.9680778    788.44166  0.013594759  0.011934925           16 
 4834000    0.4729291   -7.9923267    789.50199  0.013610226  0.011931203           19 
 4835000   0.46798639   -7.9620742    788.04267  0.013582259  0.011927483           20 
 4836000   0.47634802   -7.9813122    789.50092  0.013604579   0.01192376           22 
 4837000   0.47951794   -7.9623142    788.18427  0.013579083   0.01192004           31 
 4838000   0.47720448   -7.9786236    788.88942  0.013588422  0.011916319           18 
 4839000   0.47716212   -7.9629092    788.24683  0.013574548  0.011912604           17 
 4840000   0.47225077   -7.9698887    788.09121  0.013569063  0.011908892           18 
 4841000   0.46744257    -7.972564    788.11725  0.013566709  0.011905177           15 
 4842000    0.4700844   -7.9709129    789.12508  0.013581252  0.011901468           16 
 4843000   0.47212628   -7.9703925    788.86216  0.013573924  0.011897758           23 
 4844000   0.48024861    -7.954713    788.33818  0.013562107  0.011894049           17 
 4845000   0.47500821   -7.9729357    787.79938  0.013550041  0.011890343           17 
 4846000   0.48457649   -7.9702763     788.5772   0.01356062  0.011886636           17 
 4847000    0.4744518   -7.9667935    788.77287  0.013561187   0.01188293           17 
 4848000   0.46529986   -7.9730409    787.54779  0.013537331  0.011879226           29 
 4849000    0.4755582   -7.9857349    789.51739  0.013568388  0.011875522           20 
 4850000    0.4782671   -7.9612069    788.47368  0.013547658  0.011871819           12 
 4851000   0.47279168   -7.9579642    789.42773  0.013561254  0.011868122           13 
 4852000   0.47226862   -7.9703082    788.22471  0.013537797  0.011864422           14 
 4853000   0.47595431   -7.9723082    788.98876  0.013548128  0.011860726           13 
 4854000   0.47592776   -7.9713414    789.13596  0.013547864  0.011857028           19 
 4855000   0.47169507   -7.9846425    788.82112  0.013539669  0.011853334           15 
 4856000   0.47396031   -7.9792533    788.39086  0.013529497  0.011849642           16 
 4857000   0.47518133   -7.9782655    788.51179  0.013528786  0.011845951           13 
 4858000   0.47708906   -7.9928853    790.11431  0.013553491   0.01184226           11 
 4859000   0.47667189   -7.9813276     789.7202  0.013543942  0.011838569           18 
 4860000   0.48216919   -7.9788946    787.93399  0.013510528  0.011834886           14 
 4861000   0.47226855   -7.9773454     787.4154  0.013498858  0.011831199           10 
 4862000   0.47559561   -7.9772303    788.17923  0.013509174  0.011827515           16 
 4863000   0.46996725   -7.9586081    788.30375  0.013508529  0.011823831           12 
 4864000   0.47818051     -7.97443    788.09769  0.013502222  0.011820149           19 
 4865000   0.47243915   -7.9885302    788.95019  0.013514049   0.01181647           15 
 4866000   0.47014977   -7.9740388    787.96651  0.013494426  0.011812791           17 
 4867000   0.47511982   -7.9888725    789.46115  0.013517245  0.011809112           19 
 4868000    0.4705049   -7.9689213    788.20938  0.013493039  0.011805436           15 
 4869000   0.47409527    -7.977606    788.12262  0.013488783  0.011801758           16 
 4870000   0.46406202   -7.9779745    788.41414  0.013491002  0.011798081           12 
 4871000   0.47104719   -7.9907022    788.10034  0.013482863  0.011794407           13 
 4872000   0.47005648   -7.9650054    787.54673  0.013470627  0.011790733           25 
 4873000   0.46974727   -7.9688713     787.8798  0.013473558  0.011787063           19 
 4874000   0.46872131   -7.9608112    788.10788  0.013474694  0.011783395           17 
 4875000   0.45600253   -7.9717737    786.66305  0.013447232  0.011779729           23 
 4876000   0.47921532   -7.9811376    788.00015  0.013467326  0.011776064           30 
 4877000   0.47369627   -7.9818676    788.17353  0.013467527    0.0117724           17 
 4878000   0.47568141   -7.9844298    788.71274  0.013473977  0.011768736           19 
 4879000   0.47413441   -7.9733922    788.21733  0.013462754  0.011765076           13 
 4880000   0.46305896   -7.9683869    787.18537  0.013442373  0.011761413           11 
 4881000   0.47711606   -7.9846773    788.46385  0.013461447  0.011757754           14 
 4882000    0.4815848   -7.9797324    788.27467   0.01345546  0.011754092           22 
 4883000     0.467056   -7.9883494    788.89768  0.013463337  0.011750436           44 
 4884000   0.46651846   -7.9742592     788.2849  0.013450125  0.011746777           13 
 4885000   0.47234405   -7.9705404    787.86744   0.01344025  0.011743118           15 
 4886000   0.46588381   -7.9641398    788.89979  0.013455106  0.011739465           14 
 4887000   0.48247058   -7.9731798    787.16368  0.013422749  0.011735814           16 
 4888000   0.47750598   -7.9883736    788.92783  0.013450079  0.011732165           13 
 4889000    0.4666085   -7.9903194    788.54543   0.01344081  0.011728516           19 
 4890000    0.4689503   -7.9729882    787.37599  0.013418132  0.011724867           12 
 4891000   0.46630916   -7.9812733    787.47008  0.013416992  0.011721216           18 
 4892000   0.47141464   -7.9852146    788.15522   0.01342592  0.011717568           17 
 4893000   0.47605539   -7.9837051    787.39079  0.013410157   0.01171392           17 
 4894000   0.47071538   -7.9846859    788.34347  0.013423639  0.011710275           26 
 4895000   0.46212716   -7.9850551    789.80683  0.013445809  0.011706628           12 
 4896000   0.47344134   -7.9750753    788.25462  0.013416643  0.011702982           20 
 4897000   0.46842337   -8.0035528    788.74309  0.013422216  0.011699342           21 
 4898000   0.47959073   -7.9765783    789.01171  0.013424046  0.011695705           22 
 4899000    0.4655665   -7.9793679    787.65894  0.013398294  0.011692071           14 
 4900000   0.46695904   -7.9877543    787.64874  0.013395387  0.011688435           31 
 4901000    0.4776066   -7.9716833    789.30417  0.013420801  0.011684802           18 
 4902000   0.47487759   -7.9846344    786.99284  0.013378771  0.011681171           24 
 4903000   0.47084122   -7.9773285     787.8849  0.013391204  0.011677541           18 
 4904000   0.46329984   -7.9813692    788.15192  0.013393011  0.011673913           16 
 4905000   0.46773759   -7.9807823    787.05439  0.013371634  0.011670282           16 
 4906000   0.46775708   -7.9908111    788.03697  0.013385599  0.011666652           15 
 4907000   0.46245489    -7.976197    788.96285  0.013398595  0.011663025           19 
 4908000   0.46948556   -7.9722087    788.27822   0.01338424  0.011659402           14 
 4909000   0.47417264    -7.982882    787.90176  0.013375123  0.011655777           14 
 4910000    0.4694559   -7.9839142    787.47604  0.013365174  0.011652156           15 
 4911000    0.4745099   -7.9893747    787.74698   0.01336705  0.011648535           20 
 4912000   0.45954919   -7.9828353    787.60246  0.013361877  0.011644916           12 
 4913000   0.47397177   -7.9777943    787.70654  0.013360922  0.011641295           16 
 4914000   0.47816843   -7.9841308    788.45954  0.013370973  0.011637677           12 
 4915000   0.47473235   -7.9776105    788.07756  0.013361776  0.011634059           15 
 4916000   0.47065759   -7.9733248    786.53402  0.013332893  0.011630443           16 
 4917000   0.47825009   -7.9950334    787.94298   0.01335406  0.011626829           17 
 4918000   0.47386609   -7.9817896    788.29739   0.01335735  0.011623216           24 
 4919000   0.47189543   -7.9893261    788.46391  0.013357456  0.011619606           16 
 4920000    0.4696708   -7.9918096    787.86897  0.013344664  0.011615993           23 
 4921000   0.47018756   -7.9828369    787.40057   0.01333402  0.011612386           16 
 4922000   0.45907527   -8.0043588    787.87457  0.013339336  0.011608777           17 
 4923000   0.46222772   -7.9761477    788.25278  0.013343029  0.011605169           17 
 4924000   0.46564003   -8.0071298    788.49546  0.013344426  0.011601561           16 
 4925000    0.4596318   -7.9972319    786.65154  0.013310517  0.011597954           12 
 4926000   0.46409737   -8.0005125    788.44751  0.013338197  0.011594351           14 
 4927000   0.46384136    -7.991571    787.39811  0.013317741  0.011590748           11 
 4928000   0.45896509   -8.0021622    786.96787  0.013307763  0.011587146           11 
 4929000   0.45437743    -7.996493    788.41034  0.013329451  0.011583546           15 
 4930000    0.4601933   -7.9908326    787.21261  0.013306501   0.01157995           15 
 4931000   0.46248845   -7.9802059    787.22452  0.013304004  0.011576351           36 
 4932000   0.46404624   -7.9969129     787.2638   0.01330197  0.011572756           15 
 4933000   0.46561282   -7.9983811    788.61136  0.013322038  0.011569162           15 
 4934000   0.45196911   -7.9848126    787.61341  0.013302483  0.011565568           16 
 4935000   0.46645156   -7.9924819     787.7875  0.013302727  0.011561976           15 
 4936000   0.46019407   -7.9966904    786.56763  0.013279437  0.011558385           11 
 4937000   0.46843971   -7.9988802    787.99203   0.01330079  0.011554795           20 
 4938000   0.46580406   -7.9797984    787.81603  0.013295127  0.011551208           20 
 4939000   0.45956626   -7.9882789    787.68776  0.013290271  0.011547623           15 
 4940000    0.4643323   -7.9964632    786.88267  0.013273999  0.011544038           11 
 4941000   0.44903244   -7.9972358    788.05327  0.013291056  0.011540455           17 
 4942000   0.45803687   -7.9977664    788.23014  0.013291349  0.011536872           15 
 4943000   0.45733698   -8.0139862    788.19038  0.013287989  0.011533292           13 
 4944000   0.44938962   -7.9952241    787.59707  0.013275301  0.011529709           17 
 4945000   0.45239138   -7.9789205    787.76039  0.013275369   0.01152613           21 
 4946000   0.46125613   -7.9978037    788.59668  0.013286775  0.011522554           19 
 4947000   0.46425388   -7.9873438    787.19546  0.013260485  0.011518978           12 
 4948000   0.45638401   -7.9937394    786.68752  0.013249251  0.011515401           15 
 4949000   0.45315742   -7.9814489    787.98563  0.013268432  0.011511827           15 
 4950000   0.45231533   -7.9893446    787.81285  0.013262843  0.011508257            8 
 4951000   0.45403958   -7.9961591    787.63217  0.013257123  0.011504687           14 
 4952000    0.4610683   -7.9955438    787.70733   0.01325571   0.01150112           16 
 4953000   0.46558366   -8.0169283    787.42372  0.013248262  0.011497554           16 
 4954000   0.44851173   -7.9905123    787.06996  0.013239637   0.01149399           12 
 4955000   0.45769133   -7.9997203    788.28984  0.013257481  0.011490428           12 
 4956000   0.45258409   -8.0067043    788.54178  0.013259043   0.01148687           15 
 4957000   0.46056069   -7.9882722    787.49435  0.013238759  0.011483312           20 
 4958000   0.46560506    -8.007235    788.45633  0.013252258  0.011479752           12 
 4959000   0.46127351   -7.9932939    787.16216  0.013227838  0.011476194           22 
 4960000   0.45726187   -8.0052339    787.49262  0.013230723  0.011472639           13 
 4961000   0.45570796     -8.00099    787.82455  0.013233632  0.011469079           17 
 4962000   0.45397719   -7.9881153    787.17859  0.013220116  0.011465526           11 
 4963000   0.45730503   -8.0181123    787.96622  0.013230677  0.011461971           20 
 4964000    0.4583737   -7.9823111    786.69906   0.01320674   0.01145842           15 
 4965000   0.46119853   -7.9986944    787.70504  0.013220964   0.01145487           11 
 4966000   0.46179731   -7.9949097     787.9496  0.013222406  0.011451322           15 
 4967000   0.46597021   -8.0056809    786.67668  0.013198387  0.011447777            9 
 4968000   0.45823394   -7.9868914    787.54181  0.013210242  0.011444233           12 
 4969000   0.44734551   -8.0002178    787.23981  0.013202519   0.01144069           18 
 4970000   0.45529637    -8.002641    787.15952  0.013198516  0.011437149           14 
 4971000   0.44672277   -8.0049405    787.96594   0.01320938  0.011433606           17 
 4972000   0.45336814   -8.0093071    787.25773  0.013194853  0.011430062           15 
 4973000    0.4590315   -8.0208342    788.11456  0.013206558  0.011426524           11 
 4974000    0.4597153   -8.0127362    787.36299  0.013191311  0.011422985           16 
 4975000   0.46384426   -8.0147427    787.10437  0.013184328  0.011419447           11 
 4976000   0.45140682   -8.0045197    786.75301  0.013175794  0.011415909           10 
 4977000   0.46030375   -8.0150361    787.71395  0.013189236  0.011412376           13 
 4978000   0.45896889   -8.0060925    787.73134  0.013186878  0.011408841           15 
 4979000   0.46009359   -7.9952234    786.69643  0.013166908  0.011405308           17 
 4980000    0.4659763   -8.0151883    787.77678  0.013182342  0.011401774           12 
 4981000    0.4610801   -8.0030403    787.66171  0.013177771  0.011398246           11 
 4982000   0.44820937   -7.9998674     787.4569    0.0131717  0.011394717           10 
 4983000   0.44810136   -8.0035686    787.03399  0.013161984  0.011391187           12 
 4984000   0.45188442   -7.9908975    786.60729  0.013152209  0.011387661           14 
 4985000   0.45115693   -8.0057117    788.38418  0.013179274  0.011384135           13 
 4986000   0.45845814   -7.9927824    786.73778  0.013149114  0.011380608           10 
 4987000   0.44897676   -8.0033582    788.04646  0.013168345  0.011377085           12 
 4988000   0.46627383   -7.9986799    786.76119  0.013144233   0.01137356           16 
 4989000   0.45189415   -8.0018566    787.30906  0.013150749  0.011370038           11 
 4990000   0.44936637   -8.0007383    788.23115  0.013163513  0.011366516           11 
 4991000   0.44968769   -8.0024652    786.92281   0.01313903  0.011362997            8 
 4992000   0.44857133   -7.9967516    786.56222  0.013130379  0.011359479            9 
 4993000   0.46087974   -8.0029171    787.90441   0.01315015  0.011355962           20 
 4994000   0.45979074   -7.9892445    785.62609    0.0131095  0.011352449           26 
 4995000   0.45643261   -8.0091735    786.23631  0.013117056  0.011348935           15 
 4996000   0.45119752   -8.0126516    787.47603  0.013135109  0.011345422           10 
 4997000   0.44929283   -8.0070027    787.71849  0.013136523  0.011341912           10 
 4998000   0.43864656   -8.0066926    787.61702  0.013132203    0.0113384           12 
 4999000   0.45293296   -8.0054424    788.73124   0.01314815  0.011334892           10 
 5000000   0.44504688   -7.9926878    785.85261  0.013097544  0.011331386           10 
 5001000   0.45552205   -8.0095532    786.77147  0.013110236  0.011327881           17 
 5002000   0.44660086   -8.0136401    786.49898  0.013103075  0.011324378           13 
 5003000   0.46086381    -7.996239    785.80269  0.013088858  0.011320874           13 
 5004000   0.45632194   -8.0184365    786.81781  0.013103148  0.011317374           14 
 5005000   0.45134646   -8.0016502    788.16205  0.013122911  0.011313876           14 
 5006000   0.46030502   -8.0048113    786.93103  0.013099797   0.01131038            9 
 5007000   0.45202772   -7.9945385    787.48735   0.01310644  0.011306882           13 
 5008000   0.44281099   -8.0148231    786.61794  0.013089356  0.011303387           10 
 5009000   0.44622462   -8.0066526    786.09271  0.013078005  0.011299891            9 
 5010000   0.45481433   -8.0077131    786.67233  0.013085035  0.011296397           14 
 5011000    0.4487163   -8.0089494    787.83196  0.013101709  0.011292905           12 
 5012000   0.45176084   -8.0016319    786.19362  0.013071855  0.011289415           11 
Loop time of 11119.8 on 48 procs for 5000000 steps with 4000 atoms

Performance: 77699.181 tau/day, 449.648 timesteps/s
99.4% CPU use with 48 MPI tasks x no OpenMP threads

MPI task timing breakdown:
Section |  min time  |  avg time  |  max time  |%varavg| %total
---------------------------------------------------------------
Pair    | 700.52     | 742.25     | 783.74     |  64.2 |  6.68
Neigh   | 71.239     | 72.856     | 74.56      |   9.4 |  0.66
Comm    | 643.23     | 681.89     | 723.15     |  75.5 |  6.13
Output  | 16.629     | 16.633     | 16.716     |   0.3 |  0.15
Modify  | 9454       | 9493.2     | 9522       |  15.5 | 85.37
Other   |            | 113        |            |       |  1.02

Nlocal:        83.3333 ave          94 max          74 min
Histogram: 1 3 4 7 9 9 8 5 1 1
Nghost:        1877.67 ave        1892 max        1863 min
Histogram: 1 4 1 11 7 9 5 5 3 2
Neighs:        11690.8 ave       13574 max       10201 min
Histogram: 1 6 5 10 8 7 7 3 0 1
FullNghs:      23383.1 ave       26218 max       20721 min
Histogram: 4 2 5 7 7 8 5 5 4 1

Total # of neighbors = 1122387
Ave neighs/atom = 280.59675
Neighbor list builds = 268991
Dangerous builds = 1

#clear
#
#next RN
#
#jump SELF
Total wall time: 3:05:23
