
units lj                  # Use reduced LJ style units
atom_style atomic         # Uncharged point particles
atom_modify map hash      # Needed for indexing of clusters etc
                          # Used to be able to find where atoms are in relation to each other.

lattice fcc 1.0 spacing 1 1 1
Lattice spacing in x,y,z = 1.5874011 1.5874011 1.5874011
region box block 0 10 0 10 0 10 units lattice
create_box 2 box
Created orthogonal box = (0.0000000 0.0000000 0.0000000) to (15.874011 15.874011 15.874011)
  3 by 4 by 4 MPI processor grid
create_atoms 1 box
Created 4000 atoms
  using lattice units in orthogonal box = (0.0000000 0.0000000 0.0000000) to (15.874011 15.874011 15.874011)
  create_atoms CPU = 0.002 seconds
set type 1 type/fraction 2 0.34 78393
Setting atom values ...
  1376 settings made for type/fraction
mass 1 1.0
mass 2 1.0
pair_style lj/cut  3.5
pair_modify tail  yes
pair_coeff 1  1  1.0  1.0   # Intearaction between 1 and 1 set with epsilon = 1 and sigma = 1
pair_coeff 1  2  1.5  0.8
pair_coeff 2  2  0.5  0.88

write_data data.0
System init for write_data ...
Neighbor list info ...
  update every 1 steps, delay 10 steps, check yes
  max neighbors/atom: 2000, page size: 100000
  master list distance cutoff = 3.8
  ghost atom cutoff = 3.8
  binsize = 1.9, bins = 9 9 9
  1 neighbor lists, perpetual/occasional/extra = 1 0 0
  (1) pair lj/cut, perpetual
      attributes: half, newton on
      pair build: half/bin/atomonly/newton
      stencil: half/bin/3d
      bin: standard
WARNING: Not all mixed pair coeffs generated from mixing. Use write_data with 'pair ij' option to store all pair coeffs. (../write_data.cpp:312)


#############################
#   M E L T   S Y S T E M   #
#############################

velocity all create 2.4 9622624 mom yes dist gaussian # Assign velocities
                                                    # Temperature 2.4, random number seed, zero linear momentum
                                                                                # Gaussian distribution

timestep 0.002   # simulation timestep
thermo 1000       # output thermodynamic data every 1000 steps bf 100

# Define a fix  in this case with index 1 applied to all
# particles in the simulation. This fix is for simulations
# in the anisotropic NPT ensemble. Note that we use the MTK
# correction.
fix 1 all npt temp 2.4 2.4 0.1 iso 5.68 5.68 0.5 mtk yes tchain 5 pchain 5 # Use NPT ensemble
                                                                         # Set temperature and pressure and damping
                                                                         # Numbers of thermostats in chain and in barostat
run 10000          # run for 10000 steps
Per MPI rank memory allocation (min/avg/max) = 3.642 | 3.644 | 3.648 Mbytes
Step Temp E_pair E_mol TotEng Press Volume 
       0          2.4   -6.2108987            0   -2.6117987   -4.0679274         4000 
    1000    2.3725699   -5.0521493            0   -1.4941842    5.7451576    4010.7434 
    2000    2.3709638    -5.049229            0   -1.4936724    5.7499498    4029.5873 
    3000    2.4203514   -5.0106755            0   -1.3810561    5.5865073    4059.0967 
    4000    2.4063457   -4.9662457            0   -1.3576295    5.9697419     4057.829 
    5000    2.3973385   -5.0380282            0   -1.4429194    5.8549454    4017.7459 
    6000    2.4017087   -5.0415211            0   -1.4398587    5.8143325    4023.3775 
    7000    2.4324664   -4.9625077            0   -1.3147203    6.0353333    4044.2451 
    8000    2.4005858   -5.0204189            0   -1.4204404    5.3531323    4078.9385 
    9000    2.4332468   -4.9980201            0   -1.3490624    5.3760533    4079.7421 
   10000     2.352399   -4.9874312            0   -1.4597148      5.25482    4093.2797 
Loop time of 2.47285 on 48 procs for 10000 steps with 4000 atoms

Performance: 698789.580 tau/day, 4043.921 timesteps/s
99.6% CPU use with 48 MPI tasks x no OpenMP threads

MPI task timing breakdown:
Section |  min time  |  avg time  |  max time  |%varavg| %total
---------------------------------------------------------------
Pair    | 1.0596     | 1.1391     | 1.3129     |   3.5 | 46.06
Neigh   | 0.20661    | 0.21341    | 0.24636    |   1.3 |  8.63
Comm    | 0.6983     | 0.85817    | 0.97626    |   5.6 | 34.70
Output  | 0.00024264 | 0.0002476  | 0.0003043  |   0.0 |  0.01
Modify  | 0.19963    | 0.24713    | 0.29134    |   5.7 |  9.99
Other   |            | 0.01485    |            |       |  0.60

Nlocal:        83.3333 ave          93 max          75 min
Histogram: 3 2 6 10 7 6 5 5 3 1
Nghost:        1618.73 ave        1637 max        1589 min
Histogram: 1 1 3 5 6 4 6 10 7 5
Neighs:        9323.65 ave       10612 max        8354 min
Histogram: 3 5 7 7 7 9 4 3 0 3

Total # of neighbors = 447535
Ave neighs/atom = 111.88375
Neighbor list builds = 908
Dangerous builds = 223

# Equilibrate just above the melting temperature to avoid step fn in T

fix 1 all npt temp 1.25 1.25 0.1 iso 5.68 5.68 0.5 mtk yes tchain 5 pchain 5
run 2000
Per MPI rank memory allocation (min/avg/max) = 3.643 | 3.645 | 3.649 Mbytes
Step Temp E_pair E_mol TotEng Press Volume 
   10000     2.352399   -4.9874312            0   -1.4597148      5.25482    4093.2797 
   11000    1.2569468   -6.8841849            0    -4.999236    5.8957091    3245.1789 
   12000     1.229416   -6.9949782            0   -5.1513152    5.5327913    3226.0872 
Loop time of 0.586187 on 48 procs for 2000 steps with 4000 atoms

Performance: 589572.873 tau/day, 3411.880 timesteps/s
99.6% CPU use with 48 MPI tasks x no OpenMP threads

MPI task timing breakdown:
Section |  min time  |  avg time  |  max time  |%varavg| %total
---------------------------------------------------------------
Pair    | 0.23013    | 0.27887    | 0.3151     |   3.1 | 47.57
Neigh   | 0.036065   | 0.04025    | 0.044549   |   0.8 |  6.87
Comm    | 0.17987    | 0.21924    | 0.27369    |   3.8 | 37.40
Output  | 5.7712e-05 | 6.0223e-05 | 7.3391e-05 |   0.0 |  0.01
Modify  | 0.040668   | 0.043191   | 0.04816    |   0.8 |  7.37
Other   |            | 0.004578   |            |       |  0.78

Nlocal:        83.3333 ave          92 max          73 min
Histogram: 3 0 3 5 11 8 6 7 3 2
Nghost:        1894.10 ave        1910 max        1867 min
Histogram: 2 2 1 2 8 2 10 8 6 7
Neighs:        11830.4 ave       13768 max        9832 min
Histogram: 2 1 2 9 12 7 7 2 5 1

Total # of neighbors = 567860
Ave neighs/atom = 141.96500
Neighbor list builds = 143
Dangerous builds = 13

#############################
# L I N E A R  Q U E N C H  #
#############################

# Define solid atoms. This closely follows ten Wolde  Ruiz-Montero and Frenkel  Faraday Discuss  1996  104  93-110
# Compute components of the per-atom q6 vector
compute q6 all orientorder/atom degrees 1 6 components 6 nnn NULL cutoff 1.3 # compute the Q6 parameter.
                                                                             # Use all neighbours within 1.3 unit cell.

# get number of connections
compute coord_number all coord/atom orientorder q6 0.5

# An atom is solid if it has 8 or more connections (of a possible 14)
variable is_solid atom c_coord_number>=8
group solid dynamic all var is_solid    # Must be dynamic to update
dynamic group solid defined

# do clustering
compute cluster solid cluster/atom 1.3 # Create a cluster where all atoms within are solid and max 1.3 units from another member

# define chunks one chunk per cluster
compute clus_chunks solid chunk/atom c_cluster nchunk every compress yes  # Says which atoms are in which chunk

# count the size of each chunk
compute size_chunks solid property/chunk clus_chunks count


# Find the maximum entry in the vector of chunk sizes
variable max_n equal max(c_size_chunks)


# Thermo style which includes this variable
# thermo_style custom step temp pe vol v_max_n

thermo ${N}  # Print the thermo information every 100 steps
thermo 1000  

# Reset the npt fix at a lower temperature (below freezing)
fix 1  all npt temp  ${temp} ${temp}  0.1  iso  5.68  5.68  0.5  mtk yes tchain  5  pchain  5
fix 1  all npt temp  0.45 ${temp}  0.1  iso  5.68  5.68  0.5  mtk yes tchain  5  pchain  5
fix 1  all npt temp  0.45 0.45  0.1  iso  5.68  5.68  0.5  mtk yes tchain  5  pchain  5

dump dmp2 all dcd ${N} traj.dcd
dump dmp2 all dcd 1000 traj.dcd


compute msd all msd com yes
variable twopoint equal c_msd[4]/6/(step*dt+1.0e-6)
fix 9 all vector 10 c_msd[4]
variable fit equal slope(f_9)/6/(10*dt)
thermo_style custom step temp pe c_msd[4] v_twopoint v_fit v_max_n

fix 1 all npt temp 1.25 ${temp} 0.1 iso 5.68 5.68 0.5 mtk yes tchain 5 pchain 5
fix 1 all npt temp 1.25 0.45 0.1 iso 5.68 5.68 0.5 mtk yes tchain 5 pchain 5
run 2000000 # 5000000  # Run for this many steps
Neighbor list info ...
  update every 1 steps, delay 10 steps, check yes
  max neighbors/atom: 2000, page size: 100000
  master list distance cutoff = 3.8
  ghost atom cutoff = 3.8
  binsize = 1.9, bins = 8 8 8
  4 neighbor lists, perpetual/occasional/extra = 1 3 0
  (1) pair lj/cut, perpetual
      attributes: half, newton on
      pair build: half/bin/atomonly/newton
      stencil: half/bin/3d
      bin: standard
  (2) compute orientorder/atom, occasional
      attributes: full, newton on
      pair build: full/bin/atomonly
      stencil: full/bin/3d
      bin: standard
  (3) compute coord/atom, occasional
      attributes: full, newton on
      pair build: full/bin/atomonly
      stencil: full/bin/3d
      bin: standard
  (4) compute cluster/atom, occasional
      attributes: full, newton on
      pair build: full/bin/atomonly
      stencil: full/bin/3d
      bin: standard
Per MPI rank memory allocation (min/avg/max) = 9.817 | 9.820 | 9.824 Mbytes
Step Temp PotEng c_msd[4] v_twopoint v_fit v_max_n 
   12000     1.229416   -6.9949782 1.0554959e-30 7.3298323e-33 8.3333333e+20            1 
   13000    1.2472675   -7.0155637   0.45395958 0.0029099972  0.036818422            1 
   14000    1.2155342   -6.9487651   0.92123631 0.0054835493  0.037270918            2 
   15000     1.233927   -6.9548348    1.3516175  0.007508986  0.037162699            1 
   16000    1.2524155   -7.0173788    1.8007117 0.0093787066  0.037069617            1 
   17000    1.2753911   -6.9700648    2.2294453  0.010928653  0.036954394            1 
   18000    1.2359616   -6.9797623    2.7010163  0.012504705  0.037056813            1 
   19000    1.2659255   -6.9695761    3.1459855  0.013798182  0.037068655            2 
   20000    1.2162652    -6.984722    3.6075481   0.01503145  0.037195739            1 
   21000    1.2676948   -6.9951985     4.121597  0.016355543  0.037495112            2 
   22000    1.2390311   -6.9855948    4.5774276  0.017338741   0.03776726            1 
   23000     1.249161   -7.0204942    5.0431868  0.018272416  0.037920302            3 
   24000    1.2149503   -6.9990737    5.4377585  0.018881105   0.03799213            3 
   25000    1.2411112   -7.0270151    5.8816515  0.019605505  0.038015532            1 
   26000    1.2580154   -6.9621154    6.3116951  0.020229791   0.03794428            1 
   27000    1.2369949   -7.0322362    6.7313334   0.02077572  0.037831074            1 
   28000    1.2210116   -6.9627403    7.1636749  0.021320461  0.037625894            3 
   29000    1.2432101   -6.9887441    7.5475517  0.021688367  0.037457538            1 
   30000    1.2672054   -6.9728961    7.9268591  0.022019053  0.037264915            1 
   31000    1.2448817   -6.9585294    8.4453078   0.02270244  0.037101261            1 
   32000    1.2217553   -7.0167623    8.8638732  0.023083003  0.037015312            2 
   33000    1.2344264   -6.9723163    9.3269265  0.023552844  0.036954548            1 
   34000    1.2335029   -6.9926613    9.7820855  0.023975699  0.036919669            3 
   35000    1.2444869   -6.9447386    10.130624  0.024120532   0.03685223            1 
   36000    1.2476407   -7.0220042      10.4848  0.024270371  0.036722738            2 
   37000    1.2566048   -6.9916956    10.876733  0.024497146  0.036576461            1 
   38000    1.2157033   -7.0059099    11.220277   0.02460587  0.036402299            1 
   39000    1.2510778   -7.0142602    11.730776   0.02506576  0.036257358            1 
   40000    1.2372424   -7.0080008    12.144268  0.025300559  0.036157796            2 
   41000    1.2164687   -7.0011142    12.653498  0.025718492  0.036085637            2 
   42000    1.2484219   -6.9957737    13.081626  0.025955607  0.036067675            2 
   43000    1.2549223   -7.0234286    13.528233  0.026217505  0.036043408            1 
   44000    1.2340093   -7.0220499     13.96301  0.026445094  0.036046425            1 
   45000    1.2227442   -7.0192425    14.416616  0.026697437  0.036051241            2 
   46000    1.2498004   -6.9768044    14.808239   0.02682652  0.036036814            1 
   47000    1.2368402   -7.0157014    15.178237  0.026911767  0.036020224       -1e+20 
   48000     1.242647   -7.0040871    15.594872  0.027074431  0.035980531            1 
   49000    1.2298827   -6.9949368    16.104492  0.027388592  0.035968328            2 
   50000    1.2182537   -7.0067742    16.556101  0.027593502  0.035949015            1 
   51000    1.2377063   -7.0296279    17.095508  0.027933837  0.035974698            1 
   52000    1.2363661    -7.007888    17.472554  0.028000887  0.035994984            1 
   53000     1.237699   -7.0113446    17.946469  0.028217719  0.036002338            1 
   54000    1.2227733   -7.0392974    18.352861  0.028322317  0.036019947            1 
   55000    1.2477612   -7.0268551    18.557705  0.028117735  0.036003507            1 
   56000    1.2153733   -7.0543812    19.194686  0.028563521  0.035990533            1 
   57000    1.2359094   -7.0396141    19.621334  0.028686161  0.036008096            1 
   58000    1.2221651   -7.0253522    20.047892  0.028804442  0.036022119            1 
   59000    1.2241037   -7.0927375    20.572884  0.029057745  0.036037072            2 
   60000    1.2175576   -7.0435994    20.912849  0.029045623  0.036042349            2 
   61000     1.259309    -7.057424    21.307083  0.029108037  0.036045837            1 
   62000    1.2323244   -7.0288517    21.778166  0.029271728  0.036042199            2 
   63000    1.2236901   -7.0241243    22.216387  0.029386755  0.036036416            2 
   64000    1.2339418   -7.0434903    22.727114  0.029592596  0.036038005            2 
   65000     1.218671   -7.0152432    23.226836  0.029777995   0.03606005            2 
   66000    1.2372199   -7.0437699    23.812534  0.030066331   0.03609973            1 
   67000     1.230499   -7.0533656     24.29428  0.030216765    0.0361472            1 
   68000    1.2450031   -7.0450313    24.654167  0.030213439   0.03618577            1 
   69000    1.2329116   -7.0464416    25.039185  0.030240561  0.036213342            3 
   70000     1.249836   -7.0548056    25.368481  0.030200572  0.036232248            1 
   71000    1.2482418   -7.0081096    25.863756  0.030356521  0.036246368            2 
   72000    1.2241286   -6.9925447     26.24088  0.030371388  0.036259101            3 
   73000    1.2112299   -7.0198808    26.720839  0.030503241  0.036263816            1 
   74000    1.2258663   -6.9898819    27.225249  0.030659064  0.036276236            4 
   75000    1.2234212   -7.0194153    27.618291  0.030686989  0.036284844            1 
   76000    1.2186592   -7.0365192    28.030106  0.030734766  0.036296168            2 
   77000     1.196335   -7.0295661    28.466465  0.030807862  0.036310008            2 
   78000    1.2214658   -7.0327512    28.895579  0.030871345  0.036320178            4 
   79000    1.2470235   -7.0270708    29.204914  0.030806871  0.036321679            1 
   80000    1.2413494   -7.0362698     29.70618  0.030943937  0.036313879            2 
   81000    1.2372684    -7.064047    30.056313  0.030922132  0.036313217            2 
   82000    1.2373297   -6.9992327     30.58417  0.031081474  0.036299281            1 
   83000      1.21034    -7.020219    30.905671   0.03102979  0.036292385            2 
   84000    1.2104995   -7.0291811    31.416011  0.031166677  0.036285287            1 
   85000    1.1986136   -7.0087836    31.973138  0.031346213  0.036284366            2 
   86000    1.1957816   -7.0736506    32.396201  0.031391667  0.036288323            1 
   87000    1.2246055   -7.0527401    32.886641  0.031500614  0.036300238            3 
   88000    1.2565089   -7.0288432    33.477934  0.031702588   0.03631737            1 
   89000    1.1944404   -7.0383039    33.953325  0.031791503  0.036343169            1 
   90000    1.2375467   -7.0425867    34.221046  0.031686153  0.036367642            1 
   91000    1.2582537   -7.0713927    34.841682  0.031906302  0.036389174            1 
   92000    1.2131024   -7.0757653     35.29351  0.031968759  0.036413958            2 
   93000    1.2161114   -7.0250467    35.680293  0.031971589  0.036431964            2 
   94000    1.2466289   -7.0500092    36.191716  0.032084855  0.036448276            3 
   95000    1.2056598   -7.0513743    36.509217  0.032025629  0.036467568            1 
   96000    1.2036234   -7.0542418    37.086759  0.032193367  0.036479256            2 
   97000    1.2151695   -7.0248821     37.46413  0.032185678  0.036491711            2 
   98000    1.2021123   -7.0314477    37.793364  0.032137214  0.036498681            3 
   99000    1.2394228   -7.0497009    38.265383  0.032209918   0.03650343            2 
  100000    1.2416034   -7.0606828    38.655008  0.032212507  0.036505302            1 
  101000    1.2102343   -7.0587656    38.967655   0.03215153  0.036506653            1 
  102000    1.2023001   -7.1007895    39.323023  0.032126653  0.036508155            3 
  103000    1.2002302   -7.0682965    39.941784  0.032315359   0.03650559            5 
  104000    1.2180105    -7.072526    40.308036  0.032298106  0.036510828            2 
  105000    1.2152024   -7.0294279    40.883122  0.032446922  0.036515919            1 
  106000    1.2012102   -7.1111815    41.435225  0.032574862  0.036529613            1 
  107000    1.2290498   -7.0686606    41.864088  0.032604429  0.036544683            1 
  108000    1.2486782   -7.0703344      42.3911  0.032709182  0.036560266            2 
  109000    1.2336198   -7.0231554    42.961291  0.032845023  0.036579264            1 
  110000    1.2312561   -7.0408172    43.341697  0.032834619  0.036593483            2 
  111000    1.2192048   -7.1023237    43.614028  0.032743264  0.036608433            2 
  112000    1.1984216   -7.0645244    44.215946  0.032898769  0.036622738            1 
  113000     1.224092    -7.065332    44.444549  0.032776216  0.036637754            2 
  114000    1.2055911   -7.0997771    45.030869  0.032917302   0.03664949            2 
  115000    1.2079506   -7.0495832    45.511784  0.032979553  0.036661043            1 
  116000    1.1838021   -7.1173667    45.422047  0.032630781  0.036662926            2 
  117000    1.2074923   -7.0899452    45.960096  0.032735111   0.03665812            2 
  118000    1.1903277   -7.1161556    46.394693  0.032764614  0.036649403            1 
  119000    1.1979993   -7.0562373    46.819094   0.03278648  0.036636765            2 
  120000    1.2025359   -7.0717431    47.123003  0.032724308  0.036626878            2 
  121000    1.2154405   -7.1051176    47.584128  0.032771438  0.036616109            2 
  122000    1.2053262   -7.0899586      48.0027  0.032788729  0.036608595            1 
  123000    1.2128265    -7.067235    48.397307  0.032789503   0.03659835            1 
  124000     1.191492   -7.0874561    48.691588  0.032722841  0.036587338            2 
  125000    1.2085008   -7.0319779    49.011498  0.032674332  0.036568035            1 
  126000    1.1682785   -7.1031729    49.347676  0.032637352  0.036548261            1 
  127000    1.2135235   -7.0356896     50.14585  0.032904101  0.036530199            2 
  128000    1.2185103   -7.0729012    50.530313  0.032897339  0.036515991            1 
  129000    1.2244464   -7.0729118    51.093621  0.033006215  0.036507005            2 
  130000    1.2029001   -7.0793292    51.519457  0.033025293  0.036497397            2 
  131000    1.1919814   -7.0793892    51.929569  0.033034077  0.036488784            3 
  132000     1.242921   -7.0742533    52.387558  0.033072953  0.036480005            1 
  133000    1.1978566   -7.0970651    52.867926  0.033125267  0.036475162            1 
  134000    1.1963971   -7.0823647    53.248081  0.033114478   0.03647015            4 
  135000    1.2186888   -7.0958689    53.775029  0.033194462   0.03646139       -1e+20 
  136000    1.1965256   -7.0889732    54.199088  0.033210226  0.036455117            1 
  137000    1.1701824   -7.1148416    54.277196  0.033015326  0.036445722       -1e+20 
  138000    1.2061718   -7.0798893    54.939066  0.033175764  0.036435346            1 
  139000    1.2115483   -7.0990865    55.307844   0.03315818  0.036426314            1 
  140000    1.1953442   -7.0201911    55.562439   0.03307288  0.036416477            2 
  141000    1.2042791   -7.1280499    55.818365  0.032989577  0.036403543            1 
  142000    1.1953203   -7.0999899    56.284591  0.033030863  0.036385289            2 
  143000    1.1963503   -7.0967444    56.610576  0.032989846  0.036364991            1 
  144000    1.2111396   -7.0690041     56.97097  0.032969311  0.036341714            1 
  145000    1.1735778   -7.0910835    57.181071  0.032862684  0.036316658            2 
  146000    1.2001754    -7.074729    57.324898   0.03271969  0.036286146            1 
  147000    1.1930966   -7.0970929    57.830302  0.032783618  0.036253403            2 
  148000    1.1743811   -7.0702287     58.31462  0.032834809  0.036221131            1 
  149000    1.2279943   -7.0854693    58.872257  0.032926318  0.036190018            1 
  150000    1.2024745   -7.0359275    58.964438  0.032758021  0.036160555            1 
  151000    1.1986204   -7.1098582    59.119484  0.032626647   0.03612832            2 
  152000     1.185908   -7.1228592    59.473714  0.032606203  0.036096214            1 
  153000    1.1719657   -7.0934475    59.792742  0.032566853  0.036063832            1 
  154000    1.1813299   -7.0952427    60.316764  0.032638942  0.036029206            1 
  155000    1.1958666   -7.1013706    60.575515  0.032567481  0.035993263            2 
  156000    1.2047659   -7.1386164    60.729805  0.032441135  0.035955278            3 
  157000    1.2095804   -7.0757128    61.152219  0.032458715  0.035916335            1 
  158000    1.1685507    -7.091607    61.725993  0.032555904  0.035877663            1 
  159000     1.198913    -7.129338    62.054514   0.03252333  0.035840233            2 
  160000    1.1751359   -7.0936609     62.74569  0.032680047  0.035805309            1 
  161000    1.2210428   -7.0857371     63.22526   0.03272529  0.035776497            1 
  162000     1.199517   -7.1669367    63.140374  0.032479616  0.035745449            3 
  163000    1.1789322   -7.1223726    63.768961  0.032601718  0.035714143            1 
  164000    1.2015385   -7.1263184    63.864385  0.032451415  0.035680638            1 
  165000    1.1877427   -7.0658515    64.354114  0.032502078   0.03564693            1 
  166000    1.1942287   -7.1361783    64.588559  0.032423975  0.035612994            1 
  167000    1.2003939   -7.1183064     65.02318  0.032446696  0.035578137            2 
  168000    1.1583385   -7.0861046    65.349489  0.032415421  0.035542951            3 
  169000    1.2012369    -7.066083    66.079179  0.032583421   0.03550745            1 
  170000    1.1905373   -7.0941969    66.396229  0.032547171  0.035474108            2 
  171000     1.159497   -7.1170447    66.523375  0.032418799  0.035440491            2 
  172000    1.2080622   -7.1036484    66.400531    0.0321708  0.035402348            1 
  173000    1.2040388   -7.1353615    67.130322  0.032336379  0.035361207            2 
  174000    1.1690921   -7.1229103    67.497152  0.032326222  0.035323489            4 
  175000    1.1857728   -7.1123331    67.892689  0.032329852  0.035286577            1 
  176000    1.1966881   -7.1209642    68.229739  0.032305748  0.035253051            2 
  177000    1.2243738   -7.1249033    68.667898  0.032329519  0.035215848            1 
  178000    1.1695314   -7.1108085    68.810098  0.032214465  0.035178429            2 
  179000    1.1867541    -7.143002    68.988127  0.032117377  0.035139523            3 
  180000    1.1677751   -7.1389715    69.593584  0.032219252  0.035103218            3 
  181000    1.1863917     -7.10291    70.005899  0.032231077  0.035066351            2 
  182000    1.1787566   -7.1623557     70.45022  0.032257427  0.035030915            3 
  183000    1.1693755   -7.1173948    70.479644  0.032094555  0.034993452            1 
  184000    1.1822579   -7.1093487    71.274152   0.03227996  0.034956752            1 
  185000    1.1765513   -7.1091771    71.504112  0.032209059  0.034920702            1 
  186000    1.1626286   -7.1358169    71.770103  0.032155064  0.034886446            1 
  187000    1.1728139   -7.0995213     72.27505  0.032208133  0.034852687            1 
  188000    1.1899318   -7.1423978    72.637033  0.032197266  0.034819787            2 
  189000    1.1821976   -7.0930686    73.211669  0.032280277  0.034790113            1 
  190000    1.1846887   -7.1108215    73.414371  0.032199285   0.03476031            2 
  191000    1.1872332   -7.1167377     73.41144  0.032029424  0.034727716            1 
  192000    1.1849634    -7.141627    73.773937  0.032019938  0.034693491            2 
  193000    1.1891776   -7.1053464    74.445313  0.032143917  0.034661222            1 
  194000    1.1710701   -7.1218734    74.589023  0.032039958  0.034628564            1 
  195000     1.168643   -7.1483351    74.869951  0.031995705  0.034597478            2 
  196000    1.1928939   -7.1256067    75.456343  0.032081779  0.034564183            2 
  197000    1.1969657   -7.1582439    75.613614  0.031985454  0.034529564            2 
  198000    1.1734878   -7.1522546     75.78927  0.031897841  0.034496342            2 
  199000    1.1700487    -7.204395    76.008602  0.031829398  0.034460361            1 
  200000    1.1577276   -7.1762982    76.206753  0.031752814  0.034421515            1 
  201000    1.1704121   -7.1574175    76.759573  0.031824035   0.03438209            1 
  202000     1.150402   -7.1483953    76.741698  0.031659116  0.034341713            1 
  203000    1.1863652   -7.1323948    77.494412  0.031812156  0.034303812            2 
  204000    1.1608637   -7.1683776    77.820463  0.031789405   0.03426883            1 
  205000    1.1822656   -7.1433592    78.197014  0.031787404  0.034236996            2 
  206000    1.1766059   -7.1324358    78.411952  0.031720045  0.034204411            2 
  207000    1.2049016   -7.1759117    78.837534  0.031738138  0.034169527            1 
  208000    1.1628738   -7.1188057    79.544543  0.031868807  0.034136291            3 
  209000    1.1698457   -7.1508882    79.952191  0.031878864  0.034104828            1 
  210000     1.165139   -7.1203142    80.226712  0.031835997  0.034073879            1 
  211000    1.1663888   -7.1463517    80.331002  0.031726304   0.03404164            1 
  212000    1.1610451   -7.1450546    80.899371  0.031800067  0.034009709            2 
  213000    1.1864733   -7.1554755    81.200387  0.031768539  0.033978001            1 
  214000    1.1613229   -7.1965135    81.090382  0.031577251  0.033944401            1 
  215000    1.1480549   -7.1705831     81.92137  0.031752469  0.033911773            1 
  216000    1.1412465   -7.1391272    81.949924  0.031616483  0.033879245            1 
  217000    1.1790995   -7.1751595     82.03927  0.031505096  0.033846148            1 
  218000    1.1772274   -7.1863248    82.417434  0.031505135  0.033812908            1 
  219000    1.1911505   -7.1774254    82.841363  0.031522589  0.033780785            2 
  220000     1.153646   -7.1818809    83.537593  0.031643027  0.033750862            1 
  221000    1.1841457     -7.13801    84.036403  0.031687935  0.033722254            4 
  222000    1.1580253   -7.1370424    84.501202   0.03171967  0.033693386            1 
  223000    1.1577751   -7.1662895    84.317369  0.031508733  0.033663531            2 
  224000    1.1828714   -7.1604874    84.970307  0.031610977  0.033633106            2 
  225000    1.1486174   -7.1246828     85.46752  0.031654637  0.033604762            2 
  226000     1.175894   -7.1628085    85.482496  0.031520094   0.03357474            2 
  227000    1.1491178   -7.1509331    86.049932  0.031589549  0.033546444            1 
  228000    1.1660356   -7.1581666    86.536861  0.031628969   0.03351893            1 
  229000    1.1588368   -7.1638554    86.800352  0.031586736  0.033491102            1 
  230000    1.2005095   -7.1335029    87.197767  0.031593394  0.033463753            3 
  231000    1.1642688    -7.145176    87.647822  0.031618983  0.033437242            1 
  232000    1.1577393   -7.1686034    87.667463   0.03148975  0.033410941            1 
  233000    1.1448161   -7.1605016    88.389456  0.031612824  0.033383835            1 
  234000    1.1840475    -7.181515    88.517328  0.031523265   0.03335799            1 
  235000    1.1435754   -7.1682324    88.564445  0.031405831  0.033331913            1 
  236000    1.1809548   -7.1538594    89.394276  0.031565775  0.033307927            1 
  237000    1.1503732   -7.1964163    89.516148  0.031475439  0.033283146            2 
  238000    1.1645713   -7.1445562    90.090588  0.031544323  0.033259161            1 
  239000    1.1512603   -7.1828906    90.419275  0.031526944  0.033236207            1 
  240000    1.1797759   -7.1827703    90.700472  0.031493219  0.033212137            1 
  241000    1.1416955   -7.1644203    91.054298  0.031484889  0.033186988            1 
  242000    1.1524891   -7.1776308    91.399766  0.031473748  0.033162753            2 
  243000    1.1497643   -7.2242404     91.71832   0.03145347  0.033139706            3 
  244000    1.1773388   -7.1964829      92.2374  0.031501844  0.033116716            3 
  245000    1.1656683   -7.1801326    92.587033  0.031492188  0.033093168            2 
  246000    1.1625334     -7.19482    92.614114  0.031373345  0.033068929            3 
  247000    1.1439024   -7.2156355    92.809761  0.031312335  0.033045508            2 
  248000    1.1466905   -7.1825949    93.231274  0.031327713  0.033020557            1 
  249000    1.1508969   -7.2089541    93.679831  0.031352018  0.032996539            1 
  250000    1.1486383   -7.1927992    93.936216  0.031312072  0.032972013            1 
  251000    1.1787381   -7.1984481    94.592596  0.031405244  0.032949639            1 
  252000    1.1871902   -7.1679773    94.972935  0.031406394  0.032926988            1 
  253000    1.1334502   -7.2595475    95.476544  0.031448137  0.032905558            5 
  254000    1.1601043   -7.1982158    95.576385  0.031357082  0.032884804            3 
  255000    1.1660794   -7.1805916    95.927641  0.031348902   0.03286352            3 
  256000    1.1615878   -7.1671852    96.271883  0.031338504  0.032842525            2 
  257000    1.1825516   -7.2238842    96.419307  0.031264367   0.03282094            2 
  258000    1.1350166   -7.1983521    97.050471  0.031347051  0.032797682            1 
  259000    1.1565416   -7.1955626    96.988377  0.031206041   0.03277327            1 
  260000     1.140513   -7.2066487    97.521495  0.031256889  0.032748675            2 
  261000    1.1592053   -7.1994747    97.685772  0.031189582  0.032725203            2 
  262000    1.1513958   -7.1925943    97.922352  0.031145786  0.032702007            6 
  263000    1.1393636   -7.1644726    98.756699   0.03129173   0.03267937            4 
  264000     1.153912   -7.1902374    98.763442  0.031175329  0.032655805            3 
  265000    1.1644308   -7.2407494    98.784644  0.031064353  0.032631986            1 
  266000    1.1586179   -7.2093747    99.032948   0.03102536   0.03260729            1 
  267000    1.1500648   -7.1918528    99.689449   0.03111406  0.032583735            3 
  268000    1.1340309   -7.2014221    100.31493  0.031192454  0.032561835            1 
  269000    1.1609184   -7.1943226    100.50718  0.031136054  0.032540515            2 
  270000     1.150716   -7.1833785    101.01037   0.03117604   0.03252055            1 
  271000    1.1567205   -7.1966311    101.47586   0.03120414  0.032500208            1 
  272000    1.1366466   -7.2112238    101.66981   0.03114884  0.032480682            2 
  273000    1.1473176   -7.1751412    102.38967  0.031254479  0.032462123            2 
  274000    1.1769883   -7.1721414    102.68833  0.031231244  0.032445047            2 
  275000    1.1597109   -7.1991997    103.23001  0.031281821  0.032427789            2 
  276000    1.1547376    -7.225727    103.34951  0.031204562    0.0324107            1 
  277000    1.1601636   -7.2031662    104.25376  0.031363947  0.032394662            3 
  278000    1.1618267   -7.2228173    104.36338  0.031283987   0.03238104            2 
  279000    1.1549774   -7.2183733    104.74721  0.031286501  0.032365936       -1e+20 
  280000    1.1347872   -7.1573474    105.43048   0.03137812   0.03235235            1 
  281000    1.1498644   -7.2348875    105.34314  0.031240552   0.03233899            1 
  282000    1.1539785   -7.2214892    105.81867  0.031270294  0.032323816            3 
  283000    1.1131528   -7.2501329    105.88533  0.031179426  0.032307484            1 
  284000    1.1439064   -7.1944403     106.1659  0.031151966  0.032290652            4 
  285000     1.144973   -7.2238239    106.55403  0.031156149  0.032273605            2 
  286000    1.1197165   -7.2397659     107.0262  0.031184789  0.032257486            2 
  287000    1.1571909   -7.2383966     106.9596  0.031056796  0.032241509            1 
  288000    1.1074124   -7.2016834    107.55109  0.031120107  0.032224763            1 
  289000    1.1144012   -7.2610338    107.55975  0.031014923  0.032207866            1 
  290000    1.1342811   -7.1961335    107.79194  0.030974694  0.032190709            1 
  291000    1.1351977   -7.2192998    108.02727  0.030935643  0.032171551            2 
  292000    1.1490224   -7.2061271    108.52661  0.030972205  0.032152001            2 
  293000    1.1468278    -7.231082    109.07647  0.031022888  0.032133961            3 
  294000    1.1409398   -7.2278777    108.99069  0.030893052  0.032115547            3 
  295000     1.146129   -7.2261703     109.8953   0.03104387  0.032097508            3 
  296000    1.1265892    -7.228564    109.64253   0.03086783  0.032079401            2 
  297000     1.140355   -7.2439213    109.97718  0.030857796  0.032061762            2 
  298000    1.1170058   -7.1964778    111.01942  0.031045699  0.032043666            2 
  299000    1.1110184   -7.2373208    110.88817  0.030905287  0.032025974            1 
  300000    1.1452868   -7.2039603    111.70761   0.03102989  0.032008728            1 
  301000    1.1471439   -7.1628264    112.25791  0.031079156  0.031991782            2 
  302000    1.1520523   -7.2389559     111.7707  0.030841805  0.031974999            2 
  303000    1.1309809   -7.2490654    111.67513  0.030713732  0.031957351            1 
  304000    1.1323471   -7.2757334     111.9885  0.030698602  0.031937729            2 
  305000    1.1275493    -7.248249    112.21222  0.030659077  0.031916412            1 
  306000    1.1207642   -7.2444966    112.46854  0.030628688  0.031894236            1 
  307000    1.1399015   -7.2515648    113.00234  0.030673817  0.031872478            1 
  308000    1.1446731   -7.2606613    113.19224  0.030625605  0.031850847            1 
  309000    1.1342934   -7.2110228     114.0001  0.030744363  0.031830533            2 
  310000    1.1257712   -7.2691266    114.27361  0.030718713  0.031812405            1 
  311000    1.1127569   -7.2305996    114.90225  0.030788384  0.031794703            2 
  312000    1.1415025   -7.2333308    115.61741  0.030880718   0.03177935            1 
  313000     1.142382   -7.2564511    116.01389  0.030887617  0.031763953            2 
  314000     1.122701   -7.2680891    115.69004  0.030703302  0.031747423            1 
  315000    1.1320996   -7.2537513    116.30031  0.030767279  0.031731995            2 
  316000     1.105957   -7.2806891    116.63435  0.030758005  0.031716056            4 
  317000    1.1183422   -7.2625341    117.09781  0.030782809  0.031701159            1 
  318000    1.1377741   -7.2298499    117.21308  0.030716216  0.031685585            1 
  319000    1.1679146    -7.233839    117.58464   0.03071699  0.031669825            2 
  320000    1.1332009    -7.240129    117.73675  0.030660612  0.031652152            2 
  321000      1.11198   -7.2434502    117.55414  0.030517689  0.031633937            2 
  322000    1.1371997   -7.2250045    118.26448   0.03060675  0.031615783            1 
  323000    1.1079373   -7.2675645     118.2765  0.030515092   0.03159719            1 
  324000    1.1309834   -7.2560201    119.04771  0.030619266  0.031579764            1 
  325000    1.1062471   -7.2786614    119.37144  0.030608061  0.031562778            1 
  326000    1.1306294   -7.2892983    119.39987  0.030521438  0.031545542            4 
  327000    1.1181269   -7.2298059      120.266  0.030648828  0.031529001            2 
  328000      1.12885    -7.292074    120.25113  0.030551609  0.031512336            2 
  329000    1.1083757   -7.2156057    121.19286   0.03069728  0.031496881            2 
  330000    1.1149119   -7.2695493    121.04492  0.030566899  0.031480989            2 
  331000    1.1388285    -7.270215     121.3007  0.030538949  0.031465637            1 
  332000    1.1249908   -7.2934409    121.88399  0.030593371  0.031450484            2 
  333000    1.1217728    -7.244426    122.12259  0.030561209  0.031434603            2 
  334000    1.1313952    -7.265854    122.31368  0.030517386  0.031418275            1 
  335000    1.1229777   -7.2264649    123.31106  0.030674392  0.031403302            2 
  336000    1.1162164   -7.3061331    123.10803  0.030532746  0.031387673            2 
  337000    1.1195525   -7.2739012    123.37065  0.030507084     0.031372            1 
  338000     1.118834   -7.2491615    124.00358  0.030572874  0.031356838            3 
  339000    1.1270445   -7.2957287    123.63387  0.030391808  0.031342065            1 
  340000    1.0941755   -7.3056364    124.41478  0.030493817   0.03132743            1 
  341000    1.0940588   -7.2601097     125.1863  0.030592938  0.031313015            2 
  342000    1.1237413   -7.2524975    125.92378  0.030683182  0.031299465            1 
  343000    1.1170698   -7.2641494    126.06339  0.030627646  0.031286619            2 
  344000    1.1058304   -7.2602298    126.32887  0.030602924  0.031274929            1 
  345000    1.1144506   -7.2754676    126.65329  0.030592582  0.031263197            3 
  346000    1.1469374   -7.2569777    127.01134  0.030590401  0.031251953            5 
  347000     1.110645    -7.266119    127.49859  0.030619257  0.031241031            1 
  348000     1.110178   -7.2564491    127.68851   0.03057675  0.031229523            4 
  349000    1.1105339   -7.2738799    128.06624  0.030579332   0.03121817            2 
  350000    1.1246129   -7.2503224    128.75894   0.03065689  0.031208332            2 
  351000    1.1024057   -7.2844333     129.3205  0.030702873  0.031198132            1 
  352000    1.1431648   -7.2631731    129.55619  0.030671446  0.031187999            2 
  353000    1.1255793   -7.2284573     130.3039  0.030761073   0.03117758            2 
  354000    1.0951235   -7.2470125    130.48256  0.030716234   0.03116708            2 
  355000    1.1257937     -7.25715    130.72765  0.030687243  0.031155848            2 
  356000    1.1041764   -7.3049555    130.36306  0.030515698  0.031145262            2 
  357000    1.1029104   -7.2808428    130.76632  0.030524351  0.031134139            1 
  358000    1.1126417   -7.2760382    131.20332  0.030540809  0.031122647            2 
  359000    1.0921576   -7.3208737     130.7828  0.030358125  0.031109792            5 
  360000    1.0977518   -7.2908313    131.52006  0.030444459  0.031097142            1 
  361000    1.1106335   -7.3039932    131.82312  0.030430083  0.031084624            1 
  362000    1.0938614   -7.3185332     131.4902  0.030269383  0.031070469            2 
  363000    1.0987977   -7.2744833    132.34793  0.030382905  0.031057072            1 
  364000    1.1008729   -7.2721362    132.44693    0.0303221  0.031043124            1 
  365000    1.1165555   -7.2900305    132.94845  0.030353526  0.031029192            1 
  366000      1.10397   -7.2974947     133.1082  0.030306966  0.031015523            2 
  367000    1.1025422    -7.306617    133.41216  0.030293407  0.031002057            1 
  368000    1.1143828    -7.318081    133.86028  0.030312564  0.030988081            1 
  369000    1.0949464   -7.2725733    134.28242   0.03032575  0.030973973            3 
  370000     1.120651   -7.2770802    134.31173  0.030250389  0.030959969            1 
  371000    1.1081589   -7.2765652    134.42941  0.030195286  0.030944753            5 
  372000     1.090789   -7.2828539    134.38434  0.030104018  0.030929333            1 
  373000    1.1035935   -7.2872274    134.98902  0.030158404   0.03091384            1 
  374000    1.1023382   -7.3222496    135.34928   0.03015804  0.030898966            2 
  375000    1.1133108   -7.3320722    135.81764  0.030181698  0.030884053            1 
  376000    1.1021064   -7.2407583     135.8278   0.03010368  0.030868755            1 
  377000    1.1359179   -7.3293521    135.76089  0.030009039  0.030852885            2 
  378000    1.1143415   -7.3214165    135.78396  0.029934735  0.030836609            1 
  379000    1.1077083   -7.2800264    136.90374  0.030101966  0.030820857            2 
  380000    1.1244077   -7.2822627    137.41314  0.030134461  0.030805419            2 
  381000    1.1061841   -7.3473026    137.45695  0.030064949  0.030791078            1 
  382000    1.0862667   -7.3251434    137.54819  0.030006149  0.030776686            4 
  383000    1.0605113   -7.3383787    137.76522  0.029975026  0.030761847            1 
  384000    1.0963578   -7.3023766    138.21319  0.029994182  0.030747039            1 
  385000    1.1104256   -7.2453267    138.47666  0.029973304  0.030731961            1 
  386000    1.0960506   -7.3048798    138.41647  0.029882658  0.030716098            2 
  387000    1.1066699   -7.3048171    139.07648  0.029947563  0.030699495            2 
  388000    1.0986023    -7.304598    138.83428  0.029818359  0.030682959            1 
  389000    1.0627102   -7.3300352    139.38513  0.029859712  0.030665838            1 
  390000    1.0907793   -7.3026181     139.1768  0.029738633  0.030648258            2 
  391000    1.0685218    -7.309058     140.1972  0.029880051  0.030631374            2 
  392000    1.0847345     -7.31573    140.23309  0.029811456  0.030614316            2 
  393000    1.1235634    -7.273833    140.39261  0.029769424  0.030597365            2 
  394000    1.0816241   -7.3394574    140.59965  0.029737658  0.030580643            2 
  395000    1.1012215   -7.2948446    140.81606   0.02970803  0.030563358            1 
  396000    1.1049952   -7.2736685      141.594  0.029796718  0.030546695            1 
  397000    1.1177459   -7.3589157    141.72046  0.029748206  0.030530243            1 
  398000     1.087618   -7.3264512    141.62725  0.029653946  0.030513428            1 
  399000     1.087533   -7.3698673     141.6695  0.029588451   0.03049615            1 
  400000    1.0971007   -7.2767383    142.41081   0.02966892  0.030478735            4 
  401000    1.1065733   -7.3280257    142.63027  0.029640538  0.030460752            3 
  402000    1.0851379   -7.3344019    142.97067  0.029637369  0.030442882            3 
  403000    1.0976006   -7.3270975    143.12053  0.029594816  0.030425385            2 
  404000     1.098621   -7.3419181    143.25492  0.029549283  0.030407898            2 
  405000    1.1161922   -7.3098993    143.62245  0.029551945  0.030390105            1 
  406000    1.0795928   -7.3330243    144.40573  0.029639928  0.030373377            1 
  407000    1.0805719   -7.3376149    144.56295  0.029599294  0.030356548            1 
  408000    1.1035284   -7.3153177    144.96633  0.029609136  0.030340323            3 
  409000    1.1075623   -7.2823451    145.82322  0.029711332  0.030324192            1 
  410000    1.1098861   -7.3500696    145.45268  0.029563553  0.030308363            1 
  411000    1.0999257   -7.3954935    145.06459  0.029412934  0.030291384            1 
  412000    1.0935864   -7.3740706    145.48021  0.029425609  0.030273841            1 
  413000    1.1081233   -7.3503161    145.76995  0.029412822  0.030255494            2 
  414000    1.0990993   -7.3269916    146.26631  0.029441689  0.030237542            1 
  415000     1.080042   -7.3511234    146.57489  0.029432709  0.030220538            1 
  416000    1.1042656   -7.3384751    146.88408  0.029423894  0.030203074            1 
  417000    1.1039054   -7.3512561     147.0343  0.029383353  0.030185509            1 
  418000    1.0635144   -7.3051771    147.69778  0.029445331  0.030167806            1 
  419000    1.0971041   -7.3519016    147.47049   0.02932985  0.030150126            2 
  420000    1.0940075     -7.31884    147.51735  0.029269316  0.030132396            3 
  421000    1.0659112   -7.3310051    148.07275  0.029309728  0.030114662            1 
  422000    1.0767214   -7.3669556    148.11698  0.029249009  0.030096874            3 
  423000    1.1068945    -7.378235    148.42844  0.029241222  0.030079262            1 
  424000     1.092125   -7.3451369    149.26597  0.029336866   0.03006164            1 
  425000    1.0874062   -7.3334083    149.35966  0.029286207  0.030045484            1 
  426000    1.0838119   -7.3537997     149.7279  0.029289495  0.030029297            1 
  427000    1.0990522   -7.3552733    150.40637  0.029353312  0.030012338            2 
  428000     1.094445   -7.3214785     150.4824  0.029299533  0.029995631            2 
  429000    1.1037631   -7.3495501    150.92289    0.0293168  0.029979569            1 
  430000    1.0790327   -7.3379963    151.03946  0.029271212   0.02996311            1 
  431000    1.0781122   -7.3120951    151.02282  0.029200082  0.029946286            2 
  432000    1.0779258   -7.3168814      151.828  0.029287809   0.02992968            1 
  433000    1.0831073   -7.3341742    151.64202  0.029184377  0.029912761            4 
  434000    1.0811517   -7.3591492    151.74836  0.029137549  0.029895888            4 
  435000    1.0913417   -7.3523304    152.21874  0.029160679  0.029878599            1 
  436000    1.0613023   -7.4282247    151.90665  0.029034145  0.029861272            2 
  437000    1.0871898   -7.3482269    153.13916  0.029202738  0.029844351            2 
  438000     1.075097   -7.3476606    153.55379  0.029214953  0.029827928            2 
  439000    1.0651446   -7.3985008    153.01718  0.029046541  0.029810337            3 
  440000    1.0775308   -7.3244106    153.78594  0.029126125  0.029792497            3 
  441000    1.0617317   -7.3627199    153.70787  0.029045326  0.029774729            3 
  442000    1.0792964   -7.3266788    153.20128  0.028884102  0.029757415            1 
  443000    1.0984652   -7.3537261    154.82048  0.029123491  0.029739857            2 
  444000    1.0789385   -7.3851941    154.20402  0.028942196  0.029722512            2 
  445000    1.0782984   -7.3653962    154.97942  0.029022363  0.029705232            1 
  446000    1.0965697   -7.4062399    154.42209  0.028853156   0.02968682            2 
  447000    1.0821624   -7.3560421    155.46658   0.02898333   0.02966938            1 
  448000    1.0787288   -7.3981751    155.41193   0.02890847   0.02965205            3 
  449000    1.0916393    -7.342704    155.60886  0.028880635  0.029634762            1 
  450000    1.0800866   -7.4015384    155.60915   0.02881651  0.029617136            5 
  451000    1.0452014   -7.3410106    155.43972  0.028721309  0.029598789            1 
  452000    1.0669915   -7.3902924    156.51208  0.028855472  0.029580367            2 
  453000     1.087042   -7.3914001    156.41776  0.028774423  0.029562534            2 
  454000    1.0509615   -7.3449969     156.6456  0.028752864  0.029544693            1 
  455000    1.0841633   -7.3391348    157.79526  0.028900231  0.029527009            1 
  456000    1.0653964   -7.4102044    157.25071  0.028737337  0.029508712            2 
  457000    1.0761172   -7.3841228    157.75131  0.028765738  0.029491028            1 
  458000    1.0388131   -7.3662482    158.01861  0.028751566  0.029472725            1 
  459000    1.0633604   -7.3873717      158.069  0.028698076  0.029454477            2 
  460000    1.0782984   -7.4037394     158.2592  0.028670145   0.02943618            2 
  461000    1.0673276   -7.3992745    158.79067  0.028704025  0.029417977            1 
  462000    1.0623513   -7.4241723    158.66322  0.028618907  0.029399136            2 
  463000    1.0709001   -7.3597707    158.95844   0.02861023  0.029380199            3 
  464000    1.0589734   -7.3674896    159.68975  0.028679912  0.029361368            3 
  465000    1.0803394   -7.4231402    158.94734  0.028485186  0.029342563            1 
  466000    1.0439894   -7.3732358    159.94758   0.02860293  0.029323602            2 
  467000    1.0632637   -7.4019515    160.10623  0.028569991   0.02930559            1 
  468000    1.0705931   -7.3883442    160.73888  0.028621596  0.029287335            2 
  469000    1.0692225   -7.4025002    160.95146   0.02859834  0.029269105            2 
  470000    1.0665693   -7.3675626    160.96252  0.028539454   0.02925098            4 
  471000    1.0398976   -7.3677779    161.30542  0.028539529  0.029233142            2 
  472000    1.0524346   -7.3911165    161.55744   0.02852356  0.029214786            1 
  473000    1.0506096   -7.3908779    161.61009  0.028472532  0.029196656            1 
  474000    1.0634799   -7.4338843    161.36893  0.028370065  0.029178608            1 
  475000    1.0666694   -7.3633404    162.19066  0.028454501  0.029160647            2 
  476000    1.0638832   -7.4140873    162.28433  0.028411122  0.029142915            1 
  477000     1.086304   -7.4078944    162.43892  0.028378568  0.029124706            1 
  478000    1.0395655   -7.3996755    162.49652   0.02832924  0.029106001            2 
  479000    1.0538148   -7.4062866    163.04892  0.028366201  0.029087688            2 
  480000    1.0633144   -7.4268923    163.44059  0.028375102  0.029069406            1 
  481000     1.045659   -7.4159481    163.74526  0.028368895  0.029051143            3 
  482000    1.0288715    -7.425823    163.88759  0.028334646  0.029032412            2 
  483000    1.0720977   -7.3518097    164.41873   0.02836762   0.02901413            2 
  484000    1.0721635   -7.4059277    164.50033   0.02832306  0.028996087            3 
  485000    1.0500732    -7.364028    164.47997  0.028261163  0.028977907            2 
  486000    1.0712154   -7.3974308     164.8937  0.028273953  0.028959175            2 
  487000    1.0533968   -7.4023666    165.11727  0.028254152  0.028941286            2 
  488000    1.0821664   -7.3945385    165.71349  0.028298069  0.028923858            2 
  489000    1.0596135   -7.4058412    165.81657  0.028257766  0.028905739            1 
  490000    1.0418498    -7.433649     165.1178  0.028081258  0.028887401            3 
  491000    1.0575536   -7.3732717    165.94085  0.028163756  0.028869341            1 
  492000    1.0936146   -7.3969711    166.42721   0.02818889  0.028851118            1 
  493000    1.0711025   -7.3886966     166.8773  0.028207792  0.028833361            2 
  494000    1.0752118   -7.3970303    167.08644  0.028185971  0.028815934            2 
  495000    1.0280659   -7.4260134     167.7107  0.028234125  0.028798404            1 
  496000    1.0638157   -7.4148075    167.28627  0.028105892  0.028780767            1 
  497000     1.059633   -7.4154067    167.35167  0.028060307  0.028763163            1 
  498000    1.0649031   -7.4009828    168.47549  0.028192017  0.028746421            1 
  499000    1.0864877   -7.4307435    169.01586  0.028225761  0.028729562            2 
  500000    1.0522378   -7.4521551    168.90564  0.028150939  0.028712778            1 
  501000    1.0446427    -7.443294    169.47159  0.028188887   0.02869606            2 
  502000    1.0616997   -7.4228242    169.59544  0.028153294  0.028679894            4 
  503000    1.0167284   -7.4095087    169.96254  0.028158141  0.028663218            2 
  504000     1.053975   -7.3802734    170.13973   0.02813157  0.028647518            3 
  505000     1.033049   -7.3589099    171.12492  0.028238436  0.028631955            1 
  506000    1.0479502   -7.4298183    170.86888  0.028140461  0.028616543            2 
  507000    1.0715352   -7.4052892    171.25414  0.028148281  0.028601204            1 
  508000    1.0689174   -7.3795696     171.8802   0.02819557  0.028586461            2 
  509000    1.0542808   -7.4000182    171.75871  0.028120286  0.028571418            1 
  510000    1.0569659   -7.4211977    172.29119  0.028152156  0.028555725            1 
  511000    1.0452209   -7.4182034    172.34831  0.028106378  0.028540293            1 
  512000    1.0495842   -7.4269959      172.333  0.028048991  0.028524743            5 
  513000    1.0388594   -7.4180816    173.07008  0.028114047  0.028509263            2 
  514000    1.0309694   -7.4470016    172.71349  0.028001538  0.028493274            1 
  515000    1.0624828   -7.4360461    172.59364  0.027927774  0.028476714            2 
  516000    1.0394125    -7.407697    173.34232  0.027994561  0.028460317            1 
  517000    1.0354129   -7.4636542    173.21202   0.02791941  0.028444333            4 
  518000    1.0484075   -7.4093228    173.02698  0.027835743  0.028427919            1 
  519000    1.0575535    -7.432221    173.34236  0.027832749   0.02841118            1 
  520000     1.019511   -7.4047642    174.11818  0.027903555  0.028394469            3 
  521000    1.0115216   -7.4475704    173.88842  0.027813247   0.02837755            1 
  522000    1.0352306    -7.454133    173.70854  0.027731248  0.028360523            1 
  523000    1.0429067   -7.4192318    174.78281  0.027849396   0.02834372            1 
  524000    1.0255408   -7.4485014    174.28078  0.027716408  0.028326961            2 
  525000    1.0460066   -7.4295323     175.3385  0.027831508  0.028310524            1 
  526000     1.053412   -7.4033748    175.19967  0.027756602  0.028293589            2 
  527000    1.0452585   -7.4038369    175.14012  0.027694516  0.028276843            2 
  528000    1.0306981   -7.4575039    175.82644  0.027750386  0.028259992            1 
  529000    1.0471322   -7.4111048    175.86174  0.027703488  0.028242809            2 
  530000    1.0531198   -7.4458185    175.78517  0.027639178  0.028225721            6 
  531000     1.021488   -7.4277892    175.98005  0.027617711   0.02820847            1 
  532000    1.0357525    -7.481013    176.21125  0.027602013  0.028190881            2 
  533000    1.0141799   -7.4753159    176.32433  0.027567907  0.028173397            4 
  534000    1.0408756    -7.462936     177.1969   0.02765245  0.028155776            2 
  535000    1.0295155   -7.4188379    176.88466  0.027552127  0.028138229            2 
  536000    1.0665862   -7.4623495    177.21074  0.027551421  0.028121002            3 
  537000     1.030531   -7.4313897    177.88266  0.027604385  0.028103513            1 
  538000    1.0488927   -7.4477058    177.92587  0.027559769  0.028086161            3 
  539000    1.0337137   -7.4026959     178.1724  0.027546754  0.028069142            1 
  540000    1.0407066   -7.4412643     178.3001  0.027515447  0.028052434            2 
  541000    1.0312381   -7.4932324    177.80035  0.027387608  0.028035292            1 
  542000    1.0208292   -7.4377873    178.56908   0.02745527  0.028017323            3 
  543000    1.0492861   -7.4109893    179.22822  0.027505866  0.027999914            1 
  544000    1.0218586   -7.4501556    179.23971  0.027457064  0.027982456            1 
  545000    1.0521568   -7.4247243    179.25804  0.027409486  0.027964942            2 
  546000    1.0497819   -7.4113441    180.08178  0.027485009  0.027947561            2 
  547000    1.0283562   -7.4499877    179.48383  0.027343667  0.027930494            2 
  548000    1.0461818   -7.4702525     180.0472  0.027379441  0.027913352            1 
  549000    1.0265397   -7.4213785    180.41215  0.027384966  0.027896696            1 
  550000    1.0212473   -7.4794525    180.30837   0.02731945  0.027879964            6 
  551000    1.0310444   -7.5156517    180.17229  0.027249288  0.027862859            1 
  552000    1.0101254   -7.4760667    181.19666  0.027354569  0.027845961            1 
  553000    1.0281555   -7.4740834    181.60135  0.027366087  0.027829234            3 
  554000    1.0484863   -7.4786542    181.74982  0.027339023  0.027812703            2 
  555000    1.0397965   -7.4603964    182.20823  0.027358593  0.027796723            1 
  556000     1.019973   -7.4316381    182.59142   0.02736682    0.0277804            2 
  557000    1.0276318   -7.5011072    181.64081  0.027175465  0.027763639            1 
  558000    1.0226764   -7.4431244     182.8829  0.027312261  0.027747286            2 
  559000    1.0301719   -7.4670961    182.78365  0.027248607  0.027731098            2 
  560000    1.0200111   -7.4743298    182.62809  0.027176799  0.027714652            1 
  561000    1.0292151   -7.4618609    183.46702  0.027252974  0.027697869            1 
  562000    1.0322433   -7.4880827    183.79845  0.027253626  0.027681778            1 
  563000    1.0341157   -7.4589934    183.92649  0.027224169  0.027665365            2 
  564000    1.0361823   -7.4966354    183.92858  0.027176209  0.027649077            5 
  565000    1.0437604   -7.4945366    184.42894  0.027201908   0.02763275            1 
  566000    1.0218155   -7.4634803    184.85889   0.02721715  0.027616654            2 
  567000    1.0295613   -7.4758278     184.7886  0.027158818  0.027600557            2 
  568000    1.0174379   -7.4668677    185.15729  0.027165095  0.027584513            2 
  569000    1.0395809   -7.5134015    184.91549   0.02708194  0.027567907            6 
  570000    1.0256499   -7.5175636    185.20546  0.027076822  0.027551358            1 
  571000    1.0287863   -7.4525754    185.90026  0.027130802   0.02753489            2 
  572000    1.0090803    -7.476767    185.93613  0.027088597  0.027518316            1 
  573000    1.0166013   -7.4806318    185.89894  0.027035913  0.027501189            1 
  574000    1.0094073   -7.5063383     186.1141   0.02702005  0.027484542            2 
  575000    1.0409437   -7.4998642    186.85314  0.027080165  0.027468184            1 
  576000     1.000033   -7.4839785     186.8145  0.027027561  0.027451903            1 
  577000    1.0262307   -7.5088556    186.88492   0.02699089  0.027435732            1 
  578000    1.0150183   -7.4819092    187.95844  0.027098967  0.027419535            3 
  579000    1.0292493   -7.4963334    187.51177  0.026987877  0.027404231            3 
  580000    1.0272395   -7.4683083     188.4456  0.027075517  0.027388812            2 
  581000    1.0406138   -7.4834847    188.59314  0.027050077  0.027372901            3 
  582000    1.0322815   -7.4908916    188.67791  0.027015738  0.027357051            2 
  583000    1.0059877    -7.487294    189.22675  0.027047848   0.02734147            1 
  584000    1.0245988   -7.4994112    189.06993  0.026979156   0.02732609            3 
  585000    1.0245929   -7.5313834    189.33054  0.026970162  0.027310897            1 
  586000    1.0275203   -7.5230923    189.88325  0.027002738  0.027295191            2 
  587000    1.0176484   -7.4927691    190.23227  0.027006285  0.027280172            2 
  588000    1.0149732   -7.4994374    189.72604  0.026888611  0.027264802            3 
  589000      1.00031   -7.5237435    189.76594  0.026848606  0.027249344            2 
  590000    1.0241756   -7.5054618    190.82024  0.026952011  0.027234122            1 
  591000   0.99288609   -7.5034273    190.59747  0.026874995  0.027218669            3 
  592000   0.99264144   -7.4955556    190.39922  0.026801692  0.027203118            2 
  593000    1.0146635   -7.5017241    191.42143  0.026900145  0.027187485            1 
  594000    1.0141786   -7.4990546    191.49981  0.026865855  0.027171912            1 
  595000    1.0129352   -7.4828717    192.08502  0.026902663  0.027156279            1 
  596000    1.0091541   -7.4826512    191.91104    0.0268332  0.027140853            1 
  597000    1.0059865   -7.4849267     191.4617  0.026725531  0.027125204            1 
  598000    1.0438488    -7.510457    191.85845  0.026736127  0.027109327            1 
  599000     1.021573   -7.5097788    191.82358  0.026686642  0.027093508            2 
  600000    1.0033715   -7.4611267    192.66036  0.026758384  0.027077948            2 
  601000    1.0081536   -7.5083039    192.99504  0.026760267  0.027062458            2 
  602000    1.0069896    -7.520332    192.32628  0.026623239  0.027046887            2 
  603000    1.0385484   -7.5542383    192.42948   0.02659335  0.027030918            1 
  604000    1.0019837   -7.5243551    193.34891  0.026676174  0.027015061            2 
  605000    1.0096088   -7.5225701    193.47474  0.026649413  0.026999168            2 
  606000    1.0168997   -7.5330994    193.04428  0.026546243  0.026983242            3 
  607000     1.026373   -7.5246884    193.76509  0.026601467   0.02696723            1 
  608000    1.0151031   -7.5074056    193.72804  0.026552637  0.026950956            2 
  609000   0.98898527   -7.5555613    193.49904  0.026477702  0.026934592            1 
  610000    0.9933962   -7.5397201    193.85708  0.026483207  0.026918064            2 
  611000    1.0024261   -7.5189275    193.83303  0.026436583  0.026901522            2 
  612000    1.0062576   -7.5049707    194.22976  0.026447407  0.026885151            3 
  613000     1.000467   -7.5189275    194.11823  0.026389101  0.026868578            1 
  614000    1.0123597   -7.5455889    194.91211  0.026453869  0.026851931            2 
  615000     1.003466   -7.5169618    194.41128  0.026342992  0.026835079            2 
  616000   0.99386262   -7.5047267    194.77218  0.026349051  0.026817976            3 
  617000    1.0106425   -7.5265433    194.93779  0.026328713   0.02680068            3 
  618000    1.0212597    -7.554362     195.0422  0.026300188  0.026783711            2 
  619000    1.0064446   -7.5645655    195.19922   0.02627884  0.026766959            3 
  620000   0.99957584   -7.5315809    196.14101   0.02636304  0.026750352            2 
  621000   0.99543503   -7.5089932    196.58019  0.026379521  0.026733844            3 
  622000    1.0291954   -7.5305345     196.3452  0.026305628  0.026717434            2 
  623000    1.0103961   -7.5097638    196.39901  0.026270601  0.026700985            2 
  624000   0.99822616   -7.5348699     196.6799  0.026266012  0.026684457            3 
  625000    1.0115322   -7.5345202    197.06538  0.026275384  0.026668234            1 
  626000   0.98526182   -7.5737335    196.77481   0.02619473  0.026651752            1 
  627000   0.99483101   -7.5373242    197.70101  0.026276051  0.026635171            2 
  628000   0.97762359   -7.5213013    197.45928  0.026202134  0.026618585            1 
  629000     1.014894    -7.532468    197.76382  0.026200823  0.026602238            1 
  630000    1.0197903   -7.5576781    197.97421  0.026187065  0.026585828            2 
  631000   0.99129739    -7.534121    198.56588  0.026223703  0.026569753            1 
  632000    1.0255926   -7.4981641    199.45639   0.02629963  0.026553729            2 
  633000   0.98866361   -7.5609786    198.34087  0.026111226  0.026537491            1 
  634000   0.99100029   -7.5261593     199.2174  0.026185253   0.02652104            1 
  635000   0.99376726   -7.5761099    199.09454  0.026127893  0.026504449            1 
  636000    1.0144435    -7.549531    198.78483   0.02604623  0.026487586            1 
  637000    1.0011861   -7.5722454    198.48511  0.025966132  0.026470773            2 
  638000    1.0017585    -7.569212    199.04858  0.025999031  0.026453619            5 
  639000   0.99047954    -7.544131    199.27013  0.025987236  0.026436357            2 
  640000     1.011865   -7.5096705    200.19163  0.026066619  0.026419386            4 
  641000    1.0070016   -7.5204708    200.17936  0.026024358  0.026402758            1 
  642000   0.98297782   -7.5343746    200.42264  0.026015399  0.026386302            1 
  643000   0.99065441   -7.5622715    200.61604  0.026000005  0.026369649            1 
  644000   0.98529617   -7.5267897    200.86079  0.025991303  0.026352945            1 
  645000    1.0032029   -7.5563436    200.39862  0.025891294   0.02633613            1 
  646000    1.0099315   -7.5538716     200.8046  0.025903586  0.026319111            2 
  647000    1.0016619   -7.5757768    200.72259  0.025852986  0.026302113            6 
  648000    1.0006667    -7.544596    201.43462  0.025904659   0.02628507            2 
  649000   0.98595776   -7.6029597    200.86071  0.025791051  0.026268048            1 
  650000    1.0164959   -7.5456523    201.76506  0.025867315  0.026251066            2 
  651000   0.96847108    -7.542451    202.14055  0.025875647  0.026234394            3 
  652000   0.98459921   -7.5412298    201.96098  0.025813009  0.026217533            2 
  653000    1.0087334   -7.5525572    202.07264  0.025787728  0.026200544            2 
  654000   0.98432532   -7.5795519     202.1063  0.025752587  0.026183988            1 
  655000   0.98064852   -7.5630962    202.97974  0.025824395  0.026167308            1 
  656000    1.0171421   -7.5808675    202.51816  0.025726392  0.026150505            3 
  657000   0.96385409     -7.58453    202.42728  0.025675707  0.026133686            2 
  658000   0.98497029   -7.5926189    202.79658  0.025683457  0.026117017            4 
  659000   0.98349551    -7.547224     203.5946  0.025745397  0.026100052            1 
  660000   0.99930207   -7.5651906    203.82165  0.025735057  0.026083224            3 
  661000   0.98895331   -7.5943438    203.67522  0.025677662  0.026066294            2 
  662000   0.98391959   -7.5669724    203.03934  0.025558829  0.026049192            1 
  663000   0.98823206   -7.5935611    203.55266  0.025584798  0.026032054            1 
  664000   0.98567127   -7.5724332    204.30133  0.025640227  0.026014974            1 
  665000   0.98725181   -7.5763457     203.7305  0.025530138  0.025998097            5 
  666000    1.0023316   -7.5795616    204.85813  0.025632899   0.02598106            1 
  667000   0.99517331   -7.5787257    204.46958  0.025545924  0.025964279            1 
  668000   0.98427819   -7.5621846     204.5851  0.025522093  0.025946909            2 
  669000   0.96921163   -7.5445453    204.70018  0.025498279  0.025929861            2 
  670000   0.97558957   -7.5932317    204.46215  0.025430616  0.025912439            2 
  671000   0.98994149   -7.6134252     204.6403  0.025414841  0.025894802            1 
  672000   0.97450559   -7.5799614    204.86381  0.025404738  0.025877347            1 
  673000   0.95943188   -7.5781138    205.34236  0.025426245  0.025859816            1 
  674000   0.99445917   -7.5580239    205.71124   0.02543413  0.025842309            1 
  675000   0.98179261   -7.5846729    205.56392  0.025378262  0.025824975            2 
  676000   0.99620089   -7.5505359     205.5796  0.025342653  0.025807483            1 
  677000   0.98887386   -7.5621375    205.98785  0.025355472  0.025790053            2 
  678000   0.98372374   -7.5862808    205.43888    0.0252506  0.025772446            2 
  679000   0.98110969   -7.5932411    205.63645  0.025237659  0.025754298            3 
  680000   0.98006977   -7.5621251    206.02621   0.02524831  0.025736287            3 
  681000   0.96106898   -7.6165393     205.4556   0.02514141  0.025718308            1 
  682000   0.97700328   -7.6335002     205.9876   0.02516955  0.025700118            2 
  683000   0.99404736   -7.5998011    206.06734  0.025142428   0.02568176            1 
  684000    0.9583782   -7.6253335    205.57014  0.025045095  0.025663319            3 
  685000   0.98375493   -7.5998988    205.97675  0.025057999  0.025644857            5 
  686000   0.97078922   -7.6235491     206.4251  0.025075935   0.02562634            2 
  687000   0.98241738   -7.6124958    206.78384   0.02508295  0.025607978            2 
  688000   0.97014414   -7.5535687    207.46203  0.025128637  0.025589682            3 
  689000   0.97920971    -7.631735    207.18395  0.025058532  0.025571407            2 
  690000   0.98036802   -7.6282329    206.95435  0.024994487  0.025553355            3 
  691000   0.98466855    -7.590206      207.712  0.025049686  0.025535392            1 
  692000   0.96913682   -7.5888864     208.1094  0.025061344  0.025517523            3 
  693000   0.97907993   -7.5754168    208.70131  0.025096358  0.025499986            2 
  694000   0.98778515   -7.5889042    208.49971  0.025035989  0.025482655            1 
  695000   0.96221095   -7.5828461    208.79777  0.025035704  0.025464984            1 
  696000   0.97276334   -7.6232975    207.88031  0.024889884  0.025447372            2 
  697000   0.97783263   -7.5909682    209.52904  0.025051296   0.02542992            1 
  698000   0.97298664    -7.619051    208.93371   0.02494433  0.025412711            2 
  699000   0.98086045   -7.5902806    209.39833  0.024964036   0.02539538            2 
  700000   0.98428855   -7.6323213    209.41973   0.02493092  0.025377798            3 
  701000   0.98870783   -7.5495387    210.18311  0.024986104  0.025360164            2 
  702000   0.96475011   -7.6171688    209.90959  0.024918042  0.025342628            4 
  703000   0.96687431   -7.5761637    210.41106  0.024942041  0.025324904            2 
  704000   0.99903682   -7.6136268    209.86126  0.024841532  0.025307383            1 
  705000   0.97768225   -7.6127327     210.1263  0.024837625  0.025289924            1 
  706000    0.9816539   -7.6210056    210.66983  0.024866599  0.025272185            3 
  707000   0.97883403   -7.5987504    210.46884  0.024807737  0.025254585            3 
  708000   0.95443729    -7.624174    210.75042  0.024805841  0.025236976            2 
  709000   0.98285272   -7.5927939    210.62296  0.024755872  0.025219436            2 
  710000   0.95753717   -7.6081986    210.90721  0.024754367  0.025202006            2 
  711000   0.97539268   -7.6197345    211.43735  0.024781686  0.025184708            2 
  712000   0.96223125   -7.6177743    211.57713   0.02476324  0.025167119            2 
  713000   0.97438104   -7.6465522    211.56485  0.024727075  0.025149628            1 
  714000   0.97026623   -7.6368527    211.30608   0.02466224  0.025131823            1 
  715000   0.98097247   -7.6116739    212.15959  0.024727224  0.025114252            2 
  716000   0.95890599   -7.6117425    212.51067   0.02473355  0.025096851            1 
  717000   0.97500951   -7.5945413    212.35166  0.024680574  0.025079594            2 
  718000   0.96389039   -7.6222185    212.54984  0.024669201  0.025062076            1 
  719000   0.96736823   -7.5933042    213.14764  0.024704177  0.025044848            3 
  720000   0.97202106    -7.615985    212.82568  0.024632602   0.02502797            1 
  721000   0.96694902   -7.5835104    213.66879  0.024695884  0.025011093            1 
  722000   0.95629552   -7.5993263      213.696   0.02466482  0.024994128            2 
  723000   0.95103215   -7.6200649    213.94678   0.02465961  0.024977402            1 
  724000   0.98047921   -7.6175478    213.72269  0.024599757  0.024960595            3 
  725000   0.96561691   -7.6317363    214.51932  0.024657393  0.024943493            2 
  726000   0.99637736   -7.6563907    212.89621  0.024437122  0.024926385            4 
  727000   0.95461924   -7.6315547    214.21853  0.024555082  0.024909351            2 
  728000   0.94519259   -7.6401945       213.85  0.024479166  0.024892185            5 
  729000   0.94362227   -7.6068059      214.535  0.024523891  0.024875205            1 
  730000   0.95810726   -7.6425899    214.15073  0.024446431  0.024858226            2 
  731000   0.93057236   -7.6360037    214.80036  0.024487045  0.024841286            2 
  732000   0.94712292   -7.6797285     214.5543   0.02442558  0.024823992            2 
  733000   0.96110139   -7.6661567    214.88426   0.02442977  0.024806623            5 
  734000   0.97726526   -7.6246091    214.40838  0.024342459  0.024789005            2 
  735000   0.94760546   -7.6460137    214.49839  0.024319546  0.024771421            2 
  736000   0.96764298   -7.6263696    214.60965  0.024299099  0.024753873            3 
  737000    0.9667863   -7.6625529    215.78638  0.024399183  0.024736486            2 
  738000   0.95904195    -7.660701    215.29884  0.024311071   0.02471915            4 
  739000   0.94599255   -7.6579941    215.75303   0.02432939  0.024701853            3 
  740000   0.97711915   -7.6458357    216.14806  0.024340997  0.024684611            2 
  741000   0.95333976   -7.6675488    214.99111  0.024178037  0.024667222            3 
  742000   0.93897867   -7.6549937    216.49021  0.024313815  0.024649792            1 
  743000   0.94357787   -7.6729659    216.44238  0.024275727  0.024632462            4 
  744000    0.9621563   -7.6482454    216.41106   0.02423959  0.024615101            3 
  745000   0.97361527   -7.6551743    216.87259  0.024258679  0.024597866            6 
  746000   0.96881182   -7.6932314    216.52328   0.02418714   0.02458058            2 
  747000   0.94104927   -7.6324439      217.768  0.024293619  0.024563473            2 
  748000   0.95707968   -7.6612844    217.54135   0.02423589  0.024546549            1 
  749000   0.95546563   -7.6247198    217.38405  0.024186031  0.024529568            2 
  750000   0.93964835   -7.6348694    217.50759   0.02416751  0.024512649            3 
  751000   0.94769728   -7.6473622    217.85309  0.024173668  0.024495863            2 
  752000   0.97715523   -7.6380458     218.7008  0.024235461  0.024479235            1 
  753000   0.94239164   -7.6222964    218.08725  0.024135375  0.024462439            2 
  754000   0.94542005   -7.6318836    218.91522  0.024194874  0.024445779            2 
  755000   0.95050233   -7.6685981    218.32498   0.02409768  0.024429101            2 
  756000   0.97304701   -7.6616383     219.0016  0.024140388  0.024412509            2 
  757000   0.94811994   -7.6248847    219.50973  0.024164436  0.024395946            2 
  758000   0.94503857   -7.6160184    218.98269  0.024074614  0.024379195            1 
  759000   0.92737834   -7.6378871    219.49414   0.02409905  0.024362263            2 
  760000   0.96652738    -7.636414     219.7984  0.024100702  0.024345325            1 
  761000   0.95374281   -7.6666135    219.17351  0.024000603  0.024328521            1 
  762000    0.9341514   -7.6679722    219.64208   0.02402035  0.024311678            2 
  763000   0.92803748   -7.6737516    219.15579  0.023935757  0.024294764            1 
  764000   0.96217158   -7.6582952    219.80176  0.023974887  0.024277886            2 
  765000   0.96275523   -7.6713279    219.10054  0.023867162  0.024260999            3 
  766000   0.95161144   -7.6614145    220.36006  0.023973027  0.024243928            3 
  767000   0.93044929   -7.6744999    220.25776  0.023930656  0.024227116            3 
  768000    0.9461062   -7.6902266    219.88802  0.023859377  0.024210063            3 
  769000   0.93105007   -7.6657479    220.36181  0.023879694  0.024193159            1 
  770000   0.93893796    -7.658167    220.50574  0.023864258  0.024176344            1 
  771000   0.94254087   -7.6816662    220.56363  0.023839562  0.024159326            2 
  772000   0.91989734   -7.6768276    220.18429  0.023767734  0.024142292            5 
  773000   0.94278958   -7.6837069    220.60903  0.023782776  0.024125117            1 
  774000   0.94741497   -7.6897116    220.45105   0.02373504  0.024107745            2 
  775000   0.95797546   -7.6873085    220.39131   0.02369799  0.024090519            2 
  776000   0.93897055    -7.660859    221.33151  0.023768419  0.024073241            1 
  777000   0.92527143   -7.7133624    221.20693  0.023724467  0.024056204            1 
  778000   0.93391687   -7.6924549    220.64521  0.023633806  0.024039068            3 
  779000    0.9506983   -7.6770585    221.98095  0.023746357  0.024021914            1 
  780000   0.93050517     -7.65888    221.99238  0.023717134  0.024004917            3 
  781000   0.94741655   -7.7124245    222.01632  0.023689321  0.023987885            1 
  782000   0.92320973   -7.6989435    222.32021  0.023691412   0.02397107            1 
  783000   0.95412638    -7.699609    221.86204  0.023612392  0.023954294            1 
  784000   0.95468923   -7.6740434    223.61587  0.023768693  0.023937866            2 
  785000   0.93344304   -7.6365261    222.88216  0.023660527  0.023921458            2 
  786000   0.93687587   -7.6967647    222.86904  0.023629033  0.023904936            3 
  787000   0.92253129   -7.6647472     222.9095  0.023603293  0.023888258            1 
  788000   0.93377794   -7.6902561    222.91353  0.023573766  0.023871418            5 
  789000   0.92887549   -7.6760458    223.43634  0.023599107  0.023854795            1 
  790000   0.92924775   -7.7116635    223.53311  0.023579442    0.0238383            5 
  791000   0.92821525   -7.7004007    224.08162  0.023607418  0.023821749            1 
  792000   0.92665611   -7.6722286    224.76523  0.023649541  0.023805333            4 
  793000   0.95273937   -7.7054934     224.3051  0.023571364  0.023788973            3 
  794000   0.91560418   -7.7311302    224.50703   0.02356287  0.023772651            1 
  795000   0.95022372   -7.7010879    224.23089  0.023504286  0.023756386            1 
  796000   0.92309181    -7.683011    224.94603  0.023549626  0.023739842            2 
  797000   0.95382248   -7.6949153    224.36795  0.023459635  0.023723474            2 
  798000   0.95041488   -7.7095373    224.89651  0.023485433  0.023706938            1 
  799000   0.92398973   -7.7051015    224.88887  0.023455243  0.023690484            2 
  800000   0.93003535   -7.7018108    225.04661  0.023442355  0.023674061            3 
  801000   0.92560099   -7.6970996    224.87586  0.023395324  0.023657425            1 
  802000   0.94394714   -7.7172982    225.16819  0.023396528  0.023640789            1 
  803000   0.93158569   -7.7430041    225.03486  0.023353555  0.023624392            3 
  804000   0.93061181   -7.7262317    225.49416  0.023372114  0.023608067            4 
  805000   0.93840593   -7.6918748    226.15342  0.023411327  0.023591766            1 
  806000   0.94763171   -7.7384028    225.65461  0.023330708  0.023575398            5 
  807000   0.93940868   -7.7373413    225.67338  0.023303736   0.02355877            4 
  808000   0.91907629   -7.7184526    226.14791  0.023323836  0.023542258            2 
  809000   0.92820853   -7.7333776    225.79635  0.023258792  0.023525763            2 
  810000   0.94541453   -7.7292278    226.26262  0.023278047  0.023509068            3 
  811000   0.91668916   -7.7269889    225.93014  0.023215181  0.023492345            2 
  812000   0.90757185   -7.7200848    226.60206  0.023255548  0.023475775            2 
  813000    0.9308093   -7.7274205    227.28799  0.023297252  0.023459419            2 
  814000   0.94141957   -7.7099989    226.63346  0.023201624   0.02344303            2 
  815000   0.93596454   -7.7010428    226.80336  0.023190528  0.023426739            6 
  816000   0.91510761   -7.6717077    227.57019  0.023240419  0.023410425            1 
  817000    0.9179614   -7.7314564    227.16719  0.023170868  0.023394197            2 
  818000   0.94062399   -7.6795045    227.61643  0.023188308  0.023377943            1 
  819000   0.92885612   -7.7231149    228.01636  0.023200688   0.02336194            1 
  820000   0.93339876   -7.6953576    227.55345  0.023125351  0.023345619            3 
  821000   0.92801528   -7.6835168    227.57457  0.023099327  0.023329071            3 
  822000   0.92369195   -7.6932438    227.77606  0.023091653  0.023312476            5 
  823000   0.92051416     -7.72765    227.13073  0.022998251   0.02329587            1 
  824000   0.93172182   -7.7129479    228.33911  0.023092548  0.023279387            4 
  825000   0.93695784   -7.7316901    227.46481  0.022976244  0.023262799            2 
  826000   0.92487027   -7.7241519    228.10255  0.023012768  0.023246067            2 
  827000   0.92914987   -7.7280318    228.60519  0.023035589   0.02322939            1 
  828000   0.91252108   -7.7492047    227.80025  0.022926756  0.023212762            3 
  829000   0.92885291   -7.7041815    228.73992  0.022993558  0.023196148            3 
  830000   0.91931465    -7.761519    228.17228  0.022908863  0.023179364            3 
  831000    0.9426168   -7.7093546    228.64777  0.022928978  0.023162728            2 
  832000   0.93563659   -7.7362264    228.94614  0.022931304  0.023146127            1 
  833000   0.92100907   -7.7358369      228.897  0.022898859  0.023129639            4 
  834000   0.90980907    -7.749086     228.2618  0.022807934  0.023113026            2 
  835000   0.91030194   -7.7860709    228.21824  0.022776271  0.023096263            5 
  836000   0.92243323   -7.7800261     228.1561  0.022742833  0.023079316            2 
  837000   0.93467949   -7.7744384    228.90471  0.022790195  0.023062384            1 
  838000   0.92147139   -7.7599288    228.85059  0.022757616  0.023045608            2 
  839000   0.92008836   -7.7177867    229.57775  0.022802716  0.023028912            1 
  840000   0.90736047   -7.6912914    229.77071  0.022794713  0.023012377            1 
  841000   0.90515308   -7.7317088    229.67049  0.022757678  0.022995816            2 
  842000   0.89470659   -7.7302503    230.14726  0.022777837  0.022979141            2 
  843000   0.91231955   -7.7478693    229.96673   0.02273297  0.022962433            1 
  844000   0.91983409   -7.7367659    229.81493  0.022691048  0.022945602            2 
  845000   0.91950952   -7.7505697    230.17689   0.02269989  0.022928808            2 
  846000   0.93324494   -7.7467835    230.31194  0.022686361  0.022912351            7 
  847000   0.92983098   -7.7361903     230.4305  0.022671242  0.022895824            2 
  848000   0.90008509   -7.7214654    230.92497  0.022693099  0.022879468            3 
  849000   0.92642952   -7.7683773    230.87633  0.022661595  0.022863133            2 
  850000   0.92994122   -7.7471415    230.68651  0.022616325  0.022846716            1 
  851000   0.90884884   -7.7075197    231.77203  0.022696046  0.022830301            1 
  852000   0.90914344   -7.7575708    231.21051  0.022614486  0.022813838            2 
  853000   0.93524546   -7.7904122    230.92978  0.022560549  0.022797192            4 
  854000   0.91906863   -7.7811271    230.45882  0.022488175  0.022780342            2 
  855000   0.91147768   -7.7631699    231.25831  0.022539796  0.022763715            4 
  856000   0.90717398   -7.7604754    231.62945  0.022549596  0.022747215            1 
  857000   0.91533184   -7.8154459    231.13155  0.022474868  0.022730664            2 
  858000   0.90624267   -7.7932098    231.46088   0.02248066  0.022714043            1 
  859000   0.89962856   -7.7256309     232.0895  0.022515473  0.022697394            4 
  860000   0.88765242   -7.7355783    231.97831  0.022478519  0.022680855            2 
  861000   0.90357587   -7.7064715    232.55016  0.022507758  0.022664398            2 
  862000   0.91078791   -7.7781036    232.30894  0.022458327  0.022647814            4 
  863000   0.91897382   -7.7876666    231.98598  0.022401118  0.022631186            1 
  864000   0.90174494   -7.7708259    232.27511  0.022403078  0.022614653            2 
  865000   0.90939623    -7.757682    232.86044  0.022433568  0.022597946            3 
  866000   0.88923902   -7.7727083    232.36429   0.02235992  0.022581293            3 
  867000   0.90519773   -7.7672074    232.60624  0.022357386  0.022564662            1 
  868000    0.9125917   -7.7864835     232.1105  0.022284035  0.022548137            4 
  869000    0.9069569   -7.7734281    232.69819  0.022314748  0.022531604            2 
  870000   0.91774496    -7.795139    232.08546  0.022230409  0.022515042            3 
  871000    0.9110785   -7.7998486     233.1957  0.022311108  0.022498413            2 
  872000   0.91397531   -7.7969848    232.93048  0.022260176  0.022481922            1 
  873000    0.9151803   -7.7667568    233.13624  0.022254319  0.022465284            2 
  874000   0.91059545   -7.7587182    233.46238  0.022259952  0.022448605            3 
  875000   0.90330373   -7.8116714    233.32676  0.022221596  0.022431811            2 
  876000   0.89830429   -7.7809939    233.39606  0.022202822   0.02241509            3 
  877000   0.90981917   -7.7732306    233.57085  0.022194113  0.022398432            3 
  878000    0.8858843   -7.7904159    233.55082  0.022166934  0.022381671            4 
  879000    0.9122712    -7.770559    233.77719  0.022163177  0.022364782            2 
  880000   0.91181065   -7.7870711     232.6956  0.022035569  0.022347984            3 
  881000   0.88335565   -7.7849918    233.13327  0.022051955  0.022331097            1 
  882000   0.90010467   -7.7710451    233.74259  0.022084523  0.022314325            3 
  883000   0.89621555   -7.7918201    233.44866  0.022031772  0.022297558            1 
  884000   0.90294433   -7.7607718    233.90498  0.022049866  0.022280714            2 
  885000   0.90779756    -7.756579    234.18485  0.022051304  0.022264044            2 
  886000   0.89853572   -7.7654112    234.61063  0.022066463  0.022247476            2 
  887000   0.90551269   -7.7766468    234.29692  0.022012112  0.022230848            1 
  888000   0.88107434   -7.8053323    234.32621  0.021990073  0.022214078            2 
  889000   0.91614284   -7.7926997    233.96035  0.021931041   0.02219716            1 
  890000   0.90518177   -7.8360828    233.51317  0.021864529  0.022180104            1 
  891000   0.92654392   -7.8234583    234.24164  0.021908122  0.022163001            2 
  892000   0.90123821   -7.7967792    234.39349  0.021897747  0.022145944            1 
  893000   0.90529991   -7.8031335    234.15103    0.0218506  0.022129014            1 
  894000   0.89862826   -7.8125445    233.84044  0.021797208  0.022112077            1 
  895000   0.89249692   -7.8016321    234.42394  0.021827182  0.022095087            2 
  896000   0.91574302   -7.7843418    234.98664  0.021855156  0.022078246            2 
  897000   0.89192499   -7.7914325    234.86441  0.021819436  0.022061343            3 
  898000   0.87695542   -7.8249919    234.44374  0.021756101  0.022044319            2 
  899000   0.90235322   -7.8055482     234.9693  0.021780617  0.022027338            2 
  900000   0.88486615   -7.8312667    234.82386   0.02174295  0.022010372            1 
  901000   0.88442346   -7.8494035    235.26585  0.021759697  0.021993391            1 
  902000   0.88446025   -7.8247521    234.51145  0.021665877   0.02197636            3 
  903000   0.90185554   -7.8214227    235.23126  0.021708311  0.021959495            2 
  904000   0.91511002   -7.8232708    235.28354  0.021689117   0.02194245            1 
  905000   0.90898967   -7.7982189    235.74047  0.021707226  0.021925537            1 
  906000   0.89268101   -7.8074981    235.88282   0.02169636  0.021908841            5 
  907000   0.88487216   -7.8374462    235.11686  0.021602064  0.021892044            3 
  908000   0.91308829   -7.8140807    235.91427  0.021651456  0.021875124            4 
  909000   0.88028865   -7.8145053    235.76173  0.021613653  0.021858242            1 
  910000   0.89523304   -7.8527476    235.18613  0.021537191  0.021841327            3 
  911000   0.89469534    -7.834286    235.78858  0.021568659  0.021824531            2 
  912000   0.88203888   -7.8183238    236.51206  0.021611117  0.021807845            2 
  913000   0.89075169    -7.854491    236.52102  0.021588264  0.021791198            1 
  914000    0.8801534   -7.8346666    236.63949  0.021575446  0.021774483            2 
  915000   0.87544887   -7.8016704    237.06199  0.021590345  0.021757737            1 
  916000    0.9049042    -7.821191    236.65588  0.021529829  0.021740941            2 
  917000   0.89568943   -7.8226788    236.50906  0.021493008  0.021724107            2 
  918000   0.90859797    -7.799511    236.78604  0.021494738  0.021707409            2 
  919000   0.86379701   -7.8241326    237.03427  0.021493858  0.021690737            1 
  920000   0.88738124   -7.8207856    237.38205  0.021501997  0.021673995            1 
  921000   0.89766079   -7.7980778      237.988  0.021533478   0.02165734            3 
  922000    0.9021359   -7.8243545    237.53943   0.02146958  0.021640771            2 
  923000   0.88864861   -7.8267229    237.06167  0.021403184  0.021624189            2 
  924000   0.86193662   -7.8257389    237.27068  0.021398871  0.021607526            2 
  925000   0.88793422   -7.8267859    237.85666  0.021428528   0.02159107            2 
  926000   0.88854792   -7.8080202    237.98841  0.021417244  0.021574501            1 
  927000   0.88303192   -7.8007207    237.73452  0.021371316  0.021557995            2 
  928000   0.87242663   -7.8527064    237.81084   0.02135514  0.021541562            2 
  929000   0.89251091   -7.8597249     237.4296  0.021297954  0.021524864            3 
  930000   0.88836891   -7.8923623    237.39093  0.021271588   0.02150814            1 
  931000   0.87878398   -7.8400587    237.83022  0.021288061  0.021491408            1 
  932000   0.89208795   -7.8408557    238.41125  0.021317172  0.021474686            3 
  933000   0.85523641   -7.8155965    238.34237  0.021288172  0.021458046            1 
  934000   0.84449537   -7.8238192    238.33763  0.021264956   0.02144157            2 
  935000   0.87446946   -7.8702316    237.91052  0.021204146   0.02142502            2 
  936000   0.89170629   -7.8180892    238.48143  0.021232321  0.021408459            2 
  937000   0.88965023   -7.8097414    239.10926  0.021265498   0.02139205            1 
  938000   0.87734595   -7.8388458    238.95299  0.021228944  0.021375685            1 
  939000   0.87322741   -7.8276893    238.75424  0.021188697  0.021359235            2 
  940000   0.87890139   -7.8141025    239.29582  0.021214169  0.021342921            2 
  941000    0.8821502   -7.8537138    239.49798  0.021209527  0.021326643            2 
  942000   0.88699054   -7.8273492    238.96327  0.021139709  0.021310386            3 
  943000    0.8756351   -7.8512856    239.11944  0.021131092  0.021293983            2 
  944000   0.87924322   -7.8299889     239.6249  0.021153328  0.021277699            2 
  945000   0.87082682   -7.8592474    239.32959  0.021104902  0.021261368            3 
  946000    0.8806418   -7.8650658    239.91881  0.021134497  0.021245088            1 
  947000   0.86366565   -7.8782738    239.98265  0.021117798  0.021228777            2 
  948000   0.87519572    -7.858214    240.03556  0.021100172  0.021212357            7 
  949000   0.88931388   -7.8196836     240.2423  0.021096093  0.021196139            1 
  950000   0.89944277   -7.8425249    240.31395  0.021080171  0.021179899            2 
  951000   0.87461518   -7.8441704    239.98729   0.02102938  0.021163532            2 
  952000   0.88118172   -7.8571414    240.08712   0.02101603    0.0211471            1 
  953000   0.87493151   -7.8482902    240.16293  0.021000606  0.021130697            1 
  954000   0.88203541   -7.8582752    239.98096  0.020962697    0.0211143            4 
  955000   0.87523911   -7.8248759    241.05916  0.021034831  0.021098165            2 
  956000   0.87352447   -7.8565202    240.81703  0.020991722  0.021082075            4 
  957000   0.85871231   -7.8614503    240.32294  0.020926762   0.02106588            1 
  958000   0.86616103   -7.8534227    240.66931  0.020935047  0.021049474            2 
  959000    0.8840813   -7.8333322    240.79476  0.020924119  0.021033106            2 
  960000   0.87226679   -7.8477695    240.36311  0.020864854  0.021016785            2 
  961000   0.86055367   -7.8587044    240.35043  0.020842042  0.021000404            2 
  962000   0.86087029   -7.8745347    240.02289  0.020792004  0.020983903            4 
  963000   0.86428043   -7.8539511    240.45453  0.020807765  0.020967433            1 
  964000   0.88098302   -7.8694277    240.63095   0.02080143   0.02095093            3 
  965000   0.86244077   -7.8607721    240.47742  0.020766617  0.020934473            1 
  966000   0.86257595    -7.857669    240.66656  0.020761436  0.020917988            1 
  967000   0.88701671   -7.8571285    241.31456  0.020795808  0.020901551            3 
  968000   0.88816528   -7.8834816    240.97145  0.020744787  0.020885034            1 
  969000   0.86560776   -7.8910361    240.63001  0.020694015  0.020868577            2 
  970000   0.86803702   -7.9095708    240.61949  0.020671778  0.020851974            2 
  971000   0.85925619   -7.8992534    241.14659  0.020695725  0.020835466            6 
  972000    0.8516446   -7.8707763    241.85812  0.020735435  0.020818984            4 
  973000   0.86374997   -7.8844085    241.07653  0.020647185   0.02080252            2 
  974000   0.87376672   -7.8891593    241.81548  0.020689209  0.020786174            1 
  975000   0.88779519   -7.8989084    241.87139  0.020672768  0.020769826            3 
  976000   0.85979428   -7.8627945    242.09536   0.02067071  0.020753572            3 
  977000   0.85927278   -7.9206908    242.12865  0.020652393  0.020737417            2 
  978000   0.86437416   -7.8688993     241.8764  0.020609782  0.020721114            1 
  979000   0.86893917   -7.9086486    241.73791  0.020576941  0.020704768            3 
  980000   0.86093404    -7.866778    242.21429  0.020596453  0.020688426            1 
  981000   0.84457375   -7.8684513      242.092   0.02056507  0.020672193            1 
  982000   0.85078735    -7.896624    242.00144  0.020536443  0.020656118            2 
  983000   0.86177664   -7.8903855    242.84835  0.020587348  0.020640148            1 
  984000   0.88992035   -7.8811369    242.42875   0.02053089  0.020624047            2 
  985000   0.86810735   -7.8872209    243.07729  0.020564914  0.020607916            2 
  986000   0.87037506   -7.8912347    242.78013  0.020518943  0.020591864            3 
  987000    0.8657332   -7.9001263    242.54651  0.020478429  0.020575715            1 
  988000   0.86421843   -7.8785811    242.72848   0.02047305  0.020559603            1 
  989000   0.84700618   -7.8925598    242.73525   0.02045292  0.020543592            3 
  990000   0.85926971   -7.9085299    242.78555  0.020436494  0.020527657            3 
  991000   0.87111385   -7.8842145    243.01767  0.020435391  0.020511648            1 
  992000   0.85674794   -7.8864439     243.2272  0.020432392  0.020495661            1 
  993000   0.85647699   -7.9065679    243.14672  0.020405062  0.020479796            2 
  994000   0.85785806    -7.907827    243.35228  0.020401767  0.020463851            2 
  995000   0.83802863   -7.9540185    242.92098  0.020345141  0.020447698            7 
  996000   0.86246498   -7.9383523    242.91006  0.020323801  0.020431471            3 
  997000   0.86956365   -7.9081453    243.79668  0.020377523  0.020415356            2 
  998000   0.85875103   -7.9302068    242.86314  0.020279153  0.020399284            3 
  999000   0.87089683   -7.8819847    243.65395  0.020324821  0.020383369            4 
 1000000   0.85195767   -7.8606329    243.93464  0.020327887  0.020367498            3 
 1001000   0.82662891   -7.8810788    243.39404  0.020262574  0.020351541            2 
 1002000   0.86142793   -7.9256589    243.51272  0.020252222  0.020335569            1 
 1003000   0.86055443   -7.9417385    243.88183  0.020262698  0.020319465            3 
 1004000     0.882695   -7.9275494    243.36473  0.020199596  0.020303352            4 
 1005000    0.8615034    -7.918819    243.58348  0.020197635  0.020287393            1 
 1006000   0.85217564   -7.9131327    244.19285  0.020228036  0.020271501            3 
 1007000   0.85509015   -7.9000432    244.03101  0.020194556  0.020255578            1 
 1008000   0.86043873   -7.9277865    244.07686  0.020178312  0.020239486            4 
 1009000   0.86877409    -7.905009    244.25219  0.020172794  0.020223637            1 
 1010000   0.86928392    -7.920906    243.99317   0.02013145  0.020207668            1 
 1011000   0.84409225   -7.8969698    244.07701  0.020118448   0.02019165            2 
 1012000     0.873107    -7.946941    244.38348  0.020123805  0.020175677            2 
 1013000   0.82415512   -7.8944759    244.44478  0.020108981  0.020159822            1 
 1014000   0.83217224   -7.9132781    244.15671  0.020065476  0.020143883            2 
 1015000   0.85244374   -7.9238418     244.8153  0.020099778  0.020128054            1 
 1016000   0.84493678   -7.9234232    244.84773  0.020082655  0.020112271            1 
 1017000   0.84234251   -7.8987581    245.31754  0.020101404  0.020096534            2 
 1018000    0.8289239   -7.8841032     246.0204  0.020139195  0.020080848            1 
 1019000   0.82581344   -7.9300089    244.68113  0.020009906  0.020065095            3 
 1020000   0.84043466   -7.9265095    245.39593  0.020048687  0.020049355            1 
 1021000   0.85195687   -7.9001896     245.4817  0.020036051  0.020033672            1 
 1022000   0.85029281   -7.9371752    244.84094  0.019964199  0.020017966            2 
 1023000   0.84843879   -7.9286207    245.52786   0.02000064  0.020002231            2 
 1024000   0.85297695   -7.9423418    245.50019  0.019978857  0.019986532            3 
 1025000    0.8388382   -7.9728915    245.19888  0.019934868  0.019970797            1 
 1026000   0.84483458   -7.9338596    244.84185   0.01988644  0.019955007            4 
 1027000   0.84321106   -7.9718254    244.73747  0.019858607   0.01993917            3 
 1028000   0.83758013   -7.9334042    245.68837  0.019916372   0.01992337            1 
 1029000   0.84886196   -7.9444009    245.40367  0.019873961  0.019907629            2 
 1030000   0.83372735   -7.9414956    245.56378   0.01986762  0.019891792            3 
 1031000   0.81820165   -7.9532993    245.39707  0.019834875  0.019876009            2 
 1032000   0.86053475   -7.9324142    245.24655  0.019803501  0.019860124            1 
 1033000   0.84761363   -7.9280684    245.71704  0.019822284  0.019844186            1 
 1034000   0.85473334   -7.9102345    246.31187  0.019851053  0.019828354            1 
 1035000   0.82077144   -7.9316408    245.79148  0.019789975  0.019812603            3 
 1036000   0.82506461   -7.9492028    245.54283  0.019750871  0.019796797            1 
 1037000   0.82868361   -7.9016399    246.28502  0.019791467     0.019781            2 
 1038000   0.83354055   -7.9355415    245.99425  0.019749057  0.019765267            2 
 1039000   0.81892375   -7.9272773    246.48223  0.019769187  0.019749493            3 
 1040000   0.84347015   -7.9174206    246.58912  0.019758744  0.019733821            1 
 1041000   0.84736043   -7.9310501    246.17786  0.019706841  0.019718155            2 
 1042000   0.84053653   -7.9298894    247.00601   0.01975416  0.019702537            4 
 1043000    0.8295848   -7.9523385    246.20315  0.019671073    0.0196868            3 
 1044000   0.84112485   -7.9473567     246.1174  0.019645386  0.019670912            2 
 1045000   0.84722369   -7.9642903     245.6552  0.019589729  0.019654903            3 
 1046000    0.8414968   -7.9716845     245.8245  0.019584489  0.019638982            3 
 1047000   0.83074018   -7.9577833    245.76094  0.019560725   0.01962305            1 
 1048000   0.84889284     -7.96164    245.53974  0.019524471  0.019607231            2 
 1049000   0.82936776   -7.9743549    246.53593  0.019584996  0.019591487            2 
 1050000   0.85004217   -7.9426054    246.13993  0.019534915  0.019575677            3 
 1051000   0.84475459    -7.962044    246.10724  0.019513736   0.01955979            2 
 1052000    0.8398165   -7.9436306    246.69423  0.019541685  0.019543885       -1e+20 
 1053000   0.82002025   -7.9704116    246.32164   0.01949364  0.019528049            1 
 1054000   0.82883835   -7.9298268    246.67472  0.019503061  0.019512174            2 
 1055000   0.82860509   -7.9158937    246.26386  0.019452122  0.019496328            3 
 1056000   0.83154488   -7.9697901    246.32667  0.019438657  0.019480398            1 
 1057000    0.8126752   -7.9755476    246.35664   0.01942263  0.019464516            2 
 1058000   0.82913649   -7.9379862    246.45918  0.019412349  0.019448641            1 
 1059000   0.83098091   -7.9549305    246.69518  0.019412589  0.019432886            3 
 1060000   0.84191735   -7.9446696      247.438  0.019452673  0.019417164            3 
 1061000   0.82255096   -7.9701781    246.35482  0.019349263  0.019401423            2 
 1062000   0.83534495   -7.9493869    246.94624  0.019377452  0.019385655            3 
 1063000   0.81708283   -7.9700371    246.83137  0.019350217  0.019369841            2 
 1064000   0.83077202   -7.9677073    247.01201  0.019346179  0.019354063            2 
 1065000    0.8366086   -7.9746833    246.83367  0.019314059  0.019338241            3 
 1066000   0.84215303   -7.9460255    246.62675  0.019279764  0.019322441            3 
 1067000    0.8287726   -7.9716133    246.83007  0.019277575   0.01930673            2 
 1068000   0.82576458   -7.9840682    247.03939  0.019275857  0.019290982            1 
 1069000   0.81424197   -7.9796734    247.01639  0.019256033  0.019275205            1 
 1070000    0.8094581   -7.9906977    247.37558  0.019266011  0.019259415            2 
 1071000   0.85075814   -7.9794013    247.41366  0.019250985  0.019243758       -1e+20 
 1072000    0.8289768   -8.0133629    246.92042  0.019194684  0.019227998            2 
 1073000    0.8344029   -8.0138431    247.36349  0.019211206  0.019212224            2 
 1074000   0.81346261    -7.999662    247.38185  0.019194743  0.019196513            4 
 1075000   0.80173924   -8.0068639    247.32855  0.019172756  0.019180694            2 
 1076000   0.81193637   -8.0008673      246.796  0.019113693  0.019164879            2 
 1077000   0.82145131   -8.0077799    247.86661  0.019178784  0.019149165            2 
 1078000   0.81008306   -8.0122206    247.73791  0.019151044  0.019133369            1 
 1079000    0.8213845   -7.9717184    247.87542  0.019143916   0.01911771            2 
 1080000   0.82725569   -7.9812166    248.02859  0.019138008  0.019102126            1 
 1081000   0.82743477   -7.9772112    248.09799  0.019125654  0.019086644            1 
 1082000   0.84266958   -7.9549976    248.40658  0.019131746  0.019071209            2 
 1083000   0.83258182   -7.9720544    248.44436  0.019116987  0.019055859            1 
 1084000   0.81788478   -8.0093594    248.48817  0.019102719  0.019040521            1 
 1085000   0.82924696   -7.9823538    248.66835  0.019098951   0.01902522            1 
 1086000   0.83720001   -8.0207206    248.90264  0.019099343  0.019009945            1 
 1087000   0.83592371   -8.0145678     248.5002   0.01905092  0.018994723            2 
 1088000   0.81442516   -8.0284864    248.92298  0.019065792  0.018979466            2 
 1089000    0.8088758   -8.0143462    248.78719  0.019037893  0.018964251            2 
 1090000   0.83146437   -8.0022608    248.90704  0.019029591   0.01894898            3 
 1091000     0.819442   -7.9987925    249.01998  0.019020775  0.018933721            2 
 1092000   0.81540467    -8.008708    248.94716  0.018997799  0.018918552            1 
 1093000   0.81306667    -8.057949    249.33478  0.019009971  0.018903374            2 
 1094000   0.81011638   -8.0149362    249.25669  0.018986646  0.018888204            2 
 1095000   0.81590101   -8.0154275    249.50969  0.018988561  0.018872982            1 
 1096000   0.80090865   -8.0218145     249.6067  0.018978611   0.01885777            1 
 1097000   0.81328575   -8.0183033    249.63161  0.018963203  0.018842615            1 
 1098000   0.80117753   -7.9866014    249.32296  0.018922508  0.018827508            1 
 1099000   0.80773245   -8.0285612    249.23492  0.018898614  0.018812359            1 
 1100000   0.80730348   -8.0113279    248.74401  0.018844243  0.018797205            2 
 1101000   0.81007811   -8.0296215    248.99673  0.018846255  0.018782055            2 
 1102000   0.81967932   -8.0572287    248.64131  0.018802277  0.018766809            1 
 1103000   0.81860692   -8.0319759    249.75409  0.018869303  0.018751574            2 
 1104000   0.82432259   -8.0498402    249.38778  0.018824561  0.018736347            6 
 1105000   0.81244526   -8.0225274    249.39851  0.018808334  0.018721234            2 
 1106000   0.82331485   -8.0297413    249.27481  0.018782008  0.018706067            3 
 1107000   0.81016957   -8.0537385    249.64534  0.018792934  0.018691029            2 
 1108000   0.82004569   -8.0094643    250.42136  0.018834338  0.018675978            3 
 1109000   0.83671209   -8.0104225    249.51093  0.018748943  0.018660926            2 
 1110000   0.81512012   -7.9800809    250.90496  0.018836709  0.018645946            2 
 1111000   0.81253426   -8.0296185    249.60048  0.018721908  0.018630989            1 
 1112000   0.79849059   -8.0117469    250.31753  0.018758807  0.018615929            6 
 1113000    0.8049186   -8.0218815    250.16552  0.018730572  0.018600887            1 
 1114000   0.80167351   -8.0366505    250.31386  0.018724855  0.018585839            2 
 1115000    0.8286702    -8.016518    250.03138   0.01868695  0.018570878            2 
 1116000   0.80656958    -8.036075    250.13672  0.018678071  0.018555939            3 
 1117000   0.80292524   -8.0358425    250.27332  0.018671539  0.018540944            3 
 1118000   0.81040039   -8.0351648     250.3368  0.018659571  0.018525869            2 
 1119000   0.78707467   -8.0400579    249.86747  0.018607944  0.018510837            1 
 1120000   0.80712608   -8.0243018    250.05207  0.018605065  0.018495791            2 
 1121000    0.8328642   -8.0367947    250.67095  0.018634474  0.018480802            1 
 1122000   0.82502091   -8.0550406    250.53492  0.018607763  0.018465815            4 
 1123000   0.79914425   -8.0535724    250.36461  0.018578556  0.018450829            3 
 1124000   0.80758639   -8.0587477    250.65802   0.01858378   0.01843581            2 
 1125000   0.80693975   -8.0697106    250.14394   0.01852918  0.018420749            1 
 1126000   0.80699769   -8.0196263    250.36228  0.018528884  0.018405746            1 
 1127000   0.80520723   -8.0446062    250.41972   0.01851669  0.018390768            1 
 1128000   0.78949003   -8.0588928    250.48991   0.01850546  0.018375806            1 
 1129000   0.80980146    -8.078049    250.74288  0.018507742  0.018360775            3 
 1130000   0.80198867   -8.0234495    250.79936  0.018495528  0.018345823            2 
 1131000   0.80350201   -8.0813624    250.78051  0.018477786  0.018330866            1 
 1132000   0.79298429   -8.0585117    249.83298   0.01839171  0.018315868            4 
 1133000   0.79235699    -8.056602    251.15922  0.018473023  0.018300933            2 
 1134000   0.79051167   -8.0806193    251.02521  0.018446885  0.018285999            1 
 1135000    0.8204234   -8.0627078    250.80434  0.018414416  0.018271031            1 
 1136000   0.79797015   -8.0568627    250.93281   0.01840763  0.018256148            3 
 1137000   0.80262915   -8.0544497    250.70865  0.018375011   0.01824124            1 
 1138000   0.80668258    -8.053496    251.00772  0.018380764   0.01822644            2 
 1139000   0.81546373   -8.0650776    251.24058  0.018381664  0.018211567            2 
 1140000   0.80974613   -8.0735317    251.20751  0.018363122  0.018196761            3 
 1141000   0.81556347   -8.1109484    250.24472  0.018276711  0.018181862            2 
 1142000   0.81688505   -8.0491045    251.28153  0.018336364  0.018166976            2 
 1143000   0.79069321    -8.057823    250.85576  0.018289279  0.018152107            1 
 1144000   0.81072188   -8.0531094    251.56406  0.018324888  0.018137319            1 
 1145000   0.80694806   -8.0558133    251.22872  0.018284477  0.018122472            2 
 1146000   0.79818152   -8.0629073    250.81503   0.01823844  0.018107669            1 
 1147000   0.79690818   -8.0860901    251.48283  0.018271057  0.018092916            3 
 1148000   0.78717692    -8.053792     251.2384  0.018237398  0.018078167            2 
 1149000   0.78146265   -8.0656108    251.36055  0.018230385  0.018063519            3 
 1150000   0.79435554   -8.0430177    252.25639  0.018279448  0.018048901            2 
 1151000   0.80886888    -8.053024    251.93894  0.018240584  0.018034248            1 
 1152000   0.79489142   -8.0801064     252.2224  0.018245255  0.018019495            1 
 1153000   0.79646107   -8.1047346    251.60797  0.018185022  0.018004768            3 
 1154000   0.79255127   -8.0670259    251.55238   0.01816525   0.01798995            3 
 1155000   0.77777158   -8.0982116    251.03296  0.018112046  0.017975156            1 
 1156000    0.7914868    -8.079219    250.91736  0.018088045  0.017960394            1 
 1157000    0.7980708   -8.0966844    251.12688  0.018087502  0.017945609            1 
 1158000   0.79272792   -8.0948118    251.51563  0.018099859  0.017930812            6 
 1159000   0.79374768   -8.0778218    251.75738  0.018101624  0.017916013            2 
 1160000   0.78882929   -8.1048033     250.8986  0.018024325  0.017901155            2 
 1161000   0.77848095   -8.0837511    251.38094  0.018043421  0.017886332            1 
 1162000   0.77554372   -8.0690831    251.38759   0.01802837  0.017871535            4 
 1163000   0.79269196   -8.0657839    251.95348  0.018053416  0.017856774            3 
 1164000   0.77441767   -8.0699645    251.64304  0.018015681  0.017842109            3 
 1165000   0.77664435   -8.0672101    252.02317  0.018027409  0.017827458            2 
 1166000   0.78859322    -8.082645    251.69111  0.017988216  0.017812715            4 
 1167000   0.80429839    -8.065621    251.99398  0.017994429  0.017798008            2 
 1168000   0.78663967   -8.1146547    252.08649  0.017985623  0.017783319            2 
 1169000   0.78072277   -8.0979711    251.79813  0.017949681  0.017768568            1 
 1170000   0.78612107   -8.0871393     252.3763   0.01797552  0.017753913            2 
 1171000   0.79311797   -8.0786348     251.6759  0.017910326  0.017739212            3 
 1172000   0.78347289   -8.0927201    252.15195  0.017928893  0.017724531            4 
 1173000   0.78887276   -8.0861176    251.57856  0.017872873  0.017709849            1 
 1174000   0.78035323   -8.0982346    251.83427    0.0178758  0.017695202            2 
 1175000   0.78043928   -8.0905691    252.18373  0.017885371  0.017680584            3 
 1176000   0.78130092   -8.0964936     251.7016  0.017835998  0.017665928            2 
 1177000   0.78619698   -8.1065115    251.92513   0.01783667  0.017651254            4 
 1178000      0.76993   -8.0932542     252.2886  0.017847241  0.017636666            2 
 1179000   0.77785576   -8.1133749    252.09164  0.017818182  0.017622102            1 
 1180000   0.79274673    -8.075158    252.83438  0.017855536  0.017607535            6 
 1181000   0.76088875   -8.1043641    251.99591  0.017781253  0.017593029            2 
 1182000    0.7843262    -8.100826    252.28173   0.01778636  0.017578469            2 
 1183000   0.77582315   -8.0923999    253.22106  0.017837494  0.017563976            2 
 1184000   0.77880098   -8.0673483    252.61998  0.017780122  0.017549495            2 
 1185000   0.78448406   -8.0779963    252.82521   0.01777955   0.01753509            4 
 1186000   0.76903974   -8.0933686     253.1348  0.017786313  0.017520721            1 
 1187000   0.77841631   -8.0838078    253.20406  0.017776191  0.017506415            2 
 1188000   0.78116337   -8.1167061    252.30653   0.01769827  0.017492087            2 
 1189000   0.77984562   -8.0981291    253.36301   0.01775743   0.01747777            2 
 1190000   0.78441486   -8.1072521    253.06334  0.017721523  0.017463513            1 
 1191000   0.78224391   -8.1064304    253.39472  0.017729829  0.017449299            2 
 1192000   0.76644395   -8.0766036    253.71572  0.017737397  0.017435059            4 
 1193000   0.77437666   -8.0746691     253.7866   0.01772748  0.017420896            1 
 1194000   0.78570775   -8.1098663    253.36258  0.017683039  0.017406776            2 
 1195000   0.77137624   -8.0791509    253.20718  0.017657405  0.017392658            5 
 1196000   0.77752963   -8.0906024    253.40738   0.01765659  0.017378531            1 
 1197000   0.79677684   -8.1194298    253.72647  0.017664054   0.01736436            1 
 1198000     0.770147   -8.1289717    253.81867  0.017655723  0.017350205            3 
 1199000   0.79454839    -8.149829    253.29283  0.017604451  0.017336011            2 
 1200000   0.78007103   -8.1411662    253.46588  0.017601797  0.017321827            3 
 1201000   0.75074823   -8.1434964    253.33636  0.017578154  0.017307632            4 
 1202000   0.76217533   -8.1120174     253.8095  0.017596333  0.017293502            2 
 1203000   0.76383666   -8.1387193    253.86179  0.017585327  0.017279334            2 
 1204000   0.77568739   -8.1349972    253.52931   0.01754771  0.017265196            4 
 1205000   0.78024723   -8.1213184    254.14058  0.017575421  0.017251129            2 
 1206000   0.77081533   -8.1428125      254.282  0.017570619   0.01723706            8 
 1207000   0.77020054   -8.1148117    253.92641  0.017531511  0.017223014            1 
 1208000   0.77992852   -8.1100198    254.95505  0.017587958  0.017208939            4 
 1209000   0.77200507   -8.1215022    254.03232   0.01750981  0.017194943            3 
 1210000   0.76808113   -8.1092935    254.32513  0.017515505  0.017180927            3 
 1211000   0.75896137   -8.1086507    253.70272  0.017458211   0.01716685            4 
 1212000   0.76235899   -8.1238044    254.16188  0.017475377  0.017152817            6 
 1213000   0.78460161   -8.1080429    254.29682  0.017470241  0.017138857            4 
 1214000   0.77435194   -8.0985902    254.23246  0.017451432  0.017124918            4 
 1215000   0.78168411   -8.0815434    254.61595  0.017463371  0.017110985            3 
 1216000    0.7789095   -8.1345534    254.50591  0.017441469  0.017097134            2 
 1217000   0.78068012   -8.1455109    254.28427   0.01741196  0.017083239            2 
 1218000   0.77690539   -8.1237379     254.8234  0.017434551  0.017069398            2 
 1219000   0.76919277    -8.112239    253.86652  0.017354834  0.017055567            2 
 1220000   0.76714057   -8.1306849    255.13969  0.017427575  0.017041759            2 
 1221000   0.75877273   -8.1236429    254.93006  0.017398994  0.017028024            1 
 1222000   0.75444774   -8.1347428    254.88249  0.017381512  0.017014289            3 
 1223000   0.77538423   -8.1254315     254.6571  0.017351942  0.017000529            3 
 1224000   0.76604566   -8.1381384     254.7732   0.01734567  0.016986799            2 
 1225000   0.75535814   -8.1436116     255.3478  0.017370598  0.016973069            2 
 1226000   0.77283646   -8.1256935     255.0633  0.017337092  0.016959287            1 
 1227000   0.76915024   -8.1544743    254.76179  0.017302485  0.016945551            1 
 1228000   0.75593925   -8.1483537    254.48777    0.0172698  0.016931819            3 
 1229000   0.77297608   -8.1455504    255.34744  0.017314039  0.016918033            2 
 1230000   0.76057854   -8.1682382    254.94172  0.017272474  0.016904273            1 
 1231000    0.7614391   -8.1780004    254.51033   0.01722924  0.016890448            2 
 1232000   0.74754349   -8.1808874    255.03754  0.017250916  0.016876599            2 
 1233000   0.76769085    -8.188194    255.31262  0.017255516   0.01686277            5 
 1234000   0.78508625   -8.1433106    254.78094  0.017205628  0.016849032            3 
 1235000   0.76137776   -8.1474509    255.50415  0.017240496  0.016835321            4 
 1236000   0.76583228   -8.1525119    254.64616    0.0171687  0.016821587            3 
 1237000   0.76479418   -8.1696266    254.35832   0.01713543  0.016807902            2 
 1238000   0.76581186   -8.1750222    254.68811  0.017143788  0.016794175            4 
 1239000   0.77063811   -8.1732703    255.42525   0.01717953  0.016780444            2 
 1240000   0.77655814   -8.1675836    254.73728  0.017119441  0.016766795            3 
 1241000   0.76470559   -8.1487356    255.22469  0.017138376  0.016753128            4 
 1242000   0.76389625   -8.1570015    255.17641  0.017121337   0.01673949            3 
 1243000   0.75210425   -8.1689838    255.58727  0.017135108  0.016725869            2 
 1244000   0.75840468   -8.1846817    254.95744  0.017079143  0.016712233            2 
 1245000   0.75443384   -8.1922879    255.12857  0.017076879  0.016698575            3 
 1246000   0.75622875   -8.1742347    254.81596  0.017042266  0.016684859            2 
 1247000   0.75722261   -8.1816652    254.67541  0.017019207  0.016671179            2 
 1248000   0.76083464   -8.1748432    255.34058  0.017049985  0.016657511            2 
 1249000   0.75485513   -8.1925334    255.34057  0.017036334  0.016643859            2 
 1250000   0.75700125   -8.1561023    255.14161  0.017009441   0.01663025            1 
 1251000   0.76001343   -8.1945711    254.90358  0.016979988  0.016616654            2 
 1252000    0.7680749   -8.1850401    255.62535  0.017014467  0.016603086            2 
 1253000   0.74563045   -8.1622501     255.6646  0.017003498   0.01658951            3 
 1254000    0.7540567     -8.18752    255.44795  0.016975542   0.01657594            3 
 1255000   0.74654392   -8.1904913    255.39902  0.016958766  0.016562379            1 
 1256000   0.74395835    -8.179864    255.75369  0.016968796  0.016548837            2 
 1257000   0.73579693   -8.1697878    255.57465  0.016943427   0.01653534            2 
 1258000   0.76087058   -8.1894949    255.17394  0.016903414  0.016521844            2 
 1259000   0.74087947   -8.2014771    255.44033   0.01690762  0.016508287            2 
 1260000   0.74356953   -8.1962283    254.88417  0.016857419  0.016494708            2 
 1261000   0.76234488   -8.2072058    255.17756  0.016863439   0.01648109            1 
 1262000   0.74106847   -8.2061564    255.58967  0.016877289  0.016467503            2 
 1263000   0.75164329   -8.2247375    254.85388  0.016815378  0.016453908            1 
 1264000   0.75528157   -8.2210123    255.50969  0.016845312  0.016440304            2 
 1265000   0.74582634   -8.2140051    255.31162  0.016818947  0.016426745            2 
 1266000   0.75804856   -8.2035372    255.78459  0.016836795  0.016413244            1 
 1267000   0.75241549     -8.22222    255.03604  0.016774272  0.016399684            3 
 1268000   0.74109708   -8.1994936    255.18783   0.01677102  0.016386162            1 
 1269000   0.77197059   -8.2148699    255.42061   0.01677309  0.016372648            2 
 1270000   0.74661107   -8.2235242    255.37737  0.016757045  0.016359117            2 
 1271000   0.74625777   -8.2188356    255.04054  0.016721777  0.016345574            1 
 1272000   0.73624282   -8.2233329    255.43049  0.016734178  0.016332048            3 
 1273000   0.75033208   -8.2266055    255.17604  0.016704375  0.016318515            1 
 1274000   0.74135836   -8.2051323    255.70196  0.016725664  0.016304999            3 
 1275000   0.75947272    -8.203326    255.05284   0.01667012  0.016291495            1 
 1276000   0.72536439   -8.2365303     256.2588  0.016735815  0.016278015            1 
 1277000   0.74644005   -8.2109764    255.95088  0.016702616  0.016264522            2 
 1278000   0.75119321   -8.2126289    255.60793  0.016667184  0.016251063            3 
 1279000   0.72167802   -8.2189616    255.42897  0.016642492    0.0162376            3 
 1280000   0.72499344   -8.1992134    255.20175  0.016614697  0.016224188            5 
 1281000   0.74459075   -8.2208868    254.98182   0.01658742  0.016210691            3 
 1282000   0.74652332    -8.197869    255.63011  0.016616622  0.016197248            2 
 1283000   0.74423352   -8.2039073    255.41316  0.016589579  0.016183794            2 
 1284000   0.73084991   -8.2319039    255.11139  0.016557073  0.016170327            1 
 1285000   0.73939061   -8.2195387    255.57116  0.016574005  0.016156862            1 
 1286000   0.74071816   -8.2252485    255.65153  0.016566325  0.016143396            2 
 1287000   0.75605474   -8.2318918    256.15446  0.016586018  0.016129974            2 
 1288000   0.74736054   -8.2331413    255.79266  0.016549732  0.016116556            3 
 1289000   0.72557271   -8.2118466    255.16669  0.016496425   0.01610313            2 
 1290000   0.73229926   -8.2002603    255.82889  0.016526414  0.016089714            4 
 1291000   0.74550313   -8.2264901    256.02603  0.016526338  0.016076316            2 
 1292000    0.7460143   -8.2154365     255.6198  0.016487345  0.016062904            3 
 1293000   0.74249523   -8.2465523    255.79792  0.016486074  0.016049498            2 
 1294000   0.74519051   -8.2063681     255.9441  0.016482747  0.016036111            3 
 1295000    0.7391657   -8.2646138    255.64387  0.016450699  0.016022759            3 
 1296000   0.72774556   -8.2616385    255.84693  0.016451063  0.016009388            2 
 1297000   0.74395095   -8.2210394    256.08362  0.016453586  0.015996045            2 
 1298000   0.72733223   -8.2063054    255.72576  0.016417935  0.015982705            3 
 1299000   0.74518427   -8.2242475    256.02101  0.016424237  0.015969398            1 
 1300000   0.73152904   -8.2041123    256.64654  0.016451701  0.015956148            2 
 1301000   0.73377431   -8.2207717    255.97014   0.01639573  0.015942872            2 
 1302000   0.71253253   -8.2046634    256.02344  0.016386549  0.015929592            1 
 1303000   0.74414346   -8.1981603    256.30701  0.016392109  0.015916356            2 
 1304000   0.74404057    -8.223921      256.192  0.016372188  0.015903139            1 
 1305000   0.73282709   -8.2336472    255.79611  0.016334362  0.015889929            1 
 1306000    0.7290388   -8.2327835    255.85416  0.016325559  0.015876685            1 
 1307000   0.75539535   -8.2197816    256.15221  0.016332071  0.015863447            2 
 1308000   0.71565696    -8.221141    255.96343  0.016307558  0.015850258            5 
 1309000   0.73378231   -8.1841114     255.9278  0.016292831  0.015837066            1 
 1310000   0.73573254   -8.1884136    256.64736  0.016326168  0.015823866            2 
 1311000   0.73117944   -8.2120773    255.90012  0.016266217  0.015810707            2 
 1312000   0.72019651   -8.1950343    256.22795  0.016274641  0.015797529            2 
 1313000     0.736637   -8.2103907    256.09725  0.016253951  0.015784409            2 
 1314000   0.71578109   -8.2442067    256.09302  0.016241313  0.015771279            4 
 1315000    0.7190409   -8.2237311    255.92476  0.016218299   0.01575809            2 
 1316000   0.74561705   -8.2561083    255.85063  0.016201281  0.015744892            1 
 1317000   0.73479298   -8.2448597    255.94032  0.016194655  0.015731652            2 
 1318000   0.74288432   -8.2371376    255.76292  0.016171151  0.015718458            2 
 1319000   0.72732778   -8.2558378    256.03487  0.016176072  0.015705254            2 
 1320000   0.72349687    -8.260522    256.13235  0.016169971  0.015692054            2 
 1321000   0.72967784   -8.2555333     255.4514  0.016114774  0.015678846            2 
 1322000   0.71040468   -8.2352975    256.14575  0.016146354  0.015665646            2 
 1323000   0.71733929   -8.2876896    255.94772  0.016121676   0.01565247            1 
 1324000   0.72448987   -8.2471001     256.1961  0.016125132  0.015639276            3 
 1325000   0.72489127   -8.2277702    255.24821  0.016053346  0.015626098            4 
 1326000   0.72915826   -8.2671741    255.58424  0.016062358  0.015612918            1 
 1327000   0.75094755   -8.2497539    256.06922   0.01608071  0.015599819            1 
 1328000   0.73159066   -8.2409815    255.37017  0.016024734  0.015586705            2 
 1329000   0.71158823   -8.2405841    256.00998  0.016052795   0.01557354            2 
 1330000   0.73121852   -8.2603456    256.31092  0.016059581  0.015560379            2 
 1331000   0.73205127   -8.2873914     256.1529  0.016037622  0.015547213            1 
 1332000   0.72676597   -8.2740598     254.9358  0.015949437  0.015534054            3 
 1333000   0.71250529   -8.2815126    255.12858  0.015949524  0.015520877            3 
 1334000   0.73391163   -8.2928718    255.69372  0.015972871  0.015507741            4 
 1335000    0.7169852   -8.2629062    255.92597  0.015975404  0.015494616            2 
 1336000   0.71465539   -8.2942373    256.05987  0.015971798  0.015481494            2 
 1337000   0.72477586   -8.2684999    256.13466  0.015964514  0.015468377            2 
 1338000    0.7263197   -8.2797663    255.83455  0.015933891  0.015455286            2 
 1339000   0.72278667   -8.2537617    256.16092  0.015942302  0.015442184            2 
 1340000   0.71950898   -8.2780449    255.70284  0.015901918  0.015429114            2 
 1341000   0.71939502   -8.2501723    255.67331  0.015888225  0.015415984            3 
 1342000   0.72840328   -8.2793013    255.51826  0.015866758  0.015402877            2 
 1343000   0.74117079    -8.284281    255.95283  0.015881908  0.015389779            2 
 1344000   0.70727889   -8.2931215    255.52033  0.015843274  0.015376692            1 
 1345000   0.71610153   -8.2814875    255.94922  0.015858068  0.015363583            1 
 1346000   0.71021256    -8.277975    255.92491  0.015844781  0.015350506            1 
 1347000   0.71554737   -8.2875412    255.50345  0.015806945  0.015337417            2 
 1348000   0.70856419   -8.2821122     255.4012  0.015788897  0.015324293            3 
 1349000   0.72627391   -8.3087193    255.23045  0.015766645  0.015311217            1 
 1350000    0.7256522   -8.3032013    255.97134    0.0158007  0.015298145            2 
 1351000   0.71738843   -8.2623993    255.81515   0.01577937  0.015285103            2 
 1352000   0.72157776   -8.2788883    255.99441  0.015778748  0.015272076            2 
 1353000      0.72101   -8.2774286    255.87177  0.015759533   0.01525909            2 
 1354000   0.71859882   -8.2725707    255.93879  0.015752018  0.015246091            2 
 1355000   0.69843958   -8.2865864    255.50419  0.015713665  0.015233113            1 
 1356000   0.72094611   -8.3073222    256.13644  0.015740932  0.015220136            1 
 1357000   0.69929794    -8.300737    256.13776  0.015729413  0.015207169            1 
 1358000   0.71947352   -8.3192349     255.4481  0.015675509  0.015194181            2 
 1359000   0.70643705   -8.2821171    256.15608  0.015707388   0.01518119            2 
 1360000   0.71445484   -8.2982071    255.83242  0.015676006  0.015168213            2 
 1361000   0.70737538   -8.2840974    255.68669  0.015655565   0.01515527            2 
 1362000   0.69725045   -8.3090627    255.46156  0.015630296  0.015142346            1 
 1363000   0.70879272   -8.2982287     255.4465  0.015617908  0.015129398            3 
 1364000   0.72083797   -8.2900835    255.96418  0.015638085  0.015116472            1 
 1365000   0.71670391   -8.3050293     255.5989  0.015604329   0.01510359            2 
 1366000   0.70647906   -8.2979868    255.79893  0.015605108  0.015090733            1 
 1367000   0.70798455   -8.3008147    255.65013  0.015584621  0.015077857            1 
 1368000   0.72442903   -8.3012539    255.57519  0.015568664  0.015064976            2 
 1369000   0.71662505    -8.327258    256.05302  0.015586378  0.015052075            2 
 1370000   0.70121096   -8.3263685    255.85754  0.015563111  0.015039151            1 
 1371000   0.69860172   -8.3008238    255.50369  0.015530251   0.01502628            6 
 1372000   0.70024128   -8.3383488     255.2527  0.015503687  0.015013413            2 
 1373000   0.70039299   -8.3296771    255.69282  0.015519108   0.01500055            3 
 1374000   0.70668838   -8.3020106    256.25115  0.015541676  0.014987714            2 
 1375000   0.71157476   -8.3397756    255.64857  0.015493853  0.014974885            4 
 1376000   0.70769222   -8.3253847     256.4288  0.015529845  0.014962055            1 
 1377000   0.68303923   -8.3014833    255.49069  0.015461794  0.014949272            1 
 1378000   0.70630902   -8.3116376    255.97834  0.015480064  0.014936506            1 
 1379000   0.70415699    -8.274395    255.96624  0.015468107  0.014923811            3 
 1380000    0.7060162   -8.2784394    255.85553  0.015450213  0.014911082            2 
 1381000    0.7016633   -8.2825492    255.28623  0.015404673  0.014898366            1 
 1382000   0.69504702   -8.3155972    255.92217  0.015431872  0.014885667            3 
 1383000   0.70003858   -8.3082453    256.47117  0.015453794  0.014872962            2 
 1384000   0.68749717   -8.2942693    255.99835  0.015414159  0.014860281            2 
 1385000   0.71888483   -8.2959119    255.79469  0.015390775  0.014847616            3 
 1386000   0.71043431    -8.320504     255.8969  0.015385816  0.014834937            2 
 1387000   0.70637949   -8.3058804    256.44559   0.01540769  0.014822258            3 
 1388000    0.7035829   -8.2891968    255.35882  0.015331341  0.014809603            2 
 1389000   0.70175702   -8.3173425    256.45184  0.015385879  0.014796957            2 
 1390000   0.67755768   -8.2951542    256.31706   0.01536673   0.01478432            4 
 1391000   0.69408599   -8.3065219    255.81694  0.015325721  0.014771676            3 
 1392000   0.71144728   -8.3320263    255.89303  0.015319266  0.014759069            3 
 1393000   0.68621478   -8.3042582    256.64225   0.01535309   0.01474649            2 
 1394000   0.68572822   -8.3113766    256.42244  0.015328936  0.014733912            1 
 1395000   0.71049412   -8.3133891    256.38562  0.015315748  0.014721348            2 
 1396000   0.70668519   -8.3073398    256.56974  0.015315767  0.014708832            2 
 1397000   0.69766664   -8.3080599    256.14096  0.015279227  0.014696278            5 
 1398000   0.69786308   -8.3280042    255.48372   0.01522912  0.014683717            1 
 1399000   0.69736525   -8.3248595    256.25592  0.015264231  0.014671149            1 
 1400000   0.68641042   -8.3285087    256.89583  0.015291419  0.014658592            1 
 1401000   0.69889473   -8.3201205    255.91289  0.015222037  0.014646025            3 
 1402000   0.69327095   -8.3394383    255.88638  0.015209604  0.014633442            2 
 1403000    0.6892671   -8.3366486    255.96015  0.015203145  0.014620898            2 
 1404000   0.70949945   -8.3390364    256.01927  0.015195826  0.014608371            3 
 1405000    0.6926297   -8.3389813    256.24862  0.015198613  0.014595805            2 
 1406000   0.68647426   -8.3498976    256.20704  0.015185339  0.014583273            1 
 1407000   0.70136179    -8.347451    255.65772  0.015142011  0.014570728            2 
 1408000   0.71243422   -8.3225975    255.66894  0.015131921  0.014558197            2 
 1409000     0.696504    -8.346639    256.67204  0.015180508  0.014545753            3 
 1410000   0.68664092   -8.3328212    256.08258  0.015134904  0.014533297            2 
 1411000   0.70037502   -8.3458909     255.7569  0.015104943  0.014520873            5 
 1412000   0.68243285    -8.350162    256.02753  0.015110218  0.014508435            3 
 1413000   0.68936542   -8.3717971    256.25886  0.015113167  0.014495968            1 
 1414000   0.70768794   -8.3547542    255.96812  0.015085344  0.014483532            3 
 1415000   0.68397038    -8.347668    256.32179  0.015095512  0.014471082            2 
 1416000   0.69348031   -8.3815944    255.61541   0.01504328  0.014458621            2 
 1417000   0.69292502   -8.3470518    256.34757  0.015075722   0.01444617            4 
 1418000   0.68952686   -8.3506257    256.50345  0.015074251  0.014433742            4 
 1419000   0.70048764   -8.3631794    256.11297  0.015040696  0.014421329            2 
 1420000   0.69390019   -8.3624256    256.05774  0.015026863  0.014408911            3 
 1421000    0.6916124   -8.3624477    255.63574   0.01499154  0.014396497            2 
 1422000   0.69454372   -8.3390035    255.70046   0.01498479   0.01438408            3 
 1423000   0.68013559   -8.3503749    256.29199  0.015008901   0.01437168            3 
 1424000   0.68724736   -8.3718577    255.30812  0.014940784  0.014359239            2 
 1425000   0.66648203   -8.3952942    255.31368  0.014930624  0.014346788            3 
 1426000   0.69109416   -8.3610325    255.55555  0.014934289  0.014334362            4 
 1427000   0.66478245   -8.3812739    255.83204  0.014939969  0.014321978            2 
 1428000   0.69173733   -8.3821518    255.89872  0.014933399  0.014309605            2 
 1429000   0.67633423   -8.3910557    255.16853  0.014880367  0.014297226            4 
 1430000   0.69085319   -8.3571165    255.86655  0.014910638  0.014284847            3 
 1431000   0.67473004   -8.3523312     255.9708  0.014906289  0.014272519            1 
 1432000   0.68748143   -8.3480387    255.95036   0.01489469   0.01426022            4 
 1433000   0.69161277   -8.3520149     256.1604  0.014896511  0.014247958            4 
 1434000   0.67498444   -8.3686186    255.97198  0.014875173  0.014235669            1 
 1435000   0.67645208   -8.3583375    255.54535  0.014840032  0.014223373            2 
 1436000    0.6734413   -8.3673379    256.39959  0.014879271  0.014211092            1 
 1437000    0.6898315   -8.3800866    255.72988  0.014830079  0.014198844            2 
 1438000   0.68594164   -8.3817537    255.87442  0.014828142  0.014186605            2 
 1439000   0.66429495   -8.3659871    256.11707   0.01483189  0.014174388            1 
 1440000   0.68643325   -8.3971372    255.48797  0.014785184  0.014162159            1 
 1441000   0.66860875   -8.3579869    255.78522  0.014792113  0.014149916            2 
 1442000    0.6604984    -8.388235    255.85326  0.014785787  0.014137711            5 
 1443000   0.68069805    -8.379835    256.36753   0.01480524    0.0141255            2 
 1444000   0.68063955   -8.3796158    255.83115  0.014764032  0.014113306            3 
 1445000   0.69079963   -8.3607324    256.29941   0.01478082  0.014101172            2 
 1446000   0.67236644   -8.4011703    255.11602  0.014702399  0.014089014            2 
 1447000   0.67729587   -8.3808522    255.89427  0.014737058  0.014076858            1 
 1448000   0.67870936   -8.3844501    256.49436  0.014761416  0.014064702            2 
 1449000   0.67042465   -8.3821287    256.06558  0.014726569  0.014052586            2 
 1450000   0.70203701   -8.3570813    256.28912   0.01472926  0.014040465            2 
 1451000   0.68358363   -8.3851022    255.60829  0.014680007  0.014028377            3 
 1452000   0.67215969   -8.3999866    255.93158  0.014688452   0.01401626            2 
 1453000   0.67677238   -8.3946739    255.70398  0.014665289  0.014004167            1 
 1454000   0.68671676   -8.3884038    255.69574  0.014654731  0.013992083            2 
 1455000   0.67615756   -8.4053302    255.23561  0.014618306   0.01397999            1 
 1456000   0.67419145   -8.4118169    256.03028  0.014653748  0.013967912            2 
 1457000   0.66791515   -8.4125341    256.42468  0.014666248  0.013955835            8 
 1458000   0.65638215   -8.4114511    255.71233  0.014615474  0.013943759            2 
 1459000   0.66477621   -8.3764161    256.07264  0.014626036  0.013931714            3 
 1460000   0.66703845   -8.4038977    256.02536  0.014613319  0.013919665            2 
 1461000   0.67314088   -8.3931392    256.02776  0.014603454  0.013907637            1 
 1462000   0.67776284   -8.3899131    255.93904  0.014588409  0.013895608            1 
 1463000   0.67881534   -8.4159778    255.63392  0.014561057  0.013883628            3 
 1464000     0.657477   -8.4176361    255.50202  0.014543603  0.013871633            2 
 1465000   0.66268112   -8.3975049    256.25759  0.014576655  0.013859676            2 
 1466000    0.6707921   -8.4235898    256.54837   0.01458324  0.013847727            2 
 1467000   0.66795206   -8.3848401    256.40669  0.014565251  0.013835805            5 
 1468000   0.65415444   -8.3983944    256.00362  0.014532449   0.01382391            4 
 1469000    0.6653588   -8.4082693    255.88921  0.014516066  0.013811992            6 
 1470000   0.66148662   -8.4151619    256.27599  0.014528117  0.013800096            1 
 1471000   0.65684742    -8.378661    256.58483  0.014535737  0.013788211            3 
 1472000   0.67000365   -8.4029829    256.22515    0.0145055  0.013776338            5 
 1473000   0.66164174   -8.4246774    255.76753  0.014469763  0.013764467            6 
 1474000   0.66412941   -8.4160148    255.66678   0.01445425  0.013752622            3 
 1475000   0.68770686   -8.4230221     255.8322  0.014453796  0.013740745            2 
 1476000   0.67142224   -8.4200647    255.92913  0.014449477   0.01372888            2 
 1477000   0.65611136   -8.3994767    256.58388  0.014476635  0.013717043            2 
 1478000   0.65252962   -8.4046191    255.80023  0.014422656  0.013705236            3 
 1479000   0.66345049   -8.4251293    255.99652  0.014423965  0.013693408            2 
 1480000   0.66982564   -8.3939096    256.55324  0.014445565  0.013681563            5 
 1481000   0.67223938   -8.4067536    255.70054  0.014387832  0.013669736            2 
 1482000   0.65796524   -8.4089253     255.9993  0.014394922  0.013657936            2 
 1483000   0.66864154   -8.4249093    255.71043  0.014368983  0.013646168            3 
 1484000   0.65819229   -8.4084128    256.54898  0.014406389    0.0136344            2 
 1485000   0.64651135   -8.4009814    255.88692  0.014359535  0.013622639            2 
 1486000   0.64837441   -8.4139779    255.63918  0.014335979  0.013610916            3 
 1487000   0.65900851   -8.4031147     256.2533  0.014360754  0.013599182            2 
 1488000   0.64519348   -8.4241894    256.29211  0.014353277  0.013587423            2 
 1489000    0.6444573    -8.425403    256.08876  0.014332257  0.013575703            2 
 1490000   0.66279514    -8.412511    255.61742  0.014296277  0.013563959            2 
 1491000   0.66319089   -8.4322451    255.94272  0.014304869  0.013552204            4 
 1492000   0.65158611   -8.4382929    256.06761  0.014302257  0.013540467            1 
 1493000   0.65140808   -8.4381231    255.86084  0.014281136  0.013528765            1 
 1494000   0.66183983   -8.4128982    256.13759  0.014287014   0.01351707            3 
 1495000   0.64983126   -8.4380925    255.66721  0.014251238  0.013505395            3 
 1496000   0.64890196   -8.4427051    256.22824  0.014272963  0.013493726            1 
 1497000   0.64884746   -8.4329718    255.86886  0.014243423  0.013482083            2 
 1498000   0.66263272    -8.425129    256.06893  0.014245045  0.013470453            2 
 1499000   0.63497478   -8.4157203    256.05504   0.01423477  0.013458846            2 
 1500000   0.65292492   -8.4014873    256.20128  0.014233404  0.013447248            2 
 1501000    0.6488232   -8.4030494    255.98227  0.014211763  0.013435656            1 
 1502000   0.65131603   -8.4440737    255.89108  0.014197241  0.013424066            2 
 1503000   0.65704341   -8.4215465    256.02994  0.014195495  0.013412479            1 
 1504000   0.66092581   -8.4039112    255.63731  0.014164302   0.01340091            3 
 1505000   0.66850327    -8.436302     256.0927  0.014180105  0.013389348            2 
 1506000   0.66404811   -8.4386046    255.82191  0.014155706   0.01337779            2 
 1507000   0.64601542   -8.4248648    256.23646  0.014169236  0.013366262            2 
 1508000   0.64642985   -8.4241105    256.38801  0.014168214  0.013354734            3 
 1509000   0.64139051   -8.4134918    256.13612  0.014144915  0.013343208            4 
 1510000   0.65021528   -8.4172865    255.79613  0.014116784   0.01333169            6 
 1511000   0.64248235   -8.4187684    256.08036  0.014123117  0.013320174            1 
 1512000   0.64250179   -8.4387663     255.8983  0.014103742  0.013308658            2 
 1513000   0.63849095   -8.4507251     256.1481  0.014108179  0.013297147            1 
 1514000   0.65004738   -8.4252263    255.67671  0.014072914  0.013285644            4 
 1515000   0.65449232   -8.4334309    255.75041  0.014067679  0.013274168            3 
 1516000   0.67064618   -8.4554705    255.70731  0.014056031  0.013262653            2 
 1517000    0.6443831   -8.4765764    255.14176  0.014015698  0.013251144            2 
 1518000   0.63536394   -8.4604897    255.63512  0.014033549  0.013239641            1 
 1519000   0.64493361   -8.4711382    255.89732  0.014038694  0.013228127            2 
 1520000   0.66017975   -8.4552931    255.63044  0.014014827  0.013216645            2 
 1521000   0.64587899   -8.4585856    255.49437  0.013998157  0.013205207            2 
 1522000   0.65931705   -8.4441961    255.72362  0.014001512  0.013193757            2 
 1523000   0.62396491   -8.4450438    255.62689  0.013987026  0.013182318            1 
 1524000   0.64816128   -8.4600234    255.24959  0.013957217  0.013170867            4 
 1525000   0.64868522   -8.4687208     255.6627  0.013970639  0.013159424            2 
 1526000   0.64970625   -8.4585598    255.00669   0.01392566   0.01314796            2 
 1527000   0.63286502   -8.4864268    255.30586  0.013932867  0.013136497            2 
 1528000   0.64593773   -8.4684778     255.3412  0.013925676  0.013125045            2 
 1529000   0.63800338   -8.4837441    255.26194  0.013912249  0.013113615            2 
 1530000   0.64662983   -8.4837412    255.51342  0.013916853  0.013102212            1 
 1531000   0.64503394   -8.4842527    255.66107    0.0139158  0.013090803            2 
 1532000   0.63934273   -8.4775021    255.63208  0.013905139  0.013079409            2 
 1533000   0.63728967   -8.4717391    255.67308  0.013898298  0.013068015            2 
 1534000   0.63915298   -8.4867001    255.29611  0.013868759  0.013056626            2 
 1535000   0.62680858   -8.4641376    255.39454  0.013865067  0.013045241            2 
 1536000   0.64776584   -8.5001264    255.03363   0.01383646  0.013033854            1 
 1537000   0.64289044   -8.4845134    255.10811  0.013831496  0.013022467            2 
 1538000   0.64110288   -8.4722258    255.53243  0.013845494  0.013011105            2 
 1539000   0.64401368   -8.4953358    255.15855  0.013816252  0.012999743            2 
 1540000   0.64523707   -8.4798816    255.05526  0.013801691  0.012988385            2 
 1541000   0.62637252   -8.4841183    255.40766  0.013811792  0.012977054            2 
 1542000   0.63339837   -8.5015536    255.33545  0.013798933  0.012965741            2 
 1543000   0.62960736   -8.4815625    255.41407  0.013794236   0.01295442            3 
 1544000   0.63135395    -8.493432    254.87051  0.013755965    0.0129431            3 
 1545000   0.62631594   -8.4593828    255.42667  0.013777059  0.012931792            2 
 1546000   0.62632274   -8.4948511    255.59962   0.01377747  0.012920524            3 
 1547000   0.63100918    -8.503347    255.22277  0.013748264  0.012909248            2 
 1548000   0.63639415   -8.5005938    255.01627  0.013728266  0.012897984            3 
 1549000   0.62976248   -8.4684795    255.44765  0.013742611  0.012886704            2 
 1550000   0.63500577   -8.4761515    255.26561  0.013723957  0.012875439            1 
 1551000   0.63022807   -8.4987519     255.1727  0.013710117  0.012864189            1 
 1552000   0.63074423   -8.4676404    255.48617  0.013718115  0.012852967            1 
 1553000   0.62436017   -8.5163271    254.84516  0.013674885  0.012841753            3 
 1554000   0.63317111   -8.5017728    255.09587   0.01367953  0.012830562            2 
 1555000   0.63085939   -8.5132438    255.04891  0.013668216  0.012819367            1 
 1556000   0.62203291   -8.5038412    255.68048  0.013693256  0.012808217            1 
 1557000   0.63070744   -8.5015895    254.92149  0.013643839  0.012797068            2 
 1558000   0.62695847   -8.5141656    254.82111  0.013629713   0.01278592            1 
 1559000   0.62083156   -8.5100007     255.2669  0.013644799  0.012774774            1 
 1560000   0.63642675     -8.52515    255.34702  0.013640332  0.012763647            2 
 1561000   0.63932049   -8.5099004    255.11198  0.013619046  0.012752534            2 
 1562000   0.63524228   -8.5411308    255.22874  0.013616557  0.012741391            1 
 1563000   0.63177428   -8.5151207    255.34546  0.013614068  0.012730276            1 
 1564000   0.62292996   -8.5180216    254.59324  0.013565283  0.012719146            1 
 1565000   0.62008859   -8.5161943    254.74191  0.013564532  0.012708042            2 
 1566000   0.63862419   -8.5147622    255.41066  0.013591457  0.012696977            3 
 1567000   0.62959634   -8.5289105    255.26844   0.01357522  0.012685917            1 
 1568000   0.62050023     -8.52028    255.05119  0.013555017  0.012674853            1 
 1569000   0.61638946   -8.5130195    255.07389  0.013547583  0.012663818            3 
 1570000   0.62050808    -8.506979     255.2207  0.013546746  0.012652804            2 
 1571000   0.63968258   -8.5010128    255.28757   0.01354167  0.012641776            5 
 1572000    0.6350436   -8.5119379    254.91847   0.01351349  0.012630744            3 
 1573000   0.62719983   -8.5176111    254.95135   0.01350664  0.012619718            2 
 1574000   0.64003019   -8.4909239    255.13593  0.013507832  0.012608714            2 
 1575000   0.63252953     -8.52336     255.3385  0.013509974  0.012597729            1 
 1576000   0.62732603   -8.5412691    254.91575  0.013479048  0.012586763            2 
 1577000    0.6340366   -8.5104463    254.43106  0.013444888  0.012575781            2 
 1578000   0.64147515   -8.5489916     254.9937   0.01346608   0.01256482            1 
 1579000   0.62771635   -8.5197343    254.70279  0.013442199  0.012553861            2 
 1580000   0.60626208   -8.5177943    254.92297  0.013445304  0.012542885            2 
 1581000   0.61342661    -8.530028    254.64434  0.013422114  0.012531934            3 
 1582000   0.61618883   -8.5549404    254.71976  0.013417602     0.012521            2 
 1583000    0.6144234   -8.5185182    255.04286  0.013426135  0.012510051            2 
 1584000   0.61657076   -8.5369867    254.84033  0.013407004  0.012499114            2 
 1585000   0.61187555   -8.5472796    255.08766  0.013411549  0.012488208            5 
 1586000   0.61884899   -8.5146109     255.1593  0.013406857  0.012477307            3 
 1587000   0.61093241   -8.5510827     254.8517  0.013382257  0.012466434            2 
 1588000   0.63196999   -8.5105687    255.30324  0.013397525  0.012455553            2 
 1589000   0.60357495   -8.5257349    254.97713  0.013371992  0.012444697            1 
 1590000    0.6181928   -8.4998689    255.13299   0.01337175  0.012433864            1 
 1591000   0.62348686   -8.5162623     255.3932  0.013376975  0.012423052            2 
 1592000    0.6250374   -8.5163158    255.34816  0.013366214  0.012412239            3 
 1593000   0.62355975   -8.5187785    254.45827  0.013311272  0.012401422            2 
 1594000   0.61150482   -8.5353218     254.7886  0.013320191   0.01239062            2 
 1595000   0.60560379   -8.5311093    255.09554  0.013327875   0.01237982            1 
 1596000   0.62157465   -8.5441377    254.81856  0.013305063  0.012369038            3 
 1597000   0.60338203    -8.517188    255.16932  0.013315035   0.01235826            2 
 1598000   0.61976255   -8.5443389    254.61348  0.013277716  0.012347511            2 
 1599000   0.60811583   -8.5359085    255.33516  0.013307023  0.012336761            1 
 1600000   0.61879877   -8.5571405    254.69413  0.013265319  0.012326028            2 
 1601000   0.62253724   -8.5623255    254.66684  0.013255613  0.012315287            3 
 1602000   0.61261406   -8.5302704    254.70176  0.013249155  0.012304558            3 
 1603000    0.6189387   -8.5451765    254.92029   0.01325225  0.012293829            4 
 1604000   0.61068227   -8.5349266    254.86878  0.013241313  0.012283137            2 
 1605000   0.60938054   -8.5470486    254.88542  0.013233927  0.012272439            3 
 1606000    0.6140863   -8.5563151    255.05404  0.013234435  0.012261743            3 
 1607000   0.59605467   -8.5372806     254.8484  0.013215536  0.012251062            6 
 1608000   0.60517767   -8.5356075    254.44999   0.01318667  0.012240396            2 
 1609000   0.61037049   -8.5391176    254.69535  0.013191182  0.012229747            3 
 1610000   0.61179099   -8.5564491    254.82248  0.013189569  0.012219111            4 
 1611000   0.59574899   -8.5757236    254.59516  0.013169624  0.012208458            3 
 1612000   0.61109336       -8.551    254.37372  0.013150006  0.012197814            2 
 1613000   0.61917049   -8.5389369    254.67786  0.013157567  0.012187172            3 
 1614000   0.61528997   -8.5567359    254.50817  0.013140653  0.012176546            4 
 1615000    0.5983493   -8.5660152    255.01092  0.013158458  0.012165925            5 
 1616000    0.6143073   -8.5395523    254.53817  0.013125937  0.012155342            3 
 1617000   0.59698812   -8.5460267    254.39603  0.013110494  0.012144725            2 
 1618000   0.60553975   -8.5628564    254.86521  0.013126556  0.012134115            2 
 1619000   0.60437161   -8.5801544    254.27419  0.013088027  0.012123527            1 
 1620000    0.6175671   -8.5612674    254.55691  0.013094491  0.012112935            2 
 1621000   0.60003231   -8.5761407    254.40991  0.013078856  0.012102366            3 
 1622000   0.60379886    -8.563394    254.41359  0.013070982  0.012091798            3 
 1623000   0.59555568   -8.5513395    254.72748  0.013079045  0.012081229            3 
 1624000   0.59252408   -8.5669883    254.75287  0.013072294  0.012070699            6 
 1625000   0.60086926    -8.559815    254.39844  0.013046074  0.012060165            3 
 1626000   0.61123512   -8.5839482    254.38082  0.013037147  0.012049659            2 
 1627000   0.60548785   -8.5876202    254.47239  0.013033824  0.012039146            1 
 1628000   0.60195176   -8.5848932    254.57292  0.013030964   0.01202864            1 
 1629000   0.60464489    -8.566119    254.40262  0.013014253  0.012018142            3 
 1630000   0.61994561    -8.585857    254.32338  0.013002218  0.012007646            5 
 1631000   0.60304278   -8.5691626    254.33436  0.012994807  0.011997167            3 
 1632000   0.60954527   -8.5760681    254.01481  0.012970527  0.011986707            3 
 1633000    0.6038064    -8.584084    254.16874   0.01297044  0.011976249            3 
 1634000   0.58824439    -8.566229    254.62759  0.012985903  0.011965792            3 
 1635000   0.58958372   -8.5887178    254.64086  0.012978637  0.011955343            5 
 1636000   0.59174326   -8.5921267     254.4611  0.012961547  0.011944903            5 
 1637000   0.60803326   -8.5814968    254.03596  0.012931988   0.01193448            5 
 1638000   0.60007426   -8.5797998    254.33173   0.01293914  0.011924068            3 
 1639000   0.60362244   -8.5867217    254.79669  0.012954886  0.011913654            3 
 1640000   0.60788908   -8.5949451    253.88909  0.012900868  0.011903246            2 
 1641000   0.60420495   -8.5773631    254.38336  0.012918107  0.011892875            3 
 1642000   0.59064774   -8.5949431    254.44758  0.012913499  0.011882491            5 
 1643000   0.59319494   -8.5700493    254.38369  0.012902399  0.011872118            6 
 1644000   0.60176855   -8.5722272    253.94749   0.01287244   0.01186177            5 
 1645000   0.60663907   -8.5612204    254.32836  0.012883909  0.011851418            9 
 1646000   0.59381342   -8.5882526    254.06624  0.012862811  0.011841072            2 
 1647000   0.59469572   -8.5796738    254.66087  0.012885088  0.011830739            1 
 1648000   0.59311642   -8.5755079    254.17478  0.012852689  0.011820417            2 
 1649000    0.6092942   -8.5927457    254.11857  0.012842054  0.011810094            2 
 1650000   0.61173239   -8.5917967    254.55781  0.012856455   0.01179978            4 
 1651000   0.59267534   -8.6001485    254.08918  0.012825014  0.011789487            4 
 1652000   0.58414643   -8.5898214    254.33775  0.012829789   0.01177921            2 
 1653000   0.59383185   -8.5876157    254.05115  0.012807579  0.011768945            4 
 1654000   0.59663914   -8.5798272    254.26855  0.012810789  0.011758679            6 
 1655000   0.59957146   -8.6020961    254.09494  0.012794307  0.011748418            4 
 1656000   0.59110093    -8.582394    253.89018  0.012776277  0.011738173            2 
 1657000   0.59388998   -8.5985723    253.73163  0.012760593   0.01172794            5 
 1658000    0.5828164   -8.6057959    253.86024  0.012759361  0.011717704            5 
 1659000   0.57526083   -8.5934989    254.23927  0.012770709  0.011707478            5 
 1660000   0.58702861   -8.6169232    253.77102  0.012739509  0.011697267            3 
 1661000   0.57675497   -8.6069201     253.8534  0.012735972  0.011687054            3 
 1662000   0.58807436   -8.5828264    254.42852  0.012757146  0.011676875            5 
 1663000   0.57770157   -8.5902894     254.3598  0.012746031  0.011666713            2 
 1664000   0.59003229   -8.5882709     254.4588  0.012743329  0.011656563            2 
 1665000   0.58368341   -8.5959424    254.22967  0.012724208  0.011646414            3 
 1666000   0.58541361   -8.5891604    254.26454  0.012718314  0.011636271            2 
 1667000   0.59475648   -8.5888704    254.21521  0.012708219  0.011626135            2 
 1668000   0.58965077   -8.5870793    253.97716  0.012688707  0.011616002            2 
 1669000   0.58607227   -8.6056398    253.95224   0.01267986   0.01160589            4 
 1670000      0.59261   -8.5847865    254.30457  0.012689849  0.011595781            3 
 1671000   0.58261807   -8.5899298    254.38983  0.012686506  0.011585697            3 
 1672000    0.5785657   -8.6010344    254.14834  0.012666883  0.011575614            5 
 1673000    0.5913306   -8.5927568    253.66121  0.012635047  0.011565543            2 
 1674000   0.59134204   -8.6040242    253.89458  0.012639117  0.011555464            2 
 1675000   0.58828672   -8.6160739    254.00578  0.012637104  0.011545392            2 
 1676000   0.59135359   -8.5956273    253.78432  0.012618552  0.011535337            2 
 1677000   0.58121082   -8.6258671      253.894  0.012616478  0.011525286            2 
 1678000   0.57215296   -8.6092654    254.03234  0.012615829  0.011515252            3 
 1679000   0.57620368   -8.6052083    254.09669  0.012611509  0.011505232            2 
 1680000    0.5830559   -8.6055007    253.51405  0.012575102   0.01149521            3 
 1681000   0.58798542   -8.5790398    254.00677  0.012592047  0.011485215            4 
 1682000   0.58057509   -8.6004143    254.24248  0.012596239  0.011475242            3 
 1683000   0.57956011   -8.6085745    253.36239  0.012545177  0.011465266            5 
 1684000   0.59572383   -8.6220913    253.88584   0.01256363  0.011455302            2 
 1685000   0.57226619   -8.6292951    254.06267  0.012564919  0.011445339            4 
 1686000    0.5954812   -8.6233731    254.10528  0.012559573  0.011435391            2 
 1687000   0.58692794   -8.6151003    253.72355  0.012533272  0.011425456            4 
 1688000   0.57462881   -8.6099932    253.85925  0.012532546  0.011415547            1 
 1689000   0.57422376   -8.6195737    253.82456  0.012523414  0.011405649            3 
 1690000   0.58462683   -8.6096025    253.71872  0.012510785  0.011395747            2 
 1691000   0.58494042   -8.6189862    254.14739  0.012524511  0.011385861            2 
 1692000   0.57630385   -8.6217474    253.81831  0.012500902  0.011375988            1 
 1693000   0.57712102   -8.6285172    253.60375  0.012482957  0.011366119            2 
 1694000   0.57720185   -8.6190102    254.27073  0.012508399  0.011356252            2 
 1695000   0.56488093   -8.6126385     253.8356  0.012479626  0.011346394            2 
 1696000   0.57422405   -8.6177103    253.77042  0.012469066  0.011336556            1 
 1697000   0.56930258   -8.6354691    253.92437  0.012469278  0.011326712            2 
 1698000   0.57721286   -8.6215322    254.33461  0.012482068  0.011316871            2 
 1699000   0.56874005   -8.6167604    254.22531   0.01246936   0.01130704            2 
 1700000   0.58591503    -8.621676    253.89567  0.012445866  0.011297223            1 
 1701000   0.56858716   -8.6128669    253.64999  0.012426513  0.011287414            3 
 1702000   0.57387346   -8.6226938    253.49264  0.012411508  0.011277611            2 
 1703000   0.56235676   -8.6233341    253.87263  0.012422814  0.011267825            5 
 1704000   0.57020439   -8.6160127    253.83916  0.012413887  0.011258048            6 
 1705000   0.57681797   -8.6495536    254.25071  0.012426721  0.011248283            2 
 1706000   0.58200484   -8.6281923    253.71096  0.012393071  0.011238528            3 
 1707000   0.56910301    -8.631916     254.0199  0.012400894  0.011228786            3 
 1708000   0.56312783   -8.6124139    254.12721  0.012398869   0.01121905            3 
 1709000    0.5770405    -8.637791     254.0957  0.012390077  0.011209337            4 
 1710000   0.55951792    -8.621581    253.68961  0.012363041  0.011199608            2 
 1711000   0.55741965   -8.6300408    253.63264  0.012353041  0.011189894            3 
 1712000    0.5718638   -8.6493084    253.90913  0.012359284  0.011180203            2 
 1713000   0.56917992    -8.614646    253.91367   0.01235229  0.011170512            3 
 1714000   0.57967453   -8.6169306    253.71756  0.012335548  0.011160841            3 
 1715000   0.56199812   -8.6281697    253.54375   0.01231991  0.011151159            2 
 1716000   0.57365402   -8.6463828    253.67449   0.01231908  0.011141498            2 
 1717000   0.56829267   -8.6466768    254.09273  0.012332204  0.011131838            4 
 1718000   0.56246314   -8.6467408    253.90149   0.01231575  0.011122201            3 
 1719000    0.5721401   -8.6252901     253.6129  0.012294595  0.011112567            2 
 1720000    0.5794702   -8.6292876    253.59523  0.012286591  0.011102945            1 
 1721000   0.56210154   -8.6305892    253.54738  0.012277134  0.011093339            1 
 1722000   0.57677417   -8.6196204    253.52612  0.012268976  0.011083726            2 
 1723000   0.55552954   -8.6405185    253.36474   0.01225405  0.011074132            3 
 1724000   0.55294161   -8.6409562     253.7395  0.012265057  0.011064554            2 
 1725000    0.5641855   -8.6326102    253.66052  0.012254131   0.01105498            2 
 1726000   0.55948952   -8.6351219    253.93229  0.012260153  0.011045405            1 
 1727000   0.55903144   -8.6244297    253.70184  0.012241934  0.011035861            8 
 1728000    0.5676388   -8.6341561    253.80752  0.012239946  0.011026319            4 
 1729000   0.57293351   -8.6339472    253.49457  0.012217783  0.011016781            4 
 1730000   0.55789194   -8.6199923     253.9043  0.012230458   0.01100726            2 
 1731000   0.57510744   -8.6448182    253.89248  0.012222823  0.010997755            4 
 1732000   0.56277216   -8.6237255    253.42303  0.012193179   0.01098826            3 
 1733000   0.55616432   -8.6320352    253.60671  0.012194976  0.010978774            3 
 1734000   0.56395985   -8.6346451    253.39423  0.012177731  0.010969291            2 
 1735000   0.56289384   -8.6572089    253.44573  0.012173186  0.010959812            2 
 1736000   0.55714518   -8.6543373    253.38009  0.012163023  0.010950361            2 
 1737000   0.55474582   -8.6424317     253.7673  0.012174597    0.0109409            3 
 1738000   0.55417887   -8.6394122    253.85157  0.012171632  0.010931453            1 
 1739000    0.5560143   -8.6391996    253.87382    0.0121657  0.010922013            1 
 1740000    0.5574548    -8.646603    253.44097  0.012137977  0.010912582            1 
 1741000   0.57056487   -8.6345716    253.11686  0.012115492  0.010903169            3 
 1742000   0.55937946   -8.6208228    253.49489  0.012126621  0.010893754            2 
 1743000   0.54819823   -8.6567675    253.24819  0.012107869  0.010884347            2 
 1744000    0.5605506   -8.6395284    253.90684  0.012132399  0.010874943            1 
 1745000   0.54738677   -8.6355801    253.52662  0.012107288  0.010865565            1 
 1746000    0.5556738    -8.631771    253.57847  0.012102829  0.010856183            3 
 1747000   0.55066951   -8.6673101    253.73162  0.012103206  0.010846812            3 
 1748000   0.57369351   -8.6267462    253.52351  0.012086361  0.010837461            2 
 1749000    0.5520358   -8.6663546    252.90801  0.012050125    0.0108281            3 
 1750000   0.55788775   -8.6591349    253.50775  0.012071797  0.010818749            1 
 1751000   0.54952122   -8.6654202    253.55874   0.01206733  0.010809421            2 
 1752000   0.54897707   -8.6713687    253.70316  0.012067312  0.010800093            2 
 1753000   0.54694236   -8.6617594    253.28443  0.012040522  0.010790781            1 
 1754000   0.54376144   -8.6447438     254.0925   0.01207205   0.01078148            3 
 1755000   0.54450507   -8.6538537    253.15593  0.012020699  0.010772186            2 
 1756000   0.56100129   -8.6279507    253.75711  0.012042384   0.01076291            3 
 1757000   0.55654387   -8.6421535    253.80621  0.012037858  0.010753644            2 
 1758000   0.55457878   -8.6587327    253.23855  0.012004103  0.010744382            2 
 1759000   0.55372072   -8.6531062    253.53447  0.012011298  0.010735118            3 
 1760000    0.5449657   -8.6561216    252.72348  0.011966074  0.010725864            4 
 1761000   0.55738496   -8.6527475    253.22962   0.01198323  0.010716618            3 
 1762000   0.53966645   -8.6591042    253.09971  0.011970285  0.010707391            2 
 1763000   0.55742985   -8.6693358    252.59996  0.011939873   0.01069816            2 
 1764000   0.53975231   -8.6613491     253.1635  0.011959727  0.010688941            2 
 1765000   0.54609644   -8.6557634    253.52294  0.011969922  0.010679748            4 
 1766000   0.55606365    -8.644029    253.36019  0.011955464  0.010670559            2 
 1767000   0.54612157   -8.6779715    252.97391  0.011930481  0.010661378            2 
 1768000   0.54939271   -8.6609569    253.27315  0.011937837  0.010652206            3 
 1769000   0.54705592   -8.6690169    253.53153  0.011943261   0.01064305            4 
 1770000    0.5440196   -8.6777505    253.33209  0.011927123    0.0106339            6 
 1771000   0.54555418   -8.6507894    253.56748  0.011931465   0.01062475            3 
 1772000   0.54175712   -8.6636838    253.02993  0.011899451  0.010615606            2 
 1773000   0.55466411   -8.6558551    253.31457  0.011906118  0.010606467            3 
 1774000     0.555178   -8.6611184    253.37835  0.011902403  0.010597335            2 
 1775000    0.5381944   -8.6616257     253.0888  0.011882103  0.010588211            1 
 1776000   0.54739527   -8.6791127    252.80267  0.011861987    0.0105791            3 
 1777000   0.54164668    -8.675614    253.04635  0.011866739  0.010569995            5 
 1778000   0.53517545   -8.6624361    252.67001  0.011842427  0.010560897            1 
 1779000   0.54414274   -8.6537885    253.09756  0.011855797  0.010551812            3 
 1780000   0.54042604   -8.6725068    252.83783  0.011836977  0.010542735            5 
 1781000   0.54214447      -8.6586    253.07674   0.01184151  0.010533666            2 
 1782000   0.55081627   -8.6900065    253.15176  0.011838373  0.010524607            2 
 1783000   0.53307693   -8.6776963    253.01262   0.01182523  0.010515546            4 
 1784000   0.53790606   -8.6603602    253.13164  0.011824161   0.01050651            3 
 1785000   0.53668923   -8.6723248     252.7926  0.011801709  0.010497483            2 
 1786000    0.5448966   -8.6826768    253.15461  0.011811992  0.010488458            4 
 1787000   0.54321015    -8.676082    252.80164  0.011788922  0.010479437            5 
 1788000   0.54197829   -8.6807008    252.86344  0.011785209   0.01047043            3 
 1789000   0.54711231   -8.7001175    252.92837  0.011781646  0.010461436            3 
 1790000   0.54348048   -8.6947383     252.7737  0.011767863  0.010452448            4 
 1791000    0.5468385   -8.6860695    252.88638  0.011766535  0.010443471            2 
 1792000   0.54002446   -8.6719572      253.105  0.011770136  0.010434503            2 
 1793000   0.54191635   -8.6870794    253.18129  0.011767117  0.010425543            2 
 1794000   0.54082251   -8.6757948    252.92288  0.011748554  0.010416598            2 
 1795000   0.53536262   -8.6837784    252.81779   0.01173713  0.010407658            5 
 1796000   0.52228827   -8.6885814     253.3161  0.011753717  0.010398732            2 
 1797000   0.54353813   -8.6802206    252.75469  0.011721141  0.010389809            3 
 1798000   0.54328093   -8.6998963    252.84513  0.011718814  0.010380901            2 
 1799000   0.54307245   -8.6876521    252.79796  0.011710115  0.010372001            4 
 1800000   0.53096121   -8.7099432    252.83192  0.011705181  0.010363102            3 
 1801000   0.54166757   -8.6799325    253.03788  0.011708212   0.01035422            2 
 1802000   0.53554014    -8.680629    252.80464  0.011690929  0.010345342            3 
 1803000   0.54213762   -8.6973444    252.98329  0.011692701  0.010336471            3 
 1804000   0.53552504   -8.6932247    252.61023  0.011668987  0.010327612            2 
 1805000   0.53773544    -8.686205    252.95532  0.011678454  0.010318758            4 
 1806000   0.53068151   -8.7179381    252.87704  0.011668376  0.010309918            1 
 1807000    0.5363016   -8.7071579    253.01825   0.01166843  0.010301086            4 
 1808000   0.54296709   -8.7039195    252.47918   0.01163713  0.010292274            1 
 1809000   0.54109351   -8.6880854    252.96824  0.011653227  0.010283464            1 
 1810000   0.54113732   -8.7019986    252.37094  0.011619288  0.010274666            2 
 1811000   0.53459114   -8.7018669    252.92789    0.0116385  0.010265872            1 
 1812000   0.53241641   -8.6949712    252.39347    0.0116075  0.010257085            4 
 1813000   0.51974944   -8.6953577    252.85513  0.011622317  0.010248316            3 
 1814000   0.52305692   -8.6952283     252.7186  0.011609638  0.010239542            4 
 1815000   0.52181204   -8.6889412    253.30702  0.011630258  0.010230785            3 
 1816000   0.53624949   -8.7081214     252.6603  0.011594177  0.010222035            3 
 1817000   0.52823462   -8.6817593    252.98589  0.011602728  0.010213291            3 
 1818000   0.52122878   -8.6980146     253.0545  0.011599491  0.010204553            3 
 1819000   0.52653421   -8.7031729    252.78828  0.011580918  0.010195837            3 
 1820000    0.5227148   -8.7113914     252.6974  0.011570394   0.01018713            3 
 1821000   0.52977646   -8.7137075    252.86281  0.011571609  0.010178431            3 
 1822000   0.51667827    -8.708644     252.7097  0.011558255   0.01016974            2 
 1823000   0.53705812   -8.6931547    252.75852  0.011554147  0.010161053            2 
 1824000    0.5378415   -8.7011032      252.491   0.01153559  0.010152386            3 
 1825000   0.51680047   -8.7045573    252.87082  0.011546613   0.01014373            3 
 1826000   0.52726305   -8.7153861    252.63114  0.011529351  0.010135079            2 
 1827000   0.52873892   -8.7021122    252.89184  0.011534932  0.010126424            3 
 1828000   0.52141585   -8.6906217    252.91956  0.011529885  0.010117792            3 
 1829000   0.51440642   -8.6956807    252.48739  0.011503891  0.010109169            3 
 1830000   0.52713756    -8.714578    252.76225   0.01151012  0.010100543            3 
 1831000   0.51738554   -8.7102497    252.86923  0.011508703  0.010091929            2 
 1832000   0.51778478   -8.7235748    252.79729  0.011499149  0.010083325            4 
 1833000   0.52558763   -8.7103541    252.58393  0.011483175  0.010074719            3 
 1834000   0.51832129   -8.6893324    252.54535  0.011475161  0.010066141            2 
 1835000   0.52618591   -8.7200359    252.99681   0.01148941  0.010057564            4 
 1836000   0.51554978   -8.7223453    252.70363  0.011469845  0.010049002            4 
 1837000   0.51597503   -8.7046766    252.67335  0.011462228  0.010040442            1 
 1838000   0.51236602   -8.6905601    252.41484  0.011444271  0.010031898            2 
 1839000   0.51136575   -8.7081176    252.89583  0.011459844  0.010023359            2 
 1840000   0.51568771   -8.7139671    252.49131  0.011435295   0.01001483            2 
 1841000   0.51819694    -8.709944    252.64599  0.011436085  0.010006302            2 
 1842000   0.50578391   -8.7064643    252.43983   0.01142055 0.0099977859            2 
 1843000   0.52557281   -8.7127813    252.34823  0.011410211 0.0099892861            1 
 1844000   0.51336267   -8.7057081    252.20702  0.011397642 0.0099807843            3 
 1845000    0.5094221   -8.7059537    252.79912  0.011418208  0.009972302            3 
 1846000   0.51728958    -8.731081    252.31081  0.011389979 0.0099638225            2 
 1847000   0.51842374   -8.7021339    252.51156  0.011392869 0.0099553541            3 
 1848000   0.50884684   -8.7099832    252.42639  0.011382864 0.0099468964            1 
 1849000   0.51837833   -8.7072858    252.37076    0.0113742 0.0099384442            3 
 1850000    0.5283496   -8.7237092    252.25671  0.011362915 0.0099299984            3 
 1851000    0.5025822   -8.7329562    252.26303  0.011357061 0.0099215627            1 
 1852000   0.50908391   -8.7166285    252.28623  0.011351972 0.0099131421            2 
 1853000   0.51678052   -8.7175399    252.47414  0.011354297 0.0099047372            3 
 1854000   0.53134491   -8.7236766    252.71864  0.011359162  0.009896338            2 
 1855000    0.5118377   -8.7091601    252.29376  0.011333952 0.0098879517            2 
 1856000   0.51174689   -8.7137638    252.56305  0.011339936 0.0098795756            1 
 1857000   0.50930819   -8.7308873    252.50035  0.011331016 0.0098711996            5 
 1858000   0.51730412   -8.7202184    252.66261  0.011332195 0.0098628307            3 
 1859000   0.51451071   -8.7068559    252.75142   0.01133008 0.0098544679            2 
 1860000   0.51750883   -8.7248646    252.59044  0.011316776 0.0098461207            5 
 1861000   0.50494607   -8.7255125    252.55786  0.011309236 0.0098377798            3 
 1862000   0.51266119   -8.7244277    252.34608  0.011293684 0.0098294452            3 
 1863000   0.50693948   -8.7222814    252.39762  0.011289928 0.0098211068            1 
 1864000   0.51311221   -8.7399901    252.69209  0.011297036 0.0098127866            3 
 1865000    0.5015724   -8.7230774    252.50592   0.01128266 0.0098044728            4 
 1866000   0.50426521   -8.7335585    252.35015  0.011269657 0.0097961672            2 
 1867000    0.5016407   -8.7230965    252.43278  0.011267308 0.0097878758            4 
 1868000   0.50742941   -8.7466711    252.53939  0.011266033  0.009779585            1 
 1869000   0.49419607   -8.7450332    252.30919  0.011249741  0.009771306            1 
 1870000   0.51276641   -8.7200828    252.22098  0.011239794 0.0097630407            2 
 1871000   0.50356741   -8.7418727    252.55291  0.011248571 0.0097547798            3 
 1872000   0.50813982   -8.7379155    252.48639  0.011239601 0.0097465305            3 
 1873000   0.50098489   -8.7281667     252.1178  0.011217201 0.0097382868            2 
 1874000   0.50780529   -8.7394675     252.4015   0.01122383 0.0097300483            4 
 1875000   0.50909307   -8.7432786    252.91752  0.011240779 0.0097218252            4 
 1876000   0.49453954   -8.7483683    252.33361  0.011208849 0.0097136129            6 
 1877000    0.5038956   -8.7451055    252.36857   0.01120443 0.0097054053            3 
 1878000   0.50138902   -8.7263226    252.07036  0.011185231 0.0096972024            5 
 1879000   0.50685008    -8.736518    252.19284   0.01118471 0.0096890191            2 
 1880000   0.51234801   -8.7323949    252.19337  0.011178784 0.0096808352            2 
 1881000   0.50345386   -8.7546541     252.5215  0.011187378 0.0096726661            3 
 1882000   0.48917992   -8.7477585    252.61339  0.011185503 0.0096645007            3 
 1883000   0.50231862   -8.7275073    252.49963  0.011174528 0.0096563456            1 
 1884000   0.50205622   -8.7488399    252.11552  0.011151606  0.009648198            3 
 1885000   0.49844999    -8.743287    252.18975  0.011148972 0.0096400555            1 
 1886000   0.49775896   -8.7332667     252.1851  0.011142855 0.0096319122            2 
 1887000   0.49733785    -8.760178    251.93748  0.011126015 0.0096237795            5 
 1888000   0.49486039   -8.7246712    252.23466  0.011133239 0.0096156643            4 
 1889000   0.50505151   -8.7266335    252.38354  0.011133913 0.0096075599            4 
 1890000   0.48606469   -8.7364782    252.01024  0.011111563 0.0095994616            2 
 1891000   0.50024335   -8.7430284     252.3356  0.011120024 0.0095913706            3 
 1892000   0.49758898   -8.7390606    252.29672  0.011112435 0.0095832863            3 
 1893000   0.50654973    -8.728945    252.12989  0.011099221 0.0095752122            2 
 1894000   0.49794827   -8.7445274    252.29913  0.011100807  0.009567148            3 
 1895000   0.48614198   -8.7431488     251.9984  0.011081724 0.0095590891            1 
 1896000   0.49158387   -8.7582253     251.9981  0.011075866 0.0095510425            2 
 1897000   0.49247833   -8.7435388    252.21309  0.011079472  0.009542999            2 
 1898000   0.48831769   -8.7420062    252.44391  0.011083769 0.0095349647            1 
 1899000   0.50266512   -8.7553428    252.29857  0.011071554 0.0095269419            1 
 1900000   0.49876925   -8.7552413    252.20491  0.011061619 0.0095189278            1 
 1901000   0.50124129   -8.7469566    252.15171  0.011053468 0.0095109234            3 
 1902000   0.49760874   -8.7419925    252.17408  0.011048637 0.0095029409            1 
 1903000   0.48234399   -8.7548565    251.65115  0.011019931 0.0094949646            3 
 1904000   0.49472439   -8.7574056    252.17157  0.011036921 0.0094869866            1 
 1905000   0.49022581   -8.7466039    252.26936  0.011035405 0.0094790186            2 
 1906000   0.49760916   -8.7590234    251.89562  0.011013275  0.009471059            1 
 1907000   0.48791825   -8.7675873    252.07188  0.011015202 0.0094631058            2 
 1908000    0.4963571   -8.7744368    251.90096  0.011001964 0.0094551664            1 
 1909000   0.48739507   -8.7604577    252.42836  0.011019223 0.0094472232            1 
 1910000   0.48573364   -8.7478504    251.76042  0.010984311 0.0094392959            3 
 1911000   0.49762806   -8.7426218    251.90854  0.010985023 0.0094313835            2 
 1912000   0.48716256   -8.7641815    252.01452  0.010983896 0.0094234752            3 
 1913000   0.48201846   -8.7471872    252.32023  0.010991472 0.0094155831            2 
 1914000   0.50681278   -8.7604244    252.14892  0.010978271 0.0094076921            1 
 1915000    0.4897304   -8.7618646    251.92909  0.010962972 0.0093998072            1 
 1916000   0.48865168    -8.746629    252.26556  0.010971884 0.0093919353            2 
 1917000   0.48189217   -8.7470817    251.90287  0.010950394 0.0093840697            2 
 1918000   0.48478027   -8.7721376    252.41348   0.01096687 0.0093762056            2 
 1919000   0.48908434   -8.7746618    251.84968  0.010936672 0.0093683543            1 
 1920000   0.47568508   -8.7614349    251.98295   0.01093676 0.0093605102            1 
 1921000   0.47772149   -8.7441935    252.18815  0.010939968 0.0093526748            1 
 1922000   0.48972591   -8.7669727    252.14549  0.010932427 0.0093448493            4 
 1923000   0.48616481   -8.7660847    252.15868  0.010927313  0.009337031            3 
 1924000   0.47672457   -8.7696295    251.81428  0.010906717  0.009329223            2 
 1925000   0.48225737   -8.7523741    252.11717  0.010914163 0.0093214254            1 
 1926000   0.47832684   -8.7839539    252.12923  0.010909018 0.0093136329            4 
 1927000   0.48701372   -8.7699292     251.8094  0.010889526 0.0093058522            3 
 1928000    0.4933519   -8.7552018    252.00896  0.010892503 0.0092980786            2 
 1929000   0.48318055   -8.7606246     252.1553  0.010893179 0.0092903225            2 
 1930000   0.47876129   -8.7596106    251.76301  0.010870596 0.0092825694            1 
 1931000   0.48495342     -8.76182     251.6465  0.010859939 0.0092748262            2 
 1932000   0.47451971   -8.7682246    251.75922  0.010859179 0.0092670784            3 
 1933000    0.4861666   -8.7887688    251.76697  0.010853896 0.0092593373            2 
 1934000   0.48666195   -8.7842291    251.69009  0.010844971 0.0092516116            3 
 1935000   0.48322175   -8.7781834    251.89086  0.010848013 0.0092438963            2 
 1936000   0.47750686     -8.77448    251.96641  0.010845662 0.0092361795            2 
 1937000   0.48437312   -8.7802187    252.00103  0.010841552 0.0092284766            2 
 1938000   0.48455927   -8.7746263    251.89371  0.010831343 0.0092207824            2 
 1939000   0.48389768   -8.7729279     251.6222  0.010814088 0.0092130939            6 
 1940000   0.48276771   -8.7674618    251.96761  0.010823351 0.0092054158            1 
 1941000   0.48262391   -8.7685268     252.0559  0.010821566  0.009197746            3 
 1942000   0.47766794   -8.7862961    251.90555  0.010809541  0.009190084            1 
 1943000   0.47307582   -8.7837564    252.20758  0.010816932 0.0091824303            2 
 1944000   0.47729911   -8.7774326    252.07921  0.010805865 0.0091747768            2 
 1945000   0.47378643   -8.7782104    251.64772  0.010781822 0.0091671415            3 
 1946000   0.48063879   -8.7797327    252.28439  0.010803545 0.0091595129            2 
 1947000   0.48369952   -8.7835848    252.35785  0.010801141 0.0091518936            3 
 1948000   0.47472957   -8.7620581    251.49039  0.010758487 0.0091442799            2 
 1949000    0.4798084   -8.7752511    251.90608  0.010770741 0.0091366773            3 
 1950000   0.47922155   -8.7850391    251.65178   0.01075435 0.0091290811            2 
 1951000   0.47284863   -8.7842183      251.804  0.010755339 0.0091214868            3 
 1952000   0.47519841   -8.7857738    252.08057  0.010761636 0.0091139071            2 
 1953000   0.47369074   -8.7741169    251.53086   0.01073267 0.0091063285            3 
 1954000   0.46531505   -8.7787041    251.49898  0.010725818 0.0090987585            3 
 1955000   0.46751134   -8.7807235    251.86133  0.010735777 0.0090911963            4 
 1956000   0.46978027    -8.773827    251.71479  0.010724045 0.0090836408            2 
 1957000   0.46793191   -8.7937207    252.15734   0.01073741 0.0090760959            2 
 1958000   0.47692757    -8.785221    251.64053  0.010709931 0.0090685658            2 
 1959000   0.47985243   -8.7883534    251.68371  0.010706301 0.0090610385            2 
 1960000   0.46894157   -8.7874526    252.03384  0.010715724 0.0090535242            2 
 1961000   0.47613638   -8.8023099    251.47957  0.010686706 0.0090460064            2 
 1962000   0.47517067   -8.8014125    251.71449  0.010691237 0.0090384885            1 
 1963000   0.46248563   -8.7870228    251.39077  0.010672048 0.0090309877            2 
 1964000   0.46741337   -8.7883748    252.08032  0.010695872 0.0090235005            3 
 1965000   0.47251441   -8.7861543    251.37263  0.010660417 0.0090160187            4 
 1966000   0.47262152   -8.7819554    251.27136  0.010650702 0.0090085458            2 
 1967000    0.4735311   -8.7957786    251.73908  0.010665102 0.0090010781            2 
 1968000   0.48075058   -8.7855868    251.64902   0.01065587 0.0089936117            3 
 1969000   0.46681711   -8.7789121    251.71442  0.010653226 0.0089861619            2 
 1970000   0.46430381   -8.8020135    251.58246  0.010642236 0.0089787188            2 
 1971000   0.46663673   -8.7956522    251.33676  0.010626449 0.0089712846            1 
 1972000   0.46738325   -8.8062827    251.35859  0.010621982 0.0089638542            1 
 1973000   0.46987562   -8.7872579    251.04452  0.010603333 0.0089564306            4 
 1974000   0.45970395   -8.7956587    251.56748  0.010620039 0.0089490164            1 
 1975000   0.46826552   -8.7826251    251.54709  0.010613801 0.0089416101            3 
 1976000   0.45673294   -8.7892359    251.29901  0.010597968 0.0089342111            2 
 1977000   0.46114827   -8.8051269    251.33655  0.010594189 0.0089268159            3 
 1978000   0.45805505   -8.8055919    251.60745  0.010600246 0.0089194298            4 
 1979000   0.46247594   -8.7966102    251.68617  0.010598205 0.0089120591            2 
 1980000   0.47147682   -8.8068422    251.80327  0.010597781 0.0089046999            4 
 1981000   0.45877389   -8.7721742    251.87103  0.010595282 0.0088973448            3 
 1982000   0.46232486   -8.7893158    251.41079  0.010570585 0.0088899929            2 
 1983000   0.46405282   -8.8006855    251.86469  0.010584329 0.0088826544            2 
 1984000   0.46309504   -8.7908474    251.39618  0.010559315 0.0088753152            2 
 1985000   0.46782256   -8.8032958    251.49285  0.010558054 0.0088679841            2 
 1986000   0.45177396    -8.807031    251.65683  0.010559619 0.0088606622            2 
 1987000   0.46518377   -8.8061708    251.74661   0.01055807 0.0088533475            1 
 1988000   0.46401117   -8.7999374    251.68331  0.010550105 0.0088460413            2 
 1989000    0.4535048   -8.8141083     251.3224   0.01052968 0.0088387512            2 
 1990000   0.46684241    -8.809494     251.6247  0.010537048  0.008831464            1 
 1991000   0.46378662   -8.7999689    251.23809  0.010515574  0.008824183            1 
 1992000   0.46158352   -8.8070912    251.60053  0.010525457 0.0088169023            3 
 1993000   0.46826402   -8.7961874    251.53953  0.010517626 0.0088096376            2 
 1994000   0.45922884    -8.817841    250.95058  0.010487737 0.0088023767            2 
 1995000   0.45521927   -8.8147424    251.51479  0.010506048 0.0087951212            1 
 1996000    0.4612781   -8.8017868    251.32158  0.010492718 0.0087878779            2 
 1997000    0.4626992   -8.8230425    251.42807  0.010491907 0.0087806355            2 
 1998000      0.44978    -8.804309    251.41473    0.0104861 0.0087734046            2 
 1999000   0.44882548   -8.8227256    251.40476  0.010480439 0.0087661788            2 
 2000000   0.44464982   -8.8097659    251.19819  0.010466591  0.008758957            1 
 2001000   0.46187895   -8.8242709    251.71758  0.010482991 0.0087517479            1 
 2002000   0.44428015   -8.8047394    251.46627  0.010467294 0.0087445417            1 
 2003000   0.45539745   -8.8070824    251.10425  0.010447007  0.008737349            1 
 2004000   0.44848526   -8.8095257    251.25674  0.010448135 0.0087301629            2 
 2005000    0.4502043   -8.8081864    251.50856   0.01045339 0.0087229815            2 
 2006000   0.46101433   -8.8140012    251.28647  0.010438953  0.008715808            3 
 2007000   0.44703651   -8.8018989     251.1765  0.010429185 0.0087086439            1 
 2008000   0.46121955    -8.804416    251.35894  0.010431563 0.0087014865            1 
 2009000   0.44320597   -8.8148008    251.66546  0.010439085 0.0086943456            2 
 2010000   0.45615203   -8.8313482    251.42332  0.010423852 0.0086872041            1 
 2011000   0.45677739   -8.8050061    251.38962  0.010417272 0.0086800717            2 
 2012000   0.45405583     -8.80562      251.566    0.0104194 0.0086729481            2 
Loop time of 4820.69 on 48 procs for 2000000 steps with 4000 atoms

Performance: 71690.983 tau/day, 414.878 timesteps/s
99.4% CPU use with 48 MPI tasks x no OpenMP threads

MPI task timing breakdown:
Section |  min time  |  avg time  |  max time  |%varavg| %total
---------------------------------------------------------------
Pair    | 303.16     | 328.24     | 346.73     |  66.3 |  6.81
Neigh   | 31.972     | 33.175     | 34.432     |  12.2 |  0.69
Comm    | 308.12     | 328.69     | 353.22     |  69.4 |  6.82
Output  | 4.0491     | 4.0511     | 4.0838     |   0.2 |  0.08
Modify  | 4070.9     | 4081.7     | 4090       |   8.5 | 84.67
Other   |            | 44.84      |            |       |  0.93

Nlocal:        83.3333 ave          92 max          76 min
Histogram: 2 2 4 17 3 6 7 4 1 2
Nghost:        2104.69 ave        2123 max        2086 min
Histogram: 2 5 5 6 6 7 6 3 5 3
Neighs:        13829.9 ave       15917 max       12081 min
Histogram: 2 3 9 5 5 12 6 3 2 1
FullNghs:      27660.0 ave       31091 max       24888 min
Histogram: 2 2 9 12 5 7 5 3 1 2

Total # of neighbors = 1327680
Ave neighs/atom = 331.92000
Neighbor list builds = 107008
Dangerous builds = 0

#clear
#
#next RN
#
#jump SELF
Total wall time: 1:20:24
