
units lj                  # Use reduced LJ style units
atom_style atomic         # Uncharged point particles
atom_modify map hash      # Needed for indexing of clusters etc
                          # Used to be able to find where atoms are in relation to each other.

lattice fcc 1.0 spacing 1 1 1
Lattice spacing in x,y,z = 1.5874011 1.5874011 1.5874011
region box block 0 10 0 10 0 10 units lattice
create_box 2 box
Created orthogonal box = (0.0000000 0.0000000 0.0000000) to (15.874011 15.874011 15.874011)
  3 by 4 by 4 MPI processor grid
create_atoms 1 box
Created 4000 atoms
  using lattice units in orthogonal box = (0.0000000 0.0000000 0.0000000) to (15.874011 15.874011 15.874011)
  create_atoms CPU = 0.003 seconds
set type 1 type/fraction 2 0.45 78393
Setting atom values ...
  1799 settings made for type/fraction
mass 1 1.0
mass 2 1.0
pair_style lj/cut  3.5
pair_modify tail  yes
pair_coeff 1  1  1.0  1.0   # Intearaction between 1 and 1 set with epsilon = 1 and sigma = 1
pair_coeff 1  2  1.5  0.8
pair_coeff 2  2  0.5  0.88

write_data data.0
System init for write_data ...
Neighbor list info ...
  update every 1 steps, delay 10 steps, check yes
  max neighbors/atom: 2000, page size: 100000
  master list distance cutoff = 3.8
  ghost atom cutoff = 3.8
  binsize = 1.9, bins = 9 9 9
  1 neighbor lists, perpetual/occasional/extra = 1 0 0
  (1) pair lj/cut, perpetual
      attributes: half, newton on
      pair build: half/bin/atomonly/newton
      stencil: half/bin/3d
      bin: standard
WARNING: Not all mixed pair coeffs generated from mixing. Use write_data with 'pair ij' option to store all pair coeffs. (../write_data.cpp:312)


#############################
#   M E L T   S Y S T E M   #
#############################

velocity all create 2.4 9622624 mom yes dist gaussian # Assign velocities
                                                    # Temperature 2.4, random number seed, zero linear momentum
                                                                                # Gaussian distribution

timestep 0.002   # simulation timestep
thermo 1000       # output thermodynamic data every 1000 steps bf 100

# Define a fix  in this case with index 1 applied to all
# particles in the simulation. This fix is for simulations
# in the anisotropic NPT ensemble. Note that we use the MTK
# correction.
fix 1 all npt temp 2.4 2.4 0.1 iso 5.68 5.68 0.5 mtk yes tchain 5 pchain 5 # Use NPT ensemble
                                                                         # Set temperature and pressure and damping
                                                                         # Numbers of thermostats in chain and in barostat
run 10000          # run for 10000 steps
Per MPI rank memory allocation (min/avg/max) = 3.642 | 3.644 | 3.648 Mbytes
Step Temp E_pair E_mol TotEng Press Volume 
       0          2.4   -5.5879345            0   -1.9888345   -4.1997978         4000 
    1000    2.3863696   -4.9386976            0   -1.3600381    5.6797769     3808.769 
    2000    2.3912756   -5.0320661            0   -1.4460494    5.8436082    3751.9186 
    3000     2.373939   -4.9699425            0   -1.4099242    5.7203236     3793.458 
    4000     2.393965   -4.9971495            0   -1.4070997    5.4028881      3802.82 
    5000    2.4035965   -5.0154278            0   -1.4109344    5.7140458    3772.1644 
    6000    2.4414486   -4.9528543            0    -1.291597    5.9619126    3792.8146 
    7000    2.4159176   -4.9685796            0   -1.3456092    5.7785408    3792.9502 
    8000    2.3695277   -4.9477204            0   -1.3943174    5.8115606    3796.4996 
    9000    2.3536268   -4.9834111            0   -1.4538536    5.7263962    3789.6636 
   10000      2.39152   -4.9883084            0   -1.4019252    5.3111799    3817.6376 
Loop time of 2.55588 on 48 procs for 10000 steps with 4000 atoms

Performance: 676089.099 tau/day, 3912.553 timesteps/s
99.6% CPU use with 48 MPI tasks x no OpenMP threads

MPI task timing breakdown:
Section |  min time  |  avg time  |  max time  |%varavg| %total
---------------------------------------------------------------
Pair    | 1.1624     | 1.2101     | 1.2757     |   2.3 | 47.35
Neigh   | 0.21026    | 0.21795    | 0.22951    |   0.8 |  8.53
Comm    | 0.79877    | 0.871      | 0.92909    |   3.1 | 34.08
Output  | 0.00024119 | 0.00024514 | 0.00031381 |   0.0 |  0.01
Modify  | 0.22383    | 0.24105    | 0.27214    |   2.4 |  9.43
Other   |            | 0.01548    |            |       |  0.61

Nlocal:        83.3333 ave          92 max          75 min
Histogram: 3 6 5 3 9 5 3 6 5 3
Nghost:        1697.40 ave        1723 max        1666 min
Histogram: 1 0 3 5 8 13 8 7 2 1
Neighs:        10002.6 ave       11209 max        8544 min
Histogram: 2 1 6 7 4 9 3 6 5 5

Total # of neighbors = 480126
Ave neighs/atom = 120.03150
Neighbor list builds = 902
Dangerous builds = 172

# Equilibrate just above the melting temperature to avoid step fn in T

fix 1 all npt temp 1.25 1.25 0.1 iso 5.68 5.68 0.5 mtk yes tchain 5 pchain 5
run 2000
Per MPI rank memory allocation (min/avg/max) = 3.644 | 3.645 | 3.649 Mbytes
Step Temp E_pair E_mol TotEng Press Volume 
   10000      2.39152   -4.9883084            0   -1.4019252    5.3111799    3817.6376 
   11000    1.2428256   -7.0308223            0   -5.1670499    5.6469373    2984.0361 
   12000    1.2507595   -7.1504617            0   -5.2747915    5.3233857     2967.122 
Loop time of 0.615587 on 48 procs for 2000 steps with 4000 atoms

Performance: 561415.421 tau/day, 3248.932 timesteps/s
99.6% CPU use with 48 MPI tasks x no OpenMP threads

MPI task timing breakdown:
Section |  min time  |  avg time  |  max time  |%varavg| %total
---------------------------------------------------------------
Pair    | 0.27175    | 0.30143    | 0.32095    |   2.2 | 48.97
Neigh   | 0.038248   | 0.042432   | 0.044584   |   0.7 |  6.89
Comm    | 0.20039    | 0.22317    | 0.25815    |   3.0 | 36.25
Output  | 5.0149e-05 | 5.1844e-05 | 6.6757e-05 |   0.0 |  0.01
Modify  | 0.040532   | 0.04356    | 0.046663   |   0.9 |  7.08
Other   |            | 0.004952   |            |       |  0.80

Nlocal:        83.3333 ave          91 max          76 min
Histogram: 3 2 7 3 6 7 13 3 1 3
Nghost:        2005.54 ave        2032 max        1987 min
Histogram: 4 3 6 4 17 6 7 0 0 1
Neighs:        12881.2 ave       14291 max       11324 min
Histogram: 2 3 1 9 4 11 9 3 2 4

Total # of neighbors = 618300
Ave neighs/atom = 154.57500
Neighbor list builds = 144
Dangerous builds = 14

#############################
# L I N E A R  Q U E N C H  #
#############################

# Define solid atoms. This closely follows ten Wolde  Ruiz-Montero and Frenkel  Faraday Discuss  1996  104  93-110
# Compute components of the per-atom q6 vector
compute q6 all orientorder/atom degrees 1 6 components 6 nnn NULL cutoff 1.3 # compute the Q6 parameter.
                                                                             # Use all neighbours within 1.3 unit cell.

# get number of connections
compute coord_number all coord/atom orientorder q6 0.5

# An atom is solid if it has 8 or more connections (of a possible 14)
variable is_solid atom c_coord_number>=8
group solid dynamic all var is_solid    # Must be dynamic to update
dynamic group solid defined

# do clustering
compute cluster solid cluster/atom 1.3 # Create a cluster where all atoms within are solid and max 1.3 units from another member

# define chunks one chunk per cluster
compute clus_chunks solid chunk/atom c_cluster nchunk every compress yes  # Says which atoms are in which chunk

# count the size of each chunk
compute size_chunks solid property/chunk clus_chunks count


# Find the maximum entry in the vector of chunk sizes
variable max_n equal max(c_size_chunks)


# Thermo style which includes this variable
# thermo_style custom step temp pe vol v_max_n

thermo ${N}  # Print the thermo information every 100 steps
thermo 1000  

# Reset the npt fix at a lower temperature (below freezing)
fix 1  all npt temp  ${temp} ${temp}  0.1  iso  5.68  5.68  0.5  mtk yes tchain  5  pchain  5
fix 1  all npt temp  0.45 ${temp}  0.1  iso  5.68  5.68  0.5  mtk yes tchain  5  pchain  5
fix 1  all npt temp  0.45 0.45  0.1  iso  5.68  5.68  0.5  mtk yes tchain  5  pchain  5

dump dmp2 all dcd ${N} traj.dcd
dump dmp2 all dcd 1000 traj.dcd


compute msd all msd com yes
variable twopoint equal c_msd[4]/6/(step*dt+1.0e-6)
fix 9 all vector 10 c_msd[4]
variable fit equal slope(f_9)/6/(10*dt)
thermo_style custom step temp pe c_msd[4] v_twopoint v_fit v_max_n

fix 1 all npt temp 1.25 ${temp} 0.1 iso 5.68 5.68 0.5 mtk yes tchain 5 pchain 5
fix 1 all npt temp 1.25 0.45 0.1 iso 5.68 5.68 0.5 mtk yes tchain 5 pchain 5
run 500000 # 5000000  # Run for this many steps
Neighbor list info ...
  update every 1 steps, delay 10 steps, check yes
  max neighbors/atom: 2000, page size: 100000
  master list distance cutoff = 3.8
  ghost atom cutoff = 3.8
  binsize = 1.9, bins = 8 8 8
  4 neighbor lists, perpetual/occasional/extra = 1 3 0
  (1) pair lj/cut, perpetual
      attributes: half, newton on
      pair build: half/bin/atomonly/newton
      stencil: half/bin/3d
      bin: standard
  (2) compute orientorder/atom, occasional
      attributes: full, newton on
      pair build: full/bin/atomonly
      stencil: full/bin/3d
      bin: standard
  (3) compute coord/atom, occasional
      attributes: full, newton on
      pair build: full/bin/atomonly
      stencil: full/bin/3d
      bin: standard
  (4) compute cluster/atom, occasional
      attributes: full, newton on
      pair build: full/bin/atomonly
      stencil: full/bin/3d
      bin: standard
Per MPI rank memory allocation (min/avg/max) = 9.832 | 9.837 | 9.842 Mbytes
Step Temp PotEng c_msd[4] v_twopoint v_fit v_max_n 
   12000    1.2507595   -7.1504617 8.3067053e-31 5.7685451e-33 8.3333333e+20            2 
   13000     1.250472    -7.148683   0.45939345 0.0029448297  0.036973638            2 
   14000    1.2420465   -7.1387243   0.87618442 0.0052153833  0.035456475            1 
   15000    1.2393618   -7.1642982    1.3055842 0.0072532452  0.035785257            3 
   16000    1.2412633   -7.1672871    1.7375755  0.009049872  0.035604607            4 
   17000    1.2572586   -7.1666945    2.1430037   0.01050492  0.035297995            1 
   18000    1.2617763   -7.1555594    2.5804194  0.011946386  0.035392662            2 
   19000    1.2314654   -7.2126914     3.032197  0.013299109  0.035570114            2 
   20000    1.2497483   -7.1925281    3.4623661  0.014426525  0.035728778            4 
   21000    1.2240924   -7.1894955    3.8677851  0.015348353  0.035797071            2 
   22000    1.2615583   -7.1506772    4.2793226  0.016209555  0.035699635            2 
   23000    1.2169501   -7.1523807    4.7384252  0.017168207  0.035592503            2 
   24000    1.2262036   -7.1903195    5.1622372  0.017924434  0.035586637            2 
   25000    1.2286425   -7.2628821    5.5099843  0.018366614  0.035533835            3 
   26000    1.2252246   -7.2026754    5.8918088  0.018884002  0.035316331            1 
   27000    1.2162991   -7.2041819    6.3423597  0.019575184  0.035193216            2 
   28000    1.2560595    -7.217187    6.7969412  0.020228991  0.035147631            3 
   29000    1.2169981    -7.173535    7.1685422  0.020599259  0.035106115            2 
   30000     1.205659   -7.1775606    7.5911264  0.021086462  0.034981024            2 
   31000     1.207776   -7.1833484    7.9637781  0.021408005  0.034874979            1 
   32000    1.2359129   -7.2073756    8.3756365  0.021811553  0.034783048            2 
   33000    1.2316119   -7.1868081    8.7071321  0.021987707  0.034664828            2 
   34000    1.2255647     -7.27606    9.0331433  0.022140057  0.034505545            1 
   35000    1.2082275   -7.2265129     9.437176  0.022469466  0.034335701            2 
   36000    1.2028914   -7.2416952    9.9394509  0.023007988  0.034230109            2 
   37000    1.2024876   -7.3077505    10.194374  0.022960301  0.034105794            3 
   38000    1.2047664   -7.2293979    10.589096  0.023221702  0.033969521            1 
   39000    1.2233068   -7.2784815    10.932477  0.023359993  0.033858455            2 
   40000    1.2109442   -7.2558182    11.330968  0.023606183  0.033726307            2 
   41000    1.1755104   -7.2578395    11.702913  0.023786408  0.033638732            1 
   42000    1.2203913    -7.278985     12.01995  0.023849107  0.033507964            1 
   43000    1.2169299   -7.2251261    12.313784  0.023863922  0.033348619            1 
   44000    1.1924306   -7.2748155    12.614598  0.023891283  0.033184142            1 
   45000    1.1868376   -7.2509471    13.034147  0.024137308   0.03301628            2 
   46000    1.1754498   -7.2663511    13.473933    0.0244093  0.032902388            1 
   47000      1.19557   -7.2912664    13.832241   0.02452525  0.032787723            3 
   48000    1.1756576   -7.2729486    14.195239  0.024644511  0.032677278            1 
   49000    1.2109384    -7.281074    14.488751  0.024640734  0.032568921            2 
   50000    1.1921626   -7.2938296    14.746452   0.02457742  0.032431768            3 
   51000    1.1878945    -7.308979    15.050633  0.024592538  0.032289139            2 
   52000    1.1698655   -7.2990781     15.64694  0.025075224  0.032184223            1 
   53000    1.2043143   -7.3236163    15.869199   0.02495157  0.032104068            1 
   54000    1.1758154   -7.3303795    16.346566  0.025226181  0.032029993            2 
   55000    1.1977783   -7.2440397    16.756656  0.025388873  0.031987177            2 
   56000    1.1840825   -7.3292746    17.003005  0.025302091  0.031928069            1 
   57000    1.1886316   -7.3557451    17.180647  0.025117905  0.031832993            2 
   58000    1.1712785    -7.362822     17.47468  0.025107299  0.031728442            5 
   59000    1.1885927   -7.3263714    17.763057  0.025089064  0.031617176            2 
   60000    1.1830244   -7.3169928    18.244969  0.025340234  0.031518345            2 
   61000    1.1429634    -7.307818     18.52735  0.025310587  0.031423301           11 
   62000    1.1815862   -7.2530141    18.880848  0.025377484  0.031312238            2 
   63000    1.1793015   -7.3219627    19.135711  0.025311786  0.031220635            1 
   64000    1.1675951   -7.4036801    19.360578  0.025209086  0.031117358            2 
   65000      1.15411   -7.3557932     19.66081  0.025206166  0.031001255            2 
   66000    1.1666511   -7.3500908    19.822537  0.025028456  0.030882156            1 
   67000    1.1356484   -7.3457309    20.190506  0.025112569  0.030753943            3 
   68000     1.127771   -7.3909632    20.651197  0.025307839  0.030641206            3 
   69000    1.1425562   -7.3549851    21.021391  0.025388153   0.03054896            1 
   70000    1.1632015   -7.4104478    21.254218   0.02530264  0.030451347            2 
   71000    1.1534493   -7.3420606    21.672794  0.025437552  0.030369339            1 
   72000    1.1771754   -7.3655747    21.909522  0.025358243  0.030280439            3 
   73000    1.1637592   -7.3636395    22.191351  0.025332592  0.030188512            1 
   74000    1.1341044    -7.426064    22.567049  0.025413343  0.030103369            2 
   75000    1.1538596   -7.3989295    23.041168  0.025601298  0.030036824            1 
   76000    1.1510441    -7.363385    23.323169   0.02557365   0.02996751            2 
   77000    1.1317382   -7.3784786    23.568653    0.0255072  0.029899773            1 
   78000    1.1297744   -7.3933097    23.856988  0.025488235  0.029831179            1 
   79000    1.1216314   -7.3962264    24.137592  0.025461595  0.029756296            2 
   80000    1.1501633   -7.4111871    24.469409  0.025488968  0.029686316            2 
   81000    1.1168084   -7.4033547    24.832351  0.025547686  0.029619106            1 
   82000    1.1177136   -7.3835361    25.101812  0.025509972   0.02955348            2 
   83000    1.1433704   -7.4500818    25.303001   0.02540462  0.029481423            2 
   84000    1.1502948   -7.4193742    25.563506  0.025360621  0.029403341            2 
   85000    1.1270156   -7.4468783    25.909083  0.025401061  0.029327265            2 
   86000    1.1312985   -7.4381937     26.29312  0.025477829  0.029256239            1 
   87000    1.1320944   -7.4558087    26.548421  0.025429521  0.029187245            3 
   88000    1.1532352    -7.437996    26.712018  0.025295471  0.029118469            2 
   89000    1.1271663   -7.4670708    27.123097  0.025396158  0.029046107            1 
   90000    1.1197414   -7.4278927    27.230959  0.025213851  0.028971114            2 
   91000    1.1325032   -7.4584217     27.42815  0.025117353  0.028883014            3 
   92000    1.1184156   -7.4817389    27.587808  0.024988957  0.028789012            1 
   93000    1.1024674   -7.4769584    27.700889  0.024821585  0.028690985            2 
   94000    1.1011538    -7.494646    27.979932  0.024804904  0.028589861            3 
   95000    1.1545174   -7.5281979    28.264265  0.024793215   0.02848805            2 
   96000    1.0822182   -7.4440116    28.500199  0.024739756  0.028387035            4 
   97000     1.128636   -7.4513237    28.742182  0.024692596  0.028285227            2 
   98000    1.1302925   -7.4898932    29.147186  0.024785022  0.028193901            4 
   99000    1.1330008   -7.5313294    29.391537  0.024740351  0.028104225            1 
  100000    1.1348665   -7.4828245    29.597423  0.024664519  0.028013725            1 
  101000    1.0862514   -7.4931706     29.92199   0.02468811  0.027924284            2 
  102000    1.1109563   -7.5167986    30.163573  0.024643442  0.027834568            1 
  103000    1.0884833   -7.4901838    30.555611  0.024721368  0.027752552            2 
  104000    1.0854275   -7.5321374    30.861152  0.024728487  0.027674788            3 
  105000    1.1019552   -7.5129415    31.261732  0.024810898  0.027606001            3 
  106000    1.1056888   -7.5092888     31.51245  0.024773938  0.027539523            2 
  107000    1.0763463    -7.506197    31.656431  0.024654541  0.027470138            4 
  108000    1.1003668    -7.537056    32.020506  0.024707181  0.027400768            1 
  109000    1.0991139   -7.5479547    32.004189  0.024468034  0.027327731            3 
  110000    1.0932537    -7.489243    32.193428   0.02438896  0.027248494            3 
  111000    1.0965511   -7.5318891    32.313419  0.024259324  0.027164554            6 
  112000    1.0894695   -7.4958244    32.649504  0.024292786  0.027079022            1 
  113000    1.0890495   -7.5426169    32.758347  0.024158073  0.026989284            4 
  114000    1.0689224   -7.4938485    33.116513  0.024207977  0.026904291            2 
  115000    1.0918179    -7.541547    33.270293  0.024108908  0.026820439            3 
  116000    1.0953949   -7.5251667     33.54037  0.024095093  0.026734731            2 
  117000    1.0773111   -7.5662512    33.692615  0.023997589  0.026648178            2 
  118000    1.0756979   -7.5920577     33.88527  0.023930275  0.026562586            5 
  119000    1.0519098   -7.5703985    34.035993  0.023834729  0.026474429            2 
  120000     1.054294   -7.5387771    34.364202  0.023864029  0.026387434            2 
  121000    1.0733527   -7.5802206    34.495633  0.023757323  0.026300016            3 
  122000     1.058661   -7.5666712    34.661559  0.023675928  0.026214038            3 
  123000    1.0865778   -7.5707855    34.874262  0.023627549  0.026127807            2 
  124000    1.0662075    -7.541786    35.055214  0.023558611  0.026036891            4 
  125000    1.0633903    -7.612678    35.292583  0.023528388  0.025948691            1 
  126000    1.0644697   -7.5882391    35.495768  0.023476037   0.02586164            3 
  127000    1.0908269   -7.6099598    35.631275  0.023380101  0.025775156            1 
  128000    1.0916721   -7.5993171    35.920382  0.023385665  0.025691279            4 
  129000    1.0706739     -7.62777    36.086537  0.023311717  0.025607283            4 
  130000    1.0771732   -7.5819277     36.32701  0.023286545  0.025522908            9 
  131000    1.0806564    -7.634549    36.287866  0.023083884    0.0254379            2 
  132000    1.0664656   -7.6562014    36.475606  0.023027529  0.025347826            2 
  133000    1.0768658   -7.6449072     36.67711  0.022980645    0.0252578            2 
  134000    1.0634853   -7.6313915    36.774278  0.022869576  0.025166755            2 
  135000    1.0485708   -7.6318526    37.042352   0.02286565  0.025076265            2 
  136000    1.0568169   -7.5932912    37.360774  0.022892631  0.024987593            5 
  137000     1.053615   -7.6294355     37.47356  0.022794136  0.024899361            3 
  138000    1.0437169   -7.6332805    37.766138  0.022805639  0.024815258            2 
  139000    1.0498298   -7.6366624    38.085698  0.022833152  0.024737003            2 
  140000    1.0358605   -7.6887745     38.20597  0.022741649  0.024656774            3 
  141000    1.0537772   -7.6664664    38.333239  0.022655578   0.02457945            2 
  142000    1.0292909   -7.6135679    38.687384  0.022703864  0.024504283            2 
  143000    1.0352812   -7.6468367    38.770192  0.022593352  0.024428261            4 
  144000    1.0407808   -7.6856115    38.910503  0.022517652  0.024350199            1 
  145000    1.0318633   -7.6905723    39.039132  0.022436283  0.024272642            2 
  146000     1.052287   -7.6668106    39.252729  0.022404526  0.024193828            5 
  147000    1.0544608   -7.7224979    39.376722  0.022322405  0.024115446            3 
  148000    1.0383129   -7.6704882    39.747902  0.022380575  0.024039352            3 
  149000     1.022913   -7.6949444    39.922806  0.022328191  0.023964605            2 
  150000    1.0376871   -7.6447895    39.956093  0.022197829    0.0238893            3 
  151000    1.0207225   -7.7044855    40.213733  0.022193009  0.023812989            4 
  152000    1.0110026   -7.6887584    40.368879  0.022132061  0.023736761            3 
  153000     1.008649   -7.6733098    40.455853  0.022034778  0.023659137            3 
  154000    1.0143777   -7.6945736    40.634275  0.021988244  0.023582302            2 
  155000    1.0249913   -7.6733784    40.776991  0.021923113  0.023508651            2 
  156000    1.0188245   -7.7580435    40.954089  0.021877184  0.023436174            2 
  157000    1.0271836   -7.7388854    41.226279  0.021882314  0.023363747            2 
  158000    1.0193474   -7.7461959    41.419138  0.021845537  0.023292568            2 
  159000   0.99921833   -7.7545535    41.563304  0.021783702  0.023221329            2 
  160000   0.98726008   -7.7608231    41.596212  0.021664694   0.02314801            3 
  161000    1.0170086   -7.7506543    41.758802  0.021614287  0.023074032            3 
  162000     1.032224   -7.7482912    41.886474   0.02154654  0.022999422            3 
  163000    1.0340003   -7.7814146    42.006078    0.0214755  0.022925581            1 
  164000   0.99887645   -7.7663936    42.322801  0.021505488  0.022853864            3 
  165000    1.0096581   -7.7598941    42.460886  0.021444892  0.022781601            3 
  166000    1.0014309   -7.7683201    42.631631  0.021401421  0.022711753            2 
  167000   0.99599257   -7.7838727    42.707642  0.021311199  0.022640487            4 
  168000   0.99741101   -7.7800964    42.811372  0.021235799  0.022568116            2 
  169000   0.97552591   -7.7632631    42.797613  0.021103359  0.022494765            2 
  170000   0.97993347   -7.7796803    42.960904  0.021059267  0.022419415            2 
  171000    1.0016421   -7.7632746    43.170278  0.021038147  0.022346053            3 
  172000   0.98417521   -7.7648864    43.297856  0.020977644  0.022271888            2 
  173000   0.99278626   -7.7221225    43.555508  0.020980495  0.022198772            3 
  174000   0.96315621   -7.7625745    43.595338  0.020878993  0.022126582            3 
  175000    0.9997044   -7.7528602    43.785886  0.020850422  0.022055713            4 
  176000     0.982512   -7.7652407    44.030031  0.020847553  0.021985436            5 
  177000    1.0039212   -7.7680862    44.294821  0.020854435   0.02191792            3 
  178000   0.97841119   -7.8136628    44.389655  0.020781674  0.021851236            2 
  179000   0.98381479   -7.8544532    44.431749  0.020685172  0.021784407            3 
  180000   0.96304007   -7.8037655    44.575739  0.020636916  0.021716325            1 
  181000   0.96538242   -7.7786756    44.926281  0.020684291  0.021649539            2 
  182000   0.96361806   -7.8812875    44.877891  0.020548485  0.021582827            1 
  183000   0.96662131   -7.8572966    44.931544   0.02046063  0.021515416            3 
  184000   0.97858998    -7.894357    45.073428   0.02041369  0.021447837            2 
  185000    0.9629332   -7.8502257    45.357223  0.020431181  0.021380942            2 
  186000   0.98034531   -7.8614835    45.349665   0.02031795  0.021314652            2 
  187000   0.97118176   -7.8435294    45.521646  0.020285939  0.021248483            2 
  188000   0.96260098   -7.8990669    45.598777  0.020212224  0.021182257            1 
  189000   0.97571378   -7.8581024    45.756255  0.020174716  0.021116518            3 
  190000   0.97619852   -7.8735229      45.8749   0.02012057   0.02105027            2 
  191000   0.94106817    -7.875234    46.162484    0.0201407  0.020985696            2 
  192000   0.95741918   -7.8616803    46.259415  0.020077871  0.020921611            4 
  193000   0.96950496   -7.8532311    46.381281   0.02002646  0.020857082            2 
  194000   0.94928476   -7.8485545     46.54831  0.019994978  0.020792405            3 
  195000   0.98463599   -7.8854745    46.680432  0.019948902  0.020729182            4 
  196000    0.9697231   -7.9204595    46.766907  0.019883889  0.020665922            2 
  197000   0.95433731   -7.9051227    46.898197  0.019838493  0.020603075            3 
  198000   0.95305078   -7.9158307    46.922874  0.019748684  0.020541182            2 
  199000   0.95669729   -7.9142279    46.929047   0.01965203  0.020477905            2 
  200000   0.94588857   -7.9535565    47.110742  0.019629476   0.02041447            5 
  201000   0.95809619   -7.9277665     47.36829  0.019638595  0.020351213            2 
  202000   0.94481901   -7.9253976    47.429555  0.019566648  0.020287891            2 
  203000   0.94477523   -7.9044904    47.566028  0.019526284  0.020226384            3 
  204000   0.94933636   -7.9266199    47.603422  0.019445842  0.020164617            2 
  205000   0.93406555   -7.9238961    47.846709  0.019449882  0.020102445            1 
  206000   0.95580211   -7.9323229    47.853101  0.019358051  0.020041201            7 
  207000   0.93625632   -7.9758363    47.925625   0.01929373  0.019979056            5 
  208000   0.93534711     -7.92428    48.007047  0.019233593   0.01991645            2 
  209000   0.91801875    -7.939312    48.177668  0.019209596  0.019854528            3 
  210000   0.91915261   -7.9609002    48.012419  0.019052547  0.019791488            1 
  211000   0.93480691   -7.9813422    48.150102  0.019016628   0.01972768            2 
  212000   0.93654539   -7.9856952    48.191739  0.018943294  0.019663732            7 
  213000   0.92441889   -7.9982945    48.292349   0.01889372  0.019599806            2 
  214000    0.9252965   -7.9582148    48.426439  0.018857648   0.01953704            3 
  215000   0.91866873    -8.026747    48.566159  0.018824093  0.019474343            5 
  216000   0.93054648   -8.0061183    48.549878  0.018730663  0.019411127            5 
  217000   0.92769253   -7.9842079    48.690151  0.018698214  0.019348101            1 
  218000   0.92151086   -7.9821657    48.676395  0.018607185  0.019285521            2 
  219000   0.91890332   -8.0400458    48.772429  0.018558763   0.01922232            2 
  220000   0.93204768   -7.9818144    49.012178  0.018565219  0.019158915            3 
  221000   0.93546919   -8.0091467    48.958495  0.018460971   0.01909584            5 
  222000   0.92521373   -8.0353025    48.871567  0.018345183  0.019032375            2 
  223000   0.94298437   -7.9552833     49.20687  0.018388218  0.018969266            3 
  224000   0.90281138   -8.0165319    49.185837  0.018298302   0.01890666            4 
  225000   0.90370152   -8.0427285    49.225385  0.018231624  0.018844196            1 
  226000   0.91041364   -8.0217519    49.447109   0.01823271  0.018781183            3 
  227000   0.89329222   -8.0569955    49.302631  0.018099351   0.01871807            4 
  228000   0.91703299   -8.0223517    49.415282  0.018061141  0.018654275            4 
  229000   0.91103658   -8.0198683    49.433689   0.01798897  0.018590329            3 
  230000   0.92478928   -8.0403302    49.559599  0.017956376  0.018527148            2 
  231000   0.89215456   -8.0651229    49.538267  0.017870948  0.018463932            2 
  232000   0.89212145   -8.0264104    49.749346  0.017869736  0.018400928            4 
  233000   0.91563101   -8.0706718    49.648011  0.017756799   0.01833809            3 
  234000   0.90567199   -8.0832657    49.668479  0.017688205   0.01827532            4 
  235000   0.89792587   -8.0663792    49.892383  0.017692334  0.018212039            4 
  236000   0.89036595   -8.0416942    49.914578  0.017625204  0.018148969            3 
  237000   0.89805273   -8.0346518    50.064363  0.017603503  0.018086345            3 
  238000   0.90168253   -8.0563017     50.07865  0.017534541  0.018023631            7 
  239000   0.90003835   -8.0868406     50.07218  0.017458919  0.017960871            8 
  240000   0.88814149   -8.0366144    50.215346  0.017435884  0.017898269            8 
  241000   0.90888275     -8.10011    50.247896  0.017374791  0.017836737            2 
  242000    0.8875677   -8.0928126    50.526493   0.01739893  0.017776036            3 
  243000   0.88810286   -8.1152352    50.428772  0.017293817  0.017715318            3 
  244000   0.87438208   -8.0888891    50.721391  0.017322879  0.017655247            4 
  245000    0.8804644   -8.1043156    50.640152  0.017224541  0.017595644            3 
  246000   0.88348693   -8.1195677     50.74738  0.017190847     0.017536            4 
  247000   0.87870421   -8.1233679    50.761923  0.017126155  0.017477045            2 
  248000   0.87860324    -8.163206    50.751542  0.017053609  0.017418099            2 
  249000   0.86616809    -8.129865    50.851448  0.017018557   0.01735851            6 
  250000   0.88065125   -8.1331125    50.896968  0.016965656  0.017298392            5 
  251000   0.86316901     -8.14625     50.99492  0.016930584  0.017238758            6 
  252000   0.87075421    -8.136681    51.036849  0.016877265  0.017180144            5 
  253000   0.86889234   -8.1452126    51.121651  0.016838488  0.017121684            2 
  254000   0.85255063   -8.1496874     51.24313   0.01681205  0.017063316            3 
  255000   0.86166357    -8.169244    51.150342  0.016715798  0.017005507            4 
  256000   0.85182442   -8.1720629    51.130707   0.01664411  0.016947658            2 
  257000   0.84358804   -8.1801368    51.375245   0.01665864  0.016889897            4 
  258000   0.85099088   -8.1848405    51.428756  0.016611355  0.016832323            2 
  259000   0.83963252   -8.1574673    51.448991  0.016553729  0.016775155            3 
  260000   0.84061957   -8.1820459     51.50981  0.016509554  0.016717897            1 
  261000   0.86620697   -8.1490012    51.587275  0.016471033  0.016660823            1 
  262000     0.853523   -8.1552721    51.517308  0.016385912  0.016603892            5 
  263000   0.83665621   -8.1714745    51.710016  0.016384669  0.016547528            4 
  264000   0.84170348   -8.2082242     51.60252  0.016288674  0.016491004            5 
  265000   0.84664466   -8.1572988    51.911916  0.016324502  0.016435002            5 
  266000   0.83963213   -8.1929451     51.97972  0.016284373  0.016379503            2 
  267000   0.83907524   -8.1860826    51.927682  0.016207142  0.016323517            4 
  268000   0.83681137   -8.1786945    52.002895  0.016170054  0.016267638            4 
  269000   0.84085583   -8.2177482    51.870358  0.016068884  0.016211701            8 
  270000   0.83424629   -8.2000333    51.912049  0.016022237  0.016155809            3 
  271000   0.83455833   -8.2107116     51.91534  0.015964127  0.016100233            2 
  272000    0.8330317   -8.2260021     52.02783  0.015939899  0.016044453           11 
  273000   0.84068899   -8.2521266    51.934641  0.015853065  0.015989171           21 
  274000    0.8318392   -8.2546584    52.180767  0.015870063  0.015934049           12 
  275000   0.82186126   -8.2149448    52.354621  0.015865037  0.015879647            7 
  276000   0.82907821   -8.2203431    52.329997   0.01580012  0.015825779            3 
  277000   0.83069067   -8.2453636    52.365442  0.015753743  0.015772435            3 
  278000    0.8453171    -8.242135    52.370055  0.015698458  0.015718506            4 
  279000   0.81284944    -8.267045    52.444005  0.015664279  0.015664568            8 
  280000   0.80267436   -8.2498131    52.495079  0.015623535  0.015611226            3 
  281000   0.82445203   -8.2761048    52.459748  0.015557458  0.015557708            3 
  282000   0.82425472   -8.2756406    52.401089  0.015484955  0.015504421           11 
  283000   0.80937621   -8.2502931    52.502073  0.015459974  0.015450715           10 
  284000   0.81333687   -8.2706463    52.570151  0.015425514  0.015397643            4 
  285000   0.80991976   -8.3030568    52.447538  0.015335537  0.015344598            5 
  286000   0.80524662   -8.3023311    52.612255  0.015329911  0.015291515            4 
  287000   0.80749628   -8.3000638    52.577052  0.015266275  0.015238713            6 
  288000    0.7988959   -8.2978947    52.749369  0.015263127  0.015186191            3 
  289000   0.80643396   -8.3033349    52.708517  0.015198534  0.015134081            8 
  290000   0.80451794   -8.3202751    52.908199  0.015203506  0.015082151            6 
  291000   0.80439905   -8.3182936    52.774707  0.015113032  0.015030298            9 
  292000   0.79858345    -8.295584    52.921016   0.01510303  0.014979091            8 
  293000   0.78723422   -8.2908402    53.000526  0.015074097  0.014927845            3 
  294000      0.80779   -8.3094269    52.846511   0.01497917  0.014876438            4 
  295000   0.80471812   -8.3157918    52.973018  0.014964129  0.014825093            3 
  296000   0.78296764    -8.334994    52.861259  0.014882111  0.014773812            7 
  297000   0.78519934   -8.3508023    52.851783  0.014829344   0.01472234            5 
  298000   0.79010046   -8.3169659     53.03907  0.014831955  0.014671008            7 
  299000   0.79818654   -8.3467467    52.859133    0.0147322  0.014619753           12 
  300000   0.77901023   -8.3634289    52.911624  0.014697673  0.014568734            4 
  301000   0.79848717   -8.3630466    52.937759  0.014656079  0.014517773            8 
  302000   0.78346139    -8.378122    53.055088  0.014639925  0.014466938            4 
  303000    0.7875972    -8.392575    53.079121  0.014598218  0.014415983            6 
  304000   0.78510547   -8.3816059    52.974171  0.014521429  0.014365346            4 
  305000    0.7711467   -8.4013042    53.120012  0.014513664  0.014314901           11 
  306000   0.78128867      -8.3749    53.097999  0.014460239  0.014264442            7 
  307000   0.78849267   -8.3978375     53.08813  0.014410459  0.014214085            8 
  308000   0.76151328   -8.3876455    53.091222  0.014364508  0.014163845            4 
  309000   0.76478784   -8.4200833    53.113589  0.014324053  0.014113751            6 
  310000   0.77115145   -8.4159996    53.124142  0.014280683  0.014063733            5 
  311000   0.77107559   -8.4105921    53.051594  0.014215325  0.014013523            9 
  312000   0.77884769   -8.4212238    52.986129  0.014152278  0.013963387           11 
  313000   0.76608322   -8.4370056     53.08806  0.014134201  0.013913618            8 
  314000   0.74842198   -8.4488592    53.053072  0.014079902  0.013863582            4 
  315000   0.75935671   -8.4390414    53.223091  0.014080183  0.013813937            9 
  316000   0.75030988    -8.440438     53.11267  0.014006506  0.013764394            8 
  317000   0.76728166   -8.4138344    53.209217  0.013987702  0.013715202            7 
  318000   0.77053858   -8.4301439    53.176761   0.01393521  0.013666274            4 
  319000   0.75525979   -8.4359289    53.170461   0.01388988  0.013617233            5 
  320000    0.7690412   -8.4838374     53.15441  0.013842294  0.013568187            5 
  321000   0.76232596   -8.4852372    53.214081  0.013814663  0.013519372            4 
  322000   0.75503662   -8.4794988     53.13388  0.013751004  0.013471024            5 
  323000   0.74777642   -8.4699829    53.189539  0.013722791  0.013422433            2 
  324000   0.76067476   -8.4842802    53.168021  0.013674903  0.013374333            3 
  325000   0.75922326   -8.4687334    53.199503  0.013640898  0.013326065            5 
  326000   0.74126691   -8.4887794    53.120122  0.013578763     0.013278           10 
  327000   0.75049151   -8.5135418    53.272388  0.013576042  0.013230365            5 
  328000    0.7511202   -8.5017386    53.306686  0.013543365  0.013183027           14 
  329000   0.73694898   -8.4909976     53.24956  0.013487731  0.013135515            4 
  330000   0.75164474   -8.5198021    53.197925  0.013433819  0.013088146            9 
  331000   0.74488909   -8.4999057    53.212099  0.013396802  0.013041012            6 
  332000   0.72193842   -8.4992683     53.33161  0.013386448  0.012994012            5 
  333000   0.73100428    -8.542361    53.148561  0.013300441  0.012947158            3 
  334000   0.73948085   -8.5148979    53.304262  0.013299466  0.012900437            4 
  335000   0.72867194   -8.5323984    53.387695  0.013280521  0.012853979           12 
  336000   0.74407718   -8.5661256    53.340249  0.013229228  0.012807888           10 
  337000   0.73120417   -8.5436357    53.347575  0.013191784  0.012761939           11 
  338000   0.73162898    -8.524465    53.346559  0.013152505  0.012716044            7 
  339000   0.71560696    -8.550266    53.292987  0.013100538  0.012670353            6 
  340000   0.72237179     -8.51565    53.321698  0.013069044  0.012624717            6 
  341000   0.72872745   -8.5465281    53.343815  0.013036123  0.012579243            9 
  342000   0.70830123   -8.5355946    53.408174  0.013013688  0.012534098            7 
  343000   0.72171753   -8.5208617    53.396855  0.012972997  0.012489072            4 
  344000   0.71221166   -8.5512661    53.490588  0.012957991  0.012444448            5 
  345000   0.71837991   -8.5262202    53.447396  0.012909999  0.012399964            8 
  346000   0.72033489   -8.5609859    53.461944  0.012876191  0.012355639            4 
  347000   0.71969203   -8.5365555    53.427279  0.012830759  0.012311433            7 
  348000   0.71088191    -8.541399    53.557741   0.01282513  0.012267406            9 
  349000   0.72315038   -8.5363072     53.44284  0.012760946  0.012223569           12 
  350000   0.70167836   -8.5643295    53.488291  0.012735307  0.012179888            9 
  351000   0.72599145   -8.5472664    53.491554  0.012699799  0.012136183           10 
  352000   0.70717374   -8.5671769    53.394895  0.012640837  0.012092489           10 
  353000   0.68539175   -8.5633105    53.497149  0.012629166  0.012049044           11 
  354000    0.6900999   -8.5663158    53.624768  0.012623533  0.012005784           12 
  355000   0.70412195   -8.5849136    53.518361  0.012562996   0.01196294            7 
  356000   0.69478938   -8.5992558    53.540037   0.01253278  0.011920277            7 
  357000   0.70375703   -8.5902023    53.458663  0.012478679  0.011877565            3 
  358000   0.68212148   -8.6038853    53.459603  0.012444042  0.011834925            8 
  359000   0.69166463   -8.5873951    53.620958  0.012446833  0.011792501           26 
  360000   0.67827163   -8.6353698    53.527695   0.01239067  0.011750323           12 
  361000   0.67771857   -8.6440332    53.463375  0.012341499  0.011708317           13 
  362000    0.6877424   -8.6203909    53.427688  0.012299192  0.011666195           15 
  363000   0.68622444   -8.6131648    53.550692  0.012293547  0.011624288           10 
  364000   0.69702332   -8.6269792    53.463008    0.0122397  0.011582487           15 
  365000   0.69252706   -8.6106459    53.440759  0.012201086  0.011540856           19 
  366000   0.66277548   -8.6337273    53.559424  0.012194769  0.011499347           19 
  367000   0.68754833   -8.6601004    53.421984  0.012130332  0.011457795           12 
  368000   0.66792741   -8.6741135    53.378592  0.012087543  0.011416503           17 
  369000   0.66728596   -8.6794864    53.394152    0.0120583   0.01137524           18 
  370000   0.67012709   -8.6698637    53.525191  0.012055223  0.011334315           15 
  371000   0.67248196   -8.6666681    53.423145  0.011999808  0.011293431           11 
  372000   0.67722886   -8.6828852     53.41126  0.011964888  0.011252649           24 
  373000   0.66738216   -8.6570085    53.472828  0.011946566  0.011212097            8 
  374000    0.6646742   -8.6652434    53.483641  0.011917032   0.01117166            4 
  375000   0.68758817    -8.653191    53.418627  0.011870806  0.011131433            5 
  376000   0.66860605   -8.6831475    53.377212  0.011830056   0.01109133            5 
  377000   0.65666268   -8.6819815    53.520304  0.011830306  0.011051311            6 
  378000    0.6631422   -8.6790437    53.434868  0.011780174  0.011011539            5 
  379000   0.66627476   -8.6927403    53.390099  0.011739248  0.010971865            7 
  380000   0.64614641   -8.6929026    53.402313  0.011711034  0.010932157            6 
  381000   0.65792257    -8.689309    53.320044  0.011662302  0.010892683            6 
  382000   0.67956978   -8.6889261    53.468562  0.011664172  0.010853467            5 
  383000   0.66290609   -8.7029251    53.451104  0.011629918  0.010814372            4 
  384000   0.64489094   -8.6868972    53.404842  0.011589592  0.010775355            3 
  385000   0.64898742   -8.7073691    53.447075  0.011568631  0.010736693            6 
  386000   0.65483451   -8.6918483    53.329168  0.011513206  0.010698113            6 
  387000   0.65507345    -8.717951    53.426244  0.011504359  0.010659773            9 
  388000   0.65561099   -8.7280623    53.532378  0.011497504   0.01062162           10 
  389000   0.65951634    -8.728714    53.385562  0.011436496  0.010583546            5 
  390000   0.62661506   -8.7341595    53.397853  0.011409798  0.010545594            9 
  391000   0.64976532   -8.7275805     53.51509  0.011405603  0.010507924            5 
  392000   0.61959828   -8.7425752    53.468102  0.011366518  0.010470158            4 
  393000   0.61823831   -8.7490135    53.394079    0.0113219  0.010432636            3 
  394000   0.65228301   -8.7480312    53.423199  0.011299323  0.010395213           12 
  395000   0.63113628   -8.7516303    53.305913  0.011245973  0.010357857            3 
  396000   0.64115623   -8.7676289    53.293288  0.011214918  0.010320494            3 
  397000   0.63730538   -8.7594701    53.352836  0.011199168  0.010283382            7 
  398000   0.63151543   -8.7545037    53.374848  0.011175638   0.01024631            7 
  399000   0.63416126   -8.7682231    53.395401  0.011151922  0.010209387            9 
  400000   0.62763985    -8.750422    53.251305  0.011094022  0.010172548            4 
  401000   0.62706837   -8.7712567     53.35103   0.01108708  0.010135993           11 
  402000    0.6323645   -8.7844984    53.309305  0.011050851  0.010099624            3 
  403000    0.6204292    -8.758641    53.298957   0.01102129  0.010063409            6 
  404000   0.62746534   -8.7678248    53.416551  0.011018265  0.010027394            3 
  405000   0.61928388   -8.7778697    53.282005  0.010963375   0.00999153            3 
  406000   0.60978673   -8.7515525    53.343389  0.010948972 0.0099557906            7 
  407000   0.61572335    -8.776889    53.218518  0.010896503 0.0099200767            7 
  408000   0.61934213   -8.7699938    53.299275   0.01088629 0.0098846953            3 
  409000   0.60089493   -8.7819641    53.377011  0.010875512 0.0098494007            9 
  410000   0.60738291   -8.7904519    53.271918  0.010827626 0.0098142665            8 
  411000   0.61911735   -8.7867713    53.254425  0.010797734  0.009779261           12 
  412000   0.60470245   -8.8078709    53.242053  0.010769024 0.0097443823            4 
  413000   0.60708093   -8.8029924    53.260875  0.010746746 0.0097094966            9 
  414000   0.60405701   -8.7775852    53.271479  0.010722922 0.0096748536           11 
  415000   0.60526705   -8.7988814    53.248112  0.010692392 0.0096402082           12 
  416000   0.59468886   -8.8124812    53.201627  0.010657377 0.0096057748           14 
  417000   0.59637503   -8.8116033     53.22899  0.010637288 0.0095714375            6 
  418000   0.59827824    -8.784592    53.245318  0.010615095 0.0095372323            9 
  419000   0.61153939   -8.8278549    53.195627  0.010579878 0.0095032364            7 
  420000   0.60861674   -8.8215617    53.219121  0.010559349 0.0094694002           10 
  421000    0.5929736   -8.8051991    53.241434  0.010538684 0.0094357433            9 
  422000   0.58439348   -8.8291379    53.133084  0.010492315 0.0094021919           14 
  423000   0.60016307   -8.8315779    53.141092  0.010469088  0.009368675            7 
  424000   0.59622675   -8.8379155    53.183251  0.010452683 0.0093353164           11 
  425000   0.57070204   -8.8228338    53.178138  0.010427086 0.0093020557           17 
  426000   0.58723866   -8.8331614    53.194147  0.010405741 0.0092689371            8 
  427000    0.5791247   -8.8382722    53.149415  0.010372641 0.0092360148           14 
  428000   0.57689786   -8.8465022    53.104432  0.010339648 0.0092032227            4 
  429000   0.58819221   -8.8475349    53.149292   0.01032426 0.0091706066           14 
  430000   0.58540597    -8.830489    53.168956  0.010304061 0.0091380704            5 
  431000    0.5769661   -8.8589493    53.110817  0.010268913 0.0091055894            9 
  432000   0.58018211   -8.8714992    53.121379   0.01024718 0.0090732598            8 
  433000   0.57786795   -8.8460866    53.159965   0.01023094 0.0090412318            4 
  434000   0.56999401   -8.8400327    53.130493  0.010201708  0.009009253           12 
  435000   0.57117516   -8.8669466    53.067502  0.010166188 0.0089775427           17 
  436000   0.57048636   -8.8551618    53.076607  0.010144611 0.0089458737            4 
  437000   0.57468737    -8.865006    53.088058  0.010123581 0.0089144258           16 
  438000    0.5712863   -8.8644452    53.124914   0.01010748 0.0088830594           14 
  439000   0.57217769   -8.8808445    53.067338  0.010073526  0.008851795           28 
  440000   0.56159698   -8.8667202    53.199801   0.01007572 0.0088207409           12 
  441000   0.57019092   -8.8780325    53.124775  0.010038695 0.0087897886           24 
  442000    0.5722216   -8.8725967    53.138307  0.010018535 0.0087589127           15 
  443000    0.5571675   -8.8906951    53.137423  0.009995753  0.008728198            5 
  444000   0.56739873   -8.8872054    53.158823 0.0099772566 0.0086976533           10 
  445000   0.55152493   -8.8766218    53.114117 0.0099464638 0.0086671722            3 
  446000   0.56869115   -8.9098211    53.106284 0.0099226989 0.0086367515           10 
  447000    0.5586692   -8.8921804    53.110025 0.0099011977 0.0086065125           16 
  448000   0.55288321   -8.8879567    53.052045  0.009868312 0.0085764287           12 
  449000    0.5465683   -8.9021512    53.094706 0.0098542514 0.0085464911           11 
  450000   0.55231923   -8.8916516    52.934161 0.0098026224 0.0085166809            7 
  451000   0.55158031   -8.9069972    53.092798 0.0098101992  0.008486943            7 
  452000   0.53865205   -8.9122415    53.126562   0.00979472 0.0084574042           10 
  453000   0.55347829   -8.9030439    53.038929 0.0097569774 0.0084279718            9 
  454000   0.53823579   -8.9124336    53.066861 0.0097406132 0.0083986238            7 
  455000   0.54519566   -8.9247522     53.00483 0.0097078443 0.0083694344            7 
  456000   0.53511316   -8.9225294    53.009535  0.009687415 0.0083403791            6 
  457000   0.54715076   -8.9119259    52.958129 0.0096568433 0.0083113892           10 
  458000   0.53293708   -8.9094633    53.123902  0.009665921 0.0082824784            6 
  459000   0.52520883   -8.9189511    52.911842 0.0096063621 0.0082538014            4 
  460000   0.53289764    -8.925677    53.022675 0.0096055571 0.0082251776            5 
  461000   0.52357723   -8.9424228    52.933447 0.0095685913 0.0081966805            7 
  462000   0.52666347   -8.9445046    53.007423 0.0095612235 0.0081683106           13 
  463000   0.52331164   -8.9411061     53.02889 0.0095444366 0.0081400779            3 
  464000   0.51562924   -8.9475646    52.950103 0.0095097167 0.0081119369            9 
  465000   0.51000673   -8.9207328    52.983501 0.0094952511 0.0080839145            8 
  466000   0.51275464   -8.9587727    52.898683 0.0094597072 0.0080560152            4 
  467000   0.52617168   -8.9539491    52.843922 0.0094296792 0.0080282212            6 
  468000   0.51899109   -8.9454736    52.923127 0.0094236337 0.0080005744            7 
  469000   0.52677872   -8.9596395    52.997224 0.0094167065  0.007973035            8 
  470000   0.52236761   -8.9659801    52.963919 0.0093907658 0.0079456303            5 
  471000   0.50057322   -8.9608744     52.92507 0.0093639543 0.0079183367            6 
  472000   0.52039691   -8.9649963    52.885931 0.0093372054 0.0078912213            8 
  473000   0.50525523   -8.9589005    52.873164 0.0093152156 0.0078642019           11 
  474000   0.51165644    -8.967177    52.938915  0.009307123 0.0078372765           11 
  475000   0.50806772    -8.953278    52.873253 0.0092760092  0.007810445            5 
  476000    0.5007813   -8.9771586    52.855698 0.0092534485  0.007783657            8 
  477000   0.51338766   -8.9689248     52.88712 0.0092395388 0.0077570356            9 
  478000   0.50124754   -8.9786633    52.949752 0.0092311284 0.0077305244            6 
  479000   0.49336731   -8.9894304    52.891237 0.0092016766 0.0077041188            9 
  480000   0.49285102   -8.9900625    52.779728 0.0091631472  0.007677835           18 
  481000    0.4942896   -8.9912861    52.900618 0.0091650412 0.0076516585            5 
  482000   0.49691684   -8.9823811    52.893109 0.0091447284  0.007625624           17 
  483000    0.4942047   -8.9689628    52.858492 0.0091198226 0.0075996697            8 
  484000   0.49321819   -8.9904065    52.862176 0.0091016143 0.0075738303           11 
  485000   0.49735813   -8.9774859    52.880164 0.0090859387 0.0075481395            7 
  486000   0.48725519   -9.0035787    52.891557  0.009069197 0.0075225725            8 
  487000   0.50224081    -9.008021    52.841348 0.0090419828 0.0074970624           10 
  488000   0.47819557   -9.0184889    52.837652 0.0090228231  0.007471693           11 
  489000   0.48009181   -8.9960133    52.846563   0.00900589 0.0074464081            6 
  490000   0.48159229   -9.0015359    52.782481 0.0089766124 0.0074211905           12 
  491000   0.49045675   -9.0080305    52.859632 0.0089714243 0.0073961395           14 
  492000   0.47559117   -9.0152677    52.831219 0.0089483772 0.0073711674           14 
  493000   0.48023554   -9.0221781    52.721876 0.0089117437 0.0073463099           17 
  494000   0.47362037   -9.0256471    52.750898 0.0088985995 0.0073215914           15 
  495000   0.48394448   -9.0241567    52.770515 0.0088839251  0.007296955            4 
  496000   0.47312685   -9.0206116    52.763855  0.008864895 0.0072724351            8 
  497000   0.47184547   -9.0094305    52.811456 0.0088550396 0.0072479953            7 
  498000   0.46901405   -9.0351524    52.749184 0.0088268381 0.0072236858            6 
  499000   0.47900284   -9.0405947    52.671994 0.0087962582 0.0071994926            3 
  500000   0.47788778    -9.038908    52.777967 0.0087963278 0.0071753826            9 
  501000   0.46910513   -9.0443486    52.709534 0.0087673876 0.0071513407            4 
  502000   0.46008022   -9.0498726    52.687021 0.0087461855 0.0071274603            8 
  503000   0.46820738    -9.052585    52.782046 0.0087445403 0.0071036526            7 
  504000   0.46005009   -9.0338283    52.713019 0.0087157769 0.0070799587            4 
  505000    0.4695024   -9.0535807    52.678548 0.0086928297 0.0070563562            7 
  506000   0.45606362   -9.0553607    52.645359 0.0086701842   0.00703282            9 
  507000   0.45986615   -9.0629934     52.72986 0.0086669724 0.0070093869            5 
  508000   0.44991377   -9.0504972    52.689698 0.0086433231 0.0069860558            6 
  509000   0.45959855   -9.0640819    52.690053 0.0086264003 0.0069628378            8 
  510000   0.45478935   -9.0660446    52.715913 0.0086137112 0.0069396966           12 
  511000   0.45113908   -9.0689626    52.667539 0.0085889659  0.006916665            7 
  512000   0.44984206   -9.0598141    52.668352  0.008572323 0.0068937772            5 
Loop time of 1254 on 48 procs for 500000 steps with 4000 atoms

Performance: 68899.313 tau/day, 398.723 timesteps/s
99.4% CPU use with 48 MPI tasks x no OpenMP threads

MPI task timing breakdown:
Section |  min time  |  avg time  |  max time  |%varavg| %total
---------------------------------------------------------------
Pair    | 85.81      | 90.477     | 95.12      |  26.7 |  7.22
Neigh   | 8.4328     | 8.7289     | 9.0724     |   5.7 |  0.70
Comm    | 78.009     | 85.122     | 89.197     |  31.9 |  6.79
Output  | 0.86194    | 0.86267    | 0.88501    |   0.4 |  0.07
Modify  | 1053.7     | 1057.3     | 1061.5     |   5.9 | 84.31
Other   |            | 11.54      |            |       |  0.92

Nlocal:        83.3333 ave          89 max          76 min
Histogram: 3 0 0 9 7 8 10 3 2 6
Nghost:        2251.23 ave        2269 max        2235 min
Histogram: 2 3 7 7 8 8 5 3 1 4
Neighs:        15148.0 ave       16803 max       13121 min
Histogram: 2 1 5 5 6 10 5 5 7 2
FullNghs:      30294.5 ave       32587 max       27474 min
Histogram: 2 1 0 8 11 8 5 5 5 3

Total # of neighbors = 1454138
Ave neighs/atom = 363.53450
Neighbor list builds = 26684
Dangerous builds = 0

#clear
#
#next RN
#
#jump SELF
Total wall time: 0:20:57
