
units lj                  # Use reduced LJ style units
atom_style atomic         # Uncharged point particles
atom_modify map hash      # Needed for indexing of clusters etc
                          # Used to be able to find where atoms are in relation to each other.

lattice fcc 1.0 spacing 1 1 1
Lattice spacing in x,y,z = 1.5874011 1.5874011 1.5874011
region box block 0 10 0 10 0 10 units lattice
create_box 2 box
Created orthogonal box = (0.0000000 0.0000000 0.0000000) to (15.874011 15.874011 15.874011)
  3 by 4 by 4 MPI processor grid
create_atoms 1 box
Created 4000 atoms
  using lattice units in orthogonal box = (0.0000000 0.0000000 0.0000000) to (15.874011 15.874011 15.874011)
  create_atoms CPU = 0.017 seconds
set type 1 type/fraction 2 0.78 78393
Setting atom values ...
  3107 settings made for type/fraction
mass 1 1.0
mass 2 1.0
pair_style lj/cut  3.5
pair_modify tail  yes
pair_coeff 1  1  1.0  1.0   # Intearaction between 1 and 1 set with epsilon = 1 and sigma = 1
pair_coeff 1  2  1.5  0.8
pair_coeff 2  2  0.5  0.88

write_data data.0
System init for write_data ...
Neighbor list info ...
  update every 1 steps, delay 10 steps, check yes
  max neighbors/atom: 2000, page size: 100000
  master list distance cutoff = 3.8
  ghost atom cutoff = 3.8
  binsize = 1.9, bins = 9 9 9
  1 neighbor lists, perpetual/occasional/extra = 1 0 0
  (1) pair lj/cut, perpetual
      attributes: half, newton on
      pair build: half/bin/atomonly/newton
      stencil: half/bin/3d
      bin: standard
WARNING: Not all mixed pair coeffs generated from mixing. Use write_data with 'pair ij' option to store all pair coeffs. (../write_data.cpp:312)


#############################
#   M E L T   S Y S T E M   #
#############################

velocity all create 2.4 9622624 mom yes dist gaussian # Assign velocities
                                                    # Temperature 2.4, random number seed, zero linear momentum
                                                                                # Gaussian distribution

timestep 0.002   # simulation timestep
thermo 1000       # output thermodynamic data every 1000 steps bf 100

# Define a fix  in this case with index 1 applied to all
# particles in the simulation. This fix is for simulations
# in the anisotropic NPT ensemble. Note that we use the MTK
# correction.
fix 1 all npt temp 2.4 2.4 0.1 iso 5.68 5.68 0.5 mtk yes tchain 5 pchain 5 # Use NPT ensemble
                                                                         # Set temperature and pressure and damping
                                                                         # Numbers of thermostats in chain and in barostat
run 10000          # run for 10000 steps
Per MPI rank memory allocation (min/avg/max) = 3.642 | 3.644 | 3.648 Mbytes
Step Temp E_pair E_mol TotEng Press Volume 
       0          2.4   -3.8018078            0  -0.20270782   -3.3841895         4000 
    1000    2.4282519   -3.2468539            0   0.39461335    5.5825853    3754.1576 
    2000    2.4034397   -3.2339714            0   0.37028687    5.6714846    3759.2017 
    3000     2.388409   -3.2582654            0   0.32345249    5.3254286    3788.0601 
    4000    2.4149941   -3.2610444            0   0.36054115    5.5784548    3757.3889 
    5000    2.3824365   -3.2105057            0   0.36225558    5.6159547    3755.1675 
    6000    2.4350075   -3.2219563            0   0.42964183    5.5393314    3772.5867 
    7000     2.412321   -3.2613478            0   0.35622908      5.92996    3713.9934 
    8000    2.4636949   -3.1786305            0   0.51598793    5.6438409    3810.2865 
    9000    2.3729474   -3.2195195            0   0.33901179    5.4286402    3789.4655 
   10000    2.4223779   -3.2265044            0   0.40615407     5.893369    3732.3112 
Loop time of 2.72213 on 48 procs for 10000 steps with 4000 atoms

Performance: 634796.685 tau/day, 3673.592 timesteps/s
99.6% CPU use with 48 MPI tasks x no OpenMP threads

MPI task timing breakdown:
Section |  min time  |  avg time  |  max time  |%varavg| %total
---------------------------------------------------------------
Pair    | 1.1807     | 1.2394     | 1.5013     |   4.4 | 45.53
Neigh   | 0.21401    | 0.22229    | 0.26162    |   1.5 |  8.17
Comm    | 0.71027    | 0.9388     | 1.0731     |   7.8 | 34.49
Output  | 0.00024854 | 0.00025644 | 0.00032359 |   0.0 |  0.01
Modify  | 0.22681    | 0.30551    | 0.39729    |  11.0 | 11.22
Other   |            | 0.01589    |            |       |  0.58

Nlocal:        83.3333 ave          95 max          69 min
Histogram: 1 0 0 4 9 17 10 5 1 1
Nghost:        1723.04 ave        1750 max        1691 min
Histogram: 1 3 2 5 6 8 13 7 2 1
Neighs:        10224.4 ave       11664 max        8366 min
Histogram: 1 0 1 4 11 13 9 7 1 1

Total # of neighbors = 490770
Ave neighs/atom = 122.69250
Neighbor list builds = 905
Dangerous builds = 198

# Equilibrate just above the melting temperature to avoid step fn in T

fix 1 all npt temp 1.25 1.25 0.1 iso 5.68 5.68 0.5 mtk yes tchain 5 pchain 5
run 2000
Per MPI rank memory allocation (min/avg/max) = 3.644 | 3.646 | 3.649 Mbytes
Step Temp E_pair E_mol TotEng Press Volume 
   10000    2.4223779   -3.2265044            0   0.40615407     5.893369    3732.3112 
   11000    1.2339298    -4.750379            0    -2.899947    5.4636568     2894.784 
   12000    1.2610946   -4.7678058            0   -2.8766367    5.5157255    2884.0759 
Loop time of 0.658632 on 48 procs for 2000 steps with 4000 atoms

Performance: 524723.719 tau/day, 3036.596 timesteps/s
99.6% CPU use with 48 MPI tasks x no OpenMP threads

MPI task timing breakdown:
Section |  min time  |  avg time  |  max time  |%varavg| %total
---------------------------------------------------------------
Pair    | 0.2908     | 0.31702    | 0.3773     |   2.6 | 48.13
Neigh   | 0.040983   | 0.04347    | 0.051201   |   0.7 |  6.60
Comm    | 0.18361    | 0.24603    | 0.2795     |   3.4 | 37.36
Output  | 5.311e-05  | 5.5872e-05 | 9.0067e-05 |   0.0 |  0.01
Modify  | 0.040172   | 0.046983   | 0.052676   |   1.6 |  7.13
Other   |            | 0.005067   |            |       |  0.77

Nlocal:        83.3333 ave          92 max          75 min
Histogram: 1 4 4 5 10 12 5 4 1 2
Nghost:        2047.29 ave        2063 max        2016 min
Histogram: 1 1 1 2 5 8 5 8 12 5
Neighs:        13245.4 ave       14574 max       11304 min
Histogram: 1 0 2 2 10 9 12 3 7 2

Total # of neighbors = 635777
Ave neighs/atom = 158.94425
Neighbor list builds = 143
Dangerous builds = 11

#############################
# L I N E A R  Q U E N C H  #
#############################

# Define solid atoms. This closely follows ten Wolde  Ruiz-Montero and Frenkel  Faraday Discuss  1996  104  93-110
# Compute components of the per-atom q6 vector
compute q6 all orientorder/atom degrees 1 6 components 6 nnn NULL cutoff 1.3 # compute the Q6 parameter.
                                                                             # Use all neighbours within 1.3 unit cell.

# get number of connections
compute coord_number all coord/atom orientorder q6 0.5

# An atom is solid if it has 8 or more connections (of a possible 14)
variable is_solid atom c_coord_number>=8
group solid dynamic all var is_solid    # Must be dynamic to update
dynamic group solid defined

# do clustering
compute cluster solid cluster/atom 1.3 # Create a cluster where all atoms within are solid and max 1.3 units from another member

# define chunks one chunk per cluster
compute clus_chunks solid chunk/atom c_cluster nchunk every compress yes  # Says which atoms are in which chunk

# count the size of each chunk
compute size_chunks solid property/chunk clus_chunks count


# Find the maximum entry in the vector of chunk sizes
variable max_n equal max(c_size_chunks)


# Thermo style which includes this variable
# thermo_style custom step temp pe vol v_max_n

thermo ${N}  # Print the thermo information every 100 steps
thermo 1000  

# Reset the npt fix at a lower temperature (below freezing)
fix 1  all npt temp  ${temp} ${temp}  0.1  iso  5.68  5.68  0.5  mtk yes tchain  5  pchain  5
fix 1  all npt temp  0.45 ${temp}  0.1  iso  5.68  5.68  0.5  mtk yes tchain  5  pchain  5
fix 1  all npt temp  0.45 0.45  0.1  iso  5.68  5.68  0.5  mtk yes tchain  5  pchain  5

dump dmp2 all dcd ${N} traj.dcd
dump dmp2 all dcd 1000 traj.dcd


compute msd all msd com yes
variable twopoint equal c_msd[4]/6/(step*dt+1.0e-6)
fix 9 all vector 10 c_msd[4]
variable fit equal slope(f_9)/6/(10*dt)
thermo_style custom step temp pe c_msd[4] v_twopoint v_fit v_max_n

fix 1 all npt temp 1.25 ${temp} 0.1 iso 5.68 5.68 0.5 mtk yes tchain 5 pchain 5
fix 1 all npt temp 1.25 0.45 0.1 iso 5.68 5.68 0.5 mtk yes tchain 5 pchain 5
run 5000000 # 5000000  # Run for this many steps
Neighbor list info ...
  update every 1 steps, delay 10 steps, check yes
  max neighbors/atom: 2000, page size: 100000
  master list distance cutoff = 3.8
  ghost atom cutoff = 3.8
  binsize = 1.9, bins = 8 8 8
  4 neighbor lists, perpetual/occasional/extra = 1 3 0
  (1) pair lj/cut, perpetual
      attributes: half, newton on
      pair build: half/bin/atomonly/newton
      stencil: half/bin/3d
      bin: standard
  (2) compute orientorder/atom, occasional
      attributes: full, newton on
      pair build: full/bin/atomonly
      stencil: full/bin/3d
      bin: standard
  (3) compute coord/atom, occasional
      attributes: full, newton on
      pair build: full/bin/atomonly
      stencil: full/bin/3d
      bin: standard
  (4) compute cluster/atom, occasional
      attributes: full, newton on
      pair build: full/bin/atomonly
      stencil: full/bin/3d
      bin: standard
Per MPI rank memory allocation (min/avg/max) = 9.836 | 9.842 | 9.847 Mbytes
Step Temp PotEng c_msd[4] v_twopoint v_fit v_max_n 
   12000    1.2610946   -4.7678058            0            0 8.3333333e+20            2 
   13000    1.2539652   -4.7963671   0.73918811 0.0047383851   0.06199188            1 
   14000    1.2250421   -4.8085835    1.4964307 0.0089073255  0.062943707            3 
   15000    1.2728764   -4.7942246    2.2673494  0.012596385  0.063176507            2 
   16000    1.2292132   -4.8302008     3.003772  0.015644645  0.062858464            3 
   17000     1.248103   -4.7748382    3.8178072  0.018714741  0.063127964            1 
   18000    1.2610272   -4.8089976     4.565468  0.021136425  0.063603282            1 
   19000    1.2518581   -4.8057162    5.2784687  0.023151178  0.063572416            2 
   20000     1.255915   -4.7607961    6.0403929  0.025168303  0.063203198            3 
   21000    1.2407564   -4.7989052    6.7285665   0.02670066  0.062953224            2 
   22000    1.2763315    -4.803757    7.4460704  0.028204812   0.06249813            2 
   23000    1.2626091   -4.7635515    8.2468532  0.029879902  0.062381711            5 
   24000     1.229226   -4.8172668    9.0431094  0.031399685  0.062288022            5 
   25000    1.2417819   -4.7907356    9.8067329  0.032689109  0.062434977            2 
   26000    1.2634653   -4.7539034    10.614369  0.034020413  0.062637074            5 
   27000    1.2527177   -4.8081198    11.380863  0.035126121  0.062836907            2 
   28000    1.2719459   -4.8030553     12.11835  0.036066517  0.062934875            2 
   29000    1.2435158   -4.8111155    12.804381  0.036794198  0.062980686            1 
   30000    1.2205343   -4.7642057    13.517009  0.037547245  0.062880368            3 
   31000    1.2784161   -4.8014007    14.216051  0.038215191  0.062783067            2 
   32000    1.2381271   -4.7416173    15.082436  0.039277176  0.062788039            4 
   33000    1.2063277   -4.7716351    15.739252  0.039745585  0.062745381            2 
   34000    1.2311338   -4.7928489    16.473825  0.040377021  0.062659535            2 
   35000    1.2464165   -4.8025512    17.061939  0.040623665  0.062526363            2 
   36000    1.2635333   -4.7555179    17.912919   0.04146509  0.062410048            2 
   37000     1.234965   -4.7769135    18.708404  0.042136044  0.062399738            1 
   38000    1.2595861   -4.7687675    19.409696  0.042565122  0.062329992            1 
   39000    1.2540922   -4.7873169    20.135969  0.043025574  0.062293044            3 
   40000    1.2581328   -4.7668238    20.998182  0.043746213  0.062266116            1 
   41000    1.2296361   -4.8236884    21.668579  0.044041827  0.062239463            2 
   42000    1.2214828   -4.7633332    22.440322  0.044524448  0.062197815            4 
   43000    1.2290854   -4.7873177    23.018545  0.044609582   0.06214053            4 
   44000    1.2611812   -4.7776081    23.948866  0.045357699  0.062090122            1 
   45000    1.2511028   -4.8276011    24.552472  0.045467541  0.062086109            2 
   46000    1.2623158     -4.77881    25.362375  0.045946332   0.06208418            3 
   47000    1.2390091   -4.7897697    26.002546  0.046103805  0.062045844            2 
   48000    1.2224113   -4.8215911     26.69317  0.046342308  0.062003717            1 
   49000    1.2224639   -4.8062521    27.564618  0.046878602  0.061969705            1 
   50000    1.2594322   -4.8028444    28.311959  0.047186597  0.061962942            3 
   51000    1.2326339   -4.8077625     29.07018  0.047500294  0.061945869            3 
   52000    1.2386103   -4.7607337     29.77777  0.047720785  0.061934106            2 
   53000    1.2142505   -4.7653752    30.605056  0.048121157   0.06192286            3 
   54000    1.2195661    -4.762483    31.246243   0.04821951  0.061900369            2 
   55000    1.2413186   -4.8136319    32.181431  0.048759743  0.061916155            2 
   56000    1.2366877   -4.8033226    32.900747  0.048959444  0.061928389            1 
   57000    1.2288708   -4.8195968    33.540615  0.049035986  0.061948923            2 
   58000    1.1976272   -4.7879844    34.490632  0.049555505   0.06196408            5 
   59000    1.2340527   -4.8597772    35.016706  0.049458624  0.061987041            1 
   60000     1.239952   -4.8042927     35.89744  0.049857555   0.06201473            3 
   61000    1.2368891   -4.8112816    36.722237   0.05016699  0.062050258            1 
   62000    1.2552786   -4.8159014     37.53247  0.050446868  0.062093924            4 
   63000     1.244857   -4.8254264    38.042582  0.050320875  0.062125835            4 
   64000    1.2288685   -4.7859706    38.924997  0.050683589  0.062135149            2 
   65000     1.249293   -4.8097185    39.513933  0.050658888  0.062146371            3 
   66000    1.2847351    -4.727377    40.593073  0.051253879  0.062165311            3 
   67000    1.2158492   -4.8039858     41.32338  0.051397238   0.06219674            2 
   68000    1.2819593   -4.8334582    41.868351  0.051309253  0.062215412            3 
   69000    1.2462477   -4.7897232    42.813974  0.051707698  0.062242897            2 
   70000    1.2625849   -4.8068457     43.69654   0.05201969  0.062282321            3 
   71000    1.2739185   -4.8179125    44.495472  0.052224732  0.062343495            3 
   72000     1.241842   -4.7867459    45.486741   0.05264669  0.062407573            2 
   73000    1.2648634   -4.8213933    46.246391  0.052792683  0.062501227            2 
   74000      1.21473   -4.8196513    47.130078  0.053074412  0.062583842            1 
   75000    1.2525973   -4.7686735    48.028417  0.053364908  0.062672265            3 
   76000    1.2803385    -4.809015    48.578382   0.05326577  0.062733197            2 
   77000    1.2421195   -4.7950447    49.151401  0.053194157  0.062784838            6 
   78000    1.2380978    -4.799246     49.95603  0.053371827  0.062821496            3 
   79000    1.2226344   -4.7954304    50.623017  0.053399806  0.062843858            3 
   80000    1.2332763   -4.8123961    51.871874  0.054033201  0.062886614            5 
   81000    1.2200274   -4.8143554    52.159169  0.053661696  0.062934732            2 
   82000    1.2562672   -4.7774189    53.410749  0.054279216  0.062996152            2 
   83000    1.2365578   -4.8031511    54.073688  0.054290851  0.063070651            1 
   84000    1.2187656   -4.7967502    54.642356  0.054208686  0.063122658            2 
   85000    1.2236688   -4.7982071    55.392035  0.054305917  0.063169471            1 
   86000    1.2405196   -4.8116356    56.126436  0.054386081  0.063203689            3 
   87000    1.2198819   -4.8035072    56.638647  0.054251577  0.063221619            2 
   88000    1.2454002   -4.7518315    57.797915  0.054732874  0.063230606            2 
   89000    1.2190626   -4.7996437    58.373646  0.054656972  0.063240703            4 
   90000    1.2353899   -4.8134513    58.787944  0.054433281   0.06323056            3 
   91000    1.2397004    -4.805067    59.503219  0.054490127  0.063203921            3 
   92000    1.2369933   -4.7685137    60.378629  0.054690787  0.063173818            2 
   93000    1.2545011     -4.84136    61.245689  0.054879649  0.063165954            1 
   94000    1.2426009   -4.8277671    61.740873  0.054734816  0.063162766            3 
   95000    1.2082191   -4.8176663    62.401225  0.054737917  0.063146142            2 
   96000    1.2348279     -4.77929    63.243106  0.054898529  0.063121957            5 
   97000    1.2298881   -4.8156347    63.336295  0.054412624  0.063083657            1 
   98000    1.2393242   -4.8488461    64.038656  0.054454639  0.063039858            3 
   99000    1.2375346   -4.8109378    64.895989  0.054626253  0.062987064            1 
  100000    1.2653977    -4.826084    65.152066  0.054293388  0.062939922            5 
  101000    1.2534897   -4.7696097    66.258978  0.054669123  0.062882144            3 
  102000    1.2368086   -4.8205144    66.544096  0.054366091  0.062813376            2 
  103000    1.2324123   -4.7993743    66.877372  0.054107906  0.062729372            3 
  104000    1.2236555   -4.8061762    67.613714  0.054177655  0.062634695            2 
  105000    1.2605161   -4.8230044    68.555306  0.054408973  0.062550007            3 
  106000    1.2044368   -4.8225307    69.267614  0.054455671  0.062482069            2 
  107000    1.2149703   -4.7918886    70.339902  0.054781855  0.062419836            2 
  108000    1.2547029   -4.8267467     70.92719   0.05472777  0.062375013            2 
  109000    1.2205373   -4.8178036     71.82873  0.054914931  0.062335966            2 
  110000    1.2393258   -4.8555311    72.524193   0.05494257  0.062301979            2 
  111000      1.22122   -4.7750545    73.512256  0.055189381  0.062277073            2 
  112000    1.2702505   -4.7518764    74.504754  0.055435085  0.062250958            1 
  113000    1.2102953   -4.8220895    75.265321  0.055505399  0.062230829            1 
  114000     1.226535   -4.8336197    75.897451  0.055480592  0.062217477            4 
  115000    1.2292337   -4.8144395    76.988955  0.055789097  0.062209423            2 
  116000    1.2414715   -4.8370121     77.91761  0.055975294  0.062201817            2 
  117000    1.2473304   -4.8062674    78.609158  0.055989428  0.062204644            3 
  118000    1.2236781   -4.8031364     79.23595  0.055957592  0.062197989            3 
  119000    1.2132623   -4.8326737    79.750886  0.055847959  0.062185914            1 
  120000    1.2221942   -4.8008092    80.232818  0.055717235  0.062167607            2 
  121000    1.2356272   -4.8424528    80.915943  0.055727233  0.062147059            3 
  122000    1.2644682   -4.7897318    81.186943  0.055455562  0.062130361            4 
  123000     1.240703   -4.8219847    82.374103  0.055809013  0.062103162            1 
  124000    1.2370669   -4.8517452    82.919292  0.055725331  0.062075676            3 
  125000    1.2254244   -4.8103411    83.532458  0.055688305   0.06204501            1 
  126000    1.2652663   -4.8258816    84.296354  0.055751556  0.062019791            2 
  127000    1.2378566   -4.7955013    85.201471  0.055906477  0.061998617            3 
  128000    1.2202559   -4.8141451    85.406728  0.055603339  0.061970827            2 
  129000    1.2195265   -4.8406609    86.359357  0.055787698  0.061935009            1 
  130000     1.242846   -4.8045719    86.771644  0.055622849  0.061894628            6 
  131000    1.2451246   -4.8176966    87.674726  0.055772727  0.061859511            3 
  132000     1.245607   -4.7844952    88.737462  0.056021125  0.061829764            3 
  133000    1.2425196   -4.8320003    89.005934  0.055768129  0.061798197            3 
  134000    1.2174828   -4.8062156     90.47504  0.056265572  0.061776838            3 
  135000    1.2424941   -4.7633942    91.385223  0.056410631    0.0617609            2 
  136000    1.2453133   -4.7950347    91.694222  0.056185185  0.061745333            2 
  137000    1.2391678   -4.8149294    92.251698  0.056114171  0.061721803            2 
  138000    1.2202776   -4.7977305    92.729008  0.055995778  0.061691391            3 
  139000     1.224202     -4.80979    93.573543  0.056099246  0.061667392            5 
  140000    1.2308216   -4.8334195    94.145759  0.056039142  0.061642751            2 
  141000    1.2512628   -4.8475647    94.795389  0.056025643  0.061617421            5 
  142000    1.2243784   -4.8093978    95.945505  0.056306047  0.061591232            3 
  143000    1.2186134   -4.8120705    96.188142  0.056053696  0.061570279            1 
  144000    1.2179366   -4.8513077    97.201273  0.056250736  0.061555174            5 
  145000    1.2285452   -4.8443815    97.770736  0.056190078  0.061537233            3 
  146000    1.2364385   -4.8495378    98.331177  0.056125101  0.061514487            2 
  147000      1.20611   -4.8195325    99.612167  0.056469482  0.061490982            5 
  148000    1.2170592   -4.8356111    99.655676   0.05611243  0.061466391            1 
  149000    1.2436384   -4.8629654     100.4393  0.056174105  0.061452199            1 
  150000    1.2109858   -4.8427796    102.03073  0.056683741  0.061443535            2 
  151000    1.2337357    -4.882925    101.99913  0.056290912  0.061436941            1 
  152000     1.237843   -4.8553269    103.45147  0.056716812  0.061426966            2 
  153000    1.2426752   -4.8017361     104.2908   0.05680327  0.061418784            2 
  154000    1.2162757   -4.7937919     105.3257  0.056994427  0.061420412            3 
  155000    1.2306079   -4.8329892    106.16423  0.057077543   0.06142609            2 
  156000    1.2106977   -4.8360842     106.9633  0.057138513  0.061431458            4 
  157000    1.2629914   -4.8307269    107.69854  0.057164829  0.061440086            4 
  158000    1.2583727   -4.8080976    108.19867  0.057066811  0.061440261            2 
  159000    1.2344636   -4.8377815    108.85602  0.057052422  0.061439519            1 
  160000    1.1880854   -4.8526892    109.86022  0.057218865  0.061445312            1 
  161000    1.2597573   -4.8340847     111.1965  0.057555123  0.061458006            2 
  162000    1.2112094   -4.8144839    112.53159  0.057886619  0.061476591            5 
  163000    1.1926792   -4.7909166    113.51369  0.058033583  0.061500456            3 
  164000    1.2342102   -4.8449004    114.20841  0.058032729  0.061529337            1 
  165000    1.2072334   -4.8366572    114.67062  0.057914453  0.061554982            5 
  166000    1.2111577   -4.8158478     115.9028  0.058184138  0.061585033            1 
  167000    1.2151065   -4.8372927    116.61581   0.05819152  0.061614985            3 
  168000    1.2215382    -4.827214    117.26246  0.058165902  0.061647806            3 
  169000    1.2079705   -4.8295935    117.97108  0.058171145  0.061681331            4 
  170000    1.2445146   -4.8609035    118.64724  0.058160411  0.061711212            4 
  171000    1.2193008   -4.8169225     119.1399  0.058060382  0.061738906            7 
  172000    1.2364718   -4.8462722    119.21105  0.057757294  0.061755237            3 
  173000    1.2305568   -4.8202552    120.89828  0.058236167  0.061773674            2 
  174000     1.224514   -4.8392249    121.06704  0.057982299  0.061791131            8 
  175000    1.2317346   -4.7826478    122.78349  0.058468329  0.061809787            2 
  176000    1.1908363    -4.848551     122.8708   0.05817746  0.061827533            4 
  177000    1.2134057   -4.8205787    123.58131  0.058183289  0.061843214            2 
  178000    1.2486431   -4.8187342    124.08179  0.058090724  0.061853189            3 
  179000    1.2176825   -4.8390504    124.81049  0.058105442  0.061862613            1 
  180000    1.2335055     -4.82689    125.33455  0.058025256  0.061870617            3 
  181000     1.241517    -4.805439    126.65402  0.058312163  0.061875864            3 
  182000    1.2298312   -4.8710255    126.47632  0.057910401  0.061886692            2 
  183000    1.2271018   -4.8243955    127.41902  0.058023231  0.061893698            3 
  184000     1.216897   -4.8367135    128.81701  0.058341037  0.061902825            1 
  185000     1.232475   -4.8084255    129.44572  0.058308883  0.061914297            2 
  186000    1.2362577   -4.8632454    130.34794  0.058399612  0.061930299            2 
  187000    1.2000318    -4.813283    131.14221   0.05844127  0.061945316            2 
  188000    1.2312978     -4.83015    132.21066  0.058604017  0.061967812            1 
  189000    1.2314211   -4.8344455    133.21776  0.058737991  0.061988616            1 
  190000    1.2110755   -4.8332097    133.82521  0.058695267  0.062008718            3 
  191000    1.2298101   -4.7937648    135.25727   0.05901277  0.062032103            2 
  192000    1.2263911   -4.8197357    135.53073    0.0588241  0.062057478            2 
  193000    1.2112221   -4.8400065    136.07309  0.058753493  0.062080166            2 
  194000    1.2334019   -4.8596601    136.64604  0.058696753  0.062100056            2 
  195000    1.2255647   -4.8603299    137.56053  0.058786551  0.062118856            1 
  196000     1.201318   -4.8383961    138.61924  0.058936753  0.062136767            3 
  197000    1.2000553   -4.8285654    139.32156   0.05893467  0.062152502            1 
  198000    1.2160687   -4.8485699     139.1758  0.058575674  0.062166903            2 
  199000    1.2154031     -4.83035    140.12229  0.058677676  0.062179254            2 
  200000    1.2111268   -4.8313192    140.85159  0.058688161  0.062185535            1 
  201000    1.2286688   -4.8535337    141.63308  0.058720182  0.062190994            7 
  202000    1.2197153   -4.8725357    142.15468   0.05864467  0.062200708            2 
  203000    1.2114354   -4.8276216    143.37089  0.058855044  0.062204955            1 
  204000    1.2293974   -4.7537088    143.83383  0.058755648  0.062211352            1 
  205000    1.2265679   -4.8076766    145.00639  0.058945689  0.062214378            2 
  206000    1.2473807   -4.8440547    145.45732   0.05884196  0.062217703            1 
  207000    1.2517369   -4.8124334    145.53514  0.058589025  0.062218823            2 
  208000    1.2250353   -4.8243089    146.45493  0.058675853  0.062218016            3 
  209000    1.2334125   -4.7686384    147.31893  0.058739607  0.062216524            4 
  210000    1.2233975    -4.826049    147.84825  0.058669939  0.062211453            2 
  211000    1.1791636   -4.8444831    148.36327  0.058595287  0.062207918            4 
  212000    1.2494464   -4.8442703    148.77916  0.058482372  0.062204393            2 
  213000    1.2251441   -4.8594423    149.67168  0.058556993  0.062197158            3 
  214000    1.2116531   -4.8393522    150.65231   0.05866523  0.062194449            5 
  215000    1.2100365    -4.851956    150.92184  0.058496838   0.06219185            3 
  216000    1.2097354   -4.8653756    151.80618  0.058567199  0.062187989            5 
  217000    1.2162753   -4.8423884    152.00774  0.058374709  0.062182134            2 
  218000    1.2240391   -4.8496462    152.64415  0.058350211  0.062176284            2 
  219000    1.2439736   -4.8327417    153.68482  0.058479763  0.062164303            3 
  220000    1.2115619   -4.8691811      154.563  0.058546592  0.062155628            2 
  221000    1.2196675    -4.842057    155.40834  0.058600429  0.062146911            4 
  222000    1.2356035   -4.8103961    156.62652  0.058793739  0.062142028            4 
  223000    1.2186053   -4.8265257    156.67817  0.058549389  0.062138515            2 
  224000    1.2334357   -4.8178889    158.27727  0.058882913  0.062135469            4 
  225000    1.2181874   -4.8572904    158.50284  0.058704755  0.062131844            3 
  226000    1.1908364    -4.824285    158.72786  0.058527971  0.062124336            2 
  227000    1.2204579   -4.8412332    160.12978  0.058784794  0.062118232            3 
  228000    1.2165662   -4.8707617    160.06182  0.058502128  0.062110679            3 
  229000    1.2328993   -4.8588185    161.29157  0.058694166  0.062103262            2 
  230000    1.2385515   -4.8405205    162.57241  0.058903046  0.062098586            2 
  231000    1.2396046   -4.8268165      163.055  0.058822149  0.062096935            1 
  232000    1.2322938   -4.8458323    164.30362  0.059017103  0.062099115            2 
  233000    1.2280412   -4.8662429    165.38816  0.059151702  0.062101888            1 
  234000     1.194284   -4.8526346    165.47155  0.058928615  0.062103575            1 
  235000    1.2400195   -4.8475608     166.5159   0.05904819  0.062108233            2 
  236000    1.2344736   -4.8804511    167.35727  0.059095082   0.06211186            1 
  237000     1.196551   -4.8351453    167.84894  0.059018615  0.062114638            1 
  238000    1.1986922    -4.811461    169.46887  0.059337838    0.0621177            3 
  239000    1.1930874   -4.8422776    169.20404  0.058997224  0.062118426            2 
  240000    1.2143458   -4.8305991    169.62309  0.058896905  0.062117706            2 
  241000    1.2034675   -4.8423098    170.28368  0.058880939  0.062113548            2 
  242000    1.2460141   -4.8740244    170.83641  0.058827964  0.062107397            2 
  243000    1.2164445   -4.8439055    172.07007  0.059008942  0.062102166            3 
  244000    1.2170217      -4.8525    172.59276  0.058945615  0.062098368            4 
  245000    1.2218747   -4.8669535    172.84981  0.058792452  0.062094727            1 
  246000    1.2536108   -4.8504661    173.56949  0.058797252  0.062091322            2 
  247000    1.2341297   -4.8592111    174.37628  0.058831404  0.062083412            6 
  248000    1.2255011   -4.8463271    174.76827  0.058725896  0.062075752            4 
  249000    1.2228026   -4.8498644    175.51082   0.05873856   0.06206917            3 
  250000    1.2001282   -4.8803411    176.18836  0.058729455  0.062061634            2 
  251000    1.2185582   -4.8418152    177.82111  0.059037554  0.062053434            1 
  252000    1.2194237   -4.8422889    178.01524  0.058867472  0.062045952            2 
  253000    1.2125165   -4.8402929    179.18261  0.059019305  0.062040552            2 
  254000    1.1908012   -4.8652769    180.25259  0.059137988  0.062036234            2 
  255000    1.2231207   -4.8548025    180.33265  0.058932239  0.062030157            4 
  256000    1.1911788   -4.8866713     181.7473  0.059162532  0.062028113            2 
  257000    1.2120831   -4.8460213    182.45146  0.059160653  0.062026613            2 
  258000    1.2356162   -4.8365341    183.62993  0.059311994  0.062027044            3 
  259000    1.2254061    -4.853292    183.95542  0.059187716  0.062027777            2 
  260000    1.2107476    -4.888823    184.33316   0.05908114  0.062026768            2 
  261000    1.2186655   -4.8414231    185.33861  0.059175801  0.062025507            1 
  262000    1.2269556   -4.8241594    187.03815  0.059490507  0.062028702            1 
  263000    1.1951868   -4.8237144    188.28024   0.05965787  0.062031404            2 
  264000    1.2043804   -4.8618013    188.84501  0.059610167  0.062037409            2 
  265000    1.1842759   -4.8438089    189.91211  0.059720788  0.062044475            2 
  266000    1.2175506    -4.855995     190.3482  0.059632895  0.062055316            4 
  267000    1.1975082   -4.8273808    191.62047  0.059806639  0.062064952            2 
  268000    1.2040384    -4.855663    192.29707  0.059793864  0.062076321            2 
  269000    1.1956344   -4.8670497    192.87323  0.059750072    0.0620873            1 
  270000    1.1989652    -4.859515    193.48756  0.059718384  0.062098757            2 
  271000    1.2197574   -4.8091572    194.15554  0.059703425  0.062108832            2 
  272000    1.2026629   -4.8684522    194.63885  0.059631999  0.062114129            2 
  273000    1.1885729   -4.8368019    194.91133  0.059496742  0.062118898            3 
  274000    1.1994219   -4.8719069    196.46125  0.059750987  0.062124724            1 
  275000    1.2140458   -4.8756515    196.72694  0.059614225  0.062129046            2 
  276000     1.217654   -4.8587839    197.63539  0.059672521  0.062134156            3 
  277000    1.2029638   -4.8575639    197.78644  0.059502538  0.062138025            2 
  278000     1.210427   -4.8385233    198.51983  0.059508341   0.06214161            2 
  279000    1.1909789   -4.8708128    199.32181  0.059534592  0.062142776            2 
  280000    1.2260608   -4.8484967    200.58712  0.059698547  0.062145401            2 
  281000    1.2302666   -4.8613474    199.89412  0.059280582  0.062146793            4 
  282000     1.167548    -4.850723    201.43991   0.05952716  0.062145873            2 
  283000    1.2348442   -4.8462582    202.08243  0.059506017  0.062144161            3 
  284000    1.2323766   -4.8717527     202.1803  0.059325204  0.062143422            2 
  285000    1.1934519   -4.8540057    203.18761  0.059411582  0.062140699            3 
  286000    1.2236047   -4.8713941    203.72893  0.059361576  0.062137465            2 
  287000    1.2000954   -4.8630465    204.48609   0.05937459  0.062131792            4 
  288000    1.1708132   -4.8947134    204.75194  0.059245353  0.062129311            1 
  289000    1.1957072   -4.8221723    206.42263  0.059522096  0.062126235            3 
  290000    1.2098092   -4.8582529    207.24917  0.059554358  0.062120286            1 
  291000     1.198789   -4.8797575    207.39937  0.059392718   0.06211516            3 
  292000    1.2091565   -4.8720471    207.93205  0.059341338  0.062111853            1 
  293000    1.2159383    -4.848178    208.68401  0.059352676  0.062109293            2 
  294000    1.2052269   -4.8584114    209.24566  0.059309994  0.062105068            3 
  295000    1.2074841   -4.9206073    210.35592  0.059422576  0.062100995            1 
  296000    1.1735236   -4.8801876    211.02089  0.059409033   0.06209558            2 
  297000    1.2409032    -4.882184    211.93333   0.05946502  0.062089676            4 
  298000    1.2216644   -4.8488512    211.83771  0.059238734  0.062085318            2 
  299000    1.1891912   -4.8647955    212.36559  0.059187733  0.062077736            1 
  300000    1.1916934    -4.860918    213.21532  0.059226476  0.062069653            2 
  301000    1.2061266   -4.8384956    215.29303  0.059604937  0.062061541            3 
  302000    1.2013154    -4.840007    216.10252  0.059630938  0.062055429            3 
  303000    1.2193455   -4.8852767    215.87778  0.059372327   0.06204894            2 
  304000     1.221575   -4.8498886    216.26837  0.059284094   0.06203949            3 
  305000      1.18386   -4.8774268    217.31254  0.059375011  0.062031827            2 
  306000    1.2118265   -4.8744796    217.88094  0.059335769  0.062024032            1 
  307000    1.1743353   -4.8516109    219.82641  0.059670579  0.062018869            5 
  308000    1.2068902   -4.8621496    219.03667  0.059263168  0.062013423            3 
  309000    1.1936668   -4.8649207     220.9552   0.05958878  0.062005517            4 
  310000    1.1856224   -4.8497865    220.29555  0.059219235  0.061996383            2 
  311000    1.2162492   -4.8505069    221.91449  0.059462618  0.061988154            1 
  312000    1.2055355   -4.8819117    221.46038  0.059150741  0.061980434            2 
  313000    1.2189278    -4.849116    223.97093  0.059630174  0.061971617            2 
  314000    1.2107034   -4.8618071    224.80698  0.059662149  0.061965272            3 
  315000    1.1711216   -4.8582988    224.18034  0.059306969  0.061960438            3 
  316000     1.191751   -4.8973654    224.67404  0.059249483  0.061954636            2 
  317000     1.228345   -4.9009423     224.7659  0.059086724  0.061945992            2 
  318000    1.2126626   -4.8530084    226.14168  0.059261447  0.061938443            2 
  319000    1.1833587   -4.9063096    225.24797  0.058842208  0.061927934            4 
  320000    1.2017439   -4.8756539    227.85313  0.059336752  0.061920319            2 
  321000    1.2162117   -4.8425288    229.01913  0.059454604  0.061913398            2 
  322000    1.1975227   -4.8737268    229.43064  0.059376459  0.061904424            3 
  323000     1.213924   -4.8538876    229.33688  0.059168442  0.061893244            2 
  324000     1.219077   -4.8776585     229.3509   0.05898943  0.061880404            3 
  325000    1.2131957   -4.8752903    231.56256  0.059375016  0.061869483            1 
  326000    1.2145698   -4.8930079    231.35238  0.059139156  0.061859215            2 
  327000    1.2048263   -4.8854133    232.20204  0.059174832  0.061848986            2 
  328000    1.1892435   -4.8387592    232.89582  0.059170686  0.061838613            2 
  329000    1.1842201   -4.8646558    233.68344  0.059190334  0.061829016            3 
  330000    1.1999285   -4.8413712     235.4688  0.059461818  0.061820121            6 
  331000    1.2015522   -4.8652828    234.76096  0.059103968  0.061813186            3 
  332000    1.2107051   -4.9179717    235.70743  0.059163511  0.061803401            3 
  333000    1.2114956   -4.8638374    235.88207  0.059029547  0.061793598            3 
  334000    1.1857933   -4.8609507    236.26897  0.058949345  0.061782467            4 
  335000    1.2463253   -4.8905458     237.4374  0.059064029  0.061771472            5 
  336000    1.1948267   -4.8819249    238.27403  0.059095742  0.061760943            3 
  337000    1.1821502   -4.8664455     238.2738  0.058920326  0.061749603            2 
  338000    1.1998011    -4.883171    239.01088  0.058927732   0.06173901            7 
  339000    1.1803197    -4.878636    240.05277  0.059010022  0.061725699            2 
  340000    1.1894144     -4.88731    240.90204  0.059044618  0.061714948            3 
  341000    1.2180447    -4.865585    242.51203  0.059264915  0.061704168            4 
  342000    1.2102813   -4.8280741    244.33584  0.059536024  0.061694173            2 
  343000    1.2075126   -4.8444633    244.53174  0.059410043   0.06168436            2 
  344000    1.1936442   -4.8859499    243.04252  0.058876579  0.061673036            1 
  345000    1.2019658   -4.8664316    243.46841  0.058808794  0.061658611            2 
  346000    1.1801191   -4.8883767    243.31961   0.05860299  0.061642396            4 
  347000    1.2040941   -4.8316629    246.05415  0.059090815  0.061627192            3 
  348000    1.2203457   -4.8928379    246.71807  0.059079998  0.061614445            2 
  349000    1.2237527   -4.8874097    247.21795  0.059030075   0.06160077            1 
  350000    1.1837513   -4.8625614    247.45769  0.058918496  0.061586921            4 
  351000    1.1739846   -4.8860595    248.41272   0.05897738  0.061573685            3 
  352000    1.1899373   -4.8793785    248.26254  0.058774275  0.061561579            1 
  353000    1.2147503   -4.8933577    248.69289  0.058709369  0.061546348            2 
  354000    1.1929308   -4.9092589    248.76665  0.058560888  0.061530209            2 
  355000    1.1997195    -4.848354    250.91177  0.058899475  0.061516306            2 
  356000    1.2111506   -4.9258325    251.65303  0.058907544  0.061503144            2 
  357000    1.1925316   -4.8774355    251.73334  0.058761283  0.061490503            3 
  358000    1.2080533   -4.8677806    252.85126  0.058857369  0.061476653            1 
  359000    1.1921106   -4.8940979    253.02987  0.058734881  0.061463543            3 
  360000    1.1978615   -4.8508235    254.95766  0.059017976   0.06145036            3 
  361000    1.1996153   -4.8461879     255.8218  0.059053971    0.0614385            2 
  362000    1.1991051    -4.915359    255.41944  0.058798213  0.061424694            2 
  363000    1.2032153   -4.9166582    255.36982  0.058624843  0.061411502            2 
  364000    1.1931518   -4.8564754    258.09196  0.059086987  0.061400163            2 
  365000     1.211082   -4.8973703     257.5593  0.058803492   0.06138918            3 
  366000    1.1796434   -4.8776079    259.79849  0.059152663  0.061378719            2 
  367000    1.1805369   -4.9464897     257.6788  0.058510172  0.061366511            4 
  368000    1.2011803   -4.9020356    258.59314  0.058558229  0.061353405            2 
  369000    1.1903714   -4.8821867    260.56208  0.058844192  0.061340846            4 
  370000    1.1847184      -4.8633    260.89456  0.058760035  0.061328429            3 
  371000    1.1868462    -4.877712    262.76225  0.059021171   0.06131531            3 
  372000    1.1917645   -4.8784374    261.80257   0.05864753  0.061301561            5 
  373000    1.1737932   -4.9078056    263.69877  0.058913933  0.061290954            2 
  374000    1.1694171   -4.8884601    264.55511  0.058947217  0.061281573            1 
  375000    1.1852816   -4.8877513    265.20769  0.058935041  0.061272293            2 
  376000    1.1823523   -4.8951823    265.83719  0.058917816  0.061263037            1 
  377000    1.1811106   -4.8819624    268.03616  0.059247604  0.061256424            1 
  378000     1.192845   -4.8691236     269.4527  0.059403153  0.061250708            3 
  379000    1.1725905   -4.9142033    269.02221   0.05915176  0.061244466            3 
  380000    1.1893814   -4.8919786    269.60255  0.059123365  0.061234591            3 
  381000    1.1822824   -4.9051048    269.54412  0.058955407  0.061226101            1 
  382000    1.1890839   -4.8504895    270.58906  0.059029026  0.061216195            3 
  383000    1.2456712   -4.8868604    271.04088  0.058973211  0.061206314            3 
  384000    1.2004198   -4.9004282    271.35355  0.058887488  0.061196152            2 
  385000     1.208175   -4.8839847    272.41324  0.058963904  0.061185174            2 
  386000    1.1795328   -4.9074067    271.34526  0.058580582  0.061171995            6 
  387000    1.1970167    -4.897875    273.39209   0.05886996  0.061159337            2 
  388000     1.171953   -4.8870113    274.26986  0.058906756  0.061147839            2 
  389000    1.2132418   -4.8781597    274.51969  0.058808845  0.061135792            5 
  390000    1.1964517   -4.8985243    274.97808  0.058756001  0.061123762            3 
  391000     1.188985   -4.8686898    276.94921  0.059025834  0.061113587            2 
  392000    1.1730951   -4.9414012    274.67183   0.05839112  0.061101791            3 
  393000    1.1790224   -4.8872032    276.16502  0.058559164  0.061089954            3 
  394000    1.2060009   -4.9581088    277.05719  0.058599236  0.061077223            2 
  395000    1.1893563   -4.8770491    277.81774  0.058611337  0.061063985            2 
  396000    1.1912579   -4.9161767    278.81751  0.058673719  0.061052077            1 
  397000    1.1966013   -4.9020959    280.50267  0.058879654  0.061040971            1 
  398000    1.1913299   -4.9092375    279.74095  0.058572225  0.061028284            3 
  399000    1.2098128     -4.84791    282.61334  0.059025343  0.061017976            2 
  400000    1.1600325   -4.8901685    280.78544  0.058496968  0.061005756            2 
  401000    1.1826902   -4.9166903    282.64443  0.058737412  0.060994745            2 
  402000    1.1747502   -4.8495028    283.56054  0.058781207  0.060983081            2 
  403000    1.1777168   -4.9090129    284.74273  0.058879803  0.060970468            2 
  404000    1.2175039   -4.8758654     284.7134  0.058728012  0.060958779            4 
  405000    1.1836298   -4.8940412    285.05921  0.058654159   0.06094607            4 
  406000    1.2028796   -4.9076034    285.26111  0.058551131  0.060935177            1 
  407000    1.1910348   -4.9191587    285.73679  0.058504665  0.060921357            3 
  408000    1.1825164   -4.9296529    286.29744  0.058475785  0.060906887            2 
  409000    1.1993501   -4.8721117    288.53424  0.058788558  0.060893764            2 
  410000    1.1761626   -4.8704298    289.17829  0.058776076  0.060881576            4 
  411000    1.1634847   -4.8775208    290.46355  0.058893663  0.060871225            5 
  412000     1.196157   -4.8693485     290.1092  0.058679046  0.060860904            1 
  413000    1.1864147   -4.8865883     291.1457  0.058746105  0.060849695            1 
  414000    1.1695579   -4.8849688    291.66144  0.058708019  0.060838435            1 
  415000    1.2005036   -4.9274583    292.79465  0.058794107  0.060828406            2 
  416000    1.1909674   -4.8577753    293.81679  0.058857531  0.060819129            4 
  417000    1.1569371   -4.8953536    293.72556  0.058698154  0.060807095            2 
  418000    1.1756622   -4.8619568    294.73803  0.058759576  0.060794946            3 
  419000     1.189613    -4.915012    292.50814  0.058175843  0.060781974            2 
  420000    1.1859647   -4.8745023    295.80862  0.058692186  0.060769897            2 
  421000    1.1751378   -4.8899373    295.90254  0.058571365  0.060756949            4 
  422000    1.1980378   -4.8596444    296.95948  0.058641287  0.060742483            4 
  423000    1.2015142   -4.9179224    294.93651  0.058104119    0.0607273            3 
  424000    1.1621149   -4.8782154    298.48681   0.05866486  0.060713234            2 
  425000    1.2144485   -4.9227712    297.60464  0.058353851  0.060700364            2 
  426000    1.1951047   -4.9174217    297.49779  0.058195968  0.060684552            3 
  427000    1.1809524   -4.8900406    299.19886  0.058391658  0.060668848            1 
  428000    1.1854522   -4.8592254    300.81444   0.05856979  0.060655334            2 
  429000    1.1904736   -4.8967545    300.43591  0.058359735  0.060641069            3 
  430000    1.1915012   -4.9264873    298.67941  0.057883606  0.060624321            2 
  431000    1.1671879   -4.9238973    301.87817  0.058367783  0.060609273            3 
  432000    1.1539541   -4.9234141    302.75769  0.058402332  0.060594166            2 
  433000    1.2004723   -4.8974892    302.83442   0.05828222  0.060579121            2 
  434000    1.1756501   -4.8994908    302.94418  0.058169006  0.060563325            2 
  435000    1.1860497   -4.9155504    303.74954  0.058189567  0.060545347            2 
  436000    1.2101504   -4.9086575    304.42026  0.058184301  0.060530212            2 
  437000    1.1656355   -4.9203264    304.03069  0.057976866  0.060513929            3 
  438000    1.1859861   -4.8871353    305.44837  0.058114226  0.060497131            2 
  439000    1.1710809   -4.9524134    305.28827  0.057951456  0.060480242            3 
  440000    1.1765853   -4.9037306    306.70669  0.058088388  0.060463947            3 
  441000    1.1663938   -4.9032678    307.45749  0.058098542  0.060448477            2 
  442000    1.1971199   -4.9274045    307.08979  0.057897773  0.060432868            2 
  443000    1.2065496   -4.9076896    309.33718  0.058189837  0.060417566            2 
  444000    1.2007695   -4.8927933    311.29968  0.058427117  0.060402101            2 
  445000    1.2053577   -4.9199169    311.11711  0.058261631  0.060387854            2 
  446000    1.1845101   -4.9212205    311.78953  0.058256639  0.060373475            3 
  447000    1.1704409   -4.9158762    311.51254  0.058074672  0.060359966            2 
  448000    1.2014994   -4.8856004    312.85682  0.058195093  0.060345291            4 
  449000    1.1850309   -4.9202864    313.10442  0.058111437  0.060329763            2 
  450000    1.1842564     -4.91321    313.84614  0.058119655  0.060313757            7 
  451000    1.1913337   -4.8870046    315.09442  0.058221438  0.060298741            4 
  452000    1.1699696   -4.8917346    315.94868  0.058250124   0.06028513            3 
  453000    1.1738003   -4.9228365    315.56623  0.058051183  0.060271564            2 
  454000    1.2076291    -4.919083     317.0467  0.058195063  0.060259482            8 
  455000    1.1789628   -4.8999577    316.94961  0.058049379  0.060248096            5 
  456000    1.2037001   -4.8928458    316.65649  0.057868511  0.060234636            4 
  457000    1.1789575   -4.9233875    318.60392  0.058096995  0.060221615            3 
  458000    1.1552894    -4.910715    319.75758  0.058180055  0.060206519            4 
  459000     1.190563   -4.9271215    319.75654  0.058053111   0.06019154            2 
  460000    1.1692771    -4.894899    321.14424  0.058178304  0.060178736            3 
  461000    1.1584177   -4.8967596    321.84226  0.058178283  0.060164361            3 
  462000    1.1689317   -4.9122275    322.43331  0.058158966  0.060151352            2 
  463000    1.1555752   -4.8811001    324.84954   0.05846824  0.060141094            2 
  464000    1.1947854   -4.9216295    323.87301  0.058166848  0.060129739            2 
  465000    1.1991181   -4.8907911    327.58736  0.058707412  0.060119219            1 
  466000    1.1800898   -4.9285725     325.8437  0.058269616  0.060109797            3 
  467000    1.2149849   -4.8872771    328.27003  0.058577807  0.060099863            2 
  468000    1.1759878   -4.9459683     326.5954  0.058154451  0.060089517            2 
  469000    1.1691342   -4.9415098    325.85514  0.057898923  0.060076993            2 
  470000    1.1872305   -4.9164078    329.65294  0.058449103  0.060065559            2 
  471000    1.1841558    -4.938567    328.74763  0.058164832  0.060053085            3 
  472000    1.1400187   -4.9218255     329.2031  0.058122017  0.060041309            2 
  473000    1.1932253   -4.8942242    330.73057  0.058268247  0.060029307            1 
  474000    1.1759912   -4.9178855    330.33337  0.058075487  0.060016478            6 
  475000    1.1594146   -4.9210665    331.20149  0.058105525  0.060003362            2 
  476000    1.1540777   -4.9263325    330.70174  0.057895962   0.05999027            6 
  477000    1.1641528   -4.9101744    332.12052  0.058022453  0.059977634            1 
  478000    1.1890001   -4.9020454    333.14086   0.05807895   0.05996387            3 
  479000    1.1873488   -4.9415277     332.7168  0.057883925  0.059950544            2 
  480000    1.1850094   -4.9026976    333.77128  0.057946403  0.059937487            2 
  481000    1.1749106   -4.8753792    336.42598   0.05828586  0.059925194            1 
  482000    1.1659304   -4.9127071    336.40145  0.058160694  0.059911663            2 
  483000      1.17764   -4.9063122    336.12057  0.057991817  0.059899005            2 
  484000    1.1484569   -4.8846901    336.85812  0.057998988   0.05988521            4 
  485000    1.1853063   -4.8932208     337.1164   0.05792378  0.059871441            4 
  486000    1.1676859   -4.9596523    337.58169  0.057884377  0.059858015            3 
  487000    1.1695101   -4.9020054    338.53497   0.05792864  0.059845402            8 
  488000    1.1540408   -4.9238537    339.07056  0.057901393  0.059832715            3 
  489000    1.1487444   -4.8818029    341.47688   0.05819306  0.059819465            3 
  490000     1.171475   -4.9127718    340.54762  0.057916262  0.059807925            1 
  491000    1.1747069   -4.9113196    341.46719  0.057954377  0.059794433            4 
  492000    1.1766373   -4.9247056    342.14695   0.05795172  0.059779701            2 
  493000    1.1724257   -4.8947125    344.44464  0.058222555  0.059767014            3 
  494000    1.1508833   -4.9249546    343.56788  0.057956795  0.059754238            3 
  495000    1.1999263   -4.9359354    344.29136  0.057961509  0.059740257            3 
  496000    1.1563854   -4.9014905    344.08253  0.057809565  0.059727016            2 
  497000    1.1809508   -4.9363008    345.37772  0.057910415  0.059714899            2 
  498000    1.1447375   -4.9134237    345.71415  0.057850426  0.059703115            2 
  499000    1.1925003    -4.960852    345.38183  0.057678996  0.059691269            1 
  500000    1.1786976   -4.9088543    347.86775  0.057977958  0.059679822            1 
  501000    1.1590891   -4.8981881     349.5709  0.058145526  0.059668899            1 
  502000    1.1896232   -4.9329863    349.33472  0.057990492   0.05965678            4 
  503000    1.1715009      -4.9199     350.5095  0.058069832  0.059645729            2 
  504000    1.1678724    -4.935965    349.87698   0.05785003  0.059633149            4 
  505000    1.1687429   -4.9234643    349.63236  0.057695109  0.059621074            2 
  506000    1.1731711   -4.9263162     350.3332  0.057696509  0.059608607            4 
  507000    1.1789074   -4.9316122    351.03445   0.05769797  0.059593885            1 
  508000    1.1470682   -4.9306636     351.4585  0.057653954  0.059580713            3 
  509000    1.1588414   -4.9080698     354.0758  0.057969189  0.059568025            1 
  510000    1.1710271   -4.9405978     355.0945  0.058021978  0.059555063            9 
  511000    1.1999885   -4.9362524    354.73007     0.057849  0.059543197            2 
  512000    1.1691414   -4.9103784    356.20339  0.057975812  0.059531576            2 
  513000    1.1853686    -4.924199    356.88814  0.057974032  0.059519966            1 
  514000    1.1475537   -4.9362808    356.79735  0.057846523  0.059507894            5 
  515000    1.1746475   -4.9140989    358.38259   0.05799071  0.059496432            2 
  516000    1.1594482   -4.9208535    358.74662  0.057937115  0.059485463            3 
  517000     1.173911   -4.9349077    359.59365  0.057961582  0.059474873            2 
  518000    1.1551303   -4.9378811      360.126  0.057935329  0.059463674            3 
  519000    1.1558586   -4.9498461    361.12128  0.057983506  0.059452846            4 
  520000    1.1868429   -4.9075036    361.41238  0.057918651  0.059441129            3 
  521000     1.149974   -4.9453604    360.44093    0.0576521  0.059429831       -1e+20 
  522000    1.1881638   -4.9118446    361.61588  0.057729227  0.059417219            1 
  523000    1.1703061   -4.9602347    361.92338  0.057667842  0.059404977            2 
  524000    1.1751517   -4.9258227    363.03047  0.057733853  0.059391498            3 
  525000    1.1530275   -4.9339538    363.34657  0.057674058  0.059379882            3 
  526000    1.1628381   -4.9431575    363.81643  0.057638851   0.05936783            3 
  527000    1.1763637   -4.9040081    365.71569  0.057829805  0.059356596            2 
  528000    1.1647226   -4.9700939    365.94355  0.057756242  0.059345039            4 
  529000    1.1619882   -4.9483551    366.09877  0.057671514  0.059333474            3 
  530000    1.1384999   -4.9517768    367.05465  0.057712995  0.059321445            2 
  531000    1.1509534   -4.9330747    368.09768  0.057767998  0.059309596            4 
  532000     1.152217   -4.9151149    368.68453  0.057751337  0.059298655            3 
  533000    1.1782787   -4.9228828    369.13086  0.057712767  0.059286744            2 
  534000     1.163407   -4.9569224    368.44558   0.05749775  0.059275425            2 
  535000    1.1770295   -4.9157216    370.34154  0.057685598  0.059264561            2 
  536000     1.158994   -4.9406683    370.98812  0.057678501  0.059252595            2 
  537000    1.1714964    -4.937555    371.90397  0.057713217  0.059241396            3 
  538000    1.1526873      -4.9423    372.10497  0.057637078   0.05923021            2 
  539000    1.1471425   -4.9383956    373.05279  0.057676683   0.05921903            2 
  540000      1.16315   -4.9193558    373.25121  0.057600495  0.059207365            2 
  541000    1.1599652   -4.9084893    374.24071  0.057646443  0.059194107            2 
  542000    1.1614165   -4.9362697    374.28977  0.057547627  0.059181114            1 
  543000    1.1515271   -4.9611154    373.57119  0.057331368  0.059168225            2 
  544000    1.1527735   -4.9283564    375.47187  0.057517136  0.059154398            1 
  545000     1.170661   -4.9567057    377.04913  0.057652772  0.059141228            2 
  546000    1.1731142   -4.9744207    376.93968  0.057530476  0.059128949            2 
  547000    1.1765679   -4.9650176    378.03039  0.057591467  0.059116895            4 
  548000    1.1257555   -4.9528079    379.29775  0.057679099   0.05910537            2 
  549000    1.1660065   -4.9311508    380.36468  0.057735987  0.059094695            1 
  550000    1.1780801   -4.9218232    380.62663  0.057670701  0.059084453            1 
  551000    1.1854561   -4.9392178    382.37884   0.05783104   0.05907379            1 
  552000    1.1475461   -4.9570052    380.06008   0.05737622  0.059061009            3 
  553000    1.1587506   -4.9090477    382.42868  0.057629397  0.059049571            2 
  554000    1.1452747   -4.9267313    382.58434  0.057548787  0.059038676            2 
  555000    1.1681051   -4.9304486    382.80927  0.057478869  0.059027691            2 
  556000    1.1584118   -4.9247056       384.52  0.057631894   0.05901657            4 
  557000    1.1662798   -4.9387827    383.84404  0.057427295  0.059004215            2 
  558000    1.1534536   -4.9587394    384.72376  0.057455758  0.058993501            3 
  559000    1.1597921   -4.9588835    385.72455  0.057502169  0.058981891            6 
  560000    1.1531847   -4.9579366    386.06972  0.057450852   0.05897058            2 
  561000    1.1471874   -4.9576906    386.94995  0.057479197  0.058958808            3 
  562000    1.1344951   -4.9483034    387.21426  0.057416111  0.058947382            2 
  563000    1.1491536   -4.9126558    389.25911  0.057616801  0.058937167            3 
  564000    1.1450551   -4.9518153     389.2728  0.057516667  0.058926559            5 
  565000     1.150589    -4.943844    390.05901  0.057530827  0.058916263            3 
  566000    1.1565831   -4.9620568    389.68337  0.057373876  0.058906046            2 
  567000    1.1813417   -4.9669194      392.362  0.057666373  0.058895989            4 
  568000    1.1551722   -4.9203845    392.57075  0.057595473  0.058886761            4 
  569000    1.1454271   -4.9426033    393.34439  0.057607556  0.058877459            2 
  570000    1.1682999   -4.9699771    392.61326    0.0573996  0.058866946            3 
  571000    1.1722137   -4.9182614    394.22684  0.057534566  0.058855494            1 
  572000     1.166975   -4.9483938     394.7739   0.05751368  0.058845561            2 
  573000    1.1443124   -4.9399387    395.44602  0.057511056  0.058836112            2 
  574000    1.1670765   -4.9786498    396.03009  0.057495658  0.058826589            1 
  575000    1.1660877   -4.9457727    396.24863  0.057427338  0.058816038            2 
  576000      1.17044   -4.9325955    398.27305  0.057620523  0.058805703            5 
  577000    1.1826621   -4.9680507     396.3348  0.057240728  0.058794572            2 
  578000    1.1784679   -4.9405587    397.00433  0.057238225  0.058782246            2 
  579000    1.1582334   -5.0033263    395.95627  0.056988525  0.058770813            2 
  580000    1.1772239   -4.9997373    397.16271  0.057063607  0.058758058            5 
  581000    1.1368726   -4.9434755     397.5517  0.057021184  0.058745231            3 
  582000    1.1404298   -4.9662753    399.59308  0.057215504   0.05873294            3 
  583000    1.1565292   -4.9801577     399.7413   0.05713855  0.058721354            1 
  584000    1.1658628   -4.9486997     400.5968  0.057162785  0.058709316            4 
  585000     1.157416   -4.9096181    402.28983  0.057306244  0.058696731            1 
  586000    1.1509848   -4.9747057    401.65883  0.057118718   0.05868385            2 
  587000    1.1707295   -4.9523884    402.94179  0.057203548  0.058671389            1 
  588000    1.1440853   -4.9638314    404.09998  0.057270406   0.05865869            2 
  589000    1.1561355   -4.9698451    404.47633  0.057226419  0.058645824            3 
  590000    1.1497764   -4.9042655    405.08154  0.057214906  0.058633888            2 
  591000    1.1657047   -4.9363976    405.33352  0.057153626  0.058622574            2 
  592000    1.1772967   -4.9378535    406.95847  0.057285821  0.058610982            3 
  593000    1.1291062   -4.9822067    407.05597  0.057202919  0.058599031            2 
  594000    1.1452759   -4.9708968    407.63334  0.057187617  0.058587877            3 
  595000    1.1674125   -4.9543465    406.29899   0.05690462  0.058577436            5 
  596000    1.1476185    -4.941854    408.97407  0.057183175  0.058565858            2 
  597000    1.1647211   -4.9808085    409.57498  0.057171271   0.05855386            2 
  598000    1.1428248   -4.9681646    408.54902  0.056932695  0.058541571            4 
  599000    1.1629512   -4.9781073    411.33439  0.057225152  0.058529734            2 
  600000    1.1555456   -4.9257125    412.31215  0.057265577  0.058518878            2 
  601000    1.1644394   -4.9688704    412.41447   0.05718448  0.058508718            4 
  602000    1.1496451   -4.9593907    412.19713  0.057059403  0.058498813            3 
  603000    1.1587856   -4.9112469    415.40497  0.057408094  0.058488839            4 
  604000    1.1543417   -4.9234997    414.18854  0.057145218  0.058479053            2 
  605000    1.1449968   -4.9337542    416.85857  0.057418536  0.058469062            3 
  606000    1.1805901   -4.9428687    416.24416  0.057239295  0.058458921            2 
  607000     1.163179   -4.9746456    416.90897  0.057236267  0.058448528            1 
  608000    1.1478469   -4.9109764     419.0847  0.057440337  0.058438161            4 
  609000    1.1239297   -4.9461347    418.31249  0.057240351  0.058428554            3 
  610000    1.1233885   -4.9637816    418.76419  0.057208223  0.058417778            3 
  611000    1.1691686    -4.938171    417.91407  0.056998646  0.058407482            2 
  612000    1.1833972    -4.989577    419.11202   0.05706863  0.058396169            1 
  613000    1.1880778   -4.9643127    419.49179   0.05702716  0.058384696            3 
  614000    1.1228583   -4.9727693    420.85249  0.057118959  0.058372628            2 
  615000    1.1274473   -5.0227098    418.42611  0.056697305  0.058360227            3 
  616000    1.1812266   -4.9861308    420.86331  0.056934972  0.058347503            3 
  617000     1.154241   -4.9870662     421.8153  0.056971273  0.058335687            1 
  618000    1.1450959   -4.9426462    422.79518  0.057011217  0.058324401            2 
  619000    1.1600635   -4.9742973    424.17624   0.05710504  0.058313133            2 
  620000    1.1559284   -4.9655059     424.0594  0.056997231  0.058302136            2 
  621000    1.1347473   -4.9619146    423.59018  0.056842483  0.058291272            3 
  622000    1.1500313   -4.9162097    425.65119  0.057027223  0.058280011            1 
  623000     1.151857   -4.9337703    426.63807  0.057067693  0.058267907            6 
  624000    1.1364788   -4.9611353     425.6303  0.056841653  0.058255902            4 
  625000      1.14922   -4.9317177    427.48833  0.056998444   0.05824353            2 
  626000    1.1365041   -4.9575505    426.39607   0.05676199  0.058230397            2 
  627000    1.1421072   -4.9330522    428.51949   0.05695368  0.058218141            2 
  628000    1.1394346   -4.9557698    430.52602  0.057129249     0.058207            2 
  629000    1.1332353   -5.0011106    427.13143   0.05658869  0.058194579            3 
  630000    1.1526109   -4.9291734    430.45631  0.056938666  0.058183006            8 
  631000    1.1449807   -4.9877667    430.32814  0.056831503  0.058170988            4 
  632000    1.1424649   -4.9849411    430.20714  0.056725625  0.058159158            2 
  633000    1.1611053   -5.0019256    430.43547  0.056666071  0.058147753            3 
  634000    1.1567374     -4.98237     431.2052  0.056677865  0.058135703            2 
  635000    1.1662452   -5.0125725    430.12432  0.056446761  0.058123957            2 
  636000    1.1537639   -4.9638681    434.10878  0.056880081   0.05811305            3 
  637000    1.1322539   -4.9478478    436.01416  0.057040052  0.058102708            4 
  638000    1.1299942   -4.9526572    434.98378  0.056816063  0.058092346            2 
  639000    1.1379216   -4.9830144    437.10425  0.057003684  0.058083434            4 
  640000    1.1685668   -4.9552523    436.76138  0.056869972  0.058073734            2 
  641000    1.1408465   -4.9796958    439.04009  0.057077494  0.058063945            3 
  642000    1.1312978   -4.9615383    439.29465  0.057021632  0.058054421            4 
  643000     1.150316   -4.9755214    438.85235  0.056875628  0.058044856            2 
  644000    1.1538651   -4.9692207    440.72347  0.057029435  0.058035683            4 
  645000    1.1353823   -4.9536797    439.45007  0.056776495  0.058026699            4 
  646000    1.1363964   -4.9610409    443.16831  0.057168255  0.058018109            4 
  647000     1.123997   -5.0162633    440.50291  0.056736594  0.058008691            2 
  648000    1.1314834   -5.0231055    440.66863  0.056670348  0.057998334            3 
  649000    1.1399001    -4.968561    442.59886  0.056830875  0.057988444            5 
  650000    1.1785276   -4.9797147    443.44948  0.056852497  0.057979211            2 
  651000    1.1495295   -4.9701626    444.56984  0.056908581  0.057970085            4 
  652000    1.1336833   -4.9618578    446.86697  0.057114899  0.057960836            2 
  653000    1.1608807    -4.929316    447.74678  0.057139712  0.057951727            2 
  654000    1.1268394   -4.9213306    447.65096  0.057040132  0.057942911            6 
  655000    1.1714038   -4.9619859    447.24008  0.056900773   0.05793439            2 
  656000    1.1400014   -4.9689647    448.26832  0.056944655  0.057925561            2 
  657000    1.1644227   -4.9848015    447.16222  0.056717684  0.057916295            2 
  658000    1.1452571   -4.9584785    450.53762   0.05705897  0.057907385            4 
  659000    1.1297053   -4.9736018     450.4527  0.056961646  0.057898593            6 
  660000    1.1354427    -4.975127    451.94051  0.057063195  0.057889694            3 
  661000     1.124984   -4.9998992    450.48837  0.056793793  0.057880926            3 
  662000    1.1514213   -4.9752169    452.44336  0.056954098   0.05787153            3 
  663000    1.1524756   -4.9603265    454.02571  0.057067083  0.057863242            4 
  664000    1.1429707   -4.9724295    454.98469  0.057101492   0.05785557            2 
  665000    1.1540756   -4.9773054    453.86717  0.056875585   0.05784807            5 
  666000    1.1615187   -4.9784888    454.57387  0.056878612  0.057840671            2 
  667000     1.168999   -4.9905039    457.46514  0.057154565  0.057833351            2 
  668000    1.1501063   -5.0022472    457.18412  0.057033947   0.05782597            1 
  669000    1.1413824   -5.0126009     457.5304  0.056991828   0.05781961            2 
  670000    1.1431921   -4.9894247    458.40477  0.057015519  0.057812783            2 
  671000    1.1627756    -4.951052    459.04803  0.057010436  0.057805908            2 
  672000    1.1478971   -4.9745123    458.28209  0.056830617  0.057798798            3 
  673000     1.123388   -4.9697027    460.66196  0.057040857  0.057791604            1 
  674000    1.1538086   -4.9781885    460.26026   0.05690656  0.057784013            2 
  675000    1.1113307   -4.9667354    461.02839  0.056917085  0.057777118            2 
  676000    1.1738699   -4.9627497    461.17993  0.056851569  0.057769851            5 
  677000    1.1409426    -4.999704    461.59988  0.056819287  0.057761769            4 
  678000    1.1342541   -4.9658178    463.34498  0.056949973   0.05775353            3 
  679000    1.1379987    -5.007492    462.83965  0.056804081  0.057744894            2 
  680000    1.1443066   -4.9636823    464.33314  0.056903571  0.057736266            7 
  681000    1.1609275   -4.9833349    464.89965  0.056889335  0.057728308            2 
  682000    1.1200264   -4.9636352    465.27308   0.05685155  0.057720214            1 
  683000     1.152609   -4.9889878    465.81227  0.056834098  0.057711212            5 
  684000    1.1632829   -5.0106397     465.9773  0.056771114  0.057701992            4 
  685000    1.1462506   -4.9673546    467.43406  0.056865457   0.05769308            2 
  686000    1.1547888   -4.9626165    466.74345   0.05669867  0.057684603            2 
  687000    1.1506111   -5.0126945    465.48417  0.056463388   0.05767535            2 
  688000    1.1561788   -5.0002754    465.79521  0.056418994  0.057665923            3 
  689000     1.143923   -4.9943876    466.93058  0.056474429  0.057655939            4 
  690000    1.1222033   -4.9833646    468.84622  0.056623939  0.057646303            2 
  691000    1.1498218   -4.9778272    470.10887  0.056694267  0.057636539            4 
  692000    1.1433719   -4.9896649    468.27864  0.056391937  0.057626937            3 
  693000       1.1486   -4.9748513    470.04835  0.056523371  0.057616425            3 
  694000    1.1664008    -4.950556    471.25795   0.05658717  0.057605945            3 
  695000    1.1314309   -4.9856557    470.01052  0.056356178  0.057596133            2 
  696000    1.1059257   -4.9720405    473.05744  0.056640019  0.057585993            2 
  697000    1.1364997   -5.0053917    471.05598  0.056319462  0.057575559            3 
  698000    1.1485054   -4.9984238    473.29868  0.056506528  0.057565063            3 
  699000    1.1254917   -4.9777848    473.28861  0.056424489  0.057555466            3 
  700000    1.1240304   -5.0024916    473.59162  0.056379955  0.057545324            3 
  701000    1.1236353   -4.9550384    476.43588  0.056637646  0.057535021            6 
  702000    1.1131059   -5.0020113    475.84564  0.056486899  0.057525125            3 
  703000    1.1342074   -4.9650565    476.05955  0.056431905  0.057515086            3 
  704000    1.1388219   -4.9772184    477.61353  0.056535692  0.057505376            2 
  705000    1.1143876   -4.9840512    478.50595  0.056560987  0.057495835            5 
  706000    1.1215452   -4.9866348    478.36527  0.056464267  0.057485641            3 
  707000    1.1321482   -4.9570784    478.95013  0.056453339   0.05747557            1 
  708000    1.1359802   -4.9905983    479.95533  0.056491918  0.057464877            2 
  709000    1.1171779   -5.0142436    477.64485  0.056140674   0.05745502            5 
  710000    1.1659335   -4.9773443    481.67315  0.056534407  0.057445131            2 
  711000    1.1464041   -5.0132488    481.40208  0.056423123  0.057435796            2 
  712000    1.1402777   -4.9986669    482.57781  0.056481485  0.057426987            2 
  713000    1.1345219   -4.9801396    484.48729  0.056625443  0.057417243            2 
  714000    1.1529748   -4.9791487    483.15242  0.056390338  0.057407547            2 
  715000    1.1348439   -5.0161957    482.39235  0.056222884  0.057398695            2 
  716000    1.1258322   -4.9986521    483.71567  0.056298379  0.057388268            1 
  717000    1.1107964   -4.9709722    484.82164  0.056348401  0.057378696            3 
  718000    1.1431524   -4.9843267    486.48514  0.056462992  0.057369612            3 
  719000     1.152285   -4.9975856    486.82428   0.05642377  0.057360396            3 
  720000    1.1412412   -4.9903816    485.77787   0.05622429  0.057350517            3 
  721000    1.1370831   -5.0147981    485.42085  0.056105045   0.05734122            3 
  722000     1.148331   -4.9795324    489.12501  0.056454872  0.057331264            2 
  723000    1.1357357    -5.007681    488.78344  0.056337419  0.057321883            4 
  724000    1.1306535   -4.9533733    491.76738   0.05660306  0.057312745            2 
  725000    1.1286051   -4.9874013    490.53553  0.056383394  0.057304133            2 
  726000    1.1042696   -5.0104156     491.9964  0.056473416     0.057296            1 
  727000    1.1279396   -4.9883398    494.61096  0.056695433  0.057288607            2 
  728000    1.1196427   -4.9763279    492.20394  0.056342026  0.057280558            3 
  729000    1.1091032   -4.9482726    495.42634  0.056633098  0.057273073            6 
  730000     1.140346   -4.9803474     493.7701  0.056366449  0.057264575            6 
  731000     1.147959   -5.0169362    494.87658  0.056415478  0.057255953            4 
  732000    1.1088091   -4.9985173    494.54651  0.056300832  0.057247339            7 
  733000    1.1215697   -5.0283392    493.14703  0.056064919  0.057238602            3 
  734000    1.1248503   -5.0084928    497.49713  0.056482417  0.057229934            2 
  735000    1.1668293   -5.0143997    497.87946  0.056448918   0.05722164            1 
  736000     1.137965   -5.0029373     496.8225  0.056252547  0.057212932            3 
  737000    1.1446138   -5.0000658    499.98317  0.056533601  0.057204324           13 
  738000    1.1567343   -4.9717386    497.75265  0.056205132    0.0571949            3 
  739000      1.15107   -5.0256981    497.73704  0.056127317  0.057185036            3 
  740000    1.1128592   -5.0247263    500.73461  0.056389033  0.057175407            3 
  741000    1.1193329   -4.9544334    501.75038  0.056427168  0.057166171            3 
  742000    1.1510745   -4.9959917    501.79748   0.05635641  0.057156897            6 
  743000    1.1083458   -5.0209413     500.4621  0.056130787  0.057146716            2 
  744000    1.1599322   -5.0042966    501.27561  0.056146462  0.057137185            2 
  745000    1.1524233    -5.020433    501.81105   0.05613099  0.057127466            3 
  746000    1.1458285   -4.9683266    503.51097   0.05624564   0.05711785            4 
  747000    1.1367859   -4.9440759    506.14655  0.056464362  0.057109434            2 
  748000    1.1286737   -5.0161255    505.40058  0.056305769  0.057100682            3 
  749000    1.1440765    -5.016094    504.62704   0.05614453  0.057091562            5 
  750000    1.1056867    -5.000394    505.84595  0.056205105  0.057082557            4 
  751000     1.146899   -4.9737711    506.78595  0.056234571  0.057073063            2 
  752000    1.1165832   -4.9906055    506.94508  0.056177425  0.057063236            4 
  753000    1.1520575   -4.9934462    507.17859  0.056128662  0.057053737            2 
  754000    1.1182391   -4.9799092    508.35308  0.056184027  0.057044076            2 
  755000    1.1179254   -4.9830353    509.56224  0.056243073  0.057033776            2 
  756000    1.1309524   -4.9636038    510.85077  0.056310711  0.057024358            2 
  757000     1.145464   -4.9890552    508.90883  0.056022549  0.057014708            3 
  758000    1.1345004   -4.9837355    508.10736  0.055860527  0.057004407            1 
  759000    1.1213934   -4.9866457    510.47228  0.056046584  0.056994818            2 
  760000    1.1138149   -5.0162027    510.61927  0.055988955  0.056984562            2 
  761000    1.1452584   -4.9904732    509.77103  0.055822495  0.056973881            3 
  762000    1.1151411   -5.0137137    512.42349  0.056039314   0.05696364            1 
  763000    1.1452266   -4.9726381    512.49027  0.055973161  0.056953029            1 
  764000    1.1306689   -4.9942544    512.42149  0.055892397  0.056942932            3 
  765000    1.1512212   -5.0188913    511.86051  0.055758225  0.056932359            4 
  766000    1.1188083   -5.0387119    513.45159  0.055858528  0.056921636            1 
  767000    1.1206235   -5.0201121    512.71762  0.055705956  0.056910814            2 
  768000    1.1337897   -5.0045026     515.1454  0.055896854  0.056900031            5 
  769000    1.1263701   -5.0108733    514.19071   0.05572071  0.056888907            3 
  770000    1.1199876   -4.9686574     515.7753  0.055819837  0.056877607            4 
  771000     1.100575    -4.992221    513.66042  0.055518853  0.056866099            1 
  772000    1.1177278   -5.0238335    514.58955  0.055547231  0.056854478            2 
  773000    1.1306442   -5.0222912    518.65228  0.055913355  0.056842891            3 
  774000    1.1204793    -5.027509    516.93457  0.055656177  0.056831944            6 
  775000    1.1288226   -4.9910327    518.29921  0.055731098  0.056820664            2 
  776000    1.1417696   -5.0441874    518.04735  0.055632232   0.05680959            5 
  777000    1.1357311   -4.9839618    521.23075  0.055902054  0.056798735            3 
  778000    1.1477597   -5.0049098    521.03578  0.055809316  0.056788176            4 
  779000    1.1251668   -5.0456373    519.97648  0.055624356  0.056777547            7 
  780000    1.0828254   -4.9977392    523.23838  0.055901536  0.056766833            1 
  781000    1.1315247   -4.9883583    524.18629  0.055931102  0.056756788            3 
  782000    1.1496716   -4.9793421    525.65355  0.056015937  0.056747014            1 
  783000    1.1279272   -4.9635324    525.12495  0.055888138  0.056736973            2 
  784000    1.1137231   -5.0111878      524.361  0.055735651  0.056726513            2 
  785000    1.1522517    -5.019385    524.14777  0.055642014  0.056716375            4 
  786000    1.1082146   -5.0403356    524.83352  0.055643927   0.05670604            2 
  787000    1.1475975   -5.0006208    526.62367  0.055762777  0.056696133            2 
  788000    1.1134466   -4.9995925    527.77575  0.055813848  0.056686642            2 
  789000    1.1244911   -5.0127083    528.64618  0.055835042  0.056676817            4 
  790000    1.1269727   -5.0570099    526.53837  0.055542022  0.056667007            4 
  791000    1.1195229   -5.0212247    527.74105  0.055598509  0.056656903            2 
  792000       1.1195   -5.0231913    528.48518  0.055606606  0.056646749            2 
  793000    1.1020508   -5.0009184    529.92511  0.055687801  0.056636569            4 
  794000    1.1316807   -5.0322878    530.97075  0.055727409  0.056626004            2 
  795000    1.0921436   -4.9992299     530.6786  0.055626688  0.056615735            1 
  796000    1.0931373   -5.0285878    531.08024  0.055598853   0.05660491            3 
  797000    1.1296198   -5.0013146    533.03145  0.055733108   0.05659426            2 
  798000    1.1211639   -5.0244446    528.88586  0.055230353  0.056582582            2 
  799000    1.1220512   -4.9970002    530.16761  0.055294912  0.056570633            3 
  800000      1.11278   -4.9883691    534.37926  0.055664506  0.056558313            3 
  801000    1.1409498   -5.0397557    532.23951    0.0553724  0.056546595            2 
  802000    1.1191909   -5.0380677    532.31533  0.055311236  0.056533937            3 
  803000    1.1389147   -5.0092597    530.94673  0.055100325   0.05652138            3 
  804000     1.140263   -4.9886994    533.11807  0.055256848  0.056508596            3 
  805000    1.1170285   -5.0416513    532.29905  0.055103421  0.056495357            2 
  806000    1.1415144    -5.015836    533.56788  0.055166241  0.056481651            2 
  807000    1.1072131   -5.0145145    531.79885  0.054915206  0.056468196            3 
  808000    1.1472361   -4.9972773    533.07778  0.054979144  0.056454309            4 
  809000    1.0990525   -4.9837621    534.49932  0.055057614  0.056440544            5 
  810000    1.1262108   -5.0089918    535.03528  0.055044782  0.056426179            3 
  811000    1.1142789   -4.9886439    532.36841  0.054702879  0.056412269            2 
  812000    1.1041822   -5.0016975    535.96229   0.05500434  0.056398058            2 
  813000    1.1169261   -5.0018333    535.93483   0.05493387  0.056383434            2 
  814000     1.123128   -5.0057627    535.00737  0.054771434   0.05636873            2 
  815000    1.1443615   -5.0325132     534.8923  0.054692464  0.056353531            3 
  816000    1.1537227   -5.0276493    534.68998  0.054604777  0.056337825            2 
  817000      1.12019   -5.0034237    537.57322  0.054832029  0.056322821            5 
  818000    1.1108839   -5.0020326    538.79499  0.054889465  0.056306964            2 
  819000    1.1279435   -5.0097524    537.48832  0.054689491  0.056291028            2 
  820000    1.1147333    -5.036108    538.51457   0.05472709  0.056274359            4 
  821000    1.1244533   -5.0224307    537.96801  0.054604954  0.056258075            3 
  822000    1.1020432   -5.0606819    535.84549  0.054323346  0.056242444            3 
  823000    1.1160157   -5.0098581     540.1067  0.054688811  0.056226094            2 
  824000    1.1296984   -5.0317988    539.17446  0.054528162  0.056210222            4 
  825000    1.1247347   -5.0206024    541.10157  0.054656724  0.056193983            1 
  826000    1.1253814   -4.9892627    542.09598  0.054690877  0.056178442            3 
  827000    1.1212339   -5.0044184    541.69071  0.054583908  0.056163222            3 
  828000    1.1136849   -4.9991624    546.21789  0.054973621  0.056148478            3 
  829000    1.1401317   -5.0644166    542.76224  0.054559935  0.056133934            2 
  830000    1.0928435    -5.027868    544.55015  0.054673709  0.056118746            4 
  831000    1.1278388   -4.9920297     546.0958  0.054762916  0.056104228            2 
  832000    1.1079426   -5.0412441    545.08207   0.05459556  0.056089884            3 
  833000    1.1184221   -5.0162471    547.98996  0.054820924  0.056075566            2 
  834000    1.1125814   -5.0067644    548.63072  0.054819217  0.056061378            4 
  835000    1.1216924   -5.0561516    546.62296   0.05455319  0.056047332            3 
  836000    1.1267466   -5.0173365    548.69515  0.054694493  0.056032601            2 
  837000    1.1216567   -5.0393709    549.15562  0.054674992  0.056018065            2 
  838000    1.1082413   -5.0457129    547.52688  0.054447781  0.056003245            3 
  839000    1.1303591   -4.9875492    550.39833   0.05466809  0.055989153            2 
  840000    1.1202306   -5.0461167    548.72227  0.054436733   0.05597447            2 
  841000    1.1138236   -4.9925752    551.82281  0.054679232  0.055960301            2 
  842000    1.1113121   -5.0132018     549.8625  0.054420279  0.055945993            3 
  843000    1.1282247   -5.0271745    551.60076  0.054527556  0.055931587            4 
  844000    1.1382215   -5.0696012    550.38893  0.054343299  0.055916843            2 
  845000    1.1239162   -5.0112571    553.86913  0.054622202  0.055902045            5 
  846000    1.1102037   -5.0308732     550.7684  0.054252206  0.055887664            1 
  847000    1.1480163   -5.0178395    553.29552  0.054436788  0.055872899            4 
  848000    1.1190268   -5.0309122    554.86967  0.054527286  0.055858249            4 
  849000    1.1235141   -4.9917779    555.96871  0.054570937  0.055843815            1 
  850000    1.1162439   -5.0434245    553.75341   0.05428955  0.055829538            7 
  851000    1.1186182   -5.0196315    555.02987  0.054350751  0.055814606            2 
  852000    1.1348508   -5.0249191    558.53449  0.054629742  0.055799808            3 
  853000    1.1154453   -5.0280032    557.55133  0.054469649  0.055784998            2 
  854000    1.1177214   -5.0167233    557.62312  0.054412873  0.055770829            3 
  855000    1.1253976   -5.0228711    558.25176  0.054410503  0.055756171            2 
  856000     1.110062   -5.0288137    556.67929  0.054193856  0.055741327            3 
  857000    1.1037024   -5.0288602    557.20179  0.054181427  0.055726139            4 
  858000    1.1236966   -5.0814799    557.59138  0.054156117  0.055711126            3 
  859000    1.0961191   -5.0201203    559.86168  0.054313318  0.055695449            3 
  860000    1.1257152   -5.0281699    558.48314  0.054116584    0.0556806            3 
  861000    1.1377643   -5.0276144      560.829  0.054280778  0.055665017            2 
  862000    1.1048891   -5.0155804    561.51059    0.0542837  0.055649808            1 
  863000    1.1387177   -5.0260182    560.69289  0.054141839  0.055634589            2 
  864000    1.1199338   -5.0429291    560.65334  0.054075361  0.055620392            2 
  865000    1.0990625   -5.0803571    560.48537  0.053996664  0.055605544            5 
  866000    1.1185802    -5.040089    561.44453   0.05402661  0.055590607            2 
  867000    1.1131469   -5.0225153    563.93089  0.054203277  0.055575444            5 
  868000    1.1329712   -5.0155752    563.38832  0.054088741  0.055560235            2 
  869000    1.0982322   -5.0445421    564.51207  0.054134261  0.055545396            1 
  870000    1.0961059   -5.0153404    563.98261  0.054021323  0.055529508            2 
  871000    1.0966918   -5.1180215    561.92348  0.053762292  0.055513036            3 
  872000    1.0997074   -5.0233306    566.86881  0.054173242  0.055496878            2 
  873000    1.1045434    -5.058038    564.42654  0.053878058  0.055480775            3 
  874000    1.1270267   -5.0360243    565.77933  0.053945398  0.055465265            3 
  875000    1.0969416   -4.9966247    568.70877   0.05416274  0.055450086            3 
  876000    1.1034215   -5.0840941    565.28854  0.053775546  0.055433955            2 
  877000     1.117794   -5.0311867    565.99943  0.053781778  0.055417509            3 
  878000    1.1152237   -5.0646539    567.20623  0.053835063  0.055401169            4 
  879000    1.0944017   -5.0102199    567.94944  0.053844278  0.055384977            3 
  880000     1.095758   -5.0271477    569.94894  0.053972437  0.055369211            3 
  881000      1.10661   -5.0429219    567.77175  0.053705235  0.055353873            2 
  882000    1.1141912   -5.0458681    570.75031  0.053925767  0.055337742            4 
  883000    1.1017692   -5.0410048    568.00603  0.053605703  0.055321267            2 
  884000    1.1296314   -5.0157382    569.53855  0.053689531  0.055305357            3 
  885000    1.1215802   -5.0341307    572.14071  0.053873889  0.055289426            2 
  886000    1.1070771   -5.0630793    569.94965  0.053607003  0.055273446            2 
  887000    1.1221083    -4.987604    574.08527  0.053935106  0.055257362            1 
  888000    1.1383137   -5.0073032    574.71799  0.053933745  0.055242047            8 
  889000    1.1162066   -4.9894731    574.59905  0.053861928  0.055226006            2 
  890000    1.1106687    -5.060132    571.64189  0.053524521  0.055210256            2 
  891000    1.1111697   -5.0570691    575.07145  0.053785209  0.055194042            2 
  892000    1.1237144   -5.0299712    574.55309  0.053676485  0.055177679            2 
  893000    1.1253207   -5.0060521    574.35683  0.053598061  0.055161721            5 
  894000    1.0942045   -5.0476735    573.67572   0.05347462  0.055145243            4 
  895000    1.1164784   -5.0443854    577.23493  0.053746269  0.055129204            3 
  896000    1.0962666   -5.0444167    575.87024  0.053559361  0.055113601            4 
  897000    1.1198832   -5.0753371    575.91239  0.053503566  0.055096985            5 
  898000    1.0979131   -5.0309595    576.57595  0.053505563  0.055080725            2 
  899000    1.1180376   -5.0560745    577.81173  0.053560598  0.055064864            3 
  900000     1.094808   -5.0592388     577.3799  0.053461101  0.055048051            1 
  901000    1.1032362   -5.0590772    576.53592  0.053323707   0.05503184            3 
  902000    1.1214115   -5.0314314    579.40517  0.053529672  0.055015807            3 
  903000    1.1106546   -5.0487478     578.9822  0.053431358  0.054999567            2 
  904000    1.1120594   -5.0265176     581.4249  0.053597428  0.054983637            4 
  905000    1.1311344   -5.0591194    580.26922  0.053431788  0.054967183            2 
  906000    1.1011007   -5.0279203    581.36942  0.053474008  0.054950666            3 
  907000     1.116237     -5.05624    581.77452  0.053452271  0.054933944            3 
  908000    1.0822125   -5.0597324     580.3086  0.053258866  0.054917043            4 
  909000    1.1265825   -5.0620845    579.53552  0.053129403  0.054900037            5 
  910000    1.1156575   -5.0470303    583.62822  0.053445808  0.054883444            3 
  911000    1.1082895    -5.049245    582.09504  0.053246893  0.054867078            6 
  912000    1.1285579   -5.0348561    583.48806  0.053315795  0.054850326            5 
  913000    1.1027083   -5.0662192    584.61636  0.053360383  0.054833891            2 
  914000    1.0949595     -5.04077    586.42222  0.053466651  0.054817955            3 
  915000    1.0975505   -5.0632338    584.67277  0.053248886  0.054801883            5 
  916000    1.0921226   -5.0614327    585.57457  0.053272796   0.05478574            3 
  917000    1.1042356   -5.0343738    585.35566  0.053194807  0.054769783            2 
  918000    1.1140861    -5.041359      587.427  0.053324891  0.054754269            2 
  919000    1.0872888   -4.9757705    591.04224   0.05359469  0.054739546            2 
  920000    1.0894485   -5.0484069    589.09821  0.053360345  0.054725038            2 
  921000    1.1028649   -5.0391947     589.9364  0.053378248  0.054708722            3 
  922000     1.104808   -5.0538729    589.04604  0.053239881  0.054693035            9 
  923000    1.0917248   -5.1073135    588.57527  0.053139695   0.05467734            5 
  924000    1.1050381   -5.0565221    591.05263  0.053305613  0.054661541            3 
  925000    1.1060591   -5.0851356    590.72078  0.053218088  0.054646356            4 
  926000    1.1069535   -5.0424688    592.17072  0.053291102  0.054631625            2 
  927000    1.0824794   -5.0562351      593.288  0.053334053  0.054616892            3 
  928000    1.1038205   -5.0392023    594.02369  0.053342644  0.054602092            2 
  929000    1.1089571   -5.0375645    594.86144  0.053360373  0.054587169            2 
  930000    1.0817968   -5.0565274    595.41367  0.053352479  0.054572415            5 
  931000    1.1132562   -5.0342343     596.1829  0.053364026  0.054557632            2 
  932000     1.108379   -5.0543032    594.83385  0.053186146  0.054542834            3 
  933000    1.1111658   -5.0286413    597.58308  0.053374694  0.054527871            3 
  934000     1.063193   -5.0714574    597.11061  0.053275393  0.054513029            1 
  935000    1.1064569   -5.0535978    597.45328  0.053248955  0.054497737            2 
  936000    1.1074327   -5.0666503    598.22693  0.053260945  0.054483016            4 
  937000    1.0835916   -5.0744575    598.85403  0.053259874  0.054468529            2 
  938000    1.1093701   -5.0803565    597.99366  0.053126658  0.054453955            3 
  939000    1.0656595   -5.0516336    599.93195  0.053242097  0.054439467            2 
  940000    1.1059629   -5.0587069    601.35587   0.05331169  0.054425505            2 
  941000    1.0986125   -5.0459064    602.74781  0.053378304  0.054411482            2 
  942000    1.0784085   -5.0338161    604.11117  0.053442248  0.054398218            3 
  943000    1.1025694   -5.0847422    604.25853  0.053398598  0.054383974            3 
  944000    1.1113232   -5.0912919    601.91306  0.053134981  0.054370254            3 
  945000    1.0763585    -5.076153    602.83877  0.053160385  0.054357044            2 
  946000    1.1097321   -5.0820434    604.85928  0.053282178  0.054343308            2 
  947000    1.1266844   -5.0833484    604.53467  0.053197348  0.054329015            4 
  948000    1.1280354   -5.0406736    606.17576  0.053285493  0.054314991            4 
  949000    1.0890077   -5.0487687    608.95044  0.053472993  0.054301348            2 
  950000    1.1117432   -5.0285499     606.6331   0.05321343  0.054287638            2 
  951000    1.0755855   -5.0306195     608.2202  0.053296548  0.054273909            2 
  952000    1.0855331   -5.0630445    607.16172  0.053147909  0.054260156            3 
  953000    1.0818081   -5.0495043    608.44928  0.053204729  0.054246053            4 
  954000    1.0994162   -5.0819995    605.76149  0.052914176  0.054232068            3 
  955000    1.1088488   -5.0675285    609.58109  0.053192067   0.05421821            2 
  956000    1.1332122   -5.0731844    608.11675  0.053008782  0.054204183            3 
  957000     1.111725   -5.0561528    611.74968  0.053269739  0.054190965            5 
  958000    1.1088506   -5.0643429    612.54077  0.053282948  0.054177696            6 
  959000    1.1180979   -5.0969276    607.73659  0.052809923  0.054163599            4 
  960000    1.0834892   -5.0743619    612.81466  0.053195717  0.054150009            3 
  961000    1.1123205   -5.0535625    614.97181   0.05332742  0.054136709            1 
  962000    1.0991928   -5.0463167    613.92939  0.053181686  0.054123253            2 
  963000    1.0985184   -5.0499543    615.08508   0.05322647  0.054109872            3 
  964000    1.1139162   -5.0610572    611.95638  0.052900793  0.054096493            3 
  965000    1.1050312   -5.0155628     615.8968  0.053186252  0.054083298            2 
  966000    1.1034802   -5.0299567    615.82909  0.053125353  0.054070288            1 
  967000    1.0842489   -5.0882705    612.36625  0.052771997  0.054056588            3 
  968000    1.0661025   -5.0592881    616.57669  0.053079949  0.054043211            2 
  969000    1.0701401   -5.0777265    614.15061   0.05281653   0.05402996            3 
  970000    1.0918975   -5.0517728     618.1317  0.053104098  0.054016409            3 
  971000    1.1110425   -5.0456453    618.62046  0.053091354  0.054003337            4 
  972000    1.1001767    -5.110048    616.03789   0.05281532  0.053989261            4 
  973000    1.0839143   -5.0631397    620.42034  0.053136377  0.053975908            2 
  974000    1.0954269   -5.0466237    619.54036  0.053006534  0.053962603            4 
  975000    1.0996688   -5.0724803    618.16101  0.052834275  0.053948873            4 
  976000    1.0843975    -5.114266    619.90975  0.052929452   0.05393563            2 
  977000     1.091265   -5.0844228    620.10106  0.052891595  0.053922247            5 
  978000    1.0795896   -5.0603019    619.93205  0.052823113  0.053908977            6 
  979000    1.1007848   -5.0595048     621.9976  0.052944978  0.053895722            2 
  980000    1.0793078   -5.0416443    620.68297  0.052779164  0.053883204            2 
  981000    1.1298564   -5.0391312    626.94032  0.053256908  0.053870547            3 
  982000    1.1059417   -5.0454638    625.61397  0.053090119  0.053857692            4 
  983000    1.1026085   -5.0758563    623.70801  0.052874535  0.053844841            3 
  984000    1.1121968   -5.0475878    627.60961   0.05315122  0.053832137            2 
  985000    1.0829863   -5.0770497    626.92242  0.053039121   0.05381962            2 
  986000    1.0816886   -5.0235701    626.53333  0.052952445  0.053807198            6 
  987000    1.0743949    -5.086241    628.30079  0.053048024  0.053794555            1 
  988000    1.1121744   -5.0465397    629.14719  0.053065721  0.053782334            3 
  989000    1.0948405   -5.1122351    625.58234   0.05271169  0.053769094            2 
  990000    1.0733985   -5.0786004    627.80949  0.052845917  0.053755875            3 
  991000    1.0985545   -5.0540976     630.8531  0.053048528  0.053742986            1 
  992000    1.0955665    -5.066284     627.7187  0.052731745  0.053730128            3 
  993000    1.0786067   -5.0950288    630.27475  0.052893148  0.053717377            3 
  994000    1.0953879   -5.0955565    630.01111  0.052817833  0.053704765            3 
  995000     1.072306   -5.0635401    632.34356  0.052960097  0.053692438            3 
  996000    1.0717183   -5.0834536    631.46864  0.052833721  0.053679977            3 
  997000    1.0934173   -5.0475799    632.84062  0.052895405  0.053667344            5 
  998000    1.0898978   -5.0589197    632.31243  0.052798299  0.053653956            2 
  999000    1.1011232   -5.0450236    632.82268  0.052788012  0.053640485            3 
 1000000    1.0830392   -5.0788428    632.36101  0.052696751  0.053627242            2 
 1001000    1.1004913   -5.0614288    633.47216   0.05273661   0.05361476            2 
 1002000    1.0982502   -5.0484501    632.43072  0.052597366  0.053601769            2 
 1003000    1.0940256   -5.1026939    632.20091  0.052525832  0.053588302            4 
 1004000    1.1005406   -5.0434161    635.01572  0.052707148   0.05357528            2 
 1005000    1.1013791    -5.075812     635.2967  0.052678002   0.05356237            3 
 1006000    1.0908635   -5.0758032    636.42169  0.052718828  0.053549199            2 
 1007000    1.0649765   -5.1074488    636.57524  0.052679183  0.053536539            3 
 1008000    1.1067104   -5.0887958    637.96839  0.052742096  0.053523899            3 
 1009000    1.1128244    -5.051743    640.53356  0.052901681  0.053511987            3 
 1010000    1.0946629   -5.0970011    638.09978  0.052648497  0.053499012            5 
 1011000    1.1014061   -5.0742465    638.97633  0.052668672  0.053486381            2 
 1012000    1.0827112   -5.0518482    639.03884  0.052621776  0.053474083            4 
 1013000    1.1033622   -5.0902146     637.6427  0.052454977  0.053461577            3 
 1014000    1.0796112   -5.0980658    641.18958  0.052694739  0.053449214            4 
 1015000    1.0690677     -5.05883    642.15056   0.05272172  0.053437201            2 
 1016000     1.099311    -5.098011    641.69579  0.052632529  0.053425632            3 
 1017000    1.0963553   -5.0955742    641.38666  0.052555446  0.053413331            3 
 1018000    1.0782397   -5.1126631    641.91926  0.052547418  0.053400758            2 
 1019000    1.1029934   -5.0643268    644.76208  0.052728335   0.05338893            3 
 1020000    1.0805596   -5.0859127    643.87713  0.052604341  0.053376829            2 
 1021000    1.1275156   -5.0647818    644.64847  0.052615775  0.053364825            2 
 1022000    1.1349782   -5.0533894     645.5192   0.05263529  0.053352928            4 
 1023000    1.0808447   -5.0976069    646.47664  0.052661831  0.053341199            1 
 1024000    1.1054775   -5.0892007    647.58104   0.05270028  0.053329619            4 
 1025000    1.1086734   -5.1110285    648.26377  0.052704372  0.053318059            5 
 1026000    1.0780537   -5.0851999    649.61854  0.052763039  0.053307131            9 
 1027000     1.095309   -5.0857203    649.17169  0.052675405  0.053296114            7 
 1028000    1.0765891   -5.0713338    648.49769  0.052569527  0.053284563            4 
 1029000    1.0872493   -5.0967285     652.2502  0.052822336  0.053273148            2 
 1030000    1.0922769   -5.0965073    650.58527  0.052636349  0.053261527            2 
 1031000    1.0790577    -5.048751    652.98928  0.052779606   0.05324985            1 
 1032000    1.0996855   -5.0863027    653.28944  0.052752701  0.053238243            5 
 1033000    1.0996855   -5.1032556    652.96819  0.052675717  0.053226899            3 
 1034000    1.0737124   -5.1132948    650.41031  0.052418626  0.053215185            2 
 1035000    1.0824002   -5.0675299    652.98733  0.052575469  0.053204067            3 
 1036000    1.0969489   -5.0851172    651.62819  0.052415395  0.053192857            3 
 1037000    1.0912206   -5.0972504    654.88226  0.052626347  0.053181481            3 
 1038000    1.1064445   -5.0858959    654.30508   0.05252931  0.053170158            2 
 1039000    1.0581562    -5.106741     655.4725  0.052572385  0.053158552            2 
 1040000    1.0787573   -5.0934179    653.12494  0.052333729   0.05314709            5 
 1041000    1.0845128   -5.0855857    655.46254  0.052470585  0.053135544            5 
 1042000    1.0880939   -5.0706842    656.88325  0.052533849  0.053124493            7 
 1043000     1.090964   -5.0866685    656.80668  0.052477364  0.053113311            8 
 1044000    1.0790213   -5.0974226    655.88064   0.05235318  0.053101838            7 
 1045000    1.0953904   -5.0939048    658.39172  0.052503327  0.053090395            4 
 1046000    1.0883494   -5.1371573    657.59817  0.052389912  0.053078692            3 
 1047000    1.0932738   -5.0685396    660.97624  0.052608742  0.053067089            3 
 1048000    1.0914138   -5.1020047    657.93944  0.052317068  0.053055382            3 
 1049000    1.0861754   -5.1239535    657.89331   0.05226353  0.053043642            3 
 1050000    1.0691409   -5.0882871    660.46779  0.052418079  0.053032197            4 
 1051000    1.0696732   -5.0633861      662.631  0.052539724  0.053020743            2 
 1052000    1.1024746   -5.1118241    661.23547  0.052379235  0.053008788            2 
 1053000    1.0671805   -5.0715416    661.51547  0.052351651  0.052997027            2 
 1054000    1.0768698   -5.0687071    661.96762  0.052337731  0.052984868            2 
 1055000    1.1007125    -5.059177    664.75629  0.052508396  0.052972919            2 
 1056000    1.0588076    -5.098138    662.82742  0.052306457  0.052961014            3 
 1057000    1.0978855   -5.1000961    663.89067  0.052340797  0.052948824            2 
 1058000    1.1137735   -5.0779871    663.59819  0.052268288  0.052936357            2 
 1059000    1.0980984   -5.0791748    663.32988  0.052197818  0.052924279            2 
 1060000    1.0755158   -5.1019147    661.96399  0.052041194   0.05291147            3 
 1061000    1.1087149   -5.0746137    665.03108  0.052233041  0.052898954            2 
 1062000    1.0623085   -5.0747873    666.70463  0.052315178  0.052886715            2 
 1063000    1.0760733   -5.0911972     665.3091  0.052156562   0.05287434            3 
 1064000    1.0777262   -5.0879549    663.89094  0.051996471  0.052862058            2 
 1065000    1.0699291   -5.0600963    665.32758  0.052060061   0.05284973            2 
 1066000    1.0970308   -5.0967821     666.0898   0.05207081  0.052837042            2 
 1067000    1.0882105   -5.0792089    667.92517  0.052165352  0.052824484            2 
 1068000    1.0623021   -5.0423357    667.08031  0.052050586  0.052812247            2 
 1069000     1.066603   -5.1030969    668.75728  0.052132622  0.052800316            3 
 1070000    1.0913428   -5.1056375    668.09719  0.052032492  0.052788245            4 
 1071000     1.083496   -5.0803019    670.19897  0.052147446  0.052776486            3 
 1072000    1.0937493   -5.1159619    668.92617  0.051999858  0.052764844            2 
 1073000    1.0932502   -5.0685522    672.56304  0.052233849  0.052753337            4 
 1074000    1.0952177   -5.1041109    671.52435   0.05210462  0.052742013            2 
 1075000    1.0836339   -5.1090338    673.94299  0.052243643  0.052730897            2 
 1076000      1.07889   -5.0738429    676.08667  0.052361111  0.052719682            5 
 1077000    1.0922036   -5.1126921    673.98414   0.05214981  0.052708568            2 
 1078000    1.0799159   -5.1116305    673.08044  0.052031574   0.05269744            3 
 1079000    1.0738188   -5.1036424    674.46703  0.052090441  0.052686424            4 
 1080000    1.0816231   -5.1106721    677.28223  0.052259431  0.052675418            1 
 1081000    1.0711057   -5.0912596    676.37669  0.052141281  0.052664697            3 
 1082000    1.0924952   -5.0743983    677.36331  0.052169078  0.052654044            7 
 1083000    1.0545007   -5.1089025     674.1479  0.051873492  0.052643076            6 
 1084000     1.090547   -5.1309769    675.92559    0.0519623  0.052631916            3 
 1085000    1.0888841   -5.0637832    678.17985  0.052087546  0.052620699            2 
 1086000    1.0649111   -5.0988765    678.21571  0.052042335  0.052609467            2 
 1087000    1.0915254   -5.1064307    677.54885  0.051943334  0.052598066            3 
 1088000     1.090384   -5.0789153    681.30681  0.052183426  0.052586913            6 
 1089000    1.0768581   -5.1298098    678.43925  0.051916074  0.052575204            2 
 1090000    1.0673452   -5.1044446    680.30269  0.052010909  0.052563763            3 
 1091000    1.0668347   -5.0917822    681.67932  0.052068387  0.052552279            3 
 1092000    1.0817263   -5.0531482    682.06725  0.052050309  0.052540866            3 
 1093000    1.0822562   -5.1092672    680.40569  0.051876006  0.052529167            3 
 1094000    1.0983807   -5.0972467    680.50402  0.051836077  0.052517502            4 
 1095000    1.0898368   -5.1124032    678.74291  0.051654711  0.052505898            2 
 1096000    1.0458034   -5.0963457    682.25656  0.051874738  0.052494179            2 
 1097000    1.0720347    -5.109181     681.1596   0.05174412  0.052482533            3 
 1098000    1.0823758   -5.1053989    682.78707  0.051820512  0.052470608            4 
 1099000    1.1011481   -5.1166442    683.29944  0.051812211  0.052458606            3 
 1100000    1.0473765   -5.1134651    681.68251  0.051642614  0.052446387            5 
 1101000    1.0535617   -5.1395225    682.46643  0.051655043  0.052434106            3 
 1102000    1.0673121   -5.0898977    685.69927  0.051852637  0.052421583            5 
 1103000    1.0776419    -5.104314     686.3556  0.051855213  0.052409735            2 
 1104000    1.0860139   -5.0899663     685.3661  0.051733552  0.052397939            3 
 1105000    1.0586453   -5.0726224    686.39035  0.051763978  0.052385747            3 
 1106000    1.1041575   -5.1361976    686.20551  0.051703248  0.052373671            5 
 1107000    1.0753723   -5.1237864    686.26312  0.051660879   0.05236124            2 
 1108000    1.0471772   -5.0831166     688.2435  0.051763199  0.052349336            4 
 1109000    1.0663464   -5.0919434    687.68652  0.051674671  0.052337334            4 
 1110000    1.0764624   -5.1291204    686.10839  0.051509639  0.052325691            2 
 1111000    1.0673492   -5.1143335    689.20247  0.051695355  0.052314054            1 
 1112000    1.0756604    -5.142734    687.18096  0.051497374  0.052302197            4 
 1113000    1.0680634   -5.0797077    689.56027  0.051629251  0.052290514            2 
 1114000    1.0678113   -5.0945055    690.51836  0.051654575  0.052278111            2 
 1115000    1.0744053   -5.1188974      689.349  0.051520852  0.052265902            3 
 1116000    1.0693869   -5.1201832    690.42289  0.051554876   0.05225379            3 
 1117000    1.0510197   -5.1311599    689.89026  0.051468984  0.052241811            6 
 1118000    1.0828087   -5.0871695    691.95869  0.051577124  0.052229581            3 
 1119000    1.0589956   -5.0910123    692.90486  0.051601494  0.052217388            3 
 1120000    1.0317698   -5.1116155    691.36097  0.051440549  0.052205242            4 
 1121000    1.0656433   -5.0822743    694.83709  0.051653069  0.052193217            1 
 1122000    1.0557793   -5.1341915    691.79058  0.051380762  0.052181637            2 
 1123000    1.0980971   -5.1463852    692.95783  0.051421626   0.05216969            2 
 1124000    1.0743546   -5.1618026    692.93467   0.05137416  0.052157846            2 
 1125000    1.0814186   -5.0929095    697.67898  0.051679924  0.052146209            2 
 1126000      1.08418   -5.1233833    695.39001  0.051464625  0.052134017            3 
 1127000    1.0740105   -5.1036661     698.0143  0.051613006  0.052121884            3 
 1128000    1.0604937   -5.1222273    697.14487  0.051503019   0.05211038            4 
 1129000    1.0614719   -5.1465253    695.13767  0.051309247  0.052098521            5 
 1130000     1.066445   -5.1312293    697.00156  0.051401295  0.052085989            2 
 1131000    1.0673217   -5.1225884    697.05662  0.051359904  0.052073445            2 
 1132000    1.1034685   -5.1268064     695.7947  0.051221636  0.052060795            4 
 1133000    1.0962809   -5.1689892    697.98925  0.051337838  0.052048412            2 
 1134000    1.0845453   -5.0951566    695.78234   0.05113039  0.052035619            2 
 1135000    1.0851808   -5.1176146    695.92011  0.051095456  0.052022827            3 
 1136000    1.0816518    -5.158358    695.92286  0.051050679  0.052009301            2 
 1137000    1.0599373   -5.0830598    698.53747  0.051197411  0.051996051            4 
 1138000    1.0627702   -5.0924615     700.8221   0.05131972   0.05198308            5 
 1139000     1.070065   -5.1284958    700.08617   0.05122082  0.051970357            2 
 1140000    1.0536849   -5.1355915     700.6512  0.051217193  0.051957148            4 
 1141000    1.0787381   -5.1278712    703.01825  0.051345183  0.051944079            3 
 1142000    1.0535449   -5.1341609    696.76016  0.050843561  0.051931207            6 
 1143000     1.098709   -5.1021054    699.98007  0.051033835  0.051917779            2 
 1144000     1.069984    -5.090949     702.3292  0.051160344  0.051904481            2 
 1145000    1.0680443   -5.1223882    700.31031  0.050968727  0.051891101            2 
 1146000    1.0692875   -5.1029313    701.63848  0.051020832  0.051877826            2 
 1147000    1.0450789   -5.0779269     701.6143  0.050974593   0.05186481            4 
 1148000    1.0377849   -5.1326834    698.98879  0.050739605  0.051851475            3 
 1149000    1.0473776   -5.1195795    704.86998  0.051121988  0.051837519            4 
 1150000    1.0501189   -5.0962424    704.42249  0.051045108  0.051824324            3 
 1151000     1.062796   -5.1687087    702.37127   0.05085225  0.051810785            2 
 1152000    1.0677219   -5.0940588    705.42142  0.051028749   0.05179731            2 
 1153000    1.0809768   -5.0605905    708.48947  0.051206235  0.051784649            3 
 1154000    1.0519406   -5.1512164    703.76022  0.050820351  0.051771523            2 
 1155000    1.0538551   -5.1162897    708.35883   0.05110814  0.051758614            2 
 1156000     1.086706   -5.1585851    705.66428  0.050869686  0.051745823            3 
 1157000    1.0672573   -5.1364458    703.28084  0.050654051  0.051732985            2 
 1158000    1.0768544   -5.1332819    708.74279  0.051003367  0.051719955            2 
 1159000    1.0665483    -5.106942    710.76101  0.051104473  0.051707361            3 
 1160000    1.0670478    -5.118587     709.4865  0.050968858  0.051695172            2 
 1161000    1.0649579   -5.1872498    706.78072  0.050730743   0.05168258            1 
 1162000    1.0587562   -5.1129473    711.49717  0.051025327  0.051670146            4 
 1163000    1.0582299   -5.1565738    709.32872  0.050826076  0.051657722            4 
 1164000    1.0813395   -5.1140091    713.39895  0.051073808  0.051645631            4 
 1165000    1.0661192   -5.1127182    712.72761  0.050981947  0.051633344            3 
 1166000     1.078689   -5.1509209    711.81319   0.05087287  0.051620983            4 
 1167000    1.0778544   -5.1484572    713.66702  0.050961656  0.051608534            3 
 1168000    1.0885934    -5.104661    714.89811  0.051005858  0.051596144            4 
 1169000    1.0586913   -5.0985676     716.8011  0.051097883  0.051584016            7 
 1170000    1.0618259    -5.139915     714.3281   0.05087807  0.051571681            5 
 1171000     1.045429   -5.1422593    714.08528  0.050817341  0.051559353            2 
 1172000    1.0677176   -5.1565171    712.24893  0.050643411   0.05154714            3 
 1173000    1.0583284    -5.153367    715.42086   0.05082558  0.051534495            3 
 1174000    1.0631368   -5.1309477    713.96699  0.050679088  0.051522047            2 
 1175000    1.0633506   -5.1273062     716.4553  0.050812432  0.051509734            3 
 1176000    1.0775619   -5.1085152    719.91259  0.051014214  0.051497337            1 
 1177000    1.0768589   -5.1273993    716.54302  0.050732301  0.051485184            3 
 1178000    1.0633543   -5.1409652     717.3897   0.05074913  0.051473176            1 
 1179000    1.0742956   -5.1247542    718.23067  0.050765526  0.051461273            6 
 1180000    1.0722943   -5.1246628    721.91931  0.050983002  0.051449385            7 
 1181000     1.073954   -5.1018633    720.06753  0.050809168  0.051437452            2 
 1182000     1.097868   -5.1354292    723.83209  0.051031591  0.051425729            3 
 1183000     1.049596   -5.1627125    718.84185  0.050636929  0.051413545            2 
 1184000    1.0715785     -5.13608    723.05904   0.05089098  0.051401699            3 
 1185000    1.0639681   -5.1544826    718.82457  0.050550251   0.05138953            3 
 1186000    1.0586244   -5.1815125    719.99502  0.050589869  0.051377368            2 
 1187000    1.0679292   -5.1031755    726.52565  0.051005732  0.051365543            5 
 1188000     1.064952   -5.1468865    722.73816  0.050697121  0.051353685            1 
 1189000    1.0804914   -5.1423058    725.73738  0.050864689  0.051341611            6 
 1190000    1.0454305   -5.1300144    724.01322  0.050701206  0.051330186            4 
 1191000    1.0635085   -5.1501416     724.7671  0.050711384   0.05131861            5 
 1192000     1.080517   -5.1377566      726.716   0.05080509   0.05130675            2 
 1193000    1.0331429   -5.1350732    726.42219   0.05074198  0.051295068            4 
 1194000    1.0680256   -5.1285636    727.54649  0.050777952  0.051283713            3 
 1195000    1.0733632   -5.1424913    726.38116  0.050654196  0.051272156            6 
 1196000    1.0599673   -5.1474208    729.07707  0.050799685  0.051260598            2 
 1197000    1.0553918   -5.1540412    729.23334  0.050768125  0.051249051            2 
 1198000    1.0422561   -5.1760879    728.62659  0.050683541  0.051237511            2 
 1199000    1.0416164   -5.1440299    729.29531  0.050687747  0.051226296            3 
 1200000    1.0367694   -5.1516548    729.89672  0.050687272  0.051214827            2 
 1201000    1.0680505   -5.1536764    731.00268  0.050721807  0.051203483            3 
 1202000    1.0791336   -5.1117405    733.31205  0.050839715  0.051192145            2 
 1203000    1.0521466    -5.126884    731.05993  0.050641447  0.051180727            2 
 1204000    1.0537878   -5.1480194    732.57119  0.050703986    0.0511691            3 
 1205000    1.0587508   -5.1484233    731.49513  0.050587491  0.051157732            2 
 1206000    1.0352169   -5.1213102    733.83224  0.050707037   0.05114666            2 
 1207000    1.0521779   -5.1348469    734.03764  0.050679207  0.051135744            2 
 1208000     1.040626   -5.1603971    733.62152  0.050608548  0.051124583            3 
 1209000    1.0852265   -5.1370519    735.58622   0.05070211  0.051113237            3 
 1210000    1.0435559   -5.1416148     736.4651  0.050720737  0.051101733            3 
 1211000    1.0519164   -5.1239973    736.72612  0.050696815  0.051090738            4 
 1212000    1.0448616   -5.1616249    733.51821  0.050434421  0.051079302            2 
 1213000    1.0337465   -5.1368447    738.88484  0.050761531  0.051068153            2 
 1214000    1.0763447   -5.1768975    736.41479  0.050550164  0.051057111            3 
 1215000    1.0444417   -5.1553307    735.96628  0.050477797  0.051046082            2 
 1216000    1.0161319   -5.1289172    737.75556  0.050558906   0.05103453            4 
 1217000    1.0644701   -5.1639931    736.88684  0.050457877  0.051022863            2 
 1218000     1.066322   -5.1515131     740.0054  0.050629817  0.051011385            2 
 1219000    1.0720436   -5.1695267    738.14553  0.050461138  0.051000105            4 
 1220000    1.0708441    -5.158483    737.62817  0.050384438  0.050988503            1 
 1221000    1.0623102   -5.1484816    739.21068  0.050451179  0.050977063           12 
 1222000    1.0447024   -5.1567704    737.99868  0.050327242  0.050965356            2 
 1223000    1.0675763   -5.1708343    739.96749  0.050420244  0.050953659            2 
 1224000    1.0578195   -5.1013879    743.43093  0.050614851  0.050942167            3 
 1225000    1.0525817   -5.1515253    740.99916  0.050408106  0.050930759            5 
 1226000     1.075223   -5.1799426     744.4644  0.050602529  0.050919456            4 
 1227000    1.0649528   -5.1484741    743.68679  0.050508475  0.050908077            3 
 1228000    1.0857918   -5.1410128    746.10697   0.05063158  0.050896854            3 
 1229000    1.0536764   -5.1447238    743.99775  0.050447366  0.050885842            4 
 1230000    1.0499487    -5.147263    743.92666  0.050401535  0.050874074            6 
 1231000    1.0321057   -5.1609279    744.16779  0.050376915   0.05086211            3 
 1232000    1.0623134   -5.1291942    744.40428  0.050352021  0.050850719            3 
 1233000    1.0394943   -5.1317516    746.68984  0.050465656  0.050839554            3 
 1234000    1.0442931   -5.1739466    745.36195  0.050335086  0.050828056            4 
 1235000    1.0501934   -5.1788306    743.38094  0.050160657  0.050816743            5 
 1236000     1.050586   -5.1970356    746.99252  0.050363574  0.050804979            5 
 1237000    1.0421797   -5.1921962    746.53492  0.050292032  0.050793642            6 
 1238000    1.0477563   -5.1232656    747.55171  0.050319851  0.050782056            4 
 1239000    1.0543747   -5.1865451    747.76732   0.05029374  0.050770764            3 
 1240000    1.0535888   -5.1659673    750.64711  0.050446715  0.050759416            2 
 1241000    1.0601586   -5.1534132    748.05528  0.050232023  0.050748223            2 
 1242000    1.0512576   -5.1308196     752.2114  0.050470437  0.050737093            3 
 1243000    1.0659784   -5.1751294    750.22071  0.050296374  0.050726056           11 
 1244000    1.0490598   -5.1630853    752.94046  0.050438134  0.050715031           10 
 1245000    1.0660494   -5.1375486    755.38163  0.050561019  0.050704286            2 
 1246000    1.0647774   -5.1986726    750.78088  0.050212739  0.050693454            2 
 1247000    1.0351909   -5.1864719    752.07091  0.050258682  0.050682673            2 
 1248000    1.0331785   -5.1311145    753.11296  0.050287991  0.050671658            7 
 1249000    1.0599415   -5.1915838    753.43702   0.05026935  0.050660933            3 
 1250000    1.0647566   -5.1882002    753.55795  0.050237196  0.050650398            3 
 1251000    1.0414913   -5.1351876    758.88598  0.050551957  0.050639528            4 
 1252000     1.065427   -5.1478577    755.53977  0.050288856  0.050629002            4 
 1253000    1.0517993   -5.1574478    757.12501   0.05035415  0.050618804            4 
 1254000    1.0678539    -5.160581    757.41271  0.050333115  0.050608124            5 
 1255000    1.0461448   -5.1806742    759.06919  0.050403001  0.050597634            3 
 1256000    1.0405865   -5.1303722    762.00095  0.050557388  0.050587361            4 
 1257000    1.0524043   -5.1934682    759.51601  0.050352427  0.050577367            2 
 1258000    1.0380336   -5.1632189    760.07027  0.050349117  0.050567352            2 
 1259000    1.0404425   -5.1643595    762.93272  0.050498591   0.05055732            3 
 1260000    1.0295367   -5.1365302    763.06252  0.050467098  0.050547308            2 
 1261000    1.0531732   -5.1782255    759.02222  0.050160073  0.050537265            2 
 1262000    1.0711081   -5.1379088    764.02367  0.050450586  0.050527313            4 
 1263000    1.0578847   -5.1724535    763.44121   0.05037221  0.050517248            2 
 1264000    1.0652576   -5.1479822    763.69835  0.050349311  0.050507429            4 
 1265000    1.0478085   -5.1400006    763.35808  0.050287094  0.050497826            2 
 1266000    1.0579718   -5.1571646    762.71545  0.050205072  0.050487562            6 
 1267000     1.035836   -5.1489755    763.08893  0.050190011  0.050477498            3 
 1268000    1.0519134   -5.1821084    763.21332  0.050158604  0.050467243            3 
 1269000    1.0609965   -5.1620297    765.40859  0.050263238  0.050457108            4 
 1270000    1.0522224   -5.1754748    764.79503  0.050183401  0.050447254            4 
 1271000    1.0474132   -5.1584526    767.61384  0.050328733   0.05043747            3 
 1272000    1.0343172   -5.1665846    768.01042  0.050315148  0.050427207            3 
 1273000    1.0323462   -5.1685186    767.47734  0.050240726  0.050417242            3 
 1274000    1.0497852   -5.1767468    767.12418   0.05017819  0.050407011            4 
 1275000    1.0553521   -5.1539843    768.79497  0.050248037  0.050396398            3 
 1276000    1.0301512   -5.1829645    767.66094  0.050134596  0.050386384            2 
 1277000    1.0531021   -5.1339134    772.59504  0.050417322   0.05037628            2 
 1278000    1.0659127   -5.1914163    768.25581  0.050094928  0.050366001            1 
 1279000    1.0534347   -5.1746846     766.9142  0.049968348  0.050355481            5 
 1280000    1.0354555   -5.1468254    770.28205  0.050148571   0.05034529            6 
 1281000    1.0428003   -5.1662598    771.04806  0.050159255  0.050334729            8 
 1282000    1.0302059   -5.1322323    769.99645  0.050051771  0.050324491            5 
 1283000    1.0291119   -5.1432569    771.66038  0.050120835  0.050314013            6 
 1284000    1.0408475   -5.1645548    771.56124  0.050075366  0.050303714            7 
 1285000    1.0332013   -5.1517413    768.71621  0.049851894  0.050293023            5 
 1286000    1.0691037   -5.1785478    773.36886  0.050114623  0.050282451            2 
 1287000    1.0575966   -5.1812728    772.26105  0.050003953  0.050271991            2 
 1288000    1.0449892   -5.1935685    770.01057  0.049819524  0.050261722            4 
 1289000    1.0371507   -5.1876347    774.48096  0.050069883  0.050251485            2 
 1290000    1.0380934   -5.1576483    775.26814  0.050081921  0.050241479            3 
 1291000    1.0528741   -5.1605056    776.11357    0.0500977  0.050231349            2 
 1292000     1.046261   -5.1620729    774.70558   0.04996811  0.050221507            5 
 1293000    1.0897171   -5.1793735    776.97286   0.05007559  0.050211651            4 
 1294000    1.0361864    -5.150862    778.71022  0.050148778  0.050201733            2 
 1295000    1.0481373    -5.184395    777.03608  0.050002322  0.050191889            2 
 1296000    1.0359655   -5.1924233    776.48036  0.049928006  0.050182088            3 
 1297000    1.0286967   -5.1624982    775.96441  0.049856361  0.050171971            3 
 1298000    1.0443051   -5.1515446    780.90142  0.050134914   0.05016182            1 
 1299000    1.0560311   -5.1643401    779.30841  0.049994124   0.05015206            2 
 1300000    1.0791996   -5.1793791    778.40533  0.049897777  0.050141997            2 
 1301000    1.0672634   -5.1875202    781.01407  0.050026522  0.050131954            4 
 1302000    1.0496034   -5.2202388    777.22733  0.049745733  0.050121769            3 
 1303000    1.0423077   -5.2024961    779.18648  0.049832852  0.050111652            2 
 1304000    1.0421496   -5.1939037    781.43333  0.049938224  0.050101425            5 
 1305000    1.0365844   -5.1710341    780.29926  0.049827539  0.050091751            2 
 1306000     1.056644   -5.1546146    782.44787  0.049926484  0.050081806            3 
 1307000    1.0467563   -5.1723196    783.23583  0.049938525  0.050071892            2 
 1308000    1.0301312    -5.201398    783.80306  0.049936485  0.050062061            5 
 1309000    1.0345064   -5.2034399    782.23108  0.049798261  0.050052112            2 
 1310000    1.0294276   -5.1734351    784.53636  0.049906893  0.050042238            2 
 1311000    1.0532661   -5.1827325    784.00025  0.049834748  0.050032128            4 
 1312000     1.032694   -5.1889573    783.20127  0.049746016   0.05002198            1 
 1313000    1.0390849   -5.1805668    784.20902  0.049772088  0.050012043            5 
 1314000    1.0528139   -5.1661623    787.18627  0.049923026  0.050002064            2 
 1315000    1.0556855   -5.1904603    784.75419  0.049730937  0.049991809            4 
 1316000    1.0563893     -5.18021    784.69953  0.049689687  0.049981804            4 
 1317000    1.0605279   -5.1298251     791.0448  0.050053455  0.049971901            4 
 1318000    1.0107475   -5.1553652    788.44909  0.049851359  0.049961815            3 
 1319000    1.0261953   -5.1715254    788.52008  0.049818049    0.0499517            4 
 1320000    1.0257909   -5.1784075    784.75651  0.049542709   0.04994156            4 
 1321000    1.0264385   -5.1537809    790.60625  0.049874227  0.049931539            3 
 1322000    1.0325223   -5.2140635    785.91482  0.049540773  0.049921384            4 
 1323000    1.0516254   -5.1976861     789.4676   0.04972711  0.049911054            6 
 1324000     1.019937   -5.1683557    788.47849  0.049627296  0.049900512            4 
 1325000    1.0108073   -5.1620719    791.07935  0.049753418  0.049889953            3 
 1326000    1.0407318   -5.1532061    789.83767  0.049637863  0.049879383            1 
 1327000    1.0320877   -5.1655255    788.24484  0.049500429  0.049868828            4 
 1328000    1.0497742    -5.166898     790.4976  0.049604518  0.049858022            4 
 1329000    1.0380502   -5.1700495    790.37839  0.049559719  0.049847524            3 
 1330000    1.0443828   -5.1806926    792.18884  0.049635892  0.049836853            2 
 1331000    1.0214953   -5.1769382     794.2982  0.049730666  0.049826367            9 
 1332000    1.0224014   -5.1828285     792.2559  0.049565559  0.049816291            2 
 1333000    1.0496914   -5.1958507    791.61989  0.049488616  0.049805912            4 
 1334000    1.0379875   -5.1842414    792.77297  0.049523549  0.049795423            3 
 1335000    1.0460935   -5.1903728    790.10869  0.049320143   0.04978473            4 
 1336000    1.0414858   -5.1804681     792.1573  0.049411009  0.049774072            2 
 1337000    1.0366744   -5.1333601    797.48948    0.0497064   0.04976388            4 
 1338000    1.0549226   -5.1607177    796.79312  0.049625879  0.049753599            2 
 1339000    1.0339843   -5.1484059     796.3686  0.049562397  0.049743347            4 
 1340000    1.0472419   -5.1685449    794.79147   0.04942733  0.049733168            3 
 1341000    1.0304487   -5.1780884    794.74091   0.04938733  0.049722664            3 
 1342000    1.0434588   -5.1555952     801.1832  0.049750571  0.049712604            3 
 1343000    1.0525955   -5.1483827    796.28207  0.049409411  0.049702574            4 
 1344000    1.0346414   -5.1957442    795.20791  0.049306046  0.049692147            4 
 1345000    1.0108267   -5.1751906    799.08052  0.049509326  0.049681637            6 
 1346000    1.0328263   -5.1614621    799.68791  0.049510148  0.049671501            4 
 1347000    1.0223769   -5.2052405      799.399  0.049455518  0.049661203            8 
 1348000    1.0262311   -5.1679811    800.05139  0.049459161  0.049650581            3 
 1349000    1.0086001   -5.2144772    799.03389  0.049359642  0.049640056            2 
 1350000    1.0304449   -5.1904292     797.1999   0.04920987  0.049629389            3 
 1351000    1.0386631   -5.2049942    800.21845  0.049359638  0.049618848            6 
 1352000    1.0159404   -5.1935193    802.20193  0.049445386  0.049608212            4 
 1353000    1.0248547   -5.1895253    801.51958  0.049366813   0.04959765            2 
 1354000    1.0232807   -5.1469354    804.57842  0.049518612  0.049586995            4 
 1355000    1.0184397   -5.1725921     804.2698  0.049463087  0.049576627            2 
 1356000    1.0569499   -5.1566484    804.19516  0.049422023  0.049566251            2 
 1357000    1.0532646   -5.1761922     803.0927  0.049317901  0.049555905            6 
 1358000    1.0425855   -5.1994851      805.072  0.049403044  0.049545592           10 
 1359000    1.0318295   -5.1811893    805.70749  0.049405659  0.049535442            5 
 1360000    1.0038698   -5.1886451    805.84687  0.049377872  0.049525106            3 
 1361000    1.0176321   -5.1989034    807.54556  0.049445601  0.049515103            2 
 1362000    1.0469102   -5.1997362    805.08965  0.049259034  0.049505067            2 
 1363000    1.0188157   -5.1899619    806.14867  0.049287642  0.049494726            2 
 1364000     1.035851   -5.2004306    806.89543   0.04929713  0.049484484            4 
 1365000    1.0082991   -5.1842272    809.07105  0.049393837  0.049474198            4 
 1366000    1.0469916   -5.1837017    807.51548  0.049262779  0.049463782            4 
 1367000    1.0576621   -5.2195744    809.09426  0.049322986  0.049453426            3 
 1368000     1.026946   -5.1822115    808.42945  0.049246433  0.049443234            5 
 1369000    1.0302701   -5.2086629    808.78571  0.049232147  0.049432883            3 
 1370000    1.0441399   -5.2106817    809.16921  0.049219538  0.049422669            4 
 1371000    1.0493362   -5.1844531     807.6283  0.049089977  0.049412589            3 
 1372000    1.0351612   -5.1611044    811.10663  0.049265466  0.049402338            4 
 1373000    1.0658342   -5.1925399    809.73619  0.049146406  0.049392528            3 
 1374000    1.0379857   -5.1869945    810.44317  0.049153516  0.049382198            3 
 1375000    1.0179005   -5.1874085    811.98858  0.049211429  0.049372023            5 
 1376000    1.0230362   -5.1767828    812.69974  0.049218734  0.049361312            3 
 1377000    1.0267457    -5.210068    810.93885  0.049076425  0.049350647            2 
 1378000    1.0344973   -5.1658402    812.61671  0.049142278  0.049340145            2 
 1379000    1.0140042   -5.1824543    812.67656  0.049110259  0.049330023            3 
 1380000    1.0397585   -5.2118906    811.74762  0.049018576    0.0493196            2 
 1381000    1.0472015   -5.1998836    813.25995  0.049074339  0.049309023            3 
 1382000    1.0262655   -5.2155385    812.19188  0.048974426  0.049298289            3 
 1383000     1.032389   -5.2098354    812.34901  0.048948482  0.049287785            4 
 1384000    1.0087468   -5.2366437    813.54409  0.048985073  0.049276803            3 
 1385000    1.0183784   -5.1742594    815.31733  0.049056398  0.049265972            2 
 1386000     1.025903   -5.1982985     813.5823  0.048916685  0.049255189            3 
 1387000    1.0223719   -5.2136496    814.41316  0.048931336  0.049244921           12 
 1388000    1.0281547   -5.2186706    813.69398  0.048852905  0.049234097            4 
 1389000    1.0372513   -5.1720158    816.93857  0.049012393  0.049223273            2 
 1390000    1.0445174   -5.1972708    814.42314  0.048826327  0.049212729            3 
 1391000    1.0307147   -5.1847071     817.9426  0.049002073  0.049201959            5 
 1392000    1.0496731   -5.1715468    818.47073  0.048998487  0.049191088            7 
 1393000    1.0381802   -5.1832374    821.11365   0.04912142  0.049180738            3 
 1394000    1.0369551   -5.1855762    817.33829  0.048860491  0.049170157            3 
 1395000    1.0312046   -5.1924042    818.21171  0.048877641  0.049159684            4 
 1396000    1.0397474   -5.1888723    819.02959  0.048891451  0.049149426            3 
 1397000     1.029651   -5.1997327    820.67447  0.048954573  0.049138932            2 
 1398000    1.0225373    -5.220786    819.43561  0.048845709  0.049128257            3 
 1399000    1.0207505   -5.2043706    819.60795   0.04882106  0.049117984            7 
 1400000    1.0452237   -5.1959908    821.25251  0.048884078  0.049107594            2 
 1401000    1.0272507   -5.1982858     820.7662  0.048820259  0.049097003            6 
 1402000    1.0143472   -5.2199143    821.80709  0.048847307  0.049086467            3 
 1403000    1.0251946   -5.1906286    823.50126  0.048913118   0.04907605            3 
 1404000    1.0377603   -5.1891153    824.20629  0.048920126  0.049065724            5 
 1405000    1.0244445   -5.1990475    824.59841  0.048908565  0.049055521            4 
 1406000    1.0181467   -5.2224612    821.35263  0.048681403  0.049044886            3 
 1407000    1.0345996   -5.2353628    823.15768  0.048753712  0.049034218            2 
 1408000    1.0360312   -5.2338296    821.71903  0.048633939  0.049023619            2 
 1409000    1.0391849   -5.1925463    824.37569  0.048756546  0.049013032            5 
 1410000    1.0346382   -5.2189011    819.26045  0.048419648  0.049001958            9 
 1411000    1.0579621   -5.1868947    824.79833  0.048712398  0.048990973            2 
 1412000    1.0199447   -5.1846051    823.59477  0.048606868  0.048980316            2 
 1413000    1.0138356   -5.2212554    823.15671  0.048546633  0.048969732            3 
 1414000    1.0233113   -5.1914794    826.31569  0.048698473  0.048958991            6 
 1415000    1.0133635   -5.1924728    828.42045  0.048788013  0.048948073            4 
 1416000   0.99491784   -5.1852915    827.53147   0.04870124  0.048937028            4 
 1417000    1.0321544   -5.2105525    828.95569  0.048750628  0.048926251            2 
 1418000    1.0168874     -5.21451    825.79896  0.048530733  0.048915466            7 
 1419000    1.0348773   -5.1789538    828.59205  0.048660562  0.048904903            3 
 1420000    1.0399321   -5.2248523    827.41083  0.048556973  0.048894131            2 
 1421000    1.0114011   -5.2308878    827.35419  0.048519481  0.048883657            3 
 1422000    1.0443714   -5.2343468    829.00574  0.048582146  0.048873122            2 
 1423000   0.99696796   -5.2125952    829.01357  0.048548464  0.048862405            3 
 1424000    1.0087623   -5.2022023    828.66933  0.048494226  0.048851775            5 
 1425000    1.0097335   -5.2189342    828.52993  0.048452043  0.048841252            3 
 1426000    1.0191754    -5.213068    831.74313   0.04860584  0.048830507            3 
 1427000     1.018909   -5.1815591      833.494  0.048674025  0.048819787            2 
 1428000    1.0131511   -5.2364667    831.60295  0.048529584  0.048808913            3 
 1429000    1.0409489   -5.1993818    831.65937  0.048498914  0.048798014            6 
 1430000    1.0191329   -5.1986114    834.61545  0.048637264   0.04878733            8 
 1431000    1.0146437   -5.2218942    830.22405  0.048347546  0.048776486            3 
 1432000     1.033629   -5.2321391    832.71363  0.048458661   0.04876562            6 
 1433000    1.0216434   -5.1949347    835.14708  0.048566357  0.048754511            3 
 1434000     1.043773   -5.2254869     831.1487  0.048300134  0.048743568            4 
 1435000    1.0057131   -5.1869231    832.79071   0.04836183  0.048732528            3 
 1436000    1.0083819   -5.2085933    834.81218  0.048445461  0.048721611            5 
 1437000     1.007549   -5.2250818    835.53264  0.048453528  0.048710706            3 
 1438000    1.0274544   -5.2189347    832.76478  0.048259433  0.048699791            4 
 1439000    1.0362874   -5.2484834    833.68371  0.048279112  0.048688756            2 
 1440000    1.0009631   -5.1962698    836.11136  0.048386074  0.048677958            2 
 1441000     1.024246   -5.2191229    834.58887   0.04826445  0.048667268            5 
 1442000    1.0365882   -5.2210285    836.51939  0.048342545  0.048656384            3 
 1443000    1.0148893   -5.1873161    839.54669   0.04848387  0.048645591            4 
 1444000    1.0055664   -5.1901671    840.75933  0.048520275  0.048634817            4 
 1445000     1.028089   -5.2193672    835.45924  0.048181041   0.04862386            3 
 1446000    1.0246021    -5.207639    838.27911   0.04831023  0.048613062            2 
 1447000    1.0249204   -5.2333704    837.20838  0.048215179  0.048601861            3 
 1448000    1.0161856   -5.2036004    839.30592  0.048302597  0.048591009            3 
 1449000     1.025102   -5.2269254    840.05975  0.048312615  0.048580123            2 
 1450000    1.0251068    -5.195603    839.40995  0.048241951   0.04856932            6 
 1451000    1.0255746   -5.2154391    838.85873  0.048177046  0.048558835            3 
 1452000    1.0292645   -5.2212311    841.56657  0.048299275    0.0485482            4 
 1453000    1.0107592   -5.2098423     841.3483  0.048253516  0.048537478            6 
 1454000    1.0155727   -5.2111875    841.55458  0.048232151  0.048526815            3 
 1455000    1.0015519   -5.2046197     844.9728  0.048394777  0.048516165            4 
 1456000    1.0067811   -5.2339479    842.94103  0.048245251  0.048505446            2 
 1457000     1.026656   -5.2332488    840.77034  0.048087985  0.048494802            2 
 1458000    1.0197546   -5.2469542    843.64962  0.048219571  0.048483979            6 
 1459000    1.0128566   -5.2384341    845.17452  0.048273619  0.048473242            5 
 1460000    1.0257306   -5.2405584    845.00472  0.048230863  0.048462382            4 
 1461000    1.0145198   -5.2165948    846.33324  0.048273627  0.048451651            6 
 1462000    1.0150354   -5.1978421    848.31617  0.048353635  0.048440783            3 
 1463000    1.0117363   -5.2266117    844.17746  0.048084841  0.048430226            6 
 1464000    1.0091529   -5.2041637    843.71561  0.048025706  0.048419441            5 
 1465000    1.0336847   -5.2571745    844.06139  0.048012593  0.048408722            6 
 1466000    1.0110185   -5.2478068    843.51854  0.047948985   0.04839781            5 
 1467000    1.0144446   -5.2584429    847.10475  0.048120015  0.048386843           10 
 1468000    1.0111027   -5.2113155    850.68614  0.048290539   0.04837606            6 
 1469000    1.0158431    -5.171271    847.56058   0.04808036  0.048365329            3 
 1470000    1.0150885   -5.2416198    849.22096  0.048141778  0.048354837            4 
 1471000    1.0393813   -5.1835399    851.09764  0.048215366  0.048344043            2 
 1472000    1.0255356    -5.207356    848.65176  0.048044144  0.048333559            5 
 1473000     1.008618   -5.2519874    849.84173  0.048078849  0.048322821            4 
 1474000    1.0245877   -5.2252366    849.36267  0.048019147  0.048312068            3 
 1475000    1.0086082   -5.2348411     850.7925  0.048067373  0.048301773            5 
 1476000    1.0021907   -5.2127021    853.29224  0.048175939  0.048291552            2 
 1477000    1.0160019   -5.2322247    852.89334  0.048120816  0.048281028            2 
 1478000    1.0132364   -5.2286139    853.21684  0.048106497  0.048270171            4 
 1479000    1.0240616   -5.2246515    851.71334  0.047989257  0.048259633            4 
 1480000    1.0326591   -5.2643734    849.00993  0.047804613  0.048248701            8 
 1481000    1.0321582   -5.2086127    851.50506  0.047912731  0.048238024            2 
 1482000    1.0205523    -5.251386    851.34475  0.047871387  0.048227319            4 
 1483000     1.006316   -5.2500939    851.42518  0.047843626  0.048216144            2 
 1484000    1.0104766   -5.2184059    853.21509  0.047911898   0.04820551            4 
 1485000     1.013008   -5.2150581    854.10219  0.047929416  0.048194819            3 
 1486000     1.004222    -5.213945    852.19198  0.047790039  0.048184046            2 
 1487000    1.0135697    -5.206114     855.6294  0.047950538  0.048173193            4 
 1488000   0.99155591    -5.243643    853.62697   0.04780617  0.048162447            2 
 1489000    1.0152684   -5.2147533    857.92632  0.048014681  0.048151795            4 
 1490000   0.98394721    -5.241969    857.02102  0.047931825  0.048141121            5 
 1491000    1.0229124     -5.25077    856.21479  0.047854616  0.048130444            2 
 1492000    1.0105049   -5.2360368    854.83245  0.047745333   0.04811963            4 
 1493000     1.017854   -5.2490439    856.15787  0.047787334  0.048108702            2 
 1494000    1.0270438   -5.1767871    857.68048  0.047840277  0.048097936            3 
 1495000   0.99726389     -5.20032    858.06559  0.047829743  0.048087199            6 
 1496000    1.0272198    -5.231126    859.51332  0.047878416  0.048076623            4 
 1497000    1.0382036   -5.2523528    853.62013  0.047518377  0.048065932            2 
 1498000    1.0000675   -5.2463653     856.0647  0.047622647   0.04805507            2 
 1499000    1.0298719   -5.2546688     861.3209  0.047883083   0.04804443            2 
 1500000    1.0252065   -5.2325043    860.68532  0.047815851  0.048033925            6 
 1501000    1.0093183   -5.2448484    859.00509  0.047690711  0.048023117            4 
 1502000    1.0494828     -5.22845    858.23313   0.04761613  0.048012183            3 
 1503000    1.0279611   -5.2486641    858.17006  0.047580952  0.048001385            3 
 1504000    1.0100786   -5.2402716    860.40581  0.047673195  0.047990655            4 
 1505000    1.0213174    -5.259526    858.67465  0.047545661  0.047979634            4 
 1506000   0.99857002   -5.2200411    864.75489  0.047850536  0.047968402            3 
 1507000    1.0203236   -5.2535103    862.19596  0.047677282  0.047957528            2 
 1508000    1.0257851   -5.2573888    862.90641  0.047684926  0.047946816            1 
 1509000     1.023319   -5.2191604    861.50339  0.047575844  0.047936062            4 
 1510000    1.0031579   -5.2480251    861.12376  0.047523387  0.047925202            2 
 1511000    1.0012855   -5.2487682    860.35136  0.047449336  0.047914156            3 
 1512000    1.0113834   -5.2029098    864.36511   0.04763917  0.047903154            3 
 1513000    1.0097634   -5.2194739    863.43335  0.047556364  0.047892252            4 
 1514000    1.0049812   -5.2196247    863.89434  0.047550327  0.047881447            2 
 1515000   0.98572116   -5.2660132    864.07084  0.047528649  0.047870537            4 
 1516000    0.9900379    -5.244233    869.17091  0.047777644   0.04785976            4 
 1517000    1.0087948   -5.2252497     866.7826  0.047614953  0.047849157            3 
 1518000    1.0011281   -5.2133979    869.06806   0.04770905  0.047838459            2 
 1519000    1.0094626   -5.2481849    867.36648  0.047584292  0.047827965            5 
 1520000   0.99556426   -5.2448079    867.03983  0.047535078  0.047817024            2 
 1521000    1.0015152   -5.2075907    869.21915  0.047623228  0.047806453            2 
 1522000    1.0071598   -5.2292079    869.06181  0.047583323  0.047795966            6 
 1523000   0.98908618    -5.241024    867.77605  0.047481727  0.047785274            3 
 1524000    1.0059436   -5.2589873    866.82722  0.047398689  0.047774504            3 
 1525000   0.99356492   -5.2462636    870.49612  0.047568094  0.047763876            4 
 1526000    1.0065482   -5.2083543    871.97415  0.047617636  0.047753338            3 
 1527000    1.0361172   -5.2145167     873.7393  0.047682782   0.04774292            5 
 1528000    1.0285245    -5.272292    870.08782  0.047452433  0.047732487            6 
 1529000    1.0169659   -5.2215963      873.485  0.047606551  0.047721935            4 
 1530000    1.0184804   -5.2433788    869.33302  0.047349293  0.047711335            3 
 1531000   0.98066482   -5.2292149    872.57577  0.047494871  0.047700704            2 
 1532000   0.98584252   -5.2153664    873.09236  0.047491969  0.047689829            3 
 1533000    1.0425585   -5.2543248    871.77119  0.047389171  0.047679139            1 
 1534000   0.99008067   -5.2276408    874.30296  0.047495815  0.047668613            2 
 1535000    1.0006921   -5.2385676    872.77899  0.047382139  0.047658056            3 
 1536000   0.99992122   -5.2468662    872.85957  0.047355662  0.047647415            3 
 1537000   0.99171922   -5.2219542    876.70632  0.047533416  0.047637131            2 
 1538000    1.0166308   -5.2168943    874.47351   0.04738153  0.047626457            3 
 1539000     1.006917    -5.242369    873.13198  0.047278102  0.047615842            5 
 1540000    1.0096344   -5.2812301    871.89546   0.04718049   0.04760499            3 
 1541000    1.0143426   -5.2741571    873.37993   0.04723015  0.047593866            2 
 1542000    1.0158416   -5.2923993    874.24279  0.047246152  0.047582935            5 
 1543000    1.0110539   -5.2362084    875.16742  0.047265469  0.047571952            4 
 1544000    1.0105588   -5.2442155      875.148  0.047233808  0.047561107            2 
 1545000    1.0158163   -5.2399453    875.52308  0.047223467  0.047550148            7 
 1546000    1.0128427   -5.2223011    878.39879  0.047347929  0.047539413            6 
 1547000    0.9781182   -5.2132715    878.16143  0.047304537  0.047528487            5 
 1548000     1.032228   -5.2736878    871.86633  0.046935095  0.047517229            3 
 1549000    1.0165844   -5.2522266    875.48779  0.047099623  0.047506249            2 
 1550000   0.97844833   -5.2616742    874.84549  0.047034704  0.047495299            4 
 1551000   0.99712994   -5.2970487    873.81953  0.046949255  0.047484188            5 
 1552000    1.0195967   -5.2595888    875.05131  0.046985143  0.047473212            4 
 1553000    1.0080246   -5.2613481    878.30065  0.047129247  0.047462219            1 
 1554000    1.0164978   -5.2797623    877.89181  0.047076996  0.047451118            5 
 1555000   0.98697059   -5.2585028    880.55405  0.047189392  0.047440418            6 
 1556000    1.0022155   -5.2948127    881.35698  0.047202066  0.047429671            5 
 1557000    1.0161308   -5.2326998    882.84479   0.04725138  0.047419163            1 
 1558000     1.000065   -5.2144759    884.13882  0.047290266  0.047408714            3 
 1559000   0.98274239   -5.2283269    883.49816  0.047225687  0.047397981            6 
 1560000   0.97623868   -5.2692966    882.29141  0.047130951  0.047387108            4 
 1561000   0.99632201   -5.2242036    881.86311  0.047077894  0.047376062            5 
 1562000    1.0076453    -5.256863    883.42754  0.047131217  0.047365167            6 
 1563000    1.0197537   -5.2681229    883.01792  0.047079224  0.047354231            4 
 1564000    1.0060875   -5.2763318    882.10456  0.047000456  0.047342976            4 
 1565000   0.99936372   -5.2443553    880.76077   0.04689887  0.047332023            3 
 1566000    1.0081167   -5.2836518    881.63416  0.046915398  0.047321052            4 
 1567000    1.0218703   -5.2574512     883.1241  0.046964693  0.047310198            3 
 1568000   0.98939389   -5.2340795     883.0965  0.046933275  0.047299168            4 
 1569000     1.009289   -5.2803835    885.18632  0.047014358  0.047288309            3 
 1570000   0.99000511   -5.2387216    886.03614  0.047029519   0.04727758            4 
 1571000    1.0019651   -5.2556117    883.69231  0.046875255  0.047266576            4 
 1572000    1.0140439   -5.2763328    883.08059  0.046813009   0.04725588            5 
 1573000    0.9922124   -5.2747858    884.59801  0.046863637  0.047245285            3 
 1574000    1.0059491   -5.2262698    888.91567  0.047062456  0.047234531            1 
 1575000    1.0172125   -5.2293127     889.7126  0.047074741  0.047223959            3 
 1576000    0.9996911   -5.2486681    890.61965  0.047092833  0.047213281            3 
 1577000    1.0105263    -5.268425     888.4689  0.046949318  0.047202722            4 
 1578000   0.98880269   -5.2723728    888.06253  0.046898106  0.047192147            2 
 1579000   0.99079706   -5.2670464    887.44032  0.046835567  0.047181407            5 
 1580000   0.99141741   -5.2684294    888.78805  0.046877007  0.047170581            4 
 1581000   0.98463725   -5.2548206    889.03828  0.046860546  0.047159754            3 
 1582000    0.9937591   -5.2898957    889.68992  0.046865251  0.047148951            8 
 1583000    1.0101633   -5.2762492    890.22637  0.046863885   0.04713799            2 
 1584000   0.99018549   -5.2616515    894.28859  0.047048011  0.047127018            3 
 1585000   0.99293092   -5.2399627    890.65146  0.046827101  0.047116203            2 
 1586000    0.9828716   -5.2450465     893.4324  0.046943695  0.047105537            5 
 1587000   0.98805305   -5.2387755    890.99636  0.046786198  0.047094695            2 
 1588000    1.0057287   -5.2560561    892.58416  0.046840059  0.047083954            3 
 1589000    1.0195039    -5.268455    892.97358  0.046831004  0.047073206            3 
 1590000   0.99971786   -5.2591873     892.9914  0.046802484  0.047062342            2 
 1591000   0.98201207   -5.2641978    893.23196  0.046785667  0.047051284            3 
 1592000   0.98082205   -5.2654728    893.01208  0.046744769  0.047040501            2 
 1593000    1.0187893   -5.2183961     900.1879  0.047090809  0.047029908            2 
 1594000   0.98646643   -5.3175679    892.92502  0.046681567  0.047019248            2 
 1595000    0.9864605   -5.2260688    896.39864  0.046833785  0.047008356            3 
 1596000   0.98141473   -5.2707124    899.09113  0.046945026  0.046997521            2 
 1597000   0.99330701    -5.275102    893.51434  0.046624627  0.046986749            3 
 1598000    1.0085773   -5.2686639    898.53945  0.046857502  0.046976082            6 
 1599000    1.0268195   -5.2978875    897.13178  0.046754835   0.04696551            6 
 1600000    1.0008654   -5.2922212    894.45395  0.046586143  0.046954819            4 
 1601000   0.98837002   -5.2605918    896.95349  0.046687148  0.046944288            1 
 1602000    1.0309834   -5.2602694    900.32764  0.046833523  0.046933777            7 
 1603000   0.99589967   -5.2735021    897.40107  0.046652166  0.046923255            2 
 1604000   0.99353737   -5.2773358    901.49352  0.046835698  0.046912607            5 
 1605000   0.97188526   -5.2710301    898.94311  0.046674097  0.046901877            2 
 1606000    1.0112234   -5.2397473    901.66947  0.046786502  0.046891505            4 
 1607000   0.97708864    -5.284267    900.57592   0.04670068  0.046880958            3 
 1608000   0.98842773   -5.3102655    895.16695  0.046391322  0.046870132            6 
 1609000    1.0187089   -5.2576689    902.78023  0.046756797  0.046859341            3 
 1610000    1.0005575   -5.3146104    900.95909  0.046633493  0.046848742            6 
 1611000   0.98440496   -5.2632183     901.5233  0.046633731  0.046837896            2 
 1612000    1.0063171   -5.2955115    900.81556  0.046568216   0.04682703            4 
 1613000   0.99429894   -5.2649339    900.75245  0.046536085  0.046816398            5 
 1614000    0.9784626   -5.2197041    902.73775  0.046609756  0.046805717            3 
 1615000   0.99585598   -5.2528376    903.94049  0.046642956  0.046795112            3 
 1616000   0.99054468   -5.2644654    903.62826  0.046597992  0.046784562            4 
 1617000    1.0193727   -5.2790604     901.9191  0.046481092  0.046773912            3 
 1618000   0.97797596   -5.2754383    903.70906  0.046544554  0.046763169            5 
 1619000   0.99783997   -5.2936475    903.51701   0.04650592  0.046752222            5 
 1620000   0.97329759   -5.2955071    903.41725  0.046472081  0.046741586           10 
 1621000   0.99284092   -5.2661557    902.70567   0.04640683  0.046730752            2 
 1622000    1.0023731   -5.2937249    905.24957  0.046508917  0.046719949            3 
 1623000   0.98105626   -5.2400144     910.1772  0.046733272  0.046709233            3 
 1624000    1.0039419    -5.261775    904.55667  0.046416085  0.046698296            4 
 1625000   0.98996296   -5.2952205    905.24331  0.046422734  0.046687425            2 
 1626000    1.0030806   -5.3014993    902.06778  0.046231436   0.04667636            4 
 1627000   0.96257618   -5.2916058    902.83913  0.046242529  0.046665035            3 
 1628000   0.97817505   -5.3023103    906.53815  0.046403468  0.046653904            4 
 1629000   0.97709688   -5.2766108    904.38386  0.046264777  0.046642806            6 
 1630000   0.97850771   -5.2536857    904.80935  0.046258146  0.046631897            3 
 1631000    1.0055477    -5.301491    903.35377  0.046155415    0.0466209            4 
 1632000   0.99395005   -5.2671788    905.49193  0.046236312  0.046610065            2 
 1633000   0.98311204   -5.3144756      907.037  0.046286844  0.046599169            4 
 1634000   0.97039636   -5.2837125    909.23507  0.046370617  0.046588358            4 
 1635000   0.98162291   -5.2693256    912.60895  0.046514218  0.046577538            4 
 1636000   0.97726483   -5.2960816    908.26664  0.046264601  0.046566946            5 
 1637000     1.001769    -5.301282    907.90468  0.046217913  0.046556301            3 
 1638000   0.99970763   -5.2856505    908.43526   0.04621669  0.046545604            1 
 1639000   0.98837982   -5.2462488    911.91649  0.046365492  0.046535044            7 
 1640000   0.99771929   -5.2673428    913.32109  0.046408592  0.046524434            2 
 1641000   0.99812435    -5.269954     911.5937  0.046292591  0.046513973            3 
 1642000   0.97177883   -5.2816621    912.38497  0.046304556  0.046503669            2 
 1643000   0.98695876   -5.2364715    913.67826  0.046341969  0.046493102            3 
 1644000   0.98386342   -5.2579206    914.48922  0.046354887  0.046482577            2 
 1645000    0.9803754   -5.3026069    910.62469  0.046130936  0.046471869            7 
 1646000   0.99597029   -5.2920691    911.89201  0.046167072  0.046460894            3 
 1647000    0.9590574   -5.2711141    915.14474   0.04630362  0.046450083            5 
 1648000   0.99586377   -5.3083958    914.62364  0.046249173  0.046439189           10 
 1649000    1.0153502   -5.2586698    914.47398  0.046213563  0.046428537            1 
 1650000   0.96945175    -5.279971    914.04289  0.046163782  0.046417815            7 
 1651000    0.9623796   -5.2778784    914.78417  0.046173237  0.046406815            2 
 1652000   0.97632296   -5.3193752    911.24502  0.045966758  0.046395773            4 
 1653000   0.99070419   -5.2790748    918.52587  0.046306003  0.046384804            2 
 1654000    1.0081972   -5.2755022    913.04617  0.046001923  0.046373958            1 
 1655000   0.99857274   -5.3027001    916.25864  0.046135883  0.046363071            3 
 1656000   0.99038666   -5.2735882     916.9659  0.046143614  0.046352299            5 
 1657000   0.99912931   -5.2783619    913.77303  0.045955192  0.046341636            4 
 1658000   0.99969531   -5.2712843    916.58045  0.046068579  0.046330607            5 
 1659000   0.98297025   -5.3147395     914.5108  0.045936849   0.04631972            3 
 1660000   0.97501421   -5.2768838    916.94925  0.046031589  0.046308869            6 
 1661000    0.9933852   -5.3063402    916.07222  0.045959874  0.046297689            4 
 1662000   0.97110532    -5.299022    917.96186  0.046026968  0.046286657            3 
 1663000   0.97442644   -5.2628967     917.3348  0.045967869  0.046275694            3 
 1664000    1.0102307   -5.2664725    921.62881  0.046155289  0.046264915            6 
 1665000   0.99426351   -5.3157921    921.67151  0.046129705  0.046254019            3 
 1666000   0.97310511   -5.2861287    917.52847  0.045894781  0.046243059            4 
 1667000    1.0093831    -5.268466     919.6347   0.04597254  0.046232231            8 
 1668000   0.99839356   -5.2397178    921.80295  0.046053305  0.046221331            5 
 1669000   0.97146325   -5.2727428    920.93643  0.045982446  0.046210488            3 
 1670000   0.96965454   -5.3267313    917.43152  0.045780016  0.046199469            3 
 1671000    1.0043467   -5.2653587     922.2634  0.045993586  0.046188685            3 
 1672000   0.99265257   -5.3072277     916.3939   0.04567354  0.046177824            2 
 1673000   0.97937639   -5.2780875    924.26324  0.046038217   0.04616687            4 
 1674000   0.97725414   -5.2978161    923.47037  0.045971245  0.046155973            5 
 1675000   0.98919634   -5.2958318    921.95845   0.04586858  0.046145242            3 
 1676000   0.99351002   -5.2680163    922.65535  0.045875863   0.04613463            3 
 1677000    1.0178528   -5.2898145    922.72022   0.04585173  0.046123995            2 
 1678000   0.99302162   -5.2535185    925.25089  0.045950084  0.046113457            1 
 1679000   0.98815612   -5.3138705    925.03441  0.045911972  0.046102994            2 
 1680000   0.99313301   -5.2946311    926.54576  0.045959611  0.046092345            3 
 1681000   0.98619283   -5.2939289    925.92774  0.045901633  0.046081902            3 
 1682000   0.99831446   -5.2756293    929.49195  0.046050929  0.046071323            2 
 1683000   0.97641095     -5.31993    925.95122  0.045848248  0.046060582            7 
 1684000   0.97535728     -5.28505    927.64301  0.045904741  0.046049805            3 
 1685000   0.97325194   -5.3053721    924.88484   0.04574109  0.046039361            5 
 1686000   0.97526014   -5.2961489    931.20434  0.046026312  0.046028727            2 
 1687000   0.96454591   -5.3016306    929.51994  0.045915824  0.046018066            4 
 1688000   0.97365895   -5.2776499    930.56189  0.045940062  0.046007653            6 
 1689000   0.97508895   -5.2869193    928.27998  0.045800275  0.045997044            3 
 1690000   0.98926834   -5.3176654     929.4354  0.045830148  0.045986464            5 
 1691000   0.98261078   -5.3328277    924.86591  0.045577859  0.045975653            3 
 1692000   0.98745088   -5.2672833    929.91807  0.045799747  0.045964932            5 
 1693000    0.9813685    -5.273643    931.63633  0.045857272  0.045954293            4 
 1694000   0.99098947   -5.2994556    931.29479    0.0458134  0.045943802            1 
 1695000   0.95211889   -5.2630163    932.04637  0.045823322  0.045933525            2 
 1696000   0.96864671   -5.2827085    932.97495   0.04584193  0.045923155            5 
 1697000   0.96905179   -5.3343781    932.37716  0.045785561  0.045912722            5 
 1698000   0.96474628   -5.2820822    934.78353  0.045876695   0.04590234            5 
 1699000   0.97007198   -5.2382443    935.11643  0.045866021   0.04589213            8 
 1700000   0.98015457    -5.333777     933.2733  0.045748691  0.045882002            4 
 1701000    0.9594041   -5.3012219    937.68811  0.045938081  0.045871832            7 
 1702000   0.96282963   -5.3056413    937.76442  0.045914826  0.045861699            2 
 1703000   0.95832953   -5.2832612    939.75982  0.045985507  0.045851756            3 
 1704000   0.95044431   -5.3001083    937.34899  0.045840619  0.045841838            3 
 1705000   0.98395043   -5.2759046    938.08394  0.045849655  0.045831917            4 
 1706000   0.97033686   -5.3130178    937.48099  0.045793327  0.045822044            4 
 1707000   0.98434633   -5.3091188    936.73963  0.045730308  0.045811874            6 
 1708000   0.97639957   -5.3388654    937.77242  0.045753924  0.045801664            5 
 1709000   0.98254886   -5.2897031    938.26932  0.045751381  0.045791655            4 
 1710000   0.97228194   -5.3240277    939.78005  0.045798248  0.045781667            5 
 1711000    1.0024497   -5.2966221    939.84883  0.045774831  0.045772091            5 
 1712000   0.98174725   -5.2633866    943.59504  0.045930444  0.045762464            2 
 1713000   0.97495866   -5.2921386    939.80009  0.045719016  0.045752603            2 
 1714000   0.99138661   -5.2911065    939.82766  0.045693682  0.045742484            3 
 1715000   0.96926729   -5.2782444    943.14547  0.045828254  0.045732565            4 
 1716000   0.97040749   -5.2897119    940.88999  0.045692016  0.045722327            4 
 1717000   0.98695345    -5.306891    939.36477  0.045591379  0.045712229            3 
 1718000   0.97320948   -5.2771595    941.74706  0.045680397  0.045702007            2 
 1719000   0.98054546   -5.3128629    945.30047  0.045826085  0.045691844            3 
 1720000   0.98593148   -5.2984488    943.10627  0.045693133  0.045681895            5 
 1721000   0.98810306   -5.3509627    939.42394  0.045488279  0.045671645            4 
 1722000    0.9772454    -5.290299     941.9609  0.045584635  0.045661521            3 
 1723000   0.96152235   -5.3392225    940.65032  0.045494792  0.045651257           11 
 1724000   0.95643579   -5.3245883    939.76935  0.045425819  0.045640963            3 
 1725000   0.98749234   -5.2899586    944.32974  0.045619794  0.045630835            3 
 1726000   0.98348686   -5.3262348    944.72104  0.045612256  0.045620513            5 
 1727000   0.94629387   -5.2940459    942.63699  0.045485282  0.045610269            7 
 1728000   0.98460843   -5.3007626    943.02546  0.045477694  0.045600155            4 
 1729000   0.98385076   -5.3020448    943.50825   0.04547466  0.045589858            3 
 1730000   0.98136057   -5.3229313    943.03575  0.045425614   0.04557962            5 
 1731000   0.96290953   -5.3228714    941.93563   0.04534641   0.04556938            2 
 1732000   0.99299324   -5.3322399    946.31388  0.045530883    0.0455591            2 
 1733000   0.97217422   -5.2611988    949.53445  0.045659475  0.045549173            4 
 1734000   0.96588167   -5.2978698    949.50575  0.045631764  0.045539227            3 
 1735000    0.9734323   -5.3079571    949.98769  0.045628611  0.045529143            7 
 1736000   0.96485663    -5.315152    946.40889  0.045430534  0.045518994            4 
 1737000   0.97048186   -5.2908548    949.19487  0.045538038  0.045508686            3 
 1738000   0.98821371   -5.3362013    947.12577  0.045412628  0.045498214            7 
 1739000    0.9817345   -5.3211362    947.74181  0.045416035  0.045487943            3 
 1740000   0.96105282    -5.315379    948.80765  0.045440979  0.045477637            4 
 1741000   0.97506717   -5.3252494    948.74125  0.045411701   0.04546752            2 
 1742000   0.99100676   -5.2740475    951.67391  0.045525924  0.045457276            5 
 1743000   0.99208935   -5.3230977    945.05788   0.04518349  0.045446951            3 
 1744000   0.98872601   -5.3210377    949.55521  0.045372478  0.045436769            3 
 1745000   0.99539894   -5.3420781    950.81294   0.04540654  0.045426608            3 
 1746000   0.96375404    -5.309318    949.88029   0.04533602  0.045416307            4 
 1747000   0.95554773    -5.328311    950.11171  0.045321108  0.045406084            6 
 1748000   0.96204341   -5.3207018    946.99624  0.045146655  0.045395661            4 
 1749000   0.98225459   -5.3194938    950.29545  0.045278037  0.045385447            2 
 1750000   0.97747455   -5.3477215    947.21558  0.045105504  0.045375229            6 
 1751000   0.97481756   -5.3228061    948.32046  0.045132327  0.045364825            4 
 1752000    0.9791216   -5.3177269    952.47459  0.045304157  0.045354548            7 
 1753000   0.97550943   -5.3172215    952.04577  0.045257928  0.045344166            3 
 1754000   0.98187491   -5.3006555     951.0305  0.045183889   0.04533366            6 
 1755000   0.96402663   -5.3288535    952.18651  0.045213035  0.045323337            2 
 1756000    1.0011043   -5.3580148    951.27665  0.045144108  0.045313002            3 
 1757000   0.99860619    -5.317032    954.80738  0.045285875  0.045302673            3 
 1758000   0.97741367   -5.3188089    954.15543  0.045229211  0.045292494            6 
 1759000   0.97155322   -5.3213138    953.73723  0.045183685  0.045282217            2 
 1760000   0.96354425   -5.2967344    952.31905  0.045090864  0.045271954            6 
 1761000   0.96351764   -5.3385427    951.95397  0.045047983  0.045261623            3 
 1762000   0.97678981   -5.3141841    953.56039  0.045098391  0.045251318            3 
 1763000   0.97234897    -5.339631    951.18128  0.044960355  0.045241073            2 
 1764000   0.99966433   -5.3306161    952.82847  0.045012683  0.045230548            3 
 1765000   0.96654513    -5.315686    954.53539  0.045067771  0.045219997            2 
 1766000   0.93693633   -5.3248043    953.47806  0.044992358  0.045209563            4 
 1767000   0.95421468   -5.3256018     953.2145  0.044954466  0.045198962            6 
 1768000   0.95487788   -5.2972388    953.79963  0.044956619  0.045188342            3 
 1769000    0.9610403   -5.3184059    957.18714  0.045090783  0.045177853            5 
 1770000   0.96232748   -5.2923346    957.14543  0.045063344  0.045167511            4 
 1771000   0.96379928   -5.3372811    958.62934  0.045107724  0.045157082            3 
 1772000   0.96511957   -5.3199969    956.03422  0.044960225  0.045146447            4 
 1773000   0.96120416   -5.3377064    954.90708   0.04488189  0.045135863            3 
 1774000   0.95096493   -5.3250907     955.8065   0.04489884  0.045125322            6 
 1775000   0.97184014   -5.3202914    957.37419  0.044947145   0.04511477            3 
 1776000   0.95109456   -5.3058693    955.84898  0.044850271  0.045104381            5 
 1777000   0.95747031   -5.3225867    957.54421  0.044904531  0.045093969            2 
 1778000   0.96278884   -5.3072028     961.2928  0.045054968  0.045083513            3 
 1779000   0.97583992   -5.3208242    959.53223  0.044947172  0.045072915            5 
 1780000    0.9794049   -5.3248526     958.0012  0.044850244  0.045062152            6 
 1781000   0.98662634   -5.3554315    959.02134  0.044872793   0.04505164            3 
 1782000   0.96408009   -5.3181128    958.71002  0.044833054  0.045041188            4 
 1783000   0.97605472   -5.2861986    961.94637  0.044959168  0.045030692            3 
 1784000   0.97544886   -5.3213324    959.50431  0.044819895  0.045020226            2 
 1785000     0.953689   -5.3384639    958.36261  0.044741485  0.045009579            9 
 1786000   0.95255963   -5.3407254    963.20483  0.044942368  0.044998927            3 
 1787000   0.96954131   -5.3472306    961.83072  0.044853139  0.044988629            2 
 1788000   0.95366861   -5.3584586    960.51514  0.044766739  0.044978333            3 
 1789000   0.95597798   -5.3234355    963.66532  0.044888454  0.044968081            5 
 1790000   0.96241445   -5.2949972     967.6456  0.045048678  0.044957809            4 
 1791000   0.94724401   -5.3274099    963.63033  0.044836699  0.044947623            4 
 1792000   0.95640084   -5.3019253     969.3897  0.045079506  0.044937555            3 
 1793000   0.97002302   -5.3185486    966.13535  0.044903112  0.044927661            5 
 1794000   0.94268661    -5.312461    967.83838   0.04495719  0.044917455            3 
 1795000   0.96247178   -5.3269013    964.58189  0.044780961  0.044907414            8 
 1796000   0.98477673   -5.3409567    962.23554  0.044647157  0.044897173            3 
 1797000   0.96805391   -5.3343147    967.22659  0.044853765  0.044886771            1 
 1798000   0.95671174   -5.3850561    963.95898  0.044677372  0.044876417            7 
 1799000   0.98160663   -5.3653291    965.49485  0.044723682  0.044865864            6 
 1800000   0.96927896   -5.3565787    968.28297  0.044827915  0.044855344            2 
 1801000   0.96075331   -5.3306978    966.24521  0.044708736  0.044844849            4 
 1802000   0.96442433   -5.2963661     964.6981   0.04461238  0.044834292            7 
 1803000   0.95792828   -5.3544506    965.34473  0.044617523  0.044823852            3 
 1804000   0.97129233    -5.306943    966.88942  0.044664145   0.04481336            6 
 1805000   0.95965128   -5.3395799    967.23826  0.044655506  0.044802748            4 
 1806000   0.95844953   -5.3761885    962.08641  0.044393061  0.044792228            3 
 1807000   0.97729531   -5.3428774    964.10242  0.044461465   0.04478148            4 
 1808000   0.98552594   -5.3434199    968.83444   0.04465498  0.044770911            3 
 1809000   0.94742883   -5.3635324    967.62577  0.044574616  0.044760233            4 
 1810000   0.93072602   -5.3600338    968.33841    0.0445828  0.044749614            3 
 1811000    0.9630299   -5.3311886    967.61476  0.044524883  0.044738967            2 
 1812000   0.96241159   -5.3127209    971.26367  0.044668123   0.04472833            4 
 1813000   0.99061737   -5.3377774    967.58799  0.044474535  0.044717745            3 
 1814000    0.9511184   -5.3596873    967.22376  0.044433285  0.044707007            5 
 1815000   0.92559916   -5.3515126    966.68487  0.044384062  0.044696241            5 
 1816000   0.98617219   -5.3761242     969.6382  0.044495145  0.044685476            5 
 1817000   0.95046596   -5.3487251    971.26103  0.044545085  0.044674752            4 
 1818000   0.95116687   -5.3095885    970.63991  0.044492112  0.044664162            4 
 1819000   0.95884866   -5.2957169    973.85779  0.044615072  0.044653583            6 
 1820000    0.9548918   -5.3614657    969.81262   0.04440534  0.044643184            5 
 1821000   0.98257826    -5.327244    970.37466  0.044406675   0.04463271            2 
 1822000   0.98392994    -5.367614    969.84811  0.044358219  0.044622076            4 
 1823000   0.96755011   -5.3384831    970.83962  0.044379211  0.044611517            4 
 1824000   0.93486471   -5.3172205    974.53313  0.044523626  0.044600998            3 
 1825000   0.95176663   -5.3285281    973.75477  0.044463688  0.044590421            9 
 1826000   0.93209656   -5.2832817    977.61468  0.044615493  0.044579967            5 
 1827000   0.97577823   -5.3506691    971.59026  0.044316286  0.044569566            3 
 1828000    0.9608152   -5.3404349    972.61265  0.044338651  0.044558924            4 
 1829000   0.96748275    -5.341249    970.43708  0.044215285  0.044548048            3 
 1830000   0.96987655   -5.3561474      973.318  0.044322313  0.044537234            6 
 1831000   0.96421627   -5.3586665    975.29745  0.044388196  0.044526399            3 
 1832000   0.96821541   -5.3675679    973.51256  0.044282777  0.044515507            5 
 1833000   0.96761519   -5.3364598    972.41999  0.044208947  0.044504877            4 
 1834000   0.96925515   -5.3716266    972.69492  0.044197334  0.044494324            3 
 1835000   0.96798744   -5.3029238    979.92334  0.044501514  0.044483918            7 
 1836000    0.9727155   -5.3581797    974.70971  0.044240637  0.044473357            4 
 1837000   0.96599591   -5.3274617    978.46471  0.044386895  0.044462977            2 
 1838000    0.9724739   -5.3518423    975.97494  0.044249861  0.044452271            4 
 1839000   0.95177326   -5.3470262    975.44132  0.044201619  0.044441684            4 
 1840000   0.96200537   -5.3481487    977.17904  0.044256297   0.04443099            3 
 1841000   0.95207344   -5.3198566    980.52391  0.044383664  0.044420479            5 
 1842000   0.96523584   -5.3767925    977.14761  0.044206823  0.044409997            5 
 1843000   0.94285575   -5.3425374    981.36963   0.04437374  0.044399371            3 
 1844000   0.95291669   -5.3439164     980.0998   0.04429229  0.044388834            7 
 1845000   0.95437249   -5.3761883    979.15425  0.044225576  0.044378266            2 
 1846000   0.95605672   -5.3512194    981.20292  0.044294101  0.044367519            3 
 1847000   0.94378664   -5.3266818    982.08412  0.044309877  0.044356787            4 
 1848000   0.93158153   -5.3579971    977.65506  0.044086177  0.044346166            4 
 1849000   0.95027457   -5.3765777    982.08614   0.04426204   0.04433552            7 
 1850000   0.94889089    -5.356683    983.36579  0.044295756  0.044325245            3 
 1851000     0.934646   -5.3496789    979.89929  0.044115761  0.044314715            5 
 1852000   0.94224616   -5.3348619    985.98248  0.044365662  0.044304287            1 
 1853000   0.95543557   -5.3597943    983.58004  0.044233677  0.044293895            3 
 1854000   0.95828133   -5.3536345    981.80351  0.044129967  0.044283557            4 
 1855000   0.92873849   -5.3596796    984.94292  0.044247211  0.044273236            3 
 1856000   0.94422487   -5.3452032    985.69883  0.044257311  0.044262963            5 
 1857000   0.95412451   -5.3427648    983.11402  0.044117485  0.044252507            5 
 1858000   0.96206395   -5.3848404    983.38646  0.044105959  0.044241984           12 
 1859000   0.96637984   -5.3277791     988.1371   0.04429519  0.044231571            3 
 1860000   0.95120597    -5.352744    982.85454  0.044034702  0.044221332            4 
 1861000   0.94341552    -5.338356    985.10081  0.044111625  0.044210954            5 
 1862000   0.98284598    -5.362652    985.81131  0.044119733  0.044200705            3 
 1863000   0.94219013   -5.3796104    983.04684  0.043972394  0.044190309            8 
 1864000   0.95692523   -5.3578306    984.75093  0.044024988  0.044179787           11 
 1865000    0.9477738   -5.3536104    989.96961  0.044234567  0.044169335            3 
 1866000   0.94388999   -5.3695249    986.99743  0.044078128  0.044158933            4 
 1867000   0.94420391   -5.3599581    987.68328  0.044085131  0.044148496            4 
 1868000   0.94990578   -5.3287059     990.2486  0.044175972  0.044138512            4 
 1869000    0.9656009   -5.3809462    989.75701  0.044130418  0.044128509            5 
 1870000   0.95405124   -5.3184186    990.93027  0.044159103  0.044118463            3 
 1871000   0.95113497   -5.3434081    991.36215  0.044154737  0.044108228            6 
 1872000   0.93717012   -5.3501427    990.23822  0.044081117   0.04409798            5 
 1873000   0.95501687   -5.3585876    986.48737    0.0438907  0.044087539            5 
 1874000   0.94386163   -5.3516323    988.68603   0.04396505  0.044077282            5 
 1875000   0.95871403   -5.3669849    990.67807  0.044030136  0.044067041            4 
 1876000     0.942524   -5.3656991     988.8723  0.043926453  0.044056703            4 
 1877000   0.95080143   -5.3534221    991.05303  0.043999868  0.044046123            3 
 1878000   0.95779928   -5.3653339    988.34506  0.043856277  0.044035723            7 
 1879000   0.93675247   -5.3851238    987.91859  0.043814023  0.044025317            6 
 1880000   0.95504028   -5.3571426    988.61431  0.043821556  0.044014741            3 
 1881000   0.95750631   -5.3470837    990.46697  0.043880337    0.0440043            2 
 1882000   0.94680094   -5.3507551     991.2159  0.043890183  0.043993984            3 
 1883000   0.94968574   -5.3511283    988.34978  0.043740033  0.043983441            7 
 1884000   0.93910964   -5.3403726    993.00971  0.043922935  0.043973061            5 
 1885000   0.96341528   -5.3702009    992.75456  0.043888354   0.04396263            1 
 1886000        0.927   -5.3553479    991.60769  0.043814408  0.043952122            4 
 1887000   0.95132794   -5.3489122    992.98315  0.043851932   0.04394155            3 
 1888000   0.94860208   -5.3617819    991.32682  0.043755598  0.043931012            7 
 1889000   0.93204948   -5.3868178     994.4034  0.043868158  0.043920465            3 
 1890000   0.93020078   -5.3305256    992.84091  0.043776054  0.043909914            4 
 1891000   0.96676649   -5.3385849    992.49115  0.043737491  0.043899463            3 
 1892000   0.94313718   -5.3786411    993.00004  0.043736788  0.043888751            5 
 1893000   0.96607509   -5.3208928    995.09062  0.043805715  0.043878206            1 
 1894000   0.95393571   -5.4009512     990.6841  0.043588705  0.043867459            6 
 1895000   0.94535645   -5.3545324    993.41304   0.04368571  0.043856708            6 
 1896000   0.97046504   -5.3699562    991.09407  0.043560745  0.043845927            4 
 1897000   0.95257121   -5.3966546    991.65253  0.043562315  0.043835028            4 
 1898000   0.94324085   -5.3491837    993.46644  0.043619004  0.043824192            5 
 1899000   0.95574237   -5.3796014    995.47705  0.043684266  0.043813292            6 
 1900000   0.96348887   -5.3824979    992.62645  0.043536248   0.04380239            6 
 1901000   0.95491395   -5.3880108    992.31114  0.043499524  0.043791563            2 
 1902000   0.93675964   -5.3493396    994.32096  0.043564711  0.043781006            4 
 1903000   0.95800699   -5.3417222    994.63271   0.04355547  0.043770281            2 
 1904000    0.9398727    -5.374106    998.73207  0.043712013  0.043759667            4 
 1905000   0.94744215   -5.3536108    997.90025   0.04365268  0.043749017            4 
 1906000   0.94205171   -5.3472633    996.37095  0.043562913  0.043738393            3 
 1907000   0.93652793   -5.3585255    994.77897  0.043470502  0.043727655            3 
 1908000   0.94492993    -5.363887    995.66994  0.043486632  0.043716859            2 
 1909000   0.92267921   -5.3342453    998.94612  0.043606867  0.043706067            4 
 1910000    0.9189059   -5.3639928    995.50069  0.043433713  0.043695261            6 
 1911000   0.94111365   -5.3607341     995.1644   0.04339632  0.043684284            4 
 1912000   0.94665671   -5.3505831    997.25372  0.043464684  0.043673356            5 
 1913000   0.94880567   -5.3582474    997.05715  0.043433401  0.043662421            5 
 1914000   0.94613214   -5.3853873     994.3375  0.043292298  0.043651446            3 
 1915000   0.94014371   -5.3873099      995.819   0.04333416  0.043640439            2 
 1916000   0.94859997   -5.3455458    997.59829  0.043388931  0.043629589            3 
 1917000   0.95626714   -5.3760375    999.47177  0.043447738  0.043618644            6 
 1918000   0.93740668   -5.3823767    995.26511  0.043242315  0.043607674            4 
 1919000   0.92717013    -5.411827    994.84711  0.043201629  0.043596665            3 
 1920000   0.93911692   -5.3557745     1001.174  0.043453732   0.04358579            5 
 1921000   0.94488744   -5.3929951    998.91496  0.043333115  0.043574893            5 
 1922000   0.96977241   -5.3711858    999.73009  0.043345911  0.043563901            6 
 1923000   0.96102336   -5.3749262    995.82012  0.043153931  0.043552905            6 
 1924000   0.94447553   -5.3682731    997.14722  0.043188982  0.043541889            4 
 1925000   0.95584787   -5.3925617    995.98458  0.043116216  0.043530681            7 
 1926000   0.95336466   -5.3832194    997.40619  0.043155339   0.04351958            7 
 1927000     0.954228   -5.3943408    998.63136  0.043185926  0.043508309            5 
 1928000   0.92161653   -5.3823048    996.58945   0.04307527  0.043497093            3 
 1929000   0.95257195   -5.3651372     1000.367  0.043216129  0.043485846            5 
 1930000   0.94485161   -5.3829644    1000.5816  0.043203005  0.043474635            4 
 1931000   0.94562992    -5.379444    995.90839  0.042978957  0.043463458            7 
 1932000   0.94029294   -5.3678723    1000.8772  0.043171032  0.043452138            6 
 1933000   0.92857812   -5.3372436    1004.3045  0.043296453  0.043441005            5 
 1934000    0.9357205   -5.3883809    999.32333  0.043059433  0.043429948            5 
 1935000   0.95343003   -5.3997698    998.95172  0.043021176  0.043418641            4 
 1936000   0.94084574   -5.3677974    1002.4711  0.043150443  0.043407369            5 
 1937000   0.92588576    -5.350684    1001.2272   0.04307465  0.043396171            5 
 1938000   0.95337375    -5.376914    999.88573  0.042994743  0.043385004            2 
 1939000   0.93481504   -5.3912905    1001.8698  0.043057841  0.043373632            4 
 1940000    0.9346813   -5.4153074     999.7619  0.042945099  0.043362293            6 
 1941000   0.93191202   -5.3890991    998.41442  0.042865122  0.043350957            2 
 1942000   0.94797333   -5.3247353    1005.0646  0.043128416  0.043339618            4 
 1943000   0.94784321   -5.3907787    1003.8976  0.043056167  0.043328608            6 
 1944000   0.94394461   -5.3582722     1004.837  0.043074287  0.043317467            4 
 1945000   0.93098227   -5.3999839    1003.3261  0.042987407  0.043306212            3 
 1946000   0.94483422   -5.3592587     1006.636  0.043107059  0.043295028            6 
 1947000   0.95403183    -5.390187    1002.1077  0.042891103  0.043283917            4 
 1948000    0.9522989   -5.3641688    1005.3319   0.04300701  0.043272804            3 
 1949000   0.94770027   -5.3810613    1004.4479  0.042947148  0.043261563            8 
 1950000   0.94838258   -5.4055047    1001.4684  0.042797794  0.043250175            5 
 1951000   0.93246092   -5.3832785    1003.4657  0.042861168  0.043238855            5 
 1952000   0.94045396   -5.3972181     1000.368  0.042706967  0.043227457            6 
 1953000   0.95448356   -5.3968681    1004.2273  0.042849776  0.043216012            2 
 1954000   0.94632078   -5.4276834    1003.3129  0.042788849  0.043204527            4 
 1955000   0.91367539   -5.3807487    1003.7464  0.042785441  0.043193197            5 
 1956000   0.92683867   -5.3560534    1004.8043  0.042808637  0.043181745            4 
 1957000   0.93591195   -5.3753491    1004.7592  0.042784842  0.043170349            1 
 1958000   0.93059844   -5.3798521    1004.1734  0.042738057  0.043158945            3 
 1959000   0.93922751    -5.420779     1002.531  0.042646374  0.043147406            5 
 1960000   0.95242009   -5.3594535    1007.1777   0.04282218  0.043135864            4 
 1961000    0.9514705   -5.3768514    1004.8044  0.042699491  0.043124256            4 
 1962000   0.93324016   -5.4041435    1004.7891  0.042677076  0.043112716            7 
 1963000   0.93294128    -5.391717    1006.4315  0.042725061  0.043101268            8 
 1964000   0.94117874   -5.4189724    1005.1671  0.042649655  0.043089861            3 
 1965000   0.92732778   -5.4246863    1004.1861   0.04258635  0.043078365            7 
 1966000   0.94086775   -5.3965787    1006.1917  0.042649699  0.043066944            3 
 1967000   0.93598039   -5.3602313    1009.5965  0.042772263    0.0430557            5 
 1968000   0.91326852   -5.3887979    1006.5767  0.042622657  0.043044334            3 
 1969000   0.94132523   -5.4046725      1005.89  0.042571951  0.043032997            3 
 1970000   0.92076639   -5.4049409    1007.0535  0.042599555   0.04302169            3 
 1971000    0.9580712   -5.3923297    1011.4254  0.042762787  0.043010435            4 
 1972000   0.96757846   -5.4018038    1007.1432  0.042560142  0.042998989            3 
 1973000   0.94370615   -5.4038065    1004.6268  0.042432284  0.042987561            8 
 1974000   0.92946474    -5.393626    1009.9471  0.042635391  0.042976111            4 
 1975000   0.95793428   -5.4113258    1007.2419  0.042499659  0.042964884            4 
 1976000   0.93723752   -5.3782023    1009.4254  0.042570234  0.042953403            5 
 1977000   0.92224653   -5.3760196    1012.0683  0.042660104  0.042942075            4 
 1978000   0.91352238   -5.3889508    1008.3777  0.042483051  0.042930626            6 
 1979000    0.9134772   -5.4006702    1010.3009  0.042542568  0.042919075           12 
 1980000    0.9394189   -5.4055997    1008.9989  0.042466284   0.04290763            3 
 1981000   0.93776953   -5.4166757    1006.3176  0.042332055  0.042896206            4 
 1982000   0.93179637   -5.4348546    1008.9075  0.042419589  0.042884731            4 
 1983000   0.93571761   -5.3964901    1013.6285  0.042596594   0.04287322            6 
 1984000   0.93046631   -5.4030524    1014.9353  0.042630011   0.04286182            4 
 1985000   0.92639284   -5.3563363    1014.7727  0.042601709  0.042850429            6 
 1986000   0.91527026   -5.3733652    1015.9037  0.042627713   0.04283905            4 
 1987000   0.95142344   -5.3968265    1014.8027  0.042560085  0.042827675            5 
 1988000   0.93977655   -5.4187888    1009.5412  0.042318126  0.042816222            9 
 1989000   0.93400641   -5.3900594    1012.3833  0.042415927  0.042804878            2 
 1990000   0.94025353   -5.4012518    1008.6498  0.042238268  0.042793447            4 
 1991000   0.93850077   -5.4282236    1011.8017  0.042348976  0.042782114            4 
 1992000   0.93150438   -5.3580064     1015.122  0.042466616  0.042770942            7 
 1993000   0.94297159   -5.3838998    1017.1315   0.04252933  0.042759917            4 
 1994000   0.94036275   -5.3684288    1016.2909  0.042472874  0.042748825            7 
 1995000   0.90936436   -5.3646618     1017.152  0.042487553   0.04273781            5 
 1996000   0.94141147   -5.4002619    1018.3243   0.04251521  0.042726858            8 
 1997000   0.93628464   -5.4147254    1013.3809  0.042287636  0.042715786            3 
 1998000    0.9303837   -5.4138761    1014.4034  0.042309118  0.042704711            2 
 1999000   0.94716727   -5.4084194    1016.3405  0.042368704  0.042693409            7 
 2000000   0.92816054   -5.4426887    1014.4365  0.042268186   0.04268227            5 
 2001000   0.95768645   -5.3744413     1017.942  0.042393054  0.042671148            2 
 2002000   0.92448386   -5.3824571    1018.6706  0.042402207  0.042660153            8 
 2003000     0.946701   -5.4133431    1018.1598  0.042359786  0.042648935            6 
 2004000   0.92577988   -5.4200814    1016.6295  0.042275013  0.042637786            3 
 2005000   0.92445879   -5.3983876    1019.1249  0.042357644  0.042626694            8 
 2006000    0.9213674   -5.3687067    1022.2906  0.042468036    0.0426156            3 
 2007000   0.92653065   -5.4029847    1017.0732  0.042230243  0.042604386            6 
 2008000   0.93458552   -5.4228777     1020.912  0.042368526  0.042593263            4 
 2009000   0.92865032   -5.4344979    1019.9558  0.042307773  0.042581976            3 
 2010000   0.94499452   -5.4041003    1015.6267  0.042107245   0.04257079            4 
 2011000   0.95972813   -5.3927647    1019.7883  0.042258755  0.042559684            4 
 2012000    0.9037245   -5.4089549    1019.6021   0.04223004  0.042548626            4 
 2013000   0.92267799   -5.3950984    1022.9206  0.042346439  0.042537584            5 
 2014000   0.92080256   -5.3931052    1022.0404  0.042288995  0.042526584            4 
 2015000   0.91324717   -5.4066699    1021.2862  0.042236817  0.042515649            4 
 2016000     0.920808   -5.4457197    1020.4974  0.042183261   0.04250473            4 
 2017000   0.93471085   -5.4073032    1023.5191  0.042287187  0.042493696            9 
 2018000   0.92731122   -5.3902092    1022.9448  0.042242516  0.042482724            5 
 2019000   0.92567708   -5.4030371    1025.9375  0.042345118  0.042472083            2 
 2020000   0.92088075   -5.4464894    1022.0749  0.042164807  0.042461195            4 
 2021000   0.93818442   -5.3983024    1022.4424  0.042159097  0.042450177            5 
 2022000   0.94408033   -5.4118981    1019.5916  0.042020754   0.04243922            4 
 2023000   0.93065704   -5.3843814    1024.3092  0.042194314  0.042428193            9 
 2024000   0.92184279   -5.4033945    1022.8327  0.042112678  0.042417196            5 
 2025000   0.94132392   -5.4262866     1021.174  0.042023621  0.042406139            6 
 2026000   0.92901056   -5.4168319    1023.4446  0.042096272  0.042395184            4 
 2027000   0.92038738   -5.4122034    1025.1361  0.042145044  0.042384119            3 
 2028000   0.93543993   -5.4448768    1025.1424  0.042124523  0.042372968            5 
 2029000   0.93782287   -5.4116107    1026.8409  0.042173522  0.042361886            4 
 2030000   0.93507531   -5.4013702    1028.0022  0.042200419   0.04235099            4 
 2031000   0.91938504   -5.4324931    1025.0111  0.042056912  0.042339947            3 
 2032000   0.92987925   -5.4070839    1026.6543  0.042103606  0.042328927            3 
 2033000   0.90855442   -5.4088016    1027.8064  0.042130121  0.042318031            4 
 2034000   0.90954425   -5.3857766    1028.0411  0.042119021  0.042307193            3 
 2035000   0.94947331   -5.3955544    1029.5402  0.042159715  0.042296374            3 
 2036000   0.92078769   -5.4465094    1027.4611   0.04205391  0.042285528            6 
 2037000   0.93179682   -5.4157756    1030.7014  0.042165824   0.04227453            4 
 2038000   0.93986572   -5.4357989    1028.2851  0.042046333  0.042263625            3 
 2039000   0.92162183   -5.4462055    1026.0883   0.04193593  0.042252724            6 
 2040000   0.94269584   -5.4282955     1030.047  0.042077083   0.04224183            5 
 2041000   0.91411502   -5.4462783    1030.0156  0.042055186  0.042231082            4 
 2042000   0.91564199   -5.4132353    1033.0974  0.042160357    0.0422201            5 
 2043000   0.93110011   -5.4084528    1030.9924  0.042053858  0.042209183            5 
 2044000   0.91924206   -5.4470519    1031.0491  0.042035597  0.042198286           17 
 2045000   0.91561944    -5.381015    1033.1818  0.042101949  0.042187629            5 
 2046000   0.92706615   -5.4163243    1033.9137  0.042111179  0.042177063            5 
 2047000   0.90324612   -5.4047998    1033.9951  0.042093924  0.042166546            9 
 2048000   0.91460438   -5.4382848    1033.4819  0.042052485  0.042155819            5 
 2049000   0.90154386   -5.4225427    1032.7944     0.042004  0.042145187            3 
 2050000   0.91795144   -5.4093885     1030.919  0.041907276  0.042134292           11 
 2051000   0.91428845   -5.4074209    1035.3862  0.042068348  0.042123471            3 
 2052000   0.90975158   -5.4249731     1031.197  0.041877722  0.042112748            5 
 2053000   0.93809037   -5.4215182    1030.3182  0.041821652   0.04210197            3 
 2054000    0.8991694   -5.4279658    1036.9417  0.042070015  0.042091289            4 
 2055000   0.91868901    -5.416186    1033.6443  0.041915829  0.042080674            3 
 2056000   0.92470489   -5.3956378    1032.4547  0.041847224  0.042069977            4 
 2057000   0.92088172   -5.4371544    1033.1242  0.041854003  0.042059375            3 
 2058000   0.90687598   -5.4333504    1033.7224   0.04185789  0.042048644            4 
 2059000   0.92251983   -5.4059154    1038.3785  0.042026002  0.042037953            3 
 2060000   0.93106442   -5.4106103    1036.5207  0.041930447   0.04202736            2 
 2061000   0.90718962   -5.4239737     1038.268  0.041980755   0.04201685            6 
 2062000   0.93227553   -5.4211873    1040.8141  0.042063293  0.042006357            3 
 2063000   0.91239387   -5.4010663    1036.2893  0.041860125  0.041995769            5 
 2064000   0.92212876   -5.4499634    1037.3776  0.041883787  0.041985225            3 
 2065000   0.92545144   -5.4413717    1034.5584  0.041749735  0.041974633            8 
 2066000   0.92578458   -5.3938794     1041.917   0.04202634  0.041964082            6 
 2067000   0.89507806   -5.3998681    1040.6667    0.0419556  0.041953656            8 
 2068000    0.9203987   -5.4189821     1041.378  0.041963975  0.041943317            2 
 2069000   0.91708103   -5.4478049    1036.2601   0.04173756  0.041933099            8 
 2070000   0.92735872   -5.4040035    1040.5181  0.041888812  0.041922667            6 
 2071000   0.90973609   -5.3777376     1040.522  0.041868742  0.041912205            4 
 2072000   0.94720411   -5.4243877    1038.5029  0.041767329  0.041901831            6 
 2073000   0.91142579   -5.4417675    1039.1798  0.041774393  0.041891175            6 
 2074000   0.89774185   -5.4218531    1039.5946  0.041770916   0.04188051            2 
 2075000   0.92432664   -5.4361099    1039.4657   0.04174561  0.041869952            3 
 2076000   0.91161636   -5.4420874    1041.6713  0.041814038  0.041859357           10 
 2077000   0.91882385   -5.4173584    1044.8925  0.041923145  0.041848767            5 
 2078000   0.90547132   -5.4238697    1041.4683  0.041765651  0.041838167            4 
 2079000    0.9272552   -5.4011048    1042.3053  0.041779113  0.041827573            4 
 2080000   0.90586377   -5.4544349    1038.7761  0.041617631  0.041816913            3 
 2081000   0.91119489   -5.4602807    1038.5891  0.041590144  0.041806399            4 
 2082000   0.91075471    -5.425104    1046.1205  0.041871619  0.041795923            2 
 2083000   0.91837669   -5.4433524    1042.5723  0.041709566  0.041785526            6 
 2084000   0.91182842   -5.4365873    1039.1253  0.041551717  0.041774926           10 
 2085000   0.91987065   -5.4181023    1043.8217  0.041719492  0.041764356            6 
 2086000   0.93437782   -5.4129117    1044.5578  0.041728899  0.041754073            2 
 2087000   0.92892144   -5.4302775      1045.28  0.041737742  0.041743619            4 
 2088000   0.92166003   -5.4310652    1043.8086  0.041659027  0.041733031            5 
 2089000   0.93110349   -5.4156548      1043.38  0.041621987  0.041722635            3 
 2090000   0.91447844   -5.4607111    1045.5699  0.041689389  0.041712176            5 
 2091000   0.91658281   -5.4211995    1045.6112    0.0416711  0.041701895            8 
 2092000   0.92030724   -5.4503135     1042.692  0.041534893  0.041691393            3 
 2093000   0.89040066   -5.4288893    1044.3176  0.041579774  0.041680975            5 
 2094000   0.91487042   -5.4618133    1041.8825  0.041463009  0.041670676           10 
 2095000   0.92791575   -5.4277155    1047.8743  0.041681555  0.041660348            4 
 2096000   0.92787429   -5.4301937    1048.2712  0.041677448  0.041650192            2 
 2097000   0.91808928   -5.4174792    1049.4412   0.04170407  0.041639839            3 
 2098000   0.93547487    -5.427848    1044.4593  0.041486308  0.041629597            6 
 2099000   0.92879794    -5.450165    1048.1519  0.041613144  0.041619316            2 
 2100000   0.92011193   -5.4299924    1048.7822  0.041618343  0.041609242            3 
 2101000    0.9161359   -5.4499603    1046.6421   0.04151365  0.041599004            5 
 2102000   0.90607727   -5.4337359    1049.7182   0.04161585  0.041588698            3 
 2103000   0.89642577   -5.4149806    1047.8082  0.041520376  0.041578331            8 
 2104000   0.89998777   -5.4739374    1050.3876  0.041602805  0.041567921            6 
 2105000   0.89180805   -5.4090757    1050.3493  0.041581525   0.04155776            4 
 2106000   0.90508269   -5.4201331    1053.5167  0.041687113  0.041547763            4 
 2107000   0.92038405   -5.4171491    1052.4881  0.041626645   0.04153756            1 
 2108000   0.92899116   -5.4396298     1049.084  0.041472327  0.041527301            6 
 2109000   0.91669289   -5.4000796     1052.734  0.041596886  0.041516941            4 
 2110000   0.93103769   -5.4495839    1051.3972  0.041524375  0.041506804            3 
 2111000   0.91982246   -5.4077239    1053.2717  0.041578704  0.041496625            5 
 2112000   0.92699571   -5.4691492    1050.8221  0.041462364  0.041486282            4 
 2113000    0.9256388   -5.4067288    1052.8866  0.041524159  0.041476051            5 
 2114000   0.89382785   -5.4181882    1053.6676  0.041535304  0.041465857            4 
 2115000   0.91491064   -5.4631599    1049.2007  0.041339666  0.041455592            5 
 2116000   0.92148922   -5.4296706    1053.4911  0.041489096  0.041445355            6 
 2117000   0.91786047    -5.410114    1056.6719  0.041594706  0.041435166            5 
 2118000   0.89979336   -5.4351273    1051.1048  0.041356026  0.041425004            4 
 2119000   0.90423154   -5.4561192    1055.4597  0.041507774  0.041414848            3 
 2120000   0.90475371    -5.437979    1054.4017  0.041446607  0.041404603            5 
 2121000   0.92751264   -5.4394411    1054.7516  0.041440813  0.041394515            2 
 2122000   0.90536516   -5.4642374    1054.8878  0.041426635  0.041384476            4 
 2123000   0.91649441   -5.4610801    1056.9976  0.041489937  0.041374482            4 
 2124000   0.92806242   -5.4476271    1055.2814  0.041403069  0.041364319            8 
 2125000   0.91438491   -5.4158866    1056.8757  0.041446107  0.041354357            9 
 2126000   0.91121558     -5.44591    1056.2932  0.041403778   0.04134436            6 
 2127000   0.90872046   -5.4638911    1057.3007  0.041423787  0.041334273            6 
 2128000   0.89466209   -5.4105639    1060.2633  0.041520335  0.041324225            3 
 2129000    0.8999247   -5.4619201    1055.5265  0.041315424    0.0413141            3 
 2130000   0.92836774   -5.4504162    1057.6698  0.041379881  0.041303988            3 
 2131000    0.9020634   -5.4123273    1059.8092  0.041444128  0.041294137            4 
 2132000   0.91655415   -5.4360892    1058.4818  0.041372801  0.041284242            3 
 2133000   0.91370342   -5.4559383     1056.189  0.041263829  0.041274246            4 
 2134000   0.93216783   -5.4210443    1064.1571  0.041555649  0.041264274            4 
 2135000   0.91387102   -5.4650558    1059.7947  0.041365911  0.041254264            3 
 2136000   0.92097231   -5.4499394    1057.9453  0.041274394  0.041244215            4 
 2137000   0.92048297    -5.426087    1061.9693  0.041411997   0.04123409            7 
 2138000   0.90986117   -5.4817373    1055.8106  0.041152581  0.041224019            3 
 2139000   0.92178078   -5.4812193    1057.3517   0.04119338  0.041213941            4 
 2140000   0.90253091   -5.4454374    1058.3969  0.041214833  0.041203921            5 
 2141000   0.87312279   -5.4479203    1062.6846  0.041362471  0.041193946            4 
 2142000   0.89705746   -5.4440073    1058.4304  0.041177653  0.041184051            2 
 2143000   0.90397652   -5.4493624    1064.6107  0.041398768  0.041174291            4 
 2144000   0.89043286   -5.4298445    1064.2644  0.041365997  0.041164521            6 
 2145000   0.90826019   -5.4402772    1064.0678  0.041339076  0.041154682            6 
 2146000   0.89877615   -5.4623592    1063.5105  0.041298173  0.041144896            5 
 2147000   0.90292398   -5.4441233    1065.8546   0.04136992  0.041135149            5 
 2148000   0.90850457   -5.4475199    1064.4401  0.041295784  0.041125429            4 
 2149000   0.89994955   -5.4155548    1066.9959  0.041375673  0.041115865            6 
 2150000   0.91145824   -5.4510719    1064.3963  0.041255672    0.0411061            6 
 2151000   0.90765001    -5.456496    1066.5955  0.041321692  0.041096474            5 
 2152000   0.92081193    -5.442052    1068.4664  0.041374939  0.041086729            2 
 2153000   0.91553095   -5.4506324    1067.2762  0.041309654  0.041077004            4 
 2154000   0.90474578   -5.4270114    1067.1945  0.041287316  0.041067237            6 
 2155000   0.90842229   -5.4504298    1066.2866  0.041233047   0.04105752            2 
 2156000   0.91039661   -5.4515245    1067.1932  0.041248963  0.041047741            2 
 2157000   0.89914499   -5.4272975    1070.2145  0.041346566  0.041037871            4 
 2158000   0.91719465   -5.4316933    1072.3934  0.041411546  0.041028114            6 
 2159000   0.93436092   -5.4529544    1066.6068  0.041169012   0.04101839            3 
 2160000   0.92774994   -5.4506118    1068.5633  0.041225437  0.041008655            5 
 2161000   0.90646048   -5.4290944     1071.583  0.041322805  0.040999014            6 
 2162000   0.89705891   -5.4718313    1066.4991  0.041107737  0.040989346           11 
 2163000   0.90543284   -5.4842223    1070.6708  0.041249452  0.040979599            3 
 2164000   0.91887488   -5.4582442    1072.0564  0.041283749  0.040969976            7 
 2165000   0.88548979   -5.4436454    1071.0991  0.041227833   0.04096049            7 
 2166000   0.90710611   -5.4430981    1073.5344  0.041302492  0.040950945            7 
 2167000   0.92717898   -5.4540595    1071.0476    0.0411878  0.040941552            3 
 2168000      0.89344   -5.4711182    1073.0987  0.041247642  0.040932039            3 
 2169000   0.90765466   -5.4766371    1073.8741  0.041258418  0.040922573            6 
 2170000   0.91755387   -5.4304893    1073.3606  0.041219685  0.040913215            3 
 2171000   0.90815211    -5.462273    1073.4094  0.041202571  0.040903892            4 
 2172000   0.90131617    -5.462771    1075.1137  0.041248992  0.040894575            4 
 2173000   0.90548311   -5.4650694    1074.1367  0.041192541  0.040885164            7 
 2174000    0.8929219   -5.4737748    1074.6783  0.041194354  0.040875749            4 
 2175000   0.89878097   -5.4605134    1076.3301  0.041238702  0.040866409            7 
 2176000   0.89868466   -5.4498426    1079.2107  0.041330067  0.040857121            3 
 2177000   0.89374843   -5.4709858    1075.5642  0.041171497   0.04084776            2 
 2178000   0.89188967   -5.4970791    1074.3892  0.041107638   0.04083821            4 
 2179000   0.90221119    -5.437389    1075.1713  0.041118683  0.040828787            4 
 2180000   0.89384725   -5.4664288    1077.5398   0.04119036  0.040819454            4 
 2181000   0.90895248   -5.4670002    1072.4444  0.040976782  0.040810013            6 
 2182000   0.91090528    -5.453041    1079.1133    0.0412127  0.040800626            4 
 2183000   0.88681716   -5.4724652    1074.6114  0.041021964  0.040791258            3 
 2184000   0.90567194   -5.4709004    1080.4146  0.041224609  0.040781801            2 
 2185000   0.88936061   -5.4847378    1075.3625  0.041013061  0.040772356            7 
 2186000   0.90463492   -5.4713817    1074.2621  0.040952351  0.040762828            6 
 2187000   0.91099978   -5.4604471     1075.904   0.04099619   0.04075312            7 
 2188000   0.89644048   -5.4508826    1074.9249  0.040940162   0.04074358           10 
 2189000   0.90862577   -5.4477333    1080.0549  0.041116753  0.040734084            4 
 2190000   0.88374637   -5.4584055    1077.6465  0.041006337  0.040724597            6 
 2191000   0.91110177   -5.4671971    1073.3548  0.040824386  0.040715031            6 
 2192000   0.91679212   -5.4287119    1078.6509  0.041007104  0.040705515            3 
 2193000   0.89873027   -5.5115711    1076.0539  0.040889721  0.040695858           15 
 2194000   0.93052327   -5.4894754    1078.0225  0.040945857  0.040686331            5 
 2195000   0.89542259    -5.451065    1076.5836  0.040872576    0.0406767            7 
 2196000   0.89567059   -5.4843271    1079.3919  0.040960531  0.040666937            7 
 2197000   0.90114423   -5.4451499    1077.1426  0.040856569  0.040657346            5 
 2198000   0.91019425   -5.5021668    1078.3679  0.040884435  0.040647791            2 
 2199000   0.91519367   -5.4781805    1080.8832  0.040961165  0.040638055            6 
 2200000   0.89803529   -5.4388378    1080.0895  0.040912482   0.04062842            4 
 2201000   0.89711462   -5.4727707    1078.2465  0.040824113  0.040618869            7 
 2202000   0.91617066    -5.477027    1080.7227  0.040899283  0.040609305            6 
 2203000   0.88319953   -5.4611808     1079.036  0.040816915  0.040599723            2 
 2204000   0.90237259   -5.4679779    1078.7198  0.040786441  0.040590246            4 
 2205000   0.88925408   -5.4822987    1079.5335  0.040798697  0.040580577            4 
 2206000   0.90263732   -5.4910576      1077.85  0.040716607  0.040570831            2 
 2207000   0.91019996   -5.4613413    1084.3515  0.040943646  0.040561238            4 
 2208000   0.90022323   -5.4537793     1077.667  0.040672819  0.040551516           15 
 2209000    0.9014114   -5.4944221    1078.5794  0.040688825  0.040541762            6 
 2210000   0.91507096   -5.4910438    1082.0877  0.040802704  0.040532158            7 
 2211000   0.86305391    -5.481397    1081.2787  0.040753758  0.040522404            4 
 2212000   0.91111842   -5.4751882    1077.9764  0.040610925  0.040512693            5 
 2213000    0.8980258   -5.5111088    1079.6326  0.040654941   0.04050281            5 
 2214000   0.89366235   -5.5026144    1076.3079  0.040511437  0.040493099            5 
 2215000   0.90836759   -5.4934118    1079.2226  0.040602806  0.040483359            6 
 2216000   0.88374409   -5.5052918    1078.3858  0.040553015  0.040473653            4 
 2217000   0.90219987   -5.5014669    1080.8243  0.040626384  0.040463973            6 
 2218000   0.91196602   -5.5075504    1079.8806  0.040572609  0.040454303            8 
 2219000   0.89828373   -5.5114849    1079.8986  0.040555004   0.04044455            7 
 2220000   0.87752984   -5.4711714    1083.3644  0.040666833  0.040434786            5 
 2221000   0.90838433   -5.4640729    1083.9857  0.040671831  0.040425053           15 
 2222000   0.89278073   -5.4573965    1083.9718  0.040653007  0.040415312            6 
 2223000   0.88315286   -5.4694763    1085.4359  0.040689603  0.040405737            2 
 2224000   0.90235647   -5.4853339    1083.5435  0.040600401   0.04039625            6 
 2225000   0.89903459   -5.4910662    1086.6544  0.040698666  0.040386715            3 
 2226000    0.9051251   -5.4578737    1085.3106  0.040630076  0.040377119            4 
 2227000   0.88978989   -5.4712238     1086.364  0.040651248  0.040367537            4 
 2228000   0.88761028   -5.4852991    1085.5606  0.040602955  0.040357987            4 
 2229000   0.90719882   -5.4618489    1088.2569  0.040685543  0.040348457            5 
 2230000   0.91326773   -5.4927175    1087.2621  0.040630122  0.040338947            5 
 2231000   0.90182658   -5.4864715    1083.4997  0.040471378  0.040329439            2 
 2232000   0.89439318   -5.5133087    1084.7926  0.040501516  0.040319786            6 
 2233000   0.89035419   -5.4747252    1087.2035  0.040573351  0.040310138            5 
 2234000   0.89886413   -5.4980724    1083.7625  0.040426833  0.040300553            7 
 2235000   0.90443027   -5.4914471     1082.864  0.040375244  0.040290817            5 
 2236000   0.89789592   -5.4885731     1085.249  0.040446072  0.040281075            3 
 2237000   0.88333761   -5.4607557    1088.7195  0.040557274  0.040271455            4 
 2238000   0.90968951   -5.5216573    1082.2471  0.040298149   0.04026187            3 
 2239000   0.89755863   -5.4575955    1085.9037  0.040416247  0.040252241            4 
 2240000   0.89387898   -5.4958234    1086.6832  0.040427202  0.040242574            7 
 2241000   0.90114331   -5.4890041    1085.7069  0.040372856  0.040232828            6 
 2242000   0.88341976   -5.5090343    1090.7365  0.040541798  0.040223157            4 
 2243000   0.88702416   -5.4562981    1091.1978  0.040540861  0.040213565            4 
 2244000   0.88357653   -5.4998016    1086.4341   0.04034589  0.040204165            7 
 2245000   0.90644502   -5.4743211    1093.2215  0.040579861  0.040194831            8 
 2246000   0.90042329   -5.5010353    1092.1137  0.040520692  0.040185353            3 
 2247000   0.90185221   -5.4863368    1092.8047  0.040528287    0.0401759            5 
 2248000    0.8887548   -5.4439755    1093.1339  0.040522462  0.040166486           11 
 2249000   0.90082176   -5.4786192    1093.1036  0.040503321  0.040157173            5 
 2250000   0.88316607   -5.4732632     1095.707  0.040581742  0.040147786            4 
 2251000   0.90311582   -5.5004187    1089.9249  0.040349655  0.040138483            3 
 2252000   0.90679553   -5.4900548    1094.7108  0.040508836  0.040129107            6 
 2253000   0.89439982   -5.4852729    1093.6747  0.040452534  0.040119855            8 
 2254000   0.87369923   -5.4980518    1098.0729  0.040597194  0.040110596            7 
 2255000   0.87762522   -5.4773492     1091.893  0.040350812  0.040101336            3 
 2256000    0.8972272   -5.4999214    1097.9288   0.04055588  0.040091988            9 
 2257000   0.91547602   -5.5049339    1096.7342  0.040493805  0.040082765            4 
 2258000   0.89228282   -5.4919496    1093.3458   0.04035082  0.040073419            4 
 2259000   0.90056932   -5.4994614    1097.2767  0.040477966  0.040064157            3 
 2260000   0.91829458   -5.4960106    1096.0001  0.040412984  0.040054984            4 
 2261000   0.89925793   -5.4790712    1097.4471   0.04044844  0.040045748            7 
 2262000   0.86699235   -5.4955544    1096.2171  0.040385247  0.040036428            6 
 2263000   0.88688373   -5.5118511    1096.2871  0.040369979   0.04002702            6 
 2264000   0.88251797   -5.4895504    1096.7429  0.040368924  0.040017656            4 
 2265000   0.87447955   -5.4791565      1099.31  0.040445548  0.040008425            7 
 2266000   0.90265332   -5.4719213    1103.3166  0.040575043   0.03999934           11 
 2267000   0.87111142    -5.544622    1095.5316  0.040270975  0.039990076            6 
 2268000   0.86922457   -5.4921322    1100.0705  0.040419993  0.039980839            4 
 2269000   0.88568212   -5.5137483    1097.9764   0.04032527  0.039971509            5 
 2270000   0.90670899    -5.492997    1097.5213  0.040290798  0.039962181            4 
 2271000   0.88700971   -5.5000135    1096.6606  0.040241473  0.039952872            4 
 2272000   0.88309242   -5.5221589    1095.7061  0.040188749  0.039943598            5 
 2273000   0.88263105   -5.5152358    1097.4744  0.040235898  0.039934366            3 
 2274000   0.88107167   -5.5100499    1099.5663  0.040294867  0.039925136            2 
 2275000     0.888018   -5.4953372    1100.9244  0.040326902  0.039915967            2 
 2276000    0.8962103   -5.4860194    1099.7591  0.040266516  0.039906835            4 
 2277000   0.88475688   -5.4888701    1103.1575  0.040373206  0.039897662            4 
 2278000    0.8815084   -5.4895286    1103.1355  0.040354679  0.039888485            6 
 2279000   0.90355327   -5.5167924     1100.512   0.04024104  0.039879352            4 
 2280000   0.88185641   -5.5335894    1099.0434  0.040169714  0.039870166            6 
 2281000    0.8935611   -5.4724474    1104.6714  0.040357716  0.039860934            6 
 2282000   0.87763025   -5.5004108    1100.5794  0.040190599  0.039851514            7 
 2283000   0.88167299   -5.5082303    1103.8061  0.040290775  0.039842293            4 
 2284000   0.89065723    -5.521501    1101.5314   0.04019014  0.039833087            2 
 2285000   0.88960933   -5.5114988    1102.9118  0.040222896  0.039823942            7 
 2286000   0.90955966   -5.5269625    1100.5057  0.040117589  0.039814826            4 
 2287000   0.89590452   -5.4917439    1102.8839  0.040186703    0.0398058            5 
 2288000   0.88339525   -5.5176901    1102.2969  0.040147759  0.039796544            9 
 2289000   0.88727152   -5.4872307    1101.4566  0.040099629  0.039787261            4 
 2290000   0.90143916   -5.4991205    1104.2042  0.040182105  0.039777923            3 
 2291000   0.89172358   -5.5109225    1100.4448   0.04002782  0.039768663            5 
 2292000   0.88381138   -5.5224337    1103.8974  0.040135887  0.039759443            6 
 2293000   0.87234351   -5.4990704    1103.7225  0.040112026  0.039750272            4 
 2294000   0.87236657   -5.5068576    1103.6927  0.040093456   0.03974105            3 
 2295000   0.90164345   -5.5198534    1101.3993  0.039992713  0.039731956            4 
 2296000   0.89290152   -5.5028756    1103.0848  0.040036471  0.039722724            5 
 2297000   0.88000202   -5.5162713    1104.7081   0.04007793  0.039713412            3 
 2298000   0.88344025   -5.4864855     1107.349  0.040156259  0.039704267            5 
 2299000   0.88831928    -5.549078    1099.7879  0.039864721  0.039694888            5 
 2300000   0.89187584   -5.4884837    1104.9158  0.040033181  0.039685565            6 
 2301000   0.87396131   -5.4875954    1106.4512  0.040071388  0.039676196            4 
 2302000   0.87945154   -5.5080205    1104.0758  0.039967991  0.039666788            5 
 2303000   0.89344712   -5.4804823    1109.5128  0.040147375  0.039657457            6 
 2304000   0.87364519   -5.5060799     1103.276  0.039904369  0.039648101            4 
 2305000   0.88039066   -5.5400061    1098.8323  0.039726403  0.039638745            6 
 2306000   0.87767952   -5.5028761    1103.7834  0.039888096  0.039629325            3 
 2307000   0.87116761   -5.5003525    1105.3078  0.039925872  0.039620076            3 
 2308000   0.88372667   -5.5186272    1107.8982    0.0400021  0.039610797            5 
 2309000   0.89115443   -5.5326592    1104.9773  0.039879361  0.039601525           10 
 2310000   0.87752856   -5.5094884    1103.4855  0.039808281  0.039592173            5 
 2311000   0.86562886   -5.5229872    1105.0481  0.039847401  0.039582883            5 
 2312000   0.88003987    -5.520673     1106.442  0.039880405  0.039573543            5 
 2313000   0.84850951   -5.5311865    1104.1011  0.039778826  0.039564179            5 
 2314000   0.89175777   -5.5479901     1105.233  0.039802398  0.039554739            4 
 2315000   0.88722345   -5.5203435     1105.647  0.039800106  0.039545482            9 
 2316000   0.89964657   -5.5094128    1107.9033   0.03986411  0.039536308            5 
 2317000   0.87465468   -5.5030357    1109.3265  0.039898091   0.03952696            5 
 2318000    0.8747912   -5.5643988    1107.0431  0.039798789  0.039517524            5 
 2319000   0.89083602   -5.5331112    1108.0823   0.03981897  0.039508163            7 
 2320000   0.88205913    -5.496734    1110.5529  0.039890551  0.039498919            7 
 2321000   0.88130108   -5.5147529    1108.8268   0.03981139   0.03948959            5 
 2322000   0.88636422   -5.5293525    1108.0495  0.039766349  0.039480238            3 
 2323000   0.86859976   -5.5187286    1113.3225  0.039938386  0.039470865            8 
 2324000   0.88098766   -5.5446771    1108.4077  0.039744971  0.039461372            5 
 2325000   0.88486733   -5.5055259    1107.9834  0.039712666  0.039452038            4 
 2326000   0.86123105   -5.4951322    1110.5455  0.039787385  0.039442605            5 
 2327000   0.86276346   -5.5128225    1111.0534  0.039788475  0.039433185            6 
 2328000   0.86909344   -5.5023832    1112.8236  0.039834752  0.039423671            4 
 2329000   0.86904417   -5.5120066    1108.5438  0.039664513  0.039414131            3 
 2330000   0.87407859   -5.4818716    1110.2404  0.039708168  0.039404712            2 
 2331000   0.89969172   -5.5001442     1108.432  0.039626485  0.039395295            7 
 2332000   0.86849119   -5.5022364    1106.3825  0.039536253  0.039385783            8 
 2333000   0.86870732   -5.5256397    1107.3717  0.039554639  0.039376124           11 
 2334000   0.88598867   -5.5002131    1108.3262  0.039571771  0.039366527            9 
 2335000   0.89172649   -5.5197055    1106.8164  0.039500942  0.039357015            7 
 2336000   0.86363722   -5.5175608    1111.0479  0.039634986  0.039347357            5 
 2337000   0.89867903    -5.503395    1109.5797  0.039565673  0.039337882            3 
 2338000   0.86370496   -5.5189301    1112.0635   0.03963728  0.039328318            6 
 2339000   0.88469994   -5.4905266    1110.6765  0.039570916  0.039318689            3 
 2340000    0.8760444   -5.4947533    1111.2749  0.039575319  0.039309111            6 
 2341000   0.85491314   -5.5376929     1106.041    0.0393721  0.039299505            7 
 2342000   0.86141067   -5.5416456    1109.9468  0.039494264  0.039289897            3 
 2343000   0.90726659    -5.520637    1109.9592  0.039477849  0.039280377           10 
 2344000   0.88285344   -5.5198271    1113.0181  0.039569757  0.039270905            9 
 2345000   0.88388972   -5.5433174    1113.2904  0.039562559  0.039261322            7 
 2346000    0.8885014   -5.5431764    1112.0028  0.039499957  0.039251737            5 
 2347000   0.86940527   -5.5059025    1112.8227   0.03951224  0.039242353            8 
 2348000    0.8727145   -5.5350925    1111.6457  0.039453637  0.039232899            6 
 2349000   0.88570564   -5.5289045    1111.4462  0.039429766  0.039223348            5 
 2350000   0.87579849   -5.5411784    1110.3001  0.039372344  0.039213833            5 
 2351000   0.88123224   -5.5245055    1115.4756  0.039539048  0.039204368            3 
 2352000   0.87866409   -5.5432884    1110.6669  0.039351861  0.039194873            7 
 2353000   0.87627724   -5.5172409    1116.8692  0.039554796  0.039185407            4 
 2354000   0.85859355   -5.5320622    1111.9543  0.039364002   0.03917598            7 
 2355000   0.88175999   -5.5365145     1117.503  0.039543631  0.039166554           18 
 2356000   0.87891881   -5.5217913    1115.1196  0.039442545  0.039157127            7 
 2357000   0.88107812   -5.5249518    1116.0766  0.039459644  0.039147758            4 
 2358000   0.86970144   -5.4965458     1115.533    0.0394237  0.039138513            8 
 2359000    0.8702388   -5.5118752    1117.1048  0.039462514  0.039129258            7 
 2360000   0.90143806   -5.5163644    1117.3745  0.039455315  0.039120001            3 
 2361000   0.85247982   -5.5447922    1116.6255  0.039412166   0.03911063            2 
 2362000   0.85401383   -5.5564294    1115.3189  0.039349384  0.039101257            5 
 2363000   0.86188365   -5.5368767    1118.5959  0.039448295  0.039091743            5 
 2364000   0.88073994   -5.5271854    1117.4725  0.039392007  0.039082226            3 
 2365000   0.86809286   -5.5731243     1117.888  0.039389991  0.039072767            6 
 2366000   0.87497386    -5.569627    1111.4493  0.039146567  0.039063208            5 
 2367000   0.86244361   -5.5565402    1116.1741  0.039296372  0.039053682            6 
 2368000   0.89560078   -5.5430018    1113.6802   0.03919201  0.039044061            5 
 2369000   0.88413723   -5.5629113    1116.4077  0.039271414  0.039034501            5 
 2370000   0.88041176   -5.5643523    1116.6221  0.039262382  0.039024883            8 
 2371000   0.89424582   -5.5035457    1120.3639  0.039377333  0.039015321            5 
 2372000   0.88717126   -5.5633693    1113.4972   0.03911949  0.039005858            6 
 2373000   0.87765163    -5.528732    1118.4154   0.03927572   0.03899631            4 
 2374000   0.89370731   -5.5600094    1116.7487  0.039200669  0.038986782            7 
 2375000   0.88323319   -5.5073665    1123.2951  0.039413864  0.038977232            8 
 2376000   0.86411015   -5.5374133     1121.695  0.039341155  0.038967764            6 
 2377000   0.88417185   -5.5363975    1120.1863  0.039271713  0.038958406            6 
 2378000   0.87612842   -5.5398646    1116.5797  0.039128808  0.038948927           14 
 2379000   0.87670829   -5.5221865    1118.7768  0.039189322  0.038939518            3 
 2380000   0.85539815   -5.5396265    1122.7013  0.039310271  0.038930068           13 
 2381000   0.88274234   -5.5210105    1121.0599  0.039236312  0.038920699            2 
 2382000   0.87292707     -5.51186    1120.5902  0.039203409  0.038911245            6 
 2383000   0.87843949   -5.5223828    1119.4322  0.039146461  0.038901881            4 
 2384000    0.8679933   -5.4772103    1122.6549  0.039242691  0.038892597            7 
 2385000   0.87098461     -5.54493    1122.9351  0.039236027  0.038883216            3 
 2386000   0.86322512   -5.5433023    1121.5242  0.039170307  0.038873703            7 
 2387000    0.8692032   -5.5291226    1120.0621  0.039102852  0.038864249            6 
 2388000   0.86076123   -5.5261262    1122.9634  0.039187724  0.038854732            7 
 2389000    0.8716099   -5.5017233    1125.5093  0.039260125  0.038845295            8 
 2390000   0.85850983   -5.5442169     1122.907  0.039152964  0.038835867            5 
 2391000   0.88764435   -5.5589198    1121.7902  0.039097664   0.03882625            9 
 2392000   0.85668264    -5.523452    1120.4164  0.039033458  0.038816806            6 
 2393000   0.86351702   -5.5610076    1121.8862  0.039068332  0.038807261            5 
 2394000   0.87337519   -5.5548246    1126.1437  0.039200212  0.038797845            3 
 2395000   0.86492794    -5.539137    1122.6394  0.039061913  0.038788423            9 
 2396000   0.85967912   -5.5579947    1123.2863   0.03906811  0.038779058            3 
 2397000   0.88529644   -5.5278638    1124.5995  0.039097466   0.03876963           10 
 2398000   0.87732761   -5.5393521    1122.8606  0.039020734  0.038760195           12 
 2399000   0.88098101   -5.5248066    1125.1789  0.039084997  0.038750852            2 
 2400000   0.85901099   -5.5634429    1127.6925  0.039155989  0.038741489            2 
 2401000   0.86737545   -5.5549882    1123.5096  0.038994503  0.038732162            6 
 2402000   0.85483218   -5.5240778    1124.8624    0.0390252  0.038722707            5 
 2403000   0.85797933   -5.5382357    1121.8918  0.038905942  0.038713251            8 
 2404000   0.86130308   -5.5615946    1127.7465  0.039092712  0.038703846            7 
 2405000   0.87308309    -5.551331    1126.4151  0.039030324  0.038694436            4 
 2406000   0.87291297   -5.5382854    1125.8272  0.038993738   0.03868494            5 
 2407000   0.85802876   -5.5423219    1126.1682  0.038989345   0.03867551            3 
 2408000   0.86543796   -5.5761718    1126.3568   0.03897968  0.038665998            9 
 2409000   0.85719701   -5.5499717    1125.6999  0.038940773  0.038656537            8 
 2410000   0.86062112   -5.5617486    1126.1701  0.038940876  0.038647055            5 
 2411000   0.84707535   -5.5744697    1120.9902  0.038745687  0.038637595            4 
 2412000   0.86874385   -5.5409853    1125.1038  0.038871744  0.038628141            8 
 2413000   0.85127406   -5.5396477    1124.8517  0.038846928  0.038618672            4 
 2414000   0.84895711   -5.5622294    1126.0803  0.038873251  0.038609163            2 
 2415000   0.86218588   -5.5325166    1129.7793  0.038984794  0.038599691            5 
 2416000    0.8758186    -5.540388    1125.7082  0.038828235    0.0385904            6 
 2417000   0.86879069   -5.5366496    1131.2275  0.039002465  0.038581035            4 
 2418000   0.87314938    -5.541248    1125.2926  0.038781796  0.038571547            6 
 2419000   0.87274269   -5.5461878    1129.0521  0.038895276  0.038562064            5 
 2420000   0.85429528    -5.543941     1129.812  0.038905373  0.038552624            3 
 2421000   0.86262273   -5.5600517    1126.8349  0.038786828  0.038543264            8 
 2422000    0.8727688   -5.5577509    1128.0493  0.038812597  0.038533894            4 
 2423000   0.87631488   -5.5508701    1128.7342  0.038820134  0.038524493            3 
 2424000   0.87284068   -5.5559843    1128.8894  0.038809455  0.038515163            6 
 2425000   0.85538468   -5.5692508    1127.9228  0.038760233  0.038505844            4 
 2426000   0.86142224   -5.4989539    1132.6566  0.038906864  0.038496498            5 
 2427000   0.85686793   -5.5529388    1127.9464  0.038729104  0.038487141            3 
 2428000   0.85193158   -5.5504966    1132.1325  0.038856825   0.03847778           33 
 2429000   0.88168049   -5.5019094      1132.11  0.038840056  0.038468415            3 
 2430000   0.85216301    -5.536211    1131.0543  0.038787869  0.038459227            5 
 2431000   0.84875574   -5.5414994    1131.1273  0.038774417  0.038449962            4 
 2432000   0.84868181   -5.5491304     1130.057  0.038721798  0.038440713            5 
 2433000   0.84571892    -5.546585    1133.2778  0.038816202  0.038431439            8 
 2434000   0.85972428   -5.5254709    1133.2484  0.038799245  0.038422123            7 
 2435000   0.86401237   -5.5641152    1133.1357  0.038779457  0.038412789            4 
 2436000   0.85144969   -5.5391293     1132.502  0.038741857  0.038403461            3 
 2437000   0.88647471   -5.5145516    1133.8268  0.038771264  0.038394124            4 
 2438000   0.84869615   -5.5547769    1132.8331  0.038721395  0.038384825            8 
 2439000   0.87685525    -5.551517    1131.8778  0.038672877  0.038375551            3 
 2440000   0.85084673   -5.5458221    1133.8502  0.038724392  0.038366148            4 
 2441000   0.86469069   -5.5896811    1131.5526  0.038630089  0.038356833            8 
 2442000   0.86594037   -5.5734765    1132.2184  0.038636991  0.038347472            5 
 2443000   0.85521641   -5.5614823    1134.4675  0.038697896  0.038338086            9 
 2444000    0.8405622   -5.5663991     1131.172  0.038569695  0.038328588            5 
 2445000   0.85353928   -5.5481175    1133.1895  0.038622684  0.038319174            4 
 2446000   0.88089597   -5.5628266    1132.7496  0.038591905  0.038309831           12 
 2447000   0.85557849   -5.5879525    1132.3073   0.03856107  0.038300452            5 
 2448000   0.87386671   -5.5987035    1131.5164  0.038518394   0.03829106            6 
 2449000   0.85616448   -5.5523318    1130.4225  0.038465446  0.038281579            4 
 2450000    0.8591115   -5.5789148    1132.4435  0.038518487  0.038272206            2 
 2451000   0.86445692   -5.5452968    1133.1244  0.038525923  0.038262874            7 
 2452000   0.86409739   -5.5310107    1134.4525  0.038555347  0.038253486            3 
 2453000   0.85807731   -5.5598178    1133.1316  0.038494753  0.038244135            4 
 2454000   0.87267477   -5.5878113    1131.9136  0.038437706  0.038234749            8 
 2455000   0.84838027   -5.5374469    1138.7376  0.038653685  0.038225331            7 
 2456000   0.85919585   -5.5754178    1134.8885  0.038507347  0.038215853            4 
 2457000   0.84489493   -5.6037882    1130.5974  0.038346133  0.038206331            7 
 2458000   0.85509907   -5.5750426    1133.4215  0.038426277  0.038196871           10 
 2459000     0.853887   -5.5576854    1135.6553  0.038486353  0.038187439            7 
 2460000   0.85428145   -5.5653834    1135.3017  0.038458729  0.038178012            5 
 2461000   0.85785056   -5.5494639    1137.1956  0.038507231  0.038168576           11 
 2462000   0.85451256    -5.555087    1135.1656   0.03842288  0.038159122            6 
 2463000   0.86851954   -5.5494335    1137.6842  0.038492495  0.038149614            5 
 2464000   0.86843647   -5.5941912    1132.2261  0.038292278  0.038140174            7 
 2465000   0.86952371   -5.5737182     1136.378  0.038417105  0.038130762            3 
 2466000   0.85384664   -5.5758263    1137.1542  0.038427758  0.038121326            5 
 2467000   0.85586927   -5.5517757    1137.9766  0.038439962  0.038111954            5 
 2468000   0.84767044   -5.5636436    1138.6863  0.038448349  0.038102587            4 
 2469000   0.86135154   -5.5679521    1138.9167  0.038440552  0.038093073            6 
 2470000   0.86088011    -5.575559    1135.2694  0.038301936  0.038083579           10 
 2471000   0.84712456   -5.5641633     1136.524  0.038328745  0.038074176            8 
 2472000   0.84948593   -5.5658225    1137.1261   0.03833354  0.038064761           12 
 2473000   0.84250437   -5.5754514    1138.5103  0.038364681  0.038055388            9 
 2474000   0.83589597   -5.5386446     1140.031  0.038400398  0.038045932            6 
 2475000   0.87628765   -5.5656099    1142.1882  0.038457515  0.038036561            8 
 2476000    0.8416734   -5.5853361    1138.8493  0.038329609  0.038027231            8 
 2477000   0.86665009   -5.5628287    1137.1548  0.038257127  0.038017786            5 
 2478000    0.8710956   -5.5768877    1140.3804   0.03835016  0.038008469            4 
 2479000   0.85501471   -5.5712536    1140.8787  0.038351441  0.037999122            5 
 2480000   0.84681102   -5.5954833    1135.5515  0.038156972  0.037989643            4 
 2481000   0.86518482   -5.5753247    1143.2148  0.038398991   0.03798024            5 
 2482000   0.84885309   -5.5580944    1142.4355  0.038357355  0.037970939            4 
 2483000   0.86230217   -5.6030306    1140.0149   0.03826067  0.037961684            9 
 2484000   0.85384623   -5.5831015    1138.5694  0.038196772  0.037952387            5 
 2485000   0.86914629   -5.5727085    1142.2776  0.038305755  0.037943066            6 
 2486000   0.86966091    -5.588435    1139.8407  0.038208659  0.037933679           11 
 2487000    0.8594832   -5.5634111    1143.4285  0.038313514  0.037924381            6 
 2488000   0.85666884   -5.5796346    1139.9214  0.038180648  0.037915038            4 
 2489000   0.85004582   -5.5720303    1142.0304  0.038235917  0.037905738            5 
 2490000   0.85778714   -5.5713744    1141.9099  0.038216528  0.037896444            4 
 2491000    0.8482131   -5.5898008    1142.0627  0.038206299  0.037887118            4 
 2492000   0.86328514   -5.5811707    1141.7309  0.038179872  0.037877659            4 
 2493000   0.85116924   -5.5875455    1137.6235  0.038027261  0.037868229            3 
 2494000   0.85960029   -5.5668074    1141.2882  0.038134461  0.037858745            7 
 2495000   0.84580114   -5.5508365     1139.645  0.038064294  0.037849385            4 
 2496000   0.85106977   -5.5627616    1139.2579  0.038036121  0.037839998           11 
 2497000   0.85200977   -5.5625446    1144.9183  0.038209796  0.037830568           10 
 2498000   0.84748716   -5.5709791    1140.9538  0.038062242  0.037821133            6 
 2499000   0.85135908   -5.5778336     1138.265  0.037957348  0.037811637            9 
 2500000   0.84503147    -5.569405    1141.0975  0.038036585  0.037802217            4 
 2501000   0.87328128   -5.5861748    1144.6878  0.038141005  0.037792747            4 
 2502000   0.86488044    -5.606559    1140.2006  0.037976306  0.037783304            5 
 2503000   0.84688389   -5.5744053    1143.6664  0.038076521  0.037773895            6 
 2504000   0.83555982   -5.5592665    1140.6981   0.03796253  0.037764545           10 
 2505000   0.85974696   -5.5379515    1146.0077  0.038124007  0.037755083            7 
 2506000   0.84948039   -5.5643049    1144.7644  0.038067451  0.037745742            7 
 2507000   0.86746026    -5.570965    1142.5502  0.037978665  0.037736439            6 
 2508000   0.84509145   -5.5471661    1145.7847  0.038070997   0.03772721            6 
 2509000   0.85004144   -5.5881702    1147.6633  0.038118219  0.037717899            4 
 2510000    0.8540981   -5.5508052    1145.2001  0.038021252  0.037708565            6 
 2511000   0.84388683   -5.5842424    1144.3741  0.037978698  0.037699264            7 
 2512000   0.84995894   -5.5611902    1148.5517  0.038102167  0.037689941            3 
 2513000   0.85834564   -5.5827964     1145.308  0.037979442  0.037680504           12 
 2514000   0.84609986   -5.5868312    1144.3749  0.037933402  0.037671151            4 
 2515000   0.85913083   -5.5790773    1144.9198  0.037936375  0.037661763            7 
 2516000   0.85597802   -5.5708022    1146.8741  0.037986025  0.037652505            3 
 2517000   0.86388421   -5.5765099    1146.3003  0.037951937  0.037643279            3 
 2518000   0.85484135    -5.583485    1150.8101  0.038086116  0.037634042           12 
 2519000   0.86117342   -5.5883717    1145.8601  0.037907241  0.037624646           14 
 2520000   0.85627083    -5.578333    1144.4101  0.037844251   0.03761533            5 
 2521000   0.84415738   -5.5431559    1150.3617  0.038025971  0.037606121            3 
 2522000    0.8599326   -5.5834278    1148.7278  0.037956905  0.037596906            8 
 2523000   0.83048757   -5.6016699    1143.5017  0.037769245  0.037587581            5 
 2524000   0.85341789    -5.560589    1146.2484  0.037844968   0.03757831            4 
 2525000   0.85003057   -5.5600753    1148.8443  0.037915653  0.037568925            6 
 2526000   0.85864794   -5.5897616    1147.0454  0.037841296  0.037559487            3 
 2527000   0.85965741    -5.583805    1148.5596  0.037876256  0.037550072            4 
 2528000   0.85547543   -5.6150231    1147.1403  0.037814488  0.037540724           11 
 2529000   0.85322284   -5.5566433    1149.8586  0.037889105  0.037531445            4 
 2530000   0.85083275   -5.5772812    1149.3921  0.037858764  0.037522049            5 
 2531000   0.84872627    -5.576393    1148.4363  0.037812338  0.037512637            8 
 2532000   0.84693742   -5.5589824    1149.8972  0.037845484  0.037503407            2 
 2533000   0.83740134   -5.5632734    1148.6181  0.037788461  0.037494126            7 
 2534000     0.838523   -5.6008583    1149.7021  0.037809198  0.037484867            4 
 2535000   0.85692246   -5.6193353    1148.2885  0.037747815  0.037475518            9 
 2536000   0.82957193   -5.5911491    1152.6663  0.037876783  0.037466258            4 
 2537000   0.83682137   -5.5956375     1147.472  0.037691236  0.037456913            7 
 2538000   0.84037421   -5.5874006    1150.7285  0.037783311  0.037447546            4 
 2539000   0.84944315   -5.5487976    1152.1288  0.037814387  0.037438237           10 
 2540000   0.83353515   -5.5578276    1152.8679  0.037823751  0.037428955            5 
 2541000   0.83388079   -5.5866369    1151.0205  0.037748278   0.03741964            5 
 2542000    0.8495127   -5.5922522    1149.9027  0.037696786  0.037410306            4 
 2543000   0.84620234   -5.5868699    1152.9599  0.037782144  0.037401007            4 
 2544000   0.84618922   -5.6045022     1150.637  0.037691203  0.037391633            5 
 2545000   0.83328908    -5.601643    1150.5889  0.037674815  0.037382221            7 
 2546000   0.85664516   -5.5570382    1153.9491  0.037770001  0.037372873            4 
 2547000   0.85505369   -5.5986264    1149.2835  0.037602523  0.037363631            9 
 2548000   0.85711123   -5.6117133    1152.9748  0.037708491  0.037354313            5 
 2549000   0.85470494   -5.5907734    1152.6026  0.037681529  0.037344993            4 
 2550000   0.85496325   -5.6335804    1149.9134  0.037578868  0.037335668            9 
 2551000   0.83787591   -5.6180273     1150.462  0.037582059  0.037326387            8 
 2552000    0.8318825   -5.5993531    1154.3043  0.037692799  0.037317097           12 
 2553000   0.83931055   -5.6116831    1152.9554  0.037634006  0.037307789            5 
 2554000   0.83816785   -5.5857627    1155.3873  0.037698619  0.037298489            3 
 2555000    0.8339585   -5.5781378    1156.2854  0.037713156  0.037289109            7 
 2556000   0.83865943   -5.6058479    1152.1226  0.037562683  0.037279829            6 
 2557000   0.83263208   -5.5749181    1155.9644  0.037673198  0.037270489           11 
 2558000   0.84970754   -5.6198973    1153.4753   0.03757738   0.03726109            5 
 2559000   0.84310817   -5.5766064    1158.5453  0.037727801  0.037251878            6 
 2560000   0.83461511   -5.6047461    1155.0814  0.037600307  0.037242599            7 
 2561000   0.81508215   -5.5875719    1152.5157  0.037502138  0.037233315            6 
 2562000   0.83584012   -5.6193335    1150.7264  0.037429302   0.03722396            4 
 2563000   0.84534533   -5.5880236    1154.1442  0.037525823  0.037214607            9 
 2564000   0.82974965   -5.5897416    1152.2809  0.037450627  0.037205346           12 
 2565000   0.84676725   -5.6535686    1152.9048  0.037456297  0.037195962            9 
 2566000     0.832037   -5.6392717    1154.2762  0.037486236  0.037186559            6 
 2567000   0.84548332   -5.6046474    1157.5185  0.037576889  0.037177197            4 
 2568000   0.83715732   -5.5863732    1153.6149  0.037435583  0.037167956            8 
 2569000   0.85260557   -5.5764466    1157.2457  0.037538785  0.037158635            2 
 2570000   0.83410009   -5.5949415    1156.3161  0.037494036  0.037149307            8 
 2571000   0.85351671   -5.5851983    1154.9271  0.037434432  0.037139872            4 
 2572000   0.85135344   -5.6065152     1157.664  0.037508553  0.037130511            5 
 2573000   0.84074695   -5.6157428    1153.6551  0.037364136   0.03712117            7 
 2574000   0.84428244   -5.6208558    1158.0064  0.037490496  0.037111843            3 
 2575000   0.84080751   -5.5997583    1154.9436  0.037376815  0.037102567            5 
 2576000   0.83930879   -5.6010274    1156.3102  0.037406514  0.037093267            7 
 2577000    0.8206657   -5.6097081    1155.8649    0.0373776  0.037084015           13 
 2578000   0.84595214   -5.5781601    1159.2999  0.037474138  0.037074822            8 
 2579000   0.83011229   -5.5886499    1158.3434  0.037428699  0.037065627            6 
 2580000   0.82957608   -5.5758641    1163.1321  0.037568865  0.037056486            5 
 2581000   0.83599432    -5.616186    1160.1611  0.037458386  0.037047366           14 
 2582000   0.82783389   -5.6115535    1159.2742  0.037415254  0.037038238           10 
 2583000   0.82368889   -5.5925182     1165.939  0.037615791  0.037029106            6 
 2584000    0.8334731   -5.5989228    1162.4008  0.037487127  0.037020037            3 
 2585000   0.83554332   -5.6046162    1159.9979  0.037395161  0.037010991            6 
 2586000   0.85463849   -5.6014823    1163.3729  0.037489458  0.037001926            8 
 2587000   0.83106739   -5.6347079    1160.9165  0.037395842  0.036992737            8 
 2588000   0.81521399   -5.5965848    1160.0815  0.037354504  0.036983631            8 
 2589000   0.83454684   -5.6156781    1160.8023  0.037363276  0.036974543            6 
 2590000   0.82090486   -5.6129682    1165.1669  0.037489282  0.036965458            5 
 2591000   0.83534569   -5.5979712    1164.0734  0.037439643  0.036956417            4 
 2592000   0.84256447   -5.5925109    1161.2433  0.037334212  0.036947316            4 
 2593000   0.81470269   -5.6330387    1161.2086  0.037318698  0.036938308            4 
 2594000   0.84349469   -5.6097345    1162.4219   0.03734329  0.036929239            8 
 2595000   0.82031987   -5.5764349    1167.6814  0.037497797  0.036920246            4 
 2596000   0.82079463    -5.562996    1164.6469  0.037385944    0.0369113            5 
 2597000   0.83061479   -5.6088923    1161.0846  0.037257238  0.036902326            8 
 2598000   0.84131787   -5.6057788    1165.5506   0.03738615  0.036893205            8 
 2599000   0.82549001   -5.6289131    1160.8736  0.037221804  0.036884043            9 
 2600000   0.84235011   -5.6220933    1162.2159  0.037250509  0.036874886            7 
 2601000   0.84116496   -5.5820419    1163.5816  0.037279943  0.036865767            8 
 2602000   0.84542083   -5.5720311    1166.5804  0.037361657  0.036856716            4 
 2603000   0.83998109   -5.5984104    1163.2067  0.037239299  0.036847624           10 
 2604000   0.84157057    -5.622506    1162.5264  0.037203224  0.036838572            4 
 2605000   0.82588786   -5.6081952    1163.9402  0.037234172  0.036829521            5 
 2606000   0.83039056   -5.6484629    1160.4711   0.03710895  0.036820366            5 
 2607000   0.84773575    -5.637669    1163.7378  0.037199137   0.03681115            4 
 2608000   0.82569063   -5.6102611    1163.7983  0.037186808  0.036801992            4 
 2609000   0.82394645   -5.5994659    1167.2025  0.037281284  0.036792862            4 
 2610000   0.83628179   -5.6223225    1161.1991  0.037075321  0.036783703            6 
 2611000   0.80332825   -5.6084913    1162.6798   0.03710838  0.036774514           11 
 2612000   0.83280477   -5.6056678    1162.8621   0.03709999  0.036765408            5 
 2613000   0.81841634   -5.6614732    1163.5091  0.037106427  0.036756308            6 
 2614000   0.83707291   -5.6187879    1164.6022  0.037127078  0.036747204            7 
 2615000   0.82820687   -5.6082004    1166.3362  0.037168138   0.03673806            6 
 2616000   0.82465343   -5.6407713     1165.692   0.03713341  0.036728982            5 
 2617000   0.82588468   -5.6528826    1161.6722  0.036991218  0.036719796           16 
 2618000   0.81991657    -5.640806    1167.3503  0.037157827  0.036710694            4 
 2619000   0.82049953   -5.5988131    1168.5845  0.037182911  0.036701666            2 
 2620000    0.8338686   -5.6269565    1168.3713  0.037161936  0.036692648            8 
 2621000   0.82384415   -5.6449944    1166.1283  0.037076445  0.036683567            9 
 2622000   0.83443785   -5.6020513    1169.0854  0.037156286  0.036674503            5 
 2623000   0.83383956   -5.6428296    1169.4482  0.037153646  0.036665515            7 
 2624000     0.818335   -5.6252368    1167.0268  0.037062588  0.036656501            6 
 2625000   0.83766427   -5.6016484    1165.5261  0.037000828  0.036647502            3 
 2626000   0.83821363   -5.6021797    1169.6627   0.03711801  0.036638436            3 
 2627000   0.85493317   -5.6041796    1168.7597  0.037075234  0.036629521            5 
 2628000   0.81918932   -5.6150347    1168.7879  0.037062022  0.036620507            6 
 2629000   0.83344796   -5.6721642    1166.1828  0.036965347  0.036611332            8 
 2630000   0.81676163   -5.6173904    1170.5798  0.037090613   0.03660222            3 
 2631000   0.83020548   -5.6034967    1169.8661  0.037053912  0.036593187            7 
 2632000   0.82517594   -5.6187246    1168.4694   0.03699561  0.036584151           21 
 2633000   0.84199295   -5.6116476     1167.247  0.036942872  0.036574978            3 
 2634000   0.83109203   -5.6326801    1171.0742   0.03704993  0.036565906            8 
 2635000    0.8372774   -5.6224245     1171.276  0.037042253  0.036556827            4 
 2636000   0.82523749   -5.6084247    1171.9469  0.037049409  0.036547821            6 
 2637000   0.83364521   -5.6218632    1168.0303  0.036911589  0.036538754            7 
 2638000   0.84084082   -5.6367716    1170.2331  0.036967182  0.036529709            9 
 2639000   0.81203525   -5.5983168    1171.0639  0.036979409  0.036520714            4 
 2640000   0.82358459    -5.619324    1171.0174  0.036963934  0.036511709           13 
 2641000   0.81867614    -5.630108    1169.6272   0.03690607  0.036502722            5 
 2642000   0.81342715   -5.6227924    1171.5611    0.0369531  0.036493748            6 
 2643000   0.81565788   -5.6502617      1168.67  0.036847962   0.03648471            5 
 2644000   0.82735692    -5.609029    1175.0102  0.037033857  0.036475724            5 
 2645000   0.82149224   -5.6352762    1170.6099  0.036881221  0.036466757            6 
 2646000   0.83728359   -5.6218005    1173.2791  0.036951344  0.036457801            6 
 2647000   0.83564433   -5.6257699    1172.9617  0.036927392  0.036448879            3 
 2648000   0.82461003   -5.6248366    1174.3998  0.036958703  0.036439904            9 
 2649000   0.82717132   -5.6323054    1170.5848   0.03682474  0.036430906            4 
 2650000   0.80752192   -5.6256031    1173.0289  0.036887702  0.036422006            7 
 2651000   0.80900308   -5.6357592    1173.2496  0.036880726  0.036413097            8 
 2652000    0.8229834   -5.6213081    1174.1307  0.036894505  0.036404232            7 
 2653000   0.82628651   -5.6513665    1174.9286  0.036905659  0.036395453            4 
 2654000   0.83613224   -5.6438572     1176.689  0.036947031  0.036386589            7 
 2655000   0.83691941   -5.6431455     1174.759  0.036872537  0.036377705            8 
 2656000   0.82408215    -5.660896      1174.88  0.036862449  0.036368715            5 
 2657000   0.81680065   -5.6668316    1170.6816  0.036716899  0.036359764            5 
 2658000   0.80079449   -5.6373378    1175.2265  0.036845577  0.036350949            3 
 2659000   0.82874963   -5.6415152    1175.1222  0.036828449  0.036342114            5 
 2660000   0.82538574   -5.6389056    1176.8269   0.03686801    0.0363333            5 
 2661000   0.81980767   -5.6347679    1170.3136  0.036650182  0.036324333            5 
 2662000   0.83983126   -5.6437414    1177.7363   0.03686878  0.036315414            7 
 2663000   0.83629437   -5.6379484    1177.5565  0.036849309  0.036306584            6 
 2664000   0.81429354   -5.6433411    1176.8558  0.036813556  0.036297683            3 
 2665000   0.82620718   -5.6709832    1174.4862  0.036725646  0.036288867            4 
 2666000   0.81978866    -5.646846    1178.8796  0.036849201  0.036279992            6 
 2667000    0.8166199   -5.6570514    1177.8147   0.03680211  0.036271168           10 
 2668000   0.81822885   -5.6222638    1177.6483  0.036783119  0.036262307           13 
 2669000   0.82254048   -5.6241963    1180.2784  0.036851456  0.036253499            7 
 2670000    0.8213096   -5.6507903    1180.9094  0.036857346  0.036244709           10 
 2671000    0.8300801    -5.644208    1178.6981  0.036774558  0.036235981            5 
 2672000   0.79402913   -5.6454612    1180.1135  0.036804937  0.036227118            2 
 2673000   0.82424242   -5.6362789    1178.8254   0.03675101  0.036218339            6 
 2674000    0.8193108   -5.6389653    1179.5133  0.036758705  0.036209636            6 
 2675000   0.82259809   -5.6293623    1179.6126  0.036748058  0.036200781            8 
 2676000   0.82800983   -5.6455466    1179.4618  0.036729627  0.036191963            5 
 2677000   0.81991549    -5.653661    1176.3156  0.036617966  0.036183129            8 
 2678000   0.82809047   -5.6579838    1179.0961  0.036690818  0.036174355            9 
 2679000   0.79964884   -5.6714015    1178.4482  0.036656968  0.036165496            4 
 2680000    0.8205448   -5.6339447    1179.6669  0.036681183  0.036156592            4 
 2681000    0.8274236   -5.6356118    1180.7433  0.036700959  0.036147815            5 
 2682000   0.80743331   -5.6098129    1183.2301  0.036764545  0.036139099            4 
 2683000   0.81219303    -5.624837    1181.3521  0.036692511  0.036130344           12 
 2684000   0.82884549   -5.6727972    1181.1188  0.036671596   0.03612172            8 
 2685000   0.81988919   -5.6492432    1181.3171  0.036664092  0.036112966            7 
 2686000   0.83673986    -5.643936    1181.5509  0.036657696  0.036104256            8 
 2687000   0.81519557   -5.6523386    1180.4969  0.036611366  0.036095509            7 
 2688000   0.80840556   -5.6516072    1183.6811  0.036696464   0.03608682            6 
 2689000   0.81729545   -5.6589662    1184.7453  0.036715795  0.036078197            5 
 2690000    0.8117661   -5.6613961    1182.9986  0.036648035  0.036069416            7 
 2691000   0.83981977   -5.6787105    1182.1486  0.036608093    0.0360607            4 
 2692000   0.82121124   -5.6366633    1186.3869  0.036725695   0.03605204            9 
 2693000    0.8164178   -5.6281789    1182.6481  0.036596364  0.036043412            4 
 2694000   0.82623816   -5.6435078    1183.2421  0.036601154  0.036034755            6 
 2695000    0.8121487   -5.6395285    1184.1409  0.036615363   0.03602607            9 
 2696000   0.80162351   -5.6247324    1186.3492  0.036670043  0.036017402            7 
 2697000   0.81983967   -5.6404897    1185.5331  0.036631228  0.036008723            6 
 2698000   0.82990071   -5.6515959    1183.2522  0.036547203  0.036000044            8 
 2699000   0.82751899    -5.661876    1184.8866  0.036584123  0.035991309            7 
 2700000   0.81894475   -5.6486909    1186.1168  0.036608543  0.035982638            4 
 2701000   0.83285837   -5.6695501    1184.5093  0.036545393  0.035973959           14 
 2702000   0.80967409   -5.6430282    1185.4464  0.036560768  0.035965342            7 
 2703000   0.81245935    -5.637549    1186.0608  0.036566185  0.035956649            5 
 2704000    0.8080958    -5.657569    1185.1114  0.036523404  0.035947955           10 
 2705000   0.81575687    -5.641248    1189.2453  0.036637255  0.035939412            7 
 2706000   0.80386691   -5.6410248    1188.0013  0.036585405  0.035930846            4 
 2707000   0.81086308   -5.6614332    1184.9582  0.036478211  0.035922262            9 
 2708000   0.80970084    -5.666816    1187.4643  0.036541861  0.035913603            3 
 2709000   0.80249788    -5.639055    1186.5161  0.036499205  0.035904974            9 
 2710000   0.81651034    -5.669494    1182.0783   0.03634927   0.03589635            8 
 2711000   0.83115379   -5.6796976     1185.277  0.036434189  0.035887708           11 
 2712000    0.8180597   -5.6445291     1188.188  0.036510203   0.03587908            2 
 2713000   0.81346763   -5.6310725    1191.8456  0.036609091  0.035870674            4 
 2714000   0.83472989    -5.657476    1189.0697  0.036510368  0.035862118            6 
 2715000   0.82210364   -5.6417049    1189.8641  0.036521303  0.035853558            2 
 2716000   0.80858168   -5.6472023    1192.1725  0.036578684  0.035844989            4 
 2717000   0.81511079   -5.6496261    1188.2919  0.036446199  0.035836384            8 
 2718000   0.81859183   -5.6516003    1192.2275  0.036553456  0.035827777            8 
 2719000   0.81024442    -5.680216    1187.5815  0.036397619  0.035819271            7 
 2720000   0.82426909   -5.6368765    1191.6171  0.036507877   0.03581077            5 
 2721000   0.82841806   -5.6708453    1191.4393  0.036489014  0.035802283            5 
 2722000   0.79422591   -5.6560688    1194.1073   0.03655729  0.035793837            6 
 2723000   0.79306719   -5.6444894    1187.7475  0.036349232  0.035785329            6 
 2724000   0.82598641   -5.6717613    1188.0148  0.036344064  0.035776695            7 
 2725000   0.81500011   -5.6442136    1189.0472  0.036362298  0.035768186            8 
 2726000   0.82698181   -5.6671176    1189.9111  0.036375369  0.035759698            3 
 2727000   0.80149659   -5.6459895    1191.6165  0.036414144  0.035751204           10 
 2728000   0.81091693   -5.6632744    1187.7097  0.036281454  0.035742686            5 
 2729000   0.81024118   -5.6720102    1189.5768  0.036325174  0.035734185            3 
 2730000   0.80762536   -5.6708636    1191.0007  0.036355333  0.035725749            3 
 2731000   0.81591892   -5.6560099    1193.8103  0.036427751  0.035717167           10 
 2732000    0.8355363   -5.6299703    1189.8698  0.036294223  0.035708637            3 
 2733000   0.82351286   -5.6975925    1191.3103  0.036324866   0.03570009            7 
 2734000   0.81878879   -5.6705676    1192.8252  0.036357754   0.03569149            6 
 2735000   0.81017449   -5.6835888    1188.8365  0.036222929  0.035682928            4 
 2736000   0.80711286   -5.6406688    1193.1867  0.036342188  0.035674384            6 
 2737000   0.78965176   -5.6253736    1197.7694  0.036468439  0.035665955            8 
 2738000   0.81322253   -5.7106696    1189.5826  0.036205946  0.035657451            7 
 2739000    0.8019374   -5.6620057    1192.4685  0.036280531  0.035648892            9 
 2740000   0.82088378   -5.6813482    1193.7289  0.036305624  0.035640309            4 
 2741000   0.80590682   -5.6700875    1190.9612  0.036208233  0.035631814            6 
 2742000   0.79759361   -5.6713616    1196.1756    0.0363535  0.035623452            4 
 2743000   0.81878581   -5.6690436    1193.1017  0.036246863  0.035614938            5 
 2744000   0.81771449   -5.6539598     1194.331  0.036270984  0.035606551            9 
 2745000   0.81053895   -5.6555529    1193.4407  0.036230743  0.035598096            8 
 2746000   0.80315013   -5.6538523    1194.9756  0.036264129  0.035589725            3 
 2747000   0.81893827    -5.619631    1197.9663  0.036341655  0.035581379           10 
 2748000   0.80932976   -5.6579915    1198.4243  0.036342319  0.035572953            3 
 2749000   0.81298093   -5.6629426    1199.3162  0.036356136  0.035564585            4 
 2750000   0.81777439   -5.6698187    1192.4077  0.036133566  0.035556115            7 
 2751000   0.80751038   -5.6904063    1195.5098  0.036214402  0.035547695            9 
 2752000   0.80578904   -5.6699814     1192.047  0.036096386  0.035539305           13 
 2753000   0.81781009   -5.6614748    1194.7623  0.036165465  0.035530754            9 
 2754000   0.80001017   -5.6502887    1196.1418  0.036194076  0.035522318            6 
 2755000   0.80849456    -5.683334    1197.4245  0.036219736  0.035513886            7 
 2756000   0.81219127   -5.7022898    1196.3258  0.036173374  0.035505504            5 
 2757000   0.83506624   -5.6514084    1199.6079  0.036259458  0.035497128            5 
 2758000   0.80582123   -5.6725354    1199.6432  0.036247377  0.035488752            6 
 2759000   0.80230089    -5.702644    1197.8022  0.036178632  0.035480391            3 
 2760000   0.81053097   -5.6373985    1200.4395  0.036245153  0.035471999           14 
 2761000   0.80270836   -5.6636264    1198.3451  0.036168813  0.035463688            7 
 2762000    0.7971589   -5.6961738    1195.4076   0.03606709  0.035455186            7 
 2763000   0.80364385   -5.6670722    1197.4446  0.036115474   0.03544678            4 
 2764000   0.82160538   -5.6388176    1203.4671  0.036283983  0.035438409            2 
 2765000   0.81470215   -5.6681504     1204.983  0.036316545  0.035430042            9 
 2766000   0.81104839   -5.6655668    1202.2839  0.036222099  0.035421688            6 
 2767000   0.81595364   -5.6532251    1198.9354  0.036108163  0.035413372            6 
 2768000   0.81968496   -5.6779571    1199.5016  0.036112163   0.03540508            6 
 2769000   0.81187249   -5.6791013     1201.024  0.036144939  0.035396817            7 
 2770000    0.8074228   -5.7026987    1201.0488  0.036132635  0.035388423            5 
 2771000   0.80642483   -5.7032104    1200.2002  0.036094076  0.035380089            6 
 2772000   0.82424599   -5.6821575    1200.1986  0.036081006  0.035371728            8 
 2773000   0.81850595   -5.6847628    1199.7215  0.036053659  0.035363417           13 
 2774000   0.81076544   -5.6831217    1198.9881   0.03601863  0.035355088            4 
 2775000   0.79652077   -5.6403815    1200.9567  0.036064765  0.035346714            7 
 2776000   0.80590691   -5.6708112    1199.0749  0.035995284  0.035338358            6 
 2777000   0.80331122   -5.6805844      1198.18  0.035955466  0.035329911            7 
 2778000   0.79519578   -5.6733708    1199.9473  0.035995541  0.035321562           11 
 2779000   0.81337263   -5.6674279    1202.6749  0.036064379  0.035313156            5 
 2780000   0.81536804   -5.6788175    1199.5908  0.035958956   0.03530467            7 
 2781000   0.80357342   -5.6692717     1200.326  0.035968057  0.035296155            3 
 2782000   0.81510035    -5.680958    1201.9053  0.036002435  0.035287738            6 
 2783000   0.82307132   -5.6757873    1197.2231  0.035849297  0.035279386            5 
 2784000   0.79405047   -5.6653221    1202.0757  0.035981672   0.03527101           16 
 2785000   0.81158755   -5.6901438    1202.4141  0.035978879  0.035262635            6 
 2786000   0.81713984   -5.6467179     1204.671  0.036033471  0.035254328            9 
 2787000   0.80394559   -5.6895284    1202.0704  0.035942783   0.03524596            3 
 2788000   0.80512039   -5.6954601    1201.7248  0.035919561  0.035237639            4 
 2789000   0.80000983   -5.6787302    1201.0328  0.035886006  0.035229319            4 
 2790000   0.82276785   -5.6708661    1204.7362  0.035983756  0.035221053           13 
 2791000   0.80444969    -5.682639    1203.6515  0.035938478   0.03521288            4 
 2792000   0.79158888     -5.68966    1204.9797   0.03596525  0.035204567            5 
 2793000   0.80613561   -5.6625968    1206.6218  0.036001368  0.035196305            3 
 2794000   0.80286398   -5.6878039    1204.5898  0.035927874  0.035187979            5 
 2795000   0.80348875   -5.6545206    1204.9315   0.03592521  0.035179603            4 
 2796000   0.78158893   -5.6978385    1202.0453  0.035826338  0.035171273            9 
 2797000   0.78759146    -5.677336    1202.5407  0.035828288  0.035162959            6 
 2798000   0.81593261   -5.6670792    1206.7329  0.035940343  0.035154698            6 
 2799000   0.81185044   -5.6749519    1204.4438  0.035859349   0.03514647            7 
 2800000   0.80451841   -5.6968133    1203.7638  0.035826302  0.035138166            5 
 2801000    0.8123892   -5.6770657    1206.0086  0.035880298  0.035129957            7 
 2802000   0.80274834   -5.6882421    1207.0733  0.035899159  0.035121742            7 
 2803000   0.80751788   -5.7082371    1208.6201  0.035932336  0.035113537            4 
 2804000   0.80040684    -5.685561    1206.2015  0.035847644  0.035105383            7 
 2805000   0.80469589   -5.6954408    1206.3964  0.035840655  0.035097133            8 
 2806000   0.79880875   -5.7009387    1206.5236   0.03583166  0.035088915            5 
 2807000    0.8067173   -5.6854974    1210.3535  0.035932595  0.035080651           17 
 2808000   0.80692494   -5.6916429    1207.6497  0.035839556  0.035072458           17 
 2809000   0.79284976   -5.7055621    1207.2588  0.035815201  0.035064277           14 
 2810000    0.7926325    -5.726925     1208.053  0.035826007   0.03505617            8 
 2811000   0.79578483   -5.6709007    1211.4768  0.035914762     0.035048           10 
 2812000   0.80567229   -5.6845299    1209.5717  0.035845535  0.035039895            7 
 2813000   0.82343174   -5.7195802    1204.8269  0.035692229  0.035031774            4 
 2814000   0.80115495   -5.6762456    1210.9271  0.035860196  0.035023665            5 
 2815000   0.79913385   -5.7154255    1213.9507  0.035936964  0.035015595           10 
 2816000   0.80993166   -5.6772455    1212.4642  0.035880213  0.035007567            6 
 2817000    0.8078647   -5.6871805    1214.9485  0.035940969  0.034999524            6 
 2818000   0.80315944   -5.6649729    1212.1446  0.035845299  0.034991502            5 
 2819000   0.81356385   -5.6938409    1208.7666  0.035732723   0.03498339            3 
 2820000   0.80127477   -5.7073929    1209.6443   0.03574599  0.034975265            7 
 2821000   0.79853483   -5.6875628    1210.0485  0.035745258  0.034967076            5 
 2822000   0.80307082    -5.698021    1208.3819  0.035683377  0.034958963            8 
 2823000   0.76899379    -5.669337    1211.8404  0.035772831  0.034950809           13 
 2824000    0.7919275   -5.7157768    1210.4371  0.035718753  0.034942578            7 
 2825000    0.8030002   -5.6963503    1212.0286  0.035753056  0.034934452            5 
 2826000    0.8017613   -5.6726944    1212.9246  0.035766826   0.03492632            5 
 2827000   0.79008213   -5.6594711    1211.5355  0.035713226  0.034918149            7 
 2828000   0.80144496   -5.6938717    1211.1784  0.035690075  0.034910033            9 
 2829000   0.79026809   -5.6713238    1213.3305  0.035740855  0.034901887            3 
 2830000   0.79717259   -5.6689039    1210.9012  0.035656689  0.034893755            6 
 2831000   0.79526619   -5.7089866    1211.5082  0.035661962  0.034885569            8 
 2832000   0.82380607    -5.697602    1214.2428  0.035729838  0.034877375           14 
 2833000   0.79450074   -5.7006862    1211.6147  0.035639918  0.034869177           13 
 2834000   0.78505957   -5.7228738    1208.5979  0.035538636  0.034861008            6 
 2835000   0.79043102   -5.6806854    1214.6473  0.035703918  0.034852821           10 
 2836000   0.78220033   -5.7195492    1212.3709  0.035624439  0.034844651            9 
 2837000   0.79321897   -5.7011971    1213.5946  0.035647826  0.034836486            5 
 2838000   0.79849172   -5.6717259     1214.647  0.035666169  0.034828282            6 
 2839000     0.805122   -5.7427594    1209.1572  0.035492463  0.034820076            9 
 2840000   0.79785421   -5.7186555    1212.8209  0.035587466  0.034811798            8 
 2841000   0.81138063   -5.7067864    1211.1969  0.035527306  0.034803526            7 
 2842000   0.80366732   -5.7130929    1209.9788  0.035479087   0.03479528            9 
 2843000   0.78996925   -5.7100139    1213.9941  0.035584303  0.034787037            5 
 2844000   0.77697461   -5.7156789     1213.325  0.035552186  0.034778793            4 
 2845000   0.80143327   -5.6839517    1212.7062  0.035521564  0.034770576            6 
 2846000   0.79217103   -5.7122824    1210.2441  0.035436992  0.034762303            8 
 2847000    0.8042777   -5.7116053    1215.5286  0.035579223  0.034754077            8 
 2848000   0.81404689   -5.6894773    1215.7139  0.035572154   0.03474585           10 
 2849000   0.77644894   -5.6992752    1209.7862  0.035386282  0.034737647           10 
 2850000   0.78227358    -5.737086     1213.184  0.035473218    0.0347293            5 
 2851000   0.78802035   -5.6745413     1213.366  0.035466093  0.034720999            6 
 2852000   0.78313738   -5.6956833    1211.9082  0.035411062  0.034712762           10 
 2853000   0.79863152   -5.7215995    1213.5937  0.035447883  0.034704529           16 
 2854000   0.80790431   -5.6768683    1216.1603  0.035510403  0.034696285            7 
 2855000   0.77598842   -5.7171148    1211.7697   0.03536981  0.034688024            7 
 2856000   0.79508724   -5.6892958      1210.85   0.03533059   0.03467968            4 
 2857000   0.79422403   -5.7368205    1208.9086  0.035261596   0.03467139           13 
 2858000   0.78318187   -5.7447848    1209.7134  0.035272726  0.034663006            7 
 2859000    0.7911623   -5.7106758    1213.4356  0.035368883  0.034654615            5 
 2860000   0.79137513   -5.7114156    1214.6918  0.035393116  0.034646239            7 
 2861000   0.80702776   -5.7255566    1213.9852  0.035360165   0.03463795            4 
 2862000   0.79158569   -5.6838774    1214.1917  0.035353824  0.034629667            5 
 2863000   0.78339591   -5.7297117    1213.3138  0.035315922   0.03462135           10 
 2864000   0.77771716   -5.7209532    1213.6166    0.0353124  0.034613039            6 
 2865000    0.8007132   -5.7025857    1215.8056  0.035363746  0.034604673            5 
 2866000   0.79550585   -5.7230102    1212.8314  0.035264928  0.034596412           15 
 2867000   0.80060951   -5.7235432    1212.9144  0.035255039  0.034588114            6 
 2868000   0.78345813   -5.7111507    1211.9961  0.035216066  0.034579759            5 
 2869000   0.80122512   -5.7280367    1213.4487  0.035245982  0.034571388           11 
 2870000   0.79604516   -5.7047573    1214.4272  0.035262115  0.034563039            5 
 2871000   0.77934875    -5.740795    1211.6132  0.035168153  0.034554577           11 
 2872000   0.79719986   -5.7149637     1211.167  0.035142962  0.034546229           14 
 2873000   0.78880291   -5.7382952    1213.5344  0.035199397  0.034537827            6 
 2874000   0.77764816    -5.689195    1217.1464   0.03529188  0.034529489            3 
 2875000   0.78354736   -5.7095255    1213.6801  0.035179132  0.034521138            4 
 2876000   0.79855372    -5.713904    1215.8843  0.035230769  0.034512759            5 
 2877000   0.79138786   -5.7009131    1216.9727  0.035250049  0.034504436           15 
 2878000   0.78035872     -5.71926    1215.5267  0.035195931  0.034496091            6 
 2879000   0.78992371   -5.6957716    1218.8945  0.035281188  0.034487816            9 
 2880000   0.78958897   -5.7199981    1215.5826  0.035173107  0.034479586            3 
 2881000   0.78617611    -5.730087    1212.7518  0.035079018  0.034471264           12 
 2882000   0.78279932   -5.7157278    1214.1658  0.035107732  0.034462889           14 
 2883000   0.79887002   -5.7240081    1212.8312  0.035056979  0.034454525            8 
 2884000    0.7714873    -5.714772    1217.3675  0.035175897  0.034446288            5 
 2885000   0.79339966    -5.721947    1218.6945  0.035202036  0.034438029            4 
 2886000   0.79312094   -5.7213463    1217.5279  0.035156153  0.034429738            3 
 2887000   0.79938389   -5.7079617    1214.2367  0.035048975  0.034421397            7 
 2888000   0.78699243   -5.7346663    1214.7549  0.035051792  0.034413043           11 
 2889000   0.78886969   -5.6985906    1214.7207  0.035038674  0.034404713            5 
 2890000   0.81150603   -5.7033448    1217.9811  0.035120561  0.034396417            4 
 2891000    0.7822373   -5.6908137    1220.0127  0.035166975  0.034388138            4 
 2892000   0.78948603   -5.7206166    1219.7619  0.035147587   0.03437985            5 
 2893000   0.79431334   -5.7248689    1216.2329  0.035033784  0.034371509            6 
 2894000   0.77405908   -5.7532044    1217.0947  0.035046497  0.034363091            5 
 2895000   0.79840671   -5.7288363    1217.3523  0.035041805  0.034354655            9 
 2896000   0.78175207   -5.7436283    1218.9339  0.035075216  0.034346312            5 
 2897000   0.77053971   -5.7198335    1217.1827  0.035012735  0.034337982            5 
 2898000   0.79737473   -5.7339132    1217.4703  0.035008923  0.034329648            5 
 2899000   0.77439095   -5.7375054    1216.5959  0.034971712  0.034321214            6 
 2900000   0.79376338    -5.722707    1215.6771  0.034933249  0.034312785           14 
 2901000   0.78242701   -5.7466313    1220.1119    0.0350486  0.034304461            7 
 2902000    0.7946657   -5.7306953    1213.5623  0.034848446  0.034296054           16 
 2903000   0.79046395   -5.7131928    1220.3786  0.035032111  0.034287722           10 
 2904000   0.78560362   -5.7389333    1217.2233  0.034929501  0.034279343            7 
 2905000   0.76695726   -5.7292692    1215.6268   0.03487168  0.034270899            4 
 2906000   0.77955463   -5.7324878     1217.117  0.034902413    0.0342625            7 
 2907000   0.78014502   -5.7252715    1217.7534  0.034908651  0.034254023            8 
 2908000   0.79098031    -5.730896    1214.6258  0.034807022  0.034245593            5 
 2909000   0.79290663   -5.7277361    1218.4198  0.034903741   0.03423715            4 
 2910000   0.78860985   -5.7295698     1216.594  0.034839462   0.03422864           13 
 2911000   0.78759668   -5.7386284    1215.9914  0.034810242  0.034220107            6 
 2912000   0.79958222   -5.7393788    1217.7528  0.034848694  0.034211691            6 
 2913000   0.79833403    -5.724406    1217.5392  0.034830622  0.034203177            8 
 2914000   0.79997188   -5.7236101    1219.3237    0.0348697  0.034194711            4 
 2915000   0.79258121   -5.7213542    1221.7971  0.034928447  0.034186271            4 
 2916000   0.78169356   -5.7144587     1215.995  0.034750658  0.034177872           14 
 2917000   0.77656198    -5.726133    1218.4734  0.034809548  0.034169444            7 
 2918000   0.79387486   -5.7337416    1216.1912  0.034732444  0.034161066            5 
 2919000   0.77943041   -5.7513937    1218.4047  0.034783735  0.034152552            7 
 2920000   0.78575399   -5.7292779    1217.7659  0.034753593  0.034144064           10 
 2921000   0.80494727   -5.7198734    1216.8103  0.034714433  0.034135635            9 
 2922000    0.7604993   -5.6836896    1219.1637  0.034769669  0.034127217           13 
 2923000   0.78611494   -5.7421108    1220.3762  0.034792343  0.034118825            6 
 2924000   0.77384742   -5.7276498    1219.9557   0.03476846  0.034110423            7 
 2925000   0.76896182   -5.7335092    1216.7097  0.034664093  0.034102026           11 
 2926000   0.78705093   -5.7175415    1218.2447  0.034695964  0.034093599            3 
 2927000   0.78642939   -5.7388042    1217.0074  0.034648885  0.034085126            6 
 2928000   0.79495425   -5.7502169    1218.9612  0.034692658  0.034076642            8 
 2929000   0.78725487    -5.741547    1219.6875  0.034701476  0.034068138           14 
 2930000   0.78693749    -5.738245    1218.4929  0.034655658   0.03405965           10 
 2931000   0.77535521   -5.7198386    1218.9375  0.034656474  0.034051213            6 
 2932000   0.78922376   -5.7445714    1223.7074  0.034780224  0.034042707            7 
 2933000   0.77805871   -5.7385979    1222.1021  0.034722755  0.034034269            7 
 2934000   0.78672347   -5.7141106    1222.4481  0.034720749  0.034025823           12 
 2935000   0.77738013   -5.7231804    1222.8356   0.03471992  0.034017388            9 
 2936000   0.77844349   -5.7288001    1220.2577  0.034634925  0.034008962            7 
 2937000    0.7819924   -5.7374059    1221.0691  0.034646156  0.034000494            5 
 2938000   0.79209576   -5.7373854     1220.524    0.0346189  0.033992028           18 
 2939000   0.77083053   -5.7596064    1221.4832   0.03463432  0.033983612           10 
 2940000   0.80029721   -5.7368312    1219.7173  0.034572485  0.033975213            9 
 2941000   0.78178464   -5.7422108    1218.9595  0.034539257   0.03396679            7 
 2942000   0.79863912     -5.75225     1220.969  0.034584439  0.033958315            8 
 2943000   0.78622571   -5.7431532    1221.4106   0.03458519  0.033949949            6 
 2944000    0.7696776    -5.754566    1221.8063  0.034584644  0.033941554            5 
 2945000   0.78111378   -5.7184627    1221.1172  0.034553402  0.033933109            4 
 2946000   0.78108222   -5.7221408    1222.7785  0.034588666   0.03392475            6 
 2947000   0.75736794   -5.7058243     1227.315  0.034705209  0.033916443            3 
 2948000   0.77283042   -5.7241372    1222.9085  0.034568874  0.033908106            9 
 2949000   0.78008097   -5.7691956    1219.5522  0.034462309  0.033899682            4 
 2950000   0.77415792     -5.74628     1219.745  0.034456074  0.033891171            5 
 2951000   0.77783946   -5.7833518    1220.8728  0.034476246  0.033882689            6 
 2952000   0.77695934   -5.7735551    1223.1881  0.034529927  0.033874199            5 
 2953000   0.77513826   -5.7335511    1221.2903  0.034464678  0.033865692            8 
 2954000   0.78717026   -5.7555466    1224.4468  0.034542057  0.033857293            7 
 2955000   0.79363132   -5.7260031    1219.9635  0.034403935   0.03384888            5 
 2956000   0.77209041   -5.7553554    1220.4071  0.034404802  0.033840445           12 
 2957000   0.77125155   -5.7652128    1223.8978   0.03449154  0.033831998            4 
 2958000   0.77270027   -5.7376318    1222.2778  0.034434241   0.03382352            6 
 2959000   0.78334873   -5.7721216     1222.744  0.034435734  0.033815024            7 
 2960000   0.77459737   -5.7428654    1223.8166  0.034454296  0.033806532            9 
 2961000   0.79354371   -5.7044075    1223.0658  0.034421531  0.033798078           10 
 2962000    0.7678403   -5.7190038      1222.79   0.03440215  0.033789658            9 
 2963000   0.78023799   -5.7444991    1220.5942  0.034328783  0.033781186            9 
 2964000   0.76956743   -5.7293977    1225.5168    0.0344556  0.033772814            4 
 2965000   0.77618026   -5.7648932    1222.8348  0.034368599  0.033764385            6 
 2966000   0.78200417    -5.751278    1222.6321  0.034351317  0.033755882            7 
 2967000   0.78937012   -5.7407867    1225.8062   0.03442889  0.033747411            7 
 2968000   0.76059367   -5.7424326    1225.6249  0.034412201  0.033738866           13 
 2969000   0.77697667   -5.7399019    1221.3285   0.03428002  0.033730391            8 
 2970000   0.76412092   -5.7090721    1227.5569  0.034443235  0.033721894           15 
 2971000   0.78399658   -5.7439432    1222.7352  0.034296398  0.033713426            5 
 2972000   0.77210755   -5.7407165    1222.9351  0.034290465  0.033705007            5 
 2973000   0.77325123   -5.7579519    1225.9221  0.034362656  0.033696639            6 
 2974000   0.77995291    -5.728955     1225.955  0.034352024  0.033688243            5 
 2975000   0.78739646   -5.7604947    1223.1694  0.034262448  0.033679768            8 
 2976000   0.77185368   -5.7353012    1221.5673  0.034206073  0.033671242           14 
 2977000   0.79150139   -5.7463734    1219.2074  0.034128524  0.033662802            3 
 2978000   0.77361706   -5.7630686    1221.1217  0.034170632  0.033654208            4 
 2979000    0.7675927   -5.7586958    1222.5296  0.034198545  0.033645607            8 
 2980000    0.7670002    -5.771801    1224.9066  0.034253539   0.03363703            6 
 2981000   0.76396601   -5.7617279     1223.292  0.034196914  0.033628466            3 
 2982000   0.76331714   -5.7803672    1223.5457  0.034192537  0.033619948            6 
 2983000   0.79072616   -5.7791777    1222.0755  0.034140001  0.033611344           10 
 2984000   0.75601392     -5.75837    1222.9035  0.034151685  0.033602815            9 
 2985000   0.77060104   -5.7692185    1223.9826  0.034170368  0.033594346           10 
 2986000   0.78802466   -5.7686533    1222.9355  0.034129701  0.033585887            8 
 2987000   0.76417502   -5.7697538    1226.5957   0.03422039  0.033577366            5 
 2988000   0.76520308   -5.7475068      1226.21  0.034198181   0.03356882            5 
 2989000   0.76692442   -5.7575076    1225.7061  0.034172692  0.033560338            5 
 2990000    0.7890505   -5.7495781    1223.4149  0.034097406  0.033551889           11 
 2991000   0.77850996   -5.7525796    1226.6193  0.034175285  0.033543467            4 
 2992000   0.76919886   -5.7621187    1228.6957  0.034221694  0.033534964           18 
 2993000   0.77832011   -5.7492589    1226.8507  0.034158891  0.033526532            6 
 2994000   0.76508021   -5.7347005    1227.0699  0.034153582  0.033518132            7 
 2995000   0.78017394   -5.7497897    1228.7224  0.034188158  0.033509737            7 
 2996000   0.76283233   -5.7510361    1226.9039  0.034126165  0.033501285            5 
 2997000   0.78168861   -5.8066231    1225.4065  0.034073144  0.033492882            6 
 2998000   0.76521052   -5.7419838    1227.3923  0.034116975  0.033484426            6 
 2999000   0.76923015   -5.7434137    1231.1946  0.034211253  0.033476086            2 
 3000000   0.79262362   -5.7788019    1229.9063  0.034164063   0.03346777            7 
 3001000   0.76032722   -5.7346993    1226.6276  0.034061635  0.033459479            5 
 3002000   0.77664632    -5.735355     1231.246  0.034178493  0.033451125           16 
 3003000   0.78480817   -5.7421516    1230.0488   0.03413389  0.033442791           10 
 3004000   0.77669164   -5.7693577    1226.8747  0.034034474  0.033434414           11 
 3005000   0.78610171   -5.7534277    1228.0637  0.034056119  0.033425986            5 
 3006000   0.78777265   -5.7950881    1231.6309  0.034143682  0.033417595           18 
 3007000   0.76348517   -5.7582749    1231.2942  0.034122997   0.03340927            6 
 3008000   0.77189165   -5.7558775    1232.3078  0.034139733  0.033400939            8 
 3009000   0.77866277    -5.789899    1227.0789  0.033983575  0.033392532            8 
 3010000   0.77408073   -5.7480141    1229.0062  0.034025644  0.033384139            6 
 3011000   0.77526906    -5.749436    1228.6922  0.034005651  0.033375702            5 
 3012000   0.76735557   -5.7606345    1229.8627  0.034026745  0.033367313           10 
 3013000   0.76537552   -5.7478145    1229.9392  0.034017569   0.03335894            9 
 3014000   0.77257139   -5.7961255    1228.5251  0.033967183  0.033350553            7 
 3015000   0.76202985   -5.7735995    1230.9648  0.034023349  0.033342192           16 
 3016000   0.77419497   -5.7608305    1228.5823   0.03394624  0.033333856           14 
 3017000   0.77075994   -5.7790116    1232.0128  0.034029742  0.033325518            8 
 3018000   0.75542042   -5.7649237    1233.6985  0.034065012  0.033317203           20 
 3019000   0.78735268   -5.7538983    1232.6105  0.034023697  0.033308873           11 
 3020000   0.76976141   -5.7717376    1229.2149  0.033918734  0.033300551            5 
 3021000   0.76327816   -5.7501118    1230.4514  0.033941614  0.033292197            7 
 3022000   0.78020764   -5.7491986    1229.4688  0.033903287  0.033283815           10 
 3023000   0.77794894   -5.7472331    1229.0807  0.033881372  0.033275427            6 
 3024000   0.77539422   -5.7487354    1232.3498  0.033960256  0.033266972            2 
 3025000    0.7728057   -5.7506208    1230.0781   0.03388645  0.033258544           11 
 3026000    0.7586239   -5.7535628     1232.976  0.033955057  0.033250198            7 
 3027000   0.75720766    -5.756708    1234.8884  0.033996488  0.033241924            8 
 3028000   0.74734044   -5.7615023    1230.6401  0.033868343  0.033233614            6 
 3029000   0.75961189   -5.7513585    1230.4339  0.033851488  0.033225252           15 
 3030000   0.77889921   -5.7862603    1230.4871  0.033841781  0.033216933            7 
 3031000   0.75073358   -5.7487494    1235.4451  0.033966927  0.033208648            7 
 3032000   0.75776702   -5.7587794    1233.5398  0.033903357  0.033200413            4 
 3033000   0.76460387   -5.8034974    1233.7364  0.033897581  0.033192162            7 
 3034000   0.75514704   -5.7733085    1231.0938  0.033813826  0.033183888            9 
 3035000   0.77060542   -5.7668589    1233.9653  0.033881529  0.033175685            6 
 3036000   0.77001539   -5.7790305    1233.4411  0.033855981  0.033167415            9 
 3037000   0.76824828   -5.7941462    1235.8822  0.033911816  0.033159228           14 
 3038000   0.77736957   -5.7862452    1233.4295  0.033833374  0.033151006            8 
 3039000   0.75751558   -5.7771566    1231.7683   0.03377669  0.033142803            6 
 3040000   0.74657675   -5.7577568      1236.32  0.033890352    0.0331346            7 
 3041000   0.75346923   -5.7530651    1237.7845  0.033919339  0.033126436            7 
 3042000   0.76218866   -5.7767563    1234.4196  0.033816009  0.033118215            7 
 3043000   0.76691355   -5.7669813    1234.0329  0.033794307  0.033109942           11 
 3044000   0.76516841   -5.7741019    1233.3791  0.033765305  0.033101725            8 
 3045000   0.76065826   -5.7729763    1237.6555  0.033871252  0.033093493            9 
 3046000   0.76108597   -5.7814705    1235.0693  0.033789378  0.033085323           11 
 3047000   0.76096434   -5.7755266    1235.6666  0.033794623  0.033077068            6 
 3048000   0.73790416   -5.7803784    1236.3498  0.033802213  0.033068827           10 
 3049000   0.75893638   -5.7960884    1232.8282  0.033694877  0.033060531           12 
 3050000   0.77250132   -5.8062952    1234.6228  0.033732864  0.033052278            4 
 3051000   0.77172457   -5.7839632     1232.904   0.03367486  0.033043943           19 
 3052000   0.76643189    -5.760457    1234.9572  0.033719889  0.033035622            5 
 3053000   0.75888518    -5.777314    1237.1352  0.033768293  0.033027338            9 
 3054000   0.76073759   -5.7894501    1233.7012  0.033663533  0.033019032            4 
 3055000   0.75679083   -5.8212575    1234.4225   0.03367219  0.033010612           10 
 3056000   0.74939321   -5.7864835    1234.1485  0.033653699  0.033002244            6 
 3057000   0.75942959   -5.7823471    1237.1055    0.0337233  0.032993919            9 
 3058000   0.75597958   -5.7709244    1234.9104  0.033652451  0.032985561            8 
 3059000   0.75774037   -5.7796089    1232.0095  0.033562424  0.032977193            6 
 3060000   0.75168679    -5.800235    1233.0263  0.033579147  0.032968827            9 
 3061000   0.74858419   -5.7901611    1236.6663  0.033667274  0.032960413            4 
 3062000   0.75240135   -5.7941973    1233.7626  0.033577254  0.032952011           11 
 3063000     0.755928   -5.7840875    1237.6537  0.033672154  0.032943642           12 
 3064000   0.76566656   -5.7643559    1236.1339   0.03361983  0.032935304           23 
 3065000     0.765937   -5.7933426    1230.6578  0.033459974  0.032927002            5 
 3066000   0.77505409   -5.7743252    1235.0972  0.033569721  0.032918627            6 
 3067000   0.74866888   -5.7840165    1234.9352  0.033554376  0.032910306           12 
 3068000   0.76101908   -5.7711418    1237.5225  0.033613715  0.032901993            5 
 3069000   0.75526908   -5.7936553    1236.3484  0.033570881  0.032893677            6 
 3070000   0.75600668   -5.7845874    1238.0042  0.033604891  0.032885375           10 
 3071000   0.76932134   -5.7583475     1236.192  0.033544774  0.032877071            7 
 3072000   0.73485421   -5.7954396    1235.3662  0.033511452  0.032868685            7 
 3073000   0.74688637    -5.792199    1235.0968  0.033493242   0.03286031           15 
 3074000   0.77074572   -5.7816669    1233.9442  0.033451102  0.032851947            6 
 3075000   0.75350058   -5.8105744    1237.6891  0.033541709  0.032843638            7 
 3076000   0.74447204   -5.7985736     1239.407  0.033577345  0.032835267            4 
 3077000   0.77169064    -5.780387    1236.6474  0.033491696  0.032826924            4 
 3078000   0.76172228   -5.7830444    1237.3571  0.033500029  0.032818606            7 
 3079000   0.75402446   -5.8560721    1234.3779  0.033408518  0.032810244            5 
 3080000   0.73988962   -5.8012149    1235.6018  0.033430784   0.03280192           10 
 3081000   0.75953893   -5.7660716    1240.7045  0.033557949  0.032793611           12 
 3082000   0.76142409   -5.7805619    1235.4281  0.033404394  0.032785306            5 
 3083000   0.76899578   -5.7897988    1234.5067  0.033368653  0.032776936            4 
 3084000   0.76036347   -5.8082546    1235.7216  0.033390662  0.032768635            8 
 3085000   0.74761084    -5.778293    1235.7941  0.033381796  0.032760376            8 
 3086000   0.76033982   -5.7687221    1241.2565  0.033518484  0.032752219           24 
 3087000   0.76685794    -5.804965    1239.0447   0.03344792  0.032743963            4 
 3088000    0.7547677   -5.7932185    1237.4206  0.033393259  0.032735661           19 
 3089000   0.74461769   -5.8046854    1236.2907  0.033351966  0.032727388            4 
 3090000     0.763942   -5.7848482    1238.0162  0.033387707  0.032719094            6 
 3091000   0.77647764   -5.8001111    1237.3859  0.033359912  0.032710833           12 
 3092000   0.74000137   -5.7802265    1240.8309  0.033441972  0.032702537           10 
 3093000   0.76241904   -5.7902255    1238.2057   0.03336043  0.032694291            5 
 3094000   0.75656263   -5.8003164    1238.8516  0.033367043  0.032686028           15 
 3095000   0.75542104   -5.8029978    1239.1228  0.033363565  0.032677727            9 
 3096000   0.75711962   -5.8027145    1238.2815  0.033330145  0.032669413            9 
 3097000   0.74849566   -5.7694622    1238.5471  0.033326528  0.032661096            5 
 3098000   0.77007057   -5.7766839    1238.6556   0.03331869  0.032652842            6 
 3099000   0.76518556   -5.8006224    1237.4546  0.033275643  0.032644554            8 
 3100000   0.75134676   -5.8295709    1237.5646  0.033267866  0.032636232            8 
 3101000    0.7522307   -5.8007932    1239.2067  0.033301266  0.032627949           11 
 3102000   0.76396562   -5.7853551    1237.7961  0.033252635  0.032619629            7 
 3103000   0.76276755   -5.8078555    1234.8031  0.033161541  0.032611287           11 
 3104000   0.75870912   -5.8148749    1238.2147  0.033242447  0.032602946           19 
 3105000   0.76280406   -5.8078031    1237.3586  0.033208764  0.032594563            3 
 3106000   0.74430215   -5.8038817    1238.3979  0.033225958  0.032586232            7 
 3107000   0.76174788    -5.806877    1236.8047  0.033172531  0.032577896            9 
 3108000    0.7428266   -5.8377615    1234.1844  0.033091602  0.032569513            6 
 3109000   0.75932344   -5.8130395     1241.086  0.033265949  0.032561208           10 
 3110000   0.75003886   -5.8302686    1239.5453  0.033213967  0.032552856           15 
 3111000   0.77617905   -5.8118369    1239.2329  0.033194923  0.032544499            7 
 3112000   0.77674581   -5.8067253    1239.5496  0.033192737  0.032536181            6 
 3113000   0.75981741   -5.8091771    1240.0818  0.033196323  0.032527906            9 
 3114000   0.75260598   -5.8130173    1238.1451  0.033133833  0.032519481           15 
 3115000   0.76367054    -5.827217    1236.1447  0.033069681  0.032511131            6 
 3116000   0.77213068   -5.7876121    1241.5399  0.033203355  0.032502849            7 
 3117000   0.75593696   -5.8074367    1241.1484  0.033182237  0.032494534            6 
 3118000   0.76356325   -5.8423855     1240.786   0.03316191  0.032486183           12 
 3119000   0.76250898   -5.7930048     1240.782  0.033151171  0.032477867            7 
 3120000   0.77980931   -5.8327458    1235.2243  0.032992101  0.032469592            9 
 3121000   0.76892729   -5.8123264    1241.8989   0.03315975  0.032461248            6 
 3122000    0.7612278   -5.8272185    1242.9664  0.033177621  0.032452933           11 
 3123000   0.76046099   -5.8081688    1241.6808  0.033132692  0.032444636            6 
 3124000   0.75629962   -5.7948541    1243.8784  0.033180709  0.032436331            7 
 3125000   0.76017796   -5.8332462    1241.0474  0.033094596  0.032428036            7 
 3126000   0.75246321   -5.8285804    1242.0838   0.03311164   0.03241977           13 
 3127000   0.76122838   -5.7873772    1243.9531  0.033150865  0.032411518           12 
 3128000   0.76184119   -5.8057283    1241.9363  0.033086538  0.032403286           11 
 3129000   0.76159678   -5.8087391    1243.1718  0.033108868  0.032395007           22 
 3130000   0.74875325   -5.8055865    1243.8772  0.033117071  0.032386719            9 
 3131000   0.74024409   -5.8068398    1243.2354  0.033089412  0.032378444           12 
 3132000   0.73380767    -5.806083    1242.6677  0.033063742  0.032370128            8 
 3133000     0.749813   -5.8515983    1238.4902  0.032942073  0.032361857           10 
 3134000   0.74023108   -5.8154965    1242.4965  0.033038089  0.032353562            6 
 3135000   0.74771239   -5.8169589    1241.6221  0.033004308  0.032345315            6 
 3136000   0.75024858   -5.7990503    1244.2433  0.033063439  0.032337131            6 
 3137000   0.75140598   -5.8529476    1240.3496  0.032949464  0.032328922            6 
 3138000   0.76511653   -5.8347958    1242.2872  0.032990419  0.032320609            8 
 3139000   0.74430277   -5.8196907    1243.6419  0.033015874  0.032312392           12 
 3140000   0.75102525   -5.8136642    1244.4413  0.033026575  0.032304174           16 
 3141000   0.74310657   -5.8123235    1242.9884  0.032977513  0.032295906            5 
 3142000   0.73851688   -5.8033763    1243.8771  0.032990588   0.03228773            8 
 3143000   0.73375202   -5.8196395    1241.6943  0.032922215  0.032279504            4 
 3144000   0.73363317   -5.8238495     1246.502  0.033039176  0.032271217            8 
 3145000   0.73082954    -5.789533    1247.2711  0.033049048  0.032263048           12 
 3146000   0.74206787   -5.8024712    1243.4436  0.032937157   0.03225479           10 
 3147000   0.74771798   -5.8242354    1243.1863  0.032919878  0.032246579           19 
 3148000   0.75118016    -5.800177    1247.0473  0.033011628  0.032238376           12 
 3149000   0.77171451   -5.8156195    1243.7675  0.032914352  0.032230173            9 
 3150000   0.74206983   -5.8154474    1243.9852   0.03290966  0.032221887           22 
 3151000   0.76400832   -5.8113829    1244.3074  0.032907737  0.032213666            7 
 3152000   0.74487919    -5.827509    1241.2364  0.032816105  0.032205456            9 
 3153000   0.73342409   -5.8296917    1242.4028  0.032836526   0.03219719           10 
 3154000   0.74941336   -5.8272874    1246.6425  0.032938133  0.032188927           12 
 3155000   0.75787491   -5.8170651    1243.8001  0.032852618  0.032180658            8 
 3156000    0.7450711   -5.8369106    1239.1249  0.032718759  0.032172348            7 
 3157000   0.75369006   -5.8067928    1242.5984  0.032800084  0.032164071            9 
 3158000   0.74692925   -5.8416621    1242.4387  0.032785483  0.032155825            4 
 3159000   0.74127873   -5.8259058     1244.346  0.032825419  0.032147625            7 
 3160000   0.75716752   -5.8239314    1246.2898  0.032866291  0.032139417           10 
 3161000   0.75300893   -5.8202166    1243.8756  0.032792249  0.032131162           14 
 3162000   0.75807182   -5.8142459    1246.5399  0.032852094  0.032122964            6 
 3163000   0.74567216   -5.8058906    1247.6775  0.032871682  0.032114813           10 
 3164000   0.73696733   -5.7853854    1251.9838   0.03297471  0.032106671           11 
 3165000   0.75968637   -5.8238818    1244.9677  0.032779561  0.032098508           12 
 3166000   0.73830972   -5.8582282    1245.5031  0.032783299  0.032090295            8 
 3167000    0.7356357   -5.8182954     1245.501  0.032772892  0.032082076            5 
 3168000   0.74514918   -5.7954086    1248.6803  0.032846177  0.032073984            4 
 3169000   0.75646409   -5.8002761    1247.6002  0.032807411  0.032065958            7 
 3170000   0.75747796   -5.8141735    1249.6421  0.032850739  0.032057911            9 
 3171000   0.74081407   -5.7951299    1252.0606  0.032903936  0.032049818           24 
 3172000   0.73513705   -5.8706898     1240.674  0.032594419   0.03204162            9 
 3173000   0.75813534   -5.8136799    1245.9953  0.032723903  0.032033391           12 
 3174000   0.74888173    -5.815189    1244.2782  0.032668511  0.032025188           13 
 3175000   0.74723339   -5.8105584    1250.1658  0.032812749  0.032017056           12 
 3176000    0.7325521   -5.8332779    1247.6636  0.032736765  0.032008897            5 
 3177000   0.75541665   -5.8646564    1243.1567  0.032608244  0.032000681            7 
 3178000   0.74637201   -5.8405549    1247.2165  0.032704438  0.031992515            7 
 3179000    0.7346293   -5.8317813     1247.194  0.032693562  0.031984357            5 
 3180000   0.74157804   -5.8018387     1248.778   0.03272479  0.031976259            7 
 3181000   0.71983379   -5.8045302    1250.3177  0.032754839  0.031968096            9 
 3182000   0.73536086   -5.8257527    1249.9396  0.032734643  0.031959966            9 
 3183000   0.74551086   -5.8305347    1248.4511  0.032685388    0.0319518            9 
 3184000   0.74531895   -5.8275242    1246.8215  0.032632473  0.031943648            6 
 3185000   0.73863867   -5.8344401    1246.9994  0.032626882  0.031935455            6 
 3186000   0.74502559   -5.8619919     1246.169   0.03259492  0.031927257            3 
 3187000   0.76831766   -5.8195283    1246.0661  0.032582004  0.031919106            8 
 3188000   0.72738275   -5.8249785    1251.0595  0.032702309  0.031911026           10 
 3189000   0.73967688   -5.8533631     1246.893  0.032583178  0.031902836           12 
 3190000   0.72412115    -5.821247    1251.9482   0.03270502  0.031894679            6 
 3191000    0.7464266   -5.8430442    1248.8167  0.032612992  0.031886539            9 
 3192000   0.74182358   -5.8152804    1250.2708  0.032640737  0.031878351            7 
 3193000   0.74150003   -5.8139453    1251.8779  0.032672459  0.031870217           23 
 3194000   0.75110134   -5.8492486    1248.5782  0.032576139  0.031862062           28 
 3195000   0.73177527   -5.8096091    1248.2403  0.032557128  0.031853953            6 
 3196000   0.75822501   -5.8504986    1249.3228  0.032575166  0.031845799           15 
 3197000   0.72006427   -5.8324085    1249.1005  0.032559182   0.03183762            6 
 3198000   0.74080847   -5.8465568    1252.0678  0.032626323  0.031829395            7 
 3199000   0.74836586   -5.8395584    1251.1994  0.032593503  0.031821236            7 
 3200000    0.7558994   -5.8330447    1248.4765  0.032512409  0.031813117           10 
 3201000   0.73632994   -5.8408198    1250.9934  0.032567776  0.031804967            6 
 3202000   0.73820001   -5.8312803    1249.7665  0.032525675   0.03179685            9 
 3203000   0.74344123   -5.8518697    1249.0636  0.032497233  0.031788702            9 
 3204000   0.74220613   -5.8342407    1249.8221  0.032506817  0.031780562            6 
 3205000   0.72729509   -5.8564212    1248.1836  0.032454071  0.031772384            7 
 3206000   0.75458814    -5.833958    1251.4653  0.032529249   0.03176425            4 
 3207000   0.73035517   -5.8251941    1253.9414  0.032583446  0.031756109            7 
 3208000   0.74140396   -5.8447816    1250.9653  0.032495981  0.031748007            9 
 3209000    0.7446231   -5.8428807    1249.4898  0.032447537  0.031739815            9 
 3210000   0.73348731   -5.8472979     1248.585  0.032413941  0.031731629            8 
 3211000   0.73299383   -5.8339116    1251.7499  0.032485982  0.031723451            5 
 3212000   0.74154242   -5.8335728    1250.2367  0.032436609  0.031715313           11 
 3213000   0.73367293   -5.8484521    1247.8384  0.032364311  0.031707186           15 
 3214000   0.73892694   -5.8613269    1247.5297  0.032346239  0.031698965            9 
 3215000    0.7273111   -5.8408794      1248.57  0.032363142  0.031690843           14 
 3216000   0.73943977    -5.839822      1248.62  0.032354373  0.031682637            7 
 3217000   0.73049899    -5.818409    1251.0777  0.032407982  0.031674491            9 
 3218000   0.73259926   -5.8466257    1247.1275  0.032295615  0.031666352            6 
 3219000   0.73000982    -5.841962    1250.3204   0.03236824  0.031658106            6 
 3220000   0.73176122   -5.8541979    1248.4755  0.032310441  0.031649923           11 
 3221000   0.73134897    -5.849428    1252.8824  0.032414427  0.031641801           13 
 3222000   0.73366131   -5.8330243    1250.6379  0.032346314  0.031633626            7 
 3223000   0.72608619   -5.8616843     1248.897  0.032291267  0.031625416           11 
 3224000   0.73376929   -5.8609306    1251.5055  0.032348674  0.031617146           14 
 3225000   0.73542379   -5.8623628    1247.5619  0.032236742  0.031608891            9 
 3226000   0.73622779   -5.8775182    1252.6256  0.032357554  0.031600601           10 
 3227000   0.74825131   -5.8746821    1249.5172  0.032267256  0.031592326            7 
 3228000   0.73385507   -5.8871709    1251.8652  0.032317876  0.031584089            8 
 3229000   0.73969778   -5.8334535    1250.2858  0.032267105  0.031575882           19 
 3230000   0.72992136   -5.8276837    1252.5211  0.032314786  0.031567661            9 
 3231000    0.7531744   -5.8287541    1251.3579  0.032274783  0.031559512           10 
 3232000   0.72975146   -5.8306507    1250.4307  0.032240892   0.03155132            5 
 3233000   0.72494901   -5.8530495    1253.6837  0.032314768  0.031543065            5 
 3234000   0.72227521    -5.868997     1245.616  0.032096886   0.03153477            6 
 3235000   0.72883738   -5.8784986    1248.4437  0.032159808  0.031526456            5 
 3236000    0.7386134   -5.8410662    1250.7307  0.032208763   0.03151823           10 
 3237000   0.73285921   -5.8557889    1252.5056  0.032244505  0.031509963            4 
 3238000   0.72169886   -5.8441682    1249.5699  0.032158995  0.031501785            8 
 3239000   0.73520074   -5.8649017    1249.6245  0.032150472  0.031493608            4 
 3240000   0.73677134   -5.8274235    1249.2329  0.032130476  0.031485452            9 
 3241000   0.72830717   -5.8713507    1251.1276  0.032169278   0.03147724            6 
 3242000   0.73249762   -5.8764278    1246.0072  0.032027741  0.031468998           15 
 3243000   0.74047266   -5.8692379    1252.0046  0.032171976  0.031460768           15 
 3244000    0.7390745   -5.8583492    1251.7523  0.032155577   0.03145261           11 
 3245000   0.72520236    -5.850831    1253.3403  0.032186449  0.031444456           12 
 3246000   0.73043486    -5.860839    1253.1305  0.032171147   0.03143632           12 
 3247000   0.73699982   -5.8500976    1255.4021  0.032219538  0.031428189           10 
 3248000   0.72547239   -5.8609724    1251.2517  0.032103133  0.031420086            9 
 3249000   0.73763514   -5.8426286    1252.4036  0.032122798   0.03141198            7 
 3250000   0.73959201    -5.847939    1252.5934  0.032117781    0.0314039            8 
 3251000   0.74005765   -5.8834229    1255.2888  0.032176992  0.031395791            4 
 3252000   0.73371531   -5.8553676    1255.4179  0.032170406  0.031387674           13 
 3253000   0.72787344   -5.8535481    1253.9556  0.032123056  0.031379564            8 
 3254000   0.72680278   -5.8461466    1252.2149  0.032068604  0.031371499            9 
 3255000   0.72405702   -5.8477306    1253.9692  0.032103667  0.031363462           10 
 3256000   0.72025334   -5.8507031    1257.3938  0.032181455  0.031355453           14 
 3257000    0.7325094   -5.8828934    1255.8122  0.032131107  0.031347385           11 
 3258000   0.72583173   -5.8605651    1252.6097  0.032039332  0.031339324           11 
 3259000    0.7340304   -5.8531347    1254.7699  0.032084737  0.031331249            9 
 3260000   0.73851358   -5.8345286    1254.6023   0.03207061  0.031323171            6 
 3261000   0.73328484   -5.8584935    1256.7503  0.032115667  0.031315089            7 
 3262000   0.72239471   -5.8461633    1257.3088  0.032120089  0.031307075            8 
 3263000   0.72921686   -5.8393765    1255.8397  0.032072726  0.031299059           13 
 3264000   0.73466592   -5.8577907    1257.7668  0.032112101  0.031291054            5 
 3265000   0.74378095   -5.8706402    1257.0674  0.032084415  0.031283061           14 
 3266000   0.71885741   -5.8468135    1257.7574  0.032092198  0.031275051           12 
 3267000   0.73735237   -5.8675971    1256.3943  0.032047604   0.03126701           11 
 3268000   0.72204354     -5.86961    1252.3332  0.031934241  0.031258948           10 
 3269000   0.73594458   -5.8673207    1255.7332  0.032011146  0.031250871            8 
 3270000   0.72144076   -5.8363713    1263.0693   0.03218831  0.031242893           10 
 3271000   0.73359876   -5.8492676     1257.952  0.032048098  0.031234951            5 
 3272000   0.73013306   -5.8435478    1259.4796   0.03207721  0.031227041           10 
 3273000   0.70918057   -5.8828228    1254.8385  0.031949244  0.031219056           14 
 3274000   0.73649505   -5.8931118    1255.7548  0.031962808  0.031211023           19 
 3275000   0.73980248   -5.8693016      1256.39  0.031969212  0.031202958           15 
 3276000   0.73131363   -5.8816681    1258.8538  0.032022126  0.031194927           12 
 3277000   0.72387806   -5.8719781    1255.6785  0.031931606  0.031186887           16 
 3278000   0.71103756   -5.8740226    1258.3494  0.031989764  0.031178882            7 
 3279000   0.72871953    -5.864792    1259.2513   0.03200293  0.031170874           15 
 3280000   0.73948124   -5.8389082    1258.8251  0.031982345  0.031162947            9 
 3281000   0.72902357   -5.8682661    1260.4488  0.032013837   0.03115499            7 
 3282000   0.71368428   -5.8690147    1258.7654  0.031961339  0.031146966           10 
 3283000   0.71584998   -5.8682107    1262.1202   0.03203676  0.031138982            8 
 3284000   0.73983527   -5.8669936    1259.0989  0.031950337  0.031131072            7 
 3285000   0.72500877   -5.8667937    1259.2383  0.031944149  0.031123088           15 
 3286000    0.7328994   -5.8710242    1257.7882  0.031897652  0.031115101            9 
 3287000   0.72916087   -5.8610378    1259.5586  0.031932832  0.031107122            9 
 3288000    0.7200251   -5.8795858    1257.4187  0.031868885  0.031099176           22 
 3289000   0.73028271    -5.878589    1259.2425  0.031905403  0.031091198           12 
 3290000   0.72140592   -5.8773581    1263.5674  0.032005253  0.031083279            9 
 3291000   0.73343662   -5.8542682    1261.4555  0.031942052  0.031075349            5 
 3292000    0.7225627    -5.878377    1260.0281  0.031896216  0.031067391            6 
 3293000   0.72114318   -5.8560392    1260.5354  0.031899368  0.031059461           14 
 3294000   0.73197664   -5.8816064    1259.7773  0.031870505  0.031051487            6 
 3295000   0.73006013   -5.8689123    1258.5234  0.031829121  0.031043549           20 
 3296000   0.72090373   -5.8554223    1260.4812  0.031868963  0.031035582           10 
 3297000   0.71854463   -5.8709907    1261.4106  0.031882788  0.031027588           11 
 3298000   0.71292254   -5.8940142    1259.1498  0.031815994  0.031019642            8 
 3299000   0.73043967   -5.8528315    1265.4451   0.03196537  0.031011684           16 
 3300000   0.72025608   -5.8582737    1261.8792  0.031865637  0.031003775            8 
 3301000   0.73839931   -5.8922335    1262.3259   0.03186726  0.030995845           17 
 3302000   0.73043406   -5.8663965    1260.9916  0.031823935  0.030987905            5 
 3303000   0.71534719   -5.8638154    1261.8629  0.031836282  0.030979984           17 
 3304000   0.72706418    -5.873404    1260.6115  0.031795085   0.03097206           13 
 3305000   0.71472019   -5.8735255    1262.8395  0.031841642  0.030964116           16 
 3306000   0.72408784   -5.8656239    1264.5969  0.031876307  0.030956245            6 
 3307000   0.73725377   -5.8946895    1261.8502  0.031797454  0.030948377           14 
 3308000   0.72861559   -5.8443964    1263.4168  0.031827308  0.030940499           10 
 3309000   0.71009064   -5.8751296    1261.2556  0.031763263  0.030932609           12 
 3310000    0.7287145   -5.8561971    1262.9934  0.031797416  0.030924696           15 
 3311000   0.70716792   -5.8938711    1258.8678  0.031683978  0.030916769           15 
 3312000   0.72227321   -5.8663469    1264.1112  0.031806341  0.030908825            9 
 3313000   0.70368812   -5.8817315    1260.3103  0.031701136  0.030900919            4 
 3314000   0.73631263   -5.8791256    1260.9646  0.031708022  0.030893001            6 
 3315000   0.73968212   -5.8656977    1259.3102  0.031656867  0.030885053           14 
 3316000   0.72906256   -5.8798295    1261.5606  0.031703876  0.030877138           27 
 3317000   0.73335165   -5.9029178    1257.3145  0.031587641  0.030869186            9 
 3318000   0.71046489   -5.8954439    1260.8866  0.031667837  0.030861227           13 
 3319000   0.71961818   -5.8692255    1263.7076  0.031729126  0.030853263           13 
 3320000   0.70920927    -5.886835    1258.4874  0.031588538  0.030845272            8 
 3321000   0.70483666     -5.86839    1262.5549  0.031681093  0.030837368            9 
 3322000   0.73736165   -5.8733169    1264.6252  0.031723491  0.030829514            4 
 3323000   0.72383476   -5.8899877    1262.4115  0.031658429  0.030821593            8 
 3324000   0.70645128   -5.8962654    1259.2217  0.031568935  0.030813658           10 
 3325000   0.73168379   -5.8753282    1264.2872  0.031686397  0.030805707           16 
 3326000   0.72637333   -5.8778611    1262.9614   0.03164365  0.030797824           10 
 3327000   0.71889684     -5.88675    1262.8275  0.031630785  0.030789909           15 
 3328000   0.70867164   -5.8896727    1260.1083  0.031553192  0.030781997           10 
 3329000   0.72795789    -5.892889    1261.4173  0.031576482  0.030774041            9 
 3330000   0.72268839   -5.8891518     1263.221  0.031612138  0.030766102            8 
 3331000   0.71798382   -5.8843393    1260.9619  0.031546131  0.030758154            7 
 3332000      0.71546   -5.9203077    1260.7443  0.031531219  0.030750199            7 
 3333000   0.71487267   -5.9092673    1260.0878  0.031505346  0.030742218           27 
 3334000   0.71557561   -5.8942804    1262.4555  0.031555076  0.030734276            7 
 3335000   0.71424984   -5.8672641    1264.9655  0.031608335  0.030726344           11 
 3336000   0.72032204   -5.9013589    1260.2908  0.031482085  0.030718415            7 
 3337000   0.71779876   -5.9184941    1263.4585  0.031551754  0.030710486           21 
 3338000   0.73203387   -5.8913504    1264.0198  0.031556316  0.030702557           11 
 3339000   0.71375773   -5.9073364    1262.5299  0.031509681   0.03069461           16 
 3340000   0.71348841   -5.9184434    1259.0104  0.031412436  0.030686604           20 
 3341000   0.71138502   -5.9063654    1261.2346   0.03145851  0.030678647            7 
 3342000   0.72509345   -5.8962658    1260.2622   0.03142485  0.030670663           13 
 3343000   0.71509318   -5.8777672    1262.8817  0.031480749   0.03066269           14 
 3344000   0.70599633   -5.8981057    1263.9013  0.031496742  0.030654768           18 
 3345000   0.72401374   -5.9139383    1262.2554  0.031446323  0.030646822            8 
 3346000   0.70631291    -5.880821    1263.2238  0.031461044  0.030638888           29 
 3347000   0.72161805   -5.8732181    1265.7387  0.031514259  0.030630986            7 
 3348000    0.7198787   -5.8824837    1265.8265  0.031507031  0.030623099           12 
 3349000   0.71421163   -5.9040107    1261.4178  0.031387921  0.030615209           10 
 3350000   0.72660929   -5.8770324    1268.0627  0.031543849  0.030607261           28 
 3351000   0.72879665   -5.9026251    1265.9757  0.031482536  0.030599384           13 
 3352000   0.71982518   -5.8668272    1264.5414  0.031437486  0.030591538            6 
 3353000    0.6989509   -5.8817584     1266.882  0.031486282   0.03058371           10 
 3354000   0.68647397   -5.9358288    1262.6169  0.031370924  0.030575821            8 
 3355000   0.73044914   -5.9195369    1261.1625  0.031325448  0.030567896           12 
 3356000   0.72122208   -5.8886168    1266.7178  0.031454057  0.030559987           17 
 3357000   0.69305844   -5.9045675     1263.409   0.03136255  0.030552106           13 
 3358000   0.70630858   -5.9078258    1262.7778  0.031337547  0.030544213            8 
 3359000    0.7172617   -5.9043775    1265.8369  0.031404112   0.03053633            8 
 3360000   0.71341534   -5.8827331    1265.2786  0.031380918  0.030528518            9 
 3361000   0.70724808   -5.8839213    1264.5238  0.031352866  0.030520637           15 
 3362000   0.71177398   -5.8973101    1265.4882  0.031367444  0.030512755            6 
 3363000   0.70094175   -5.9265565    1264.7731  0.031340398  0.030504867            6 
 3364000   0.71334768   -5.9013096    1263.1948  0.031291984  0.030496961           17 
 3365000   0.71022525   -5.8916974    1265.5623  0.031341314  0.030489071            9 
 3366000   0.71130412   -5.8913233    1265.2358  0.031323921  0.030481183            6 
 3367000    0.6982714   -5.8865432    1270.8014  0.031452367  0.030473374           11 
 3368000   0.71190864    -5.863378    1266.8751   0.03134588  0.030465484            9 
 3369000   0.71208082   -5.8785588    1269.5157  0.031401892  0.030457585            8 
 3370000   0.73185041   -5.9222873    1264.9939  0.031280758  0.030449748            5 
 3371000   0.71634487    -5.912914    1264.2245  0.031252461  0.030441874            7 
 3372000   0.72052795   -5.8916108    1264.8787   0.03125936  0.030433972            7 
 3373000   0.72222131   -5.9078265    1269.7311  0.031369974  0.030426113           11 
 3374000   0.70254354   -5.9144525    1263.4496  0.031205533  0.030418262           22 
 3375000   0.71044945   -5.8896934    1265.7455  0.031252975  0.030410417            7 
 3376000   0.69301768    -5.889879    1268.3708   0.03130852  0.030402563           10 
 3377000   0.70102713   -5.9118705    1264.7099   0.03120891  0.030394711           23 
 3378000   0.71311799   -5.9113338    1264.7291  0.031200146  0.030386852            4 
 3379000   0.71434801   -5.8957327    1263.4378  0.031159067  0.030378939           15 
 3380000   0.71351421   -5.9214341    1267.1448  0.031241243  0.030370995           12 
 3381000   0.69696824    -5.919761    1263.3434  0.031138307  0.030363044            8 
 3382000   0.71060905   -5.9180743    1265.8247   0.03119024  0.030355116           21 
 3383000   0.71265174   -5.9271459    1266.3038  0.031192821  0.030347247            8 
 3384000   0.70613709   -5.8923557    1265.8019  0.031171243  0.030339398            8 
 3385000   0.72087823    -5.916079    1268.6057   0.03123106  0.030331546            7 
 3386000   0.70891984    -5.900065    1264.7627  0.031127256  0.030323684           14 
 3387000   0.69345011   -5.9054073    1267.5859  0.031187528  0.030315831           12 
 3388000   0.71021431   -5.8805216    1270.2327  0.031243425  0.030308009            9 
 3389000   0.70933714   -5.8932379    1267.7502  0.031173162  0.030300202           12 
 3390000   0.72670952   -5.8830956    1269.8593  0.031215814  0.030292389           11 
 3391000   0.73051368   -5.8902705    1268.2238  0.031166415  0.030284595            8 
 3392000   0.72366514   -5.9029707    1266.7851  0.031121882  0.030276757            9 
 3393000   0.70559531   -5.9218267    1263.8667  0.031041033  0.030268894           11 
 3394000    0.7051088   -5.8845473    1264.9649  0.031058851  0.030261025            9 
 3395000   0.70232715   -5.9353024     1266.573  0.031089175   0.03025316            8 
 3396000   0.71261049   -5.8921548    1265.9302  0.031064247  0.030245281            6 
 3397000   0.70760562   -5.9190842    1265.0193  0.031032758  0.030237394           21 
 3398000   0.71927554   -5.9114039    1267.9171   0.03109469   0.03022954            7 
 3399000   0.70673482   -5.9279443    1265.6056  0.031028872  0.030221709           16 
 3400000   0.70568924   -5.9148533    1264.2105  0.030985551  0.030213887           17 
 3401000   0.70075701   -5.8794869     1266.843  0.031040944  0.030206043           11 
 3402000   0.72219459   -5.9079613    1267.4784  0.031047383  0.030198206           12 
 3403000   0.71264425   -5.9054434    1266.9665  0.031025726  0.030190359            8 
 3404000   0.70477343   -5.9135982    1270.0414  0.031091887  0.030182522            9 
 3405000   0.70759114   -5.9001707     1269.168   0.03106138  0.030174729            8 
 3406000   0.71068133   -5.9163192    1268.1658   0.03102774  0.030166915            9 
 3407000   0.71413905   -5.9165216    1267.1522  0.030993842  0.030159075           13 
 3408000    0.7129701   -5.9045257    1270.1182  0.031057273  0.030151195            8 
 3409000   0.69904083    -5.895645    1268.5515  0.031009863  0.030143369            7 
 3410000   0.70571965    -5.901395    1268.3666   0.03099625  0.030135503           14 
 3411000   0.70988698   -5.9188662    1268.3549  0.030986878  0.030127631            9 
 3412000   0.70213827    -5.905804    1269.3094  0.031001109  0.030119781            6 
 3413000   0.68583565   -5.8965028    1268.2184  0.030965387  0.030111935            6 
 3414000   0.71126825   -5.9402145    1268.2498  0.030957084  0.030104062            9 
 3415000   0.70046921   -5.9417097    1267.8318  0.030937819   0.03009618           12 
 3416000   0.72278959   -5.9086064    1268.2283  0.030938434  0.030088336            6 
 3417000   0.69163162    -5.915832    1270.4913   0.03098457  0.030080581            7 
 3418000   0.71460811   -5.9244416    1268.1613  0.030918698  0.030072764           11 
 3419000   0.69773661    -5.918074    1269.4886  0.030942007  0.030064925            8 
 3420000   0.70644898   -5.9261617    1267.1956  0.030877087  0.030057164           17 
 3421000   0.69722196   -5.9117932    1269.5197  0.030924674  0.030049361            8 
 3422000   0.70341059    -5.907184    1269.1136  0.030905747  0.030041596            7 
 3423000   0.69474669   -5.9058063    1269.5432  0.030907177  0.030033779           11 
 3424000   0.69614758   -5.9295006    1270.6322  0.030924655  0.030025988            6 
 3425000   0.69767493   -5.9414949    1269.6816  0.030892497  0.030018198           13 
 3426000   0.69391019   -5.9041961    1271.1077  0.030918167  0.030010393           11 
 3427000   0.69128366    -5.925231    1271.0358  0.030907396  0.030002568           22 
 3428000    0.6991411    -5.954932    1268.6934  0.030841439  0.029994752           16 
 3429000   0.70677125   -5.9303595     1268.918  0.030837902  0.029986888           12 
 3430000   0.69559944   -5.9126123    1269.0612   0.03083239  0.029979086           27 
 3431000   0.70425741   -5.9475563    1266.7439  0.030767121  0.029971259           18 
 3432000   0.69226915   -5.9008465     1271.489  0.030873372  0.029963413            9 
 3433000   0.70256074   -5.9223243    1274.5608  0.030938944  0.029955654            8 
 3434000   0.71441488   -5.9143248    1268.9011   0.03079259  0.029947801           24 
 3435000   0.72258826   -5.9142193    1270.8328  0.030830489  0.029939952           10 
 3436000   0.71709942   -5.9523906    1267.6803   0.03074506  0.029932125           10 
 3437000   0.69219293   -5.9136839    1274.1156  0.030892145  0.029924302           13 
 3438000   0.70406294   -5.9609702    1269.6678   0.03077535  0.029916439           12 
 3439000   0.69152525   -5.9163491       1270.5  0.030786565  0.029908642            8 
 3440000   0.70936874   -5.9172603    1270.4681  0.030776843  0.029900853            7 
 3441000   0.70107514    -5.923058    1270.1013  0.030759017  0.029893075           10 
 3442000   0.69621518   -5.9421175    1274.5275  0.030857242  0.029885275           13 
 3443000   0.69664879   -5.9408287    1272.5155  0.030799582  0.029877468           25 
 3444000   0.68607227   -5.9298575    1269.4604  0.030716714  0.029869672            7 
 3445000   0.70885789   -5.9037398    1274.1304  0.030820765  0.029861865           15 
 3446000    0.6986562    -5.925514    1268.8092  0.030683139  0.029854137           13 
 3447000    0.7048622   -5.9561197    1273.3255  0.030783422  0.029846372           13 
 3448000   0.69407978    -5.939266    1269.6918  0.030686673  0.029838599           32 
 3449000   0.71426737   -5.9159411    1270.5296  0.030698018  0.029830796           10 
 3450000   0.68113622   -5.9291352    1272.0846   0.03072668  0.029823075            9 
 3451000   0.69449334   -5.9162977     1268.351  0.030627619  0.029815326            6 
 3452000   0.71633892   -5.9423472    1269.3638  0.030643197    0.0298076           19 
 3453000   0.69741543   -5.9558032    1270.3714   0.03065864  0.029799798           11 
 3454000   0.69936914   -5.9572623    1269.2087  0.030621712  0.029791982           15 
 3455000   0.68974658   -5.9498876    1268.8125  0.030603293  0.029784191            8 
 3456000   0.70182114   -5.9400822     1269.516  0.030611401  0.029776387           25 
 3457000   0.70443763   -5.9322521    1273.2069  0.030691516  0.029768629            6 
 3458000   0.70524385   -5.9709871    1273.9683  0.030700991  0.029760877           15 
 3459000   0.70280218   -5.9489347    1270.6521  0.030612221  0.029753092           12 
 3460000   0.70178306   -5.9268637     1277.848  0.030776685  0.029745362            8 
 3461000   0.68926455   -5.9254699    1271.9013  0.030624609  0.029737643           23 
 3462000    0.7014109   -5.9580606    1272.2268    0.0306236  0.029729913            8 
 3463000   0.70724034   -5.9350776    1274.2735  0.030664007  0.029722222           10 
 3464000   0.69435449   -5.9213763    1274.8226  0.030668365  0.029714549            5 
 3465000   0.70982305   -5.9269454    1273.6819   0.03063208  0.029706809            6 
 3466000   0.68486295   -5.9487985    1273.2617  0.030613139  0.029699121           28 
 3467000   0.68750053   -5.9327179    1274.2352  0.030627709  0.029691445           16 
 3468000   0.70272198   -5.9110239    1276.4171  0.030671306  0.029683736            8 
 3469000   0.69776504   -5.9425114    1275.8256  0.030648257   0.02967604            8 
 3470000   0.69943824   -5.9442733     1274.437  0.030606076  0.029668364           13 
 3471000   0.68295767   -5.9569345    1270.9241  0.030512918   0.02966067            9 
 3472000   0.69252433   -5.9409706    1277.2352  0.030655606  0.029652919            7 
 3473000   0.70481616   -5.9159505     1275.045  0.030594226  0.029645215           21 
 3474000   0.68863516   -5.9397416    1272.0787  0.030514266  0.029637511            9 
 3475000   0.70540593   -5.9339967    1272.0051   0.03050372  0.029629819           14 
 3476000   0.69029276   -5.9596021    1274.0975  0.030545107  0.029622084            5 
 3477000   0.69116763   -5.9458994    1272.3278  0.030493909  0.029614336           10 
 3478000   0.68084872   -5.9381686    1271.6814  0.030469652  0.029606567            8 
 3479000   0.69261282   -5.9449042    1273.2786  0.030499151  0.029598816           11 
 3480000   0.68315145   -5.9418177    1275.2101  0.030536641  0.029591129            9 
 3481000   0.69676558   -5.9293523    1275.4219  0.030532937  0.029583446            7 
 3482000   0.69472445   -5.9558922    1276.2356  0.030543642  0.029575771           11 
 3483000   0.68255401   -5.9383193    1274.8775   0.03050238  0.029568068            9 
 3484000   0.69322686    -5.934148    1277.7318  0.030561896  0.029560358            8 
 3485000   0.67774271   -5.9320191    1277.1157  0.030538395  0.029552697           10 
 3486000   0.68792853   -5.9395819    1277.1828   0.03053124  0.029545021            7 
 3487000   0.69771705   -5.9532336    1274.8944  0.030467795  0.029537336           12 
 3488000    0.7025963   -5.9212971    1277.5164  0.030521702  0.029529624           14 
 3489000   0.69101813   -5.9802979    1271.5079  0.030369445  0.029521928           18 
 3490000   0.69197043   -5.9430783    1274.3149  0.030427768  0.029514207           21 
 3491000   0.69092738   -5.9769734    1270.9051  0.030337657  0.029506501            7 
 3492000   0.69468341     -5.96258     1273.314  0.030386454  0.029498795           23 
 3493000   0.68862472   -5.9629567    1275.2626  0.030424245  0.029491041            6 
 3494000   0.70154216   -5.9427174    1277.2337  0.030462549  0.029483335            5 
 3495000    0.6862427   -5.9495831    1275.3531  0.030408991  0.029475622           17 
 3496000   0.68558497   -5.9736784    1277.1559  0.030443265  0.029467922           11 
 3497000   0.69140932   -5.9566123    1275.9225  0.030405168  0.029460232            7 
 3498000   0.69050264   -5.9754543    1271.3939  0.030288591  0.029452537            9 
 3499000   0.71355186   -5.9598778    1272.8934  0.030315647  0.029444814           11 
 3500000   0.68914088   -5.9311263    1276.4612  0.030391934  0.029437136           12 
 3501000   0.69946054   -5.9634564     1275.417  0.030358398  0.029429435           26 
 3502000   0.68643837   -5.9269956    1274.7671  0.030334263  0.029421743           18 
 3503000   0.68635891   -5.9457221    1275.3086  0.030338486  0.029414046            8 
 3504000   0.69015697   -5.9791693    1268.5092  0.030168123  0.029406329            9 
 3505000   0.69961448   -5.9561019    1274.0547  0.030291363    0.0293986           10 
 3506000   0.69866123   -5.9773416    1269.5847  0.030176477  0.029390873            6 
 3507000   0.67834234   -5.9574001    1273.9436  0.030271447  0.029383216           14 
 3508000   0.66835208   -5.9516143    1274.7873   0.03028286  0.029375616            9 
 3509000   0.68218905    -5.954379    1274.3852  0.030264682  0.029367983           14 
 3510000   0.68086182   -5.9674388    1277.0726  0.030319863  0.029360325           12 
 3511000   0.70292214   -5.9509103    1274.9566  0.030261004  0.029352686           11 
 3512000    0.6979162   -5.9649099    1275.4813  0.030264837  0.029345016            6 
 3513000   0.68444369   -5.9600585    1277.5651  0.030305652  0.029337363           14 
 3514000   0.68628973    -5.948298    1273.5863  0.030202671  0.029329698           19 
 3515000   0.68175676   -5.9480704     1278.586  0.030312612  0.029322011           13 
 3516000   0.69721221   -5.9428514    1274.3227  0.030202946  0.029314361           14 
 3517000   0.69407442   -5.9598485    1274.1388  0.030190002  0.029306694           11 
 3518000   0.67738325   -5.9715142    1275.7428  0.030219415  0.029299067            6 
 3519000   0.68227139   -5.9345727    1278.1736   0.03026839  0.029291471           10 
 3520000   0.69560088    -5.961858      1277.71  0.030248817  0.029283865            5 
 3521000   0.68173722   -5.9582877    1277.2085  0.030228355  0.029276254            6 
 3522000    0.6891365   -5.9739135    1280.7189  0.030302833  0.029268626           14 
 3523000   0.68492782   -5.9650766    1275.0013  0.030158986  0.029260999           11 
 3524000   0.68844759   -5.9453856    1276.5223  0.030186395  0.029253358           11 
 3525000   0.68218382   -5.9521098    1277.8948  0.030210279  0.029245741            3 
 3526000   0.68517838   -5.9869761    1276.6132  0.030171421  0.029238101           23 
 3527000   0.68675927    -5.963649    1274.8047  0.030120137  0.029230449           20 
 3528000   0.68678536   -5.9866833      1275.01  0.030116449  0.029222771           20 
 3529000   0.68709838   -5.9506855    1277.6884  0.030171163  0.029215123           12 
 3530000   0.70103185   -5.9819989     1274.415   0.03008534  0.029207475           12 
 3531000   0.68396337   -5.9603275    1272.7502   0.03003753   0.02919985           11 
 3532000   0.70908713   -5.9794746    1278.4824   0.03016427  0.029192216           18 
 3533000   0.67633725   -5.9626578    1281.4984   0.03022687  0.029184565           10 
 3534000   0.68168637   -5.9532352    1278.0067  0.030135982  0.029176914           12 
 3535000   0.69125276   -5.9722166    1278.3441   0.03013541  0.029169291           15 
 3536000   0.69505617   -5.9780106    1278.6369  0.030133789  0.029161644           15 
 3537000   0.68941228   -5.9364072    1277.1357    0.0300899  0.029154046            6 
 3538000    0.6973684   -5.9513664    1278.0237  0.030102311  0.029146465            4 
 3539000   0.69371832   -5.9399984    1277.2044  0.030074513  0.029138854           21 
 3540000   0.70349529   -5.9535706    1275.4069  0.030023703  0.029131233            9 
 3541000   0.69324368   -5.9713204     1274.719  0.029999036  0.029123617           10 
 3542000   0.67821273   -5.9649001     1277.656  0.030059666  0.029115948           11 
 3543000   0.68306773   -5.9861496    1278.1932  0.030063817   0.02910828            9 
 3544000   0.67081349   -5.9755884    1275.3572  0.029988647  0.029100598           14 
 3545000   0.69300267   -5.9804244    1275.4228  0.029981731  0.029092954           16 
 3546000   0.68873107   -5.9781726     1276.166   0.02999074  0.029085326           11 
 3547000    0.6889767   -5.9816321    1277.0345  0.030002689  0.029077711           12 
 3548000   0.69682329    -5.988992    1279.9703  0.030063187  0.029070026           11 
 3549000    0.6699202   -5.9878809    1276.6688  0.029977195   0.02906239           15 
 3550000   0.68244402   -5.9734181    1278.0005  0.030000011  0.029054784            5 
 3551000   0.67937525   -5.9579035    1277.5554  0.029981119  0.029047137           10 
 3552000   0.69130927   -5.9374559    1281.1196  0.030056296  0.029039593            8 
 3553000   0.68707887   -5.9718146    1278.1065  0.029977167  0.029032004           16 
 3554000   0.66852516   -5.9832517    1279.7437   0.03000712  0.029024399           25 
 3555000   0.68431876    -5.959821    1278.8761  0.029978344  0.029016771           13 
 3556000   0.68428219   -5.9756596     1280.715  0.030013006  0.029009161           10 
 3557000   0.68636087   -5.9717092    1277.9464  0.029939706  0.029001558            5 
 3558000   0.69071654   -5.9933293    1278.0391  0.029933462   0.02899395           16 
 3559000     0.673702   -5.9897528    1278.1679  0.029928067  0.028986311           10 
 3560000   0.68342474    -5.985521    1278.8304  0.029935169  0.028978681           14 
 3561000   0.68974271    -5.972455    1279.0541  0.029931997  0.028971058           20 
 3562000   0.66864981   -5.9842692    1274.2304  0.029810744  0.028963401           10 
 3563000    0.6873086   -5.9680331     1276.967  0.029866382   0.02895572            7 
 3564000   0.66995892   -6.0055078    1275.5849  0.029825685   0.02894805           13 
 3565000   0.67286771     -6.00431    1279.1456  0.029900552   0.02894042           10 
 3566000   0.67934932   -5.9528557    1281.3835  0.029944463  0.028932837           19 
 3567000   0.68783427   -5.9526778    1280.9764  0.029926559  0.028925241           15 
 3568000   0.69141863    -5.953686    1279.3563  0.029880333  0.028917669           11 
 3569000   0.69855183   -5.9829704    1279.8716  0.029883991  0.028910071           10 
 3570000   0.68642189   -5.9847969     1276.947  0.029807352  0.028902441           12 
 3571000   0.67883353   -5.9913455    1276.3683  0.029785501  0.028894793            8 
 3572000   0.67313943   -5.9693744    1278.8552  0.029835182  0.028887127           10 
 3573000   0.68881642    -5.963889    1278.7933  0.029825387  0.028879495           14 
 3574000   0.69650892   -5.9753851    1278.6647  0.029814045  0.028871844           10 
 3575000   0.67452358   -5.9835252    1276.1353  0.029746743  0.028864214           19 
 3576000   0.67154914   -5.9674819    1277.0132  0.029758884  0.028856582            5 
 3577000   0.67365979   -5.9928767    1276.3607  0.029735362  0.028848917            7 
 3578000   0.68716665   -6.0094492    1276.0742  0.029720378  0.028841282           12 
 3579000   0.67643677   -5.9907386    1279.6791  0.029796011  0.028833635           25 
 3580000   0.68145959   -6.0117464    1276.3319  0.029709775  0.028825985           14 
 3581000   0.67550393   -6.0073988    1275.1321  0.029673556  0.028818322           18 
 3582000   0.67668536   -5.9844148    1278.9083  0.029753125  0.028810702           20 
 3583000   0.66250883   -5.9952742    1280.4556  0.029780807  0.028803081           37 
 3584000   0.69714074   -6.0040458    1280.3806  0.029770755  0.028795484           10 
 3585000   0.66130923   -5.9523694    1281.2852  0.029783478  0.028787898            9 
 3586000   0.66968608   -5.9608917    1282.4068  0.029801236  0.028780325            6 
 3587000   0.67692215   -5.9753356    1278.6233   0.02970503  0.028772727            7 
 3588000   0.66966598   -5.9815607    1276.2417  0.029641438  0.028765135           20 
 3589000   0.69188966   -5.9594918    1280.3429  0.029728403  0.028757568           11 
 3590000   0.66755345   -5.9858737    1279.5201  0.029701025   0.02874998           15 
 3591000   0.69474059   -5.9782204    1280.3321  0.029711595  0.028742405           15 
 3592000   0.69506164   -6.0070104    1279.5528  0.029685244  0.028734815           17 
 3593000   0.66566893    -6.010481    1281.4765  0.029721601  0.028727198           13 
 3594000   0.65873038   -6.0096383    1280.9786  0.029701785  0.028719597           16 
 3595000   0.68806649   -6.0200635     1277.365  0.029609758  0.028711941           26 
 3596000   0.67198471   -5.9778972    1280.0731  0.029664282  0.028704316           12 
 3597000   0.67575635   -5.9600156    1280.8478  0.029673983  0.028696727           10 
 3598000   0.66817059   -5.9625189    1280.9173  0.029667346  0.028689144           15 
 3599000    0.6685022   -5.9866601    1282.8999  0.029705007  0.028681596           20 
 3600000   0.68097828   -6.0015002    1278.2069  0.029588123  0.028674029           26 
 3601000   0.66551787   -5.9886346    1280.5585  0.029634325  0.028666458           15 
 3602000   0.69119127   -5.9587686    1280.3545  0.029621379  0.028658906           21 
 3603000   0.67724448   -5.9935661    1281.0978   0.02963035  0.028651333           16 
 3604000   0.65361588   -5.9819883    1284.8294  0.029708412  0.028643766           15 
 3605000   0.68115904   -5.9792068    1282.1771   0.02963886  0.028636181           15 
 3606000   0.68465819   -5.9734263    1282.2641  0.029632651  0.028628626           16 
 3607000   0.67293138   -6.0084327    1280.3096   0.02957928  0.028621082           11 
 3608000   0.67892884     -6.01431    1281.4699  0.029597881  0.028613492           22 
 3609000   0.67620259   -5.9808788    1282.0661  0.029603447  0.028605858           12 
 3610000   0.67702747   -5.9991438    1281.8011  0.029589131  0.028598319           12 
 3611000   0.67340047   -5.9848217    1282.1613  0.029589248  0.028590752           15 
 3612000   0.68091116   -6.0093594    1277.3203  0.029469369  0.028583186           15 
 3613000   0.66513271   -5.9797337    1280.4743  0.029533958  0.028575642           15 
 3614000   0.66002292   -6.0044299    1280.1084   0.02951735  0.028568087            6 
 3615000     0.662781   -5.9735695    1281.2239  0.029534899  0.028560548            8 
 3616000   0.67813732   -5.9742988    1281.2076  0.029526355     0.028553           13 
 3617000   0.68257509   -5.9947051    1280.5773  0.029503669  0.028545434           14 
 3618000   0.67041469   -5.9801934    1280.0964  0.029484438  0.028537863           12 
 3619000   0.67263194   -5.9831918    1284.3954  0.029575284  0.028530308           16 
 3620000   0.65417643    -6.018761    1282.4865  0.029523169  0.028522757           10 
 3621000   0.67025304   -5.9762987    1281.7107  0.029497163  0.028515164           12 
 3622000   0.66609585   -5.9858682    1283.4617  0.029529305  0.028507596            6 
 3623000   0.68214103   -5.9820929    1283.7419  0.029527599  0.028500038            9 
 3624000   0.67688287   -5.9939339    1285.4758  0.029559323  0.028492494           20 
 3625000   0.65873645   -5.9921747    1279.7104  0.029418629  0.028484931           16 
 3626000   0.67666856   -5.9923023    1282.6247  0.029477494  0.028477354           12 
 3627000   0.68023077   -6.0429994    1280.1805  0.029413208  0.028469796           13 
 3628000   0.65715203    -5.998472    1278.3664  0.029363432  0.028462229           12 
 3629000   0.66867463   -6.0009233    1279.7978  0.029388211  0.028454669           14 
 3630000   0.66721444   -6.0207928    1278.1361  0.029341967  0.028447083           13 
 3631000   0.66714715   -5.9848187    1280.4005  0.029385856  0.028439518            6 
 3632000   0.66475398   -5.9897042    1282.8778  0.029434603   0.02843198           11 
 3633000   0.65302618   -5.9681174    1283.3824  0.029438076  0.028424454            8 
 3634000   0.66523207   -5.9844839    1281.0833  0.029377255  0.028416908            7 
 3635000   0.66177429   -6.0002814    1282.2025  0.029394831  0.028409393            8 
 3636000   0.67266849   -5.9905831    1278.7645   0.02930795  0.028401841            6 
 3637000   0.66286464   -6.0169119    1278.7584  0.029299753  0.028394257           21 
 3638000   0.66063203   -6.0176098     1278.604  0.029288161  0.028386636           25 
 3639000   0.67647565   -6.0136665     1279.186  0.029293442  0.028379015           16 
 3640000   0.66697675   -6.0174807    1280.4533  0.029314408  0.028371427           22 
 3641000   0.66623415   -6.0111485    1280.8043  0.029314389  0.028363814           30 
 3642000    0.6696188    -6.008232    1280.1996  0.029292505  0.028356252           15 
 3643000   0.66828779   -6.0132503    1282.0966  0.029327858   0.02834865           12 
 3644000   0.67102402   -6.0052841      1281.91  0.029315542  0.028341075           18 
 3645000    0.6749645   -5.9829276    1284.7692  0.029372867  0.028333554            7 
 3646000   0.67672458   -6.0076343    1280.5458  0.029268281   0.02832597           11 
 3647000   0.67718021   -6.0217462    1280.4253  0.029257502  0.028318384           19 
 3648000   0.67587655   -6.0336859     1276.575  0.029161528  0.028310782           14 
 3649000   0.67973543   -6.0315628    1278.4881  0.029197226  0.028303156           21 
 3650000   0.66458518   -6.0003862    1279.9518  0.029222644  0.028295536            7 
 3651000   0.66350774   -5.9770256    1285.0749  0.029331574  0.028287984           14 
 3652000   0.66898088   -5.9880246    1281.9832  0.029252993  0.028280463            9 
 3653000   0.66996643   -5.9995535    1283.8212  0.029286914  0.028272948           11 
 3654000   0.65375788   -6.0194996    1278.7564  0.029163392  0.028265386           22 
 3655000   0.65433406   -6.0283339    1280.3035  0.029190686  0.028257783            8 
 3656000   0.68273815   -6.0280101    1283.0663  0.029245677   0.02825019           13 
 3657000   0.66402861   -6.0455107    1281.0582   0.02919192  0.028242636           14 
 3658000   0.64858129   -6.0332657    1280.1156  0.029162466  0.028235071           10 
 3659000   0.68953059   -6.0424478    1278.1819  0.029110457   0.02822748           19 
 3660000   0.66489379   -6.0054609    1281.3248  0.029174062  0.028219908           18 
 3661000   0.66027457   -6.0162805    1282.2291  0.029186676  0.028212374            6 
 3662000   0.68121071   -6.0098024    1283.8796  0.029216265  0.028204872           17 
 3663000   0.68089127   -6.0111296    1282.5366  0.029177736   0.02819736           14 
 3664000   0.66588884   -6.0053445    1284.2513  0.029208772  0.028189878           13 
 3665000   0.66588492   -6.0090275    1283.3331  0.029179926  0.028182419           19 
 3666000   0.67692372   -6.0256349    1282.8877   0.02916184  0.028174901           21 
 3667000   0.65842706   -6.0125987    1282.8806  0.029153726  0.028167371           22 
 3668000   0.67458081    -6.017627    1281.4739   0.02911382  0.028159831           11 
 3669000   0.65406033   -6.0244099    1283.8909  0.029160782  0.028152307           22 
 3670000   0.66452967   -6.0311524    1282.1118  0.029112438  0.028144821           16 
 3671000   0.66697677   -6.0073165    1287.4719  0.029226186  0.028137326           16 
 3672000   0.67006329   -6.0279256    1282.3768  0.029102597  0.028129818           23 
 3673000   0.67325535   -5.9928316    1283.3245  0.029116173  0.028122265           32 
 3674000   0.65022972   -5.9837722    1283.9335  0.029122062  0.028114783           30 
 3675000   0.67308303   -6.0000092    1281.8227  0.029066274  0.028107309            8 
 3676000   0.67727364   -6.0272072    1283.3423  0.029092817  0.028099809            9 
 3677000   0.65004406   -6.0091164     1284.725   0.02911624  0.028092286           17 
 3678000   0.66430099   -6.0077225    1283.0561  0.029070511  0.028084809           32 
 3679000   0.67271094   -6.0389486    1282.1217  0.029041445  0.028077262           19 
 3680000   0.65957238   -6.0234964    1284.3515  0.029084046  0.028069727            9 
 3681000    0.6755138   -6.0063874    1282.8449  0.029042037  0.028062195           11 
 3682000   0.67591631   -6.0160658    1285.7881  0.029100762  0.028054694           15 
 3683000   0.66793143   -6.0069731    1284.4943  0.029063587  0.028047226           25 
 3684000   0.65670451   -6.0054982    1284.7361  0.029061168  0.028039716           18 
 3685000   0.65385364   -6.0438006    1280.7345  0.028962787  0.028032179            9 
 3686000    0.6785806   -6.0408869    1281.0995  0.028963183  0.028024632           20 
 3687000   0.67665785   -6.0393213    1281.4607  0.028963491  0.028017092           20 
 3688000   0.65008774    -6.021975    1282.4278   0.02897749  0.028009565           35 
 3689000   0.66272104   -6.0335081    1280.7481   0.02893169  0.028002026           16 
 3690000   0.66352828   -6.0413328     1282.818  0.028970595   0.02799446           24 
 3691000   0.66999463   -6.0549107    1281.0615  0.028923091  0.027986896           17 
 3692000   0.66678995   -6.0305968    1284.4498  0.028991735  0.027979322           23 
 3693000   0.67517056    -6.030049    1286.1718  0.029022742  0.027971803            9 
 3694000   0.65399725   -5.9807997    1284.5777  0.028978923  0.027964334           18 
 3695000   0.67015491   -6.0183033    1284.1628  0.028961723  0.027956873           14 
 3696000   0.66286044   -6.0261886    1282.9264   0.02892601  0.027949377           14 
 3697000   0.65340146   -6.0133468    1282.9347  0.028918373  0.027941889           17 
 3698000    0.6620545   -5.9983719    1287.0615   0.02900355  0.027934405           10 
 3699000   0.66567064   -6.0016018    1285.8522  0.028968464  0.027926953           18 
 3700000   0.65570264   -6.0294867    1287.5793  0.028999535  0.027919517           12 
 3701000   0.66766907   -6.0120095    1282.8701  0.028885664  0.027912077           12 
 3702000   0.66944138   -6.0022919    1282.5746   0.02887121  0.027904605           12 
 3703000   0.65941727   -6.0220294    1282.9792  0.028872518  0.027897119           14 
 3704000   0.66898961   -6.0269771    1287.5506  0.028967572  0.027889607           12 
 3705000   0.65804674    -6.055039     1281.373  0.028820805   0.02788207            7 
 3706000   0.65709027   -6.0458814    1281.0488  0.028805738   0.02787449           30 
 3707000   0.67396061   -6.0495929    1281.7778  0.028814355  0.027866939           13 
 3708000    0.6593621   -6.0237691    1281.8711  0.028808683  0.027859369           13 
 3709000   0.65318324   -6.0454592    1280.3857  0.028767542   0.02785184           10 
 3710000   0.65432908   -6.0158893    1284.7486  0.028857785  0.027844319            9 
 3711000   0.65976787   -6.0367579    1284.3715  0.028841541  0.027836789           13 
 3712000   0.64666522   -6.0395692    1283.2863  0.028809409  0.027829207           13 
 3713000   0.65533764   -6.0175301     1285.755  0.028857055  0.027821716           18 
 3714000   0.65851667   -6.0581817    1279.3634  0.028705873  0.027814184           17 
 3715000   0.66564428   -6.0458972    1283.2641  0.028785646  0.027806648           15 
 3716000   0.65318571   -6.0432191    1279.8606  0.028701575  0.027799053            8 
 3717000   0.65145376   -6.0577123    1282.7325   0.02875824  0.027791463           13 
 3718000   0.65017989   -6.0608593     1281.942  0.028732787  0.027783892           49 
 3719000   0.65461841   -6.0494752    1282.8229  0.028744799  0.027776317            7 
 3720000     0.655325   -6.0392739    1282.6677  0.028733595   0.02776876           11 
 3721000   0.66219353   -6.0426934    1280.9367  0.028687107  0.027761202           15 
 3722000   0.65927141   -6.0343273    1277.8206  0.028609632  0.027753657            9 
 3723000   0.65845553    -6.057447    1281.0217  0.028673599  0.027746092           34 
 3724000    0.6631978   -6.0417749     1282.476  0.028698443  0.027738549           17 
 3725000   0.67351934   -6.0360562    1280.4317  0.028645005  0.027731001           18 
 3726000     0.660853   -6.0605573    1282.8622  0.028691675  0.027723425           24 
 3727000   0.65812136    -6.053688    1280.6449    0.0286344  0.027715811           28 
 3728000   0.66419297   -6.0573516    1280.5366  0.028624298  0.027708179           17 
 3729000   0.66186001   -6.0662936    1279.8661  0.028601637  0.027700593           13 
 3730000   0.66536064   -6.0625578    1278.2882  0.028558718  0.027693006           14 
 3731000   0.65750602   -6.0395482    1282.7152  0.028649942  0.027685412           26 
 3732000   0.64504554    -6.046749    1279.5884  0.028572445  0.027677853           15 
 3733000   0.65756911   -6.0418882    1281.4733   0.02860687  0.027670297           17 
 3734000   0.66333353   -6.0294344    1284.2952  0.028662186   0.02766275           13 
 3735000   0.65008569   -6.0360184    1284.3437  0.028655593  0.027655216           11 
 3736000   0.65261137   -6.0501801    1280.8668  0.028570369  0.027647711           16 
 3737000   0.65163332   -6.0363687    1281.3118  0.028572647  0.027640215           21 
 3738000   0.65301444   -6.0330311    1283.4308  0.028612244  0.027632732            9 
 3739000   0.65072706   -6.0485553    1279.7006  0.028521454   0.02762522           18 
 3740000   0.65397365   -6.0473517    1285.9877  0.028653914  0.027617706           13 
 3741000   0.66611586   -6.0415676    1279.8923  0.028510476  0.027610154           20 
 3742000   0.65389827   -6.0565287    1280.5559  0.028517636  0.027602594           18 
 3743000    0.6681229   -6.0553281    1283.1843  0.028568535  0.027595053           24 
 3744000    0.6548858   -6.0365609    1282.3887  0.028543196  0.027587499           18 
 3745000   0.65709844   -6.0632604    1282.1135  0.028529451  0.027579937           12 
 3746000   0.64469775   -6.0331881    1283.1129  0.028544068  0.027572389           18 
 3747000   0.65572415    -6.048077    1281.7151  0.028505362  0.027564873            9 
 3748000   0.64740278   -6.0514248    1279.5264  0.028449093  0.027557312           27 
 3749000   0.64523748   -6.0341655    1284.1327  0.028543894  0.027549763           26 
 3750000   0.64241333   -6.0602794    1282.4163  0.028498139  0.027542204           15 
 3751000   0.65207259   -6.0252524    1281.4805  0.028469753  0.027534694            8 
 3752000   0.66126803   -6.0279272    1280.7586   0.02844613  0.027527181           16 
 3753000   0.64061419   -6.0414442    1282.4533  0.028476181  0.027519678            9 
 3754000   0.64292562   -6.0285095    1283.2716  0.028486761  0.027512169           16 
 3755000   0.65251859   -6.0458728    1283.8842  0.028492769  0.027504671           12 
 3756000   0.65394487   -6.0612736    1284.6874  0.028503005  0.027497154           16 
 3757000   0.66061123   -6.0524928    1282.5239  0.028447429  0.027489629           23 
 3758000    0.6425538   -6.0604927    1284.1828  0.028476646  0.027482107           53 
 3759000   0.65026912    -6.017612    1286.1897  0.028513561  0.027474583           20 
 3760000   0.65407073   -6.0539053    1282.2934  0.028419622  0.027467068           17 
 3761000   0.64210639     -6.04535    1282.8137  0.028423596  0.027459563           13 
 3762000   0.66608334   -6.0194938    1283.3674  0.028428304  0.027452082           14 
 3763000   0.66641139   -6.0210793    1284.6438  0.028449017  0.027444603            8 
 3764000   0.64568517   -6.0573784    1281.4965   0.02837178   0.02743712           23 
 3765000   0.65392854   -6.0477452     1283.348  0.028405224  0.027429649           18 
 3766000   0.64009798   -6.0319122    1284.8512  0.028430944  0.027422149           26 
 3767000    0.6325958   -6.0333107    1284.6958  0.028419959   0.02741466           15 
 3768000   0.65770454   -6.0328981    1282.4556  0.028362871  0.027407189           18 
 3769000    0.6469544   -6.0763556    1285.2086  0.028416215  0.027399698            7 
 3770000   0.64825876   -6.0602933    1284.9061  0.028401992  0.027392178           18 
 3771000   0.65652866     -6.07325    1280.6219  0.028299785  0.027384662            7 
 3772000   0.64376265   -6.0593258    1281.1877  0.028304783  0.027377152           24 
 3773000   0.63279699   -6.0465394    1283.6535  0.028351743  0.027369666           12 
 3774000   0.64476618   -6.0348888    1283.6558  0.028344281  0.027362202           12 
 3775000   0.63726172   -6.0656019     1282.483  0.028310884  0.027354766           18 
 3776000   0.65133381    -6.066266    1282.1582  0.028296218   0.02734729           23 
 3777000   0.64790963   -6.0828663    1281.5131  0.028274493  0.027339823           15 
 3778000   0.64698307   -6.0649249    1284.1656  0.028325517  0.027332342           31 
 3779000   0.63338852   -6.0231127    1285.9862  0.028358169  0.027324901           15 
 3780000   0.65550254    -6.048733     1288.171  0.028398833  0.027317471           33 
 3781000   0.63989647   -6.0628883    1284.4523   0.02830936  0.027310038           39 
 3782000   0.65431044   -6.0602362    1287.1183  0.028360618  0.027302636           36 
 3783000   0.64677166   -6.0695856    1284.3112  0.028291286  0.027295213           47 
 3784000   0.65485511   -6.0479365    1285.6163   0.02831255  0.027287786           54 
 3785000   0.64348345   -6.0800168    1284.4129  0.028278576  0.027280379           13 
 3786000    0.6438995   -6.0707193    1283.5583  0.028252295  0.027272974           12 
 3787000   0.65277361   -6.0538424    1283.2123  0.028237221  0.027265565           11 
 3788000   0.65443973   -6.0633693    1283.1046  0.028227397  0.027258159           12 
 3789000   0.65675387   -6.0739313     1286.176  0.028287499  0.027250765           10 
 3790000   0.64524385   -6.0662224    1284.2622  0.028237955   0.02724336           15 
 3791000   0.65756884   -6.0867149    1284.4197  0.028233969  0.027235918           14 
 3792000   0.64682194   -6.0623797    1285.5618  0.028251622  0.027228496           19 
 3793000   0.65154802   -6.0829539    1285.5762  0.028244489  0.027221077           26 
 3794000   0.64208386   -6.0476607    1286.1374  0.028249371   0.02721364           21 
 3795000   0.64320307   -6.0659122    1287.6601  0.028275365  0.027206204           40 
 3796000   0.64371693    -6.054721    1282.8088  0.028161416  0.027198782           13 
 3797000   0.63822856   -6.0671076    1284.4714  0.028190487  0.027191354           38 
 3798000   0.64426834   -6.0859152    1283.5302  0.028162413  0.027183938           16 
 3799000   0.64483144   -6.0551967    1283.6775  0.028158232  0.027176519           20 
 3800000   0.63351732   -6.0446737    1285.7827  0.028196989  0.027169118           35 
 3801000   0.64034041   -6.0629475    1288.6475  0.028252379  0.027161737           14 
 3802000   0.65938121   -6.0624631    1286.0844   0.02818877  0.027154343           25 
 3803000   0.64351818   -6.0573858    1284.3253   0.02814281  0.027146914            7 
 3804000   0.63660286   -6.0813026    1283.8074  0.028124067  0.027139495           10 
 3805000   0.64235198   -6.0848689    1282.8185  0.028095017  0.027132072           15 
 3806000   0.63973998   -6.0624711    1285.0897  0.028137365  0.027124616           33 
 3807000   0.66075825   -6.0359934    1284.5993  0.028119238  0.027117197           11 
 3808000   0.63680284   -6.0813357    1286.3344  0.028149826  0.027109798           32 
 3809000   0.63608442   -6.0466825    1286.4727   0.02814546  0.027102419           12 
 3810000   0.63187825   -6.0817385    1287.5142  0.028160852   0.02709502           15 
 3811000   0.63887196   -6.0672712    1285.1718  0.028102243  0.027087586            8 
 3812000   0.64441685   -6.0464448    1284.3368  0.028076619  0.027080182           24 
 3813000   0.64373246   -6.0789117     1283.642  0.028054069  0.027072773           40 
 3814000   0.64923497   -6.0421879    1288.3035  0.028148564  0.027065346           10 
 3815000    0.6371621   -6.0682915    1285.6331  0.028082854  0.027057953           19 
 3816000    0.6395275   -6.0768457    1284.0911  0.028041822  0.027050516           17 
 3817000   0.63462943    -6.068167    1286.7811  0.028093204  0.027043055           12 
 3818000   0.63196538   -6.0650216    1283.7412  0.028019495  0.027035615           21 
 3819000    0.6414841    -6.093216     1282.987  0.027995701  0.027028178           32 
 3820000   0.65102453   -6.0771942    1285.5557  0.028044408  0.027020684           32 
 3821000   0.64384143   -6.0763371    1285.4454  0.028034664  0.027013242           26 
 3822000    0.6434454   -6.0940573    1284.5787  0.028008432  0.027005761           34 
 3823000   0.63678587   -6.0697474    1284.9718  0.028009674  0.026998278           22 
 3824000   0.64642974   -6.0888347    1283.4236   0.02796861  0.026990843           28 
 3825000   0.64990272   -6.0807223    1281.2254  0.027913408  0.026983407           17 
 3826000   0.64475384   -6.0733479    1282.6454  0.027937039  0.026975966           14 
 3827000   0.63605042   -6.1149746    1282.3968  0.027924327  0.026968538           24 
 3828000   0.65341763   -6.0976518    1285.0911  0.027975686  0.026961097           11 
 3829000   0.62659356   -6.0893359    1283.0041  0.027922958  0.026953655           12 
 3830000   0.64596934   -6.0980284     1283.896  0.027935074  0.026946199           19 
 3831000   0.64581667   -6.1029384    1283.5119  0.027919428   0.02693876           17 
 3832000   0.65316316   -6.0828858    1284.7097  0.027938189  0.026931299           33 
 3833000   0.63818634   -6.0807412    1281.6183   0.02786369  0.026923875           16 
 3834000   0.63001594   -6.0725015    1284.8631  0.027926949  0.026916451            6 
 3835000   0.64687474   -6.0757163    1285.4188  0.027931742  0.026909043           11 
 3836000   0.62933976   -6.0895054    1289.5011  0.028013146  0.026901676           26 
 3837000    0.6374988   -6.0708341    1287.4374  0.027961024  0.026894307           22 
 3838000   0.64025881   -6.0442406    1285.4818  0.027911279  0.026886941           41 
 3839000   0.64418877   -6.0696091    1289.9262  0.028000483  0.026879549           22 
 3840000   0.63466134   -6.0859484     1284.192  0.027868751  0.026872139           25 
 3841000   0.63815802    -6.078974    1285.3891  0.027887467  0.026864721           18 
 3842000   0.63487538   -6.0916632    1285.0869  0.027873652  0.026857321           15 
 3843000   0.63890334   -6.0885755     1284.969  0.027863844  0.026849939            7 
 3844000   0.63362024   -6.0883666    1286.4994  0.027889772  0.026842526           12 
 3845000   0.62971889   -6.0822174    1283.1315  0.027809525  0.026835082            8 
 3846000   0.63351062   -6.0942607    1286.4864  0.027874986  0.026827672           13 
 3847000   0.64145334   -6.0839893    1286.7005  0.027872379  0.026820281           15 
 3848000   0.64641952   -6.0972989    1286.8464  0.027868295  0.026812874           24 
 3849000   0.63788466   -6.1105768    1282.8466  0.027774456  0.026805467           30 
 3850000   0.63244646    -6.096493    1287.3113  0.027863881  0.026798061            9 
 3851000   0.62623853   -6.0925042    1284.5403  0.027796683  0.026790669           20 
 3852000   0.64158062   -6.1012008    1282.3592  0.027742281  0.026783298           23 
 3853000   0.63081636   -6.0988645    1286.2396  0.027819008  0.026775937           15 
 3854000   0.64073233   -6.0667291    1286.4875   0.02781715  0.026768564            6 
 3855000   0.61399664   -6.1218484    1285.9393  0.027798083  0.026761172           13 
 3856000   0.63554155   -6.0704105    1285.5462  0.027782378  0.026753785           11 
 3857000   0.64713056   -6.1177638     1281.864  0.027695619  0.026746414           12 
 3858000   0.63095097   -6.1052708    1285.5887  0.027768893  0.026739029           23 
 3859000     0.645149   -6.1058564    1285.8724  0.027767824  0.026731649            9 
 3860000   0.64381487   -6.1007366    1282.6983  0.027692106  0.026724247           14 
 3861000   0.63856786   -6.1101318    1283.0147  0.027691763   0.02671687           17 
 3862000   0.62992694   -6.0727573    1284.0416  0.027706749  0.026709493           15 
 3863000   0.61981823   -6.0779292    1286.9488  0.027762293  0.026702162           18 
 3864000    0.6314482   -6.0761436    1287.4549  0.027766022  0.026694834            7 
 3865000   0.63356464   -6.0836731    1284.0356  0.027685114   0.02668751           15 
 3866000   0.62378419   -6.0969196    1285.5203  0.027709957  0.026680152           20 
 3867000   0.63086577    -6.090199    1286.9471  0.027733539  0.026672817           23 
 3868000   0.62352841   -6.0811195    1288.1298  0.027751849  0.026665498           42 
 3869000   0.64322545   -6.0775737    1288.9741  0.027762862  0.026658172           17 
 3870000   0.62799531   -6.0785419    1288.7509   0.02775088  0.026650834           34 
 3871000   0.63159071   -6.1103891    1283.6737  0.027634411   0.02664351           15 
 3872000   0.62895009   -6.0827929    1287.0199  0.027699291  0.026636184           25 
 3873000   0.61313202   -6.0710256    1286.6458  0.027684091   0.02662884           24 
 3874000   0.63782197    -6.082961    1286.6164  0.027676313   0.02662154           16 
 3875000   0.63039029   -6.0843109    1285.4961  0.027645078  0.026614226            4 
 3876000   0.62928574   -6.0950768    1283.2026  0.027588636  0.026606904           17 
 3877000    0.6295609   -6.0896377    1287.0569  0.027664365   0.02659956           23 
 3878000   0.62650652   -6.1156349    1284.0108  0.027591774  0.026592207           11 
 3879000   0.62825428   -6.1089273    1283.4431  0.027572464  0.026584838           12 
 3880000    0.6303836    -6.108131    1289.0271   0.02768529  0.026577472           17 
 3881000   0.65101753   -6.1120709    1285.9531  0.027612151  0.026570143           16 
 3882000   0.62649766    -6.096208    1285.0062  0.027584711  0.026562799           25 
 3883000   0.63161678    -6.105792    1288.0682  0.027643321  0.026555441            7 
 3884000   0.62681152   -6.1086106     1287.159  0.027616698  0.026548116            7 
 3885000   0.63643456   -6.0996945    1286.0402  0.027585589  0.026540807            8 
 3886000   0.61722023   -6.0946772    1288.6403  0.027634249  0.026533477           17 
 3887000   0.63662521   -6.1022341    1286.8601  0.027588973  0.026526172           10 
 3888000    0.6285981    -6.069576    1283.8015  0.027516322  0.026518887           17 
 3889000   0.61892271   -6.0835856    1288.0301  0.027599855  0.026511568           14 
 3890000         0.64   -6.0914926    1285.9909  0.027549077  0.026504258           21 
 3891000    0.6255907     -6.12091    1285.5249  0.027532017  0.026496937           20 
 3892000   0.64251463   -6.1104617    1284.3504  0.027499794  0.026489621           30 
 3893000   0.64308565   -6.1025697    1286.3166  0.027534818    0.0264823           13 
 3894000   0.63351239   -6.1230921    1285.1733  0.027503281  0.026474999           14 
 3895000   0.63680134   -6.0799141    1285.8457  0.027510607  0.026467706           15 
 3896000    0.6251731   -6.0879732     1286.377  0.027514908  0.026460364           12 
 3897000   0.62834688   -6.1058299    1284.3229  0.027463922  0.026453032           26 
 3898000   0.63180215   -6.1253685    1283.7261  0.027444119  0.026445669           25 
 3899000   0.62564948   -6.1233634    1283.8857  0.027440491  0.026438322           21 
 3900000   0.62972197    -6.097637    1286.2502  0.027483979  0.026430955           24 
 3901000    0.6373394    -6.128141    1283.6932   0.02742231  0.026423595           14 
 3902000   0.63371235   -6.1111004    1284.0582  0.027423078  0.026416233           33 
 3903000   0.62969806   -6.0962907    1286.4647  0.027467434  0.026408895           13 
 3904000   0.62303892   -6.1246405    1283.1135  0.027388864   0.02640155           18 
 3905000   0.63094648   -6.1019272     1286.615  0.027456573  0.026394217           17 
 3906000   0.62379835   -6.0977357    1287.4743  0.027467876  0.026386898           21 
 3907000   0.62538516    -6.110522    1283.3591  0.027373072  0.026379594           11 
 3908000   0.63563401   -6.1149629     1286.797  0.027439377  0.026372288           18 
 3909000   0.64006705   -6.1122807     1290.091   0.02750258  0.026364983            7 
 3910000   0.61385413   -6.0967231    1287.3256  0.027436606  0.026357671            9 
 3911000   0.61897648   -6.1061836     1287.508  0.027433479   0.02635036            9 
 3912000   0.62529294   -6.1239038    1286.7819  0.027410998  0.026343007           42 
 3913000   0.62951533   -6.1166399     1285.252  0.027371412  0.026335651           15 
 3914000   0.63117873   -6.1029943     1286.735  0.027395992  0.026328321           32 
 3915000   0.62251268   -6.1178939    1288.3325  0.027422999  0.026320996           39 
 3916000   0.62488463   -6.1048173    1286.9141  0.027385812  0.026313684           19 
 3917000    0.6174482   -6.1206907    1285.3739  0.027346053  0.026306336           51 
 3918000   0.61924781    -6.125714    1283.2818  0.027294576  0.026298983           43 
 3919000   0.63590032    -6.107623    1285.5142  0.027335082  0.026291636           27 
 3920000     0.613777   -6.1209766    1284.9152  0.027315375  0.026284289           25 
 3921000   0.62227881   -6.1248831     1286.322  0.027338306  0.026276925           51 
 3922000   0.61938869   -6.1110091    1285.1803  0.027307078   0.02626956           50 
 3923000   0.62946856   -6.1445046    1285.0066  0.027296428  0.026262195           25 
 3924000   0.61577641   -6.1299573    1285.5026  0.027300005  0.026254841           44 
 3925000   0.62070921   -6.1250285    1287.1314   0.02732763  0.026247515           18 
 3926000   0.62160808   -6.1377169    1284.5461  0.027265795  0.026240185           29 
 3927000   0.62054946   -6.1182785    1285.5986  0.027281185  0.026232856           10 
 3928000   0.62180577   -6.1371122    1286.9897  0.027303754  0.026225551           17 
 3929000   0.61723472   -6.1223559    1287.1868  0.027300985  0.026218259           20 
 3930000   0.62420705   -6.0775328     1288.827  0.027328818  0.026210975           13 
 3931000   0.62813694   -6.1233639    1285.9524  0.027260925  0.026203669           21 
 3932000   0.62027989   -6.1240776     1283.506  0.027202146  0.026196348           13 
 3933000   0.61765471   -6.1227464    1288.2175  0.027295057   0.02618907           22 
 3934000   0.61670595   -6.1335454    1283.3101  0.027184166  0.026181788           14 
 3935000    0.6174232   -6.1154238    1287.5308   0.02726664  0.026174492           23 
 3936000   0.62254675   -6.1485048     1285.375  0.027214071  0.026167185           39 
 3937000   0.62420188   -6.1249578     1285.269  0.027204914  0.026159886           36 
 3938000   0.61974315   -6.1281893    1284.5996  0.027183841  0.026152584           30 
 3939000   0.62870312   -6.1288379    1287.6096   0.02724062  0.026145295           16 
 3940000   0.62589074   -6.1156363    1288.5651  0.027253915  0.026138007            9 
 3941000   0.63185857   -6.1386348    1286.0643   0.02719412  0.026130726           14 
 3942000   0.62413358   -6.1299919    1287.0885  0.027208872  0.026123407           18 
 3943000   0.62903911   -6.1186444    1285.7892  0.027174511  0.026116125           42 
 3944000   0.63518954    -6.146369    1284.8349  0.027147457  0.026108846           13 
 3945000   0.62563025   -6.1186157    1287.3815  0.027194371  0.026101573           13 
 3946000   0.63575231    -6.135771    1284.4508  0.027125586    0.0260943           12 
 3947000   0.61249436   -6.1345596     1286.769  0.027167659  0.026087043           12 
 3948000   0.59373908   -6.1268413    1284.8934  0.027121187  0.026079761           41 
 3949000   0.62839013   -6.1586701    1284.1663  0.027098977  0.026072438           38 
 3950000   0.59868334   -6.1341592     1284.532  0.027099832  0.026065143           19 
 3951000   0.61657345   -6.1121649    1287.3967  0.027153394  0.026057838           17 
 3952000   0.62327557      -6.1501    1287.6244  0.027151324   0.02605056           13 
 3953000    0.6259625   -6.1205182    1284.4571  0.027077686  0.026043276           37 
 3954000    0.6297667   -6.1364711    1283.2605  0.027045619  0.026035999           21 
 3955000   0.62404298   -6.1448077     1283.961   0.02705354  0.026028695           25 
 3956000   0.60579098   -6.1281622    1287.2049  0.027115033   0.02602141           52 
 3957000    0.6151561   -6.1318199    1285.7472  0.027077484  0.026014136           31 
 3958000   0.61056795   -6.1040071    1286.2768  0.027081793  0.026006892           63 
 3959000   0.62541127   -6.1006331    1289.8974  0.027151162  0.025999673           51 
 3960000   0.61899432   -6.1223473    1285.9802  0.027061873  0.025992445           16 
 3961000   0.62140194   -6.1073781    1290.4669  0.027149434  0.025985191           24 
 3962000   0.63466111   -6.1375883    1287.3273  0.027076546  0.025977917           11 
 3963000   0.62763705   -6.1329422    1284.5737  0.027011812  0.025970643           13 
 3964000    0.6302521   -6.1187316    1287.2134  0.027060491  0.025963386           31 
 3965000   0.62634863   -6.1472347    1285.6281  0.027020346  0.025956139           17 
 3966000   0.62448269   -6.1402529    1281.9939  0.026937173  0.025948885           19 
 3967000   0.60856915   -6.1106771    1288.6292  0.027069768  0.025941639           17 
 3968000    0.6264139    -6.139418    1287.3982  0.027037093  0.025934414           32 
 3969000   0.60788086   -6.1457437    1286.7848  0.027017401  0.025927167           25 
 3970000   0.59173283   -6.1361638    1286.3073  0.027000574  0.025919922           24 
 3971000   0.62410513   -6.1352121    1286.4663  0.026997111  0.025912671           13 
 3972000   0.62010242   -6.1325753    1290.6925  0.027078979  0.025905439           10 
 3973000    0.6173497    -6.150015    1285.6711   0.02696684  0.025898186           10 
 3974000   0.61170394   -6.1094075    1286.2308  0.026971792  0.025890956           12 
 3975000   0.61422307   -6.1243172    1287.2886  0.026987182  0.025883741           21 
 3976000   0.61716487   -6.1286214    1287.9252  0.026993738  0.025876519           17 
 3977000   0.61174752    -6.120593    1287.9963  0.026988439  0.025869311           20 
 3978000   0.61677686   -6.1411365    1287.2582  0.026966194  0.025862083           61 
 3979000   0.61150865   -6.1346956    1285.0602  0.026913383  0.025854854           41 
 3980000   0.62771386   -6.1901123    1285.1389  0.026908269  0.025847602           24 
 3981000   0.62648328   -6.1318939     1287.635   0.02695376   0.02584039            8 
 3982000   0.61029381   -6.1541315    1284.6783  0.026885115  0.025833178           15 
 3983000   0.63585882   -6.1396437    1287.2181  0.026931503  0.025825956           20 
 3984000   0.61329012    -6.141529    1285.1969  0.026882464  0.025818726           36 
 3985000   0.61806657   -6.1450739     1288.145  0.026937369  0.025811507           18 
 3986000   0.61150569    -6.152255    1286.7505  0.026901458  0.025804275           36 
 3987000   0.61220915   -6.1563548    1286.1003  0.026881119  0.025797027           20 
 3988000   0.60133085   -6.1543092    1286.2173  0.026876824  0.025789808           25 
 3989000   0.61699474   -6.1419825    1286.9853  0.026886132  0.025782577           18 
 3990000   0.61421643    -6.151128    1286.9092  0.026877803  0.025775355           30 
 3991000   0.60511224   -6.1447646    1283.5886  0.026801732  0.025768131           19 
 3992000    0.6032289    -6.144734    1284.3936  0.026811824  0.025760914           20 
 3993000   0.61694212   -6.1537925    1284.8037  0.026813668  0.025753685           21 
 3994000   0.60281219   -6.1623531    1285.0539  0.026812175  0.025746469           31 
 3995000   0.62076501   -6.1327205    1289.5461  0.026899167  0.025739244           26 
 3996000   0.61327347   -6.1582679     1285.711  0.026812458  0.025732024           30 
 3997000   0.61707532   -6.1847183    1285.3949  0.026799159  0.025724734           12 
 3998000   0.61509024     -6.15924    1283.9129  0.026761567  0.025717486           34 
 3999000   0.61797577   -6.1447791    1287.4923  0.026829464  0.025710258           66 
 4000000   0.60694896   -6.1337933    1285.4126  0.026779429  0.025703051           24 
 4001000   0.62330945   -6.1645736    1285.4545  0.026773608  0.025695826           33 
 4002000    0.6173739   -6.1550933    1284.6729  0.026750643   0.02568863           24 
 4003000    0.6130973   -6.1354297    1285.2916   0.02675684  0.025681426           25 
 4004000   0.62144902   -6.1574467    1284.8501  0.026740969  0.025674214           20 
 4005000   0.61583279    -6.150381    1287.0036  0.026779101  0.025667022           15 
 4006000    0.6183045   -6.1353228    1288.8559  0.026810948   0.02565984           17 
 4007000   0.60365476    -6.148982    1289.3866  0.026815293  0.025652646           15 
 4008000    0.6226376   -6.1593621    1287.0875  0.026760802  0.025645483           23 
 4009000   0.61640249   -6.1577494    1285.9724  0.026730948   0.02563832           27 
 4010000   0.60252327   -6.1580455    1287.0841  0.026747384  0.025631163           12 
 4011000   0.60586533    -6.149586    1287.0703  0.026740428  0.025623992           27 
 4012000   0.61365761    -6.132958    1288.5169   0.02676381  0.025616837           10 
 4013000    0.6191619   -6.1468401    1286.7583  0.026720622  0.025609661           34 
 4014000   0.62051462   -6.1694231    1286.5793   0.02671025  0.025602471           36 
 4015000   0.60321149    -6.150758    1285.1704  0.026674354  0.025595268           16 
 4016000    0.6111398   -6.1741598    1287.1354  0.026708488  0.025588061           22 
 4017000   0.60736341   -6.1808057    1288.8506  0.026737421  0.025580889           11 
 4018000   0.61204353   -6.1667695    1287.1661   0.02669583  0.025573719           70 
 4019000   0.60642579   -6.1488401    1286.1944  0.026669038  0.025566546           11 
 4020000   0.60746473   -6.1749422    1283.7137   0.02661098   0.02555934           30 
 4021000   0.60836002   -6.1651081    1285.8879  0.026649422  0.025552147           49 
 4022000   0.60342594   -6.1549044    1285.0369  0.026625165  0.025544929           62 
 4023000   0.60345286   -6.1516975     1287.908  0.026678018  0.025537725           37 
 4024000   0.61683619   -6.1597621    1287.0971  0.026654594  0.025530553           20 
 4025000   0.61050408   -6.1375486    1287.6595  0.026659617  0.025523371           24 
 4026000    0.6017286   -6.1498985     1286.825  0.026635721  0.025516185           19 
 4027000   0.60947272   -6.1632154    1288.1009  0.026655511   0.02550903           27 
 4028000   0.62515319   -6.1668445    1286.7941  0.026621857  0.025501875           19 
 4029000   0.60398762   -6.1552024    1285.9329  0.026597437  0.025494684           45 
 4030000   0.59384057   -6.1494948    1289.1824  0.026658031  0.025487503           21 
 4031000   0.60589464   -6.1502274    1290.3346  0.026675238  0.025480343           13 
 4032000   0.60895608    -6.154382    1288.3718  0.026628054   0.02547322           24 
 4033000    0.5982503   -6.1535423    1287.6413  0.026606358  0.025466084           20 
 4034000   0.59707889   -6.1529009    1287.3733  0.026594227   0.02545894           48 
 4035000   0.60798384   -6.1685535     1286.743  0.026574617    0.0254518           21 
 4036000    0.5964511   -6.1499006    1287.8245  0.026590363  0.025444682           13 
 4037000   0.60163352   -6.1383812    1287.0614  0.026568025   0.02543758           10 
 4038000   0.61655303   -6.1376948    1287.5055  0.026570611  0.025430423           10 
 4039000   0.60554976   -6.1700179     1287.819  0.026570501  0.025423283           26 
 4040000   0.60268635   -6.1834121    1287.0003  0.026547037  0.025416156           20 
 4041000    0.5928662   -6.1473744    1287.9497  0.026560045  0.025409023           41 
 4042000   0.60014022   -6.1600773    1287.2214   0.02653846  0.025401897           10 
 4043000   0.60619902   -6.1375597    1288.4662  0.026557553  0.025394781           11 
 4044000   0.59150089   -6.1541134    1285.7531  0.026495077  0.025387666           31 
 4045000   0.61041788   -6.1752026    1286.6679  0.026507372  0.025380529           15 
 4046000   0.60375035   -6.1795543    1284.9976   0.02646642  0.025373377           30 
 4047000   0.59918027   -6.1778784    1285.4381  0.026468951  0.025366211           18 
 4048000   0.58911181   -6.1703062    1286.7668  0.026489765  0.025359079           29 
 4049000   0.60083325   -6.1673161    1286.7074     0.026482  0.025351953           18 
 4050000   0.62558904   -6.1468178    1288.9902  0.026522433   0.02534484           22 
 4051000   0.61095651   -6.1694765    1289.5837  0.026528094  0.025337745           18 
 4052000   0.59745968   -6.1663766    1286.0095  0.026448041  0.025330632           18 
 4053000   0.59941457   -6.1698738    1287.9942  0.026482321    0.0253235           41 
 4054000   0.60253985   -6.1824893    1285.5351   0.02642524  0.025316383           61 
 4055000   0.59257068   -6.1722606    1287.1814  0.026452558  0.025309279           13 
 4056000   0.61070648   -6.1542628    1289.0597  0.026484625  0.025302169           13 
 4057000   0.60242321   -6.1471038     1288.042  0.026457194  0.025295062           24 
 4058000   0.60508973   -6.1670958     1285.464  0.026397733  0.025287955           33 
 4059000   0.61135064   -6.1785602    1286.0957  0.026404199  0.025280816           49 
 4060000   0.60589418   -6.1755797    1285.0406  0.026376039   0.02527365           54 
 4061000   0.60509864   -6.1856552    1283.9179  0.026346505  0.025266502           17 
 4062000   0.61240507   -6.1875457    1288.8417  0.026441033  0.025259348           26 
 4063000   0.60999874   -6.1856874    1286.6699  0.026389981  0.025252191           80 
 4064000   0.58658204   -6.1784859    1284.6766  0.026342614   0.02524503           36 
 4065000   0.59936451   -6.1602702    1282.9402  0.026300538  0.025237871           43 
 4066000    0.6105225   -6.1876971    1283.7133  0.026309914  0.025230711           86 
 4067000   0.60446694   -6.1910314    1285.3976  0.026337956  0.025223591           61 
 4068000   0.60058048   -6.1872011    1283.0431   0.02628325  0.025216441           43 
 4069000   0.59276038   -6.1791891     1283.426  0.026284631  0.025209299           31 
 4070000   0.60130377   -6.1889019    1284.2893  0.026295849  0.025202177           77 
 4071000   0.60640921   -6.2123125    1286.0129  0.026324672  0.025195041           26 
 4072000   0.59896949   -6.1820174    1283.6523  0.026269898  0.025187923           23 
 4073000   0.59217852   -6.1779606    1286.5296  0.026322318  0.025180811           21 
 4074000   0.59776329   -6.1927866     1284.847  0.026281439   0.02517367           16 
 4075000   0.60336812   -6.2027627    1287.0526  0.026320093  0.025166515           46 
 4076000   0.62094827   -6.1827203     1285.206  0.026275883   0.02515939           96 
 4077000   0.60019917   -6.2026979    1284.7326  0.026259762  0.025152257           32 
 4078000   0.60879881   -6.1921013     1289.027  0.026341079  0.025145127           38 
 4079000   0.60107452   -6.2071521    1287.2937  0.026299209  0.025137989           31 
 4080000   0.58849879   -6.1824501    1285.7629  0.026261497  0.025130863           36 
 4081000   0.60085948   -6.1808778    1288.1577  0.026303963   0.02512376           56 
 4082000   0.59430981   -6.1863632     1288.643  0.026307426  0.025116653           27 
 4083000   0.59589318   -6.1929201    1286.9824   0.02626709  0.025109525           79 
 4084000   0.59413681   -6.1873415    1285.5587  0.026231609   0.02510238           72 
 4085000   0.60258262   -6.1819902    1283.7167   0.02618761  0.025095244           44 
 4086000   0.60176572   -6.1822422    1284.6528  0.026200294  0.025088135           85 
 4087000   0.59284965   -6.2051861     1284.639  0.026193601  0.025081005           75 
 4088000   0.60683631   -6.1859309    1286.8804  0.026232884  0.025073881           81 
 4089000   0.60504634   -6.1867049    1285.8094  0.026204643  0.025066749           69 
 4090000   0.58955245   -6.1880542    1286.8307  0.026219045  0.025059623           52 
 4091000   0.59414039   -6.1995406    1288.5983  0.026248642  0.025052515           52 
 4092000   0.60211237   -6.1719177    1286.9662  0.026208989  0.025045403           33 
 4093000   0.59183618   -6.1474112    1289.6024  0.026256259  0.025038318           63 
 4094000   0.59205834   -6.1902851    1282.2552  0.026100292  0.025031228           62 
 4095000   0.60755083   -6.1970084    1287.1062  0.026192638  0.025024133          122 
 4096000    0.5909852   -6.1849207     1287.572  0.026195719  0.025017028           76 
 4097000   0.59554119   -6.1918616    1286.8758  0.026175166  0.025009914           88 
 4098000    0.5954071   -6.1711413    1285.6542  0.026143935   0.02500282           42 
 4099000   0.58565228   -6.2028106    1285.1689  0.026127692  0.024995714           56 
 4100000    0.5966634   -6.1841108      1287.49  0.026168496  0.024988627           38 
 4101000   0.58415949   -6.1816498     1284.974  0.026110989  0.024981532           45 
 4102000   0.59253561   -6.1873972    1287.1638  0.026149109  0.024974451           45 
 4103000   0.58812765   -6.1713555    1283.0362  0.026058905  0.024967387           33 
 4104000   0.59230049   -6.1864651    1284.7477  0.026087306  0.024960326           26 
 4105000   0.59440172   -6.1958188    1287.7708  0.026142322  0.024953249           43 
 4106000   0.59419321   -6.1933825    1287.8243  0.026137042  0.024946171           52 
 4107000   0.59350735   -6.1990309    1286.9415  0.026112766  0.024939093           55 
 4108000   0.60477917   -6.2017831    1284.6843  0.026060619  0.024932005           99 
 4109000   0.60049907    -6.192102    1288.2714  0.026127025  0.024924924           81 
 4110000   0.60463648   -6.2044476    1290.7238  0.026170394  0.024917846           82 
 4111000   0.58311974    -6.190969    1287.5987  0.026100678  0.024910782           63 
 4112000   0.61214263    -6.199036    1286.1455  0.026064881  0.024903716           20 
 4113000   0.59441916   -6.2149558    1287.4821  0.026085625  0.024896666           28 
 4114000   0.58854413   -6.1911263    1288.4575  0.026099042  0.024889618           26 
 4115000   0.58024391   -6.1954281    1285.5529  0.026033879  0.024882588           40 
 4116000   0.59601139   -6.1919407    1288.1838  0.026080819  0.024875537           93 
 4117000   0.58781068   -6.1930822    1286.1466  0.026033249  0.024868495           76 
 4118000   0.59615922    -6.175674    1284.4997    0.0259936  0.024861455           67 
 4119000   0.59855335   -6.2131516    1284.6259  0.025989841  0.024854415           81 
 4120000   0.59517899   -6.1907004    1285.3609    0.0259984  0.024847363           68 
 4121000   0.59228396   -6.2312376    1286.0626   0.02600628  0.024840303           51 
 4122000   0.58053939   -6.2095379    1285.0221  0.025978936  0.024833214           40 
 4123000   0.59101815   -6.1898576    1285.0216  0.025972625  0.024826136           40 
 4124000   0.61951827   -6.1980914     1286.362  0.025993413  0.024819055           27 
 4125000   0.58508582   -6.2000568    1282.3798  0.025906663  0.024812004           40 
 4126000   0.59754037   -6.1821974    1284.6878  0.025946999  0.024804942           60 
 4127000   0.58785038   -6.2037618    1284.3465  0.025933819  0.024797885           35 
 4128000   0.59254967   -6.1946998    1286.6015  0.025973059  0.024790826           55 
 4129000   0.59956444   -6.2040699    1286.2456  0.025959587   0.02478377           39 
 4130000   0.58849743   -6.2066393    1284.7933  0.025923998  0.024776694           17 
 4131000   0.58977285   -6.2080219    1286.0286   0.02594264  0.024769619           45 
 4132000   0.58793167   -6.1986269    1284.8908  0.025913416  0.024762553           20 
 4133000   0.59841529   -6.1962516    1284.9673  0.025908688  0.024755517           32 
 4134000   0.59214793   -6.1826681    1286.0731  0.025924712  0.024748477           16 
 4135000   0.58751113   -6.1874699    1287.1214   0.02593957  0.024741453           16 
 4136000   0.58967947   -6.1873506    1283.5423  0.025861184  0.024734385           12 
 4137000   0.58562158   -6.1842079    1291.5386  0.026016007  0.024727349           16 
 4138000   0.58612909   -6.1951065    1288.3775  0.025946058  0.024720309           18 
 4139000    0.5960709   -6.2092629    1285.7468  0.025886824  0.024713255           32 
 4140000   0.59021706   -6.1982578    1285.1819  0.025869202  0.024706228           16 
 4141000   0.59202384   -6.2003254     1288.003  0.025919725  0.024699198           33 
 4142000   0.59066369   -6.2099479    1285.5422  0.025863958  0.024692153           18 
 4143000   0.57296839   -6.2227127    1281.2257  0.025770893  0.024685072           26 
 4144000    0.5930793   -6.2145977    1284.3608  0.025827719   0.02467798           24 
 4145000   0.58744724   -6.2163236    1284.2325  0.025818909  0.024670926           17 
 4146000   0.59470935   -6.2032477    1282.4542  0.025776938  0.024663852           33 
 4147000   0.58652902   -6.2248736     1284.061  0.025803009  0.024656805           26 
 4148000   0.58596622   -6.2388933    1282.7354  0.025770159  0.024649706           16 
 4149000   0.59161992    -6.213652    1286.1447  0.025832423  0.024642622           15 
 4150000   0.60165388   -6.1963155    1283.1392  0.025765848  0.024635531           32 
 4151000   0.58997616   -6.2060493    1284.0436  0.025777796  0.024628462           47 
 4152000   0.58691471   -6.2033368    1283.6849  0.025764389  0.024621404           39 
 4153000   0.59199774   -6.2040585    1284.7535  0.025779627  0.024614328           50 
 4154000   0.57802803   -6.2114106    1285.8904  0.025796229  0.024607276           44 
 4155000   0.59598514   -6.2198812    1285.4018   0.02578022  0.024600215           39 
 4156000   0.58481379   -6.2287869    1284.4404   0.02575474  0.024593164           34 
 4157000   0.58959194   -6.2158114    1285.6957  0.025773709  0.024586088           40 
 4158000   0.57873351   -6.2175933    1281.7652  0.025688737  0.024579028           29 
 4159000   0.59949617   -6.1897018    1285.0667  0.025748712  0.024571966           39 
 4160000    0.5907117    -6.204894    1282.3433  0.025687966  0.024564922           14 
 4161000   0.60264109   -6.2079722    1283.3291  0.025701536  0.024557848           49 
 4162000   0.56765138   -6.2254639    1281.3348   0.02565543  0.024550774           21 
 4163000   0.57849801    -6.212457    1282.3408  0.025669405  0.024543711           37 
 4164000    0.5799591   -6.2269013    1282.7179  0.025670788  0.024536649           46 
 4165000   0.57931518   -6.2271204    1281.4781  0.025639819  0.024529574           35 
 4166000   0.57752267    -6.222052    1281.4178  0.025632458  0.024522486           65 
 4167000   0.57985529   -6.2284906    1282.6086   0.02565012  0.024515413           69 
 4168000   0.58975418   -6.2242631     1282.434  0.025640475  0.024508347          140 
 4169000   0.58257258   -6.2219935    1282.5144  0.025635932  0.024501282           38 
 4170000   0.58687135   -6.2070654    1282.6414  0.025632323   0.02449424           74 
 4171000   0.58910954    -6.218233    1283.6594  0.025646516  0.024487187          110 
 4172000   0.59228528   -6.2217575    1283.0501  0.025628198  0.024480128           77 
 4173000    0.5860481   -6.2234374    1285.4723  0.025670427  0.024473107           92 
 4174000   0.59211201   -6.2309122    1282.2819  0.025600581  0.024466041           36 
 4175000   0.57517564   -6.2212446    1282.8144  0.025605079  0.024458976           25 
 4176000   0.59746488    -6.228373    1284.0032  0.025622669   0.02445191           71 
 4177000   0.57928489   -6.2128065    1284.0518  0.025617505  0.024444858           24 
 4178000   0.58501473   -6.2178184     1283.514  0.025600647  0.024437811           34 
 4179000   0.58136068   -6.2225027    1285.7274  0.025638658   0.02443074           82 
 4180000   0.58462909   -6.2248199    1283.3324  0.025584776  0.024423704           40 
 4181000    0.5791349   -6.2253693    1283.8465  0.025588905  0.024416671           41 
 4182000   0.58928774   -6.2285576    1285.3299  0.025612344   0.02440964           63 
 4183000   0.58427788   -6.2316613    1284.1079  0.025581877    0.0244026           83 
 4184000   0.58183254   -6.2271106    1283.8756  0.025571137  0.024395553           42 
 4185000   0.57545214   -6.2264873    1280.9093   0.02550596  0.024388492           54 
 4186000   0.57721352   -6.2496816    1281.6823  0.025515255  0.024381443           64 
 4187000   0.57211562   -6.2447756    1282.9962  0.025535312  0.024374401           72 
 4188000   0.58541558   -6.2421674    1281.4009   0.02549747  0.024367359           99 
 4189000   0.59198402   -6.2411737    1282.7606  0.025518433  0.024360308           66 
 4190000   0.58645684   -6.2350533    1285.6518  0.025569846  0.024353266           66 
 4191000   0.57803952   -6.2235765    1282.9339  0.025509701   0.02434623           76 
 4192000    0.5917271   -6.2414464     1282.918  0.025503299  0.024339168           92 
 4193000   0.57993834   -6.2403205    1280.6043  0.025451233  0.024332089          104 
 4194000   0.58360763   -6.2284585     1282.056   0.02547401  0.024325006          135 
 4195000   0.58443549   -6.2182565    1283.7465  0.025501519  0.024317976          109 
 4196000   0.58435036   -6.2323796     1282.664  0.025473943  0.024310925           89 
 4197000   0.59323363     -6.23929    1282.6569  0.025467732  0.024303887          268 
 4198000   0.59635455    -6.226506    1279.6307  0.025401595  0.024296841          121 
 4199000   0.57985171   -6.2472789    1281.7763  0.025438125  0.024289789          179 
 4200000   0.57769081   -6.2689984    1281.2433  0.025421495  0.024282734          182 
 4201000   0.56890185   -6.2664274    1281.2813  0.025416196  0.024275686          134 
 4202000   0.56843359   -6.2295647    1282.5772  0.025435849  0.024268624          118 
 4203000   0.58012646   -6.2516021    1284.9402  0.025476648  0.024261571          136 
 4204000     0.572169   -6.2513711    1280.0673  0.025373994   0.02425452          109 
 4205000   0.57240124   -6.2438135    1282.3918  0.025414027  0.024247481           96 
 4206000    0.5839999   -6.2502325    1282.5094  0.025410314  0.024240458          110 
 4207000    0.5788976   -6.2431324    1280.5269  0.025365006  0.024233423          199 
 4208000    0.5736093   -6.2445424    1282.2941  0.025393973  0.024226381           83 
 4209000   0.57568004   -6.2413345    1281.2015  0.025366307  0.024219343           97 
 4210000   0.58369046   -6.2655694    1281.5578  0.025367336  0.024212303           77 
 4211000   0.56214038   -6.2534523    1279.9842  0.025330171  0.024205276          103 
 4212000   0.57068888   -6.2371827    1282.2044  0.025368084  0.024198252           84 
 4213000   0.57516678   -6.2523241    1282.8436  0.025374704  0.024191223           89 
 4214000   0.59006895   -6.2679022    1283.0129  0.025372031  0.024184184           57 
 4215000   0.56998424   -6.2698813    1279.8493  0.025303467  0.024177144           65 
 4216000   0.57384743   -6.2463662    1282.8084  0.025355953  0.024170094          149 
 4217000   0.57896831   -6.2459302    1282.1984  0.025337887  0.024163088           82 
 4218000   0.56926025   -6.2496599    1283.6265  0.025360093  0.024156082          106 
 4219000   0.57139711   -6.2635832    1281.4224  0.025310548   0.02414907           90 
 4220000   0.58299846   -6.2560693    1282.6447  0.025328686  0.024142052           75 
 4221000   0.57156879   -6.2362739    1284.6382  0.025362043  0.024135038           64 
 4222000   0.57900373   -6.2705734    1283.7611  0.025338723  0.024128029          136 
 4223000   0.58069758   -6.2689355    1284.1931  0.025341249  0.024121031           87 
 4224000   0.58032991   -6.2571115    1283.4598  0.025320783  0.024114027           67 
 4225000   0.58050282   -6.2532355    1285.2543  0.025350183   0.02410703           86 
 4226000   0.57607661   -6.2452143    1281.6461  0.025273034  0.024100038           94 
 4227000   0.58242369   -6.2441228    1284.5193  0.025323699   0.02409305           52 
 4228000   0.57840646     -6.26849    1281.3294  0.025254836   0.02408608           65 
 4229000   0.57667562   -6.2451262    1283.5264  0.025292158   0.02407913           48 
 4230000   0.57068616   -6.2316459     1283.063  0.025277048  0.024072166           34 
 4231000   0.57647462   -6.2305157    1285.0726  0.025310655  0.024065227           37 
 4232000   0.57875688   -6.2424087      1285.22  0.025307577  0.024058288           42 
 4233000   0.56347719   -6.2484307    1283.2357  0.025262534  0.024051355           53 
 4234000    0.5821651   -6.2459475    1284.5781  0.025282989    0.0240444           64 
 4235000   0.56611902   -6.2405438    1282.2928   0.02523205  0.024037444           91 
 4236000   0.58620724   -6.2651949    1283.2878  0.025245667  0.024030506           53 
 4237000   0.57988289   -6.2601696    1281.2128  0.025198898  0.024023522           98 
 4238000   0.56288959    -6.236756    1282.1691  0.025211757  0.024016564          167 
 4239000   0.57689974   -6.2548163    1283.4339  0.025230674  0.024009612           99 
 4240000   0.57310716   -6.2618898    1282.0049  0.025196638  0.024002672          107 
 4241000   0.56512789   -6.2638642    1281.7721  0.025186122  0.023995733          105 
 4242000   0.58166825   -6.2823344    1284.1878   0.02522764  0.023988799           80 
 4243000   0.57295918   -6.2577912    1283.3316  0.025204878  0.023981868           89 
 4244000   0.57778611   -6.2502006    1282.3097  0.025178875  0.023974952           94 
 4245000   0.58265249   -6.2593969    1285.2173  0.025230022  0.023968062          101 
 4246000   0.58207411   -6.2457997    1283.5065  0.025190504  0.023961132           64 
 4247000   0.57346533   -6.2709827    1282.1603  0.025158157  0.023954187           76 
 4248000   0.57447432    -6.245977    1282.4439  0.025157797  0.023947261          108 
 4249000   0.56608121   -6.2497869    1284.9157  0.025200354  0.023940329           70 
 4250000   0.58420286   -6.2582362    1284.2855  0.025182069  0.023933412           37 
 4251000   0.57967124   -6.2375077    1285.1878  0.025193833  0.023926502           37 
 4252000   0.56674934   -6.2586268    1282.8288  0.025141674  0.023919595           33 
 4253000   0.56998924   -6.2578328     1280.907  0.025098108  0.023912685           14 
 4254000   0.55425794    -6.263414    1285.5517  0.025183195  0.023905779           61 
 4255000   0.56460704   -6.2778973    1284.4534  0.025155765   0.02389886           24 
 4256000   0.56283042   -6.2779748    1282.7246  0.025116004  0.023891911          133 
 4257000   0.55583378   -6.2647491    1282.4232  0.025104204   0.02388497           66 
 4258000   0.55532965   -6.2486035    1281.1198    0.0250728   0.02387802           35 
 4259000   0.57151546    -6.266198    1283.8229  0.025119803  0.023871088           87 
 4260000   0.56817819   -6.2633008    1282.5277  0.025088569   0.02386415           67 
 4261000   0.55535998   -6.2614663     1282.445  0.025081065  0.023857217           28 
 4262000   0.56895172   -6.2586629     1282.405  0.025074397  0.023850298           29 
 4263000   0.57260201   -6.2566712    1282.1819  0.025064155  0.023843384           32 
 4264000    0.5660594    -6.256992    1284.0834  0.025095438  0.023836475           44 
 4265000   0.58214095   -6.2572764     1282.232   0.02505338  0.023829574           50 
 4266000   0.58010789   -6.2556236    1286.7997  0.025136734  0.023822678           17 
 4267000   0.57420842   -6.2652723     1281.216  0.025021796   0.02381579           52 
 4268000   0.55688364   -6.2598267    1280.9779  0.025011283  0.023808898           98 
 4269000   0.57429148    -6.243559    1285.6435  0.025096499  0.023802018           71 
 4270000   0.57219088   -6.2285638     1283.024  0.025039501  0.023795135           79 
 4271000   0.56478629   -6.2600435    1286.3861  0.025099238  0.023788257           80 
 4272000   0.56925101   -6.2382153     1283.446  0.025036009  0.023781386           42 
 4273000   0.56677489   -6.2468984    1282.7365  0.025016314  0.023774514          123 
 4274000   0.54846545   -6.2601992     1283.059  0.025016748  0.023767651           63 
 4275000   0.57663122   -6.2561871    1284.3932  0.025036904  0.023760776           87 
 4276000   0.55854682   -6.2742011    1281.7436  0.024979411  0.023753879           85 
 4277000   0.56250735   -6.2697231    1281.8229  0.024975116  0.023746987           93 
 4278000   0.56705997   -6.2754978     1282.674  0.024985858  0.023740111           59 
 4279000   0.57010738   -6.2711047     1283.556  0.024997196  0.023733233           63 
 4280000   0.55436183   -6.2560087    1283.7081  0.024994316   0.02372633           96 
 4281000   0.56272442   -6.2727616    1283.3285  0.024981089  0.023719429           55 
 4282000   0.57330736   -6.2857349    1281.8388  0.024946264  0.023712539           76 
 4283000   0.57032115   -6.2645979    1283.9664  0.024981835  0.023705647           46 
 4284000   0.57304323   -6.2417949    1280.5603  0.024909748  0.023698763           42 
 4285000   0.55869647   -6.2610273    1284.8315  0.024986999  0.023691875           39 
 4286000   0.57071139    -6.243535    1285.8263  0.025000511  0.023685003           29 
 4287000   0.57402747   -6.2861446    1282.3699  0.024927492  0.023678123           17 
 4288000    0.5625335   -6.2692196    1285.2749  0.024978134  0.023671231           52 
 4289000   0.56140941   -6.2618346    1284.6554  0.024960274  0.023664375           54 
 4290000     0.541722   -6.2645313    1285.7216  0.024975166  0.023657527           27 
 4291000   0.56212478   -6.2733319     1283.406  0.024924378  0.023650678           34 
 4292000   0.56386423   -6.2736385    1283.5247  0.024920874  0.023643832           20 
 4293000   0.57472385   -6.2676728     1283.528  0.024915133  0.023636982           55 
 4294000    0.5737479   -6.2635096    1283.3836  0.024906528  0.023630146           48 
 4295000   0.57999274   -6.2592307    1280.8601  0.024851768  0.023623309           56 
 4296000   0.56869434   -6.2745359    1284.3387  0.024913461  0.023616488           25 
 4297000   0.56675915    -6.268168    1283.4179  0.024889805   0.02360966           21 
 4298000   0.56273524   -6.2656093    1284.7869  0.024910558  0.023602843           18 
 4299000   0.57220652   -6.2651916    1281.7399  0.024845698   0.02359601           21 
 4300000   0.55519161   -6.2679172    1283.6428  0.024876799  0.023589172           20 
 4301000   0.57690884   -6.2806874    1283.1545  0.024861554  0.023582338           30 
 4302000   0.55570396   -6.2669517    1283.8224  0.024868712   0.02357551           24 
 4303000   0.55705998   -6.2656932    1286.8252  0.024921086  0.023568688           41 
 4304000    0.5546223   -6.2741597    1285.1578  0.024883012  0.023561878          154 
 4305000   0.55582905   -6.2646681    1283.4809  0.024844772  0.023555068           52 
 4306000   0.56387122   -6.2835611    1280.9211  0.024789462  0.023548248           38 
 4307000    0.5719052   -6.2662498    1283.6963  0.024837402  0.023541412           34 
 4308000   0.55359827   -6.2698751    1282.3355  0.024805314  0.023534581           28 
 4309000   0.56112973   -6.2572164    1283.3326   0.02481884  0.023527734           47 
 4310000   0.56563247   -6.2817171    1282.7702  0.024802207  0.023520896           37 
 4311000   0.57183488   -6.2684303    1281.8135  0.024777961  0.023514066           25 
 4312000   0.55035417   -6.2730242    1284.8077  0.024830082  0.023507237           30 
 4313000   0.56410504   -6.3040727    1281.0094  0.024750935  0.023500401           16 
 4314000   0.56272838   -6.2847686    1278.9611  0.024705631  0.023493561           51 
 4315000   0.56159923   -6.3032411    1280.8882  0.024737122  0.023486733           65 
 4316000   0.55590779   -6.2811976    1285.1163  0.024813027  0.023479916           20 
 4317000   0.57072889   -6.2734389    1280.2249  0.024712859  0.023473103           31 
 4318000   0.54884254   -6.2803422    1281.5648  0.024732994  0.023466291           37 
 4319000   0.56024253   -6.2693813    1283.9465  0.024773222  0.023459482           36 
 4320000   0.55519396   -6.2861891    1282.9402  0.024748075  0.023452671           53 
 4321000   0.56092857   -6.2714116    1281.8351  0.024721034   0.02344585           73 
 4322000   0.55768089   -6.2736672    1282.8792  0.024735447  0.023439041           25 
 4323000   0.55998785   -6.2645411    1284.5847  0.024762601  0.023432227           33 
 4324000   0.56112984   -6.2779901    1282.3826  0.024714434  0.023425411           43 
 4325000   0.56406503   -6.2982646    1282.0346  0.024702015  0.023418621           51 
 4326000   0.56224113   -6.2923865    1283.4298  0.024723181  0.023411826           36 
 4327000   0.56132975   -6.2825655    1281.9504  0.024688976  0.023405021           72 
 4328000   0.55649719    -6.276916    1284.1066  0.024724788  0.023398231           32 
 4329000   0.54778923   -6.2904888    1280.5891  0.024651364  0.023391458           52 
 4330000   0.55579954    -6.274767    1287.8347  0.024785118  0.023384689           24 
 4331000   0.55894499   -6.2832824    1281.5716  0.024658886  0.023377911           35 
 4332000    0.5478845   -6.2878859    1283.5093  0.024690467  0.023371149           47 
 4333000    0.5594932   -6.2807474    1283.7369  0.024689146  0.023364374           28 
 4334000   0.54862728   -6.2689691    1285.3127  0.024713749  0.023357599           52 
 4335000   0.56630492   -6.2646911    1283.8294  0.024679535  0.023350848           16 
 4336000   0.55212698   -6.2833805     1283.292  0.024663514  0.023344116           28 
 4337000   0.56044213   -6.2727612    1285.5809  0.024701808  0.023337388           16 
 4338000   0.55311308   -6.2659701    1283.4432  0.024655049  0.023330653           26 
 4339000   0.55677066   -6.2830793    1283.2312  0.024645294  0.023323926           19 
 4340000   0.55471541   -6.2734304    1283.6178   0.02464704  0.023317187           19 
 4341000   0.55052692    -6.267152    1287.3769  0.024713524  0.023310433           25 
 4342000   0.55080957   -6.2706379    1285.3622  0.024669165  0.023303706           32 
 4343000   0.55501914   -6.2668777     1284.164  0.024640495  0.023296979           12 
 4344000   0.55810576   -6.2540729    1286.9296  0.024687877  0.023290278           15 
 4345000   0.55835008   -6.2687686    1281.2813  0.024573865  0.023283571           21 
 4346000   0.55675017   -6.2555301    1283.3251  0.024607399  0.023276843           23 
 4347000    0.5724332   -6.2684074     1284.835  0.024630684  0.023270121           15 
 4348000   0.55299339   -6.2931051    1280.5199  0.024542316  0.023263391           28 
 4349000   0.55544144   -6.2910437     1279.898  0.024524756  0.023256641           21 
 4350000   0.55618991   -6.2764917    1283.0856  0.024580184  0.023249905           35 
 4351000   0.55247752   -6.2989674    1284.7586  0.024606576  0.023243157           22 
 4352000    0.5456577   -6.2949645    1284.5697  0.024597305   0.02323642           56 
 4353000   0.55685066   -6.2958408    1283.0767  0.024563074  0.023229662           27 
 4354000   0.55542361   -6.2936587    1282.5723  0.024547777  0.023222931           33 
 4355000   0.54415784   -6.2770644    1285.8254   0.02460439  0.023216209           31 
 4356000   0.54887559   -6.3083662    1281.6669  0.024519185  0.023209476           22 
 4357000   0.57058324   -6.2795675    1281.4141  0.024508723  0.023202747           25 
 4358000     0.562538   -6.2948117     1283.489  0.024542776  0.023196035           55 
 4359000   0.55082806   -6.2914052    1283.3692  0.024534855  0.023189316           26 
 4360000   0.55544356   -6.2802662    1282.8395  0.024519105  0.023182596           53 
 4361000   0.54300352   -6.2818354    1282.7012  0.024510839  0.023175882           73 
 4362000   0.54646661    -6.294344    1282.0669  0.024493102  0.023169167           35 
 4363000   0.54402231   -6.2927978    1282.0073  0.024486348  0.023162465           31 
 4364000   0.56160658   -6.3024424    1281.7906  0.024476601  0.023155772           50 
 4365000   0.54715176   -6.2954467    1283.3191  0.024500173  0.023149075           68 
 4366000   0.54097062   -6.2940314    1282.7029  0.024482801  0.023142373           64 
 4367000   0.56263639   -6.2857648    1281.8723  0.024461345  0.023135678           57 
 4368000   0.56047592   -6.2875339    1285.8324  0.024531296  0.023129007           58 
 4369000    0.5402176   -6.2720503    1286.0571  0.024529966  0.023122319           78 
 4370000   0.53552715   -6.2900397    1283.3468   0.02447267  0.023115632          136 
 4371000   0.54174019   -6.3045489    1282.7297  0.024455305   0.02310894           64 
 4372000   0.55966914   -6.3209128    1282.0374  0.024436517  0.023102224           52 
 4373000   0.54871162   -6.3072199    1282.1348  0.024432784  0.023095507           45 
 4374000   0.55106691   -6.3017535    1283.5568  0.024454291  0.023088778          101 
 4375000   0.55237124   -6.3155592    1284.1114  0.024459265  0.023082044           56 
 4376000   0.54575782   -6.2994253    1283.3608  0.024439382  0.023075327           89 
 4377000   0.55934593   -6.3201249    1280.9269  0.024387458  0.023068612           64 
 4378000   0.55993755   -6.3155822    1280.8243  0.024379936  0.023061893          149 
 4379000   0.55892628   -6.3224541    1278.5369  0.024330838  0.023055158          109 
 4380000   0.55446649   -6.3041695    1282.0268  0.024391681  0.023048424          107 
 4381000   0.56170877   -6.3073771    1281.7671  0.024381175  0.023041711          103 
 4382000   0.55773236   -6.2880403    1285.1782   0.02444048  0.023034998           80 
 4383000   0.55429002   -6.2966367    1284.0081  0.024412656  0.023028303          113 
 4384000   0.54868434   -6.3152203    1284.2958  0.024412557  0.023021612           70 
 4385000   0.54908123   -6.3105104    1282.6446  0.024375611  0.023014907          126 
 4386000   0.54136643   -6.3126472    1283.1995  0.024380595  0.023008186           93 
 4387000   0.55645901   -6.3134029    1280.0116  0.024314481  0.023001479          129 
 4388000   0.55192864    -6.331195    1282.6726  0.024359477  0.022994785          139 
 4389000   0.54164327   -6.3227001    1282.0349  0.024341818  0.022988073          105 
 4390000   0.54935811   -6.3152313    1283.1425  0.024357298  0.022981352          114 
 4391000   0.55703619   -6.3166445    1281.1712  0.024314339  0.022974655           87 
 4392000   0.54001348   -6.3145668    1280.4539  0.024295194  0.022967957           81 
 4393000   0.55370446   -6.3238249    1281.1757  0.024303356  0.022961251           79 
 4394000   0.54463958   -6.3008762    1281.0895   0.02429619  0.022954553           92 
 4395000   0.55655713   -6.3092854     1283.065   0.02432812  0.022947864          118 
 4396000   0.55174366    -6.325467    1281.1011  0.024285355  0.022941165          145 
 4397000   0.55376761    -6.331534     1283.117  0.024318038  0.022934493           49 
 4398000   0.55743311   -6.3149528    1279.5469  0.024244864  0.022927811           79 
 4399000   0.54506773   -6.3279915    1280.5012   0.02425743  0.022921127          150 
 4400000   0.54739995   -6.3060191    1282.1614   0.02428336  0.022914449          111 
 4401000   0.55411754   -6.3237292    1278.7755   0.02421373  0.022907781          109 
 4402000   0.53477122   -6.3115655    1279.6501  0.024224787  0.022901103          154 
 4403000   0.55681586   -6.3017139     1281.341  0.024251287  0.022894434           60 
 4404000   0.54224749   -6.3080893    1284.0026  0.024296143  0.022887758           52 
 4405000   0.55213488   -6.3099108    1280.3307  0.024221164   0.02288109          208 
 4406000   0.54073524   -6.3098007    1282.3039  0.024252987  0.022874436          166 
 4407000   0.54107141   -6.3255216    1282.2789  0.024247011  0.022867784          115 
 4408000   0.53994947   -6.3134077    1281.1868  0.024220863  0.022861113          104 
 4409000   0.55012313   -6.3318164    1283.8935  0.024266528  0.022854428          217 
 4410000   0.54554185   -6.3390399    1281.2152  0.024210416   0.02284776          123 
 4411000   0.55721928    -6.340446    1279.5895  0.024174215   0.02284108          169 
 4412000   0.53670601   -6.3351905    1277.3084   0.02412565  0.022834393          177 
 4413000    0.5490145   -6.3231731    1280.2167  0.024175102  0.022827706          157 
 4414000   0.53158398   -6.3225007    1279.9452    0.0241645  0.022821028          191 
 4415000    0.5498411   -6.3284114    1279.0023  0.024141228  0.022814347          151 
 4416000   0.54832061   -6.3330398    1278.7805  0.024131576  0.022807676          107 
 4417000   0.53541428   -6.3297561    1277.4301  0.024100636  0.022800984          216 
 4418000    0.5405238   -6.3475805    1277.8703  0.024103483  0.022794284          208 
 4419000   0.55380136    -6.349611    1278.8061  0.024115677  0.022787593          195 
 4420000   0.54008051   -6.3356146    1279.0249  0.024114346  0.022780913          171 
 4421000   0.54131471   -6.3373299    1279.4272  0.024116475  0.022774244          156 
 4422000   0.53415434   -6.3338708     1281.706  0.024153965  0.022767564          203 
 4423000   0.54525783   -6.3262292    1278.2167  0.024082763  0.022760898          211 
 4424000   0.52896813   -6.3175657    1280.4433  0.024119261  0.022754231          153 
 4425000   0.53771627   -6.3141453    1282.8035  0.024158258  0.022747574          176 
 4426000    0.5392619   -6.3318466    1279.6966  0.024094303  0.022740923          133 
 4427000   0.54349628   -6.3465197    1278.6949  0.024070005  0.022734278          237 
 4428000   0.54112575   -6.3318376    1282.3421  0.024133208  0.022727614          164 
 4429000   0.55841619   -6.3433807    1279.7553  0.024079087  0.022720968          154 
 4430000   0.54060419    -6.321253    1278.6325   0.02405253  0.022714318          139 
 4431000   0.55182713   -6.3426407    1279.0882  0.024055671   0.02270768           87 
 4432000   0.53854299   -6.3330816    1277.2817  0.024016278  0.022701035          110 
 4433000   0.54267125   -6.3353768    1282.5144  0.024109226  0.022694387          186 
 4434000   0.54783947   -6.3383491    1280.0814  0.024058063   0.02268774           70 
 4435000   0.54674725   -6.3191151    1279.1097  0.024034381  0.022681082           83 
 4436000   0.53863202    -6.335668    1280.7726    0.0240602  0.022674426          186 
 4437000   0.54430606    -6.343401    1280.2437  0.024044844  0.022667765          138 
 4438000   0.54585907   -6.3324635    1281.6762  0.024066324  0.022661122           83 
 4439000   0.53449528   -6.3391728    1282.1103  0.024069053  0.022654475           82 
 4440000    0.5352032    -6.331333    1279.0106  0.024005454  0.022647833          105 
 4441000   0.54211356   -6.3195706    1282.0541  0.024057158  0.022641197          102 
 4442000   0.53107626   -6.3370798    1280.8323  0.024028821   0.02263457          185 
 4443000   0.54330111   -6.3484091    1278.8899  0.023986981  0.022627929          102 
 4444000   0.53880888   -6.3354412     1277.978  0.023964485  0.022621286          186 
 4445000   0.55139697   -6.3326983    1279.4852  0.023987349  0.022614653          172 
 4446000   0.55176415   -6.3431003    1280.3008  0.023997241   0.02260802          171 
 4447000   0.54925416   -6.3379458    1279.2755  0.023972632  0.022601375          123 
 4448000   0.55022884   -6.3472371    1278.1385   0.02394594  0.022594738           51 
 4449000   0.55120231   -6.3095169    1279.8329  0.023972295  0.022588123          130 
 4450000   0.53697587   -6.3270583    1279.8246  0.023966752  0.022581499          108 
 4451000   0.53757873   -6.3344334    1279.9667  0.023964028  0.022574889           99 
 4452000   0.54541742   -6.3239473    1280.4389  0.023967485  0.022568286          232 
 4453000    0.5450654   -6.2958155    1279.2698  0.023940223  0.022561687          164 
 4454000   0.52944865   -6.3406207      1281.43  0.023975266  0.022555082          119 
 4455000   0.53671338   -6.3411376    1280.3202  0.023949124  0.022548458           82 
 4456000   0.54492462   -6.3400388    1278.9855  0.023918789   0.02254184          150 
 4457000   0.54420435   -6.3480824     1282.228  0.023974048  0.022535237          164 
 4458000   0.54633528   -6.3396667    1281.2246  0.023949913  0.022528616           65 
 4459000   0.54292055   -6.3565484    1279.4008  0.023910459  0.022521999          130 
 4460000   0.52511432   -6.3271448    1281.7396  0.023948796  0.022515391           93 
 4461000   0.53480059   -6.3302969    1279.1062  0.023894235  0.022508795          201 
 4462000    0.5368234   -6.3279408    1278.8678  0.023884427  0.022502185           82 
 4463000   0.54252782   -6.3414229    1279.6857  0.023894347   0.02249557          128 
 4464000   0.54643678   -6.3367223    1280.0381  0.023895573  0.022488952           97 
 4465000   0.54529756   -6.3408976    1279.2399  0.023875325  0.022482323          110 
 4466000   0.53395985   -6.3488602    1282.1864  0.023924959  0.022475692          102 
 4467000   0.53641226   -6.3361921    1277.7184  0.023836251  0.022469065          257 
 4468000   0.54106211   -6.3465667    1277.3074  0.023823251  0.022462446           84 
 4469000   0.53597993   -6.3383255    1281.4055  0.023894337  0.022455816           81 
 4470000   0.53786884   -6.3502682     1278.717  0.023838871  0.022449199          176 
 4471000   0.52600268   -6.3589312    1278.9588  0.023838045  0.022442597          112 
 4472000   0.52801117   -6.3576102    1278.8551  0.023830782  0.022435993          172 
 4473000   0.54107011   -6.3439915    1278.6167  0.023821014  0.022429382          134 
 4474000   0.54174342   -6.3467511    1280.2918  0.023846889  0.022422792          199 
 4475000   0.53183751   -6.3643517    1281.5763  0.023865481  0.022416197           75 
 4476000   0.52463616   -6.3445225    1279.8617  0.023828226   0.02240961           82 
 4477000   0.53224133   -6.3245162    1280.0852  0.023827064   0.02240303          150 
 4478000   0.53251574   -6.3327266    1279.3194  0.023807493  0.022396444          144 
 4479000   0.52507603    -6.352286    1279.4404  0.023804427  0.022389852          130 
 4480000   0.52458703   -6.3442623     1279.105  0.023792876  0.022383264           96 
 4481000   0.54494792   -6.3741443    1278.6336    0.0237788  0.022376661          102 
 4482000   0.53369229   -6.3404129    1280.1664  0.023801993  0.022370072          234 
 4483000   0.54028645   -6.3551057    1279.2054  0.023778821  0.022363475          242 
 4484000   0.52743459   -6.3482541    1278.2284   0.02375536  0.022356898          175 
 4485000   0.54541702   -6.3574143    1278.2491  0.023750448   0.02235032          184 
 4486000   0.53829119   -6.3428799    1278.3702  0.023747402  0.022343736          115 
 4487000   0.53833288   -6.3576848    1279.6805  0.023766446  0.022337144          126 
 4488000   0.52834771   -6.3579771    1277.8488   0.02372714   0.02233056          111 
 4489000   0.52216192   -6.3537904    1279.5343  0.023753142  0.022323982           74 
 4490000   0.52492482   -6.3558674    1280.1291  0.023758893  0.022317411          114 
 4491000   0.54089315   -6.3342115    1280.0266    0.0237517  0.022310841          180 
 4492000   0.52852986   -6.3732051     1278.541  0.023718851  0.022304266          100 
 4493000     0.539163   -6.3565075     1279.163   0.02372511  0.022297685          143 
 4494000   0.53491154   -6.3637693    1279.8928  0.023733363  0.022291102          181 
 4495000   0.53313936   -6.3653613    1279.9107  0.023728414  0.022284526          221 
 4496000   0.53151364   -6.3553214      1279.55  0.023716451  0.022277948          125 
 4497000   0.51906295   -6.3625488    1276.1279  0.023647764  0.022271361          178 
 4498000   0.53169945   -6.3589107    1279.0417  0.023696489  0.022264786          223 
 4499000   0.55318644   -6.3746227    1276.6647  0.023647194  0.022258208          341 
 4500000   0.53430492   -6.3469281    1275.8847  0.023627495  0.022251632          273 
 4501000    0.5381192    -6.361843    1275.7499  0.023619749  0.022245046          104 
 4502000   0.53199167    -6.344526    1276.1947  0.023622736  0.022238467          160 
 4503000   0.52926591   -6.3631507     1277.642  0.023644274  0.022231887          151 
 4504000   0.53597562   -6.3593229    1274.3294  0.023577735  0.022225299          215 
 4505000   0.53991535   -6.3692823    1276.4713  0.023612122  0.022218723          299 
 4506000   0.53398311   -6.3812269    1277.0973  0.023618459  0.022212154          238 
 4507000   0.53010842   -6.3566388    1276.7823  0.023607393  0.022205594          105 
 4508000   0.53481307   -6.3684367    1277.6505  0.023618206  0.022199021          216 
 4509000   0.53513857   -6.3656276    1276.5684   0.02359297  0.022192448          230 
 4510000   0.52262699   -6.3579698    1277.0351  0.023596362  0.022185874          291 
 4511000   0.52814061   -6.3689145    1277.2392  0.023594901  0.022179309          118 
 4512000   0.53001742   -6.3741714    1275.2434  0.023552811  0.022172734          177 
 4513000   0.52417827   -6.3770149    1274.7901  0.023539222  0.022166158          323 
 4514000   0.52889655   -6.3806853    1275.9736  0.023555856  0.022159579          325 
 4515000   0.51663642   -6.3509449    1275.8139  0.023547691   0.02215301          277 
 4516000   0.53040989   -6.3592237    1276.0917  0.023547603  0.022146433          144 
 4517000   0.52932398    -6.370686    1277.3457  0.023565524  0.022139886          155 
 4518000   0.51677416    -6.347118    1278.4513    0.0235807  0.022133324          225 
 4519000   0.51956245   -6.3828977    1277.7031  0.023561686  0.022126756          157 
 4520000   0.52655689   -6.3755773    1275.5375  0.023516547  0.022120185          137 
 4521000   0.52483096   -6.3708133    1275.2812   0.02350662  0.022113623          388 
 4522000   0.52588157   -6.3897388     1276.607  0.023525855  0.022107063          361 
 4523000   0.52419792    -6.384005    1276.4516   0.02351779  0.022100501          245 
 4524000   0.52586458   -6.3711483    1275.4765  0.023494631  0.022093951          302 
 4525000   0.53021849   -6.3772456    1276.7853  0.023513542  0.022087396          141 
 4526000   0.53015159   -6.3771617    1277.7919  0.023526881   0.02208085          252 
 4527000   0.53428705   -6.3689077    1278.4419  0.023533648  0.022074301          188 
 4528000   0.52308384   -6.3766284    1274.6107  0.023457941  0.022067751          164 
 4529000   0.52730524   -6.3837406    1278.0204    0.0235155  0.022061197          364 
 4530000   0.52117471   -6.3824177    1277.0465  0.023492394  0.022054651          181 
 4531000    0.5199778   -6.3836416    1274.9396  0.023448459  0.022048104          409 
 4532000   0.51480766   -6.3666111    1277.2025  0.023484895  0.022041549          246 
 4533000   0.52904404   -6.3681492    1275.3326  0.023445337  0.022035001          323 
 4534000   0.53036081   -6.3851549    1274.8393    0.0234311   0.02202845          155 
 4535000   0.53104426   -6.3870015    1276.0922  0.023448955  0.022021899          304 
 4536000    0.5187078   -6.3858512    1273.3115  0.023392701  0.022015342          161 
 4537000   0.53154886   -6.3593049    1278.7703   0.02348781  0.022008805          126 
 4538000   0.54281888   -6.3623833    1273.5409  0.023386603   0.02200228          249 
 4539000   0.53008189   -6.3773131    1276.8187  0.023441629  0.021995748          141 
 4540000   0.52305904   -6.3693897     1276.335  0.023427589  0.021989223          344 
 4541000   0.52808235   -6.3654192    1277.8525  0.023450277  0.021982711          280 
 4542000   0.52613607   -6.3791777    1276.3804  0.023418105  0.021976201          346 
 4543000   0.52309055     -6.35141    1277.2965  0.023429755    0.0219697          227 
 4544000   0.52698895    -6.364242    1273.5555  0.023355992  0.021963201          175 
 4545000   0.52639056    -6.356407    1276.4785  0.023404446  0.021956694          191 
 4546000   0.52874497   -6.3542646    1277.7654  0.023422888  0.021950188          416 
 4547000   0.53350813   -6.3484981    1276.9598  0.023402972  0.021943698          329 
 4548000   0.53121574   -6.3683585    1276.4105  0.023387762  0.021937216          199 
 4549000   0.51769981   -6.3756311    1278.8951  0.023428136  0.021930736          302 
 4550000   0.53447677   -6.3783772    1276.0052  0.023370059  0.021924238          314 
 4551000   0.51613581    -6.364428       1277.1  0.023384969  0.021917746          365 
 4552000   0.52257246   -6.4022284     1276.885  0.023375898  0.021911252          255 
 4553000    0.5213979   -6.3614289    1277.2061   0.02337664  0.021904749          294 
 4554000   0.52630017   -6.3861314    1275.0857  0.023332706  0.021898243          321 
 4555000   0.51981296   -6.3906641    1273.8382   0.02330476  0.021891743          335 
 4556000   0.53687856   -6.3902684    1276.4317  0.023347083  0.021885224          493 
 4557000   0.51914915   -6.3879922    1276.0302  0.023334618  0.021878702          471 
 4558000   0.52445802   -6.3935003    1276.2624  0.023333743   0.02187218          396 
 4559000   0.52232657   -6.3804668    1271.1852  0.023235819  0.021865668          476 
 4560000    0.5215317   -6.3821131     1275.935  0.023317525  0.021859148          233 
 4561000   0.50663874    -6.380338    1273.1548  0.023261616  0.021852655          319 
 4562000   0.51704836   -6.3711804    1276.5903  0.023319274  0.021846169          266 
 4563000   0.53525934   -6.3890816    1276.0584  0.023304449  0.021839686          248 
 4564000   0.50947251   -6.3848318    1275.3081  0.023285642  0.021833197          248 
 4565000    0.5185278   -6.3880416    1273.5713  0.023248837   0.02182672          531 
 4566000   0.52843827   -6.3800374    1275.2189  0.023273815  0.021820233          461 
 4567000   0.51852195   -6.3838716    1275.6269  0.023276164  0.021813744          449 
 4568000   0.53054605   -6.3959779    1274.6532  0.023253306  0.021807258          453 
 4569000   0.52050778   -6.3953525    1274.9706  0.023254006  0.021800773          571 
 4570000   0.52801836   -6.4049458    1275.7309   0.02326278  0.021794288          440 
 4571000   0.52323843   -6.3835619    1277.6387  0.023292473  0.021787804          428 
 4572000   0.53069203   -6.4027677    1274.6547  0.023232989  0.021781315          335 
 4573000   0.51870646   -6.4047799    1273.7792  0.023211955  0.021774847          404 
 4574000   0.52255859   -6.3913864    1276.3093  0.023252976  0.021768361          366 
 4575000   0.52798786   -6.3979424    1275.5834  0.023234671  0.021761877          361 
 4576000   0.51678556   -6.3950103    1276.4019  0.023244499  0.021755406          283 
 4577000   0.51714504   -6.3882828    1273.7128  0.023190459  0.021748942          390 
 4578000   0.51988119   -6.3834739    1276.0411  0.023227776  0.021742477          438 
 4579000   0.51971551   -6.3986747    1275.4723  0.023212352  0.021735995          475 
 4580000   0.52487481   -6.4048686    1273.5416  0.023172154   0.02172952          414 
 4581000   0.52524389   -6.4271192    1272.6089  0.023150129  0.021723028          534 
 4582000   0.51303668   -6.3838002    1275.5006  0.023197669  0.021716539          446 
 4583000    0.5299886   -6.4060055    1274.4134  0.023172838  0.021710055          506 
 4584000   0.51295018   -6.4153286    1274.4155   0.02316782  0.021703556          452 
 4585000   0.51175022    -6.409198     1275.332  0.023179426  0.021697085          421 
 4586000   0.51908879   -6.4126598    1274.1141   0.02315224  0.021690603          444 
 4587000   0.52849275   -6.4058228    1273.5817  0.023137521  0.021684118          484 
 4588000   0.51880519    -6.422231    1273.3878  0.023128956   0.02167765          434 
 4589000   0.51960859   -6.4022859    1271.7647  0.023094441  0.021671178          526 
 4590000   0.52401151   -6.4071208    1273.0439  0.023112635  0.021664694          542 
 4591000   0.51640647    -6.406278    1275.0533  0.023144074  0.021658221          592 
 4592000   0.50847296   -6.4284854    1272.8167  0.023098445  0.021651747          619 
 4593000   0.51641815   -6.4202503    1275.4234  0.023140711  0.021645269          515 
 4594000   0.51507508   -6.4170427    1271.7601  0.023069223  0.021638806          590 
 4595000   0.51823275   -6.4076697     1275.693  0.023135529  0.021632347          633 
 4596000   0.51331127   -6.4084187    1273.5807  0.023092194  0.021625882          630 
 4597000    0.5092073   -6.4153644    1274.1259  0.023097055  0.021619428          537 
 4598000   0.50222493   -6.4206791    1274.5419   0.02309957  0.021612961          561 
 4599000   0.51050964   -6.4246821    1272.0534  0.023049457  0.021606492          570 
 4600000   0.51510402   -6.4228569    1274.4194  0.023087309  0.021600028          630 
 4601000   0.51713017   -6.4253624    1272.8514   0.02305389  0.021593582          571 
 4602000   0.51980846    -6.428976    1271.6898  0.023027847   0.02158713          566 
 4603000   0.51292313   -6.3959794    1272.7191  0.023041478  0.021580688          552 
 4604000   0.51256344   -6.4038892    1272.2537   0.02302805  0.021574233          699 
 4605000    0.5166076    -6.400346    1274.5347  0.023064327  0.021567795          569 
 4606000   0.51991799   -6.4048037    1275.7824  0.023081894  0.021561359          600 
 4607000   0.51440732    -6.419126    1274.1583  0.023047506  0.021554932          420 
 4608000   0.51683517   -6.4189282    1274.8515   0.02305504  0.021548514          533 
 4609000   0.51184811   -6.4017853    1274.1642  0.023037612  0.021542085          455 
 4610000   0.52679772   -6.4093839    1273.6082  0.023022563   0.02153566          593 
 4611000   0.51661114   -6.4186531    1274.9904   0.02304255  0.021529231          599 
 4612000   0.50175271   -6.4159584    1272.2769  0.022988525  0.021522814          606 
 4613000   0.51383746   -6.3980895    1275.6031  0.023043629  0.021516399          596 
 4614000   0.50799701   -6.4149772    1274.4308  0.023017461  0.021509983          649 
 4615000   0.51359518   -6.4317111    1273.1866  0.022990007  0.021503563          696 
 4616000   0.51607951   -6.4105225     1273.449  0.022989764  0.021497141          625 
 4617000   0.52312045   -6.4318741    1272.4556  0.022966854  0.021490717          604 
 4618000   0.52085182   -6.4035586    1273.8258  0.022986608  0.021484296          576 
 4619000   0.51824868   -6.4233247     1274.516  0.022994082  0.021477873          661 
 4620000   0.51043318   -6.4441766    1273.6688  0.022973823   0.02147144          644 
 4621000   0.50492408   -6.4213981    1272.0884  0.022940353  0.021465023          611 
 4622000    0.5152041   -6.4163141    1269.0012  0.022879727  0.021458603          676 
 4623000   0.52453873   -6.4084495    1271.6774  0.022923019   0.02145219          723 
 4624000   0.50652562   -6.4124195    1274.0465  0.022960757   0.02144578          671 
 4625000   0.50578433    -6.415513    1275.3715  0.022979667  0.021439364          673 
 4626000   0.51113828   -6.4039302    1275.5825  0.022978501  0.021432958          646 
 4627000   0.51621588   -6.4248116    1273.9328  0.022943823  0.021426551          709 
 4628000   0.51281459   -6.4114133    1274.6764  0.022952254  0.021420142          670 
 4629000   0.52122485   -6.4322935     1274.028  0.022935624  0.021413738          626 
 4630000    0.5190434   -6.4256984    1272.0076  0.022894305  0.021407328          638 
 4631000   0.51949473   -6.4314429    1272.6639  0.022901171  0.021400914          654 
 4632000   0.51166144   -6.4291413    1272.2842  0.022889396  0.021394522          764 
 4633000   0.52638787   -6.4273033    1273.8969  0.022913463  0.021388134          718 
 4634000   0.50957998   -6.4282077    1272.6512  0.022886116  0.021381749          634 
 4635000   0.50439624    -6.413058    1272.2853  0.022874601  0.021375357          745 
 4636000   0.51365001   -6.4297428    1274.7391  0.022913774  0.021368971          751 
 4637000   0.50959683   -6.4302455    1271.0399  0.022842353  0.021362582          736 
 4638000   0.50680434   -6.4282972    1274.2476  0.022895063  0.021356184          723 
 4639000   0.51052682   -6.4289103     1272.132  0.022852124  0.021349801          706 
 4640000   0.51512062   -6.4457666    1271.9875  0.022844604  0.021343413          718 
 4641000   0.50018596   -6.4281677    1270.2488   0.02280846  0.021337018          665 
 4642000   0.50519598   -6.4214607    1273.6689  0.022864946  0.021330645          782 
 4643000   0.50220835   -6.4252053    1274.9057  0.022882218  0.021324266          710 
 4644000   0.50815058   -6.4108893    1275.0885  0.022880573  0.021317905          702 
 4645000   0.50637018   -6.4394566    1271.1352  0.022804722  0.021311546          798 
 4646000   0.52076101   -6.4322176    1274.2178  0.022855104  0.021305184          760 
 4647000   0.51950499   -6.4455914    1273.3456  0.022834546  0.021298822          801 
 4648000   0.51175338   -6.4172311     1273.308  0.022828959  0.021292461          819 
 4649000   0.50505625   -6.4292083    1272.2414  0.022804929  0.021286115          821 
 4650000   0.51028409    -6.432428    1272.5296  0.022805191  0.021279759          844 
 4651000   0.50922319   -6.4296762    1273.0417  0.022809462  0.021273397          837 
 4652000   0.51645898   -6.4345257    1273.6675  0.022815769  0.021267033          792 
 4653000   0.51121622   -6.4231622    1271.9623  0.022780327  0.021260678          761 
 4654000   0.51182816   -6.4299907    1272.6038  0.022786917  0.021254317          739 
 4655000   0.49604926   -6.4301253    1273.7489  0.022802523  0.021247968          851 
 4656000   0.51101742   -6.4492394    1274.3804  0.022808927  0.021241619          815 
 4657000    0.5076254   -6.4462439    1273.3265  0.022785171  0.021235263          784 
 4658000   0.49916432   -6.4302222    1273.6284  0.022785681  0.021228915          804 
 4659000   0.51592896   -6.4407389    1274.0997   0.02278922  0.021222562          860 
 4660000   0.49937266   -6.4388048    1271.5946  0.022739531  0.021216208          811 
 4661000   0.49940621   -6.4284349    1272.6618  0.022753732  0.021209865          866 
 4662000    0.5029324   -6.4477904    1272.8011  0.022751342  0.021203525          874 
 4663000   0.50385075   -6.4395112    1273.4973  0.022758905  0.021197179          907 
 4664000   0.50671011   -6.4329185    1274.1526  0.022765733  0.021190848          919 
 4665000   0.51485156   -6.4433019    1271.5078  0.022713608  0.021184514          878 
 4666000   0.50172563    -6.433596    1273.9446  0.022752261  0.021178173          925 
 4667000   0.50209892   -6.4469039    1272.4308  0.022720355  0.021171833          920 
 4668000   0.51324557   -6.4436541    1272.8182  0.022722405  0.021165495          910 
 4669000   0.49628669   -6.4485059    1270.9665  0.022684488   0.02115915          966 
 4670000   0.50504841    -6.424365    1269.3406  0.022650617  0.021152819          927 
 4671000    0.5041128   -6.4450431    1271.4396  0.022683216  0.021146484          932 
 4672000   0.51426443   -6.4369096    1272.9754  0.022705754  0.021140145          819 
 4673000   0.49710122   -6.4549236    1271.2963  0.022670951  0.021133811         1036 
 4674000   0.50242502   -6.4503347    1269.5478  0.022634926  0.021127466         1052 
 4675000   0.49846249   -6.4484897    1271.6052  0.022666759  0.021121127         1003 
 4676000   0.50702424   -6.4768089    1270.8824   0.02264903  0.021114797         1022 
 4677000   0.50158083   -6.4489385    1271.5603  0.022656266  0.021108464          978 
 4678000   0.50641028   -6.4688365    1270.2021  0.022627229  0.021102138          929 
 4679000   0.49249198   -6.4696999    1271.2182  0.022640489  0.021095812          958 
 4680000   0.50077785   -6.4643542    1270.3681  0.022620515  0.021089488         1063 
 4681000   0.49592952    -6.458606    1271.2686  0.022631712  0.021083153          996 
 4682000   0.50256478   -6.4622695    1270.1415  0.022606819   0.02107682          977 
 4683000   0.50177488   -6.4414704    1273.3186  0.022658528  0.021070501          998 
 4684000   0.50760386     -6.44098     1272.226  0.022634251  0.021064179         1039 
 4685000   0.49547441   -6.4418019    1270.2655  0.022594548  0.021057855          999 
 4686000    0.5056076   -6.4491452    1269.3816  0.022574007  0.021051541          997 
 4687000   0.50655507   -6.4563882    1269.8879  0.022578193  0.021045227         1058 
 4688000   0.50030107    -6.447942    1271.2129  0.022596931  0.021038904         1020 
 4689000   0.50224365   -6.4349377     1272.225  0.022610098  0.021032587         1020 
 4690000   0.51275463   -6.4604275    1271.2242  0.022587495  0.021026283         1025 
 4691000   0.50290876   -6.4605753    1269.4823  0.022551735  0.021019965          958 
 4692000   0.50220173   -6.4536917    1270.3935  0.022563112  0.021013658         1059 
 4693000   0.50149388   -6.4506163    1271.6331  0.022580317  0.021007344         1056 
 4694000   0.51102935   -6.4482013    1269.7536  0.022542138  0.021001031         1065 
 4695000   0.50417232    -6.462377    1267.7076  0.022501023  0.020994722         1094 
 4696000   0.49479955   -6.4666699    1270.6818  0.022549009  0.020988411         1043 
 4697000   0.50054799   -6.4596411    1270.9644  0.022549223  0.020982111         1090 
 4698000   0.50824004   -6.4764533    1270.9358  0.022543915  0.020975815         1087 
 4699000   0.50783833    -6.462956    1271.8017  0.022554474   0.02096951         1152 
 4700000   0.50239676   -6.4518201    1271.7839  0.022549359  0.020963227         1077 
 4701000   0.49452754   -6.4537171    1270.7574  0.022526366  0.020956946         1082 
 4702000   0.50456543   -6.4383026    1270.4498  0.022516125  0.020950671         1161 
 4703000   0.50582992   -6.4447925    1270.3001  0.022508685  0.020944396         1090 
 4704000   0.50197724   -6.4574005    1271.4083  0.022523531  0.020938112         1086 
 4705000    0.4961267    -6.455925    1268.8682  0.022473755  0.020931838         1041 
 4706000   0.49815981   -6.4760253    1270.5185  0.022498203  0.020925558         1073 
 4707000   0.49998106    -6.469431     1269.895  0.022482384  0.020919265         1120 
 4708000   0.50305649   -6.4669382    1271.8016  0.022511356  0.020912983         1067 
 4709000    0.5018661   -6.4543596    1269.4189   0.02246441  0.020906704         1065 
 4710000   0.48755636    -6.462166    1268.3528  0.022440778  0.020900418         1193 
 4711000   0.49846658   -6.4392914    1270.6461  0.022476582   0.02089414         1116 
 4712000   0.49012061   -6.4468481    1269.3327  0.022448583  0.020887864         1134 
 4713000   0.49554198   -6.4589574     1271.765  0.022486827  0.020881578         1100 
 4714000   0.50054567   -6.4758881    1270.3721  0.022457433  0.020875315         1110 
 4715000   0.49738121   -6.4486667     1272.029  0.022481956  0.020869044         1172 
 4716000   0.49561092   -6.4680602    1269.6495   0.02243514  0.020862786         1152 
 4717000   0.50373519   -6.4752363      1269.31  0.022424386   0.02085652         1103 
 4718000   0.49374882   -6.4799307    1271.1264  0.022451717  0.020850262         1140 
 4719000   0.49835084   -6.4730738    1271.1605  0.022447561  0.020843999         1187 
 4720000   0.49385314   -6.4583388    1271.6555  0.022451546  0.020837742         1154 
 4721000   0.49242797   -6.4716108    1269.0574  0.022400928   0.02083149         1285 
 4722000    0.4950248   -6.4607757    1269.9547  0.022412019  0.020825243         1248 
 4723000   0.50064399     -6.46815    1268.9984  0.022390401  0.020819006         1287 
 4724000   0.48967525   -6.4516442    1271.6909  0.022433158   0.02081276         1248 
 4725000   0.50160178   -6.4751247      1271.77  0.022429806  0.020806507         1276 
 4726000   0.50035654   -6.4673587    1268.7845  0.022372417  0.020800248         1299 
 4727000    0.5027925   -6.4616171    1271.2459  0.022411076   0.02079399         1285 
 4728000   0.49374212   -6.4759697    1269.5316  0.022376122  0.020787729         1281 
 4729000   0.48996619   -6.4796845    1270.4301  0.022387223  0.020781478         1301 
 4730000    0.4879486   -6.4464621    1269.6695  0.022369089  0.020775236         1324 
 4731000   0.48944193   -6.4694503    1269.6941  0.022364795   0.02076899         1318 
 4732000   0.49957541   -6.4760491     1267.376  0.022319245  0.020762735         1281 
 4733000    0.4880649   -6.4741538    1269.2407  0.022347361  0.020756489         1357 
 4734000   0.48867691   -6.4821174    1269.1659  0.022341324  0.020750239         1386 
 4735000   0.48243525   -6.4695032    1267.8409  0.022313287  0.020743985         1322 
 4736000    0.4829201   -6.4645234    1268.9197  0.022327557  0.020737739         1342 
 4737000   0.48445452   -6.4671165    1269.6831  0.022336274  0.020731496         1308 
 4738000   0.49238738   -6.4540065    1269.1868   0.02232283  0.020725262         1304 
 4739000   0.49087941   -6.4526233    1268.8794  0.022312714  0.020719021         1394 
 4740000   0.48728655   -6.4702248    1266.7331  0.022270273  0.020712781         1290 
 4741000   0.50435282   -6.4792678    1270.6593  0.022334586  0.020706547         1279 
 4742000   0.48862282   -6.4758937    1270.5798  0.022328479  0.020700304         1328 
 4743000   0.49232768   -6.4801186    1266.7049  0.022255691  0.020694073         1271 
 4744000   0.49077773   -6.4662182    1269.2827  0.022296281  0.020687844         1322 
 4745000   0.49415073   -6.4897839    1268.2922  0.022274187  0.020681616         1329 
 4746000   0.48943978   -6.4836051    1267.3191  0.022252407  0.020675385         1241 
 4747000   0.49374251   -6.4867966    1266.2804  0.022229486  0.020669163         1379 
 4748000   0.48409102   -6.4843786    1269.0331  0.022273117  0.020662935         1419 
 4749000   0.48911416   -6.4757085    1269.1381  0.022270269  0.020656704         1316 
 4750000   0.49353586   -6.4803938    1270.3707  0.022287206  0.020650491         1278 
 4751000   0.48938208   -6.4795054     1270.486  0.022284537  0.020644273         1351 
 4752000   0.49030845   -6.4756293    1268.8978  0.022251996  0.020638053         1391 
 4753000   0.50368407   -6.4894301    1267.4444  0.022221832  0.020631842         1370 
 4754000   0.48967349   -6.4763207    1268.0914  0.022228498  0.020625626         1347 
 4755000   0.48539457   -6.4855442    1269.0275  0.022240229  0.020619417         1386 
 4756000   0.48754287   -6.4733721    1270.0362  0.022253228  0.020613215         1379 
 4757000    0.4936104   -6.4886533    1269.4906  0.022238993  0.020607006         1421 
 4758000   0.49133446   -6.4783564     1270.578  0.022253363  0.020600811         1353 
 4759000   0.49092664   -6.4978938    1266.3247  0.022174208  0.020594614         1378 
 4760000   0.48557957   -6.4709402    1268.1779  0.022201994  0.020588415         1489 
 4761000   0.49792863    -6.478975    1269.0543  0.022212671  0.020582222         1355 
 4762000   0.48594585   -6.5040998    1268.2337  0.022193645  0.020576026         1450 
 4763000   0.48746446   -6.4940407    1268.5373  0.022194297   0.02056982         1502 
 4764000   0.49052022   -6.4800122    1268.9066  0.022196099  0.020563617         1418 
 4765000   0.50200928   -6.4870095    1267.0626  0.022159192  0.020557416         1444 
 4766000   0.49649819   -6.4795715    1267.1626  0.022156291  0.020551212         1502 
 4767000   0.48409142   -6.4875647    1268.7352  0.022179135  0.020545009         1470 
 4768000   0.49010619   -6.4740215    1268.1699  0.022164602  0.020538806         1491 
 4769000   0.48744862   -6.4990194    1266.1927  0.022125405  0.020532605         1508 
 4770000   0.48355873   -6.4986549    1268.0432  0.022153097  0.020526411         1505 
 4771000   0.49105216   -6.4783007    1265.6587  0.022106803  0.020520219         1545 
 4772000   0.49070597   -6.4808874    1268.1146  0.022145058  0.020514029         1549 
 4773000    0.4782467   -6.4924242    1267.7319  0.022133736  0.020507834         1567 
 4774000   0.48590975   -6.5001293    1267.0661  0.022117478  0.020501642         1546 
 4775000   0.49062537   -6.4962133    1268.3144  0.022134632  0.020495445         1616 
 4776000   0.48659744   -6.4946357    1269.0573   0.02214296  0.020489268         1512 
 4777000   0.49285023   -6.5166068    1266.5464  0.022094523  0.020483089         1547 
 4778000   0.48742058   -6.4717023    1269.9615  0.022149461  0.020476921         1535 
 4779000    0.4804458   -6.4780234    1269.0208  0.022128423  0.020470751         1448 
 4780000   0.49211159   -6.4939525    1267.6294  0.022099536  0.020464584         1592 
 4781000   0.48981201    -6.506302    1267.7292  0.022096654  0.020458412         1592 
 4782000   0.48428909   -6.5003416    1267.9672   0.02209618  0.020452238         1619 
 4783000   0.48498375   -6.4827094    1265.5511  0.022049464  0.020446063         1581 
 4784000   0.48482645   -6.4837926    1267.8499  0.022084899  0.020439894         1519 
 4785000   0.48878503   -6.5137739    1266.9446  0.022064517  0.020433729         1635 
 4786000   0.48250502   -6.4902083    1267.5369   0.02207022  0.020427573         1513 
 4787000   0.47729053    -6.483151    1266.4128  0.022046041  0.020421418         1558 
 4788000   0.48572759   -6.4831058     1269.192  0.022089808  0.020415266         1546 
 4789000   0.49233083   -6.4736016    1268.1642  0.022067311  0.020409114         1584 
 4790000   0.49703109   -6.4996386    1266.0403  0.022025754  0.020402955         1658 
 4791000   0.48549549   -6.5066775    1265.7851  0.022016717  0.020396791         1779 
 4792000   0.48179635   -6.5027462    1269.3081  0.022073389  0.020390625         1739 
 4793000   0.48714299   -6.5069346    1267.2664  0.022033284  0.020384472         1781 
 4794000   0.48950117   -6.5118931    1264.7098  0.021984247  0.020378309         1798 
 4795000   0.49128436    -6.495367    1265.3965  0.021991598  0.020372144         1784 
 4796000   0.47970034   -6.5063026    1269.2275  0.022053577  0.020365981         1792 
 4797000   0.48446597   -6.4893713    1266.8624  0.022007894  0.020359826         1691 
 4798000    0.4863907   -6.5126012    1265.5632  0.021980741  0.020353669         1799 
 4799000   0.48935191    -6.499525    1264.3506  0.021955106  0.020347521         1839 
 4800000   0.47970275   -6.5040875    1264.8709  0.021959564  0.020341372         1833 
 4801000   0.48405224   -6.4992878    1266.2131  0.021978287  0.020335222         1771 
 4802000   0.48869158    -6.511448    1265.4105  0.021959783   0.02032907         1788 
 4803000    0.4853203   -6.5142914    1267.6314  0.021993744   0.02032292         1894 
 4804000   0.48589972   -6.4991431    1265.0068  0.021943638  0.020316778         1830 
 4805000   0.47766519   -6.5027247    1266.0532  0.021957218   0.02031063         1879 
 4806000   0.48177613   -6.4949888    1267.1512  0.021971688   0.02030448         1872 
 4807000   0.47157997   -6.5085935    1265.3215  0.021935397   0.02029833         1878 
 4808000    0.4747896   -6.4872503    1266.6277  0.021953474  0.020292181         1858 
 4809000   0.48017224   -6.5165746    1266.1384  0.021940432  0.020286036         1864 
 4810000   0.48039527   -6.5096577    1264.9949  0.021916058   0.02027989         1903 
 4811000   0.48635206   -6.5071636    1266.5735  0.021938847  0.020273744         1856 
 4812000   0.48045345   -6.5214264    1264.6387  0.021900781  0.020267593         1741 
 4813000    0.4961387   -6.5118592    1265.3569  0.021908667  0.020261447         1884 
 4814000   0.47786134   -6.5216805    1265.1991  0.021901383  0.020255312         1829 
 4815000    0.4800207   -6.5166578    1263.7749  0.021872186  0.020249177         1817 
 4816000   0.47881402   -6.5181709    1265.6181  0.021899539  0.020243042         1834 
 4817000   0.47498771   -6.5087091    1267.6956  0.021930932  0.020236916         1636 
 4818000   0.49119886   -6.5114754    1266.6843  0.021908888  0.020230789         1715 
 4819000   0.48343817   -6.5147815    1266.2081  0.021896107  0.020224665         1787 
 4820000   0.47426579   -6.5224605    1265.8758   0.02188582  0.020218537         1775 
 4821000   0.48338178   -6.5212747    1266.0335  0.021884006  0.020212414         1807 
 4822000   0.47225518   -6.5264676    1264.3733  0.021850775  0.020206288         1895 
 4823000    0.4923487    -6.525069    1265.2484  0.021861365  0.020200166         1849 
 4824000   0.47566534   -6.5167864    1265.4978  0.021861142  0.020194045         1888 
 4825000   0.48019219   -6.5151307     1265.217  0.021851761  0.020187932         1855 
 4826000   0.47084749    -6.517636    1264.4614  0.021834186  0.020181825         1816 
 4827000   0.48387875   -6.5196921     1263.148  0.021806988  0.020175717         1844 
 4828000   0.48721861    -6.526343    1263.7453  0.021812781  0.020169605         1854 
 4829000   0.47729566   -6.5099114    1263.9101  0.021811108  0.020163494         1848 
 4830000   0.47899367   -6.5211149    1264.7925  0.021821817  0.020157387         1870 
 4831000   0.48377046   -6.5215397    1267.8653  0.021870305  0.020151271         1869 
 4832000   0.48294149   -6.5192541    1263.2647  0.021786437  0.020145156         1915 
 4833000   0.47945975   -6.5124046    1265.4807  0.021820138  0.020139045         1882 
 4834000   0.48588956   -6.5183032     1263.181  0.021775979  0.020132932         1858 
 4835000    0.4812078   -6.5086134    1267.2137   0.02184098  0.020126835         1843 
 4836000   0.47749098   -6.5236541    1263.3311  0.021769559  0.020120732         1813 
 4837000   0.48052299   -6.5228678    1263.8437  0.021773891  0.020114612         1919 
 4838000   0.48710991   -6.5172458     1266.341  0.021812405  0.020108502         1971 
 4839000   0.48281064   -6.5118812    1265.8389  0.021799251    0.0201024         2025 
 4840000    0.4764139   -6.5220624    1264.9422  0.021779308  0.020096296         1958 
 4841000   0.47403911   -6.5348564    1265.5807  0.021785801  0.020090197         2042 
 4842000   0.47097911   -6.5394387    1263.8029  0.021750703  0.020084097         2047 
 4843000   0.48413758   -6.5476408    1263.2785  0.021737189   0.02007799         2071 
 4844000   0.47956376   -6.5201243    1263.3476  0.021733891  0.020071894         2045 
 4845000   0.46948772   -6.5068879     1263.704  0.021735535  0.020065795         2069 
 4846000   0.48199448    -6.542052    1263.9541   0.02173535  0.020059697         2100 
 4847000   0.47629676   -6.5227222    1265.7756  0.021762182  0.020053604         2059 
 4848000   0.48496966   -6.5258911    1266.2879    0.0217665  0.020047519         2083 
 4849000   0.47713773   -6.5105591    1263.4316  0.021712923  0.020041428         2114 
 4850000   0.47221356   -6.5298466    1261.5796  0.021676626  0.020035333         2217 
 4851000   0.47707785   -6.5451146    1259.7705  0.021641078  0.020029234         2196 
 4852000   0.48138942   -6.5409435    1263.2332  0.021696091  0.020023134         2224 
 4853000   0.47848411   -6.5263724    1261.7735  0.021666554  0.020017034         2270 
 4854000    0.4669274   -6.5362273    1263.0072  0.021683272  0.020010937         2213 
 4855000   0.48368908   -6.5326492    1261.6818  0.021656056  0.020004838         2218 
 4856000     0.483037   -6.5364937    1262.7302  0.021669587  0.019998743         2263 
 4857000   0.47641113   -6.5325113    1262.1783  0.021655658   0.01999265         2192 
 4858000   0.46879218   -6.5292931    1260.5222  0.021622791  0.019986557         2234 
 4859000   0.48049475   -6.5414058    1261.0883   0.02162805  0.019980471         2224 
 4860000   0.48089537   -6.5515747    1263.0671  0.021657529  0.019974376         2202 
 4861000   0.48063466   -6.5368001    1261.7006  0.021629648  0.019968294         2223 
 4862000   0.47174105   -6.5600726    1260.8617  0.021610821  0.019962207         2249 
 4863000   0.48422704   -6.5564781    1262.8076  0.021639722  0.019956123         2248 
 4864000   0.47718296   -6.5387168    1262.4348  0.021628886  0.019950046         2182 
 4865000   0.47627268   -6.5294552     1264.728  0.021663721  0.019943973         2175 
 4866000   0.46619482   -6.5274504    1265.1573   0.02166662  0.019937906         2160 
 4867000   0.47643743   -6.5375435    1261.1775  0.021594026  0.019931831         2210 
 4868000   0.46775931    -6.531132    1262.8658  0.021618491  0.019925763         2253 
 4869000   0.47959689   -6.5498354    1260.4383  0.021572504  0.019919693         2201 
 4870000   0.46965403   -6.5438002     1261.606  0.021588056  0.019913619         2187 
 4871000   0.46873756   -6.5482617    1263.2734   0.02161215  0.019907548         2112 
 4872000   0.46844965   -6.5353122     1265.471  0.021645303  0.019901479         2211 
 4873000   0.47096634   -6.5655492    1261.9205  0.021580145  0.019895411         2242 
 4874000   0.46818564    -6.538844    1262.0733   0.02157833  0.019889338         2238 
 4875000   0.48168337    -6.550818     1263.208  0.021593299  0.019883274         2228 
 4876000   0.46802248   -6.5497528    1262.8044  0.021581973  0.019877209         2278 
 4877000   0.46564846    -6.551809    1261.2214  0.021550499  0.019871146         2255 
 4878000   0.47629196    -6.548914    1261.8315  0.021556504  0.019865088         2202 
 4879000   0.46268797   -6.5649132    1261.0323  0.021538435  0.019859028         2210 
 4880000   0.47192987   -6.5631386     1260.425  0.021523651   0.01985297         2215 
 4881000   0.46454233   -6.5736134     1260.814  0.021525882  0.019846912         2298 
 4882000   0.47284956   -6.5659379    1261.1528  0.021527257  0.019840855         2351 
 4883000   0.48185268   -6.5564958    1259.1652  0.021488927  0.019834791         2221 
 4884000    0.4708678   -6.5477411    1262.1429  0.021535334  0.019828729         2236 
 4885000   0.47144861   -6.5538654    1260.1118  0.021496278  0.019822663         2149 
 4886000   0.46990647    -6.564015     1262.064  0.021525175  0.019816612         2218 
 4887000   0.46514271    -6.564992    1262.8068  0.021533435  0.019810558         2288 
 4888000   0.46627624   -6.5482924    1260.8578  0.021495803  0.019804498         2265 
 4889000   0.46926032   -6.5695681    1262.3267  0.021516443  0.019798444         2279 
 4890000   0.47548761   -6.5714491    1260.9084  0.021487873   0.01979239         2281 
 4891000   0.47179315   -6.5760037    1258.2034  0.021437391   0.01978634         2324 
 4892000   0.46730281    -6.553928    1260.2208  0.021467376  0.019780284         2352 
 4893000   0.46474703   -6.5500022    1260.7235   0.02147155  0.019774241         2323 
 4894000   0.47236727   -6.5637327    1262.4074  0.021495835  0.019768196         2286 
 4895000    0.4703937   -6.5523252    1261.9227  0.021483192  0.019762165         2343 
 4896000   0.47287478   -6.5786686    1260.5513  0.021455461  0.019756126         2257 
 4897000   0.47279781   -6.5549527    1260.7887  0.021455121  0.019750091         2372 
 4898000   0.47021446   -6.5596569    1262.5015  0.021479882  0.019744057         2322 
 4899000   0.46295575   -6.5438633    1261.6753  0.021461442  0.019738027         2324 
 4900000   0.48723994   -6.5536825    1259.7955  0.021425094  0.019732007         2311 
 4901000   0.46251804   -6.5556651    1262.3293  0.021463804  0.019725984         2260 
 4902000   0.47162254   -6.5617389    1262.2453  0.021457998  0.019719962         2410 
 4903000   0.45909106   -6.5458442    1260.9634  0.021431833  0.019713932         2352 
 4904000   0.45930294   -6.5551951    1261.4197  0.021435218  0.019707907         2295 
 4905000   0.45525515   -6.5593057    1261.7928  0.021437187  0.019701882         2387 
 4906000   0.47127453   -6.5659186    1260.9719  0.021418874  0.019695856         2358 
 4907000   0.47053096   -6.5684349     1257.114  0.021348991  0.019689831         2378 
 4908000   0.47717653   -6.5619945    1261.5192  0.021419438   0.01968381         2426 
 4909000   0.46067447   -6.5697301     1262.553  0.021432624    0.0196778         2463 
 4910000   0.47432797   -6.5627504    1259.4974  0.021376398  0.019671782         2464 
 4911000   0.46737232   -6.5698316    1259.8577   0.02137816  0.019665758         2457 
 4912000   0.46682574   -6.5575952    1259.0394  0.021359925  0.019659743         2506 
 4913000   0.45687829   -6.5643083     1257.117  0.021322969  0.019653727         2472 
 4914000   0.46811823   -6.5644451    1258.0672  0.021334745  0.019647712         2586 
 4915000   0.46781333   -6.5810236    1261.1069  0.021381942  0.019641706         2431 
 4916000   0.46989185   -6.5604476    1261.1205  0.021377823  0.019635702         2457 
 4917000   0.47117669   -6.5958436    1257.4558  0.021311366  0.019629693         2557 
 4918000    0.4602994   -6.5638283    1257.9804  0.021315922  0.019623688         2595 
 4919000    0.4721743   -6.5825367    1259.2204  0.021332594  0.019617685         2514 
 4920000   0.46206981   -6.5776476    1261.1002  0.021360098  0.019611683         2455 
 4921000    0.4695456   -6.5765016     1260.784  0.021350403  0.019605689         2490 
 4922000   0.46973995   -6.5721174    1260.9544   0.02134895  0.019599699         2469 
 4923000    0.4606349   -6.5719652    1259.1939  0.021314812   0.01959371         2529 
 4924000   0.46515081   -6.5723124    1260.5741  0.021333843  0.019587716         2482 
 4925000   0.46408634   -6.5866516    1258.2984  0.021291006   0.01958172         2534 
 4926000   0.45810503   -6.5645673    1259.6231  0.021309092  0.019575726         2464 
 4927000   0.46911124   -6.5631585    1258.7838  0.021290573  0.019569733         2500 
 4928000   0.46566038   -6.5869387    1259.7784  0.021303071  0.019563737         2506 
 4929000   0.45887424   -6.5709269     1258.865  0.021283306  0.019557745         2415 
 4930000   0.46840849   -6.5756675    1260.0997  0.021299859  0.019551753         2495 
 4931000   0.46835213   -6.5744155    1258.8861   0.02127503  0.019545757         2502 
 4932000   0.46155511   -6.5921162    1258.5837  0.021265608  0.019539759         2475 
 4933000   0.45978431   -6.5747195    1259.1877    0.0212715  0.019533764         2508 
 4934000   0.46757453   -6.5851067    1259.3643  0.021270171  0.019527775         2446 
 4935000   0.47029422   -6.5916637    1257.4252  0.021233117  0.019521792         2477 
 4936000   0.46339671   -6.5939168    1258.0907  0.021240051  0.019515815         2442 
 4937000    0.4597143   -6.5871089    1259.4957  0.021259465  0.019509831         2494 
 4938000   0.46797249   -6.5828252    1257.6228  0.021223553  0.019503853         2519 
 4939000   0.45957287   -6.5827468    1260.3083  0.021264567  0.019497872         2535 
 4940000   0.46361614   -6.5921416    1257.9526  0.021220523  0.019491899         2646 
 4941000   0.46371954   -6.5801471    1257.3991  0.021206893  0.019485921         2599 
 4942000   0.46803968   -6.5943615    1258.8234  0.021226619  0.019479947         2638 
 4943000   0.45442187   -6.5571087    1260.2874  0.021247005  0.019473981         2540 
 4944000   0.45413491   -6.5799087    1256.6646  0.021181645  0.019468016         2509 
 4945000    0.4755542   -6.5676227    1259.2577  0.021221061  0.019462051         2478 
 4946000   0.45679937   -6.5720244    1258.8621  0.021210103   0.01945609         2533 
 4947000   0.45736607   -6.5687994    1258.1151  0.021193234  0.019450129         2590 
 4948000   0.45037827   -6.5850152    1258.1608   0.02118972  0.019444175         2536 
 4949000   0.46905319   -6.5916886     1259.696  0.021211289  0.019438217         2527 
 4950000   0.45622508   -6.5894103    1259.4023  0.021202058  0.019432258         2547 
 4951000   0.45578842       -6.582    1260.3608  0.021213909  0.019426309         2504 
 4952000   0.46676148   -6.5961055    1259.3689  0.021192934  0.019420357         2538 
 4953000   0.45828448   -6.5932039    1260.3739  0.021205564  0.019414413         2555 
 4954000   0.45503026   -6.5972286    1258.1469  0.021163822  0.019408464         2565 
 4955000   0.44908595   -6.5870497    1258.2383  0.021161088  0.019402514         2552 
 4956000   0.47058618   -6.5807489    1259.5824  0.021179419  0.019396574         2606 
 4957000   0.46761399   -6.5875059     1258.216  0.021152175  0.019390631         2474 
 4958000   0.46624786   -6.5850088    1257.8579   0.02114189  0.019384698         2500 
 4959000   0.47684068   -6.6007357    1256.5128  0.021115023   0.01937876         2583 
 4960000   0.45800026   -6.5839564    1258.0198  0.021136086  0.019372826         2556 
 4961000   0.45060997   -6.5823788    1257.1099  0.021116541  0.019366895         2519 
 4962000   0.46089677   -6.5863239    1258.0573  0.021128197  0.019360959         2442 
 4963000   0.45753242   -6.5787476    1255.9103  0.021087888  0.019355027         2521 
 4964000   0.45142012   -6.5656768    1257.6698  0.021113178  0.019349099         2404 
 4965000   0.45403632   -6.6054061    1259.3721  0.021137498  0.019343169         2599 
 4966000   0.45762814   -6.5910164    1258.1612   0.02111292  0.019337245         2507 
 4967000   0.45038973   -6.6051765    1257.6981  0.021100902   0.01933132         2580 
 4968000   0.45104302   -6.6015198    1257.5145  0.021093573  0.019325397         2601 
 4969000   0.46302654   -6.6033576    1258.4588  0.021105165  0.019319476         2663 
 4970000   0.45910102   -6.5927701    1257.0799  0.021077799  0.019313552         2569 
 4971000   0.45517137   -6.5977759    1259.3768  0.021112064  0.019307642         2567 
 4972000   0.46124971   -6.6015576    1256.0984   0.02105287   0.01930173         2614 
 4973000   0.45205224   -6.5941384    1258.8935  0.021095474  0.019295823         2564 
 4974000   0.45358218   -6.5857948    1256.6338  0.021053374  0.019289917         2536 
 4975000   0.45243517   -6.5911697    1257.3468  0.021061085  0.019284014         2591 
 4976000   0.45558583   -6.5972044    1257.5086  0.021059563  0.019278111         2559 
 4977000   0.45400195   -6.5913096    1258.3513  0.021069441  0.019272207         2547 
 4978000   0.46964027   -6.5894533    1258.3589  0.021065336  0.019266306         2491 
 4979000   0.45724481   -6.5933816    1260.0016  0.021088598  0.019260409         2580 
 4980000   0.46118883    -6.583613      1258.22  0.021054551  0.019254515         2502 
 4981000   0.45971754   -6.6013366    1257.0024  0.021029954   0.01924862         2552 
 4982000   0.44355018   -6.5928044    1258.6663  0.021053565  0.019242729         2574 
 4983000   0.45282637   -6.5949119    1258.4196  0.021045214  0.019236838         2711 
 4984000   0.45580128   -6.5893872    1258.8314  0.021047876  0.019230946         2622 
 4985000   0.45278327   -6.5891265    1256.8583   0.02101067  0.019225062         2587 
 4986000   0.45590563   -6.6046352    1258.4929  0.021033776  0.019219177         2621 
 4987000   0.44367831    -6.599931    1256.7134  0.020999823    0.0192133         2691 
 4988000   0.45566285   -6.6022109    1258.0985  0.021018754  0.019207421         2599 
 4989000   0.45583177    -6.606965    1257.1962  0.020999468   0.01920154         2679 
 4990000   0.45071956   -6.5953991    1257.7023  0.021003713   0.01919566         2608 
 4991000   0.44371518   -6.6123823    1259.2902  0.021026018  0.019189781         2636 
 4992000   0.45584661   -6.5902192    1257.8632  0.020997984  0.019183909         2645 
 4993000   0.45611782   -6.6003262    1257.9911  0.020995912  0.019178039         2572 
 4994000   0.46072287   -6.6105489    1255.5045  0.020950215  0.019172171         2673 
 4995000   0.45729995   -6.6025831    1256.3878  0.020960758  0.019166305         2639 
 4996000   0.45465485   -6.5993977    1258.5117  0.020991989  0.019160445         2616 
 4997000   0.45221495   -6.6045667    1257.9188  0.020977899  0.019154581         2531 
 4998000   0.44768866   -6.6166123    1256.3334  0.020947269  0.019148717         2683 
 4999000   0.44989765   -6.6112947    1256.5027    0.0209459  0.019142857         2605 
 5000000   0.44295915   -6.5987535    1256.8099  0.020946831     0.019137         2619 
 5001000   0.45715731   -6.6022073    1258.3013  0.020967496  0.019131147         2584 
 5002000   0.44806759   -6.5959589    1258.6387  0.020968924  0.019125295         2592 
 5003000   0.44540333    -6.609146    1258.0262   0.02095453  0.019119443         2591 
 5004000   0.45259331   -6.5942648    1256.7798  0.020929587  0.019113596         2619 
 5005000   0.44653944   -6.6000588    1255.2776  0.020900393  0.019107748         2616 
 5006000   0.44919374   -6.5900246    1256.6227  0.020918609  0.019101901         2594 
 5007000   0.44860202    -6.612796    1257.2436  0.020924765  0.019096053         2620 
 5008000   0.44829877   -6.6091543     1257.174  0.020919429  0.019090209         2615 
 5009000   0.44873189   -6.6107137    1256.0504   0.02089656  0.019084363         2672 
 5010000    0.4623345    -6.585821    1257.7471   0.02092061  0.019078527         2730 
 5011000   0.45124039   -6.5878699    1259.8706   0.02095175  0.019072695         2720 
 5012000   0.44969667   -6.5922631    1253.8786  0.020847942  0.019066854         2664 
Loop time of 12870 on 48 procs for 5000000 steps with 4000 atoms

Performance: 67132.797 tau/day, 388.500 timesteps/s
99.4% CPU use with 48 MPI tasks x no OpenMP threads

MPI task timing breakdown:
Section |  min time  |  avg time  |  max time  |%varavg| %total
---------------------------------------------------------------
Pair    | 938.13     | 1003.3     | 1074.8     | 104.7 |  7.80
Neigh   | 87.096     | 90.919     | 94.708     |  18.9 |  0.71
Comm    | 820.84     | 896.33     | 975.66     | 122.6 |  6.96
Output  | 15.119     | 15.123     | 15.226     |   0.4 |  0.12
Modify  | 10719      | 10746      | 10780      |  14.9 | 83.50
Other   |            | 118        |            |       |  0.92

Nlocal:        83.3333 ave          90 max          77 min
Histogram: 2 5 4 8 6 6 9 3 0 5
Nghost:        2390.31 ave        2410 max        2372 min
Histogram: 3 7 5 3 4 10 6 4 4 2
Neighs:        16531.2 ave       18977 max       14004 min
Histogram: 1 5 8 5 6 6 7 2 2 6
FullNghs:      33062.2 ave       36310 max       30811 min
Histogram: 7 5 5 7 7 7 3 3 1 3

Total # of neighbors = 1586985
Ave neighs/atom = 396.74625
Neighbor list builds = 268420
Dangerous builds = 0

#clear
#
#next RN
#
#jump SELF
Total wall time: 3:34:33
