
units lj                  # Use reduced LJ style units
atom_style atomic         # Uncharged point particles
atom_modify map hash      # Needed for indexing of clusters etc
                          # Used to be able to find where atoms are in relation to each other.

lattice fcc 1.0 spacing 1 1 1
Lattice spacing in x,y,z = 1.5874011 1.5874011 1.5874011
region box block 0 10 0 10 0 10 units lattice
create_box 2 box
Created orthogonal box = (0.0000000 0.0000000 0.0000000) to (15.874011 15.874011 15.874011)
  3 by 4 by 4 MPI processor grid
create_atoms 1 box
Created 4000 atoms
  using lattice units in orthogonal box = (0.0000000 0.0000000 0.0000000) to (15.874011 15.874011 15.874011)
  create_atoms CPU = 0.002 seconds
set type 1 type/fraction 2 0.2 78393
Setting atom values ...
  836 settings made for type/fraction
mass 1 1.0
mass 2 1.0
pair_style lj/cut  3.5
pair_modify tail  yes
pair_coeff 1  1  1.0  1.0   # Intearaction between 1 and 1 set with epsilon = 1 and sigma = 1
pair_coeff 1  2  1.5  0.8
pair_coeff 2  2  0.5  0.88

write_data data.0
System init for write_data ...
Neighbor list info ...
  update every 1 steps, delay 10 steps, check yes
  max neighbors/atom: 2000, page size: 100000
  master list distance cutoff = 3.8
  ghost atom cutoff = 3.8
  binsize = 1.9, bins = 9 9 9
  1 neighbor lists, perpetual/occasional/extra = 1 0 0
  (1) pair lj/cut, perpetual
      attributes: half, newton on
      pair build: half/bin/atomonly/newton
      stencil: half/bin/3d
      bin: standard
WARNING: Not all mixed pair coeffs generated from mixing. Use write_data with 'pair ij' option to store all pair coeffs. (../write_data.cpp:312)


#############################
#   M E L T   S Y S T E M   #
#############################

velocity all create 2.4 6583654 mom yes dist gaussian # Assign velocities
                                                    # Temperature 2.4, random number seed, zero linear momentum
                                                                                # Gaussian distribution

timestep 0.002   # simulation timestep
thermo 1000       # output thermodynamic data every 1000 steps bf 100

# Define a fix  in this case with index 1 applied to all
# particles in the simulation. This fix is for simulations
# in the anisotropic NPT ensemble. Note that we use the MTK
# correction.
fix 1 all npt temp 2.4 2.4 0.1 iso 5.68 5.68 0.5 mtk yes tchain 5 pchain 5 # Use NPT ensemble
                                                                         # Set temperature and pressure and damping
                                                                         # Numbers of thermostats in chain and in barostat
run 10000          # run for 10000 steps
Per MPI rank memory allocation (min/avg/max) = 3.642 | 3.644 | 3.648 Mbytes
Step Temp E_pair E_mol TotEng Press Volume 
       0          2.4   -7.0365901            0   -3.4374901   -3.6176696         4000 
    1000    2.4322878   -4.7791971            0   -1.1316775    5.5836837    4510.1678 
    2000    2.4070072   -4.8236474            0   -1.2140393    5.5926681    4487.3239 
    3000    2.4042886    -4.852646            0   -1.2471147    5.4055931    4486.5088 
    4000    2.3623237   -4.7919134            0   -1.2493138    5.5925649    4493.2981 
    5000     2.365742   -4.7535553            0   -1.2058294    5.7518793    4499.7941 
    6000    2.3540905   -4.7821245            0   -1.2518716    5.6643737     4492.399 
    7000    2.3862138   -4.8602908            0   -1.2818649    5.5335052    4470.0111 
    8000    2.4420534   -4.8397524            0   -1.1775881    5.6858573    4472.1768 
    9000     2.433643   -4.8376727            0   -1.1881207    5.9001377    4447.1377 
   10000    2.4021986    -4.860413            0    -1.258016    5.6808316    4463.4644 
Loop time of 2.29703 on 48 procs for 10000 steps with 4000 atoms

Performance: 752274.657 tau/day, 4353.441 timesteps/s
99.6% CPU use with 48 MPI tasks x no OpenMP threads

MPI task timing breakdown:
Section |  min time  |  avg time  |  max time  |%varavg| %total
---------------------------------------------------------------
Pair    | 0.9734     | 1.0407     | 1.1205     |   3.0 | 45.31
Neigh   | 0.19782    | 0.20673    | 0.22029    |   1.0 |  9.00
Comm    | 0.72031    | 0.79675    | 0.86109    |   4.2 | 34.69
Output  | 0.00024655 | 0.00025085 | 0.00031475 |   0.0 |  0.01
Modify  | 0.21455    | 0.23779    | 0.2727     |   3.7 | 10.35
Other   |            | 0.01477    |            |       |  0.64

Nlocal:        83.3333 ave          93 max          70 min
Histogram: 1 0 2 5 9 11 5 11 2 2
Nghost:        1528.73 ave        1562 max        1498 min
Histogram: 1 5 8 4 3 12 8 4 0 3
Neighs:        8540.46 ave        9843 max        7001 min
Histogram: 1 1 4 8 6 11 2 10 3 2

Total # of neighbors = 409942
Ave neighs/atom = 102.48550
Neighbor list builds = 909
Dangerous builds = 216

# Equilibrate just above the melting temperature to avoid step fn in T

fix 1 all npt temp 1.25 1.25 0.1 iso 5.68 5.68 0.5 mtk yes tchain 5 pchain 5
run 2000
Per MPI rank memory allocation (min/avg/max) = 3.642 | 3.645 | 3.649 Mbytes
Step Temp E_pair E_mol TotEng Press Volume 
   10000    2.4021986    -4.860413            0    -1.258016    5.6808316    4463.4644 
   11000    1.2352101   -6.5902954            0   -4.7379435    5.4493492    3645.5229 
   12000    1.2416879   -6.5452076            0   -4.6831414     5.957907    3633.9526 
Loop time of 0.520387 on 48 procs for 2000 steps with 4000 atoms

Performance: 664121.464 tau/day, 3843.296 timesteps/s
99.6% CPU use with 48 MPI tasks x no OpenMP threads

MPI task timing breakdown:
Section |  min time  |  avg time  |  max time  |%varavg| %total
---------------------------------------------------------------
Pair    | 0.22485    | 0.2502     | 0.28097    |   2.1 | 48.08
Neigh   | 0.032736   | 0.035331   | 0.039116   |   0.6 |  6.79
Comm    | 0.145      | 0.17753    | 0.20817    |   3.3 | 34.11
Output  | 5.2551e-05 | 5.3514e-05 | 6.6784e-05 |   0.0 |  0.01
Modify  | 0.044475   | 0.052624   | 0.064487   |   2.5 | 10.11
Other   |            | 0.004654   |            |       |  0.89

Nlocal:        83.3333 ave          92 max          73 min
Histogram: 1 2 2 9 7 10 4 5 6 2
Nghost:        1755.40 ave        1796 max        1719 min
Histogram: 1 2 8 8 11 6 3 4 4 1
Neighs:        10528.3 ave       11986 max        9137 min
Histogram: 2 3 4 7 11 7 3 7 3 1

Total # of neighbors = 505357
Ave neighs/atom = 126.33925
Neighbor list builds = 143
Dangerous builds = 7

#############################
# L I N E A R  Q U E N C H  #
#############################

# Define solid atoms. This closely follows ten Wolde  Ruiz-Montero and Frenkel  Faraday Discuss  1996  104  93-110
# Compute components of the per-atom q6 vector
compute q6 all orientorder/atom degrees 1 6 components 6 nnn NULL cutoff 1.3 # compute the Q6 parameter.
                                                                             # Use all neighbours within 1.3 unit cell.

# get number of connections
compute coord_number all coord/atom orientorder q6 0.5

# An atom is solid if it has 8 or more connections (of a possible 14)
variable is_solid atom c_coord_number>=8
group solid dynamic all var is_solid    # Must be dynamic to update
dynamic group solid defined

# do clustering
compute cluster solid cluster/atom 1.3 # Create a cluster where all atoms within are solid and max 1.3 units from another member

# define chunks one chunk per cluster
compute clus_chunks solid chunk/atom c_cluster nchunk every compress yes  # Says which atoms are in which chunk

# count the size of each chunk
compute size_chunks solid property/chunk clus_chunks count


# Find the maximum entry in the vector of chunk sizes
variable max_n equal max(c_size_chunks)


# Thermo style which includes this variable
# thermo_style custom step temp pe vol v_max_n

thermo ${N}  # Print the thermo information every 100 steps
thermo 1000  

# Reset the npt fix at a lower temperature (below freezing)
fix 1  all npt temp  ${temp} ${temp}  0.1  iso  5.68  5.68  0.5  mtk yes tchain  5  pchain  5
fix 1  all npt temp  0.45 ${temp}  0.1  iso  5.68  5.68  0.5  mtk yes tchain  5  pchain  5
fix 1  all npt temp  0.45 0.45  0.1  iso  5.68  5.68  0.5  mtk yes tchain  5  pchain  5

dump dmp2 all dcd ${N} traj.dcd
dump dmp2 all dcd 1000 traj.dcd


compute msd all msd com yes
variable twopoint equal c_msd[4]/6/(step*dt+1.0e-6)
fix 9 all vector 10 c_msd[4]
variable fit equal slope(f_9)/6/(10*dt)
thermo_style custom step temp pe c_msd[4] v_twopoint v_fit v_max_n

fix 1 all npt temp 1.25 ${temp} 0.1 iso 5.68 5.68 0.5 mtk yes tchain 5 pchain 5
fix 1 all npt temp 1.25 0.45 0.1 iso 5.68 5.68 0.5 mtk yes tchain 5 pchain 5
run 500000 # 5000000  # Run for this many steps
Neighbor list info ...
  update every 1 steps, delay 10 steps, check yes
  max neighbors/atom: 2000, page size: 100000
  master list distance cutoff = 3.8
  ghost atom cutoff = 3.8
  binsize = 1.9, bins = 9 9 9
  4 neighbor lists, perpetual/occasional/extra = 1 3 0
  (1) pair lj/cut, perpetual
      attributes: half, newton on
      pair build: half/bin/atomonly/newton
      stencil: half/bin/3d
      bin: standard
  (2) compute orientorder/atom, occasional
      attributes: full, newton on
      pair build: full/bin/atomonly
      stencil: full/bin/3d
      bin: standard
  (3) compute coord/atom, occasional
      attributes: full, newton on
      pair build: full/bin/atomonly
      stencil: full/bin/3d
      bin: standard
  (4) compute cluster/atom, occasional
      attributes: full, newton on
      pair build: full/bin/atomonly
      stencil: full/bin/3d
      bin: standard
Per MPI rank memory allocation (min/avg/max) = 9.775 | 9.781 | 9.785 Mbytes
Step Temp PotEng c_msd[4] v_twopoint v_fit v_max_n 
   12000    1.2416879   -6.5452076 7.3559307e-30 5.108285e-32 8.3333333e+20            3 
   13000    1.2546518   -6.5838438   0.55201147 0.0035385349     0.045185            1 
   14000    1.2812274   -6.5672624    1.0660106  0.006345301  0.043650803            2 
   15000    1.2248125   -6.5834519    1.5488647 0.0086048037  0.042575648            2 
   16000    1.2607081   -6.5309231     2.041416  0.010632374  0.042314965            1 
   17000    1.2430693   -6.6041984    2.5158575  0.012332635  0.041607531            3 
   18000    1.2364585   -6.5519706    3.0852122  0.014283389  0.041791295            3 
   19000    1.2582528   -6.6132119     3.483251  0.015277416   0.04158677            2 
   20000    1.2564124   -6.6017941    3.9554882    0.0164812  0.041022917            1 
   21000    1.2248806   -6.6090913    4.4231017  0.017551991  0.040712592            3 
   22000    1.2409017   -6.5804941    4.9264222   0.01866069  0.040512996            2 
   23000    1.2364609   -6.5587392     5.429476  0.019672014  0.040376973            1 
   24000    1.2444786   -6.5770793    5.9914609  0.020803683  0.040534963            1 
   25000    1.2262002   -6.6229848    6.4938483  0.021646161  0.040756309            1 
   26000    1.2313054   -6.6047521    6.9743523  0.022353693  0.040908327            1 
   27000    1.2398631   -6.6070293       7.5287  0.023236728  0.040993221            1 
   28000    1.1819671   -6.5996846    8.0591203  0.023985477    0.0411826            3 
   29000    1.2210824   -6.6064405    8.5739593  0.024637814  0.041315178            2 
   30000    1.2318728     -6.62553    8.9205969  0.024779435  0.041365115            1 
   31000    1.2036478   -6.6013093    9.2947151  0.024985793  0.041210778            3 
   32000    1.2157288   -6.5857543    9.7516019  0.025394796  0.041040438            2 
   33000    1.2355801   -6.6190878    10.152514  0.025637661  0.040840486            3 
   34000    1.2266061   -6.6364644    10.701555  0.026229301  0.040626741            2 
   35000    1.2177107   -6.6641577    11.139546  0.026522729  0.040509092            2 
   36000    1.1930385   -6.5980867    11.615434  0.026887579   0.04038669            3 
   37000    1.2065671   -6.6414868     12.02292  0.027078647  0.040228194            2 
   38000     1.202996   -6.6441939    12.431545  0.027262159  0.040072393            3 
   39000    1.1796481   -6.6203218    12.924349   0.02761613  0.039900996            2 
   40000    1.1869591   -6.6409863    13.534436   0.02819674  0.039835259            2 
   41000    1.2103753   -6.6393698    13.952075  0.028357876  0.039798025            4 
   42000    1.2068412   -6.6565646    14.536183  0.028841634   0.03979533            1 
   43000    1.2098556   -6.6417337    15.067119  0.029199843  0.039837853            2 
   44000    1.2021519   -6.6735429    15.472081  0.029303184   0.03986318            2 
   45000    1.1824364   -6.6499843    16.011094  0.029650175  0.039871214            2 
   46000    1.2098041   -6.6967087    16.437177  0.029777494  0.039883035            2 
   47000    1.2008345   -6.6889235    16.986208   0.03011739  0.039885707            2 
   48000    1.2295378   -6.6701491    17.377893  0.030169953  0.039895692            2 
   49000    1.1891792   -6.6932559    17.907521  0.030454968  0.039890463            2 
   50000    1.1708252   -6.7074983    18.291443  0.030485738  0.039895737            1 
   51000    1.2136121   -6.7194243    18.775879  0.030679541  0.039894283            3 
   52000    1.1801256   -6.7215122    19.327495   0.03097355  0.039904851            1 
   53000    1.1829334   -6.6689432    19.948353  0.031365334  0.039921967            2 
   54000    1.1801608   -6.6999795    20.413588   0.03150245  0.039959609            1 
   55000    1.1726992   -6.6999293    20.797581  0.031511487  0.040007349            2 
   56000    1.1771202    -6.709338    21.397414   0.03184139  0.040021884            2 
   57000    1.1815572   -6.6696861    21.724031  0.031760279  0.040038254            3 
   58000    1.1852996   -6.6866213    22.386398  0.032164365  0.040037452            1 
   59000    1.1596257   -6.7005818    22.896698  0.032339969  0.040049728            2 
   60000      1.16763   -6.7435621    23.333661  0.032407862  0.040075259            2 
   61000    1.2147737   -6.7142392    23.678219  0.032347293  0.040095509            2 
   62000    1.1555112   -6.7142504    24.199081  0.032525646  0.040101662            3 
   63000    1.2008059    -6.726157    24.670286  0.032632653  0.040101205            4 
   64000    1.1826208   -6.7231121     25.06467  0.032636289   0.04010685            2 
   65000     1.166833   -6.7545788    25.497348  0.032688908  0.040106755            3 
   66000    1.1636974   -6.7391097    25.877855  0.032674059  0.040076765            3 
   67000    1.1759715   -6.7218426    26.460765  0.032911399  0.040047136            1 
   68000    1.1474331    -6.738123    26.825586  0.032874492  0.040018004            2 
   69000     1.151313   -6.7261678    26.980989  0.032585735  0.039961247            1 
   70000    1.1632226   -6.6970498    27.393361  0.032611144  0.039882562            2 
   71000    1.1576363   -6.7461553    27.865634  0.032706143  0.039808074            2 
   72000    1.1539503   -6.7825031    28.335059  0.032795207  0.039734145            3 
   73000    1.1343727   -6.7392214    28.620185  0.032671444  0.039648251            2 
   74000    1.1653374   -6.7851348    28.862023  0.032502278  0.039553265            3 
   75000    1.1358762   -6.7281152    29.347109  0.032607899  0.039452394            2 
   76000     1.143764   -6.8031973    29.801361   0.03267693   0.03935488            2 
   77000    1.1467609   -6.7839947    30.298927  0.032791047  0.039269645            2 
   78000    1.1564475   -6.7871013    30.519777  0.032606599  0.039181786            3 
   79000     1.153722   -6.7644126    30.967802  0.032666458  0.039086101            3 
   80000    1.1216472   -6.7880601    31.173585  0.032472484   0.03898546            3 
   81000    1.1354986   -6.7778622    31.474098  0.032380759  0.038869337            2 
   82000    1.1351447   -6.7745445    31.908138  0.032426969    0.0387574            1 
   83000    1.1371788   -6.7898473    32.385097  0.032515158  0.038641695            3 
   84000    1.1589773   -6.8119723    32.608209  0.032349413  0.038529043            3 
   85000    1.1272911   -6.8084456    33.044147  0.032396222  0.038416253            2 
   86000    1.1380504   -6.7821596    33.450563  0.032413336  0.038304162            4 
   87000     1.142978   -6.7779919    33.815008  0.032389854  0.038201725            2 
   88000    1.1490808   -6.7806905    34.137058  0.032326759  0.038094187            2 
   89000    1.1365492   -6.8421079    34.391963  0.032202212  0.037983609            1 
   90000    1.1236688   -6.7974519    34.895702  0.032310835  0.037874735            2 
   91000    1.1232161   -6.7748994    35.402352  0.032419736  0.037774717            3 
   92000    1.1302694   -6.8118728    35.726691  0.032361133  0.037679111            2 
   93000    1.1433554   -6.8639739    35.930709  0.032195976  0.037576155            2 
   94000      1.13184    -6.810213    36.413239   0.03228124  0.037475775            3 
   95000    1.1009708   -6.8212048    36.738835  0.032227048  0.037376996            3 
   96000    1.1096388   -6.8049757    36.851945  0.031989536  0.037266533            2 
   97000    1.1213323   -6.8244626     37.21339  0.031970266  0.037146638            2 
   98000    1.1248898   -6.8162807    37.427147  0.031825805  0.037032847            2 
   99000    1.1312636   -6.8132767     38.03388   0.03201505  0.036924913            2 
  100000    1.1034485   -6.8477073    38.382285  0.031985237  0.036825157            4 
  101000    1.0990539   -6.8337283    38.841049   0.03204707  0.036723433            2 
  102000    1.1041981   -6.8909441    38.981762  0.031847845  0.036619227            4 
  103000    1.0883376   -6.8548543    39.503652  0.031960883   0.03652133            1 
  104000    1.0920866   -6.8912659    39.843228  0.031925664  0.036427126            3 
  105000    1.0972357   -6.9164033    40.084821   0.03181335  0.036332084            3 
  106000    1.1008532   -6.8615726    40.566826  0.031892159  0.036234977            2 
  107000    1.0803071   -6.9230865     40.66947  0.031674042  0.036135125            5 
  108000    1.0822533   -6.8617989     40.94894  0.031596404  0.036033854            3 
  109000    1.1051658   -6.8883506      41.4525  0.031691514  0.035932047            3 
  110000    1.1019827   -6.8007273    41.903923  0.031745396   0.03583893            3 
  111000    1.0937459   -6.8890774    41.953732  0.031496796  0.035740625            2 
  112000     1.096822     -6.83709    42.107099  0.031329687  0.035636109            3 
  113000    1.0813136   -6.8503439    42.465121   0.03131646  0.035529368            2 
  114000    1.0831508   -6.9008897    42.689456  0.031205743  0.035425842            3 
  115000    1.0868161   -6.8796128     43.32238  0.031393029  0.035327655            3 
  116000    1.0847068   -6.8686885    43.774144  0.031446943  0.035241425            1 
  117000    1.0823751   -6.8897649    43.942408  0.031298011  0.035151933            2 
  118000    1.0744538   -6.9125658     44.28058  0.031271596   0.03506042            4 
  119000    1.0537063   -6.9171259     44.69882  0.031301694   0.03497199            3 
  120000    1.0776208    -6.886901    45.054667  0.031287963  0.034887027            6 
  121000    1.0699333   -6.9357632    45.275905  0.031181753  0.034803049            2 
  122000    1.0769941   -6.9195729    45.766589  0.031261331  0.034716588            1 
  123000    1.0795604   -6.8735144    46.195197  0.031297559  0.034634079            2 
  124000    1.0853801   -6.9556563    46.265997   0.03109274  0.034550114            2 
  125000    1.0638716   -6.9234671    46.610692  0.031073795  0.034468335            2 
  126000    1.0880945   -6.9498221    46.893967  0.031014529  0.034384147            3 
  127000    1.0627708   -6.8934287    47.355041  0.031072862  0.034301729            2 
  128000    1.0697363   -6.9266585     47.53683  0.030948457  0.034220795            1 
  129000    1.0649843   -6.8984805    47.759193  0.030852192  0.034137064            2 
  130000    1.0683412   -6.9535492    48.145541  0.030862526  0.034056482            3 
  131000     1.057005   -6.9282163    48.565275  0.030893941  0.033976008            2 
  132000    1.0359379   -6.9387219    48.970779  0.030915896  0.033896653            2 
  133000     1.037656   -6.9425272    49.058482  0.030738397  0.033814808            2 
  134000    1.0527853   -6.9552055    49.155229  0.030569172  0.033730491            5 
  135000    1.0593072   -6.9369587    49.484424   0.03054594  0.033645885            2 
  136000     1.074609   -6.9252874      49.5986  0.030391299  0.033563973            4 
  137000     1.045284   -6.9728843    49.911257  0.030359645  0.033479184            3 
  138000    1.0420711   -6.9335163     50.41713  0.030445127   0.03339428            1 
  139000    1.0535049    -7.025378    50.603001   0.03033753   0.03331071            2 
  140000    1.0453888   -6.9902724    50.665979   0.03015832  0.033222513            1 
  141000    1.0626469   -6.9408182    50.848495  0.030052302  0.033132086            1 
  142000    1.0092068     -7.01975    51.023793   0.02994354  0.033039937            3 
  143000    1.0256875     -6.95192    51.615851  0.030079167  0.032949887            1 
  144000    1.0583745   -6.9784985    51.938543  0.030057027  0.032864513            4 
  145000    1.0444612   -6.9727592    52.279309   0.03004558  0.032779933            2 
  146000    1.0328657   -6.9832952    52.605423  0.030025926   0.03269684            2 
  147000    1.0180449    -6.985378    52.917302   0.02999847  0.032616929            3 
  148000    1.0379629   -6.9420233    53.372118  0.030051868  0.032541424            5 
  149000    1.0164368   -6.9997396    53.614176  0.029985557  0.032466929            2 
  150000    1.0190086   -7.0323646    53.848603  0.029915891   0.03239453            4 
  151000    1.0207357   -7.0268619    54.014186  0.029809153  0.032320403            4 
  152000    1.0356072   -7.0299922    54.335282   0.02978908  0.032243324            3 
  153000    1.0459015   -7.0370709    54.364005  0.029610024  0.032163471            2 
  154000    1.0061107   -7.0382985     54.80486   0.02965631  0.032082199            3 
  155000   0.99582734   -7.0176825    54.816784  0.029471389  0.032003006            2 
  156000    1.0254076   -7.0341746     55.04484  0.029404295  0.031923146            3 
  157000    1.0195539   -7.0209166    55.555081  0.029487835  0.031844159            2 
  158000    1.0106576   -7.0102927    55.733772  0.029395449   0.03176744            2 
  159000     1.011617   -7.0360472    56.061475  0.029382324  0.031689893            4 
  160000    1.0378167   -7.0066774    56.156432  0.029248141   0.03161223            2 
  161000    1.0336003   -7.0405233    56.662757  0.029328549  0.031535296            2 
  162000     1.016183   -7.0218467    56.941631  0.029290962  0.031459582            5 
  163000    1.0213871   -7.0099821    57.263371  0.029275752  0.031385018            2 
  164000    1.0082852   -7.0141031    57.600706  0.029268652  0.031313636            5 
  165000    1.0249957   -7.0553945    57.712725  0.029147841    0.0312411            2 
  166000     1.012029   -7.0174136    58.015517  0.029124256  0.031169702            3 
  167000     1.019836   -7.0408128    58.367514  0.029125506   0.03110157            3 
  168000    0.9911581   -7.0684372    58.779515  0.029156505  0.031031328            2 
  169000    1.0192234   -7.0927368    58.750129  0.028969492  0.030962399            2 
  170000   0.99281755   -7.0438711     59.17493  0.029007318  0.030894702            2 
  171000    1.0014007    -7.056372    59.605918  0.029047718  0.030828324            3 
  172000   0.99793549   -7.0711742    59.722695  0.028935414    0.0307623            5 
  173000    1.0195543   -7.0444975    59.791952  0.028801518  0.030695681            4 
  174000   0.97659011   -7.0836594    59.721516  0.028602258  0.030624738            2 
  175000   0.97933046   -7.0931142    60.064893   0.02860233  0.030552448            2 
  176000   0.98423053   -7.0980668    60.307171  0.028554531  0.030480478            1 
  177000   0.98521562   -7.0767917    60.463837  0.028466966  0.030406743            2 
  178000   0.99619372   -7.0959414    60.502404  0.028325096  0.030331402            2 
  179000   0.98193935   -7.1081803    60.919543  0.028361053  0.030256039            4 
  180000   0.99117085   -7.0773774    61.119382   0.02829601  0.030180751            3 
  181000   0.96148559   -7.1272137    61.180202   0.02816768  0.030106711            2 
  182000   0.99031476   -7.0863839    61.463601  0.028142674  0.030031674            2 
  183000    0.9860871    -7.130873    61.485435  0.027998832  0.029956787            3 
  184000   0.97190416   -7.1760356    61.634723  0.027914277  0.029881086            2 
  185000   0.97244276   -7.1072049    61.979501  0.027918694  0.029804496            1 
  186000   0.95333351   -7.1511442    62.306719  0.027915196   0.02972933            3 
  187000   0.96188526   -7.1450849    62.427245  0.027819628  0.029654712            3 
  188000   0.94653322   -7.0960554    62.514428  0.027710296  0.029578911            1 
  189000    0.9505842   -7.1435032    62.799902  0.027689551  0.029501942            1 
  190000   0.94840135   -7.1066042    63.022819  0.027641587  0.029428149            3 
  191000   0.97577784   -7.1357205    63.184492  0.027567405  0.029353586            3 
  192000   0.98277393   -7.1535141    63.541063  0.027578586  0.029279539            2 
  193000   0.97898254    -7.152763    63.808461  0.027551149  0.029207788            4 
  194000   0.93772334   -7.1421655    64.090191  0.027530151  0.029137477            4 
  195000   0.95713551   -7.1550985    64.591956    0.0276034  0.029068864            2 
  196000   0.94954567   -7.1505435    64.472257  0.027411674  0.028998551            3 
  197000   0.95221926   -7.1340619    64.713664  0.027374646  0.028927607            4 
  198000   0.94641672   -7.1266908    64.835945  0.027287856  0.028856074            3 
  199000   0.94458728   -7.1649591    64.895683  0.027175747  0.028783776            3 
  200000   0.94875362   -7.1365474    65.222246  0.027175936   0.02871145            2 
  201000   0.92329686   -7.1550711    65.429239   0.02712655  0.028638881            2 
  202000   0.93389876   -7.1833043    65.516076  0.027028084  0.028565831            4 
  203000   0.94915654    -7.175011    65.674865  0.026960125  0.028492704            3 
  204000   0.93454811    -7.179747    65.579319  0.026788938  0.028419697            2 
  205000   0.92253304   -7.1866923    65.956342  0.026811521  0.028346161            8 
  206000   0.92940882    -7.193624    65.876286  0.026648983  0.028272084            7 
  207000   0.94951502   -7.1977203    66.135625  0.026624648  0.028197648            3 
  208000    0.9396867   -7.1923166    66.363306  0.026587863  0.028123561            3 
  209000   0.92962024   -7.2031716    66.408211  0.026478553   0.02804898            5 
  210000   0.92810998   -7.2110704    66.541399  0.026405317  0.027973081            3 
  211000   0.93336782   -7.1639787    67.011725  0.026465926  0.027899295            3 
  212000   0.94605405   -7.2088043    67.208631  0.026418487  0.027827742            6 
  213000   0.92870282   -7.2137622    67.479375  0.026400381  0.027756331            8 
  214000   0.92044753   -7.1992984    67.529117  0.026296385  0.027685427            2 
  215000   0.89756891   -7.2338063    67.866792  0.026304958  0.027615218            6 
  216000   0.93181157   -7.2239909    68.046608  0.026252549  0.027544994            5 
  217000   0.91433494   -7.2278146     68.31183  0.026233421  0.027476547            2 
  218000   0.91701897   -7.2506809    68.573153  0.026212979  0.027408989            3 
  219000   0.90886204   -7.2303785    68.574256  0.026093705  0.027341517            3 
  220000   0.90454328    -7.213273    68.943764  0.026115062  0.027274464            1 
  221000   0.89269071   -7.2362577    68.910732  0.025984439  0.027206462            4 
  222000   0.89564587   -7.2630058    68.983733  0.025894794  0.027137374            2 
  223000   0.91039154   -7.2391385    69.232176  0.025871516  0.027068087            9 
  224000   0.91811567   -7.2554128     69.25286  0.025763713  0.026999141            4 
  225000   0.92665256    -7.253176    69.332894   0.02567885  0.026929446            5 
  226000   0.88779524   -7.2389705    69.751597  0.025719615  0.026860529            2 
  227000   0.89964322   -7.2829809    69.963771  0.025684204   0.02679322            1 
  228000   0.90262712   -7.2678722    69.898609  0.025547737  0.026724793            3 
  229000   0.90679694   -7.2753882    70.131963  0.025521093  0.026658432            2 
  230000   0.88695304   -7.2591212    70.424908  0.025516271  0.026592889            2 
  231000   0.92010174   -7.2639384    70.646936  0.025485908  0.026526227            3 
  232000   0.91060979   -7.2576832    70.853424  0.025450224  0.026459475            2 
  233000   0.90570448   -7.3160304      70.4819  0.025208119  0.026392676            2 
  234000   0.88960054   -7.2745007    71.027446  0.025294674  0.026324569            3 
  235000   0.90306935   -7.2401919    71.206208  0.025250428  0.026257776            3 
  236000   0.88402891     -7.29943    71.163204   0.02512825  0.026191672            2 
  237000   0.89002285   -7.3014103    71.549213  0.025157951  0.026125971            7 
  238000   0.87761097   -7.3150109    71.462722  0.025021962  0.026059202            4 
  239000    0.8709101   -7.3341192    71.433991  0.024907249  0.025992175            2 
  240000   0.90733068   -7.2981489    71.719654  0.024902658  0.025925142            3 
  241000   0.87143491   -7.3201465    71.800269  0.024827202  0.025858107            2 
  242000   0.89630331   -7.2795318     72.02273  0.024801216  0.025790279            3 
  243000   0.86092813   -7.3033879    71.913437  0.024661672  0.025722461            2 
  244000   0.87056348   -7.3402078    72.068284  0.024613485  0.025654101            2 
  245000     0.858873   -7.3197265    72.366436  0.024614434  0.025586046            7 
  246000   0.87434746   -7.3057187    72.443279  0.024540406  0.025518317            2 
  247000   0.88713793   -7.3158205    72.671265  0.024517971  0.025450114            2 
  248000   0.88615586   -7.3369332    72.650001  0.024411963  0.025382086            6 
  249000   0.86383211   -7.3273562    72.763485  0.024351902  0.025314471            3 
  250000   0.87713729   -7.3431903    73.016656  0.024338885   0.02524813            5 
  251000   0.86906601   -7.3505119    73.002213  0.024237123   0.02518215            4 
  252000   0.84787494   -7.3323844    73.150915  0.024190117  0.025115412            2 
  253000   0.84955678   -7.3435682     73.25394  0.024128439  0.025048701            4 
  254000   0.85712061   -7.3437107    73.304362  0.024049987  0.024982089            4 
  255000   0.87297045   -7.3712182    73.296337  0.023953051  0.024914711            4 
  256000   0.85967319    -7.397336    73.487681  0.023921771  0.024847422            4 
  257000   0.85590604   -7.3941899    73.784476  0.023924927  0.024780237            3 
  258000   0.84143483   -7.3630775    73.609697  0.023775742  0.024712916            2 
  259000   0.85483545   -7.3822635    73.942869  0.023791142  0.024646537            3 
  260000   0.85824079   -7.3687008    74.111208  0.023753592   0.02457963            1 
  261000   0.84950347   -7.3742037    74.109565  0.023662058  0.024513754            2 
  262000   0.84236701   -7.3695974    74.178815  0.023593771  0.024447232            5 
  263000   0.86064972   -7.3871809    74.192129  0.023508279  0.024380251            2 
  264000   0.84642723   -7.4154868    74.430018  0.023494324  0.024313406            4 
  265000   0.84886916   -7.4252737     74.57622  0.023451641  0.024246918            2 
  266000   0.84450662   -7.4059457    74.735453  0.023413363   0.02418156            2 
  267000   0.85727944   -7.3725113     74.78549  0.023341289  0.024115932            2 
  268000   0.84560126   -7.3805961     74.90338  0.023290852  0.024049819            1 
  269000   0.83596578   -7.3915382     75.01203  0.023237927  0.023984418            3 
  270000   0.84462251   -7.3976639    75.108365  0.023181594  0.023919526            6 
  271000   0.82433659   -7.3982105    75.321839  0.023161697  0.023854781            5 
  272000   0.81818003   -7.4227517    75.255934  0.023056352  0.023790086           10 
  273000    0.8369079    -7.421056    75.488666  0.023042938  0.023725861            4 
  274000   0.83662824   -7.4240975     75.62156  0.022999258  0.023662161            3 
  275000   0.81853474   -7.3998788    75.685922  0.022935128  0.023598222            4 
  276000   0.83620577   -7.4229217    75.729313  0.022865131  0.023534381            4 
  277000   0.83883721   -7.4348631    75.963144  0.022852931  0.023471709            3 
  278000   0.83241744    -7.455757    75.968313  0.022772276  0.023408428            4 
  279000   0.82008403   -7.4219083    76.287111  0.022785876  0.023344754            3 
  280000   0.80206826   -7.4621479    76.022272  0.022625676  0.023281085            5 
  281000   0.82596115    -7.459006    76.355501   0.02264398  0.023217659            4 
  282000   0.83154464   -7.4753354    76.345062  0.022560597  0.023154538            3 
  283000   0.81764731   -7.4790782    76.321468   0.02247393  0.023091615            5 
  284000   0.82332439   -7.4753259    76.517123  0.022452208  0.023028332            4 
  285000    0.7952989   -7.4627652      76.4912  0.022365848  0.022965296            6 
  286000   0.82100139    -7.480417    76.702957  0.022349346  0.022902131            5 
  287000   0.79899382   -7.4808909    76.523793  0.022219452  0.022838755            5 
  288000    0.8106417   -7.4729213    76.669665  0.022184509  0.022775177            4 
  289000    0.8181474   -7.4837354    76.836512  0.022155857   0.02271199            5 
  290000     0.803725    -7.490039    77.001365  0.022126829   0.02264883            8 
  291000   0.79775469    -7.470977    77.031281  0.022059359  0.022586855            3 
  292000   0.79825405   -7.4639795    77.559626  0.022134597     0.022525            3 
  293000   0.80180159    -7.508968    77.284366  0.021980764  0.022463434            5 
  294000   0.78608611    -7.469425    77.574189  0.021988149  0.022401561            4 
  295000   0.80319589   -7.4904985    77.281641  0.021830972  0.022339809            5 
  296000   0.79346424   -7.5234896    77.341622  0.021774105  0.022277476            4 
  297000   0.79389426   -7.5212097     77.51006  0.021748053  0.022214593            6 
  298000   0.78348904   -7.5083224    77.485166  0.021668111  0.022152217            7 
  299000   0.78586244   -7.5354927    77.628294  0.021635533  0.022089836            7 
  300000   0.78762179   -7.5395304    77.509568  0.021530435   0.02202704            2 
  301000   0.78824674   -7.5305136    77.588151  0.021480662   0.02196419            3 
  302000   0.77865386   -7.5176244      77.5697  0.021404443  0.021901558            3 
  303000    0.7898453   -7.5195191    77.607343  0.021344154  0.021838435            2 
  304000   0.76716647   -7.5038299    77.577142  0.021265664  0.021774843            6 
  305000   0.78926924   -7.5399838    77.646636  0.021214928  0.021711162            5 
  306000   0.78803838   -7.5658731    77.566498  0.021123774   0.02164822            3 
  307000   0.78204921   -7.5733458    77.839171  0.021128982  0.021585151            3 
  308000   0.77215197   -7.5468554     77.78577  0.021045933  0.021522272            5 
  309000   0.78296481   -7.5298869    77.920106  0.021014052  0.021459681            3 
  310000   0.76735816   -7.5496586    77.953307   0.02095519  0.021397649            3 
  311000   0.78658286   -7.5351638    77.915565  0.020877697  0.021335702            3 
  312000   0.78520567   -7.5687545    78.174223  0.020879867   0.02127426            4 
  313000    0.7692978   -7.5851119    78.282552     0.020842  0.021213244            5 
  314000   0.77571432   -7.5828063    78.377549  0.020800836  0.021151942            3 
  315000    0.7818352   -7.5593821     78.63852  0.020803841  0.021091351            3 
  316000   0.75938873   -7.5634104    78.712868  0.020757613  0.021031195            4 
  317000   0.76164083    -7.591964    78.363696  0.020600341  0.020970846            8 
  318000   0.75274974   -7.5755618    78.573794  0.020590617  0.020910447            3 
  319000   0.76169202   -7.5959637    78.556348  0.020521512  0.020850338            6 
  320000   0.73911493   -7.5624569    78.740817  0.020505421  0.020789839            5 
  321000   0.75845989   -7.6106162    78.716331  0.020435185  0.020729797            4 
  322000   0.75398551   -7.5959111    78.805246  0.020394732  0.020669959            3 
  323000   0.75617949   -7.6143866    78.665357    0.0202955    0.0206099            5 
  324000   0.74139782   -7.6288501    78.666499  0.020233153  0.020549697            5 
  325000   0.75612467   -7.5805365    78.816473  0.020209352  0.020489562            2 
  326000   0.74321408   -7.6304107    79.050975  0.020207304  0.020430091            5 
  327000   0.75098391   -7.6259857     79.00424  0.020133598  0.020370685            2 
  328000   0.74597701    -7.628473    79.125877  0.020103119  0.020312005            4 
  329000   0.74322747   -7.6427791    79.497899  0.020136246   0.02025397            3 
  330000    0.7488886    -7.640658    79.218826  0.020004754  0.020195977            6 
  331000     0.740668   -7.6300926    79.675174  0.020059208  0.020138722            7 
  332000   0.72136227   -7.6501643    79.437634  0.019939165  0.020081333            6 
  333000   0.74534105   -7.6607548    79.509441  0.019897257  0.020023862            7 
  334000   0.73865283   -7.6677613     79.60905  0.019862537    0.0199666            4 
  335000   0.73012512   -7.6438677    79.678298  0.019820472  0.019909444            5 
  336000   0.72190584   -7.6479815    79.533386  0.019725542  0.019852366            4 
  337000   0.72161691   -7.6411984    79.641592  0.019693767  0.019795329            4 
  338000    0.7336054   -7.6466692    79.861884  0.019689814  0.019738821            7 
  339000   0.72509052   -7.6509558    79.914335  0.019644625  0.019682428            6 
  340000   0.71916647   -7.6665441    79.758867  0.019548742  0.019625907            6 
  341000   0.71004296   -7.6772438    80.140643  0.019584712  0.019569799            2 
  342000   0.71532194   -7.7085798    79.943306  0.019479363  0.019513502            3 
  343000   0.70545406   -7.6907137    80.009662  0.019438693  0.019457346            3 
  344000   0.71158759   -7.6906857    79.901889  0.019356078  0.019401474            4 
  345000   0.71471788   -7.7222919     79.85762   0.01928928  0.019345702            5 
  346000   0.71398601   -7.7170451    79.941137  0.019253646  0.019289704            3 
  347000   0.72673372    -7.692329    80.080555  0.019231641  0.019233906            3 
  348000   0.69520128   -7.6921716    80.241458  0.019214909  0.019178326            5 
  349000   0.70027394   -7.6768649    80.380703    0.0191931  0.019123312            4 
  350000   0.71707423    -7.704938    80.353357  0.019131752   0.01906871            4 
  351000   0.70374068   -7.7197796    80.286711  0.019061422  0.019014061            4 
  352000   0.70427284   -7.7255587    80.464066  0.019049258  0.018959468            5 
  353000   0.71681426   -7.7157351     80.55261  0.019016197  0.018905091            4 
  354000   0.69770393    -7.733981    80.414176  0.018929891  0.018850773           10 
  355000   0.70317389   -7.7279216    80.617132  0.018924209  0.018796607            3 
  356000   0.70383076   -7.7292185      80.5043  0.018844639  0.018742906            3 
  357000   0.69163783   -7.7356717    80.628948   0.01882095  0.018689059           15 
  358000   0.69743575   -7.7488758    80.554297     0.018751  0.018635432            4 
  359000   0.70128257    -7.747583    80.448531  0.018674218   0.01858162            6 
  360000   0.69651567   -7.7542903    80.380204  0.018606529   0.01852765            2 
  361000    0.6854636   -7.7688492    80.661353  0.018619888  0.018473776            5 
  362000   0.68206149   -7.7626906    80.549687  0.018542746  0.018420079            3 
  363000   0.69374436   -7.7955831    80.701347   0.01852648  0.018366645            4 
  364000   0.67910956    -7.795028    80.674462  0.018469428  0.018313134            4 
  365000   0.68784994   -7.7630091    80.774237  0.018441607  0.018260369            3 
  366000   0.68549267    -7.768243    80.811159  0.018399626  0.018207511            7 
  367000    0.6734643   -7.7634955    80.762193  0.018338373  0.018154914           15 
  368000   0.67943544   -7.7837673    80.820651  0.018301778  0.018102344            5 
  369000   0.68270258   -7.7798557    80.721037  0.018229683   0.01804965            5 
  370000   0.67522598   -7.7686453     80.99381  0.018241849   0.01799724            4 
  371000   0.67323074   -7.7906344    81.007244  0.018195697  0.017945154            7 
  372000   0.66630264   -7.8025524    80.909653  0.018124922  0.017893033            4 
  373000   0.66327114     -7.78409    80.995429  0.018095493  0.017841004           10 
  374000   0.67965535   -7.7971213    80.925176  0.018031456  0.017789056            3 
  375000   0.67828254   -7.7998717    80.917787   0.01798173  0.017737326           13 
  376000   0.66678616    -7.785709    81.082862  0.017970492   0.01768579            5 
  377000   0.65905083   -7.8263495     80.91994  0.017886813  0.017634287            6 
  378000   0.66069684   -7.8217001    81.200015  0.017901238  0.017583203            8 
  379000   0.64803386   -7.8090833    81.206713  0.017855478  0.017532162            5 
  380000   0.65886299    -7.813014    81.056818  0.017775618   0.01748118            4 
  381000   0.65425743   -7.8331632    81.161314  0.017751818  0.017430277            7 
  382000   0.65841715   -7.8322866    81.181688  0.017709792  0.017379452            9 
  383000    0.6473111   -7.8257215    81.271255  0.017683041  0.017328883            7 
  384000   0.66349902   -7.8215652    81.246656  0.017631653  0.017278404            5 
  385000   0.65337035   -7.8265527    81.162359   0.01756761  0.017228296            8 
  386000   0.64765586   -7.8219696    81.220414  0.017534632  0.017178043            7 
  387000   0.65704288   -7.8195488    81.190023  0.017482778  0.017127692            5 
  388000   0.65732377    -7.845512    81.247578  0.017450081  0.017077238            3 
  389000   0.63317279   -7.8514795    81.055436  0.017364061  0.017026795            5 
  390000   0.63575453   -7.8763844     81.08532  0.017325923  0.016976428            5 
  391000   0.63716693    -7.899504    80.900179  0.017242152  0.016925969            6 
  392000   0.64002398   -7.8750061    81.010561  0.017221633  0.016875619            6 
  393000   0.64377246   -7.8691605    81.078014  0.017192115  0.016825468            5 
  394000   0.63962339   -7.8912397     81.03338   0.01713904  0.016775072            4 
  395000   0.63946294   -7.8705712    81.056734  0.017100577  0.016725063            5 
  396000   0.64499577   -7.8816929    81.073338  0.017060888  0.016675238            4 
  397000   0.63308358   -7.8866242    81.154352  0.017034919  0.016625724            6 
  398000   0.65123073   -7.8997794    80.965483  0.016952572  0.016576249            8 
  399000   0.64626647   -7.8842862    81.202268  0.016959538  0.016526887            5 
  400000   0.63345829   -7.8834922    81.221466  0.016921139  0.016477617           15 
  401000   0.62833447   -7.8880667     81.22388  0.016879443  0.016428727           10 
  402000   0.62551399    -7.911472    81.175021  0.016827326  0.016379687            2 
  403000    0.6235097   -7.9078296    81.189982  0.016788665  0.016330874            8 
  404000   0.62011853   -7.8971103    81.117281  0.016732112  0.016282092           11 
  405000   0.63055383    -7.924432    81.134151   0.01669427   0.01623333            6 
  406000   0.61834371   -7.9422528    81.405455  0.016708837  0.016184806           10 
  407000   0.61522945   -7.9498488    81.026147   0.01659012  0.016136355           13 
  408000   0.61576826   -7.9361632    81.097189  0.016563968  0.016088131            5 
  409000   0.61961016   -7.9367858     81.33263   0.01657144  0.016040156           15 
  410000    0.6202823   -7.9518711    81.166213  0.016497198   0.01599223           11 
  411000   0.62120797   -7.9460854    81.296713  0.016483518  0.015944283           10 
  412000   0.61438236   -7.9689524     81.36454  0.016457229  0.015896587            6 
  413000   0.62058903   -7.9679596    81.366975  0.016417872  0.015848931            7 
  414000   0.60531778   -7.9213092    81.204701  0.016345552  0.015801338           12 
  415000   0.60860066   -7.9563994    80.996546  0.016264367  0.015753892           10 
  416000   0.60403068   -7.9450207     81.14436   0.01625488  0.015706576           10 
  417000   0.59387335   -7.9393449     81.11481  0.016209994   0.01565938           11 
  418000   0.59615833   -7.9443225     81.21865  0.016191916  0.015612157           12 
  419000   0.60525169   -7.9744978    81.013742  0.016112518  0.015565064           14 
  420000   0.60934231   -7.9505381    81.149825  0.016101156  0.015518091           12 
  421000   0.58321202   -7.9688432    81.335609  0.016099685  0.015471363           14 
  422000   0.59290583     -7.96653    81.196173  0.016033999  0.015424941           13 
  423000   0.59140268    -7.960754    81.257663  0.016008208  0.015378703           12 
  424000   0.58759678   -7.9867843    81.273036  0.015973474  0.015332429            8 
  425000   0.58375593   -7.9806531    81.152867  0.015912327  0.015286262           11 
  426000   0.57241838   -8.0020309    81.128442  0.015870196  0.015240148           13 
  427000   0.59531823    -7.986631    81.073564  0.015822319  0.015194063           11 
  428000   0.58912275   -7.9739387    81.200137  0.015809996  0.015148251            9 
  429000   0.57772993   -7.9896393    81.277178  0.015788108  0.015102547           13 
  430000   0.58377257   -7.9908536    81.138043  0.015724427  0.015056873            9 
  431000   0.58058784   -8.0028923    81.100373   0.01568066  0.015011332           16 
  432000    0.5732637   -7.9917584     81.04739  0.015634142  0.014965858           16 
  433000   0.56431552   -8.0146911    81.262218   0.01563938  0.014920551           12 
  434000   0.56700462   -8.0065373    81.100261  0.015572247  0.014875421           17 
  435000   0.58060198   -8.0255441    81.197445  0.015555066  0.014830323           33 
  436000   0.58072453   -7.9963187    81.058037  0.015492744  0.014785207           13 
  437000   0.57996631   -8.0250237    81.037694  0.015453412  0.014740222           13 
  438000   0.56500376    -8.008742    80.947471  0.015400965  0.014695335           15 
  439000   0.55945829   -8.0295742    80.940049  0.015364474  0.014650671           16 
  440000    0.5676776   -8.0272134    81.083916  0.015356802  0.014606216            4 
  441000    0.5689863   -8.0501649    81.015659  0.015309081  0.014561879           17 
  442000   0.56115294   -8.0382341    81.126317  0.015295309  0.014517724           22 
  443000   0.55506127   -8.0474336    81.050951  0.015246605  0.014473702           10 
  444000   0.55918052   -8.0334072    80.988854  0.015200611  0.014429743           13 
  445000    0.5473804   -8.0354344    80.982541   0.01516527  0.014385947           15 
  446000   0.55393938   -8.0662378    80.818218  0.015100564   0.01434224           13 
  447000   0.55050192   -8.0596304    80.934384  0.015088438  0.014298552           12 
  448000   0.53957806   -8.0533297    80.973529   0.01506204  0.014255036           11 
  449000   0.54687351   -8.0590927    81.065527  0.015045569    0.0142117           12 
  450000   0.54072864   -8.0665058    80.934926  0.014987949  0.014168445           10 
  451000   0.54093904   -8.0548237    80.917813  0.014951555  0.014125224           10 
  452000   0.54689998   -8.0730854    81.056166  0.014943983  0.014082195           23 
  453000   0.54342525   -8.0852703     80.89442   0.01488124  0.014039267           15 
  454000   0.54755722   -8.0912307    80.889309  0.014847524  0.013996396           13 
  455000   0.53029757   -8.0741566    81.053104  0.014844891   0.01395375           16 
  456000   0.54978369   -8.0764986    80.799602  0.014766009  0.013911147           16 
  457000   0.54657998   -8.0853167    80.829624  0.014739173  0.013868823           13 
  458000   0.53139575   -8.0633825    80.841966  0.014709237    0.0138267           11 
  459000   0.54341899   -8.0709395    80.877074  0.014683565   0.01378451           23 
  460000   0.53114478   -8.0771318    80.883994  0.014652897  0.013742595           10 
  461000   0.52818024   -8.0940787    80.846103  0.014614263  0.013700689           20 
  462000   0.53487374   -8.0912894    80.736573  0.014562874  0.013658935           13 
  463000   0.53304246   -8.0869714     80.85329  0.014552428  0.013617322           13 
  464000   0.53126573   -8.0806666    80.791206  0.014509915  0.013575847           17 
  465000   0.52168686   -8.0910739    80.692059  0.014460942  0.013534431           23 
  466000   0.52599698   -8.0918656    80.764353  0.014442838  0.013493208           18 
  467000   0.53281583   -8.1104765    80.867306  0.014430283   0.01345211           13 
  468000   0.50881343   -8.1143797    80.712014  0.014371797  0.013411087           23 
  469000   0.52221973   -8.0947801    80.801007  0.014356966  0.013370224           13 
  470000   0.52990589   -8.1144233    80.685034  0.014305857  0.013329423           21 
  471000   0.51701116   -8.1227158    80.807021  0.014297067  0.013288796           23 
  472000   0.51467245   -8.1178441    80.841063  0.014272787  0.013248323           23 
  473000   0.50908726   -8.1197168    80.628011  0.014205076   0.01320791           32 
  474000   0.50532283   -8.1484079    80.815358  0.014208045    0.0131677           32 
  475000   0.51300191   -8.1244709    80.819179  0.014178803  0.013127583           33 
  476000    0.5095978   -8.1301949    80.640245   0.01411769  0.013087621           18 
  477000   0.51129519    -8.122603     80.65128  0.014090021  0.013047766           14 
  478000   0.48725825   -8.1404285    80.754483  0.014078536  0.013008051           10 
  479000   0.50075896   -8.1260716    80.653743  0.014031618  0.012968415           14 
  480000    0.4966265   -8.1363858     80.59556  0.013992285  0.012928878           20 
  481000    0.4939184   -8.1340731    80.691601  0.013979834  0.012889595           26 
  482000   0.49987504   -8.1365781    80.618099  0.013938122   0.01285024           19 
  483000   0.51221286   -8.1604835     80.48156  0.013885707  0.012811179           28 
  484000   0.49653664   -8.1488825    80.630003  0.013882576  0.012772131           33 
  485000   0.50065073   -8.1634274    80.594902  0.013847921   0.01273326           10 
  486000   0.48557823   -8.1564165    80.561214  0.013813651  0.012694556           15 
  487000   0.49045558   -8.1685683    80.608164   0.01379332  0.012655974           21 
  488000   0.48886262   -8.1632436    80.676785  0.013776773  0.012617519           40 
  489000   0.48995971   -8.1761864    80.642613  0.013742777  0.012579232           33 
  490000   0.49765762   -8.1760701    80.660218  0.013717724  0.012541101           30 
  491000   0.49397138   -8.1674168    80.419812  0.013648984  0.012503088           29 
  492000   0.48258335   -8.1961802    80.475973  0.013630754  0.012465171           29 
  493000   0.46685769   -8.1688048    80.460476  0.013600486  0.012427362           28 
  494000   0.48527544   -8.1911442    80.500835  0.013579763  0.012389732           16 
  495000   0.47502513   -8.1749621      80.4821  0.013549175  0.012352197           25 
  496000   0.48047982   -8.2033808    80.589031  0.013539824  0.012314822           21 
  497000    0.4749827   -8.1655647    80.452227  0.013489642  0.012277572           21 
  498000   0.47479519   -8.1563805    80.353521  0.013446038  0.012240395           34 
  499000   0.47938453   -8.1790564    80.552361  0.013452298  0.012203379           33 
  500000   0.46630934   -8.1731827    80.394005  0.013399001  0.012166485           25 
  501000   0.46697028   -8.1764803    80.460397  0.013383299   0.01212968            9 
  502000   0.46584666   -8.1957729    80.394335  0.013345673  0.012092984           38 
  503000    0.4656573   -8.1955152    80.500636  0.013336752  0.012056464           32 
  504000   0.46630585    -8.203409    80.605238  0.013327586  0.012020087           30 
  505000     0.455691   -8.2145781    80.298472  0.013250573  0.011983803           36 
  506000   0.47077883   -8.1956938    80.252458  0.013216808  0.011947667           28 
  507000   0.46228977   -8.2033066    80.454454  0.013223941  0.011911625           38 
  508000   0.44054725   -8.2119356    80.481258  0.013202306  0.011875754           22 
  509000   0.45899378   -8.2140183    80.462918  0.013173366  0.011839979           20 
  510000   0.45155135   -8.2262257     80.37513  0.013133191  0.011804384           42 
  511000    0.4593033   -8.2077628    80.389575  0.013109846  0.011768857           33 
  512000   0.44955644   -8.2143879    80.318867  0.013072732  0.011733458           37 
Loop time of 1151.65 on 48 procs for 500000 steps with 4000 atoms

Performance: 75022.674 tau/day, 434.159 timesteps/s
99.4% CPU use with 48 MPI tasks x no OpenMP threads

MPI task timing breakdown:
Section |  min time  |  avg time  |  max time  |%varavg| %total
---------------------------------------------------------------
Pair    | 68.612     | 74.803     | 80.724     |  31.7 |  6.50
Neigh   | 7.3419     | 7.6477     | 8.0116     |   6.7 |  0.66
Comm    | 69.188     | 75.963     | 83.207     |  38.1 |  6.60
Output  | 0.83585    | 0.83639    | 0.84558    |   0.1 |  0.07
Modify  | 976.37     | 980.35     | 983.07     |   5.5 | 85.13
Other   |            | 12.05      |            |       |  1.05

Nlocal:        83.3333 ave          91 max          75 min
Histogram: 2 1 0 13 4 12 8 3 1 4
Nghost:        1929.96 ave        1942 max        1919 min
Histogram: 4 4 4 6 8 6 8 1 3 4
Neighs:        12208.4 ave       13721 max       10659 min
Histogram: 2 3 6 7 5 9 4 5 5 2
FullNghs:      24417.6 ave       26564 max       21889 min
Histogram: 1 2 2 8 8 11 5 5 1 5

Total # of neighbors = 1172043
Ave neighs/atom = 293.01075
Neighbor list builds = 26857
Dangerous builds = 0

#clear
#
#next RN
#
#jump SELF
Total wall time: 0:19:14
