
units lj                  # Use reduced LJ style units
atom_style atomic         # Uncharged point particles
atom_modify map hash      # Needed for indexing of clusters etc
                          # Used to be able to find where atoms are in relation to each other.

lattice fcc 1.0 spacing 1 1 1
Lattice spacing in x,y,z = 1.5874011 1.5874011 1.5874011
region box block 0 10 0 10 0 10 units lattice
create_box 2 box
Created orthogonal box = (0.0000000 0.0000000 0.0000000) to (15.874011 15.874011 15.874011)
  3 by 4 by 4 MPI processor grid
create_atoms 1 box
Created 4000 atoms
  using lattice units in orthogonal box = (0.0000000 0.0000000 0.0000000) to (15.874011 15.874011 15.874011)
  create_atoms CPU = 0.018 seconds
set type 1 type/fraction 2 0.56 78393
Setting atom values ...
  2252 settings made for type/fraction
mass 1 1.0
mass 2 1.0
pair_style lj/cut  3.5
pair_modify tail  yes
pair_coeff 1  1  1.0  1.0   # Intearaction between 1 and 1 set with epsilon = 1 and sigma = 1
pair_coeff 1  2  1.5  0.8
pair_coeff 2  2  0.5  0.88

write_data data.0
System init for write_data ...
Neighbor list info ...
  update every 1 steps, delay 10 steps, check yes
  max neighbors/atom: 2000, page size: 100000
  master list distance cutoff = 3.8
  ghost atom cutoff = 3.8
  binsize = 1.9, bins = 9 9 9
  1 neighbor lists, perpetual/occasional/extra = 1 0 0
  (1) pair lj/cut, perpetual
      attributes: half, newton on
      pair build: half/bin/atomonly/newton
      stencil: half/bin/3d
      bin: standard
WARNING: Not all mixed pair coeffs generated from mixing. Use write_data with 'pair ij' option to store all pair coeffs. (../write_data.cpp:312)


#############################
#   M E L T   S Y S T E M   #
#############################

velocity all create 2.4 9580093 mom yes dist gaussian # Assign velocities
                                                    # Temperature 2.4, random number seed, zero linear momentum
                                                                                # Gaussian distribution

timestep 0.002   # simulation timestep
thermo 1000       # output thermodynamic data every 1000 steps bf 100

# Define a fix  in this case with index 1 applied to all
# particles in the simulation. This fix is for simulations
# in the anisotropic NPT ensemble. Note that we use the MTK
# correction.
fix 1 all npt temp 2.4 2.4 0.1 iso 5.68 5.68 0.5 mtk yes tchain 5 pchain 5 # Use NPT ensemble
                                                                         # Set temperature and pressure and damping
                                                                         # Numbers of thermostats in chain and in barostat
run 10000          # run for 10000 steps
Per MPI rank memory allocation (min/avg/max) = 3.642 | 3.644 | 3.648 Mbytes
Step Temp E_pair E_mol TotEng Press Volume 
       0          2.4   -4.9459583            0   -1.3468583   -4.1435722         4000 
    1000    2.4014895   -4.6377615            0   -1.0364278    5.7537014    3639.7727 
    2000    2.3436706   -4.6521889            0   -1.1375619    5.8424863    3624.6136 
    3000    2.4032987   -4.7159152            0   -1.1118684    5.6652971    3614.9218 
    4000    2.3958011   -4.6472699            0   -1.0544667    5.7688628    3631.8136 
    5000     2.465385   -4.7312514            0   -1.0340984    5.6259952      3613.15 
    6000    2.4178053   -4.6340546            0   -1.0082533    5.7555277    3637.6226 
    7000    2.4107688   -4.7029665            0   -1.0877174    5.5668782    3625.7296 
    8000    2.3807698   -4.7202214            0   -1.1499596    5.4479301    3617.2159 
    9000    2.3906243    -4.774798            0   -1.1897581    5.4030918    3596.4636 
   10000    2.4137372   -4.7424101            0   -1.1227094    5.7568896    3587.6035 
Loop time of 2.73349 on 48 procs for 10000 steps with 4000 atoms

Performance: 632159.353 tau/day, 3658.330 timesteps/s
99.5% CPU use with 48 MPI tasks x no OpenMP threads

MPI task timing breakdown:
Section |  min time  |  avg time  |  max time  |%varavg| %total
---------------------------------------------------------------
Pair    | 1.2076     | 1.2667     | 1.4107     |   3.3 | 46.34
Neigh   | 0.21654    | 0.22441    | 0.24335    |   0.9 |  8.21
Comm    | 0.75658    | 0.9124     | 1.0036     |   4.3 | 33.38
Output  | 0.00024902 | 0.00025748 | 0.00044046 |   0.0 |  0.01
Modify  | 0.28178    | 0.3139     | 0.3467     |   3.0 | 11.48
Other   |            | 0.01581    |            |       |  0.58

Nlocal:        83.3333 ave          96 max          75 min
Histogram: 2 8 8 8 8 5 4 4 0 1
Nghost:        1769.27 ave        1797 max        1747 min
Histogram: 4 5 2 7 7 9 9 1 3 1
Neighs:        10640.0 ave       12353 max        9226 min
Histogram: 2 2 7 9 8 8 7 4 0 1

Total # of neighbors = 510720
Ave neighs/atom = 127.68000
Neighbor list builds = 905
Dangerous builds = 211

# Equilibrate just above the melting temperature to avoid step fn in T

fix 1 all npt temp 1.25 1.25 0.1 iso 5.68 5.68 0.5 mtk yes tchain 5 pchain 5
run 2000
Per MPI rank memory allocation (min/avg/max) = 3.644 | 3.646 | 3.650 Mbytes
Step Temp E_pair E_mol TotEng Press Volume 
   10000    2.4137372   -4.7424101            0   -1.1227094    5.7568896    3587.6035 
   11000     1.234135   -6.7826075            0   -4.9318679    5.5655201      2802.27 
   12000    1.2511237    -6.867084            0   -4.9908677    5.5422993    2782.2823 
Loop time of 0.657969 on 48 procs for 2000 steps with 4000 atoms

Performance: 525252.503 tau/day, 3039.656 timesteps/s
99.7% CPU use with 48 MPI tasks x no OpenMP threads

MPI task timing breakdown:
Section |  min time  |  avg time  |  max time  |%varavg| %total
---------------------------------------------------------------
Pair    | 0.29551    | 0.32267    | 0.36911    |   2.0 | 49.04
Neigh   | 0.041013   | 0.043409   | 0.04818    |   0.5 |  6.60
Comm    | 0.19311    | 0.24256    | 0.2748     |   2.8 | 36.87
Output  | 5.1311e-05 | 5.3924e-05 | 7.2481e-05 |   0.0 |  0.01
Modify  | 0.039502   | 0.044209   | 0.048672   |   1.3 |  6.72
Other   |            | 0.005064   |            |       |  0.77

Nlocal:        83.3333 ave          91 max          76 min
Histogram: 2 0 10 4 10 3 10 4 3 2
Nghost:        2099.29 ave        2130 max        2076 min
Histogram: 5 4 6 9 4 8 4 5 2 1
Neighs:        13701.8 ave       15307 max       11988 min
Histogram: 1 0 5 7 9 9 9 6 1 1

Total # of neighbors = 657685
Ave neighs/atom = 164.42125
Neighbor list builds = 142
Dangerous builds = 11

#############################
# L I N E A R  Q U E N C H  #
#############################

# Define solid atoms. This closely follows ten Wolde  Ruiz-Montero and Frenkel  Faraday Discuss  1996  104  93-110
# Compute components of the per-atom q6 vector
compute q6 all orientorder/atom degrees 1 6 components 6 nnn NULL cutoff 1.3 # compute the Q6 parameter.
                                                                             # Use all neighbours within 1.3 unit cell.

# get number of connections
compute coord_number all coord/atom orientorder q6 0.5

# An atom is solid if it has 8 or more connections (of a possible 14)
variable is_solid atom c_coord_number>=8
group solid dynamic all var is_solid    # Must be dynamic to update
dynamic group solid defined

# do clustering
compute cluster solid cluster/atom 1.3 # Create a cluster where all atoms within are solid and max 1.3 units from another member

# define chunks one chunk per cluster
compute clus_chunks solid chunk/atom c_cluster nchunk every compress yes  # Says which atoms are in which chunk

# count the size of each chunk
compute size_chunks solid property/chunk clus_chunks count


# Find the maximum entry in the vector of chunk sizes
variable max_n equal max(c_size_chunks)


# Thermo style which includes this variable
# thermo_style custom step temp pe vol v_max_n

thermo ${N}  # Print the thermo information every 100 steps
thermo 1000  

# Reset the npt fix at a lower temperature (below freezing)
fix 1  all npt temp  ${temp} ${temp}  0.1  iso  5.68  5.68  0.5  mtk yes tchain  5  pchain  5
fix 1  all npt temp  0.45 ${temp}  0.1  iso  5.68  5.68  0.5  mtk yes tchain  5  pchain  5
fix 1  all npt temp  0.45 0.45  0.1  iso  5.68  5.68  0.5  mtk yes tchain  5  pchain  5

dump dmp2 all dcd ${N} traj.dcd
dump dmp2 all dcd 1000 traj.dcd


compute msd all msd com yes
variable twopoint equal c_msd[4]/6/(step*dt+1.0e-6)
fix 9 all vector 10 c_msd[4]
variable fit equal slope(f_9)/6/(10*dt)
thermo_style custom step temp pe c_msd[4] v_twopoint v_fit v_max_n

fix 1 all npt temp 1.25 ${temp} 0.1 iso 5.68 5.68 0.5 mtk yes tchain 5 pchain 5
fix 1 all npt temp 1.25 0.45 0.1 iso 5.68 5.68 0.5 mtk yes tchain 5 pchain 5
run 2000000 # 5000000  # Run for this many steps
Neighbor list info ...
  update every 1 steps, delay 10 steps, check yes
  max neighbors/atom: 2000, page size: 100000
  master list distance cutoff = 3.8
  ghost atom cutoff = 3.8
  binsize = 1.9, bins = 8 8 8
  4 neighbor lists, perpetual/occasional/extra = 1 3 0
  (1) pair lj/cut, perpetual
      attributes: half, newton on
      pair build: half/bin/atomonly/newton
      stencil: half/bin/3d
      bin: standard
  (2) compute orientorder/atom, occasional
      attributes: full, newton on
      pair build: full/bin/atomonly
      stencil: full/bin/3d
      bin: standard
  (3) compute coord/atom, occasional
      attributes: full, newton on
      pair build: full/bin/atomonly
      stencil: full/bin/3d
      bin: standard
  (4) compute cluster/atom, occasional
      attributes: full, newton on
      pair build: full/bin/atomonly
      stencil: full/bin/3d
      bin: standard
Per MPI rank memory allocation (min/avg/max) = 9.844 | 9.850 | 9.855 Mbytes
Step Temp PotEng c_msd[4] v_twopoint v_fit v_max_n 
   12000    1.2511237    -6.867084 8.5650573e-31 5.9479562e-33 8.3333333e+20            2 
   13000    1.2338889   -6.8595995   0.46492229  0.002980271  0.038344845            2 
   14000     1.245579   -6.8779566   0.92388417 0.0054993103  0.037312793            1 
   15000    1.2378224   -6.8884854    1.4252036 0.0079177974  0.038657557            4 
   16000    1.2336473   -6.8874345    1.8590803 0.0096827097  0.038681839            1 
   17000    1.2433749   -6.8706158    2.3153636  0.011349821  0.038541399            2 
   18000    1.2646322   -6.8918769    2.6944097  0.012474119  0.037847096            1 
   19000    1.2574603   -6.9075205    3.0993723  0.013593738  0.037000287            2 
   20000    1.2546002   -6.9070024    3.4457038  0.014357099  0.036200622            4 
   21000    1.2355045   -6.8940606    3.8362038  0.015223031  0.035558744            3 
   22000    1.2624494   -6.8860664    4.2232972  0.015997337  0.034986586            2 
   23000    1.2698837   -6.9238041    4.6210663  0.016742994  0.034537935            2 
   24000    1.2312012   -6.9112843    5.0401677  0.017500582  0.034403352            7 
   25000    1.2461332   -6.8980653    5.5089511   0.01836317  0.034302993            3 
   26000    1.2381903   -6.9316886     5.890452  0.018879654   0.03429298            3 
   27000    1.2520056   -6.9163488    6.3747095  0.019675029   0.03432688            3 
   28000    1.2401549   -6.8957852    6.7293858  0.020027933  0.034424415            1 
   29000    1.2635185   -6.9000216    7.1421242  0.020523345  0.034376294            2 
   30000    1.2509017    -6.910835    7.6069445  0.021130401  0.034405538            2 
   31000    1.2376191   -6.9030966    7.9194326  0.021288797  0.034380194            3 
   32000    1.2405024   -6.8804964    8.3387556  0.021715509  0.034283818            1 
   33000    1.2595648   -6.9521994    8.7661713  0.022136796  0.034245146            1 
   34000    1.2610977    -6.946564    9.2698034  0.022720106  0.034301139            2 
   35000     1.237192   -6.8898355    9.8979259   0.02356649  0.034441007            2 
   36000    1.2244966   -6.8959731    10.452412  0.024195399  0.034708566            1 
   37000    1.2509173   -6.9676538    10.867782  0.024476987   0.03498209            2 
   38000     1.244651   -6.9259271    11.257028  0.024686464   0.03516583            3 
   39000    1.2227698   -6.9265817    11.702554  0.025005457  0.035325211            2 
   40000    1.2305518   -6.8671561    12.098825  0.025205886  0.035445855            2 
   41000    1.2346852   -6.9555199    12.440606  0.025285785  0.035499843            2 
   42000    1.2484169   -6.8983354    12.844164  0.025484453  0.035507925            2 
   43000    1.2088028   -6.8995409    13.298659  0.025772594  0.035505213            4 
   44000    1.2437647   -6.9271269    13.782484  0.026103189   0.03553263            2 
   45000     1.241286   -6.9109223    14.183477  0.026265698  0.035564774            2 
   46000    1.2308524   -6.9256688    14.602126  0.026453126  0.035579442            1 
   47000     1.234258   -6.8696115    14.818656  0.026274212  0.035552148            1 
   48000    1.2584147   -6.9624591    15.167591  0.026332623  0.035487014            4 
   49000    1.2322405   -6.8885993    15.502643  0.026365038  0.035402652            2 
   50000    1.2395449   -6.9370027    15.789068  0.026315113  0.035275317            2 
   51000    1.2232966   -6.9070363    16.349542  0.026714937  0.035171271            1 
   52000    1.2216043    -6.964663    16.725525  0.026803725  0.035107972            2 
   53000    1.2249812   -6.9659912    17.108689  0.026900454  0.035035684            5 
   54000    1.2287857   -6.8917581    17.542857  0.027072309  0.034983293            3 
   55000    1.2309928   -6.9148546    17.970132  0.027227473  0.034925262            3 
   56000     1.225341    -6.985046    18.337637   0.02728815  0.034877253            5 
   57000    1.2379817   -6.9054185    18.824125  0.027520651  0.034836461            4 
   58000    1.2289336   -6.9147431    19.271307  0.027688659   0.03480306            2 
   59000    1.2476086   -6.9676323    19.490185   0.02752851  0.034765987            3 
   60000    1.2383719   -6.9098526    19.887988  0.027622206  0.034705137            2 
   61000    1.2046857   -6.9386149    20.343223  0.027791288  0.034655309            2 
   62000    1.2244557   -6.9518415     20.71092  0.027837257  0.034608937            4 
   63000    1.2243638   -6.9540912    21.210108  0.028055699  0.034570391            1 
   64000    1.2074426   -6.8903012     21.70194  0.028257734  0.034552794            3 
   65000    1.2136856   -6.9154617    22.041616  0.028258481  0.034528025            2 
   66000    1.2512928   -6.9050838    22.414512  0.028301151  0.034503937            1 
   67000    1.2317836    -6.953021     22.91759  0.028504465   0.03448866            4 
   68000    1.2123993   -6.9811812    23.141086  0.028359173   0.03447668            4 
   69000    1.2379952   -6.9298393    23.637004  0.028547106  0.034449833            1 
   70000    1.2433338   -6.9146153    24.157386  0.028758793  0.034430717            3 
   71000    1.2222978   -6.9328876     24.57473   0.02884358  0.034432379            1 
   72000    1.2067103   -6.9507736    24.769212   0.02866807  0.034422567            3 
   73000    1.2258343   -6.9114176    25.325237  0.028910088  0.034408335            1 
   74000    1.2392427   -6.9632543    25.717001  0.028960586  0.034400948            2 
   75000    1.2652563   -6.9310421    26.024877  0.028916529   0.03438163            3 
   76000    1.2273559   -6.9377173    26.394707  0.028941565  0.034345522            3 
   77000    1.2154736   -6.9792585    26.575808  0.028761696  0.034306571            2 
   78000    1.2172047   -6.9147497    27.096136  0.028948863  0.034265615            3 
   79000    1.2113178   -6.9526825    27.588759  0.029102066  0.034234925            2 
   80000    1.2002831   -6.9658718    27.827505  0.028986984  0.034207838            1 
   81000    1.2138531    -6.970252    28.299415  0.029114624  0.034169374            1 
   82000    1.2246783   -6.9518895    28.601867  0.029066937  0.034137416            2 
   83000    1.2264129   -6.9657859     29.03475  0.029151355  0.034101227            4 
   84000    1.2141891   -6.9418152     29.39313  0.029159851  0.034074844            2 
   85000    1.2181904   -6.9632384    29.826667   0.02924183  0.034050226            1 
   86000     1.226604   -6.9301128    30.426683   0.02948322  0.034026965            1 
   87000    1.2147193   -6.9424326    30.799498  0.029501434  0.034009451            2 
   88000    1.2049139   -7.0030225     31.02586  0.029380549  0.033992919            9 
   89000    1.2078112   -6.9482012    31.429166  0.029428058  0.033965795            1 
   90000    1.2342809   -6.9630937    31.876137  0.029514942  0.033941774            5 
   91000    1.2069515    -6.991003    32.113629  0.029408085  0.033916513            2 
   92000    1.1934045   -6.9712193    32.510557  0.029447968  0.033886623            3 
   93000    1.2246736     -6.99861     32.85484   0.02943982  0.033861344            1 
   94000    1.2301687   -6.9504552    33.468477  0.029670635  0.033833032            1 
   95000    1.2257615   -6.9619813    33.830048   0.02967548  0.033806292            4 
   96000     1.223634   -7.0406593    34.014242  0.029526252  0.033780722            2 
   97000    1.1989638   -6.9219005    34.421352  0.029571608  0.033739345            3 
   98000    1.2396731   -6.9628068    34.781255  0.029575897  0.033705933            3 
   99000    1.1995445    -6.958249    34.850016   0.02933503   0.03366835            5 
  100000    1.1952504   -7.0048365    35.525162  0.029604302  0.033628917            2 
  101000     1.194553   -6.9595431    35.749479   0.02949627  0.033594083            1 
  102000    1.2342726    -6.940092    36.044385  0.029448026  0.033554715            4 
  103000    1.2121731   -6.9926881    36.649396  0.029651615  0.033517381            6 
  104000    1.1866196   -6.9922147    36.708569  0.029413917  0.033476297            6 
  105000    1.2278876   -6.9564768    37.025856    0.0293856  0.033430226            1 
  106000    1.2243125   -6.9813167    37.287146  0.029313794  0.033380466            4 
  107000    1.2119371    -6.963623    37.749549   0.02939996  0.033332631            3 
  108000    1.1976703   -6.9572506    38.178675  0.029458854  0.033293787            3 
  109000    1.2234156   -6.9628817     38.67603   0.02956883  0.033256802            2 
  110000    1.2327056   -6.9954209    38.962169  0.029516794  0.033220631            3 
  111000    1.1892204   -6.9920649    39.297982  0.029502989  0.033179906            2 
  112000    1.2441606   -6.9651083    39.570185  0.029442102  0.033139012            2 
  113000    1.2140839   -7.0099491    39.671001  0.029255901  0.033092229            3 
  114000    1.2273072   -7.0085265    39.997291  0.029237786  0.033045344            3 
  115000    1.2113076   -7.0155129    40.454857  0.029315114  0.032992613            2 
  116000    1.1937689   -6.9755113    40.912636  0.029391261  0.032946473            2 
  117000    1.1967675   -7.0358931    41.089702  0.029266169  0.032901398            3 
  118000    1.2080426   -6.9933424    41.690964  0.029442771  0.032858733            2 
  119000    1.2114402   -6.9568455    42.093945  0.029477553  0.032819179            2 
  120000    1.2257631   -6.9729777    42.399214  0.029443898  0.032778007            2 
  121000    1.2104109   -6.9458387    43.004131   0.02961717  0.032749672            2 
  122000    1.1805738   -7.0186723    43.134328  0.029463339  0.032717391            5 
  123000    1.2101899   -6.9925176    43.436941  0.029428822  0.032683485            2 
  124000    1.2058908   -6.9616026    43.906196  0.029506852  0.032646646            1 
  125000    1.2065718   -7.0160645     44.16609   0.02944406  0.032610343            2 
  126000    1.2103352   -7.0044934    44.615489  0.029507598  0.032577981            3 
  127000     1.206458   -7.0111863    45.050843   0.02956092  0.032548325            1 
  128000     1.208834   -7.0142884    45.586954  0.029679007  0.032518887            2 
  129000    1.2012816   -6.9571517    46.047579  0.029746498  0.032496884            3 
  130000    1.2132921   -6.9966436    46.345522  0.029708668   0.03247306            4 
  131000    1.1888012   -6.9748736    46.759443  0.029745193  0.032453061            2 
  132000    1.2189482   -7.0245948    47.095408   0.02973195  0.032439238            3 
  133000    1.2066277   -7.0095429    47.714874  0.029896537  0.032423597            1 
  134000    1.1928036   -6.9998038    47.951879   0.02982082  0.032410706            5 
  135000    1.2029368    -7.010942    48.054536  0.029663294  0.032393023            3 
  136000    1.1991854   -6.9978144    48.451057  0.029688148    0.0323705            1 
  137000    1.2048752   -7.0166535    48.821089  0.029696526  0.032348474            8 
  138000    1.1989016   -7.0497063    49.186391  0.029701927  0.032326403            2 
  139000    1.2066528    -7.035697    49.633009     0.029756  0.032303769            4 
  140000    1.1928051   -7.0436346    49.827378  0.029659154  0.032285068            3 
  141000    1.2121394   -7.0035505    50.477237  0.029832882  0.032265149            3 
  142000    1.2002401   -7.0023643    50.714416  0.029761981  0.032241648            2 
  143000    1.1840531   -7.0253143    50.731806  0.029563989  0.032217108            5 
  144000    1.1948216   -7.0027217    51.091401  0.029566783  0.032188912            3 
  145000    1.1862437   -7.0074465     51.41309  0.029547753  0.032160918            4 
  146000    1.1977482    -7.000131      51.5568  0.029427397  0.032130052            1 
  147000     1.180989   -7.0449383    51.912663  0.029428947   0.03209942            2 
  148000    1.1985963   -7.0686052    52.393141  0.029500642  0.032067557            2 
  149000    1.2074234   -7.0629422    52.824504  0.029543906  0.032040445            2 
  150000    1.1787168   -7.0274683    53.238995  0.029577219  0.032011662            1 
  151000    1.1838377   -7.0602802     53.47684  0.029512605  0.031984904            3 
  152000    1.1800112    -6.981966    53.802692   0.02949709  0.031955542            2 
  153000    1.2190706   -7.0080263    54.376184  0.029616658  0.031929802            2 
  154000     1.193867   -7.0037271    54.528257  0.029506632  0.031905312            3 
  155000    1.1717309   -6.9986284    54.888715  0.029510062  0.031880956            2 
  156000    1.1910407   -7.0030776    55.070983   0.02941826  0.031852489            4 
  157000    1.2171263   -6.9902247    55.291183  0.029347762  0.031819637            3 
  158000    1.1817284   -7.0432655    55.597526   0.02932359  0.031786601            1 
  159000    1.1618424   -7.0214703    55.850664  0.029271836  0.031752291            3 
  160000     1.200117   -7.0287739    56.227822  0.029285324  0.031714743            3 
  161000      1.20947   -7.0776263    56.509737  0.029249346  0.031679858            4 
  162000    1.1904303   -7.0301518    56.800574  0.029218402  0.031645587            2 
  163000    1.1707399   -7.0516318    57.127806  0.029206445  0.031610873            1 
  164000    1.1908974   -7.0392732    57.446289  0.029190188  0.031576081            2 
  165000    1.1565029   -7.0511161    57.636078   0.02910913  0.031542101            2 
  166000    1.1698882   -7.0327432    58.175807  0.029204722  0.031506662            2 
  167000    1.2085031   -7.0294734    58.354165  0.029118845  0.031473922            4 
  168000    1.1894372   -7.0381326     58.88235  0.029207515  0.031443299            2 
  169000    1.2265666   -7.0670639    59.051007  0.029117854  0.031410698            2 
  170000    1.1785812   -7.0365925    59.511963  0.029172531  0.031380343            1 
  171000    1.1880906    -7.045179    60.027667  0.029253249  0.031350446            4 
  172000    1.1794813   -7.1102034    60.139693  0.029137448  0.031322824            2 
  173000    1.1862267   -7.0910903    60.529301  0.029156696  0.031291466            6 
  174000    1.1853655   -7.1092528    60.979002  0.029204503  0.031263409            2 
  175000    1.1984629   -7.0535738    61.264522  0.029173582  0.031236091            2 
  176000    1.1988021   -7.0364341    61.610108  0.029171452  0.031210699            3 
  177000    1.1932316   -7.0329509    62.337065    0.0293489  0.031187305            7 
  178000    1.2175884   -7.0077116    62.527053  0.029272965  0.031163835            2 
  179000    1.1568634   -7.0271276    63.019335   0.02933861  0.031144362            2 
  180000    1.1942541   -7.1013865    63.460149  0.029379698  0.031125621            3 
  181000    1.2079095   -7.0600009    64.054724  0.029491125  0.031111393            2 
  182000    1.1754339   -7.1131248    63.966121  0.029288517  0.031096114            7 
  183000    1.1632111   -7.0214221    64.599537  0.029416911  0.031081731            3 
  184000     1.178879   -7.0489455     64.67931  0.029293166  0.031064653            3 
  185000    1.1594023   -7.0194866    65.310105  0.029418966  0.031045348            2 
  186000    1.1959267   -7.0767998    65.610972  0.029395597  0.031028589            2 
  187000     1.206479   -7.0475973    66.046692  0.029432572  0.031013234            1 
  188000    1.1808769   -7.0723232    66.263791  0.029372248  0.030997537            2 
  189000    1.1771293   -7.0847964    66.337304  0.029249252  0.030981458            2 
  190000    1.1692318   -7.0668566    66.759771  0.029280601  0.030964946            2 
  191000    1.1737131   -7.1050662    67.395234  0.029404552  0.030949416            2 
  192000     1.180368   -7.0576799    67.737345  0.029399889  0.030934982            2 
  193000    1.2101761   -7.0504935    68.017838  0.029368669  0.030922541            1 
  194000      1.19453   -7.0302442    68.690018  0.029506021  0.030910313            4 
  195000    1.1882477   -7.0612727     68.86738  0.029430504  0.030895357            1 
  196000    1.1807414   -7.0611765    69.197564  0.029420733  0.030882108            4 
  197000    1.1571752    -7.086055    69.524143  0.029409536  0.030870558            2 
  198000    1.1782953   -7.0993306    69.816935  0.029384232   0.03085948            3 
  199000    1.2008684    -7.121408    70.063548  0.029339844  0.030847026            2 
  200000    1.1701907    -7.087385    70.701781  0.029459075  0.030834549            2 
  201000    1.1521554   -7.0922579    71.119292   0.02948561  0.030823523            4 
  202000    1.1764438   -7.0873322    71.146088  0.029350696  0.030811856            2 
  203000    1.2117049   -7.1023479     71.49807  0.029350603  0.030797965            2 
  204000    1.1936809   -7.0786007    71.950186  0.029391416  0.030785978            2 
  205000    1.1759195   -7.0847678    72.238289  0.029365158  0.030773495            3 
  206000     1.178522   -7.0729575    72.624069  0.029378669  0.030758992            2 
  207000    1.1747019   -7.1155236    72.783154  0.029300787  0.030743801            1 
  208000    1.1963255   -7.0658286    73.129708  0.029298761  0.030728257            2 
  209000    1.1658143   -7.1047676     73.25609  0.029208967  0.030713421            3 
  210000    1.1745204   -7.1368022    73.625516  0.029216475  0.030697641            4 
  211000     1.187193   -7.1118794    73.757849  0.029130272  0.030681137            2 
  212000    1.1749025   -7.1350655    74.068247  0.029114877  0.030664858            4 
  213000    1.1674337   -7.1180459    74.584173  0.029180036  0.030649039            3 
  214000    1.2034737   -7.0577153    75.121055  0.029252747  0.030635227            2 
  215000    1.1745199   -7.0822449    75.191935  0.029144161  0.030618213            4 
  216000    1.1757221   -7.0739854    75.581026  0.029159346  0.030597605            2 
  217000    1.1672912   -7.0836157    75.914554  0.029153054  0.030578194            3 
  218000    1.1704669   -7.1050796    76.188053  0.029123873  0.030560753            2 
  219000    1.1407986   -7.1069019    76.134729  0.028970597  0.030541721            2 
  220000    1.1846694   -7.0659018    76.671268  0.029042147  0.030520367            2 
  221000     1.144097   -7.1534402    76.755797  0.028942608  0.030500571            3 
  222000    1.1875314   -7.1147661    77.396473   0.02905273  0.030481702            3 
  223000    1.1808489    -7.131146    77.573513  0.028988607   0.03046216            2 
  224000    1.1527962   -7.0797913    78.238357  0.029106532  0.030441718            2 
  225000    1.1612855   -7.1116059    78.194069  0.028960766  0.030423323            2 
  226000    1.1627602   -7.0767833    78.803523  0.029057346  0.030407327            1 
  227000    1.1552824   -7.0878387    79.166897  0.029062737  0.030390961            3 
  228000    1.1580732   -7.0654484    79.467755  0.029045232  0.030373489            2 
  229000    1.1756312   -7.0837496    79.646846  0.028983568  0.030353855            1 
  230000    1.1828037   -7.1434599     79.77319   0.02890333  0.030334361            1 
  231000    1.1676804   -7.1094527    80.253256  0.028951391  0.030314585            2 
  232000    1.1472908   -7.1766383    80.113341  0.028776344  0.030293204            3 
  233000    1.1781774   -7.1182971    80.514151  0.028796191   0.03027028            2 
  234000    1.1769878   -7.1686275    80.821694  0.028782655  0.030246828            2 
  235000    1.1487295   -7.1323655    81.306655  0.028832147   0.03022441            3 
  236000    1.1527575   -7.0923354    81.655419  0.028833128  0.030202711            1 
  237000    1.1587274    -7.140372    81.786267  0.028757478  0.030179674            3 
  238000     1.141627   -7.1118997      81.9471  0.028692962  0.030157708            2 
  239000    1.1800186   -7.1074184    82.454585  0.028749855  0.030134982            3 
  240000    1.1619852   -7.1034506    82.704087  0.028716697   0.03011237            6 
  241000    1.2015628   -7.0973813    82.998052  0.028699188   0.03009095            3 
  242000     1.163686   -7.1000592    82.946719   0.02856292  0.030068177            7 
  243000    1.1451013   -7.1290742    83.483187  0.028629351  0.030045503            2 
  244000    1.1714338   -7.1281183    84.193734   0.02875469  0.030025028            3 
  245000    1.1459978   -7.0917097    84.365149  0.028695629  0.030004158            4 
  246000    1.1296902   -7.1172773    84.343431  0.028571623   0.02998373            3 
  247000    1.1460013   -7.1241703    84.687024  0.028571871  0.029961411            3 
  248000    1.1653996   -7.1343106    84.758786  0.028480775  0.029939687            5 
  249000    1.1423861   -7.1501173     84.98552  0.028442276  0.029915796            5 
  250000    1.1341137   -7.1408089     85.59146  0.028530486  0.029893359            1 
  251000    1.1304701    -7.126564    85.767563  0.028475286  0.029871381            4 
  252000    1.1647762    -7.125973    85.938594  0.028418847  0.029848819            1 
  253000    1.1575085   -7.1439454    86.576887  0.028516761  0.029826257            1 
  254000    1.1416358   -7.1217909    86.976786  0.028535691  0.029804513            2 
  255000    1.1314381   -7.1595517    86.873904  0.028390165  0.029782617            2 
  256000     1.144054   -7.1153159    87.235845  0.028397085  0.029761877            8 
  257000    1.1475437   -7.1885218    87.937835  0.028514214  0.029741202            2 
  258000    1.1417985   -7.1563057    88.122254   0.02846326  0.029721215            3 
  259000    1.1598387   -7.1620839     88.01297  0.028318201    0.0296992            5 
  260000    1.1543803   -7.2335221    88.303763  0.028302488  0.029677001            2 
  261000    1.1552028    -7.100374     88.95638   0.02840242  0.029656425            4 
  262000    1.1448856   -7.1782787    89.005722  0.028309708  0.029635399            3 
  263000    1.1393301   -7.1811726    89.484495  0.028353769  0.029613947            3 
  264000    1.1324992    -7.149182    89.769613  0.028336368  0.029592093            2 
  265000    1.1565429   -7.1459699    90.214095  0.028369212   0.02957064            2 
  266000    1.1407043   -7.1380333    90.465651  0.028341369  0.029550485            1 
  267000    1.1470342   -7.1434684    91.000527  0.028402162  0.029529523            3 
  268000    1.1432324   -7.0882183    90.771441   0.02822495  0.029508068            7 
  269000    1.1620018   -7.1352968    90.954267  0.028176663  0.029486962            1 
  270000    1.1416547   -7.1487473    91.379154  0.028203442  0.029465314            4 
  271000    1.1284146   -7.1301461     91.83921  0.028240839  0.029443146            1 
  272000    1.1427459   -7.1993428    92.185495  0.028243105  0.029422344            2 
  273000    1.1320436   -7.1690842    92.420493  0.028211384  0.029402436            3 
  274000    1.1469923   -7.1389233    93.241938  0.028358254  0.029382403            9 
  275000     1.148794   -7.1533876    93.450169  0.028318233   0.02936391            1 
  276000    1.1396977   -7.1596003    93.590464   0.02825799  0.029346439            5 
  277000    1.1480284   -7.1830719    94.115291  0.028313866  0.029329068            2 
  278000    1.1917587   -7.1546573    94.253279  0.028253381   0.02931167            3 
  279000    1.1413071   -7.1763945    94.990179  0.028372216  0.029293701            2 
  280000    1.1659356   -7.1639578    94.855727  0.028230871  0.029275716            2 
  281000    1.1511288   -7.1956126    94.790977  0.028111203  0.029256315            7 
  282000    1.1432595   -7.2018813    95.172405  0.028124233  0.029237427            3 
  283000    1.1653335   -7.1790903    95.887345  0.028235378  0.029217568            2 
  284000    1.1243236   -7.1444519    96.021772  0.028175403  0.029197944            2 
  285000    1.1448238   -7.1070412    96.367286  0.028177569  0.029178779            2 
  286000    1.1398189   -7.1469184    96.650281  0.028161504  0.029159028            2 
  287000    1.1581993   -7.1696035    96.653548  0.028064329  0.029139307            1 
  288000    1.1456758   -7.1708174    97.146132  0.028109413  0.029120066            2 
  289000    1.1527704    -7.156319    97.638715  0.028154185   0.02910091            2 
  290000     1.113497   -7.2048666    97.220207  0.027936841  0.029080746            2 
  291000    1.1587824   -7.2077945    97.656445  0.027965763  0.029060249            1 
  292000    1.1482075   -7.1665885    97.955829  0.027955431  0.029040191            2 
  293000    1.1531464    -7.200475    98.242889  0.027941663  0.029019898            3 
  294000    1.1307706   -7.1952485     98.15595  0.027821981  0.028998923            2 
  295000     1.149464   -7.1838149    98.931014  0.027946614  0.028977824            3 
  296000    1.1596768   -7.2165474    99.192529  0.027925824  0.028958227            3 
  297000    1.1366931   -7.2319259    99.448094  0.027903505    0.0289388            1 
  298000    1.1492271   -7.2064604    99.960418  0.027953137  0.028920052            2 
  299000    1.1207973   -7.2142252    99.952677  0.027857491   0.02890006            2 
  300000    1.1038626   -7.2239071    100.24455  0.027845709  0.028880313            7 
  301000    1.1332494    -7.174161    100.65991  0.027868191  0.028860665            7 
  302000    1.1632969   -7.1992382    100.99481  0.027868324  0.028842391            2 
  303000    1.1147725   -7.2151853    101.38754  0.027884362  0.028823075            1 
  304000     1.116748   -7.1343126    101.88864  0.027930001  0.028804564            4 
  305000    1.1121992     -7.20922    101.43174  0.027713591  0.028784681            7 
  306000    1.1080367   -7.2132091    101.81133  0.027726398  0.028763544            2 
  307000    1.1275942    -7.225441    101.74108  0.027617015   0.02874218            3 
  308000    1.1362454   -7.1999019    101.94573  0.027582719   0.02872035            2 
  309000    1.1464135   -7.2671143    102.04763  0.027520936  0.028696908            2 
  310000    1.1236453   -7.1710289    102.73887  0.027617976  0.028674377            4 
  311000    1.1189057   -7.2331254    103.10555  0.027627425  0.028652395            1 
  312000    1.1339799    -7.245601    102.89117  0.027481615  0.028630235            2 
  313000    1.1334664   -7.2054976    103.47171  0.027548378  0.028608347            3 
  314000    1.1443512   -7.2103873    103.75621  0.027536149  0.028586091            2 
  315000    1.1256035   -7.1773963      104.005  0.027514551  0.028564803            3 
  316000    1.1244669    -7.240378    104.58166  0.027579552  0.028544253            4 
  317000    1.1358871   -7.2202506    104.48723  0.027467726  0.028522515            4 
  318000    1.1416661    -7.229883    104.49914   0.02738447  0.028500871            3 
  319000    1.1203084    -7.231921    105.15815   0.02747078  0.028479818            2 
  320000    1.1326627   -7.2169564    105.54894  0.027486704  0.028458667            7 
  321000    1.1111171   -7.1865936    106.14443  0.027555667  0.028438742            3 
  322000    1.0999028   -7.1968856    106.34796  0.027522765  0.028419369            3 
  323000    1.1203177   -7.2131354    106.84414  0.027565569  0.028399655            4 
  324000    1.1286992   -7.2663557    106.64632  0.027429609   0.02838038            4 
  325000     1.125786   -7.2489038    107.33836  0.027522655  0.028361321            3 
  326000     1.142435   -7.1374661    107.84552  0.027567873  0.028343219            3 
  327000    1.1369938   -7.2033949    107.91446  0.027501135   0.02832573            3 
  328000    1.1055021   -7.2202187    108.64661  0.027603305  0.028307721            4 
  329000    1.1172267   -7.2087188    108.59981  0.027507551  0.028289584            4 
  330000    1.1112374   -7.1931259    109.01731  0.027529623   0.02827206            2 
  331000    1.1220353   -7.1828794    109.74274  0.027629089  0.028255138            3 
  332000    1.1235086   -7.2276141    109.73599  0.027544173  0.028238123            2 
  333000    1.1171962   -7.2961862    109.33909  0.027362136   0.02822082            2 
  334000    1.1391332   -7.2362517    110.01296  0.027448344  0.028204158            5 
  335000    1.1306628     -7.18534    110.30808  0.027439822  0.028187156            1 
  336000    1.1294817   -7.2220094    110.69294  0.027453607  0.028168427            3 
  337000    1.1392386   -7.2279542    110.81712  0.027402848  0.028149998            2 
  338000    1.1414209   -7.2549966    110.95422  0.027355576  0.028132415            4 
  339000    1.1403721   -7.2408682    111.28587   0.02735641  0.028114599            3 
  340000     1.107685   -7.2349566    112.03504  0.027459568  0.028097436            1 
  341000    1.1047415   -7.2294166    112.13436  0.027403313  0.028080615            2 
  342000    1.1433068   -7.2290571    112.16868  0.027331548  0.028064025            4 
  343000    1.1240154   -7.2423559    113.06556  0.027469767  0.028048538            3 
  344000     1.121389   -7.2330328    112.96395  0.027365299  0.028032936            2 
  345000    1.1253135   -7.2504397    113.33696  0.027376076  0.028018364            3 
  346000    1.1192525   -7.2234537    113.84914  0.027420314  0.028003765            4 
  347000     1.115222   -7.2278017    114.00029  0.027377592  0.027989269            3 
  348000    1.0947049   -7.2676134    114.19469  0.027345471  0.027974464            3 
  349000    1.1319721   -7.1993721    114.81901  0.027416192  0.027958981            5 
  350000    1.1124909   -7.2030342    114.92526  0.027363158  0.027943747            4 
  351000    1.0971815   -7.2341762    115.08897  0.027324066  0.027927594            6 
  352000    1.0813718   -7.2432711    115.10587  0.027250442  0.027911907            4 
  353000    1.0936336   -7.2638749    115.49832  0.027265892  0.027895801            4 
  354000    1.1185183   -7.2414471    115.70738  0.027238084  0.027880159            2 
  355000    1.1125093   -7.2523816     115.9234  0.027212066  0.027863932            2 
  356000    1.1260639   -7.3023734    115.58682   0.02705684  0.027847399            6 
  357000     1.093299   -7.2821023    116.03873  0.027086538  0.027830481            3 
  358000    1.1147697   -7.2677705    116.44719  0.027105957  0.027814029            2 
  359000    1.0906007   -7.2619502    116.66958  0.027082075  0.027796682            2 
  360000    1.1062447   -7.2715287    116.87426  0.027054226  0.027779134            2 
  361000    1.1328721   -7.2779335    116.81176  0.026964856  0.027761958            4 
  362000    1.0943626   -7.2701175    117.32957   0.02700957  0.027744148            3 
  363000    1.1003661   -7.2383703    118.11279  0.027114966  0.027726888            3 
  364000    1.1072051   -7.2399857    117.97949  0.027009957  0.027710486            3 
  365000    1.1235104   -7.2244668    118.46583  0.027046993  0.027694187            2 
  366000    1.1057321    -7.227867    118.84441  0.027059292  0.027677832            6 
  367000    1.0817961   -7.2143645    119.27449  0.027083218    0.0276618            3 
  368000    1.1197467   -7.2365872    119.29481  0.027014224  0.027645571            2 
  369000    1.0925242   -7.2408813    119.71596  0.027036124  0.027627919            4 
  370000    1.0915787   -7.2954561    119.78397  0.026978372  0.027611336            3 
  371000     1.103828   -7.2606019    120.22405  0.027004503  0.027594968            3 
  372000    1.0953962   -7.2644921    120.41844  0.026975458  0.027577788            3 
  373000    1.0991043    -7.308325    119.87501  0.026781727  0.027561122            3 
  374000    1.1081558   -7.2725707    120.59674  0.026870931  0.027543768            5 
  375000    1.1176176    -7.301411    120.89398   0.02686533  0.027526241            2 
  376000    1.0911081   -7.2475157    121.33492  0.026891605   0.02750919            2 
  377000    1.0871664   -7.2775954    121.30143  0.026812872  0.027491682            9 
  378000    1.1148549   -7.2712228    121.36394  0.026755718  0.027474211            1 
  379000    1.0924378   -7.2837681    121.30847  0.026672926  0.027455733            3 
  380000    1.1384736   -7.2598957    121.82267  0.026715497  0.027437864            3 
  381000    1.1002861   -7.2698451    122.23635  0.026735859  0.027419565            2 
  382000     1.134212   -7.3023786    122.00656  0.026615742  0.027400603            3 
  383000    1.0798401    -7.286913    122.25006  0.026599229  0.027381855            3 
  384000    1.1118976   -7.2892587    122.40156  0.026562839  0.027362669            5 
  385000    1.1051648   -7.2841271    122.90312  0.026602406  0.027343036            2 
  386000    1.1238562   -7.2711168    122.90502    0.0265339  0.027323717            4 
  387000    1.0910745   -7.2945347    123.39322   0.02657046  0.027305143            5 
  388000    1.0853844   -7.3011884    123.62622  0.026552024  0.027286417            2 
  389000    1.0972555   -7.2615871    123.92256  0.026547249  0.027267506            2 
  390000     1.119602   -7.2847211    124.13103  0.026523725  0.027248892            3 
  391000    1.1075625   -7.2839695    124.03214  0.026434813  0.027229169            3 
  392000     1.087566   -7.2884509    124.27082  0.026418116  0.027209333            1 
  393000    1.0920523   -7.2865501    124.52843   0.02640552  0.027189741            3 
  394000    1.0948332   -7.2713033    125.11186  0.026461898  0.027170857            2 
  395000    1.0913534   -7.2822693     125.0822  0.026388649  0.027152161            5 
  396000    1.1099577   -7.2811208    125.24538   0.02635635  0.027132872            2 
  397000    1.0975341   -7.2715217    125.39271  0.026320888  0.027112966            2 
  398000    1.0938413   -7.2305235    126.18686  0.026421035  0.027094065            3 
  399000    1.1102619   -7.2843364    126.39502  0.026398291  0.027075481            3 
  400000    1.1166858   -7.2947035     126.4464  0.026343001  0.027056008            6 
  401000    1.0727583   -7.3026872    126.86343  0.026363971  0.027037073            5 
  402000     1.091507   -7.3040028    126.99197  0.026325036  0.027017907            2 
  403000    1.0893737   -7.3146916    126.83119  0.026226466  0.026999599            3 
  404000    1.1097142   -7.3182776    127.52671  0.026305015  0.026980733            5 
  405000    1.0888229   -7.2549984    128.04934    0.0263476  0.026961948            5 
  406000    1.0835923   -7.3094114    127.68521  0.026207965  0.026943178            4 
  407000    1.0987164   -7.3504888    128.13758  0.026236195  0.026924263            4 
  408000    1.1062402   -7.3552101     128.0705  0.026158191  0.026904864            6 
  409000    1.0761383   -7.2913531    128.71222  0.026224983  0.026885062            3 
  410000    1.0985105   -7.2879246    129.13053  0.026246044    0.0268665            2 
  411000    1.0871612     -7.32338    129.02079  0.026159933  0.026847322            4 
  412000    1.0879018   -7.2719258    129.62258  0.026218159  0.026828569            4 
  413000    1.0922112   -7.3281623    129.44244  0.026118329  0.026809669            5 
  414000    1.0972717   -7.3026349    129.64383   0.02609578   0.02679069            5 
  415000    1.0909436   -7.3155876    129.51045  0.026006115  0.026771293            2 
  416000    1.0951162   -7.2986162    129.99433   0.02604053  0.026752395            2 
  417000    1.0816877   -7.3277016     130.1783  0.026014848  0.026732691            4 
  418000    1.1057098   -7.3134087    130.72142   0.02606089  0.026713052            4 
  419000    1.0835333   -7.3119881    130.49807  0.025954271  0.026693609            3 
  420000    1.0941815   -7.3397473     130.7618  0.025944801  0.026674801            1 
  421000    1.0884896   -7.3148844      131.483  0.026025931  0.026655652            4 
  422000    1.1189207   -7.2989803    131.79143  0.026025165  0.026637015            2 
  423000    1.0867532   -7.3504826    131.58298  0.025922573  0.026618471            4 
  424000    1.0823514   -7.4013056    131.49965  0.025845056  0.026598766            4 
  425000    1.0782567   -7.3157364     132.0754  0.025897137  0.026579167            4 
  426000    1.0729339   -7.2885683    132.96144  0.026009672  0.026560406            4 
  427000    1.1271006   -7.3189897    132.87145  0.025931196  0.026541845            3 
  428000    1.0941545   -7.3073903    133.30315  0.025954663  0.026523047            3 
  429000    1.0777177   -7.3245195     132.9384  0.025823311   0.02650449            2 
  430000    1.0919458   -7.3921765    133.26806  0.025827144  0.026485647            2 
  431000    1.0635243    -7.321218    133.99757   0.02590827  0.026467015            2 
  432000    1.0825699   -7.3395551    134.19485  0.025886353  0.026448943            1 
  433000     1.084845   -7.3612521    134.35086  0.025856593   0.02643138            3 
  434000     1.098775   -7.3577921    134.32499  0.025792048  0.026412727            2 
  435000    1.1048101   -7.3532293    134.70738  0.025806012  0.026393993            5 
  436000    1.0760098   -7.3526159    135.01255  0.025805151  0.026375379            3 
  437000    1.0839592    -7.361581    135.64496  0.025866697  0.026357548            3 
  438000    1.0974085   -7.3314682    135.57365  0.025794073  0.026338963            4 
  439000    1.0672523   -7.3605096    135.77181  0.025772932  0.026320432            3 
  440000    1.0972366   -7.3651534     135.8549  0.025730095  0.026302564            3 
  441000    1.0858208   -7.3929853    136.25082  0.025746565  0.026283972            5 
  442000    1.0584912   -7.3308444    136.62577  0.025759006   0.02626545            3 
  443000    1.0735772   -7.3490912    136.85573  0.025744118  0.026247903            3 
  444000     1.078212   -7.3227021    136.92298  0.025698758  0.026230077            2 
  445000    1.0905589   -7.3345276    137.04134  0.025663173  0.026212879            3 
  446000    1.0776665   -7.3254226    137.60564  0.025711068  0.026195535           10 
  447000    1.0786853   -7.3452387    138.21254  0.025766693  0.026178752            6 
  448000    1.0775913   -7.3360767    138.21209  0.025709094  0.026161778           11 
  449000    1.0735285   -7.3549845    138.25546  0.025659884  0.026144406            3 
  450000    1.0637238   -7.3352005      139.032  0.025746666  0.026127605            3 
  451000    1.0804959   -7.3232533    138.76369  0.025640002  0.026110604            1 
  452000    1.0680952   -7.3443527    138.77438  0.025585247  0.026093407            3 
  453000     1.050712   -7.3268519    139.66296   0.02569223  0.026076363            4 
  454000    1.0577643   -7.3800838    139.17924  0.025546849  0.026059007            4 
  455000     1.081435   -7.3202657    139.26949  0.025507233   0.02604155            3 
  456000    1.0906814   -7.3597059    139.89649  0.025565878  0.026024024            2 
  457000    1.0739573     -7.33701    140.65961   0.02564909  0.026007644            3 
  458000    1.0716886     -7.37899    140.59567  0.025581453  0.025990982            3 
  459000    1.0517289   -7.3988535    140.61419  0.025529084  0.025974175            4 
  460000    1.0879976   -7.3332916    141.29228  0.025596428  0.025958578            6 
  461000    1.1024759   -7.3790977     141.4754  0.025574006  0.025942511            4 
  462000    1.0768343   -7.3817614    141.24199   0.02547655  0.025925014            2 
  463000    1.0682641   -7.3622693    141.07252  0.025391023  0.025907813            4 
  464000    1.0637886   -7.3906798    141.19901  0.025359018  0.025890366            5 
  465000    1.0555911   -7.3809379    141.84818  0.025420821  0.025872428            2 
  466000     1.073375   -7.3805588    141.78936   0.02535575  0.025854936            4 
  467000    1.0608375   -7.3440647    142.56417  0.025439716  0.025837846            4 
  468000    1.0588117   -7.3756563    142.52835   0.02537898  0.025820846            3 
  469000    1.0790828   -7.3167721    143.09085  0.025424814  0.025804052            4 
  470000    1.0531799   -7.4152784    143.05646  0.025364621  0.025787716            3 
  471000     1.070353   -7.4183099    143.39691  0.025371004  0.025770779            5 
  472000    1.0681372   -7.3797158    143.37435  0.025313268  0.025753885            5 
  473000    1.0597901    -7.356154    143.84215  0.025342169  0.025737061            3 
  474000     1.081248   -7.4187395    143.59667  0.025245546  0.025719338            3 
  475000    1.0597105   -7.4091153    143.89923  0.025245478  0.025701592            4 
  476000    1.0658481    -7.421278    143.93268  0.025198299  0.025683851            5 
  477000    1.0666829   -7.3831669    144.34971  0.025218328  0.025666555            4 
  478000    1.0694185   -7.3141865    144.70693  0.025227847  0.025649437            2 
  479000    1.0486095   -7.3975363    144.55519   0.02514878   0.02563218            3 
  480000    1.0441377   -7.4062751    144.61891  0.025107449  0.025614523            3 
  481000    1.0402411   -7.3512898    145.36787  0.025185008  0.025597813            7 
  482000    1.0819783   -7.3860953    145.42715  0.025143007  0.025580959            3 
  483000     1.082694   -7.3760165    145.57596  0.025116625  0.025564402            6 
  484000    1.0582568   -7.3641329    146.26696  0.025183705  0.025547105            2 
  485000    1.0410508   -7.4473783    145.83935  0.025058308  0.025529871            3 
  486000    1.0465471   -7.3996302    146.48151  0.025116857  0.025512728            3 
  487000    1.0719738   -7.3752409    146.88691  0.025134652  0.025495927            2 
  488000    1.0519257   -7.3977622    147.17023  0.025131529   0.02547915           10 
  489000    1.0816776   -7.3909864    146.81004  0.025018752  0.025462103            4 
  490000    1.0561633   -7.3390062    147.22758  0.025038704   0.02544511            4 
  491000    1.0745013   -7.3746964    147.61714  0.025053825  0.025428218            3 
  492000    1.0525794   -7.3763007     147.6617  0.025010451  0.025411358            2 
  493000     1.066812   -7.4344142    147.43322  0.024921098  0.025393659            2 
  494000    1.0621012    -7.379802    147.94311  0.024956665  0.025376186            4 
  495000    1.0380964   -7.4102057    148.11053  0.024934432  0.025359166            3 
  496000    1.0435725   -7.4249899    149.00962  0.025035218   0.02534207            2 
  497000    1.0404763   -7.4062716    148.86134  0.024959983   0.02532557            3 
  498000    1.0761353   -7.3796172    149.43697  0.025006186  0.025309642            3 
  499000    1.0551394   -7.4251606    149.45214  0.024958607  0.025293572            3 
  500000    1.0472466   -7.4046938     149.3696  0.024894933  0.025277169            6 
  501000    1.0402326   -7.4275192    149.13095  0.024805548  0.025260392            6 
  502000     1.073723   -7.3966527    149.74771  0.024858518  0.025243739            4 
  503000     1.057444   -7.4435511    149.26912  0.024729809  0.025226726            4 
  504000    1.0438832   -7.3633684    150.36103  0.024861282  0.025209498            6 
  505000    1.0387456   -7.4884157    149.85248  0.024728132  0.025191848            3 
  506000    1.0663163   -7.4618221    149.68205  0.024651194  0.025173999            2 
  507000    1.0459625   -7.4264075    150.49638  0.024736419  0.025156303            3 
  508000    1.0502662   -7.4250508    150.79864   0.02473731  0.025138862            3 
  509000    1.0411104    -7.442926    150.92341  0.024709136  0.025121255            4 
  510000    1.0762682   -7.4790872      150.884  0.024654248  0.025103336            6 
  511000    1.0515813   -7.4298017    151.17654  0.024653708  0.025085839           10 
  512000    1.0461238   -7.4523097    151.51264   0.02466026  0.025068298            3 
  513000    1.0455074     -7.44671    151.13104  0.024550202  0.025051149            4 
  514000    1.0524508   -7.4649844    151.67107  0.024589992  0.025033855            4 
  515000     1.056329   -7.4354999    152.51982  0.024679582  0.025016531            2 
  516000    1.0585083   -7.4139944    152.26167  0.024590063  0.024999608            2 
  517000    1.0465901   -7.4393061    152.43693   0.02457075  0.024982958            2 
  518000    1.0540598   -7.4024499    152.97738   0.02461026  0.024966058            2 
  519000    1.0420737   -7.3882283    153.55658  0.024655841  0.024949453            3 
  520000    1.0308196   -7.3861301    153.66655  0.024626049  0.024932652            4 
  521000    1.0371134   -7.3844261     154.1164  0.024650735  0.024916501            3 
  522000    1.0406602   -7.4506267    153.68707  0.024534973  0.024900165            3 
  523000    1.0216178   -7.4737069    154.16755   0.02456462  0.024883649            5 
  524000    1.0638404   -7.4174821    154.25802  0.024532128  0.024867057            4 
  525000    1.0312168   -7.4792828    153.83721  0.024418604  0.024849872            4 
  526000    1.0701084   -7.4399217    154.22579  0.024433744  0.024832505            4 
  527000    1.0361947   -7.4804961    154.24135   0.02438984  0.024814911            7 
  528000    1.0776077   -7.4570278     154.1164  0.024323928   0.02479693            6 
  529000    1.0252106   -7.4299445    154.70017  0.024369906  0.024778898            5 
  530000    1.0293933   -7.4221731    155.06929  0.024381964  0.024761289            5 
  531000    1.0251345   -7.3858272    155.44746  0.024395396  0.024743813            3 
  532000    1.0357518   -7.4423449    155.33515  0.024331946  0.024726252            4 
  533000    1.0368336   -7.4590522    155.51221  0.024313979  0.024708718            2 
  534000    1.0561606   -7.4478621    155.60138  0.024282363  0.024690908            6 
  535000    1.0249467   -7.4347844    155.52585   0.02422521  0.024672959            1 
  536000    1.0560308   -7.4742524    155.22891  0.024133848  0.024654936            2 
  537000     1.050948   -7.4327568    155.53492  0.024136393  0.024636923            1 
  538000    1.0256749   -7.4069257    156.11861  0.024181941  0.024618572            4 
  539000    1.0227013   -7.4390764    156.17252  0.024145411  0.024600029            5 
  540000    1.0304375   -7.4755487    156.46297  0.024145521   0.02458191            4 
  541000    1.0363093   -7.4401866    156.52709  0.024110766  0.024563773            5 
  542000    1.0414912   -7.4550456    156.77885  0.024104989  0.024545425            2 
  543000    1.0255079   -7.4659142    156.79081  0.024062433  0.024527536            3 
  544000    1.0279797   -7.4257791    157.38077  0.024108573  0.024509499            3 
  545000    1.0207127   -7.4767587    157.50598  0.024083484  0.024491384            5 
  546000    1.0502663   -7.4810517     157.6872  0.024067033  0.024473198            6 
  547000    1.0358651   -7.4782291    157.68558  0.024022788  0.024454973            3 
  548000    1.0287924   -7.4669266    157.57001  0.023961376  0.024436859            3 
  549000    1.0528571   -7.4699702    157.93973  0.023973851  0.024418669            8 
  550000     1.034966    -7.472591     157.6821  0.023891228  0.024400446            7 
  551000    1.0475763   -7.4837128    158.05191  0.023903798  0.024382001            4 
  552000    1.0195308    -7.452648    158.45393  0.023921185  0.024363922            3 
  553000    1.0482085    -7.505897    158.32925   0.02385914  0.024345807            3 
  554000    1.0402504   -7.4829419    158.28446  0.023809336  0.024327418            4 
  555000     1.032223   -7.4526712    159.00353  0.023874404  0.024309032            5 
  556000    1.0377917   -7.4694001    159.00038  0.023830992  0.024290632            5 
  557000    1.0314428   -7.4945801    159.22391  0.023821649  0.024272257            7 
  558000     1.041967   -7.4826132    159.41377  0.023807314  0.024253811            7 
  559000    1.0428905   -7.5071465    159.46507  0.023772372  0.024235535            1 
  560000    1.0362398     -7.50386     159.7402  0.023770863  0.024217168            4 
  561000    1.0281073    -7.469954    159.78028  0.023734445  0.024198743            3 
  562000    1.0374487   -7.4750761    159.90128  0.023710154  0.024180602            5 
  563000   0.99077986   -7.4246369     161.2786  0.023871907  0.024162486            4 
  564000    1.0310899   -7.4730575    160.47989  0.023711568   0.02414435            1 
  565000     1.023423   -7.4951516    160.64582  0.023694074  0.024126226            3 
  566000    1.0169427    -7.463827    161.50252  0.023778345  0.024108469            6 
  567000    1.0306734   -7.5026755    161.11224  0.023679047  0.024090519           10 
  568000    1.0183297   -7.4704119    161.60141  0.023709127  0.024072667            3 
  569000    1.0429114    -7.426482    161.79892  0.023696386   0.02405474            3 
  570000    1.0273483   -7.5165786    161.87814  0.023666395  0.024036754            4 
  571000    1.0439975   -7.4872587    161.23252  0.023530724   0.02401838            4 
  572000    1.0146126   -7.4668312    161.93285  0.023591615  0.023999909            7 
  573000    1.0115073   -7.4828137    162.28246  0.023601289  0.023981642            4 
  574000    1.0528563   -7.5082425    162.38847  0.023575561  0.023963604            3 
  575000    1.0042491   -7.5229623    162.63478  0.023570258  0.023945792            3 
  576000    1.0381264    -7.475154    163.00623  0.023583078   0.02392783            4 
  577000    1.0190127   -7.4750752    162.75446  0.023505844  0.023910008            3 
  578000    1.0240563   -7.5160372     162.8547  0.023479627   0.02389183            8 
  579000    1.0160845   -7.5049003    162.76041  0.023425505  0.023873445            3 
  580000    1.0184533   -7.5211865    163.23706  0.023453601  0.023854834            3 
  581000    1.0147867   -7.5166754    162.93694  0.023370186  0.023836437            4 
  582000    1.0371051   -7.5015381    163.50622  0.023411544  0.023818275            4 
  583000    1.0283474   -7.4740042    163.68096  0.023396364  0.023800227            5 
  584000    1.0182955   -7.5069134    164.04493  0.023408238   0.02378247            3 
  585000   0.99364576   -7.5780099    164.15877   0.02338444  0.023764694            1 
  586000    1.0236773   -7.4580518    165.03149  0.023468642  0.023746727            3 
  587000     1.035125   -7.5230206      164.542   0.02335917  0.023728829            8 
  588000    1.0336906   -7.5522458    163.91635  0.023230775  0.023710632            3 
  589000    0.9998471    -7.514605    164.63999  0.023293717  0.023692494            7 
  590000    1.0272339   -7.5129499    165.16328  0.023328147  0.023674152            7 
  591000   0.99394242   -7.4868089    165.47269  0.023332302  0.023656084            5 
  592000    1.0335707   -7.4956401    165.93098  0.023357401  0.023638176            6 
  593000    1.0326509   -7.5141343    165.32409  0.023232727  0.023620565            4 
  594000    1.0197054   -7.5064157    165.87416  0.023270785   0.02360299            3 
  595000   0.99645813   -7.5126787    166.12528  0.023266846  0.023585559            4 
  596000    1.0347461    -7.539567     165.9934  0.023209369  0.023567677            6 
  597000   0.99012975   -7.5937986     165.8558  0.023151284  0.023549564            5 
  598000    1.0299977   -7.5614538    166.01054  0.023134134  0.023531211            3 
  599000    1.0029064     -7.49481    167.08912  0.023245565  0.023513184            3 
  600000    1.0388376   -7.5014035    166.50249  0.023125346  0.023495184           13 
  601000    1.0152564   -7.5427924    166.89573  0.023141394  0.023477097            3 
  602000    1.0283118   -7.5395644    166.62112  0.023064939  0.023458862            3 
  603000    1.0123511   -7.5173948    167.03461  0.023083832  0.023440729            5 
  604000    1.0086253   -7.5529284    167.41459   0.02309804  0.023422718            3 
  605000    1.0162974   -7.5316274    167.27225  0.023040255  0.023405052            4 
  606000   0.99627187   -7.4760565    167.81815  0.023077303  0.023387251            5 
  607000      1.03102   -7.4514116    167.75871  0.023031124  0.023369565            3 
  608000    1.0263071   -7.5432255    167.49125  0.022956585  0.023351386            6 
  609000    1.0099409   -7.4963875    167.57361   0.02293016  0.023333063            2 
  610000   0.99813084   -7.5277357    167.69029   0.02290851  0.023314964            2 
  611000    1.0233535   -7.5089442    167.72046  0.022875132  0.023296613            4 
  612000   0.99965471   -7.5879406    167.75175  0.022842014  0.023277847            3 
  613000    1.0051813   -7.5719407    167.79561  0.022810714  0.023258973            7 
  614000   0.99481157   -7.5341069    168.23352  0.022832997  0.023240742            6 
  615000    0.9843848   -7.5571809    168.01169  0.022765811  0.023222303            3 
  616000    1.0334318   -7.5413514    168.20222  0.022754629  0.023203815            4 
  617000    1.0093043   -7.4976385     169.2873  0.022864304  0.023185421            5 
  618000    1.0063929   -7.5466205    168.98449  0.022786474  0.023166827            4 
  619000    1.0189992   -7.5664613    168.50115  0.022684592  0.023148012            7 
  620000    1.0301392   -7.5736168    169.11846  0.022730976  0.023129473            5 
  621000    1.0074893   -7.5520015     168.8241  0.022654872  0.023110881            3 
  622000    1.0033856   -7.5844148    168.61729  0.022590741  0.023091934            9 
  623000    1.0176124   -7.5528611    169.06729  0.022614672  0.023072841            6 
  624000   0.99762694   -7.5424047     169.1517  0.022589704  0.023053767            3 
  625000   0.98940338   -7.5549976    169.74412   0.02263255  0.023034811            4 
  626000   0.99258217   -7.5405407    169.99861  0.022630273   0.02301555            4 
  627000    1.0277464   -7.5419794    170.00401  0.022594897  0.022996684            5 
  628000    1.0099954   -7.5874685    170.40954  0.022612731  0.022978042            6 
  629000   0.99210118   -7.5641788    170.49909  0.022588645  0.022959441            5 
  630000    1.0164801   -7.5437289    170.44875  0.022546131  0.022940875            4 
  631000    1.0027023   -7.5571762    170.33984  0.022496017  0.022922142            8 
  632000   0.99076617   -7.5645928    170.48756    0.0224799  0.022903152            3 
  633000    1.0022265   -7.5600864    170.03036  0.022384198  0.022884099            2 
  634000    1.0227091   -7.5883012     170.6522  0.022430625  0.022864717            4 
  635000    1.0034685   -7.5801334    170.37941  0.022359503  0.022845544           10 
  636000   0.99922482   -7.5623396    170.74167  0.022371813  0.022826282            8 
  637000   0.99790022   -7.5888342    170.50907  0.022306262  0.022807121            2 
  638000    0.9964763   -7.5844845     170.8814  0.022319932  0.022787622            5 
  639000    1.0252004   -7.5974966    170.68161  0.022258947  0.022767834            5 
  640000    1.0117636   -7.5651788    171.37671  0.022314675   0.02274829           10 
  641000   0.98972683    -7.552914    171.67604  0.022318778  0.022729083            3 
  642000    1.0107912   -7.5813655    171.51436  0.022263026  0.022710034            8 
  643000   0.99930489   -7.5740716    171.76516  0.022260907  0.022690758            4 
  644000    0.9952834   -7.5448237    172.30571  0.022296288  0.022671711            4 
  645000   0.99922908   -7.5573666    172.48294  0.022284617  0.022652783            6 
  646000    0.9853472   -7.6248498    171.77436  0.022158715  0.022633635            2 
  647000   0.98950707   -7.5539275    172.68407  0.022241637  0.022614613            8 
  648000   0.98531509   -7.5969081    172.07931  0.022129541  0.022595776            3 
  649000    0.9841225    -7.558826    172.62721  0.022165795  0.022576719            5 
  650000   0.96768635   -7.5895233    172.41792  0.022104861  0.022557508            5 
  651000   0.98936058   -7.5566725    173.63915  0.022227234  0.022538567            9 
  652000   0.99381754   -7.5817139    173.24723   0.02214305   0.02251989            2 
  653000   0.99324038   -7.5830599    173.25194  0.022109742  0.022500917            3 
  654000   0.96835185   -7.5628205    173.31137  0.022083508  0.022482103            9 
  655000   0.98623602   -7.6426744    173.05938  0.022017732  0.022463074            6 
  656000    1.0136591   -7.6041815     173.4487  0.022033625  0.022444023           18 
  657000    1.0021538   -7.5595667    174.06465  0.022078215   0.02242511           17 
  658000    1.0185449     -7.59487    174.18966  0.022060494   0.02240635           18 
  659000   0.99222298   -7.6484682    173.53055  0.021943671  0.022387046           25 
  660000   0.98014698   -7.6334738     173.0822  0.021853813  0.022367734           28 
  661000   0.98456964   -7.6215452    174.09363  0.021948264  0.022348578           19 
  662000   0.98820594   -7.6372117    173.62088  0.021855599  0.022329261           21 
  663000    1.0019989   -7.6137134    174.62423  0.021948746   0.02231003           32 
  664000   0.98880115   -7.6268929    174.40936  0.021888724    0.0222908           15 
  665000   0.98666969   -7.5950358    174.70027  0.021892264  0.022271726           21 
  666000   0.98853903   -7.6298932    175.08303  0.021907285  0.022253021           10 
  667000   0.99884069   -7.6281952    174.91316  0.021853219  0.022234463           20 
  668000    1.0101882   -7.6192177    174.65968  0.021788882  0.022215646            8 
  669000   0.96640686   -7.6275182    174.78193  0.021771541  0.022196587            7 
  670000   0.97909773   -7.5682507    175.34677    0.0218093  0.022177672            7 
  671000   0.98122329   -7.6095938    175.40066   0.02178349   0.02215863            7 
  672000    1.0024227   -7.6312217    175.46128  0.021758592  0.022139681            3 
  673000   0.97792896   -7.6197247     175.3914  0.021717608  0.022120824            9 
  674000   0.99393145   -7.5842793    175.97975  0.021758129  0.022102087            4 
  675000   0.97676881   -7.6129515     175.9887     0.021727  0.022083423            5 
  676000   0.99089407   -7.6157685    176.03696  0.021700808  0.022064543            3 
  677000   0.98312295   -7.6199479    176.32311  0.021703977   0.02204572            3 
  678000   0.97635877   -7.6160547    175.92689  0.021623266  0.022027024            3 
  679000   0.99701037   -7.6153282    176.24848  0.021630889   0.02200834            4 
  680000    1.0115164     -7.63978    176.24314  0.021598424    0.0219899            3 
  681000   0.97880037   -7.5892495    177.20656  0.021684602  0.021971215            8 
  682000   0.98288455   -7.6489108    176.14539  0.021523141  0.021952582            7 
  683000   0.98657921   -7.6271864    176.86723  0.021579701  0.021933635            9 
  684000   0.98209264   -7.5924979    176.84862  0.021545885  0.021914721           11 
  685000   0.97829407    -7.639123    176.40678  0.021460679  0.021895663            6 
  686000   0.97383834   -7.6635482    176.49986  0.021440703  0.021876463            6 
  687000   0.94604527   -7.6015046    177.13609  0.021486667  0.021857457            2 
  688000   0.96135434   -7.6280616    176.95231  0.021433177   0.02183843            6 
  689000   0.99526128   -7.5826924     177.5218  0.021470948  0.021819335            5 
  690000    1.0072377   -7.6114923    177.52216  0.021439874  0.021800404            3 
  691000   0.97121935   -7.6123054    177.74514  0.021435738  0.021781606            9 
  692000   0.98076536   -7.6393304    177.73649   0.02140372  0.021762689            6 
  693000   0.95664378   -7.6434878    177.70815  0.021369427  0.021743559            8 
  694000   0.96490256   -7.6517776    177.70405  0.021338143  0.021724323            5 
  695000   0.97155621   -7.6161803    178.36199   0.02138633  0.021705043            7 
  696000   0.97629121    -7.632155    177.77743  0.021285612  0.021685922            4 
  697000   0.97029962   -7.6395066    178.11338   0.02129524  0.021666752            5 
  698000    0.9669902   -7.6270934    178.05924  0.021258266  0.021647529            5 
  699000   0.97406503   -7.6738195    177.54998  0.021167141  0.021628128            7 
  700000   0.98201948   -7.6271687    178.32238  0.021228855  0.021608857            8 
  701000   0.99101578   -7.6384164    178.40666  0.021208591  0.021589806            3 
  702000    1.0023315   -7.6540913    178.87246  0.021233673   0.02157058            5 
  703000   0.97378637   -7.6424266    178.54361  0.021164486  0.021551538            5 
  704000   0.97087892   -7.6643341     178.6502   0.02114704  0.021532354            7 
  705000   0.95999517   -7.6575991    178.37587  0.021084618  0.021513234            6 
  706000   0.99403302    -7.666661    178.59851  0.021081032  0.021493999            3 
  707000    0.9693732   -7.6621663    178.63212  0.021055177  0.021474899            3 
  708000   0.99506932    -7.623205    179.52092  0.021130052  0.021455727            4 
  709000   0.97011424   -7.6692025    178.70799  0.021004701  0.021436397            6 
  710000   0.97409742   -7.6578573    179.28148  0.021042427   0.02141716            5 
  711000   0.97222995   -7.6729326    178.87909  0.020965669   0.02139801            7 
  712000   0.96583799   -7.6928047    179.05464  0.020956769  0.021378795            2 
  713000   0.99582219   -7.6416505    179.70138  0.021002966  0.021359573            4 
  714000   0.94852145   -7.6601861    179.67777  0.020970795  0.021340614            6 
  715000   0.98912023   -7.6600249    179.53206  0.020924483  0.021321676            5 
  716000   0.96780548   -7.6219198    180.73154  0.021034862  0.021302817            5 
  717000   0.97358523   -7.6799461    179.89309  0.020908076  0.021283928            3 
  718000    0.9765299   -7.6625734    180.41885  0.020939978  0.021264778            4 
  719000   0.95681842   -7.6739723    180.34539   0.02090234  0.021245816            5 
  720000   0.95514696   -7.6481135    179.87148  0.020818459  0.021226712            4 
  721000   0.97755692   -7.7323033    179.97108  0.020801095   0.02120761            5 
  722000   0.96939219   -7.6868405    180.93786  0.020883872  0.021188772            4 
  723000   0.97637977   -7.6812979    180.66162  0.020823146  0.021169833            6 
  724000   0.96971941   -7.6373652    181.29842  0.020867682  0.021150997            3 
  725000   0.98200493   -7.6946571    180.73739  0.020774413  0.021132268            4 
  726000    0.9848595   -7.6830346    181.25568  0.020805289  0.021113578           14 
  727000   0.97391762   -7.6851769    181.27491  0.020778875  0.021095027            7 
  728000   0.98582669   -7.6750866    181.58254  0.020785547   0.02107629            6 
  729000    0.9731699   -7.6803219    182.17581  0.020824853  0.021057863           16 
  730000   0.97490471   -7.6765374    181.81604  0.020755256  0.021039305           14 
  731000   0.95391966    -7.666654     181.8578  0.020731623   0.02102046            9 
  732000   0.95596168   -7.6936785    181.44069  0.020655817  0.021001697            3 
  733000   0.96833019   -7.7108917    181.31596  0.020613456  0.020982646            4 
  734000   0.96112516   -7.6805611    181.49367  0.020605549  0.020963681            3 
  735000   0.96952007    -7.650801    182.17228  0.020654454  0.020944721            5 
  736000   0.98845626    -7.693343    181.87883  0.020593164  0.020925629           10 
  737000   0.96893335   -7.6916327    182.23566   0.02060557  0.020906659            6 
  738000    0.9538056   -7.6962592    182.17751  0.020571083  0.020887816            6 
  739000   0.94730683   -7.6432192    182.27205  0.020553907  0.020869153            6 
  740000   0.98110433   -7.6426282    182.56754  0.020559407  0.020850655            3 
  741000   0.95065402   -7.6889695    182.60287  0.020535636  0.020831993            3 
  742000   0.96059638   -7.6962528    182.34556  0.020479061  0.020813342            3 
  743000    0.9350323   -7.6723494    183.05683  0.020531273  0.020794517            3 
  744000   0.95613196   -7.6990324    182.57417  0.020449616  0.020775941            9 
  745000   0.94273497   -7.7060249    182.85896  0.020454023  0.020757291            6 
  746000   0.96059164   -7.7047921    182.66013  0.020404393  0.020738731            8 
  747000   0.96798649   -7.7382901    182.66163  0.020377246  0.020719978            7 
  748000   0.96924556   -7.7012218    182.53679  0.020336096   0.02070099            3 
  749000   0.95912981   -7.6662491    183.02653  0.020363433  0.020682158            7 
  750000   0.97499995   -7.7234814    182.64234  0.020293593  0.020663309            4 
  751000   0.97002495   -7.6824463    183.27503  0.020336777  0.020644297            4 
  752000   0.96545328   -7.6779352    183.35642  0.020318752  0.020625571            3 
  753000   0.96601562   -7.6917108     183.9558  0.020358101  0.020607022            8 
  754000   0.96475224     -7.68091    183.60215  0.020292015   0.02058837            4 
  755000   0.93374688   -7.6999895     183.5593  0.020260409  0.020569798            6 
  756000   0.93987025   -7.7082228    183.44183   0.02022066  0.020551156           10 
  757000   0.94780857   -7.6983426    184.16027  0.020273037  0.020532307            7 
  758000   0.94610861   -7.7065973    184.57027  0.020291367  0.020513788            8 
  759000   0.95891679   -7.7317538    183.84859  0.020185397  0.020495137            5 
  760000   0.93721582   -7.7116836    184.11443  0.020187985  0.020476329            2 
  761000   0.93708297   -7.7327202    183.93672  0.020141997  0.020457416            4 
  762000     0.949359    -7.707307    184.73582  0.020202955  0.020438782            4 
  763000   0.96677392   -7.7033052    184.43744  0.020143888  0.020420054            5 
  764000   0.94154099    -7.728553    184.25368  0.020097478  0.020401205            4 
  765000   0.95379294   -7.7371227     184.1131  0.020055893   0.02038252            7 
  766000   0.95059655   -7.7649094    184.21098  0.020040358  0.020363681            4 
  767000   0.93249559   -7.7683198    184.96726    0.0200964  0.020344965            6 
  768000    0.9500668   -7.7476514    185.06469  0.020080804  0.020326226            6 
  769000   0.93863434    -7.720199    185.71174  0.020124809    0.0203079            6 
  770000   0.96655411   -7.7188105    185.13426  0.020036176  0.020289523            8 
  771000   0.92626063   -7.7494206    184.95511  0.019990824  0.020270841           10 
  772000    0.9460553   -7.7247178    185.47322  0.020020857  0.020252326            3 
  773000   0.92699594   -7.7121347    185.40543  0.019987649  0.020233799            6 
  774000   0.94578555   -7.7643238    185.37326  0.019958361  0.020215057            5 
  775000   0.95711112   -7.7616055    185.46011  0.019941947  0.020196519            3 
  776000   0.95471404    -7.701509     185.4958  0.019920082  0.020177983            3 
  777000     0.958728   -7.7577088    185.51394   0.01989639  0.020159473            4 
  778000   0.94975194   -7.7513192    185.70311  0.019891078  0.020140971            6 
  779000   0.95434151   -7.7497713    186.15598  0.019913991  0.020122606           11 
  780000   0.93946462   -7.7536458    186.30203  0.019904063  0.020104233            6 
  781000   0.93636275   -7.7957892    186.17026  0.019864517  0.020085884           28 
  782000    0.9562361   -7.7689086     185.8949  0.019809772  0.020067514           10 
  783000   0.92323409   -7.7420994      186.148  0.019811409  0.020049232           18 
  784000   0.93227259   -7.7442472     186.8306  0.019858695  0.020031094           11 
  785000    0.9526669   -7.7604237    187.16546  0.019868944  0.020013156            7 
  786000   0.94301909   -7.7201741    187.24127  0.019851703  0.019995212           10 
  787000   0.94384637   -7.7784684    186.98108  0.019798928  0.019977213           10 
  788000   0.94361857   -7.7589455    187.44163  0.019822508  0.019959131           10 
  789000   0.93915403   -7.7700278    187.10778  0.019762123   0.01994127           10 
  790000   0.92396138   -7.7612914    186.82013  0.019706764  0.019923284            7 
  791000   0.92791933   -7.7621626    186.88446  0.019688629  0.019905372           10 
  792000   0.94568198   -7.7410538    187.92703  0.019773466  0.019887498            4 
  793000   0.94383333   -7.7663085    187.53273  0.019707097  0.019869757            4 
  794000   0.93376112   -7.7522928    187.93678  0.019724683  0.019851818            5 
  795000   0.94185411   -7.7370217     187.6124   0.01966587  0.019834073            5 
  796000   0.93331948   -7.7451173    187.81032  0.019661885  0.019816305            4 
  797000    0.9434884   -7.7501743    188.06417  0.019663756  0.019798511            3 
  798000   0.92891294   -7.7569589    188.22323  0.019655726  0.019780896            7 
  799000   0.94564862   -7.7035271     188.7573  0.019686828  0.019763499            4 
  800000   0.92459148   -7.7524531    187.87727  0.019570549  0.019746082           10 
  801000   0.94655831   -7.7644537    188.59385  0.019620667  0.019728544            5 
  802000   0.92136193   -7.7399904    188.63202  0.019600169  0.019710931            6 
  803000   0.93652052   -7.7437052    188.78382  0.019591514  0.019693397            4 
  804000   0.93165879   -7.8142447    188.25735  0.019512577  0.019675813            5 
  805000   0.94224014   -7.7347832    189.40128  0.019606758  0.019658272            6 
  806000   0.93462962   -7.7467698    189.43007  0.019585409  0.019640873            5 
  807000    0.9258726   -7.7652681    189.33035  0.019550842  0.019623582            9 
  808000   0.94250486   -7.7835141      188.859  0.019478032   0.01960611            7 
  809000   0.92777633   -7.7981658    188.51731  0.019418759  0.019588258            6 
  810000   0.93800992   -7.7968441     188.7233  0.019415977  0.019570573            4 
  811000   0.92644016   -7.7943034    189.01395  0.019421902  0.019552745            9 
  812000   0.95548163   -7.7775746    189.08764  0.019405546  0.019535065            9 
  813000   0.92936592   -7.7659192    189.42528  0.019416285  0.019517533            9 
  814000   0.92812782   -7.7878093    189.19612  0.019368973  0.019499894            7 
  815000   0.92933834   -7.7967124    189.36538  0.019362513  0.019482435            7 
  816000   0.95206542   -7.8241627    189.13495  0.019315252  0.019464833           11 
  817000    0.9330849   -7.8103944    189.44668  0.019323407  0.019447194            6 
  818000   0.93830446   -7.7773908    189.47596  0.019302767  0.019429544            6 
  819000   0.93084252   -7.7949681    189.20844  0.019251978  0.019411841           11 
  820000    0.9285133    -7.773432    189.70246  0.019278706    0.0193943            4 
  821000   0.92416546   -7.8072709    189.60243   0.01924507  0.019376878            8 
  822000   0.90539034   -7.8096307    189.27949  0.019188918  0.019359262            9 
  823000   0.90982742   -7.8154849    189.21826  0.019159402  0.019341612            5 
  824000   0.92964405   -7.7886548    189.96612  0.019211784  0.019323893            6 
  825000   0.94550777   -7.8399512    189.93622  0.019185477   0.01930622            6 
  826000   0.92435903   -7.7989801    189.84747  0.019153296  0.019288562            3 
  827000   0.92984012    -7.772552    190.06696  0.019152253  0.019270918            7 
  828000   0.93906032   -7.8376736    190.00679  0.019123066  0.019253229            6 
  829000   0.92738251   -7.7801256     190.1824  0.019117652  0.019235434            5 
  830000   0.92711833   -7.8407651    189.54549  0.019030672   0.01921762            5 
  831000   0.93063317   -7.8104233    190.10828  0.019064208  0.019199898            3 
  832000   0.91380253   -7.8175185    189.38473  0.018968823  0.019182082           10 
  833000   0.92984401   -7.8110605    189.62758  0.018970346  0.019164197            4 
  834000   0.90243327   -7.8020824    190.31618  0.019016405  0.019146199            7 
  835000   0.91032735   -7.8164969    190.05067  0.018967132  0.019128251           17 
  836000   0.93281996   -7.8330311    190.50041  0.018989276  0.019110444            6 
  837000   0.91221271   -7.8424347    190.24449  0.018941108  0.019092753            5 
  838000   0.92306855   -7.7889903    190.92563   0.01898624   0.01907512            7 
  839000   0.91905202   -7.7925582    191.08883   0.01897982  0.019057427            6 
  840000   0.90688419   -7.8429382    190.58042  0.018906788  0.019039731            4 
  841000   0.92528504   -7.8238303    190.72986  0.018899114  0.019022175            7 
  842000   0.94056546   -7.8059389    190.98975   0.01890239  0.019004794            5 
  843000    0.9198951    -7.829941    191.67395  0.018947603  0.018987626           11 
  844000    0.9164771   -7.8399127    190.92821  0.018851522  0.018970353           13 
  845000   0.92751851   -7.8332443    191.06908  0.018843105  0.018953053           18 
  846000   0.91434802   -7.8328753    191.65307  0.018878356  0.018935788           11 
  847000   0.91721525   -7.8250358    191.51018  0.018842009  0.018918462           18 
  848000   0.91280006   -7.7905321    192.27784  0.018895228  0.018901141           14 
  849000   0.90166155    -7.828134    191.63721  0.018810091  0.018884047            4 
  850000   0.90982782   -7.8112474    191.59513  0.018783836  0.018866852            7 
  851000   0.94044515   -7.8006953    191.93377  0.018794925  0.018849705            7 
  852000   0.92029152   -7.8263484    191.95121   0.01877457  0.018832439            6 
  853000   0.91044221   -7.8032175    192.35379   0.01879189  0.018815351            3 
  854000   0.92706077    -7.823964    192.58592  0.018792537  0.018798303            4 
  855000   0.91957777   -7.8108039    192.33323  0.018745929  0.018781083            8 
  856000   0.92203796   -7.8275332    192.24782  0.018715715  0.018763861            6 
  857000   0.88731997   -7.8347372    191.84385  0.018654594   0.01874676            5 
  858000   0.91059975   -7.8903479     192.3154  0.018678652  0.018729494            6 
  859000   0.90999716   -7.8919122    191.63836  0.018591226  0.018712172            8 
  860000   0.93184259   -7.8636699    192.29782  0.018633509  0.018694819            6 
  861000   0.89950261   -7.8792023    192.26659  0.018608845  0.018677428            8 
  862000   0.90282497    -7.833755    192.77153  0.018636072  0.018660136            8 
  863000    0.9051743   -7.8531101     192.3191   0.01857079  0.018642949            5 
  864000   0.91498046   -7.8531497    192.69798  0.018585839  0.018625821            7 
  865000   0.90273678   -7.8762359    192.48272  0.018543615  0.018608559            8 
  866000    0.9008065   -7.8398056    192.83106  0.018555721  0.018591333            6 
  867000   0.88356434   -7.8534124    192.83009  0.018534226  0.018574054            8 
  868000   0.92015919   -7.8912562    192.17535  0.018450015  0.018556778           12 
  869000   0.88197577   -7.8685047    192.69288  0.018478412  0.018539327           11 
  870000   0.91197138   -7.8906512    192.61503  0.018449716  0.018522015            8 
  871000   0.89476046   -7.8788785     192.7653  0.018442911  0.018504806            6 
  872000   0.90158099   -7.8701686    192.91803  0.018436356  0.018487602            5 
  873000   0.90609423   -7.9052243    192.66677  0.018391253  0.018470446            4 
  874000   0.89445996   -7.8490848    192.94653  0.018396885  0.018453324           12 
  875000   0.89795067   -7.8768197    193.31714  0.018411156  0.018436108            8 
  876000   0.91450546   -7.8493974    193.46987  0.018404668   0.01841898            9 
  877000   0.88550408   -7.8647963    193.14505  0.018352818  0.018401744           18 
  878000   0.89987353   -7.8806302    193.12866  0.018330359  0.018384575           10 
  879000   0.90591843   -7.8503048    193.39635  0.018334884  0.018367304           19 
  880000   0.89679581   -7.8518562    193.17352  0.018292947  0.018350097           35 
  881000   0.89690114   -7.8413489    193.31542  0.018285605  0.018332825           34 
  882000   0.89875313   -7.8841241    193.24279  0.018258012  0.018315486           25 
  883000   0.89980028   -7.8618567    193.55837  0.018267117    0.0182982            5 
  884000   0.91010619   -7.8525759    193.44969  0.018236208  0.018281019           13 
  885000    0.9164901   -7.8717622    193.54563  0.018224636  0.018264085           11 
  886000   0.89558357   -7.8294112    194.28913  0.018273997  0.018247044            8 
  887000    0.8941795   -7.8480645     193.9914  0.018225423  0.018229877            6 
  888000    0.8874377   -7.8368363    194.14639  0.018219443  0.018212848            6 
  889000   0.89564905   -7.8260664    194.23555  0.018207307   0.01819587           20 
  890000   0.91075812   -7.8824568    193.47109  0.018115271   0.01817862            7 
  891000   0.89089066   -7.8907987    193.67818  0.018114308  0.018161449           15 
  892000   0.91178053   -7.8726006     194.2062   0.01814333  0.018144459           19 
  893000   0.90056178   -7.8698439    194.10984  0.018114021  0.018127446           12 
  894000   0.89298202    -7.868821    194.51591   0.01813161   0.01811035            8 
  895000   0.91071987   -7.8704198    194.19859  0.018081806  0.018093271            6 
  896000   0.87937145   -7.8849525     194.1618  0.018058203  0.018076187            6 
  897000   0.92181389   -7.8724227    194.34547  0.018055134  0.018059187            8 
  898000   0.89727175   -7.9027607    194.02038  0.018004861  0.018042012           11 
  899000   0.91855381   -7.9278978    193.99421  0.017982407  0.018024712           13 
  900000   0.89948834    -7.893266    193.91802  0.017955372  0.018007408            8 
  901000   0.89169563   -7.8843566    194.20053  0.017961573  0.017990232            6 
  902000   0.88878515    -7.865946    194.70868  0.017988607  0.017973117            6 
  903000   0.90670218   -7.8847842    194.86076  0.017982721  0.017956133           14 
  904000   0.89132548   -7.9116454    194.45268   0.01792521  0.017938968           11 
  905000   0.87440321   -7.9160264    194.41306  0.017901755  0.017921704            7 
  906000   0.88289625   -7.9291651    194.04163  0.017847832  0.017904466           15 
  907000   0.88385554   -7.9148171    193.74771  0.017801149  0.017887114           11 
  908000    0.9172377   -7.9263516    193.73641  0.017780508   0.01786975           22 
  909000   0.88340338     -7.92272    194.25667  0.017808643  0.017852491            8 
  910000   0.90164506   -7.9201562    194.30994  0.017793951  0.017835253            6 
  911000   0.88432666   -7.8905693    194.63652  0.017804292  0.017818037            6 
  912000   0.88335707    -7.891889    194.05838  0.017731942  0.017800759            3 
  913000   0.89497009   -7.8905932    194.72552  0.017773414  0.017783551            7 
  914000   0.88960459    -7.891103    194.42461  0.017726533  0.017766276           23 
  915000   0.90478032   -7.9331807    194.35044  0.017700404    0.0177491           19 
  916000   0.90095025   -7.9231429    194.81805  0.017723622  0.017731967            7 
  917000   0.90672854    -7.918585    194.60867  0.017685266  0.017714755           23 
  918000   0.89072109    -7.930455    194.23252  0.017631856  0.017697379           15 
  919000   0.88720142   -7.9166175    194.64348  0.017649934  0.017680073            4 
  920000   0.88111024   -7.9248125    194.63816  0.017630268  0.017662868            9 
  921000   0.89511569   -7.9496374    194.23801  0.017574919  0.017645574            3 
  922000   0.89410679   -7.8898449    194.19962  0.017552388  0.017628382           21 
  923000   0.88881207   -7.8820966    194.61912  0.017571246   0.01761115            7 
  924000   0.87792856   -7.9272835    194.33642  0.017526734  0.017593923           11 
  925000   0.84585478   -7.9263966    195.33341  0.017597604  0.017576664            8 
  926000   0.87923718   -7.9340622    194.58551  0.017511295  0.017559502            4 
  927000    0.8924602   -7.9085422    194.59952  0.017493664  0.017542307           14 
  928000   0.89354506   -7.9427565    194.71605  0.017485278  0.017525108           17 
  929000   0.87125198   -7.9271501    194.67583  0.017462848  0.017507874           45 
  930000    0.8702276   -7.9370165    195.32414  0.017502163  0.017490667           15 
  931000   0.86045357   -7.9107228    194.64907  0.017422939  0.017473559           34 
  932000   0.87619974   -7.9412546    194.85886  0.017423002  0.017456476           22 
  933000    0.8946255    -7.910182    194.96481  0.017413792  0.017439295           39 
  934000   0.87614559   -7.9195033    195.36518  0.017430869  0.017422091           20 
  935000   0.89363309   -7.9517744    195.42552  0.017417604  0.017404942           16 
  936000   0.88869909   -7.9279418    195.21062  0.017379863  0.017387902            7 
  937000   0.87710374   -7.9478821    195.12322  0.017353542  0.017370949            8 
  938000   0.88379719   -7.9454266    195.90539   0.01740453  0.017354045           10 
  939000   0.87774656   -7.9513027    195.48676  0.017348843  0.017337145            5 
  940000   0.85865156   -7.9427091    195.47746  0.017329562  0.017320243           12 
  941000   0.88311393   -7.9381737    195.43002  0.017306945  0.017303423            9 
  942000   0.88478061   -7.9436059    195.91089  0.017331112  0.017286566            8 
  943000   0.86461525    -7.970698    195.23875  0.017253336  0.017269683            7 
  944000   0.87534357   -7.9563789    195.76025  0.017281095  0.017252882            8 
  945000   0.88814442   -7.9345191    195.92998  0.017277776   0.01723614           12 
  946000   0.85891952   -7.9430038    195.70221  0.017239448  0.017219403           16 
  947000   0.88006394   -7.9088079    196.59389  0.017299709  0.017202729           11 
  948000   0.87573293    -7.901327    196.48634  0.017272006  0.017186047            8 
  949000   0.87501614   -7.9355415    196.12978  0.017222496   0.01716925            8 
  950000   0.86751437   -7.9713044    195.73161   0.01716944  0.017152457            5 
  951000   0.87968873   -7.9470354    195.97972  0.017173127  0.017135743            2 
  952000   0.86943856    -7.923643    196.30426  0.017183496  0.017119001            4 
  953000    0.8871948   -7.9479141    196.42453  0.017175982  0.017102274           14 
  954000   0.86458179   -7.9498988     195.8917  0.017111434  0.017085424            8 
  955000   0.87801608   -7.9622881     195.8987  0.017094128   0.01706862            6 
  956000   0.88649627   -7.9617585    195.50639  0.017042049  0.017051753            8 
  957000    0.8692675   -7.9250122      196.514  0.017111982  0.017034865            7 
  958000   0.89613135   -7.9089452    196.33609  0.017078644  0.017018228            5 
  959000   0.87822744   -7.9283818    196.44217  0.017070053  0.017001654           11 
  960000   0.87289851   -7.9476223    196.15963  0.017027746  0.016985023           19 
  961000    0.8802561   -7.9545387    196.25007  0.017017869  0.016968271            7 
  962000    0.8845174   -7.9588712    196.50135  0.017021946  0.016951526            9 
  963000   0.89669651   -7.9870442    196.16454  0.016975125  0.016934919           15 
  964000   0.85984916   -7.9777895    196.08728  0.016950837  0.016918289            7 
  965000   0.87677839   -8.0142718    196.30029  0.016951665  0.016901598           12 
  966000   0.87266389   -8.0051863    196.03987  0.016911652    0.0168849           16 
  967000   0.85839268   -7.9352103     196.8486  0.016963858  0.016868347            6 
  968000    0.8581134   -7.9565208    196.47396  0.016914081  0.016851773            9 
  969000   0.85569103   -8.0000328    196.36161  0.016886964  0.016835152            7 
  970000   0.85941789   -7.9875451    196.53143  0.016884143  0.016818503           11 
  971000   0.86917647   -8.0002456    196.08651  0.016828571  0.016801849           23 
  972000   0.85239846   -7.9722672    196.65206  0.016859744   0.01678521           16 
  973000   0.84583178   -7.9692051    197.58494  0.016922315  0.016768691           10 
  974000   0.86302136   -7.9459262    197.68159  0.016913209  0.016752298            5 
  975000   0.86820156   -7.9749538     197.3168  0.016864684  0.016735985           10 
  976000   0.85448583   -7.9563841    196.88856   0.01681084  0.016719626            5 
  977000   0.85850186   -7.9884321    197.01989  0.016804835  0.016703239           16 
  978000   0.86314136   -7.9664939    197.32147   0.01681335  0.016686987           10 
  979000   0.85729107   -7.9548306    197.42821  0.016805261  0.016670761           15 
  980000   0.85859055   -7.9770279    197.80262   0.01681995  0.016654482            8 
  981000   0.87750612   -8.0350157    197.42947  0.016771107  0.016638111           17 
  982000   0.86792847    -8.017392    196.60591  0.016684141  0.016621607           15 
  983000    0.8594224    -7.983565    197.41329  0.016735613  0.016605275           16 
  984000   0.87623228   -7.9854684     197.1338  0.016694935  0.016588919           20 
  985000    0.8658778   -8.0017393    197.41454  0.016701738  0.016572589           15 
  986000   0.86909719   -7.9963146    197.49775  0.016691831  0.016556343           27 
  987000   0.84603224    -8.005483    197.07371  0.016639117  0.016540089            7 
  988000   0.87462135   -8.0196358    197.11385  0.016625662  0.016523847           14 
  989000   0.83464595   -7.9718123    197.67123  0.016655817  0.016507636           17 
  990000   0.86507714    -7.976123    198.08617   0.01667392  0.016491566           13 
  991000   0.85617598   -8.0023337    197.98663  0.016648724  0.016475452           13 
  992000   0.84041652   -8.0124472    197.58321  0.016598052  0.016459277           13 
  993000   0.86857051   -7.9816244    197.77593   0.01659751  0.016443139           25 
  994000    0.8353249   -8.0043661    197.75232  0.016578833   0.01642704            9 
  995000   0.86401586   -8.0168916    197.46624  0.016538211   0.01641083           14 
  996000   0.85858605   -7.9984016     197.7705  0.016547063  0.016394675           14 
  997000   0.85509912   -8.0269019    198.20932  0.016567145  0.016378576           17 
  998000   0.85513311   -8.0373924    197.41701  0.016484387  0.016362425            8 
  999000    0.8609363   -8.0508108    197.40665  0.016467021  0.016346229           14 
 1000000   0.86101723   -8.0326969    197.68986  0.016474155  0.016330046           11 
 1001000    0.8544633   -8.0117322    197.91018  0.016476039   0.01631388           10 
 1002000   0.85863981   -8.0227583    198.34175  0.016495488   0.01629787           11 
 1003000   0.87276374   -8.0273075    197.82759  0.016436323  0.016281863            9 
 1004000    0.8605742   -8.0246038    197.58156  0.016399532  0.016265834            9 
 1005000   0.84297812   -7.9888767    198.38004  0.016449423  0.016249771           10 
 1006000   0.84165058   -8.0063475    197.76573  0.016382184  0.016233758            8 
 1007000   0.84923035   -8.0333089    197.79369   0.01636823  0.016217769           10 
 1008000   0.86294973   -7.9874371    198.21411  0.016386749  0.016201835            6 
 1009000   0.86582674   -8.0158233    198.49402  0.016393626  0.016185936            9 
 1010000   0.84736998    -8.060287    197.66262  0.016308797   0.01616991            9 
 1011000   0.84299926   -8.0110095    198.20115  0.016337055  0.016153992            9 
 1012000   0.84270136   -8.0316456    197.81169  0.016288841  0.016138099            7 
 1013000   0.84506887   -8.0154153     198.6918  0.016345163   0.01612223            6 
 1014000   0.84219732   -8.0431803    198.74865  0.016333715  0.016106363            2 
 1015000   0.84407714   -8.0465911    198.08702  0.016263302  0.016090435            8 
 1016000    0.8626025   -7.9749615    198.78444  0.016304498  0.016074562            7 
 1017000   0.85233364   -8.0169758    198.25424  0.016245021  0.016058806           13 
 1018000   0.84341482   -8.0399046    198.41898  0.016242549  0.016043051           13 
 1019000   0.86637181   -8.0640796    198.23314  0.016211411  0.016027142           14 
 1020000   0.82488252   -8.0827099    198.43125  0.016211704  0.016011117           29 
 1021000   0.84635611   -8.0672872    198.03443  0.016163437  0.015995139           26 
 1022000   0.85271152   -8.0735902    198.02993  0.016147254  0.015979105           56 
 1023000   0.87136896   -8.0887813    198.07274  0.016134958  0.015963148           24 
 1024000   0.82669858   -8.0657633    198.53225  0.016156595  0.015947185           10 
 1025000    0.8283594   -8.0565181    198.68701  0.016153415  0.015931434           20 
 1026000   0.82481161   -8.0702117    198.22698  0.016100307  0.015915661           21 
 1027000   0.82406673   -8.0584031     198.4904  0.016106005  0.015899928           11 
 1028000   0.83295774   -8.0622651    198.54953   0.01609513  0.015884104           23 
 1029000   0.85227079   -8.0860689    198.22071   0.01605286  0.015868289           15 
 1030000    0.8412743   -8.0855505     198.1069  0.016028066  0.015852433           19 
 1031000   0.84174661   -8.0560847     198.7518  0.016064646  0.015836714           18 
 1032000   0.83541399   -8.0543143    198.96051  0.016065932  0.015821003           39 
 1033000   0.83553967   -8.0552967    198.40294    0.0160054  0.015805318           26 
 1034000   0.84926148   -8.0514788    199.00511  0.016038452  0.015789667           34 
 1035000   0.85265516   -8.1125301    198.91491  0.016015693   0.01577402           25 
 1036000    0.8495608   -8.1047827    198.23192  0.015945296  0.015758212           35 
 1037000   0.82064319   -8.0600517    198.58233  0.015958078  0.015742493           35 
 1038000   0.81267472   -8.0994761    199.08517  0.015983074  0.015726818           31 
 1039000   0.83329609   -8.1163283     198.5279  0.015922995  0.015711126           27 
 1040000     0.833648   -8.0769132    198.69626  0.015921175  0.015695411           15 
 1041000   0.83789946   -8.1048688     198.0218  0.015851889  0.015679642           17 
 1042000     0.859051   -8.1118292    198.51244  0.015875915  0.015663827           17 
 1043000   0.84432078   -8.0587816    199.43441  0.015934356  0.015648154           15 
 1044000    0.8503159   -8.0598908    198.78541   0.01586729  0.015632506           34 
 1045000   0.83935884   -8.1453239     198.2462  0.015809107  0.015616893           49 
 1046000   0.83183875    -8.104696    198.57279  0.015820012  0.015601293           46 
 1047000   0.82493489   -8.0811941    198.81609  0.015824267  0.015585679           45 
 1048000   0.83394666   -8.0925358    198.40892  0.015776791  0.015570128           52 
 1049000   0.83358835   -8.1115678    198.61819  0.015778375  0.015554508           56 
 1050000   0.83154872   -8.1001795    199.11226   0.01580256  0.015538985           45 
 1051000    0.8444898   -8.1188678    199.06287  0.015783609  0.015523449           55 
 1052000   0.84014119   -8.1077209    199.13548  0.015774357  0.015507962           77 
 1053000   0.81813283   -8.0919996    199.25953  0.015769194  0.015492463           74 
 1054000   0.83733343   -8.1105507    198.87952  0.015724187  0.015476975           65 
 1055000   0.83404701   -8.1515894    198.86208  0.015707905  0.015461494           85 
 1056000     0.822769    -8.127662    198.82354  0.015689989  0.015446027           46 
 1057000   0.82549995   -8.1184782    199.12377  0.015698815  0.015430544           55 
 1058000   0.82595532   -8.1418368    198.81209  0.015659427  0.015415122           62 
 1059000   0.82570209   -8.1259978    199.24649  0.015678824  0.015399672           68 
 1060000   0.81885432   -8.1457367    198.76263  0.015625993  0.015384223           55 
 1061000   0.83794325   -8.1206028    199.25014  0.015649556  0.015368796           15 
 1062000   0.82341156   -8.1073706    199.37368  0.015644513  0.015353374           54 
 1063000   0.83592972   -8.1559776    199.10338  0.015608606  0.015337911          107 
 1064000   0.83996518   -8.1571384    198.90016   0.01557802  0.015322452           75 
 1065000   0.81715484   -8.1217146    199.14992  0.015582936  0.015307046          145 
 1066000   0.83875276   -8.1597905    199.43834  0.015590864    0.0152917          164 
 1067000   0.81187134   -8.1408506    199.14515  0.015553354  0.015276357           94 
 1068000   0.84544215   -8.1334821    199.20542  0.015543494  0.015261033          140 
 1069000   0.82156169   -8.1316157    199.31002  0.015537108  0.015245706           93 
 1070000   0.82792193   -8.1310757    199.13946  0.015509304  0.015230422           80 
 1071000   0.83712619   -8.1430767    199.48002  0.015521321  0.015215123           80 
 1072000    0.8322163    -8.164862    199.55486   0.01551266  0.015199842           90 
 1073000   0.80741553   -8.1534449    199.38763  0.015485215  0.015184557           98 
 1074000   0.81584541   -8.1257546    199.20307  0.015456477  0.015169302          113 
 1075000   0.81413015   -8.1567308    198.94212   0.01542187  0.015153932          115 
 1076000   0.82092501   -8.1800474    198.59465  0.015380627  0.015138509           97 
 1077000   0.82515515   -8.1435006    198.88986  0.015389188  0.015123214           76 
 1078000   0.82072967   -8.1236769    199.32164   0.01540829  0.015108006           88 
 1079000   0.82517351    -8.139252    199.39018  0.015399304  0.015092793           81 
 1080000   0.81533997   -8.1560404    199.30073  0.015378143  0.015077595           87 
 1081000   0.84705617   -8.1435384    199.18866  0.015355277  0.015062367          115 
 1082000   0.83296102   -8.1219615    199.63503  0.015375464  0.015047164           79 
 1083000    0.8347275   -8.1365042    199.64343  0.015361913   0.01503199          116 
 1084000   0.81368556   -8.1487496    199.16985  0.015311335   0.01501688           76 
 1085000   0.81651388    -8.116801    199.46904  0.015320203  0.015001785          129 
 1086000   0.82766768   -8.1568833    199.36401  0.015298036  0.014986608          127 
 1087000   0.80316809   -8.1664845    198.99073  0.015255346  0.014971393          128 
 1088000     0.830107   -8.1799565    199.01509   0.01524319  0.014956169          126 
 1089000   0.85197182   -8.1758691    199.48146   0.01526488  0.014940922          131 
 1090000   0.80223866   -8.1599634    199.11959   0.01522321  0.014925737          119 
 1091000   0.80327408   -8.1305551    199.73801  0.015256493   0.01491059          128 
 1092000   0.82406537   -8.1678095    199.14435  0.015197219  0.014895469          133 
 1093000   0.81990678   -8.1617778    199.46697  0.015207912  0.014880417          135 
 1094000    0.8162082   -8.1584894    199.13469    0.0151687  0.014865263          150 
 1095000    0.8085017   -8.1692906     199.5227  0.015184376  0.014850097          108 
 1096000   0.82092477   -8.1975452    198.96145  0.015127848  0.014834972          158 
 1097000   0.81843442   -8.1618544    199.27175  0.015137629  0.014819828          150 
 1098000    0.8091442   -8.2042959    199.25478  0.015122555  0.014804738          144 
 1099000   0.81717136   -8.1761581    199.59984  0.015134959  0.014789653          175 
 1100000   0.81595555   -8.1608986    199.80835  0.015136996  0.014774591          157 
 1101000   0.82324046   -8.1972417    199.50138  0.015100014  0.014759579          135 
 1102000   0.81562168   -8.1915055    199.29297  0.015070551  0.014744563          152 
 1103000   0.78819454    -8.183051     199.9474  0.015106331  0.014729547          178 
 1104000   0.80053414   -8.2252162    199.14342  0.015031961  0.014714589          152 
 1105000   0.81565027   -8.2057419    199.38377  0.015036484  0.014699632          166 
 1106000   0.79334381   -8.1661891    199.94913  0.015065486  0.014684632          160 
 1107000   0.80775043   -8.2184278    199.43596  0.015013246  0.014669661          190 
 1108000   0.82211523    -8.223325    199.21103  0.014982779  0.014654695          185 
 1109000   0.81373171   -8.1890707    199.65078  0.015002313  0.014639757          170 
 1110000   0.81875678   -8.2052287    198.73299  0.014919894    0.0146248          179 
 1111000   0.81436688   -8.2191714    199.19863  0.014941391   0.01460985          188 
 1112000   0.81121956   -8.1828087    199.77159  0.014970893  0.014594971          240 
 1113000   0.79779565   -8.2116482    199.43983  0.014932602  0.014580094          220 
 1114000   0.81081136   -8.2172549     199.6536  0.014935188  0.014565201          212 
 1115000    0.8104474   -8.2130476      199.409  0.014903513  0.014550293          202 
 1116000    0.8063216   -8.1949661    199.37524  0.014887637  0.014535478          208 
 1117000   0.82587189   -8.2108752     199.8444  0.014909311  0.014520619          248 
 1118000   0.81162649   -8.2388443    199.21076  0.014848745  0.014505789          269 
 1119000   0.80653241   -8.2302688    199.39126  0.014848917  0.014490924          296 
 1120000   0.81703725   -8.2605493    198.79402  0.014791222  0.014476021          358 
 1121000   0.80689528   -8.2722282    199.04081  0.014796373  0.014461087          298 
 1122000   0.81082924    -8.239921    199.27179  0.014800341  0.014446233          306 
 1123000   0.81373872   -8.2339831     199.8826  0.014832487  0.014431415          285 
 1124000   0.81926734   -8.2573235    199.07286  0.014759257  0.014416543          311 
 1125000   0.80432365    -8.248861    199.14486  0.014751471  0.014401727          369 
 1126000   0.81391574   -8.2594784     199.2926  0.014749304  0.014386929          386 
 1127000   0.78838001   -8.2526706    199.52736  0.014753576  0.014372108          359 
 1128000   0.80839644   -8.2432522    199.31681  0.014724942  0.014357288          359 
 1129000   0.81516004   -8.2591311    199.42147  0.014719624  0.014342463          417 
 1130000   0.80630465   -8.2680225    199.11722   0.01468416  0.014327654          433 
 1131000   0.79241835   -8.2638421    199.36998  0.014689801   0.01431282          410 
 1132000   0.81550922   -8.2477143    199.55079  0.014690134  0.014298058          403 
 1133000   0.80349339   -8.2523943    199.82757  0.014697526  0.014283331          437 
 1134000   0.79143851   -8.2959192    199.14418  0.014634346  0.014268552          452 
 1135000    0.7897274    -8.281593    199.24418  0.014628794  0.014253786          457 
 1136000   0.80472905   -8.2654506    199.39821  0.014627216  0.014238992          490 
 1137000   0.80077747   -8.2714979    199.35237  0.014610992   0.01422422          501 
 1138000   0.78115272   -8.2515404    199.02493  0.014574175    0.0142095          496 
 1139000   0.81626525   -8.2864976    198.98634  0.014558556   0.01419479          541 
 1140000   0.80372071   -8.3161368    198.82598  0.014534063  0.014180033          589 
 1141000   0.78884602   -8.3198697    198.73686  0.014514816  0.014165246          581 
 1142000   0.80684437   -8.2878763    198.72354  0.014501134  0.014150415          595 
 1143000   0.81197381   -8.3226993    198.78508  0.014492934  0.014135615          585 
 1144000   0.80338495   -8.3256661    199.14567  0.014506532  0.014120804          602 
 1145000   0.80699914   -8.3586883    199.17033  0.014495657   0.01410602          609 
 1146000   0.81127947   -8.3409801    198.93431  0.014465846  0.014091213          637 
 1147000   0.80454267   -8.3551059    198.63407  0.014431421  0.014076385          624 
 1148000   0.77328381   -8.3083231    198.97201  0.014443381  0.014061593          659 
 1149000   0.80169879   -8.3403299    199.08981  0.014439354  0.014046876          619 
 1150000   0.79297639   -8.3427456    198.45471  0.014380776  0.014032134          600 
 1151000   0.81073703    -8.326333    199.12843   0.01441706  0.014017427          622 
 1152000    0.7813806   -8.3226529     198.6942  0.014373134  0.014002701          630 
 1153000    0.7818551   -8.3074844    199.06989  0.014387821  0.013987992          624 
 1154000   0.79929832   -8.3635651    198.64422  0.014344615   0.01397328          681 
 1155000   0.78507645   -8.3322583    198.67586  0.014334478  0.013958517          595 
 1156000   0.79976109   -8.3412548    198.93427  0.014340706  0.013943807          641 
 1157000   0.80070099   -8.3809051    198.73369  0.014313864  0.013929121          693 
 1158000   0.78607486   -8.3470338    199.00966  0.014321363  0.013914437          678 
 1159000   0.81177239   -8.3909772    198.52062  0.014273844  0.013899768          664 
 1160000   0.78538382   -8.3393555    198.78082  0.014280231   0.01388519          718 
 1161000   0.79113014   -8.3463987     198.9002    0.0142765  0.013870551          711 
 1162000   0.79533297   -8.3420288    198.90539  0.014264586  0.013855936          708 
 1163000    0.7843706   -8.3752088    198.67382  0.014235728  0.013841351          724 
 1164000   0.78710593   -8.3557482      198.644  0.014221363  0.013826793          800 
 1165000   0.78823832   -8.3514058    198.70479  0.014213505   0.01381215          782 
 1166000    0.7919157   -8.3678608    198.40754   0.01418007  0.013797522          826 
 1167000   0.77360428   -8.3820822    198.75558  0.014192772  0.013782906          919 
 1168000   0.77749257   -8.3631865    199.06823  0.014202927  0.013768314          852 
 1169000   0.80168607   -8.3850174    199.02655  0.014187806  0.013753772          923 
 1170000    0.7804642   -8.3965302    198.56557  0.014142847  0.013739218          982 
 1171000   0.77244519   -8.4079021    198.94925  0.014158073  0.013724635         1015 
 1172000   0.79005937    -8.410806     198.1487  0.014089071  0.013710085          977 
 1173000   0.78721923   -8.3940161    198.84854  0.014126779  0.013695442         1047 
 1174000   0.79051489   -8.4152792    198.55461  0.014093882  0.013680866         1127 
 1175000   0.77042801   -8.4145504    198.00066    0.0140426   0.01366623         1152 
 1176000   0.78961897   -8.3899993    197.86791  0.014021252  0.013651572         1117 
 1177000   0.78287957   -8.4514047    197.92987  0.014013726  0.013636899         1175 
 1178000   0.78486326   -8.4473049    198.01817  0.014008076  0.013622208         1224 
 1179000   0.77722532    -8.464982    197.61979  0.013968037  0.013607525         1219 
 1180000   0.77411661   -8.4373427     197.8627  0.013973355  0.013592804         1233 
 1181000   0.79767289   -8.4796781    197.32198  0.013923369  0.013578093         1364 
 1182000   0.79824012   -8.4666449     197.5072  0.013924647   0.01356334         1386 
 1183000   0.78106635   -8.4494448    197.83294  0.013935823  0.013548618         1402 
 1184000   0.77026983   -8.4809816    197.77462  0.013919948  0.013533936         1447 
 1185000   0.76950329   -8.4720938     197.8198  0.013911378  0.013519214         1490 
 1186000   0.78940966   -8.4999213     197.4518  0.013873791   0.01350451         1570 
 1187000   0.79163599   -8.4977923    197.49564  0.013865181  0.013489762         1659 
 1188000   0.77058062   -8.4987762    197.15384  0.013829534   0.01347502         1759 
 1189000    0.7914227   -8.5288543    197.23018  0.013823254  0.013460285         1735 
 1190000   0.78978719   -8.5203559    197.41159  0.013824341  0.013445529         1731 
 1191000    0.7901949   -8.5319858    196.76372  0.013767403  0.013430749         1712 
 1192000   0.77802568   -8.5144661    197.28079  0.013792002  0.013415973         1761 
 1193000   0.76947467   -8.5476703    197.01146  0.013761628   0.01340122         1827 
 1194000   0.77031107   -8.5346256    197.04982  0.013752779  0.013386445         1815 
 1195000   0.77591743   -8.5411399    196.84371  0.013726898  0.013371647         1820 
 1196000   0.77122947   -8.5325556    197.01706  0.013727499   0.01335685         1858 
 1197000   0.77233653   -8.5294767    196.80278  0.013701112  0.013342079         1900 
 1198000   0.79716649   -8.5440378    196.60512  0.013675926  0.013327282         1955 
 1199000   0.77523302     -8.58918    196.68549  0.013670106  0.013312482         2048 
 1200000   0.76825174   -8.5562877    196.38019  0.013637513  0.013297685         1975 
 1201000   0.77589757   -8.5760253    196.52327  0.013636086  0.013282901         2061 
 1202000   0.77414373   -8.5825567    196.58531  0.013629043  0.013268088         2031 
 1203000   0.77698796    -8.594584    196.42989  0.013606947  0.013253258         2020 
 1204000   0.78624798   -8.5819944    196.71497  0.013615377   0.01323844         2086 
 1205000   0.76728971   -8.5869932    196.26256  0.013572791   0.01322366         2073 
 1206000   0.77614807   -8.6004793    196.61254   0.01358572  0.013208849         2149 
 1207000   0.76874244   -8.5983371    196.24347  0.013548983   0.01319408         2113 
 1208000   0.78163594   -8.6015075    196.28229  0.013540445   0.01317931         2154 
 1209000   0.76292005   -8.6053414    196.23615  0.013526065  0.013164494         2238 
 1210000   0.77281837   -8.6305256    196.47664  0.013531449  0.013149717         2262 
 1211000   0.75925432   -8.6366108    195.62756  0.013461847   0.01313488         2337 
 1212000   0.77811653   -8.6640285    195.81254  0.013463458  0.013120018         2427 
 1213000   0.75605777   -8.6731088    195.77303  0.013449645  0.013105158         2470 
 1214000   0.77149036   -8.6676106    195.48299  0.013418656   0.01309031         2493 
 1215000    0.7579026   -8.6669572    195.61633  0.013416758  0.013075458         2530 
 1216000   0.75544543   -8.6953237    195.32342  0.013385651  0.013060584         2645 
 1217000   0.79215294   -8.7000262    195.29289  0.013372561   0.01304567         2750 
 1218000   0.75575798   -8.7105836    195.19364  0.013354792  0.013030716         2726 
 1219000   0.78182613   -8.7388957    195.07967  0.013336045  0.013015726         2820 
 1220000   0.76227025   -8.7378105     195.0274  0.013321544  0.013000789         2867 
 1221000   0.75844059   -8.7627695    194.91871  0.013303215  0.012985805         2982 
 1222000   0.76836155    -8.770646    195.20938  0.013312151  0.012970822         3025 
 1223000   0.74800965   -8.7786023    194.95272  0.013283777  0.012955834         3117 
 1224000   0.76738674   -8.7796485    194.63613  0.013251371  0.012940866         3089 
 1225000   0.75137324   -8.7545181    194.51907   0.01323259  0.012925932         3120 
 1226000   0.78245138   -8.7773523    194.18138  0.013198843  0.012910962         3159 
 1227000   0.74451154   -8.7796314    194.32146    0.0131976  0.012896025         3114 
 1228000   0.74410203   -8.7916844    195.00212  0.013233043  0.012881076         3172 
 1229000    0.7630714   -8.7900501    194.69124  0.013201196  0.012866142         3216 
 1230000   0.76371355   -8.7929452    194.75044  0.013194474   0.01285122         3249 
 1231000   0.75529597   -8.8144609    194.43044  0.013162093  0.012836262         3261 
 1232000   0.75993351   -8.8285509     193.8739  0.013113765  0.012821301         3265 
 1233000    0.7612015   -8.8374613    194.17337  0.013123369  0.012806326         3302 
 1234000   0.76420461   -8.8829738     193.6346   0.01307635  0.012791335         3370 
 1235000   0.74839496   -8.8438909    193.65432  0.013067093  0.012776353         3382 
 1236000   0.76935847   -8.8715896    194.10225  0.013086721  0.012761385         3438 
 1237000   0.77495697   -8.8582261    194.16824  0.013080588  0.012746419         3405 
 1238000   0.76121903   -8.8713536    193.73041   0.01304055  0.012731428         3437 
 1239000   0.76339966   -8.8638041    193.86668   0.01303919  0.012716436         3496 
 1240000   0.76392365   -8.8775364    193.71817  0.013018695  0.012701475         3460 
 1241000   0.75680411   -8.8649894    193.95872  0.013024357  0.012686499         3503 
 1242000   0.75672291   -8.9101391    193.19154  0.012962395  0.012671545         3594 
 1243000   0.74891346   -8.8811536    194.24495   0.01302259   0.01265658         3536 
 1244000   0.75946597    -8.891616    193.10282  0.012935612  0.012641627         3581 
 1245000   0.75988622   -8.9075667    193.65724  0.012962332  0.012626705         3607 
 1246000   0.73317984   -8.9109548    193.57847  0.012946661  0.012611775         3628 
 1247000   0.78188216    -8.908491    193.47318  0.012929242  0.012596859         3595 
 1248000   0.75379662   -8.9366148    193.15799  0.012897836  0.012581981         3596 
 1249000   0.75192322   -8.9183682    193.69628  0.012923424  0.012567132         3615 
 1250000   0.77266256   -8.9140445    193.41665  0.012894444  0.012552278         3651 
 1251000   0.74116925   -8.9278952    193.05325  0.012859929  0.012537419         3679 
 1252000   0.74772734    -8.907148    193.10937  0.012853392  0.012522587         3686 
 1253000   0.76833828   -8.9171696    193.67441  0.012880714   0.01250776         3674 
 1254000   0.75195244   -8.9667912    193.06662  0.012830052  0.012492953         3648 
 1255000   0.77298099    -8.943768    193.24082  0.012831396  0.012478161         3698 
 1256000   0.75672364   -8.9577185    193.31439  0.012826061  0.012463376         3710 
 1257000   0.72807875    -8.952424    193.26673  0.012812697  0.012448624         3662 
 1258000    0.7608969   -8.9453838    193.60872  0.012825167  0.012433898         3693 
 1259000    0.7401992   -8.9597263     192.8255  0.012763139  0.012419178         3702 
 1260000   0.74179004   -8.9458688    193.51365  0.012798522  0.012404502         3673 
 1261000   0.75477348   -8.9439907    193.18253   0.01276649  0.012389828         3713 
 1262000   0.73617279   -8.9652829    192.85131  0.012734503   0.01237517         3690 
 1263000   0.77579497   -8.9581448    193.13628  0.012743223  0.012360526         3654 
 1264000   0.75534416   -8.9629733    192.57104  0.012695875  0.012345886         3660 
 1265000   0.76346236   -8.9691801    193.23962  0.012729883   0.01233126         3688 
 1266000   0.74862563   -8.9639609    192.89602   0.01269721  0.012316638         3718 
 1267000   0.74461992   -8.9700595     192.7404  0.012676954  0.012302042         3694 
 1268000   0.74554465   -8.9473958    192.95486   0.01268105   0.01228748         3674 
 1269000   0.73238408   -8.9845334    192.74602  0.012657343  0.012272933         3727 
 1270000   0.74178676   -8.9772513    193.28297  0.012682609  0.012258398         3713 
 1271000   0.75162085   -8.9654419    192.69536  0.012634104   0.01224389         3715 
 1272000    0.7336715   -8.9729172    193.07807  0.012649245  0.012229396         3767 
 1273000   0.75472197   -8.9529459    193.35303  0.012657308  0.012214925         3693 
 1274000   0.74505451    -8.972343    192.76039  0.012608608  0.012200482         3692 
 1275000   0.73511641   -8.9920068    192.83144  0.012603362  0.012186057         3751 
 1276000   0.75779522   -8.9847862    193.23267  0.012619689  0.012171645         3674 
 1277000   0.75291597    -8.973321    192.98667  0.012593753   0.01215725         3713 
 1278000   0.74110761   -8.9791628    193.15865  0.012595113  0.012142862         3701 
 1279000   0.73611451   -8.9996211    192.81581  0.012562927  0.012128503         3776 
 1280000   0.74673756     -8.98664    192.63072  0.012541063   0.01211416         3715 
 1281000   0.74749132   -8.9926301    192.74247  0.012538542  0.012099814         3716 
 1282000   0.74398238    -8.978147    193.44296  0.012574296  0.012085506         3728 
 1283000   0.74202276   -8.9768188    192.67238  0.012514444  0.012071221         3747 
 1284000   0.72842489     -8.99427    192.73815  0.012508966  0.012056934         3741 
 1285000   0.72124775   -9.0000943    192.57749  0.012488812  0.012042663         3766 
 1286000   0.73579454   -9.0015608    192.50718  0.012474545  0.012028418         3741 
 1287000   0.72214896   -9.0144051    192.38393  0.012456872  0.012014188         3726 
 1288000   0.73948931   -9.0020449    192.76073   0.01247158  0.011999976         3782 
 1289000   0.73376632   -9.0100881    192.79315     0.012464  0.011985778         3739 
 1290000    0.7427145   -9.0083899    192.63147  0.012443894  0.011971607         3750 
 1291000   0.75127443   -9.0224924     192.7287   0.01244053  0.011957461         3761 
 1292000   0.73436603   -9.0116904    193.00709  0.012448858  0.011943336         3714 
 1293000   0.73759395   -9.0194253    192.67836  0.012418043  0.011929232         3771 
 1294000   0.73655774   -9.0114452    192.69544  0.012409547  0.011915148         3756 
 1295000   0.73972944   -9.0079442    192.72675  0.012401978  0.011901069         3719 
 1296000   0.73052364   -9.0161802    192.53727  0.012380225  0.011887002         3729 
 1297000   0.72300733   -8.9693692    192.74995  0.012384345  0.011872974         3728 
 1298000   0.73635828   -9.0005475    192.71972  0.012372864   0.01185899         3748 
 1299000   0.74412163   -9.0227095    192.49301  0.012348795  0.011844999         3769 
 1300000   0.73037879   -9.0108059    192.42145  0.012334708  0.011831047         3746 
 1301000    0.7377737     -8.97982    192.78402  0.012348451  0.011817105         3754 
 1302000   0.74469521   -9.0302997    192.32341  0.012309486  0.011803187         3731 
 1303000   0.72724034   -9.0228691    192.80182  0.012330636  0.011789293         3704 
 1304000   0.72371591   -9.0084095    192.88283  0.012326357  0.011775399         3724 
 1305000   0.73099174   -9.0228796    192.43016  0.012288005  0.011761521         3754 
 1306000   0.72935564   -9.0207168     192.9656  0.012312761   0.01174767         3747 
 1307000   0.73143374   -9.0290567    192.26846  0.012258892  0.011733847         3751 
 1308000   0.72891432   -9.0014386    192.56245   0.01226825  0.011720031         3743 
 1309000   0.71741273   -9.0249723    192.34403  0.012244973  0.011706263         3737 
 1310000   0.70717231   -9.0335084    192.69187  0.012257752  0.011692485         3761 
 1311000   0.72493606   -9.0406638    192.59408  0.012242187  0.011678744         3767 
 1312000   0.71457279   -9.0397828    192.35417  0.012217617  0.011665019         3766 
 1313000   0.73072873   -9.0331526    192.32613  0.012206533  0.011651309         3776 
 1314000   0.71783975   -9.0225033    192.69978   0.01222094  0.011637598         3773 
 1315000   0.72411033   -9.0187159    192.60208  0.012205455  0.011623897         3791 
 1316000   0.71962153   -9.0416216    191.89966  0.012151701  0.011610222         3808 
 1317000   0.72753544   -9.0332582    192.57495  0.012185203  0.011596561         3818 
 1318000   0.72780742   -9.0347094    192.57645  0.012176053  0.011582922         3778 
 1319000   0.72251085   -9.0523837    192.44855  0.012158741  0.011569297         3790 
 1320000   0.72639407   -9.0539457    192.34684  0.012143109  0.011555688         3762 
 1321000   0.73666511    -9.039971     192.2646  0.012128728    0.0115421         3759 
 1322000   0.73636005   -9.0384429    192.22736  0.012117206  0.011528537         3747 
 1323000   0.72048223   -9.0574977    192.22843  0.012108115  0.011515002         3752 
 1324000   0.72740836   -9.0479999     192.5637  0.012120072  0.011501472         3772 
 1325000    0.7254924   -9.0407277    192.67453  0.012117895  0.011487965         3788 
 1326000   0.72810485   -9.0579374    192.30815  0.012085731  0.011474473         3793 
 1327000   0.71809567   -9.0537788    192.27248  0.012074383  0.011461022         3820 
 1328000   0.72491538   -9.0483514    192.13252  0.012056508  0.011447572         3800 
 1329000   0.73579215   -9.0581316    192.19146  0.012051133  0.011434148         3795 
 1330000   0.71782809   -9.0643412    192.40858  0.012055675  0.011420739         3817 
 1331000   0.71632269   -9.0542572    192.21607  0.012034565   0.01140734         3770 
 1332000   0.71882347   -9.0393588    192.37364  0.012035388   0.01139397         3783 
 1333000   0.72179438   -9.0556401    192.30975  0.012022365  0.011380622         3827 
 1334000   0.72880508   -9.0458783    192.31483   0.01201367   0.01136729         3770 
 1335000   0.72566943   -9.0388074    192.11089  0.011991941   0.01135397         3763 
 1336000   0.72292719    -9.054873      191.948  0.011972804  0.011340676         3800 
 1337000   0.71071932   -9.0441716     192.3872  0.011991224    0.0113274         3808 
 1338000   0.71845745   -9.0592188    192.28903  0.011976148  0.011314138         3790 
 1339000   0.72821496   -9.0639426    192.14404   0.01195818  0.011300921         3784 
 1340000    0.7033438   -9.0735696    192.25357  0.011956068  0.011287701         3790 
 1341000   0.72952293   -9.0468792    192.09139  0.011937074  0.011274489         3814 
 1342000   0.72581988   -9.0572957    192.27476  0.011939565  0.011261299         3813 
 1343000   0.73214173   -9.0684046    192.03606  0.011915863  0.011248112         3785 
 1344000   0.71727632   -9.0639093    192.19537  0.011916876  0.011234951         3832 
 1345000   0.71901124   -9.0950812    191.65349  0.011874442  0.011221798         3832 
 1346000   0.72058245   -9.0737515    191.58033   0.01186109  0.011208674         3828 
 1347000    0.7371543   -9.0849707    191.99828  0.011878141  0.011195555         3819 
 1348000   0.71759727   -9.0642405    192.36947  0.011892277  0.011182468         3787 
 1349000    0.7216409    -9.084046    191.99274  0.011860189  0.011169393         3801 
 1350000   0.71837822   -9.0841881    192.12947  0.011859844   0.01115635         3837 
 1351000   0.73152912   -9.0671968    191.86313  0.011834637  0.011143317         3834 
 1352000   0.71524178   -9.0795708     191.9587  0.011831774  0.011130313         3838 
 1353000   0.70455628   -9.0896131    191.93614   0.01182164  0.011117329         3822 
 1354000   0.70320891   -9.0846662    191.90147  0.011810775  0.011104348         3840 
 1355000   0.72367099   -9.0659625    192.06017  0.011811819  0.011091397         3830 
 1356000   0.70789389   -9.0707042    192.31661  0.011818868  0.011078468         3834 
 1357000   0.70734633   -9.0872842    192.08692  0.011796052  0.011065544         3801 
 1358000   0.70958054   -9.0931733     192.3508  0.011803559  0.011052621         3825 
 1359000   0.72591039   -9.0801449    191.91174  0.011767951   0.01103973         3835 
 1360000   0.71292854     -9.11006    191.72589   0.01174791  0.011026858         3819 
 1361000     0.719799   -9.1069015    191.82378  0.011745272  0.011014002         3847 
 1362000   0.71250232    -9.089694    191.75623  0.011732515  0.011001162         3833 
 1363000   0.71011712   -9.0736301    191.79924  0.011726537  0.010988329         3801 
 1364000   0.72630593   -9.0968102    191.83063  0.011719857  0.010975528         3824 
 1365000    0.7028998   -9.0866192    191.97378  0.011720011  0.010962747         3841 
 1366000   0.70788794   -9.0722534    192.03427  0.011715121  0.010949988         3821 
 1367000   0.71838513   -9.0957319    191.63554  0.011682244  0.010937259         3822 
 1368000   0.69581242   -9.1076713    191.93182  0.011691753  0.010924542         3816 
 1369000   0.69968263   -9.0830768    192.43565  0.011713882  0.010911832         3843 
 1370000   0.70732295   -9.1112848    191.85431   0.01166997  0.010899151         3821 
 1371000   0.69978537   -9.0891314    192.01299  0.011671103  0.010886479         3806 
 1372000   0.70855931   -9.1179327    191.77243  0.011647986  0.010873831         3821 
 1373000   0.69676755   -9.0960983    191.68734  0.011634337  0.010861196         3859 
 1374000    0.7009101   -9.1045835     191.8656  0.011636682  0.010848582         3834 
 1375000   0.71172198   -9.1103545    191.74099  0.011620666  0.010835986         3834 
 1376000    0.7148679   -9.0851136    191.87412  0.011620284  0.010823408         3820 
 1377000   0.70417326   -9.0918895    192.15721  0.011628977  0.010810851         3832 
 1378000   0.68996159   -9.1316008    191.20804  0.011563138  0.010798302         3828 
 1379000   0.69461187    -9.121447    191.94855  0.011599502  0.010785777         3850 
 1380000   0.69110324   -9.0876239    191.71476  0.011576978  0.010773267         3833 
 1381000   0.71506257   -9.1101124    191.71882   0.01156884  0.010760762         3808 
 1382000   0.70050158   -9.1114314    191.86012  0.011568989  0.010748273         3839 
 1383000   0.70543328   -9.1270378    191.46432  0.011536775   0.01073581         3834 
 1384000   0.70574613   -9.1098205    191.59437   0.01153627  0.010723379         3822 
 1385000   0.70197292   -9.1284912    191.72897  0.011536039  0.010710954         3865 
 1386000   0.69264032   -9.1354587     191.6866  0.011525168  0.010698542         3824 
 1387000   0.69947889    -9.111909    191.92717  0.011531312   0.01068616         3824 
 1388000   0.69831109   -9.0988924    191.89076  0.011520819  0.010673791         3826 
 1389000   0.70726046   -9.1161348    191.96269   0.01151684  0.010661447         3843 
 1390000   0.70137857   -9.1517474    191.53377   0.01148284  0.010649126         3842 
 1391000   0.70226024   -9.1131519    191.66567  0.011482487   0.01063682         3814 
 1392000   0.69761536   -9.1196515    191.40282  0.011458502  0.010624542         3823 
 1393000   0.69565573   -9.1094303     191.7699  0.011472236  0.010612265         3845 
 1394000   0.69022148   -9.1551994    191.85962   0.01146937  0.010600019         3827 
 1395000    0.6918702   -9.1442202    191.59145  0.011445128  0.010587783         3854 
 1396000   0.70275245     -9.13025    191.53517   0.01143357   0.01057557         3843 
 1397000   0.69708483   -9.1131672    191.70986  0.011435806  0.010563391         3829 
 1398000   0.68455089   -9.1203811    191.55177  0.011418203  0.010551206         3847 
 1399000   0.71264682   -9.1311079    191.51842  0.011408055  0.010539043         3792 
 1400000   0.69865882   -9.1522819    191.59417  0.011404415  0.010526914         3856 
 1401000   0.70604561   -9.1217971    191.80647  0.011408903  0.010514778         3825 
 1402000   0.69928485   -9.0958628    192.01184  0.011412972   0.01050267         3810 
 1403000    0.7070579   -9.1214253    191.53223   0.01137635  0.010490585         3830 
 1404000   0.69180416   -9.1156033    191.30089  0.011354516  0.010478517         3826 
 1405000   0.70031558   -9.1211689    191.59763  0.011364035  0.010466462         3858 
 1406000    0.6766684   -9.1191045    191.31719  0.011339331  0.010454439         3838 
 1407000   0.69916312   -9.1274018    191.59445  0.011347693  0.010442406         3871 
 1408000   0.68751111   -9.1384269    191.29066  0.011321654  0.010430401         3844 
 1409000   0.68397209   -9.1197934    191.48744  0.011325257  0.010418411         3852 
 1410000   0.68970305   -9.1310672    191.73947   0.01133212  0.010406446         3839 
 1411000   0.68260426   -9.1495786    191.75968  0.011325282  0.010394494         3859 
 1412000   0.70229053   -9.1272225    191.63117  0.011309677  0.010382552         3847 
 1413000   0.68545873   -9.1410313    191.33766  0.011284363  0.010370642         3829 
 1414000   0.68970547   -9.1478097    191.29138  0.011273655  0.010358746         3859 
 1415000   0.69274723   -9.1227371    191.27435  0.011264685  0.010346866         3816 
 1416000   0.69182088   -9.1363458    191.68667  0.011280995  0.010335012         3817 
 1417000   0.70462495    -9.133359    191.20171  0.011244514  0.010323169         3820 
 1418000   0.68246611   -9.1255138     191.1319  0.011232481  0.010311345         3827 
 1419000   0.67933823   -9.1280097    191.99981  0.011275535  0.010299536         3845 
 1420000   0.68073228   -9.1412414    191.56957  0.011242346  0.010287747         3858 
 1421000   0.68695313   -9.1328724     191.7366  0.011244229  0.010275969         3832 
 1422000    0.6872803   -9.1436553    191.35433   0.01121392  0.010264205         3830 
 1423000   0.68743232   -9.1382321    191.33429  0.011204866  0.010252481         3800 
 1424000   0.68607874   -9.1344292    191.56306  0.011210385  0.010240752         3797 
 1425000   0.68220063   -9.1281496    191.15757  0.011178806  0.010229032         3859 
 1426000   0.67631774   -9.1586164    191.13197   0.01116947  0.010217351         3850 
 1427000    0.6705821    -9.133538    191.53654  0.011185269  0.010205671         3836 
 1428000   0.68894472   -9.1539939    191.33595   0.01116573  0.010194034         3853 
 1429000   0.67499386   -9.1662052    191.71452  0.011179993    0.0101824         3830 
 1430000   0.68854379   -9.1351936    191.35726  0.011151355  0.010170778         3827 
 1431000   0.67494295   -9.1590427    191.58082  0.011156582  0.010159179         3830 
 1432000   0.67847394   -9.1460832     191.4169  0.011139251    0.0101476         3847 
 1433000   0.68620621   -9.1513102    191.21001  0.011119447  0.010136025         3855 
 1434000   0.68564708   -9.1445759    191.33292  0.011118835  0.010124478         3858 
 1435000   0.68186503   -9.1381415    191.38506  0.011114115  0.010112945         3859 
 1436000   0.68056121   -9.1824812    191.46749  0.011111159  0.010101426         3824 
 1437000   0.67348221   -9.1502775    191.46932  0.011103533  0.010089934         3848 
 1438000   0.66368706    -9.145296    191.77421   0.01111348  0.010078461         3837 
 1439000   0.67835959   -9.1624291    191.23161  0.011074335  0.010066991         3858 
 1440000   0.65950115   -9.1303261    191.42506  0.011077839  0.010055551         3826 
 1441000    0.6566976   -9.1436547    191.34068  0.011065272  0.010044132         3832 
 1442000   0.66435483   -9.1446759    191.56706  0.011070681  0.010032725         3848 
 1443000   0.68327378   -9.1735403    191.45192  0.011056359  0.010021328         3837 
 1444000   0.67143003   -9.1524732     191.1986  0.011034084  0.010009962         3836 
 1445000   0.67793096   -9.1477839    191.43923  0.011040325 0.0099985913         3846 
 1446000   0.68449733    -9.129657    191.25416  0.011022024 0.0099872505         3866 
 1447000   0.68276955   -9.1396212    190.85981  0.010991696 0.0099759273         3866 
 1448000   0.66583006   -9.1236159    191.17786  0.011002409 0.0099646126         3836 
 1449000   0.67380376   -9.1430878    191.26265  0.010999692  0.009953314         3856 
 1450000   0.66492297   -9.1539191    191.19349  0.010988132 0.0099420264         3858 
 1451000   0.65154759   -9.1741881    191.60778  0.011004352 0.0099307526         3849 
 1452000   0.67035856   -9.1839816    191.09379  0.010967275 0.0099194945         3866 
 1453000   0.66265137    -9.182099    191.16572  0.010963852 0.0099082545         3856 
 1454000   0.66334556   -9.1596069    191.41434   0.01097056  0.009897025         3850 
 1455000   0.67282782   -9.1523176    191.29372  0.010956112  0.009885815         3859 
 1456000   0.68149137   -9.1628809    191.09293  0.010937096 0.0098746256         3866 
 1457000   0.67907462   -9.1517889    191.16674   0.01093381 0.0098634479         3831 
 1458000   0.67569124   -9.1677748    190.93529  0.010913083 0.0098522973         3849 
 1459000   0.67794984   -9.1563884     191.0888  0.010914371 0.0098411615         3870 
 1460000   0.66925436     -9.16157    190.91907  0.010897207 0.0098300366         3839 
 1461000   0.68569376     -9.19661    191.07888  0.010898864 0.0098189271         3855 
 1462000   0.66415619   -9.1929376    190.84853  0.010878279 0.0098078223         3870 
 1463000   0.66031206   -9.1766388    191.17486  0.010889431 0.0097967512         3851 
 1464000   0.67307574   -9.1667475    191.15676  0.010880963 0.0097856895         3858 
 1465000   0.65486983   -9.1809082    191.27018  0.010879987 0.0097746448         3854 
 1466000   0.67421863   -9.1715095    191.11504  0.010863747 0.0097636195         3849 
 1467000     0.651608   -9.1731867    191.15029  0.010858344 0.0097526056         3844 
 1468000   0.66670243   -9.1616081    191.43679  0.010867211 0.0097416165         3863 
 1469000   0.64763094   -9.1860062    190.92066  0.010830535 0.0097306432         3844 
 1470000   0.64829518   -9.1900558     191.2718  0.010843073 0.0097196784         3862 
 1471000   0.64008596   -9.1741028     190.7199  0.010804435 0.0097087244         3844 
 1472000   0.66557999   -9.1704046    191.14646  0.010821244 0.0096977947         3861 
 1473000   0.66648447   -9.1790094    191.40155   0.01082833 0.0096868803         3870 
 1474000   0.66320763   -9.1749699    191.39985  0.010820887 0.0096759751         3860 
 1475000   0.67317255    -9.175767    191.04713  0.010793623  0.009665096         3869 
 1476000   0.68189177   -9.1929304    191.05962  0.010787015 0.0096542426         3877 
 1477000   0.66624716   -9.1809855    191.13115  0.010783748 0.0096433894         3843 
 1478000   0.65158869   -9.1888969    190.81441  0.010758593 0.0096325531         3865 
 1479000   0.66363074   -9.1992556    190.79036  0.010749964 0.0096217316         3868 
 1480000   0.67217713    -9.197686    191.25987  0.010769137 0.0096109267         3851 
 1481000   0.65218509   -9.1877634    190.97387  0.010745773 0.0096001403         3861 
 1482000   0.65264202   -9.1926839    191.00189  0.010740097 0.0095893777         3830 
 1483000   0.65635761   -9.1608517    191.26915  0.010747873 0.0095786275         3850 
 1484000   0.64488478    -9.200297    190.95777  0.010723145 0.0095678853         3856 
 1485000   0.64398052   -9.1933904    190.74978  0.010704253 0.0095571548         3862 
 1486000   0.65740204   -9.2017259    190.90806  0.010705925 0.0095464474         3870 
 1487000   0.67126814   -9.1800208    191.13086  0.010711212 0.0095357472         3880 
 1488000   0.65755378   -9.1896018    190.86311  0.010689018 0.0095250646         3858 
 1489000   0.65959481   -9.2039058    190.54637  0.010664113 0.0095143846         3852 
 1490000   0.65513234   -9.1935171    191.06286  0.010685842  0.009503729         3863 
 1491000   0.65144789   -9.1762476    190.90571  0.010669892 0.0094930891         3856 
 1492000    0.6519243   -9.1811434    190.83276  0.010658666  0.009482468         3842 
 1493000   0.65010599   -9.1820966    190.79665  0.010649511 0.0094718579         3847 
 1494000   0.66381937   -9.2051197    190.82192  0.010643793 0.0094612698         3882 
 1495000   0.65061537   -9.1884621    190.86495  0.010639072 0.0094507035         3852 
 1496000   0.67531441   -9.1749236    190.85157  0.010631215 0.0094401464         3857 
 1497000   0.64595332   -9.1759137    191.17093  0.010641891 0.0094296039         3888 
 1498000   0.64656864    -9.201675    190.83343  0.010616012 0.0094190758         3885 
 1499000   0.64516955   -9.1929185    190.75278  0.010604446 0.0094085634         3874 
 1500000   0.66487361   -9.1728165    190.83493   0.01060194 0.0093980731         3843 
 1501000   0.65101034   -9.2093982    190.85022  0.010595726 0.0093876001         3858 
 1502000   0.66146457   -9.1819273    190.87837  0.010590234 0.0093771288         3832 
 1503000   0.64765106   -9.1885062    190.99127  0.010589447 0.0093666853         3863 
 1504000   0.65196646   -9.2033366    190.79574  0.010571573 0.0093562518         3855 
 1505000   0.64201996   -9.1878715    190.63742  0.010555782 0.0093458346         3854 
 1506000   0.65055221   -9.1882297    190.71413  0.010553018 0.0093354251         3833 
 1507000   0.64987967   -9.1896135    190.64957  0.010542445 0.0093250332         3867 
 1508000   0.64115518   -9.2103303    190.51945  0.010528263 0.0093146544         3878 
 1509000   0.65178195   -9.1892859    190.94134  0.010544585  0.009304301         3860 
 1510000   0.64861657   -9.2076811    190.95385  0.010538292 0.0092939637         3864 
 1511000   0.65177842    -9.191853    190.53968  0.010508476 0.0092836267         3859 
 1512000   0.65178308   -9.1992051    190.93884  0.010523525  0.009273314         3862 
 1513000   0.65634041    -9.196079    190.95662  0.010517549  0.009263013         3847 
 1514000   0.64148514   -9.2009765    190.86893  0.010505776 0.0092527332         3857 
 1515000   0.66035942   -9.1755707    190.95157  0.010503387 0.0092424577         3851 
 1516000   0.67135289    -9.194962    190.76055  0.010485958 0.0092322179         3839 
 1517000    0.6545008   -9.2106112    190.71993  0.010476814 0.0092219842         3846 
 1518000   0.64262425   -9.1974361    190.43699   0.01045438 0.0092117621         3859 
 1519000   0.64852606   -9.2187148    190.72715  0.010463416 0.0092015643         3878 
 1520000   0.64898367   -9.1841716    190.95133  0.010468823 0.0091913722         3866 
 1521000   0.64816649   -9.2094855    190.72961  0.010449792 0.0091811953         3870 
 1522000   0.64588536    -9.207367    190.81666  0.010447693 0.0091710256         3863 
 1523000     0.644033   -9.2330297    190.35246  0.010415433 0.0091608761         3849 
 1524000   0.64263674   -9.2092291    190.88219  0.010437565 0.0091507409         3848 
 1525000   0.65018997   -9.1971804     190.8096  0.010426754  0.009140618         3866 
 1526000   0.64139561   -9.2049233    190.84476  0.010421841  0.009130508         3836 
 1527000   0.63875145   -9.2172998    190.84118  0.010414821 0.0091204099         3897 
 1528000   0.63584108   -9.2065148    190.56265  0.010392815  0.009110331         3879 
 1529000   0.63149773   -9.2045821    190.72883  0.010395075 0.0091002766         3841 
 1530000   0.64180304    -9.208739    190.57887  0.010380113 0.0090902223         3835 
 1531000   0.64883499    -9.226297    190.42748  0.010365092 0.0090801944         3894 
 1532000    0.6520701    -9.222326    190.93371  0.010385863  0.009070195         3846 
 1533000   0.65155248   -9.2194198    190.58593  0.010360183 0.0090601949         3871 
 1534000   0.63367517   -9.1929915    191.01001  0.010376468 0.0090502117         3883 
 1535000   0.64692899   -9.2185587    190.33391  0.010333003  0.009040249         3844 
 1536000    0.6307865   -9.2243086    190.70952  0.010346654 0.0090302905         3858 
 1537000   0.65119692   -9.2228106     190.9681  0.010353941 0.0090203493         3869 
 1538000   0.64684407   -9.1969953    190.75755  0.010335801 0.0090104226         3884 
 1539000   0.62689535   -9.2194336    190.78693  0.010330676 0.0090005124         3849 
 1540000   0.62994721   -9.2136871    190.81848  0.010325676 0.0089906092         3889 
 1541000   0.63409387   -9.2275174    190.45561  0.010299352 0.0089807287         3878 
 1542000   0.63468502   -9.2198953    190.56855  0.010298776 0.0089708543         3842 
 1543000   0.66156546   -9.2195914    190.74616  0.010301694  0.008961002         3870 
 1544000   0.62838177   -9.2226413    190.63282  0.010288904 0.0089511589         3849 
 1545000   0.62579122   -9.2072968    190.80005  0.010291265 0.0089413393         3859 
 1546000   0.63615587   -9.2227262    190.39208  0.010262618  0.008931526         3861 
 1547000   0.63686502   -9.2196445    190.86152  0.010281271 0.0089217407         3846 
 1548000   0.63846717   -9.2162572    190.72354  0.010267202 0.0089119575         3870 
 1549000   0.64255049   -9.2186857    190.37153  0.010241636  0.008902198         3873 
 1550000   0.62147649   -9.2348944    190.40857   0.01023702 0.0088924384         3866 
 1551000   0.63584136   -9.2298688    190.73862  0.010248153 0.0088826931         3888 
 1552000   0.61909347   -9.2467881    190.31343  0.010218719 0.0088729594         3856 
 1553000   0.63825705   -9.2309314    190.27855  0.010210268 0.0088632515         3850 
 1554000   0.62480139   -9.2184743    190.61592  0.010221789 0.0088535532         3878 
 1555000   0.62171623   -9.2391797    190.30256  0.010198422 0.0088438638         3850 
 1556000   0.62884769   -9.2174217    190.46485   0.01020056  0.008834192         3872 
 1557000   0.62060195   -9.2257372    190.58079  0.010200213 0.0088245277         3831 
 1558000   0.61588313   -9.2178092    190.22065  0.010174404 0.0088148801         3867 
 1559000   0.64341226   -9.2322638    190.21457  0.010167553 0.0088052514         3870 
 1560000   0.62500368   -9.2489888    190.36298  0.010168963 0.0087956344         3878 
 1561000   0.63798724   -9.2278784     190.3713  0.010162892 0.0087860372         3882 
 1562000   0.63411216   -9.2358793     190.3995   0.01015789 0.0087764482         3881 
 1563000   0.61569976   -9.2603926    190.24919  0.010143378 0.0087668696         3869 
 1564000   0.63520079   -9.2374188    190.65636  0.010158587    0.0087573         3870 
 1565000   0.63904026   -9.2401961    190.24809  0.010130356 0.0087477549         3886 
 1566000   0.63306868   -9.2279601    190.38751  0.010131307 0.0087382201         3851 
 1567000   0.62689039   -9.2440241    190.48864  0.010130219  0.008728697         3886 
 1568000   0.62651688   -9.2187065    190.52488  0.010125684 0.0087191978         3876 
 1569000   0.63488358   -9.2360302    190.62752  0.010124682 0.0087097062         3865 
 1570000   0.63349863   -9.2338183    190.72657  0.010123491 0.0087002336         3861 
 1571000   0.62430771   -9.2370644    190.38328  0.010098837 0.0086907687         3876 
 1572000   0.62056052   -9.2473366    190.39033  0.010092787 0.0086813184         3871 
 1573000   0.64336161   -9.2421757     190.2991  0.010081537 0.0086718832         3876 
 1574000   0.61246338   -9.2339513    190.57267  0.010089616 0.0086624584         3841 
 1575000   0.62466228   -9.2462689    190.49091  0.010078884 0.0086530507         3878 
 1576000    0.6174622   -9.2524664    190.70781  0.010083958 0.0086436586         3857 
 1577000   0.62631705   -9.2529386    190.37089   0.01005976 0.0086342758         3877 
 1578000   0.62432117   -9.2481555    190.23029   0.01004596 0.0086249047         3853 
 1579000   0.61054888    -9.254811    190.18718  0.010037322 0.0086155513         3891 
 1580000   0.61826934    -9.245243    190.58989  0.010052209 0.0086062062         3886 
 1581000    0.6248391    -9.241134    190.48015  0.010040067 0.0085968753         3844 
 1582000   0.62341249   -9.2461518    190.21373  0.010019687 0.0085875587         3860 
 1583000    0.6320968   -9.2437278    190.19446  0.010012342 0.0085782556         3868 
 1584000    0.6222813   -9.2333659    190.46235  0.010020115 0.0085689713         3868 
 1585000    0.6170874   -9.2527893    190.64474  0.010023383 0.0085596941         3874 
 1586000   0.62084535   -9.2501781     190.5917  0.010014276 0.0085504313         3860 
 1587000   0.61295991   -9.2691834    190.24191 0.0099895985 0.0085411844         3848 
 1588000   0.62317927   -9.2392057    190.40905 0.0099920786 0.0085319439         3870 
 1589000   0.63195809   -9.2387285    190.54794 0.0099930741 0.0085227145         3878 
 1590000   0.61638021   -9.2377556    190.45499 0.0099819177 0.0085135055         3872 
 1591000   0.61082055   -9.2476762    190.59799 0.0099831336  0.008504308         3873 
 1592000   0.60954343   -9.2641178    190.07147 0.0099493021 0.0084951153         3871 
 1593000   0.63266289   -9.2494769    190.11899 0.0099455427 0.0084859459         3860 
 1594000   0.60486982   -9.2716328    190.12293 0.0099395091 0.0084767916         3846 
 1595000   0.62358863   -9.2541637    190.44536 0.0099501233 0.0084676387         3840 
 1596000   0.62254853   -9.2653439    190.58187 0.0099510167 0.0084585164         3876 
 1597000   0.61705905    -9.251074    190.55181 0.0099432171 0.0084494046         3848 
 1598000   0.59871759   -9.2796918     190.2334   0.00992039 0.0084402985         3879 
 1599000   0.61438213   -9.2592792    190.46604 0.0099263101 0.0084312051         3870 
 1600000    0.6202613   -9.2534359    190.14602 0.0099034387 0.0084221226         3849 
 1601000    0.6134538   -9.2572022     190.1429 0.0098970906 0.0084130542         3869 
 1602000   0.60772119   -9.2692367    190.23478 0.0098956921 0.0084040081         3875 
 1603000   0.60861131   -9.2731206    190.33027 0.0098944827 0.0083949731         3853 
 1604000   0.61095767   -9.2784395    190.32765 0.0098881778 0.0083859408         3852 
 1605000   0.60238046   -9.2670591    190.24035 0.0098774846 0.0083769228         3840 
 1606000    0.6037428   -9.2803171    190.19652 0.0098690597 0.0083679238         3852 
 1607000   0.59988485   -9.2635321    190.11713 0.0098588016 0.0083589373         3882 
 1608000   0.61685213   -9.2718051    190.25606 0.0098598706 0.0083499572         3871 
 1609000   0.60654301   -9.2544214    190.13289 0.0098473631 0.0083409875         3867 
 1610000   0.61958224   -9.2663601    190.17604 0.0098434805  0.008332034         3865 
 1611000   0.60650723   -9.2773607    189.92159 0.0098242082  0.008323092         3862 
 1612000     0.596944   -9.2807361    190.02443 0.0098234298  0.008314157         3848 
 1613000   0.60835534   -9.2682026     190.2624 0.0098296342 0.0083052344         3885 
 1614000   0.61033492   -9.2697883    190.07169 0.0098136971 0.0082963289         3830 
 1615000   0.62242518   -9.2624812    189.93825 0.0098007351 0.0082874396         3849 
 1616000   0.61295673   -9.2602407    190.53792 0.0098255942 0.0082785622         3852 
 1617000   0.60359787   -9.2906259    190.10689 0.0097973043    0.0082697         3882 
 1618000   0.61695765   -9.2926749    189.90304 0.0097807498 0.0082608443         3879 
 1619000   0.60594545   -9.2710843    189.93003  0.009776098 0.0082520072         3850 
 1620000   0.61499616   -9.2635008    190.05091 0.0097762813 0.0082431825         3857 
 1621000   0.60154086   -9.2696936    190.18313 0.0097770477 0.0082343695         3886 
 1622000   0.61539152   -9.2766486    190.16836  0.009770261 0.0082255609         3854 
 1623000   0.60969181   -9.2865269    189.92303 0.0097516447 0.0082167718         3865 
 1624000   0.61488344   -9.2897449    190.02981  0.009751119 0.0082079882         3861 
 1625000   0.59800093   -9.2900455    189.31826 0.0097086286  0.008199219         3862 
 1626000   0.60331901   -9.2944725    190.05574 0.0097404541 0.0081904581         3891 
 1627000   0.59131793   -9.2805267    190.11424 0.0097374638 0.0081817155         3852 
 1628000    0.5981736    -9.303779    190.09613 0.0097305555 0.0081729805         3860 
 1629000   0.60479865   -9.2615282    190.15195 0.0097274376   0.00816426         3885 
 1630000   0.60698533   -9.2941592    190.19103  0.009723468 0.0081555482         3875 
 1631000   0.59489801   -9.2930152    190.09266   0.00971248 0.0081468453         3881 
 1632000      0.59149   -9.2930108    189.99533 0.0097015589 0.0081381711         3882 
 1633000   0.59936578   -9.2837726    190.10723 0.0097013285 0.0081295043         3880 
 1634000   0.60288476   -9.2884813    189.66411 0.0096727925  0.008120843         3892 
 1635000   0.60693573   -9.3031217    189.68278 0.0096678275 0.0081121958         3882 
 1636000   0.59386287   -9.3028953    189.77491 0.0096666113 0.0081035661         3876 
 1637000   0.59736993   -9.2845302    189.89928 0.0096670374  0.008094951         3874 
 1638000   0.61111165   -9.2970459    189.65088 0.0096484981 0.0080863413         3877 
 1639000   0.59865245   -9.2775247    190.35915 0.0096786226 0.0080777491         3871 
 1640000   0.61004428   -9.3026013    189.50567 0.0096293534 0.0080691726         3874 
 1641000   0.59321028   -9.2967296    190.07714 0.0096525056 0.0080606135         3843 
 1642000   0.59156198   -9.2953004    189.83388 0.0096342813 0.0080520611         3868 
 1643000   0.59505422   -9.2955938    190.14424 0.0096441593 0.0080435186         3875 
 1644000   0.58322753   -9.3137605    190.03707 0.0096328602 0.0080349844         3875 
 1645000   0.59864376    -9.282956    190.00662 0.0096254618 0.0080264689         3868 
 1646000   0.58059609   -9.2828271    189.84956 0.0096116624 0.0080179622         3858 
 1647000   0.61619412   -9.2682241    189.89515 0.0096081335 0.0080094745         3844 
 1648000    0.5923922   -9.2999823    189.44884 0.0095797349 0.0080009915         3908 
 1649000   0.58648073   -9.2927096    189.89767 0.0095966076 0.0079925234         3898 
 1650000    0.5936518   -9.3047288    190.12136 0.0096020887 0.0079840685         3891 
 1651000   0.59115059   -9.2975008    189.98305 0.0095892919  0.007975629         3870 
 1652000   0.60625607   -9.2879008    190.03614 0.0095861655 0.0079671952         3857 
 1653000   0.59276779   -9.2935804    190.17036 0.0095871324 0.0079587705         3872 
 1654000   0.58970896   -9.2972266    189.83678 0.0095645294 0.0079503632         3868 
 1655000   0.58978627   -9.2971369    190.07238 0.0095706133 0.0079419672         3866 
 1656000   0.59509527   -9.2950512    189.97928 0.0095601487 0.0079335807         3862 
 1657000   0.59394431   -9.2965227    189.96507 0.0095536648 0.0079252073         3855 
 1658000   0.58991013   -9.3035082    189.72607 0.0095358901  0.007916851         3871 
 1659000   0.59654161   -9.3184332    189.94794 0.0095412871 0.0079084985         3881 
 1660000   0.59017321   -9.2914135    190.02293 0.0095393037 0.0079001624         3874 
 1661000   0.59546575   -9.2980481    189.93084 0.0095289406  0.007891841         3861 
 1662000   0.58254802    -9.299675    189.82448 0.0095178739 0.0078835311         3872 
 1663000   0.58812362   -9.3137954     189.7553 0.0095086841  0.007875228         3871 
 1664000   0.58990834   -9.2931541    189.90261 0.0095103469  0.007866939         3867 
 1665000   0.59224452   -9.2902707    189.95707 0.0095073607 0.0078586545         3877 
 1666000    0.5869042   -9.3069885    190.28695 0.0095181549 0.0078503939         3879 
 1667000   0.59144827   -9.3077068    190.02801 0.0094995004 0.0078421408         3865 
 1668000   0.59777962   -9.3216531    190.05524 0.0094951659 0.0078338925         3877 
 1669000   0.58022109   -9.3339024    189.77562 0.0094755154 0.0078256639         3859 
 1670000   0.59262734   -9.2968222    189.94006 0.0094780468 0.0078174399         3883 
 1671000   0.59796625   -9.3044995    189.86315 0.0094685394 0.0078092323         3860 
 1672000   0.58359848   -9.3066213    189.86643 0.0094630399 0.0078010389         3900 
 1673000   0.58793975   -9.3228603    189.74573 0.0094513711 0.0077928625         3866 
 1674000    0.5817175   -9.3017567    190.20145 0.0094684117  0.007784688         3870 
 1675000   0.58439845   -9.3255627    189.65628 0.0094356359 0.0077765241         3840 
 1676000    0.5944707   -9.3084565    189.87389 0.0094408258 0.0077683841         3865 
 1677000   0.58697368    -9.323192    189.71367 0.0094272346 0.0077602491         3886 
 1678000   0.58482715   -9.3059887    189.50941 0.0094114723 0.0077521245         3874 
 1679000   0.57527631   -9.3121089     189.5618 0.0094084673 0.0077440098         3848 
 1680000   0.57986948    -9.329862    189.49519 0.0093995628 0.0077359027         3892 
 1681000   0.58907125   -9.3225337     189.6575 0.0094020178 0.0077278127         3873 
 1682000   0.57533696   -9.3169266    189.41885  0.009384604 0.0077197288         3886 
 1683000   0.57543394   -9.3101797    189.95867  0.009405757 0.0077116632         3876 
 1684000   0.58430609   -9.3237333    189.89429 0.0093969858 0.0077036054         3884 
 1685000   0.57786988   -9.3197743    189.78818  0.009386161 0.0076955571         3855 
 1686000   0.57979732   -9.3148574    190.10218  0.009396114 0.0076875199         3876 
 1687000    0.5878356   -9.3147141     189.7683 0.0093740514 0.0076794964         3845 
 1688000   0.56847829    -9.320931    189.85929 0.0093729901 0.0076714875         3874 
 1689000   0.57311596   -9.3205949    189.62825 0.0093560414 0.0076634861         3862 
 1690000   0.57623735   -9.3452116    189.71966 0.0093550128 0.0076554969         3875 
 1691000   0.58781221   -9.3076169    189.40605 0.0093340256 0.0076475179         3860 
 1692000   0.58091756   -9.3318742    189.38654 0.0093275485 0.0076395521         3864 
 1693000   0.57508668   -9.3289259    189.62082 0.0093335705 0.0076315978         3857 
 1694000   0.57033064   -9.3245765    189.78604 0.0093361884 0.0076236607         3844 
 1695000   0.56725587   -9.3155058    189.83981 0.0093333241  0.007615736         3865 
 1696000   0.58339228   -9.3195354    189.54915 0.0093135391  0.007607811         3846 
 1697000   0.59202969    -9.322124    189.74697  0.009317765 0.0075999029         3875 
 1698000   0.56880768   -9.3150203    189.62547 0.0093063147 0.0075920067         3841 
 1699000   0.57101906   -9.3434951    189.70164 0.0093045735 0.0075841125         3879 
 1700000   0.58807121   -9.3224661    189.27793 0.0092783299 0.0075762287         3880 
 1701000   0.57740861   -9.3439375     189.6044 0.0092888693 0.0075683577         3874 
 1702000   0.58507774   -9.3264855    189.42947 0.0092748467 0.0075605054         3870 
 1703000   0.57549481   -9.3463873    189.55903 0.0092757404  0.007552661         3856 
 1704000    0.5651369   -9.3464684    189.68124 0.0092762737 0.0075448257         3856 
 1705000   0.56852274   -9.3348148      189.495 0.0092617303 0.0075369988         3858 
 1706000    0.5708779   -9.3158171    189.60842 0.0092618416 0.0075291823         3894 
 1707000   0.56914844    -9.345062    189.70484 0.0092611229 0.0075213824         3860 
 1708000   0.56927301   -9.3352704    189.57094 0.0092491676 0.0075135988         3879 
 1709000   0.57915808    -9.339783    189.61972  0.009246134 0.0075058161         3851 
 1710000   0.57298835   -9.3294382    189.88944 0.0092538714 0.0074980496         3886 
 1711000   0.57124734   -9.3208415    189.70332 0.0092393978 0.0074902926         3868 
 1712000   0.55743611    -9.325954    189.71308 0.0092344764 0.0074825473         3868 
 1713000   0.58605026   -9.3241668    189.53877 0.0092206057 0.0074748098         3854 
 1714000   0.57235155   -9.3376266    189.60895 0.0092186383 0.0074670913         3871 
 1715000   0.56037397   -9.3214248     189.4979 0.0092078667 0.0074593736         3867 
 1716000   0.57501649    -9.348601    189.88029 0.0092210706 0.0074516695         3848 
 1717000   0.56621446   -9.3445992    189.50255 0.0091973668 0.0074439784         3877 
 1718000   0.56645565    -9.332328    189.51314 0.0091925272 0.0074362972         3873 
 1719000   0.57098724    -9.337658    189.49434 0.0091862683 0.0074286269         3874 
 1720000   0.56446914   -9.3325433    189.72539 0.0091921218 0.0074209699         3862 
 1721000   0.57064672   -9.3502448     189.1403 0.0091584496 0.0074133139         3869 
 1722000   0.56034074   -9.3380885    189.45184 0.0091682073 0.0074056744         3898 
 1723000   0.56163402   -9.3350283    189.78282 0.0091788946 0.0073980531         3879 
 1724000   0.55251859   -9.3512913    189.46824 0.0091583644 0.0073904364         3887 
 1725000   0.55987298   -9.3295156     189.5814 0.0091585218 0.0073828263         3882 
 1726000   0.56255155   -9.3252082    189.50643  0.009149596 0.0073752282         3879 
 1727000    0.5739911   -9.3483428    189.31203 0.0091349177 0.0073676414         3874 
 1728000   0.56283226   -9.3522152    189.49645 0.0091385246 0.0073600619         3864 
 1729000   0.55694625    -9.341935    189.66982 0.0091415952  0.007352501         3903 
 1730000   0.57308645   -9.3508784    189.57685 0.0091318327 0.0073449527         3871 
 1731000   0.56763048   -9.3462847    189.38343 0.0091172458 0.0073374058         3895 
 1732000   0.56253969   -9.3567186    189.48224 0.0091167357 0.0073298699         3866 
 1733000   0.55621708   -9.3341477     189.4602 0.0091104156 0.0073223471         3877 
 1734000     0.566948    -9.336352    189.39549 0.0091020517 0.0073148313         3870 
 1735000   0.56755066   -9.3496868    189.22069 0.0090884098 0.0073073335         3898 
 1736000   0.56340913   -9.3321591    189.72259 0.0091072671 0.0072998418         3865 
 1737000   0.55353002   -9.3436745    189.37366  0.009085284 0.0072923591         3869 
 1738000   0.55556073   -9.3562659    189.44496 0.0090834754 0.0072848815         3884 
 1739000   0.55420154   -9.3697411      189.517 0.0090817039 0.0072774222         3883 
 1740000   0.55782144   -9.3577733    189.39409 0.0090705984 0.0072699748         3873 
 1741000   0.55332896   -9.3494612     189.3985 0.0090655993 0.0072625352         3897 
 1742000   0.55253201    -9.340009    189.53778 0.0090670582 0.0072551068         3891 
 1743000   0.56915356   -9.3528945    189.59175 0.0090644362 0.0072476919         3865 
 1744000   0.55915359   -9.3579641    189.24583   0.00904271 0.0072402764         3886 
 1745000   0.54432123   -9.3501461    189.54227 0.0090516844 0.0072328777         3878 
 1746000   0.56519137   -9.3519733    189.48274  0.009043659  0.007225487         3869 
 1747000    0.5494756   -9.3376837    189.50096 0.0090393511 0.0072181091         3869 
 1748000   0.55522404    -9.347021    189.47328 0.0090328605 0.0072107407         3879 
 1749000   0.55318307   -9.3679181    189.49265 0.0090286186 0.0072033814         3879 
 1750000    0.5549447   -9.3809322    189.29952 0.0090142631 0.0071960348         3885 
 1751000   0.55007181   -9.3601438     189.0513 0.0089973013 0.0071886909         3881 
 1752000   0.55485059   -9.3690338    189.27247 0.0090026858 0.0071813609         3888 
 1753000    0.5539931   -9.3530165    189.11539 0.0089900834 0.0071740422         3884 
 1754000   0.55279476   -9.3690206    189.40846 0.0089988815  0.007166731         3896 
 1755000   0.56136198   -9.3764439    189.12194 0.0089801491 0.0071594259         3871 
 1756000   0.55399483   -9.3731018    189.23121 0.0089802205 0.0071521361         3871 
 1757000   0.55082934   -9.3653689    189.31564 0.0089791142 0.0071448584         3902 
 1758000     0.549373   -9.3680327    189.46764 0.0089812116 0.0071375914         3896 
 1759000   0.55200272   -9.3431649    189.48911 0.0089771227 0.0071303344         3867 
 1760000    0.5558573   -9.3726441    189.39292  0.008967468 0.0071230843         3875 
 1761000   0.54628349   -9.3708385    189.35652 0.0089606532 0.0071158457         3886 
 1762000       0.5542   -9.3638584     189.2161 0.0089489266 0.0071086181         3870 
 1763000   0.54117064    -9.370407    189.16248 0.0089413159 0.0071013978         3869 
 1764000   0.55071667   -9.3786228    189.19249 0.0089376649 0.0070941864         3860 
 1765000   0.55802106   -9.3849097    189.01403  0.008924175  0.007086987         3910 
 1766000   0.55292991   -9.3658418    189.20491  0.008928129 0.0070798024         3897 
 1767000   0.54878286   -9.3541188    189.08537 0.0089174387 0.0070726258         3876 
 1768000   0.55720856    -9.350651    189.39991 0.0089272203 0.0070654594         3889 
 1769000   0.54126798   -9.3800454    189.20791 0.0089131293 0.0070582992         3893 
 1770000   0.53626835   -9.3779476    189.14678 0.0089052158 0.0070511506         3891 
 1771000    0.5555864   -9.3817439    189.01361  0.008893921 0.0070440131         3880 
 1772000   0.55458617    -9.369127    189.55382  0.008914307 0.0070368836         3875 
 1773000   0.55760427   -9.3739522    189.04699 0.0088854573 0.0070297659         3878 
 1774000   0.55055693    -9.369605    189.41637    0.0088978 0.0070226575         3884 
 1775000   0.54022226   -9.3655654    189.39418 0.0088917457 0.0070155567         3892 
 1776000   0.54302047   -9.3747563    188.99492 0.0088680049 0.0070084658         3883 
 1777000   0.55102302   -9.3764629    189.30997  0.008877789 0.0070013818         3890 
 1778000   0.55409848   -9.3751086     188.7809 0.0088479987 0.0069943104         3890 
 1779000   0.54887065   -9.3811512      189.032 0.0088547874 0.0069872523         3903 
 1780000   0.55744794   -9.3735428    189.40063 0.0088670706 0.0069801993         3884 
 1781000   0.54912904   -9.3844389    189.13286 0.0088495632 0.0069731555         3890 
 1782000   0.54334835   -9.3762876    189.22931 0.0088491073 0.0069661183         3880 
 1783000   0.52954856   -9.3811936    188.99482 0.0088331847 0.0069590907         3878 
 1784000   0.54446109   -9.3869474    189.15238 0.0088355931 0.0069520798         3871 
 1785000   0.54509612   -9.3752383    189.22561  0.008834062 0.0069450783         3885 
 1786000   0.54171871   -9.3876385    189.26838 0.0088311115 0.0069380809         3905 
 1787000   0.55234727   -9.3735349     189.1591 0.0088210734 0.0069310986         3889 
 1788000   0.53684098   -9.3743294    189.09386 0.0088130991 0.0069241264         3882 
 1789000   0.54796551   -9.3877242    189.00597  0.008804079 0.0069171627         3882 
 1790000   0.53741557   -9.3948912      189.069 0.0088020951 0.0069102015         3899 
 1791000   0.53478811   -9.3970667    189.17407 0.0088020693 0.0069032537         3892 
 1792000   0.53383599   -9.3886283     189.3034 0.0088031714 0.0068963127         3881 
 1793000   0.53340501    -9.385143    189.11008 0.0087892768  0.006889387         3904 
 1794000   0.54234697   -9.3984057    189.07153 0.0087825869 0.0068824684         3883 
 1795000   0.53619128   -9.3766719    189.06327 0.0087773106 0.0068755591         3907 
 1796000   0.54564769   -9.4057859    189.19789 0.0087786695 0.0068686596         3870 
 1797000   0.53403956   -9.3832969    189.25556 0.0087764588 0.0068617667         3897 
 1798000   0.53740651   -9.3802488    189.19491 0.0087687665 0.0068548856         3890 
 1799000    0.5271157   -9.3794359    189.36361  0.008771707 0.0068480097         3878 
 1800000   0.54124646   -9.3853063    189.12725 0.0087558912 0.0068411449         3869 
 1801000   0.53799139    -9.390913    189.10669 0.0087500783 0.0068342907         3894 
 1802000   0.53834172   -9.3944732    188.88953 0.0087351798 0.0068274401         3897 
 1803000   0.53605876   -9.3987167    189.13836 0.0087418359 0.0068206054         3885 
 1804000   0.53415978   -9.3667036    188.98114 0.0087297275 0.0068137785         3869 
 1805000   0.53801715   -9.4024456    189.11392 0.0087310214 0.0068069598         3913 
 1806000   0.53684922    -9.399034    189.19916 0.0087301198 0.0068001505         3872 
 1807000   0.53636626   -9.3898309     189.0389 0.0087178981 0.0067933486         3912 
 1808000   0.52418429   -9.4000959    188.92127 0.0087076544  0.006786558         3888 
 1809000   0.53169753    -9.397479    189.02581 0.0087076566 0.0067797767         3895 
 1810000   0.53586174   -9.3853713    189.29448 0.0087152154 0.0067730029         3891 
 1811000   0.52923031   -9.4012373     189.1199 0.0087023698 0.0067662436         3922 
 1812000   0.51622017   -9.4059851    188.99193 0.0086916816 0.0067594883         3888 
 1813000   0.52536959   -9.4098403    189.13052 0.0086932582 0.0067527406         3926 
 1814000   0.52855699   -9.4000956    188.99993 0.0086824666     0.006746         3908 
 1815000    0.5305959   -9.3968912    188.79745  0.008668386  0.006739273         3872 
 1816000    0.5405592   -9.4057363    189.22728  0.008683337 0.0067325597         3912 
 1817000   0.53399291   -9.4208376    188.71811 0.0086552059 0.0067258496         3912 
 1818000   0.53223017   -9.4016755    188.80915 0.0086546181 0.0067191491         3923 
 1819000   0.53364194   -9.4060298     188.5309 0.0086371131 0.0067124519         3888 
 1820000   0.52795716   -9.4060018    189.11013 0.0086588889 0.0067057678         3888 
 1821000    0.5302305   -9.4119254    188.74877 0.0086375969 0.0066991022         3909 
 1822000   0.52746672   -9.4323615    188.55208 0.0086238601 0.0066924339         3898 
 1823000   0.53360831   -9.4069491    188.72642 0.0086270991   0.00668578         3896 
 1824000   0.51256194   -9.4065987    189.21452 0.0086446691 0.0066791318         3904 
 1825000   0.53989353   -9.4202657    188.98573 0.0086294852 0.0066724931         3885 
 1826000   0.52859431    -9.413454    188.88824 0.0086203101 0.0066658648         3912 
 1827000   0.52029886   -9.4223528    188.70375 0.0086071772 0.0066592404         3911 
 1828000   0.52068236   -9.4107599    188.82539 0.0086080137   0.00665263         3904 
 1829000   0.52330075    -9.411875    188.69049 0.0085971611 0.0066460278         3898 
 1830000   0.52589291   -9.4129155    188.67434 0.0085917276 0.0066394342         3893 
 1831000   0.51759202   -9.4157076    189.11922 0.0086072831 0.0066328471         3887 
 1832000   0.53149435   -9.4067106    189.16173 0.0086045184 0.0066262691         3905 
 1833000   0.52486465   -9.4190332    188.66689  0.008577327 0.0066196987         3895 
 1834000   0.52091768    -9.418738    188.71994 0.0085750607 0.0066131417         3920 
 1835000   0.51277493   -9.4088418    188.85235 0.0085764008 0.0066065942         3895 
 1836000   0.51860045    -9.418662    189.01463 0.0085790955  0.006600053         3888 
 1837000     0.519491   -9.4091369    188.81415 0.0085653308 0.0065935167         3893 
 1838000   0.52012358   -9.4035323    188.88475 0.0085638715 0.0065869939         3909 
 1839000   0.52582838   -9.4117739     188.9443 0.0085619133 0.0065804789         3890 
 1840000   0.51689297   -9.4232028    188.73916 0.0085479691 0.0065739675         3926 
 1841000   0.52518178   -9.4188644    188.46932 0.0085311115 0.0065674691         3925 
 1842000   0.51435085   -9.4132934    188.75905  0.008539588 0.0065609799         3915 
 1843000   0.52032332   -9.4238947    189.00529 0.0085460885 0.0065545007         3891 
 1844000   0.51803426   -9.4146675    188.52812 0.0085198899 0.0065480301         3924 
 1845000   0.51581357    -9.404337    189.19559 0.0085454196 0.0065415685         3915 
 1846000   0.50101707   -9.4282067    188.88217 0.0085266417 0.0065351164         3894 
 1847000   0.51675849   -9.4290531    188.89447 0.0085225803 0.0065286694         3911 
 1848000   0.51092719   -9.4152245    188.86276 0.0085165388 0.0065222306         3899 
 1849000   0.52596621   -9.4295002    188.71745 0.0085053836 0.0065158048         3888 
 1850000   0.49830605   -9.4307247      188.599 0.0084954505 0.0065093841         3917 
 1851000    0.5217742   -9.4155032    188.76633  0.008498394 0.0065029761         3899 
 1852000   0.51405978   -9.4115827    188.49614 0.0084816477 0.0064965739         3915 
 1853000   0.51955596   -9.4222365    188.85024 0.0084929952 0.0064901817         3899 
 1854000   0.51178042   -9.4234418    189.01855 0.0084959794 0.0064837978         3932 
 1855000   0.52102804   -9.4503627    188.58396 0.0084718758 0.0064774191         3883 
 1856000   0.51167757   -9.4366696    188.52726 0.0084647656 0.0064710519         3895 
 1857000   0.51233132   -9.4229041    188.78451 0.0084717516 0.0064647001         3888 
 1858000   0.50589888   -9.4390727    188.60175 0.0084589948 0.0064583493         3909 
 1859000   0.51666402     -9.44176    188.65092 0.0084566489 0.0064520038         3931 
 1860000   0.51236373   -9.4192896    188.79126 0.0084583899 0.0064456723         3913 
 1861000   0.52019833   -9.4256828    188.74476 0.0084517624 0.0064393446         3902 
 1862000   0.51331892   -9.4324332    188.85182  0.008452015 0.0064330265         3901 
 1863000   0.50777966   -9.4400068    188.70742 0.0084410188 0.0064267158         3901 
 1864000   0.50485115   -9.4347683    188.63673 0.0084333304 0.0064204165         3881 
 1865000   0.50811321   -9.4328078    188.56042 0.0084253987 0.0064141241         3917 
 1866000   0.50259031    -9.438354    188.78571 0.0084309445  0.006407833         3905 
 1867000   0.50939674   -9.4429254    188.86017 0.0084297524 0.0064015563         3914 
 1868000   0.50124343   -9.4454153    188.87589 0.0084259409 0.0063952916         3911 
 1869000    0.4984842   -9.4161843    188.79776 0.0084179491 0.0063890359         3894 
 1870000   0.49914636   -9.4338006    188.51829 0.0084009932 0.0063827821         3906 
 1871000   0.51063777   -9.4459244    188.66678 0.0084031169 0.0063765327         3905 
 1872000   0.50493271   -9.4427281    188.54101 0.0083930294 0.0063702974         3899 
 1873000   0.50965922   -9.4328506     188.8404 0.0084018687 0.0063640684         3897 
 1874000   0.50907894   -9.4583794    188.59092 0.0083862913  0.006357852         3912 
 1875000   0.49616228   -9.4409018    188.61911 0.0083830715 0.0063516411         3912 
 1876000   0.50695169   -9.4384302    188.49075 0.0083729013 0.0063454365         3900 
 1877000   0.50944083   -9.4393662    188.74904 0.0083799077  0.006339244         3902 
 1878000   0.49798587   -9.4429319    188.60554 0.0083690779 0.0063330573         3877 
 1879000   0.51354011   -9.4439843     188.6677 0.0083673807 0.0063268825         3891 
 1880000   0.50608923   -9.4391517    188.63718 0.0083615771 0.0063207156         3917 
 1881000   0.52076443   -9.4576423    188.56303 0.0083538466  0.006314549         3901 
 1882000   0.48813765   -9.4689123    188.48242 0.0083458387 0.0063083929         3906 
 1883000   0.49599077   -9.4683829    188.73148 0.0083524289 0.0063022462         3894 
 1884000    0.5033501   -9.4451305    188.31031 0.0083293661  0.006296104         3919 
 1885000   0.50779652   -9.4485978    188.86238 0.0083493537 0.0062899689         3908 
 1886000   0.50663434   -9.4580734    188.85815 0.0083447398 0.0062838466         3902 
 1887000   0.49838967   -9.4419837    188.48276 0.0083237395 0.0062777254         3908 
 1888000   0.49457892   -9.4447281    188.52068 0.0083210048 0.0062716217         3907 
 1889000    0.5033481    -9.458318    188.37661 0.0083102438 0.0062655219         3902 
 1890000    0.5046709   -9.4443766    188.54091 0.0083130911 0.0062594292         3923 
 1891000   0.50862575   -9.4462617    188.39965 0.0083024702 0.0062533448         3894 
 1892000   0.49430678   -9.4543116    188.37755 0.0082971083 0.0062472662         3897 
 1893000   0.49993473   -9.4504101    188.54045 0.0082998964 0.0062411977         3925 
 1894000   0.50790988   -9.4558347    188.65511 0.0083005594 0.0062351366         3909 
 1895000   0.49803542   -9.4471166    188.64381 0.0082956821 0.0062290831         3913 
 1896000   0.49327656   -9.4534343    188.54393 0.0082869168  0.006223039         3897 
 1897000   0.50109856    -9.448545    188.31008 0.0082722755 0.0062170028         3925 
 1898000    0.4984986   -9.4538533    188.51977 0.0082771238 0.0062109725         3906 
 1899000   0.49785519   -9.4648518    188.60484 0.0082764984 0.0062049485         3920 
 1900000    0.5023941   -9.4750435    188.62754 0.0082731377 0.0061989344         3905 
 1901000   0.49369749   -9.4677385    188.63686 0.0082691943 0.0061929294         3897 
 1902000   0.50080272   -9.4414744    188.51675  0.008259584 0.0061869302         3922 
 1903000   0.48753821   -9.4596612    188.47605 0.0082534617 0.0061809455         3907 
 1904000   0.48597211   -9.4634627    188.53893 0.0082518791 0.0061749632         3909 
 1905000   0.49926826   -9.4516868    188.42645 0.0082426267 0.0061689899         3902 
 1906000    0.4967037   -9.4650411     188.5256 0.0082426375 0.0061630271         3898 
 1907000   0.49619761   -9.4725661    188.82731 0.0082514993 0.0061570662         3915 
 1908000   0.47777886   -9.4652493    188.40539 0.0082287468 0.0061511167         3899 
 1909000   0.49583241   -9.4784795    188.29512  0.008219623 0.0061451715         3911 
 1910000   0.49096989   -9.4604486    188.21402 0.0082117811 0.0061392393         3913 
 1911000   0.48748707   -9.4792182    188.27294 0.0082100533  0.006133314         3919 
 1912000   0.49846723   -9.4699158    188.34502 0.0082089009 0.0061273924         3916 
 1913000   0.49167011   -9.4694213    188.49876 0.0082113068 0.0061214783         3924 
 1914000   0.50575645   -9.4616624    188.38867 0.0082022237 0.0061155755         3893 
 1915000   0.49034791   -9.4658409    188.47898 0.0082018704 0.0061096817         3909 
 1916000   0.48818857   -9.4751176    188.35303 0.0081921116 0.0061037934         3894 
 1917000   0.48927403   -9.4683156    188.45253 0.0081921637 0.0060979157         3907 
 1918000   0.48540467   -9.4718023    188.30779 0.0081816038 0.0060920411         3921 
 1919000   0.50217352   -9.4789249    188.48359 0.0081849744  0.006086177         3899 
 1920000   0.48127834   -9.4742901    188.35204 0.0081750018 0.0060803201         3914 
 1921000   0.48247739   -9.4767783    188.22816 0.0081653721 0.0060744702         3908 
 1922000   0.48362383    -9.474835     188.3696 0.0081672563 0.0060686283         3915 
 1923000   0.47939975   -9.4756499    188.46142  0.008166988 0.0060627954         3918 
 1924000   0.49744614    -9.477294    188.13186 0.0081484692 0.0060569673         3921 
 1925000   0.48525907   -9.4634214    188.56933 0.0081631743 0.0060511491         3900 
 1926000   0.49246797   -9.4742558    188.20314 0.0081430918 0.0060453343         3909 
 1927000   0.49108817   -9.4971579    188.31215 0.0081435803 0.0060395315         3917 
 1928000   0.48408466   -9.4715932    188.17692 0.0081335116 0.0060337296         3913 
 1929000   0.49241768   -9.4828494    188.15796 0.0081284758  0.006027941         3904 
 1930000   0.47962978   -9.4686191     188.5723 0.0081421545 0.0060221615         3912 
 1931000   0.48703219   -9.4761629    188.25737 0.0081243471 0.0060163884         3915 
 1932000   0.48176862   -9.4691346    188.31529   0.00812264 0.0060106176         3900 
 1933000   0.48540276   -9.4737163    188.44161 0.0081238837 0.0060048612         3909 
 1934000    0.4789214   -9.4906622    188.52439 0.0081232501 0.0059991147         3924 
 1935000    0.4760881   -9.4840532    188.44265 0.0081155317 0.0059933746         3915 
 1936000   0.48469773   -9.4814745      187.978 0.0080913393 0.0059876378         3915 
 1937000   0.48535692   -9.4832778    188.18443 0.0080960432 0.0059819075         3901 
 1938000    0.4772865   -9.4860207    188.09008 0.0080878089 0.0059761824         3918 
 1939000   0.47698196   -9.4796479    188.36215 0.0080953307 0.0059704713         3908 
 1940000   0.47653244     -9.49635    188.35971 0.0080910529 0.0059647679         3919 
 1941000    0.4683023   -9.4914656    188.32925 0.0080855766 0.0059590648         3887 
 1942000   0.48506703   -9.4751593    188.38895  0.008083975 0.0059533718         3898 
 1943000   0.48124959   -9.4822115    188.05232 0.0080653768  0.005947685         3912 
 1944000   0.48274093   -9.4826338    188.08465 0.0080626135 0.0059420071         3905 
 1945000   0.47322731   -9.4830994    187.82305   0.00804726 0.0059363392         3898 
 1946000   0.48347114   -9.4874554    188.14588 0.0080569494 0.0059306749         3925 
 1947000   0.47076977   -9.4839353    188.18918 0.0080546645 0.0059250226         3907 
 1948000   0.45723972   -9.4837967    188.23274 0.0080523931 0.0059193743         3898 
 1949000   0.47085925   -9.4983082    188.33476 0.0080526235 0.0059137307         3919 
 1950000   0.48388298   -9.4988487    188.18361 0.0080420347 0.0059080935         3894 
 1951000    0.4741188   -9.4728852    188.25309 0.0080408804 0.0059024649         3905 
 1952000    0.4916572   -9.5012536    188.32504 0.0080398325 0.0058968425         3909 
 1953000   0.47734879    -9.494577    188.18776 0.0080298582  0.005891227         3893 
 1954000    0.4683221   -9.4983237    188.44823 0.0080368572 0.0058856225         3910 
 1955000   0.47662001    -9.496033    188.20319 0.0080223012 0.0058800264         3912 
 1956000   0.47637718   -9.4948675    188.25314  0.008020328 0.0058744359         3926 
 1957000   0.48278021   -9.4944775    188.12596 0.0080108143 0.0058688542         3909 
 1958000   0.47887771   -9.4900178    188.22706 0.0080110258 0.0058632766         3924 
 1959000   0.46770935   -9.4980985    188.41726 0.0080150273 0.0058577086         3915 
 1960000   0.46034552   -9.4803525    188.14781 0.0079994817 0.0058521487         3900 
 1961000    0.4806086   -9.4920147     188.1389 0.0079950236 0.0058465939         3905 
 1962000    0.4760842   -9.5068949    188.18648 0.0079929698 0.0058410498         3901 
 1963000   0.46581481   -9.5044451     188.1587 0.0079877187  0.005835512         3917 
 1964000   0.46382353   -9.5060186    188.07986 0.0079803062 0.0058299815         3911 
 1965000    0.4679969   -9.4934328    188.24188 0.0079831162 0.0058244581         3916 
 1966000    0.4679603   -9.4930258     188.2387 0.0079789207 0.0058189391         3919 
 1967000   0.46735379   -9.4993592    188.05296 0.0079669954 0.0058134263         3912 
 1968000   0.46665467   -9.4969663    188.02347 0.0079616984 0.0058079223         3906 
 1969000    0.4718675   -9.4993881    187.99613 0.0079564977  0.005802423         3917 
 1970000   0.46970947   -9.5123362     187.9889 0.0079521529 0.0057969359         3921 
 1971000   0.46846967   -9.4970193    187.96119 0.0079469469  0.005791453         3908 
 1972000   0.46363217    -9.492625    187.97994 0.0079437095 0.0057859789         3912 
 1973000   0.46023218   -9.5028289     188.1907 0.0079485853 0.0057805076         3912 
 1974000   0.46557149   -9.5101927    188.08357 0.0079400358 0.0057750446         3927 
 1975000   0.46769011    -9.502478    187.98665 0.0079319261 0.0057695878         3905 
 1976000   0.46269864   -9.5155106    187.98134 0.0079276882 0.0057641402         3910 
 1977000   0.47009913   -9.4990459    187.99358  0.007924194 0.0057586984         3916 
 1978000   0.47033986   -9.5015551     188.0046 0.0079206522 0.0057532637         3919 
 1979000   0.46735615   -9.5007692    187.91294 0.0079127902 0.0057478378         3911 
 1980000   0.46681293   -9.5012796    188.11612 0.0079173453 0.0057424167         3905 
 1981000   0.47907009   -9.5033302    188.10512 0.0079128857 0.0057370058         3908 
 1982000   0.46521136    -9.489147    188.07461 0.0079076104 0.0057315995         3911 
 1983000   0.46538053   -9.4912634    188.12949 0.0079059291 0.0057262021         3904 
 1984000   0.46569104   -9.5038388    188.34167 0.0079108565 0.0057208104         3904 
 1985000   0.45773296   -9.4971536    187.98243 0.0078917898 0.0057154272         3925 
 1986000   0.45433128   -9.5018109    188.12099 0.0078936298 0.0057100507         3919 
 1987000   0.45967976   -9.5099637    188.11228  0.007889292 0.0057046806         3926 
 1988000   0.44542901   -9.5055288    187.90039 0.0078764414 0.0056993168         3924 
 1989000   0.45930315   -9.5148432    187.89182 0.0078721224  0.005693959         3916 
 1990000   0.46608084   -9.5110768    188.03717 0.0078742534  0.005688606         3926 
 1991000   0.45792446   -9.5325027    187.79876 0.0078603198 0.0056832613         3921 
 1992000   0.45269569   -9.5152184    187.86329 0.0078590733 0.0056779245         3911 
 1993000   0.45432397   -9.5265407    188.03762 0.0078624195 0.0056725946         3920 
 1994000   0.45512991   -9.5136253    187.87073 0.0078515017 0.0056672722         3912 
 1995000    0.4595523   -9.5168202    188.02897  0.007854176 0.0056619527         3902 
 1996000   0.45558839   -9.5144093     187.7925  0.007840368 0.0056566416         3911 
 1997000   0.45031709   -9.5157491    187.98533 0.0078444887 0.0056513398         3915 
 1998000   0.44806293   -9.5160993    188.16139 0.0078479058 0.0056460468         3900 
 1999000   0.45764681   -9.5191156    188.19443 0.0078453574 0.0056407551         3917 
 2000000   0.44172062   -9.5071108    188.26869 0.0078445287 0.0056354725         3900 
 2001000     0.444718   -9.5178455    188.10362 0.0078337338 0.0056301957         3917 
 2002000   0.45229005   -9.5079623    188.02411 0.0078265115 0.0056249224         3919 
 2003000   0.45913663   -9.5078289    187.99137 0.0078212417 0.0056196596         3897 
 2004000   0.44965774   -9.5221924    187.79186 0.0078090428 0.0056144003         3924 
 2005000   0.46123713   -9.5130186    187.60697 0.0077974632 0.0056091461         3927 
 2006000   0.44281199   -9.5139631    188.04084 0.0078116002 0.0056039026         3917 
 2007000   0.45748415   -9.5043712    187.70516   0.00779377 0.0055986636         3908 
 2008000   0.45165016   -9.5211304    187.78454 0.0077931829 0.0055934329         3915 
 2009000   0.45906326   -9.5080207     187.8364 0.0077914553 0.0055882096         3907 
 2010000   0.43548471   -9.5037079    187.96292 0.0077928242 0.0055829926         3910 
 2011000   0.44831776    -9.527623    187.87381 0.0077852564 0.0055777851         3916 
 2012000   0.44144232    -9.524203    187.90049  0.007782492 0.0055725818         3926 
Loop time of 5274.58 on 48 procs for 2000000 steps with 4000 atoms

Performance: 65521.747 tau/day, 379.177 timesteps/s
99.4% CPU use with 48 MPI tasks x no OpenMP threads

MPI task timing breakdown:
Section |  min time  |  avg time  |  max time  |%varavg| %total
---------------------------------------------------------------
Pair    | 379.37     | 429.12     | 482.21     | 111.5 |  8.14
Neigh   | 36.852     | 38.692     | 40.067     |  12.6 |  0.73
Comm    | 329.66     | 380.22     | 428.7      | 116.3 |  7.21
Output  | 5.8432     | 5.8453     | 5.8909     |   0.3 |  0.11
Modify  | 4358.1     | 4371.2     | 4383       |  10.8 | 82.87
Other   |            | 49.52      |            |       |  0.94

Nlocal:        83.3333 ave          88 max          77 min
Histogram: 2 4 3 4 8 5 3 6 4 9
Nghost:        2447.23 ave        2463 max        2431 min
Histogram: 2 5 1 6 7 11 6 5 4 1
Neighs:        16988.0 ave       19443 max       14883 min
Histogram: 7 5 3 2 7 10 4 3 5 2
FullNghs:      33976.2 ave       36272 max       31270 min
Histogram: 2 4 4 3 12 3 6 6 2 6

Total # of neighbors = 1630859
Ave neighs/atom = 407.71475
Neighbor list builds = 106345
Dangerous builds = 0

#clear
#
#next RN
#
#jump SELF
Total wall time: 1:27:58
