
units lj                  # Use reduced LJ style units
atom_style atomic         # Uncharged point particles
atom_modify map hash      # Needed for indexing of clusters etc
                          # Used to be able to find where atoms are in relation to each other.

lattice fcc 1.0 spacing 1 1 1
Lattice spacing in x,y,z = 1.5874011 1.5874011 1.5874011
region box block 0 10 0 10 0 10 units lattice
create_box 2 box
Created orthogonal box = (0.0000000 0.0000000 0.0000000) to (15.874011 15.874011 15.874011)
  3 by 4 by 4 MPI processor grid
create_atoms 1 box
Created 4000 atoms
  using lattice units in orthogonal box = (0.0000000 0.0000000 0.0000000) to (15.874011 15.874011 15.874011)
  create_atoms CPU = 0.006 seconds
set type 1 type/fraction 2 0.89 78393
Setting atom values ...
  3550 settings made for type/fraction
mass 1 1.0
mass 2 1.0
pair_style lj/cut  3.5
pair_modify tail  yes
pair_coeff 1  1  1.0  1.0   # Intearaction between 1 and 1 set with epsilon = 1 and sigma = 1
pair_coeff 1  2  1.5  0.8
pair_coeff 2  2  0.5  0.88

write_data data.0
System init for write_data ...
Neighbor list info ...
  update every 1 steps, delay 10 steps, check yes
  max neighbors/atom: 2000, page size: 100000
  master list distance cutoff = 3.8
  ghost atom cutoff = 3.8
  binsize = 1.9, bins = 9 9 9
  1 neighbor lists, perpetual/occasional/extra = 1 0 0
  (1) pair lj/cut, perpetual
      attributes: half, newton on
      pair build: half/bin/atomonly/newton
      stencil: half/bin/3d
      bin: standard
WARNING: Not all mixed pair coeffs generated from mixing. Use write_data with 'pair ij' option to store all pair coeffs. (../write_data.cpp:312)


#############################
#   M E L T   S Y S T E M   #
#############################

velocity all create 2.4 8172548 mom yes dist gaussian # Assign velocities
                                                    # Temperature 2.4, random number seed, zero linear momentum
                                                                                # Gaussian distribution

timestep 0.002   # simulation timestep
thermo 1000       # output thermodynamic data every 1000 steps bf 100

# Define a fix  in this case with index 1 applied to all
# particles in the simulation. This fix is for simulations
# in the anisotropic NPT ensemble. Note that we use the MTK
# correction.
fix 1 all npt temp 2.4 2.4 0.1 iso 5.68 5.68 0.5 mtk yes tchain 5 pchain 5 # Use NPT ensemble
                                                                         # Set temperature and pressure and damping
                                                                         # Numbers of thermostats in chain and in barostat
run 10000          # run for 10000 steps
Per MPI rank memory allocation (min/avg/max) = 3.642 | 3.644 | 3.648 Mbytes
Step Temp E_pair E_mol TotEng Press Volume 
       0          2.4   -3.2438273            0   0.35527274   -2.6679874         4000 
    1000    2.3995468   -2.3564656            0    1.2419547    5.2757094    4015.7169 
    2000    2.4323396   -2.3381864            0    1.3094109    5.4594236     4011.494 
    3000    2.4150784   -2.2772809            0     1.344431    5.8179987     3997.242 
    4000    2.4073285   -2.2796175            0    1.3304724    5.8711819    3977.0288 
    5000    2.4346752   -2.3313284            0    1.3197714    5.7053971    3977.7212 
    6000    2.4203139   -2.3018227            0    1.3277406    5.6996325    3999.9215 
    7000    2.4104181   -2.3045708            0    1.3101525    5.6473434     4012.466 
    8000    2.4628553   -2.2813856            0    1.4119738    5.8436271     4000.835 
    9000    2.3994243   -2.2717678            0    1.3264689    5.9770992    3964.1689 
   10000    2.3865624    -2.317328            0    1.2616206    5.4138636    4013.4518 
Loop time of 2.47005 on 48 procs for 10000 steps with 4000 atoms

Performance: 699581.553 tau/day, 4048.504 timesteps/s
99.6% CPU use with 48 MPI tasks x no OpenMP threads

MPI task timing breakdown:
Section |  min time  |  avg time  |  max time  |%varavg| %total
---------------------------------------------------------------
Pair    | 1.0684     | 1.155      | 1.2348     |   3.1 | 46.76
Neigh   | 0.20862    | 0.21544    | 0.22754    |   0.8 |  8.72
Comm    | 0.76262    | 0.83911    | 0.92524    |   3.9 | 33.97
Output  | 0.00023873 | 0.00024525 | 0.00038391 |   0.0 |  0.01
Modify  | 0.22825    | 0.24526    | 0.26552    |   2.2 |  9.93
Other   |            | 0.01503    |            |       |  0.61

Nlocal:        83.3333 ave          95 max          71 min
Histogram: 2 0 6 5 5 15 6 7 1 1
Nghost:        1637.96 ave        1675 max        1607 min
Histogram: 2 4 7 4 7 12 7 3 1 1
Neighs:        9509.69 ave       11072 max        7503 min
Histogram: 1 1 3 4 7 10 9 9 3 1

Total # of neighbors = 456465
Ave neighs/atom = 114.11625
Neighbor list builds = 909
Dangerous builds = 218

# Equilibrate just above the melting temperature to avoid step fn in T

fix 1 all npt temp 1.25 1.25 0.1 iso 5.68 5.68 0.5 mtk yes tchain 5 pchain 5
run 2000
Per MPI rank memory allocation (min/avg/max) = 3.643 | 3.645 | 3.649 Mbytes
Step Temp E_pair E_mol TotEng Press Volume 
   10000    2.3865624    -2.317328            0    1.2616206    5.4138636    4013.4518 
   11000    1.2720015   -3.4899588            0   -1.5824335    5.6441864    3073.8507 
   12000    1.2621555   -3.4648462            0   -1.5720864    5.6860459     3076.739 
Loop time of 0.607487 on 48 procs for 2000 steps with 4000 atoms

Performance: 568900.885 tau/day, 3292.250 timesteps/s
99.6% CPU use with 48 MPI tasks x no OpenMP threads

MPI task timing breakdown:
Section |  min time  |  avg time  |  max time  |%varavg| %total
---------------------------------------------------------------
Pair    | 0.26564    | 0.29269    | 0.33458    |   2.5 | 48.18
Neigh   | 0.038317   | 0.041524   | 0.048091   |   0.8 |  6.84
Comm    | 0.17838    | 0.22498    | 0.25281    |   3.3 | 37.03
Output  | 4.9732e-05 | 5.1022e-05 | 6.6578e-05 |   0.0 |  0.01
Modify  | 0.038408   | 0.04351    | 0.04754    |   1.2 |  7.16
Other   |            | 0.004728   |            |       |  0.78

Nlocal:        83.3333 ave          92 max          72 min
Histogram: 1 0 1 3 7 14 11 5 2 4
Nghost:        1966.21 ave        1984 max        1942 min
Histogram: 1 2 1 3 8 10 8 9 4 2
Neighs:        12442.2 ave       14531 max       10281 min
Histogram: 1 2 3 5 13 11 8 0 3 2

Total # of neighbors = 597227
Ave neighs/atom = 149.30675
Neighbor list builds = 143
Dangerous builds = 18

#############################
# L I N E A R  Q U E N C H  #
#############################

# Define solid atoms. This closely follows ten Wolde  Ruiz-Montero and Frenkel  Faraday Discuss  1996  104  93-110
# Compute components of the per-atom q6 vector
compute q6 all orientorder/atom degrees 1 6 components 6 nnn NULL cutoff 1.3 # compute the Q6 parameter.
                                                                             # Use all neighbours within 1.3 unit cell.

# get number of connections
compute coord_number all coord/atom orientorder q6 0.5

# An atom is solid if it has 8 or more connections (of a possible 14)
variable is_solid atom c_coord_number>=8
group solid dynamic all var is_solid    # Must be dynamic to update
dynamic group solid defined

# do clustering
compute cluster solid cluster/atom 1.3 # Create a cluster where all atoms within are solid and max 1.3 units from another member

# define chunks one chunk per cluster
compute clus_chunks solid chunk/atom c_cluster nchunk every compress yes  # Says which atoms are in which chunk

# count the size of each chunk
compute size_chunks solid property/chunk clus_chunks count


# Find the maximum entry in the vector of chunk sizes
variable max_n equal max(c_size_chunks)


# Thermo style which includes this variable
# thermo_style custom step temp pe vol v_max_n

thermo ${N}  # Print the thermo information every 100 steps
thermo 1000  

# Reset the npt fix at a lower temperature (below freezing)
fix 1  all npt temp  ${temp} ${temp}  0.1  iso  5.68  5.68  0.5  mtk yes tchain  5  pchain  5
fix 1  all npt temp  0.45 ${temp}  0.1  iso  5.68  5.68  0.5  mtk yes tchain  5  pchain  5
fix 1  all npt temp  0.45 0.45  0.1  iso  5.68  5.68  0.5  mtk yes tchain  5  pchain  5

dump dmp2 all dcd ${N} traj.dcd
dump dmp2 all dcd 1000 traj.dcd


compute msd all msd com yes
variable twopoint equal c_msd[4]/6/(step*dt+1.0e-6)
fix 9 all vector 10 c_msd[4]
variable fit equal slope(f_9)/6/(10*dt)
thermo_style custom step temp pe c_msd[4] v_twopoint v_fit v_max_n

fix 1 all npt temp 1.25 ${temp} 0.1 iso 5.68 5.68 0.5 mtk yes tchain 5 pchain 5
fix 1 all npt temp 1.25 0.45 0.1 iso 5.68 5.68 0.5 mtk yes tchain 5 pchain 5
run 500000 # 5000000  # Run for this many steps
Neighbor list info ...
  update every 1 steps, delay 10 steps, check yes
  max neighbors/atom: 2000, page size: 100000
  master list distance cutoff = 3.8
  ghost atom cutoff = 3.8
  binsize = 1.9, bins = 8 8 8
  4 neighbor lists, perpetual/occasional/extra = 1 3 0
  (1) pair lj/cut, perpetual
      attributes: half, newton on
      pair build: half/bin/atomonly/newton
      stencil: half/bin/3d
      bin: standard
  (2) compute orientorder/atom, occasional
      attributes: full, newton on
      pair build: full/bin/atomonly
      stencil: full/bin/3d
      bin: standard
  (3) compute coord/atom, occasional
      attributes: full, newton on
      pair build: full/bin/atomonly
      stencil: full/bin/3d
      bin: standard
  (4) compute cluster/atom, occasional
      attributes: full, newton on
      pair build: full/bin/atomonly
      stencil: full/bin/3d
      bin: standard
Per MPI rank memory allocation (min/avg/max) = 9.826 | 9.831 | 9.835 Mbytes
Step Temp PotEng c_msd[4] v_twopoint v_fit v_max_n 
   12000    1.2621555   -3.4648462 2.0482773e-30 1.4224148e-32 8.3333333e+20            1 
   13000    1.2428481   -3.5048318   0.96505773 0.0061862673   0.08213618            2 
   14000    1.2616108   -3.4720283    2.0235442  0.012044906   0.08522329            1 
   15000    1.2392791   -3.4802148    3.0419389   0.01689966  0.086366475            1 
   16000    1.2262951   -3.4952454     4.129682   0.02150876  0.086992007            2 
   17000    1.2545535   -3.4693407    5.1252464  0.025123756  0.086959947            2 
   18000    1.2156041   -3.4957191    6.1306803  0.028382779  0.085995755            2 
   19000    1.2545984   -3.5004439    7.2101806  0.031623598  0.085941795            2 
   20000    1.2532113   -3.4857336    8.2439191  0.034349662  0.086142968            2 
   21000    1.2389842    -3.478315    9.2915966  0.036871414  0.086213534            2 
   22000    1.2297842   -3.5002114    10.270796   0.03890453  0.086133093            1 
   23000    1.2243567   -3.4905952    11.391879  0.041274923  0.086206371            2 
   24000    1.2440534   -3.4903664    12.416265  0.043112029  0.086369045            1 
   25000    1.2161354   -3.5279274    13.429627  0.044765421  0.086434861            1 
   26000    1.2017915   -3.5037117    14.535798  0.046589096  0.086559588            1 
   27000    1.2297694   -3.5060445     15.42328  0.047602717   0.08659061            1 
   28000    1.2196754   -3.4947283    16.308639  0.048537616  0.086414401            1 
   29000    1.2708835   -3.4988266    17.283479   0.04966517  0.086070844            1 
   30000    1.2168233   -3.5336486     18.22702   0.05063061  0.085648385            2 
   31000    1.2366566   -3.4833777     19.31719   0.05192793   0.08536374            1 
   32000    1.2382153   -3.5290129    20.377062  0.053065266  0.085183389            3 
   33000     1.199776   -3.5085216    21.467918  0.054211912  0.085213124            1 
   34000    1.2247923   -3.5483809    22.321791  0.054710271  0.085086891            2 
   35000    1.2118197   -3.5022375    23.442384  0.055815199  0.085003997            1 
   36000    1.2294483   -3.4821451    24.467397  0.056637491   0.08496126            2 
   37000    1.1985012   -3.5298542    25.549982  0.057545004  0.084952116            1 
   38000    1.2005509   -3.5167694    26.412238  0.057921574  0.084855054            1 
   39000    1.2056754   -3.5155802    27.427235  0.058605203  0.084818222            2 
   40000       1.2175   -3.5162266    28.408366  0.059184095  0.084766866            2 
   41000    1.2278463   -3.5446053    29.191725  0.059332774  0.084624658            5 
   42000    1.1845513   -3.5047587    30.560095  0.060635108  0.084545886            2 
   43000    1.1841457   -3.5417397    31.369241  0.060793103  0.084489843            2 
   44000    1.2068618   -3.5578442    32.035379  0.060673066  0.084332036            1 
   45000    1.2135293   -3.5394804    32.921702  0.060966115  0.084120305            2 
   46000    1.1768292   -3.5471995    33.751843  0.061144642  0.083887244            2 
   47000    1.1743359   -3.5558281    34.679614  0.061488677  0.083592937            2 
   48000    1.1814489   -3.5501832    35.376679  0.061417845  0.083281058            4 
   49000    1.1867907   -3.5227552    36.320119  0.061768909  0.082998068            2 
   50000    1.2023718   -3.5401132    37.154349  0.061923914  0.082725743            2 
   51000    1.1958437   -3.5425605    38.169308   0.06236815   0.08242134            1 
   52000    1.2079568   -3.5504057    39.005383  0.062508627  0.082143404            3 
   53000    1.1592606   -3.5446928    40.140404  0.063113842  0.081888197            2 
   54000    1.1791868   -3.5563986     41.11035  0.063441898  0.081712776            7 
   55000    1.2045635   -3.5383395    41.998887  0.063634677  0.081523954            3 
   56000    1.2046526   -3.5479445    42.750633  0.063617013   0.08132543            3 
   57000    1.1491733   -3.5706438    43.725711  0.063926478  0.081137463            1 
   58000    1.1769335   -3.5461473    44.381799  0.063766952  0.080930456            2 
   59000    1.1590814   -3.5464328    45.355254  0.064061093  0.080730564            1 
   60000    1.1650374   -3.5579458    46.255974  0.064244408  0.080549586            3 
   61000    1.1541957   -3.5579862    46.963331  0.064157555   0.08033459            1 
   62000    1.1657093    -3.554915    47.960802  0.064463443  0.080148035            2 
   63000    1.1543987    -3.577907    49.058347  0.064891993  0.080009002            2 
   64000    1.1672515   -3.5506622    50.196868  0.065360505  0.079890216            1 
   65000     1.164066   -3.5802863    51.064612   0.06546745  0.079806813            2 
   66000    1.1780007   -3.5671671    52.317174  0.066057037  0.079751495            4 
   67000    1.1705397   -3.5897187    53.478047  0.066514983  0.079709253            1 
   68000    1.1653068   -3.5977605    53.967621   0.06613679  0.079668509            2 
   69000    1.1923847   -3.5792889    55.285539  0.066769974  0.079630359            3 
   70000     1.151095   -3.6084158     56.16766  0.066866261  0.079597907            1 
   71000    1.1853243   -3.5932308    56.910072  0.066795858  0.079561607            3 
   72000    1.1358119   -3.5868993    58.057695  0.067196406  0.079540767            2 
   73000    1.1568141   -3.5924104    58.885085  0.067220416  0.079507338            3 
   74000    1.1383047   -3.6275733    59.589907  0.067105751    0.0794885            3 
   75000    1.1361499   -3.6218146    60.941713  0.067713014   0.07946919            2 
   76000    1.1599507   -3.6054899    61.586963  0.067529565  0.079464447            3 
   77000    1.1618299   -3.5673536    62.824638  0.067992032  0.079437841            3 
   78000    1.1321818   -3.5524384    63.308211  0.067636977  0.079399997            2 
   79000     1.150185    -3.610519     64.10045  0.067616508  0.079330811            4 
   80000    1.1385277    -3.565685    65.122185  0.067835609  0.079261597            2 
   81000    1.1549156   -3.6211099    66.065791   0.06796892  0.079209525            2 
   82000    1.1362582   -3.6364432     66.88904  0.067976666  0.079156232            2 
   83000    1.1357053   -3.5881737    67.871453  0.068144029  0.079111006            2 
   84000    1.1289758   -3.6258471    68.687489  0.068142349  0.079042173            3 
   85000    1.1356492   -3.6029955    69.587794  0.068223327  0.078982284            3 
   86000    1.1339125   -3.6162064    69.971307  0.067801654  0.078896605            1 
   87000    1.1077665   -3.6280579    70.594027  0.067618799  0.078789498            2 
   88000    1.1373956   -3.6085536    71.292559  0.067511892  0.078658937            2 
   89000    1.1258233   -3.6292703     72.22664   0.06762794  0.078522869            3 
   90000    1.1317683   -3.6476919    72.906138  0.067505683  0.078388972            3 
   91000    1.1312256   -3.6419931    73.332899  0.067154669  0.078247639            1 
   92000    1.1361143   -3.6309634    74.407267  0.067397887  0.078096269            2 
   93000     1.149585   -3.6435502    75.033668  0.067234469  0.077923861            5 
   94000    1.1404525   -3.6362488    76.021131  0.067394619   0.07775289            2 
   95000    1.1117301   -3.6627403    76.450006  0.067061409  0.077585993           10 
   96000    1.1064988   -3.6668699    77.228536  0.067038659  0.077430938            2 
   97000    1.1083266   -3.6461026    77.695099  0.066748367  0.077257843            2 
   98000    1.1184808   -3.6577796    78.796962  0.067004219  0.077080354            1 
   99000    1.1069948   -3.6691632    79.463586   0.06688854  0.076914243            2 
  100000    1.1103479   -3.6718035    80.427573  0.067022977  0.076759162            2 
  101000    1.1068021   -3.6662041    80.599262  0.066501041  0.076600993            3 
  102000    1.1257704   -3.6825752    81.344252  0.066457722   0.07642979            2 
  103000    1.0867873   -3.6387093    82.886278  0.067060095  0.076276316            4 
  104000    1.0776257   -3.6813475    83.581414  0.066972286  0.076138721            2 
  105000    1.1210466   -3.6620302    84.128319  0.066768507   0.07599587            4 
  106000    1.1416757   -3.6723312    84.650496  0.066549132  0.075832224            4 
  107000    1.1110009   -3.6835203    85.957176  0.066944841  0.075687916            1 
  108000    1.1186411   -3.6735687    86.397577  0.066664796   0.07552892            3 
  109000    1.1062803   -3.6817547    87.481609  0.066881964  0.075389308            1 
  110000    1.1090234   -3.6597185     88.56745  0.067096552  0.075261169            4 
  111000    1.0767775   -3.6780904    89.350423  0.067079897   0.07512658            1 
  112000    1.0855606   -3.6644725    89.987311  0.066954845  0.074989753            1 
  113000    1.0907644   -3.6878226     90.96209  0.067081187  0.074872692            3 
  114000    1.0825069   -3.6705064     91.48163  0.066872536  0.074757254            5 
  115000    1.0714162   -3.6731729    92.370928  0.066935455  0.074622772            2 
  116000    1.0901737   -3.7004755     92.67458  0.066576566  0.074499348            3 
  117000    1.0959108   -3.7112226    93.657092   0.06670733  0.074373782            4 
  118000    1.0970086   -3.6962768    94.738726   0.06690588  0.074257188            3 
  119000    1.0642662   -3.7238531    95.010504  0.066533966  0.074137073            2 
  120000    1.0864229    -3.694215    96.037267  0.066692547  0.074019163            4 
  121000    1.0895429   -3.6822833    97.338648  0.067037636  0.073908355            5 
  122000    1.0399796   -3.7044541    97.336874  0.066486936   0.07379879            2 
  123000     1.085803   -3.7423393     97.89175  0.066322324  0.073674228            2 
  124000    1.0674359    -3.738769    98.896782  0.066462891   0.07355205            3 
  125000    1.0703041   -3.7339367    99.217566  0.066145044  0.073433082            1 
  126000    1.0657563   -3.7117645    100.65937  0.066573656  0.073317545            3 
  127000    1.0552659   -3.7100524    101.28513  0.066460056  0.073201832            3 
  128000    1.0650865   -3.7368063    101.46638  0.066058841  0.073080091           10 
  129000    1.0665013   -3.7099456    102.28984   0.06607871  0.072953024            2 
  130000    1.0397285   -3.7219805    102.75419  0.065868071  0.072827205            4 
  131000    1.0917249   -3.7134878    103.49049  0.065833646  0.072695316            2 
  132000    1.0516726    -3.702777     104.6115  0.066042613  0.072561869            2 
  133000    1.0543642   -3.7179867    105.28272  0.065966618  0.072436554            1 
  134000    1.0601589   -3.7531505    105.60627   0.06567554  0.072319793            2 
  135000    1.0442199   -3.7736218    106.42239  0.065692835  0.072195856            4 
  136000     1.051357   -3.7356473    107.06833  0.065605594  0.072077801            4 
  137000    1.0621483   -3.7365871    108.05394  0.065726244  0.071959372            3 
  138000    1.0513995   -3.7547353    108.15815   0.06531289  0.071832022            2 
  139000     1.065639    -3.747123    109.25412  0.065500074   0.07171161            2 
  140000    1.0391898   -3.7648135    109.82098  0.065369628  0.071588048            3 
  141000    1.0551843   -3.7544324    110.86162  0.065521049  0.071463629            3 
  142000    1.0395827   -3.7723443    111.11591  0.065208866  0.071338289            4 
  143000    1.0534688   -3.7648972    111.80701  0.065155599  0.071206069            4 
  144000    1.0367422   -3.7920502    112.24538  0.064956818  0.071078612            3 
  145000    1.0670764    -3.761459    112.86612  0.064865588  0.070949716            3 
  146000    1.0335321   -3.7783757    113.64324  0.064864861  0.070819004            2 
  147000    1.0539201   -3.7856776    113.60504  0.064401948  0.070681747            4 
  148000    1.0262405   -3.7721051    114.38817  0.064407754  0.070546144            2 
  149000    1.0338093   -3.7731289    114.96747  0.064299481  0.070413745            3 
  150000    1.0272736    -3.773565    116.05677  0.064475981  0.070276777            2 
  151000    1.0278282    -3.792664    116.58536  0.064340704  0.070138593            3 
  152000    1.0483036   -3.7743215    117.71267  0.064535452  0.070006985            2 
  153000    1.0037264   -3.7847904    117.98514  0.064262058  0.069874871            1 
  154000    1.0262644   -3.7617372    118.82233  0.064297795  0.069739061            1 
  155000    1.0162153   -3.8013023    118.77333  0.063856628  0.069605351            6 
  156000    1.0304839   -3.7977194    119.71603  0.063950868  0.069472529            4 
  157000    1.0186998   -3.7649968    120.37256  0.063892018  0.069338449            2 
  158000    1.0464225   -3.7794671    120.70854  0.063664844  0.069204345            2 
  159000    1.0238889   -3.7800179    121.51232  0.063685701  0.069065437            4 
  160000    1.0296391   -3.8056995    122.14657  0.063618003  0.068930036            5 
  161000    1.0184534   -3.7923937    122.36344  0.063335113  0.068786824            5 
  162000   0.99885775   -3.8083299    122.85842  0.063198777  0.068646008            3 
  163000    1.0064874   -3.8077317    123.53665  0.063157798  0.068509131            2 
  164000   0.99136839   -3.8282762    124.41312   0.06321805  0.068371593            3 
  165000    1.0041895   -3.8096023    125.16899  0.063216663  0.068241987            1 
  166000    1.0113685   -3.8113998    125.55068  0.063027449  0.068115265            3 
  167000    1.0088642   -3.8254256    126.37834  0.063063043  0.067986266            2 
  168000   0.99612062   -3.8268692    126.75891  0.062876445  0.067856776            2 
  169000   0.99244128   -3.8058697     127.8501  0.063042457  0.067736711            3 
  170000    1.0190547   -3.7751612    129.12834  0.063298204   0.06762161            4 
  171000   0.99898823   -3.8203314    129.44828  0.063083956  0.067505554            3 
  172000    0.9931407   -3.8313508    129.78288  0.062879303   0.06738233            2 
  173000   0.98955831   -3.8325865    130.11726   0.06267691   0.06726147            2 
  174000    1.0044188    -3.854868    130.49638  0.062498265  0.067142002            5 
  175000   0.97217533   -3.8469673    131.61254   0.06267264  0.067020251            1 
  176000    1.0071501   -3.8231816    131.79878  0.062404726  0.066898121            2 
  177000   0.98555527   -3.8418762    132.40591  0.062337998  0.066775803            2 
  178000   0.96416268      -3.8391    133.18126  0.062350778  0.066653194            2 
  179000    0.9759859   -3.8474717    133.39713  0.062102949  0.066528274            2 
  180000   0.98408084   -3.8458331    134.24357  0.062149801   0.06639863            4 
  181000   0.96570534   -3.8491059    134.69067  0.062012281   0.06627628            2 
  182000   0.97644505   -3.8506656    135.27075  0.061937156   0.06615795            3 
  183000   0.96866684   -3.8518809    136.65565  0.062229348   0.06604135            7 
  184000   0.98467322   -3.8756841    136.11401  0.061645839  0.065930297            2 
  185000   0.99828022   -3.8788765    136.98513  0.061705014    0.0658166            2 
  186000   0.97275166   -3.8910526    137.08677  0.061418805  0.065701945            5 
  187000   0.95620689   -3.8478245     138.3125  0.061636585  0.065584019            3 
  188000   0.97805789   -3.8286769    138.48458  0.061385008  0.065469894            5 
  189000   0.96564033   -3.8858753    138.78956  0.061194691  0.065352634            2 
  190000   0.97036605   -3.8831694     138.8644  0.060905439  0.065229891            2 
  191000   0.95802475   -3.8712065    140.20574   0.06117179  0.065108112            5 
  192000   0.96056198   -3.8510135    140.95256  0.061177328  0.064988599            6 
  193000   0.96622484   -3.9036399    140.55692  0.060689518  0.064869129            3 
  194000   0.95177941   -3.9150708    141.72931  0.060880288  0.064749507            2 
  195000   0.96580256   -3.8717484    143.25793  0.061221339  0.064631848            2 
  196000   0.94643878   -3.8797725     143.2673  0.060912967  0.064518786            1 
  197000   0.95547505   -3.8832154    143.65455  0.060767576  0.064409063            4 
  198000   0.96834266    -3.892929    144.44528  0.060793468  0.064297481            2 
  199000   0.94971124   -3.9069223     144.0034  0.060302933  0.064182297            5 
  200000   0.96989427   -3.8737242    145.26279  0.060526161  0.064065567            2 
  201000   0.92276279   -3.8851078    145.93171  0.060502368  0.063950928            2 
  202000   0.95316139   -3.8975902    146.01476  0.060237114  0.063834765            3 
  203000   0.93881256   -3.9067272    146.64418  0.060198758  0.063720729            5 
  204000    0.9590443   -3.8960277    147.02396  0.060058808  0.063604356            2 
  205000    0.9440076   -3.8987427    146.70094  0.059634527  0.063484306            3 
  206000   0.92318358   -3.9086191    147.35479  0.059609544  0.063362267            2 
  207000   0.92034259    -3.932622    147.98283  0.059574407  0.063238753            2 
  208000   0.93707362   -3.9264621    148.81179  0.059620106  0.063115623            2 
  209000   0.93866125    -3.919273    148.88479  0.059363951  0.062995539            2 
  210000   0.93832079   -3.9027926     149.6884  0.059400158  0.062873313            4 
  211000   0.94496244   -3.9222838    149.96481   0.05922781  0.062747254            4 
  212000   0.90974091   -3.9187344    150.35162  0.059100479  0.062625944            3 
  213000   0.93773187   -3.9717336    150.43313  0.058854903  0.062500015            2 
  214000    0.9272168   -3.9268221    150.85782  0.058745258  0.062374898            3 
  215000   0.95141015   -3.9632618    151.24275   0.05862122   0.06224691            3 
  216000   0.93245601   -3.9483273    151.63759  0.058502156  0.062120291            2 
  217000   0.93746213   -3.9421141    152.37402  0.058515369  0.061994726            6 
  218000   0.92228557   -3.9583587    152.35545  0.058239851  0.061871634            3 
  219000    0.9070992   -3.9258557    153.66768  0.058473241   0.06175133            3 
  220000   0.93140264   -3.9320636    154.35929  0.058469429  0.061630521            3 
  221000   0.92785653   -3.9526043     154.3584  0.058204525  0.061508728            4 
  222000   0.92136915   -3.9471663    154.52443  0.058004667  0.061387215            4 
  223000   0.90202004   -3.9272683    155.67119  0.058173091  0.061269287            5 
  224000    0.9244894   -3.9449527    155.70212  0.057924896   0.06114788            3 
  225000   0.92410014   -3.9487968    156.03565   0.05779098  0.061026517            4 
  226000   0.90883297   -3.9545084    156.07665  0.057550388  0.060904032            4 
  227000   0.91817794   -3.9756158    156.71039  0.057529513  0.060778029            3 
  228000   0.91205959   -3.9890538    156.13677  0.057067532  0.060650303            2 
  229000   0.91099891   -3.9719656    156.68226  0.057016833  0.060522178            5 
  230000   0.90144261   -3.9984248    157.01219  0.056888474    0.0603904            5 
  231000   0.88584365   -3.9980725    158.19328  0.057068281  0.060261015            4 
  232000   0.92277707   -3.9674725    159.04584  0.057128534  0.060134927            5 
  233000   0.91270596   -3.9667648    159.06978  0.056891909  0.060009829            3 
  234000   0.89278736   -3.9375947    159.54366  0.056817542   0.05988379            2 
  235000   0.89370115   -4.0000137    159.74515  0.056647215   0.05976009            6 
  236000    0.8752028   -3.9920435     160.3856  0.056633333  0.059637602            3 
  237000   0.88741077   -3.9708239    160.88229   0.05656902  0.059513918            3 
  238000    0.8704984   -4.0076352    161.50719  0.056550137   0.05939067            3 
  239000   0.87980422    -3.982868    161.64941  0.056363114  0.059268118            7 
  240000   0.86205112   -4.0309064    162.34439  0.056369579  0.059147856            8 
  241000   0.89388379   -4.0092109    162.48171  0.056183165  0.059026049            2 
  242000     0.879331    -4.014678    162.88112  0.056088539  0.058905922            6 
  243000   0.87556372   -3.9979991    163.28567  0.055996458   0.05878678            4 
  244000   0.87216021   -4.0140965     164.2302   0.05608955  0.058668386            4 
  245000   0.86725652   -4.0158587    164.49263  0.055949873  0.058548916            2 
  246000   0.86227613   -4.0379913    164.80507  0.055828275  0.058427602            6 
  247000   0.85946502   -4.0368165     164.9719  0.055658535  0.058309257            2 
  248000   0.88631685   -3.9992575    165.79012  0.055709044  0.058192294            3 
  249000   0.87788429   -4.0345229    165.07549  0.055246149  0.058072207            3 
  250000   0.83643965   -4.0156328    166.63555  0.055545184  0.057954754            5 
  251000   0.89085535    -4.008586    166.58744  0.055307914  0.057836376            9 
  252000   0.86522077   -4.0110192    166.90586  0.055193736  0.057717991            6 
  253000    0.8644374   -4.0479643    166.86564  0.054962334  0.057600531            6 
  254000   0.85969402   -4.0429978    167.35492  0.054906469  0.057483682            4 
  255000   0.86921553   -4.0394596     168.0851  0.054929772  0.057366146            4 
  256000   0.86562114   -4.0721589    168.47984  0.054843697  0.057247918            5 
  257000    0.8553982   -4.0279547    168.83774   0.05474635  0.057130138            5 
  258000   0.85359084     -4.06431    169.38465  0.054710803  0.057012563            2 
  259000   0.86420924   -4.0593105     168.8726  0.054334813  0.056894666            4 
  260000   0.84968019    -4.038716    169.23056  0.054240564  0.056776709            3 
  261000   0.86381205    -4.044891    169.61719  0.054156191  0.056657408            5 
  262000   0.84444508   -4.0716565    170.02675  0.054079756  0.056537495            2 
  263000   0.82584725   -4.0497084    170.41816  0.053998149  0.056419052            4 
  264000   0.83051217   -4.0550033    171.11443  0.054013394  0.056300349            4 
  265000   0.83792341   -4.0770583    170.52346  0.053623731  0.056181915            4 
  266000   0.84553685   -4.0644187    171.35634  0.053683065  0.056063708            5 
  267000   0.85605311   -4.0969791    171.06155  0.053389997  0.055945675            3 
  268000   0.85352666   -4.0651375    172.81732  0.053736728  0.055829218            4 
  269000   0.84692698   -4.0985138    172.80659  0.053533639  0.055713548            7 
  270000   0.82529801   -4.0601581    173.45631  0.053535898  0.055599443            2 
  271000   0.85616044   -4.0666569    173.32236  0.053297159  0.055485972            4 
  272000   0.84924404   -4.0793113    174.00917  0.053311634  0.055368969            4 
  273000   0.82959907   -4.0642862     174.1677  0.053164742  0.055252665            5 
  274000   0.83784978    -4.094966    174.33746   0.05302234  0.055136486            7 
  275000   0.84151079   -4.1273932    174.08852  0.052754097  0.055021138            2 
  276000   0.83019822   -4.0751505    174.86129  0.052796283  0.054905214            5 
  277000   0.82879514   -4.1021537    175.35458  0.052754084  0.054790746            3 
  278000   0.82501014   -4.0921774    175.96575  0.052747527  0.054676348            2 
  279000   0.80764407   -4.0913724    176.03901  0.052580348  0.054561752            1 
  280000    0.8133728   -4.1334148    175.94297  0.052363979  0.054448502            5 
  281000   0.82084413   -4.1169492    175.91548  0.052169478  0.054332397            4 
  282000   0.81486709   -4.1110252    176.43211  0.052137149  0.054215422            4 
  283000   0.82482178   -4.1287132    175.95186  0.051811503  0.054098331            4 
  284000   0.81781182   -4.1458556    176.89413  0.051905555  0.053980468            3 
  285000   0.81555821   -4.1246471    177.00249  0.051755115  0.053864447            4 
  286000    0.8112448   -4.1172872    177.31289  0.051664595  0.053747534            6 
  287000   0.80090906   -4.1130394    177.75253  0.051612232  0.053629168            6 
  288000   0.80484286   -4.1356992    177.94941  0.051489992  0.053509212            5 
  289000   0.81209896   -4.1078058    178.25647  0.051400367   0.05338944            6 
  290000   0.80164108   -4.1264829    178.44707  0.051277893  0.053270451            5 
  291000   0.80039166   -4.1348284    178.97457   0.05125274  0.053152354            3 
  292000   0.80336988   -4.1690327    178.56925  0.050961544  0.053033083            8 
  293000   0.79420711   -4.1437957    179.13226  0.050947742  0.052916267            6 
  294000   0.78009441   -4.1096716    180.14949  0.051062782  0.052800097            9 
  295000   0.79893929   -4.1487078    179.53774  0.050716876   0.05268293            2 
  296000   0.79239785   -4.1754046    179.62843  0.050571067  0.052565195            8 
  297000    0.7888507   -4.1852363    179.68173  0.050415749  0.052448033            4 
  298000   0.77478309   -4.1280004    181.15889  0.050659643  0.052332514            4 
  299000    0.7759068   -4.1424284     180.9289  0.050426115  0.052220707            3 
  300000   0.78448338   -4.1863709    181.18452  0.050329033  0.052109066            4 
  301000   0.79043398   -4.1405462    182.12837  0.050423137  0.051997811            6 
  302000   0.79191167   -4.1542624    182.33133  0.050312177  0.051887554            6 
  303000   0.79986276   -4.1641324    182.31053   0.05014041  0.051776465            8 
  304000    0.7672606   -4.1768093    182.67424  0.050075175  0.051665279            7 
  305000   0.77374576   -4.1715997    183.07896  0.050021573  0.051554896           12 
  306000   0.79656498    -4.194957    183.21429   0.04989496  0.051446268            5 
  307000   0.79328273   -4.1690504    184.06871  0.049964361  0.051337585            7 
  308000   0.76468106   -4.1932601    183.67183  0.049694759  0.051229583            3 
  309000   0.77813221   -4.1813338    184.03196  0.049631058  0.051120989            7 
  310000   0.77021225   -4.1829097    185.14485  0.049770122  0.051013038            3 
  311000   0.77989867   -4.1828974    185.11423  0.049601883  0.050906338            2 
  312000   0.76503678   -4.2287487    185.06322   0.04942928  0.050799398            8 
  313000   0.77379228   -4.2016999    184.93772  0.049237943   0.05069221            4 
  314000   0.77017862   -4.2227681    185.48848  0.049227304  0.050585469           10 
  315000   0.76005536   -4.2110491    185.55137  0.049087663  0.050477684            4 
  316000   0.75079642   -4.1908603    186.31343  0.049133289  0.050370371            5 
  317000    0.7685532   -4.2270569    186.49514  0.049026062  0.050263186            7 
  318000   0.75512289   -4.2482834    186.72589   0.04893236  0.050156032            8 
  319000   0.75537468   -4.2223971    186.83499  0.048807469  0.050049975            6 
  320000   0.75643678   -4.2386924    187.53522  0.048837297  0.049943577            8 
  321000   0.75347564   -4.2472716    187.57429  0.048695298   0.04983754            7 
  322000   0.75754116   -4.2164304    187.91949  0.048633408   0.04973182           12 
  323000   0.74043287   -4.2266413    187.94577  0.048489621  0.049627877           12 
  324000   0.75918579   -4.2203107    188.45161  0.048470065  0.049522521            4 
  325000   0.75982098    -4.231113    188.93487  0.048444839  0.049418644            4 
  326000   0.76217622    -4.227363     188.9682  0.048304754  0.049315679           10 
  327000   0.77165702   -4.2534916    189.21461  0.048219829   0.04921321           24 
  328000   0.74602902   -4.2481184    189.38206  0.048115362  0.049110297           13 
  329000    0.7414759   -4.2708412    189.03794  0.047881951  0.049006464            7 
  330000    0.7310777   -4.2510079    189.70439  0.047905148  0.048902945            7 
  331000   0.73316281   -4.2618655    190.17764  0.047879567  0.048799839            4 
  332000   0.73905894   -4.2578927     190.4179  0.047795659  0.048696028            7 
  333000   0.73891134   -4.2694028    190.15297  0.047585827  0.048592223            9 
  334000   0.73433408   -4.2671289    189.81117  0.047358076  0.048487556            5 
  335000   0.72497113   -4.2584902    190.74849  0.047449872  0.048384255            4 
  336000   0.74405079   -4.2585084     190.8059  0.047322892  0.048281503           12 
  337000   0.73034515   -4.2879528    191.06567  0.047246703  0.048178674            7 
  338000    0.7275664   -4.2972327    189.97453  0.046837902  0.048075469            3 
  339000    0.7340634   -4.2834972    191.20554  0.047002345  0.047971318            6 
  340000   0.72911797   -4.2971319    190.90392  0.046790175  0.047866268            9 
  341000   0.72112999   -4.3129487    191.04261  0.046686854  0.047761031            9 
  342000   0.72006034   -4.3189261     191.5087  0.046663914  0.047656509            7 
  343000   0.72396016   -4.2901139    191.15492  0.046441915  0.047551593            8 
  344000   0.71968921   -4.2936568    192.06379  0.046527081  0.047446205           10 
  345000   0.70716507   -4.2921417    192.31359  0.046452557  0.047341702            5 
  346000   0.71243811   -4.3209245    191.65073  0.046158654  0.047237298            9 
  347000   0.70123638   -4.2959277    192.94809  0.046337198  0.047133919            9 
  348000   0.72208766   -4.2890829     192.9094  0.046194779  0.047031529            7 
  349000   0.71360743   -4.2993934    192.59656  0.045987718  0.046929629            6 
  350000   0.71326792   -4.3036384    193.56141  0.046086051  0.046827103            8 
  351000   0.69600128    -4.337897    193.08413  0.045841437  0.046724439            6 
  352000   0.70853022   -4.3357369    193.12484  0.045720844    0.0466222            4 
  353000    0.6929284   -4.3041671     193.2394  0.045618367  0.046519232           10 
  354000   0.68676667   -4.3212444    193.79426  0.045620118  0.046417234            8 
  355000   0.71075304   -4.3275474    194.86788  0.045743634  0.046315128           10 
  356000   0.70315026   -4.3048341    194.36383  0.045497152  0.046212939            6 
  357000   0.69225994   -4.3378436    194.03545  0.045293055  0.046110716            9 
  358000   0.69572364   -4.3328546    194.41743  0.045255454  0.046008771            8 
  359000   0.69796432   -4.3529814    194.37509  0.045119566  0.045906145           15 
  360000   0.68600334   -4.3720896    194.22582   0.04495968  0.045803637           12 
  361000   0.68906276   -4.3441887    195.29314  0.045081519  0.045702013            7 
  362000      0.68274   -4.3669568    194.91776   0.04487057  0.045601079           11 
  363000   0.69038252    -4.348543    195.23335  0.044819409  0.045500071            7 
  364000   0.67785921   -4.3633224    195.27727  0.044706334  0.045399439            9 
  365000   0.68708047   -4.3620487    195.08459  0.044539861  0.045298507           18 
  366000   0.67673223   -4.3368515    196.09183  0.044647502  0.045197613            6 
  367000   0.69096916   -4.3551261    195.72967  0.044443613  0.045097042            4 
  368000   0.66481178   -4.3619351    196.17026  0.044422613  0.044996408           10 
  369000   0.68207753   -4.3733514    196.20628  0.044310361  0.044895352            6 
  370000   0.67414189   -4.3669146    195.75019  0.044087879  0.044794216            5 
  371000   0.68248629   -4.3644377    196.47014   0.04413076  0.044692913            6 
  372000    0.6899542   -4.3981982    195.90413  0.043885335  0.044591524            7 
  373000   0.66492716   -4.3870086    196.83688  0.043976067  0.044491398           10 
  374000    0.6823632    -4.375689    196.51941  0.043787746   0.04439165            7 
  375000   0.67436755   -4.3830854    196.77019   0.04372671  0.044291779           16 
  376000   0.67154976   -4.3754961    197.69845  0.043816146  0.044192852            9 
  377000    0.6696464   -4.4112635    197.70436  0.043701228  0.044094914           10 
  378000   0.67928841    -4.368573    197.86874  0.043621855  0.043997545            7 
  379000    0.6564233    -4.380273    198.25273   0.04359119  0.043899716           15 
  380000    0.6542972   -4.4206593    198.23909  0.043473484  0.043802419            4 
  381000   0.65809825   -4.4008114    198.01464  0.043310289  0.043704919            8 
  382000    0.6668547   -4.4161031    198.36811   0.04327402  0.043607614            9 
  383000   0.66804827   -4.4272517     197.7726  0.043031463  0.043510319            7 
  384000   0.66393813   -4.3997288    198.78364   0.04313881  0.043412544            7 
  385000    0.6576373    -4.416513    198.20377  0.042901248  0.043315496            9 
  386000   0.65862407   -4.4369099    198.66795  0.042890316  0.043217794           11 
  387000   0.65250368   -4.4325836    199.05281  0.042862361  0.043120347            4 
  388000   0.65196984   -4.4155032    198.78071  0.042693452  0.043022864            8 
  389000   0.65091166   -4.4178885    198.94178  0.042618205  0.042924512            5 
  390000    0.6539277   -4.4417743    198.49734  0.042413961    0.0428259           19 
  391000   0.63309843    -4.435143    198.36247  0.042276741  0.042728088            9 
  392000    0.6375095    -4.431268    198.89452  0.042281997  0.042630284            8 
  393000   0.63223171   -4.4490833    199.00334  0.042197485  0.042532254           12 
  394000   0.63099581   -4.4720612     198.5235  0.041988895  0.042433892            6 
  395000   0.63402076   -4.4555639    198.88914  0.041959734  0.042336198           15 
  396000   0.63074228   -4.4648778    198.77086  0.041828884  0.042238339           10 
  397000   0.63361925   -4.4682317    198.93175  0.041757295  0.042139617            9 
  398000   0.63289357   -4.4639642    198.97294  0.041661001  0.042041984            6 
  399000   0.64558656   -4.4449639    199.57589  0.041682516    0.0419452            6 
  400000    0.6295255   -4.4612375    200.10705  0.041688968  0.041848622            7 
  401000   0.62519092   -4.4837446    199.44961   0.04144838  0.041752196           17 
  402000   0.61997388   -4.4641051    199.98348  0.041455946  0.041656659           20 
  403000   0.63346006   -4.4708846    200.06336  0.041369595   0.04156087            8 
  404000   0.63173928   -4.5133285    199.94118  0.041241993  0.041465239            3 
  405000   0.62186516   -4.4754005    200.50515  0.041256204   0.04136958            6 
  406000   0.60252677   -4.5039115    200.75466    0.0412058  0.041273874            7 
  407000    0.6171238   -4.5057265     200.2733     0.041006  0.041178052            3 
  408000   0.62192884     -4.49398    199.78318  0.040805388  0.041082458            7 
  409000    0.6140025   -4.4709235    200.76117  0.040904885  0.040986739            8 
  410000   0.60989618   -4.5055701    200.73419  0.040799631  0.040890843           24 
  411000   0.60410177   -4.5017018    200.62802  0.040678836  0.040795129           11 
  412000   0.61005442   -4.5168663     200.3468   0.04052322  0.040700342            5 
  413000   0.60561048   -4.5369273    200.31931  0.040419554   0.04060527           13 
  414000   0.59480064   -4.4950231    200.59857  0.040378134  0.040510051            7 
  415000    0.5985221    -4.520177    200.81766   0.04032483  0.040415289            6 
  416000   0.59849744   -4.5057662    200.61607  0.040187514   0.04032058            9 
  417000   0.59535204   -4.5176434    201.19826  0.040207486  0.040225882           13 
  418000   0.60524089   -4.5130857     200.8107  0.040034031  0.040131095           20 
  419000   0.60712814   -4.5138656    201.38381  0.040052467  0.040037334           13 
  420000   0.59257596   -4.5295973    201.65298  0.040010511  0.039943352            8 
  421000   0.60129962   -4.5159884    201.29527   0.03984467  0.039849652            9 
  422000   0.59628984   -4.5494888    201.55649  0.039801835  0.039755569           19 
  423000   0.60740638   -4.5296092    201.49203  0.039695042  0.039661965            8 
  424000   0.59375439   -4.5617481    201.10482  0.039525318  0.039568694           13 
  425000   0.58295935   -4.5393256    201.49589  0.039508999  0.039475416            7 
  426000   0.58208443   -4.5350731    201.63843  0.039444137  0.039382181            8 
  427000   0.58662422   -4.5412025    201.69924  0.039363629   0.03928882           10 
  428000   0.57708205   -4.5746944    201.54775  0.039242162  0.039195796            9 
  429000   0.58150542   -4.5732133    201.10473  0.039064634   0.03910257            9 
  430000   0.59082612   -4.5681986    202.13703  0.039173843  0.039009886            9 
  431000   0.56813334   -4.5650164    202.01178  0.039058736  0.038917115           25 
  432000   0.57088302   -4.5734084    201.20811  0.038813293  0.038824136           10 
  433000   0.57843548   -4.5868825    201.43349   0.03876703  0.038731553            6 
  434000   0.57161535   -4.5736516    202.29811  0.038843723   0.03863931            9 
  435000    0.5775149   -4.5871427      201.775  0.038654215  0.038547664           11 
  436000   0.57910375   -4.5872748    202.44607   0.03869382  0.038456361           12 
  437000   0.57779079   -4.5789535    202.41937  0.038600184  0.038365623            8 
  438000   0.56949273   -4.6017704    203.04694  0.038631457  0.038275295            5 
  439000   0.57110103   -4.6018422    202.83331  0.038502906  0.038185198            6 
  440000   0.57196021   -4.5976971    202.54763  0.038361294  0.038095056           10 
  441000   0.55741723   -4.6101461    202.96479  0.038353136  0.038005009           34 
  442000   0.56771697   -4.6022382    202.78559  0.038232578  0.037915186           10 
  443000   0.56144634     -4.59266    202.34717  0.038063802  0.037825925           12 
  444000   0.57108448   -4.5939528    203.65466  0.038223473  0.037737018            7 
  445000   0.56625983   -4.6086762    203.01261  0.038017343  0.037648066           10 
  446000   0.56426681   -4.6125132     203.3029  0.037986342  0.037559027           15 
  447000   0.53653688   -4.6232186    203.04452  0.037853192  0.037469688           12 
  448000   0.55475338   -4.6210696    203.12706  0.037784052  0.037380734            7 
  449000   0.55906076   -4.6233374    203.05714  0.037686923  0.037291996           33 
  450000   0.55863079   -4.6201785      203.413  0.037669075  0.037203613            7 
  451000   0.55206534   -4.6296997     203.1817  0.037542812  0.037114998           14 
  452000   0.54941339   -4.6506787     203.2106  0.037465082  0.037026408           26 
  453000   0.54417188   -4.6507545     203.0154  0.037346469  0.036937699           15 
  454000   0.54403785   -4.6234923    202.75764  0.037216894  0.036848762           10 
  455000   0.54425901   -4.6660754    202.76279  0.037136043  0.036760128           13 
  456000   0.53797231   -4.6571255    202.90843  0.037081219  0.036671608           10 
  457000    0.5529713   -4.6554803    203.03329  0.037022846  0.036582914           13 
  458000    0.5413587   -4.6446034    203.02153   0.03693987  0.036495107           16 
  459000   0.53426186   -4.6569673    203.34051  0.036917304  0.036407189           19 
  460000   0.54260766   -4.6584783    202.82557  0.036743762  0.036319044           12 
  461000   0.54264176   -4.6828745    202.86421  0.036671042  0.036231087            6 
  462000   0.52246878   -4.6723439    202.92686  0.036602969  0.036143471           17 
  463000   0.54298833   -4.6745126    203.18028  0.036569524  0.036055927           15 
  464000   0.51941724   -4.6650149    203.85897  0.036612602    0.0359692            8 
  465000   0.52088919   -4.6618543    204.07444   0.03657248  0.035883038           12 
  466000   0.52703161   -4.6793377    203.94295  0.036470485  0.035796871           21 
  467000    0.5218945   -4.6847019      203.573  0.036326373  0.035710536           19 
  468000   0.52596617   -4.6768717    203.62452  0.036257928   0.03562454           26 
  469000   0.51030877   -4.6809305    204.03508  0.036253568  0.035539038           27 
  470000   0.53937148   -4.6933535    203.83367  0.036140721  0.035453835           13 
  471000   0.50810896   -4.6862727    203.33485  0.035975735  0.035368691           32 
  472000   0.51298091   -4.7156503     203.4053  0.035911953  0.035283297           15 
  473000   0.52395747   -4.6730022    204.50926  0.036030525  0.035198566           15 
  474000   0.50368787   -4.7072004    203.63451  0.035800722  0.035113812           48 
  475000   0.51277859   -4.7115025    204.01243  0.035791654  0.035028917           54 
  476000   0.50454769   -4.7160114    203.79602  0.035678575  0.034944103           36 
  477000   0.51076524   -4.7005453    203.76139  0.035597726  0.034859337           18 
  478000   0.50727007   -4.7042132    204.03984    0.0355718  0.034774844           14 
  479000   0.51196531   -4.7321818    203.78429  0.035453078  0.034690315           37 
  480000    0.5053524   -4.7295937     203.7685  0.035376475  0.034606233           23 
  481000   0.50066668   -4.7170214    203.85538   0.03531798  0.034522315           36 
  482000   0.49047759   -4.7388666    203.91118  0.035254353  0.034438576           14 
  483000   0.50007887   -4.7286399    203.75043  0.035153629  0.034354604           16 
  484000   0.49750056   -4.7191231     203.3777  0.035016822  0.034270823           21 
  485000   0.49576367   -4.7643309    203.38408  0.034945718  0.034187207           23 
  486000   0.49331562   -4.7484438    203.21239  0.034844374  0.034103616           13 
  487000   0.49388292   -4.7475505    203.79821  0.034873068  0.034020201           54 
  488000   0.49251272   -4.7550219    203.73753  0.034791244  0.033936704           28 
  489000   0.48703967   -4.7580539    203.65553  0.034706122  0.033853244           36 
  490000   0.47882251   -4.7538269    203.24604  0.034565653  0.033769943           50 
  491000   0.48367319   -4.7681452    203.33376  0.034510142  0.033686947           29 
  492000   0.48439294    -4.767996     203.4743  0.034463804   0.03360368           45 
  493000   0.46768001   -4.7729964    203.67786  0.034428306  0.033520648           64 
  494000   0.47670416   -4.7808419    203.74811  0.034370463  0.033437611           21 
  495000   0.47924413   -4.7655166    203.68206  0.034289909  0.033354875           10 
  496000   0.47797667   -4.7769228    203.32374  0.034160574  0.033272235           43 
  497000   0.46718174    -4.795097    203.27645  0.034083912  0.033189671           18 
  498000   0.47409564   -4.7910125    203.25525  0.034011922  0.033107188           58 
  499000   0.47232258   -4.7991889    202.98114  0.033897986  0.033024599           63 
  500000   0.47072585   -4.7925507    203.10493  0.033850821  0.032942478           71 
  501000   0.47166223   -4.7873516    203.30966  0.033817309  0.032860429           55 
  502000   0.47192512   -4.7918641    203.33981  0.033754949  0.032778771           43 
  503000   0.46544632   -4.8077002    203.17801  0.033661035  0.032697055           71 
  504000   0.46273041   -4.8032598    203.74316  0.033687691  0.032615697           45 
  505000   0.46453297   -4.8179317    203.00928  0.033499882  0.032534535           73 
  506000   0.46311188   -4.8236842    203.24198     0.033472   0.03245337           73 
  507000    0.4503682   -4.8220869    203.29498  0.033414691  0.032372064           70 
  508000   0.46419014   -4.8433086     203.0756  0.033312926  0.032290844           65 
  509000   0.46165133   -4.8296207    203.37267  0.033296115  0.032209711          152 
  510000   0.46635285   -4.8169174    203.27078  0.033214179  0.032128746           93 
  511000   0.45352992   -4.8317285    202.61243  0.033041818  0.032047751          100 
  512000   0.45068664   -4.8237202    203.05899  0.033049967  0.031966737           59 
Loop time of 1237.4 on 48 procs for 500000 steps with 4000 atoms

Performance: 69823.731 tau/day, 404.073 timesteps/s
99.4% CPU use with 48 MPI tasks x no OpenMP threads

MPI task timing breakdown:
Section |  min time  |  avg time  |  max time  |%varavg| %total
---------------------------------------------------------------
Pair    | 82.876     | 88.818     | 93.122     |  22.9 |  7.18
Neigh   | 8.3878     | 8.7209     | 9.3913     |   6.7 |  0.70
Comm    | 80.787     | 84.922     | 90.45      |  23.2 |  6.86
Output  | 0.86613    | 0.86716    | 0.89314    |   0.4 |  0.07
Modify  | 1039       | 1042.6     | 1045       |   4.3 | 84.26
Other   |            | 11.43      |            |       |  0.92

Nlocal:        83.3333 ave          91 max          78 min
Histogram: 3 5 4 18 4 4 3 6 0 1
Nghost:        2266.21 ave        2283 max        2248 min
Histogram: 3 2 5 6 7 5 6 5 7 2
Neighs:        15266.6 ave       16986 max       14141 min
Histogram: 4 4 12 7 7 4 6 0 3 1
FullNghs:      30531.4 ave       33528 max       28239 min
Histogram: 2 4 6 13 7 6 2 5 2 1

Total # of neighbors = 1465509
Ave neighs/atom = 366.37725
Neighbor list builds = 27018
Dangerous builds = 0

#clear
#
#next RN
#
#jump SELF
Total wall time: 0:20:40
