
units lj                  # Use reduced LJ style units
atom_style atomic         # Uncharged point particles
atom_modify map hash      # Needed for indexing of clusters etc
                          # Used to be able to find where atoms are in relation to each other.

lattice fcc 1.0 spacing 1 1 1
Lattice spacing in x,y,z = 1.5874011 1.5874011 1.5874011
region box block 0 10 0 10 0 10 units lattice
create_box 2 box
Created orthogonal box = (0.0000000 0.0000000 0.0000000) to (15.874011 15.874011 15.874011)
  3 by 4 by 4 MPI processor grid
create_atoms 1 box
Created 4000 atoms
  using lattice units in orthogonal box = (0.0000000 0.0000000 0.0000000) to (15.874011 15.874011 15.874011)
  create_atoms CPU = 0.002 seconds
set type 1 type/fraction 2 0.13 78393
Setting atom values ...
  541 settings made for type/fraction
mass 1 1.0
mass 2 1.0
pair_style lj/cut  3.5
pair_modify tail  yes
pair_coeff 1  1  1.0  1.0   # Intearaction between 1 and 1 set with epsilon = 1 and sigma = 1
pair_coeff 1  2  1.5  0.8
pair_coeff 2  2  0.5  0.88

write_data data.0
System init for write_data ...
Neighbor list info ...
  update every 1 steps, delay 10 steps, check yes
  max neighbors/atom: 2000, page size: 100000
  master list distance cutoff = 3.8
  ghost atom cutoff = 3.8
  binsize = 1.9, bins = 9 9 9
  1 neighbor lists, perpetual/occasional/extra = 1 0 0
  (1) pair lj/cut, perpetual
      attributes: half, newton on
      pair build: half/bin/atomonly/newton
      stencil: half/bin/3d
      bin: standard
WARNING: Not all mixed pair coeffs generated from mixing. Use write_data with 'pair ij' option to store all pair coeffs. (../write_data.cpp:312)


#############################
#   M E L T   S Y S T E M   #
#############################

velocity all create 2.4 2750902 mom yes dist gaussian # Assign velocities
                                                    # Temperature 2.4, random number seed, zero linear momentum
                                                                                # Gaussian distribution

timestep 0.002   # simulation timestep
thermo 1000       # output thermodynamic data every 1000 steps bf 100

# Define a fix  in this case with index 1 applied to all
# particles in the simulation. This fix is for simulations
# in the anisotropic NPT ensemble. Note that we use the MTK
# correction.
fix 1 all npt temp 2.4 2.4 0.1 iso 5.68 5.68 0.5 mtk yes tchain 5 pchain 5 # Use NPT ensemble
                                                                         # Set temperature and pressure and damping
                                                                         # Numbers of thermostats in chain and in barostat
run 10000          # run for 10000 steps
Per MPI rank memory allocation (min/avg/max) = 3.642 | 3.644 | 3.648 Mbytes
Step Temp E_pair E_mol TotEng Press Volume 
       0          2.4     -7.50335            0     -3.90425   -3.2182506         4000 
    1000    2.3377246   -4.6602019            0   -1.1544916    5.7093684    4725.9508 
    2000    2.3740372   -4.6985247            0   -1.1383592    5.6416629    4726.7135 
    3000    2.3638109   -4.6748277            0   -1.1299977    5.6052709    4744.5566 
    4000    2.4105976   -4.6462048            0   -1.0312124    5.7394099    4733.9593 
    5000    2.4244775   -4.7267348            0   -1.0909277    5.6801524    4710.8214 
    6000    2.3851452   -4.6797324            0    -1.102909    5.3461461    4767.0715 
    7000    2.4342459   -4.6486872            0  -0.99823114    5.7943159    4737.1871 
    8000    2.4393119   -4.7027719            0   -1.0447188    5.8745607    4697.8701 
    9000    2.4145825    -4.696795            0   -1.0758268    5.6398476    4721.4009 
   10000    2.4060609   -4.6698205            0   -1.0616315    5.8211367    4725.2887 
Loop time of 2.19516 on 48 procs for 10000 steps with 4000 atoms

Performance: 787185.143 tau/day, 4555.470 timesteps/s
99.6% CPU use with 48 MPI tasks x no OpenMP threads

MPI task timing breakdown:
Section |  min time  |  avg time  |  max time  |%varavg| %total
---------------------------------------------------------------
Pair    | 0.90449    | 0.98099    | 1.0878     |   3.4 | 44.69
Neigh   | 0.18952    | 0.19877    | 0.22174    |   1.2 |  9.05
Comm    | 0.64775    | 0.76745    | 0.87621    |   4.1 | 34.96
Output  | 0.0002379  | 0.00024363 | 0.00030519 |   0.0 |  0.01
Modify  | 0.20767    | 0.23339    | 0.26233    |   3.7 | 10.63
Other   |            | 0.01433    |            |       |  0.65

Nlocal:        83.3333 ave          94 max          74 min
Histogram: 2 2 4 8 7 12 5 5 2 1
Nghost:        1469.77 ave        1504 max        1448 min
Histogram: 7 6 3 8 10 6 4 2 1 1
Neighs:        8063.33 ave        9185 max        7141 min
Histogram: 3 7 1 10 7 8 4 4 3 1

Total # of neighbors = 387040
Ave neighs/atom = 96.760000
Neighbor list builds = 905
Dangerous builds = 196

# Equilibrate just above the melting temperature to avoid step fn in T

fix 1 all npt temp 1.25 1.25 0.1 iso 5.68 5.68 0.5 mtk yes tchain 5 pchain 5
run 2000
Per MPI rank memory allocation (min/avg/max) = 3.642 | 3.644 | 3.648 Mbytes
Step Temp E_pair E_mol TotEng Press Volume 
   10000    2.4060609   -4.6698205            0   -1.0616315    5.8211367    4725.2887 
   11000    1.2531996    -6.257701            0   -4.3783714     5.749121    3898.4566 
   12000    1.2436157   -6.3228909            0   -4.4579337    5.6839767    3878.4433 
Loop time of 0.472734 on 48 procs for 2000 steps with 4000 atoms

Performance: 731067.073 tau/day, 4230.712 timesteps/s
99.7% CPU use with 48 MPI tasks x no OpenMP threads

MPI task timing breakdown:
Section |  min time  |  avg time  |  max time  |%varavg| %total
---------------------------------------------------------------
Pair    | 0.2136     | 0.2288     | 0.25189    |   1.8 | 48.40
Neigh   | 0.03177    | 0.033464   | 0.03697    |   0.6 |  7.08
Comm    | 0.13532    | 0.16052    | 0.17838    |   2.4 | 33.96
Output  | 4.8959e-05 | 4.9875e-05 | 6.2211e-05 |   0.0 |  0.01
Modify  | 0.039759   | 0.045605   | 0.05289    |   1.7 |  9.65
Other   |            | 0.004292   |            |       |  0.91

Nlocal:        83.3333 ave          93 max          75 min
Histogram: 1 2 5 14 5 9 6 3 2 1
Nghost:        1671.29 ave        1695 max        1650 min
Histogram: 2 3 6 6 9 7 8 4 1 2
Neighs:        9834.58 ave       11076 max        8807 min
Histogram: 2 1 9 10 8 7 7 2 0 2

Total # of neighbors = 472060
Ave neighs/atom = 118.01500
Neighbor list builds = 143
Dangerous builds = 14

#############################
# L I N E A R  Q U E N C H  #
#############################

# Define solid atoms. This closely follows ten Wolde  Ruiz-Montero and Frenkel  Faraday Discuss  1996  104  93-110
# Compute components of the per-atom q6 vector
compute q6 all orientorder/atom degrees 1 6 components 6 nnn NULL cutoff 1.3 # compute the Q6 parameter.
                                                                             # Use all neighbours within 1.3 unit cell.

# get number of connections
compute coord_number all coord/atom orientorder q6 0.5

# An atom is solid if it has 8 or more connections (of a possible 14)
variable is_solid atom c_coord_number>=8
group solid dynamic all var is_solid    # Must be dynamic to update
dynamic group solid defined

# do clustering
compute cluster solid cluster/atom 1.3 # Create a cluster where all atoms within are solid and max 1.3 units from another member

# define chunks one chunk per cluster
compute clus_chunks solid chunk/atom c_cluster nchunk every compress yes  # Says which atoms are in which chunk

# count the size of each chunk
compute size_chunks solid property/chunk clus_chunks count


# Find the maximum entry in the vector of chunk sizes
variable max_n equal max(c_size_chunks)


# Thermo style which includes this variable
# thermo_style custom step temp pe vol v_max_n

thermo ${N}  # Print the thermo information every 100 steps
thermo 1000  

# Reset the npt fix at a lower temperature (below freezing)
fix 1  all npt temp  ${temp} ${temp}  0.1  iso  5.68  5.68  0.5  mtk yes tchain  5  pchain  5
fix 1  all npt temp  0.45 ${temp}  0.1  iso  5.68  5.68  0.5  mtk yes tchain  5  pchain  5
fix 1  all npt temp  0.45 0.45  0.1  iso  5.68  5.68  0.5  mtk yes tchain  5  pchain  5

dump dmp2 all dcd ${N} traj.dcd
dump dmp2 all dcd 1000 traj.dcd


compute msd all msd com yes
variable twopoint equal c_msd[4]/6/(step*dt+1.0e-6)
fix 9 all vector 10 c_msd[4]
variable fit equal slope(f_9)/6/(10*dt)
thermo_style custom step temp pe c_msd[4] v_twopoint v_fit v_max_n

fix 1 all npt temp 1.25 ${temp} 0.1 iso 5.68 5.68 0.5 mtk yes tchain 5 pchain 5
fix 1 all npt temp 1.25 0.45 0.1 iso 5.68 5.68 0.5 mtk yes tchain 5 pchain 5
run 5000000 # 5000000  # Run for this many steps
Neighbor list info ...
  update every 1 steps, delay 10 steps, check yes
  max neighbors/atom: 2000, page size: 100000
  master list distance cutoff = 3.8
  ghost atom cutoff = 3.8
  binsize = 1.9, bins = 9 9 9
  4 neighbor lists, perpetual/occasional/extra = 1 3 0
  (1) pair lj/cut, perpetual
      attributes: half, newton on
      pair build: half/bin/atomonly/newton
      stencil: half/bin/3d
      bin: standard
  (2) compute orientorder/atom, occasional
      attributes: full, newton on
      pair build: full/bin/atomonly
      stencil: full/bin/3d
      bin: standard
  (3) compute coord/atom, occasional
      attributes: full, newton on
      pair build: full/bin/atomonly
      stencil: full/bin/3d
      bin: standard
  (4) compute cluster/atom, occasional
      attributes: full, newton on
      pair build: full/bin/atomonly
      stencil: full/bin/3d
      bin: standard
Per MPI rank memory allocation (min/avg/max) = 9.756 | 9.761 | 9.766 Mbytes
Step Temp PotEng c_msd[4] v_twopoint v_fit v_max_n 
   12000    1.2436157   -6.3228909 2.5111415e-30 1.7438482e-32 8.3333333e+20            3 
   13000    1.2335123   -6.3247485   0.54168099 0.0034723139  0.044792051            2 
   14000    1.2799843   -6.2681019    1.0782729 0.0064182909  0.043989206            1 
   15000    1.2376326   -6.3160513    1.6047284 0.0089151576   0.04413178            3 
   16000    1.2174785    -6.310008    2.1446063  0.011169824  0.044680953            2 
   17000    1.2303617    -6.326655    2.7127024  0.013297561  0.044895564            2 
   18000    1.2334678   -6.3063024    3.2219036   0.01491622  0.045104121            1 
   19000    1.2493435     -6.30795    3.7631015  0.016504831  0.044939508            2 
   20000    1.2435556   -6.2963247    4.2893925  0.017872468  0.044771592            1 
   21000     1.249285   -6.2964497    4.8254812  0.019148735  0.044564565            2 
   22000    1.2537319   -6.2666548    5.3919316  0.020423983  0.044599311            5 
   23000    1.2262964   -6.2630001    5.9072629  0.021403126  0.044555483            3 
   24000    1.2380074   -6.3477613    6.3930714  0.022198164  0.044538005            2 
   25000    1.2404068   -6.3083855    6.8839697  0.022946565  0.044390986            2 
   26000    1.2333223   -6.2935741    7.4501842  0.023878795  0.044325467            3 
   27000    1.2516558   -6.2738982    7.8986488  0.024378545  0.044218993            2 
   28000    1.2672582   -6.3372785    8.3273514  0.024783783  0.043987483            3 
   29000     1.254962   -6.3478086    8.8372332  0.025394348  0.043701315            4 
   30000    1.2418501   -6.3640201    9.3402015  0.025945004  0.043484972            3 
   31000    1.2486471   -6.2725339    9.7633613  0.026245594  0.043220222            3 
   32000    1.2312232   -6.3253385    10.205454  0.026576702  0.042916837            2 
   33000    1.2607091   -6.3027618    10.812943   0.02730541  0.042727465            4 
   34000    1.2129599   -6.3386321    11.365241  0.027855982  0.042655823            1 
   35000    1.2108998   -6.3219003    11.894681  0.028320668  0.042636425            2 
   36000    1.2384667   -6.3128807    12.466939  0.028858656  0.042629126            2 
   37000    1.2502882    -6.312591    12.999794  0.029278816  0.042673428            2 
   38000     1.239949   -6.3675659    13.335881  0.029245352  0.042671476            2 
   39000    1.2633355   -6.3175621    13.898376  0.029697384  0.042622971            2 
   40000    1.2290031   -6.2965643    14.426602  0.030055419  0.042590394            3 
   41000    1.2491697   -6.3161988    14.919184  0.030323544  0.042571821            1 
   42000    1.2496576   -6.3086497      15.2823  0.030322023  0.042500885            2 
   43000    1.2495424   -6.3230658    15.772231  0.030566338  0.042413982            2 
   44000     1.239711   -6.3289478    16.446233  0.031148169  0.042369215            4 
   45000    1.2554747   -6.2983473    16.773653   0.03106232  0.042328465            2 
   46000    1.2635897   -6.3620553    17.254987  0.031259033  0.042260866            2 
   47000    1.2402699   -6.3390358    17.675388   0.03133934  0.042168765            3 
   48000    1.2511286   -6.3419675    18.098422  0.031420871  0.042062539            4 
   49000    1.2505515   -6.3228847    18.656679  0.031729045  0.041968591            2 
   50000    1.2634639   -6.2512132    19.244222  0.032073704  0.041913346            2 
   51000    1.2215218    -6.329903     19.90715  0.032528022   0.04190466            3 
   52000    1.2447845   -6.3035949    20.449286  0.032771291  0.041929682            3 
   53000    1.2657326   -6.3325927    21.105133   0.03318417  0.041975809            2 
   54000    1.2378827   -6.3326122    21.663707  0.033431647  0.042043756            3 
   55000    1.2416813   -6.2992877    22.149583  0.033559974  0.042112215            3 
   56000    1.2469738   -6.3063361    22.800571   0.03392942  0.042191578            4 
   57000    1.2595936    -6.307513    23.509677  0.034370873   0.04229723            2 
   58000    1.2511395   -6.3205332     24.09382  0.034617557  0.042414924            2 
   59000    1.2342087   -6.3188596    24.346173   0.03438725  0.042511731            2 
   60000    1.2401504   -6.3654011    24.924334   0.03461713  0.042576409            2 
   61000    1.2324634    -6.360784    25.550159  0.034904589  0.042656976            2 
   62000    1.2606154    -6.299949    26.227797  0.035252415   0.04274983            2 
   63000    1.2419334   -6.3167712    26.928881  0.035620212  0.042856427            2 
   64000    1.2349134   -6.3183075    27.445861  0.035736797  0.042956199            2 
   65000    1.2258795   -6.3396724    27.885194  0.035750249  0.043054365            1 
   66000    1.2478693    -6.319283    28.648512  0.036172363  0.043155219            2 
   67000    1.2316484   -6.3282633    29.221301  0.036344901  0.043262085            3 
   68000    1.2441758   -6.2933242     29.85695  0.036589399  0.043377203            2 
   69000    1.2336726   -6.3394722    30.553273  0.036900088   0.04349609            1 
   70000    1.2277575   -6.3465339    31.139425  0.037070744  0.043630436            2 
   71000    1.2342094   -6.2733393    31.752664  0.037268385   0.04376084            1 
   72000    1.2599613   -6.3080943    32.298557  0.037382589  0.043888164            2 
   73000    1.2467481   -6.3512751    32.807959  0.037452008  0.043996323            3 
   74000    1.2309684   -6.2986676    33.401791   0.03761463  0.044103543            3 
   75000    1.2691162    -6.290344    33.881084  0.037645649  0.044198716            1 
   76000    1.2229863   -6.3428996    34.166116  0.037462846  0.044270754            2 
   77000    1.2471154   -6.3489165    34.667808  0.037519272  0.044320612            2 
   78000    1.2401447   -6.3289604     34.98734  0.037379637  0.044346922            2 
   79000    1.2443738   -6.3354099    35.497209  0.037444313  0.044358022            1 
   80000    1.2368489    -6.314707    36.129239  0.037634623   0.04436839            2 
   81000    1.2471966   -6.2894054    36.579242  0.037632965  0.044377908            3 
   82000    1.2342846   -6.3190291    37.167027  0.037771368   0.04439149            1 
   83000    1.2240952   -6.3112116    37.905822  0.038058054  0.044411705            4 
   84000    1.2536365   -6.3392295    38.224518  0.037921148  0.044432337            4 
   85000    1.2405767   -6.3328832    38.687299  0.037928724  0.044435998            1 
   86000    1.2318299   -6.3061375    38.977989  0.037769369  0.044424848            3 
   87000    1.2330018   -6.3129106     39.53685  0.037870546  0.044408796            1 
   88000    1.2443361   -6.2930113    40.183075  0.038052154  0.044394493            2 
   89000    1.2260954   -6.3388663    40.547462  0.037965788  0.044385802            1 
   90000    1.2037705   -6.3448242     40.83707  0.037812101  0.044361413            3 
   91000    1.2285783   -6.3020881    41.216403  0.037743959  0.044323126            2 
   92000    1.2395584   -6.3245976    41.505527  0.037595586  0.044264529            2 
   93000      1.26179   -6.3325063    42.036306  0.037666941  0.044211015            5 
   94000    1.2366932   -6.3107414    42.591794  0.037758682  0.044158046            1 
   95000    1.2400144    -6.354324    43.047095  0.037760609  0.044114515            2 
   96000    1.2577171   -6.3365995     43.38904  0.037664097  0.044056816            2 
   97000    1.2248146    -6.333303    43.926778  0.037737781  0.043999234            2 
   98000    1.2427126   -6.3522755     44.35297  0.037715111  0.043951089            4 
   99000      1.23565   -6.3474233    44.856741  0.037758199  0.043897366            5 
  100000    1.2207423   -6.3208742    45.399668  0.037833056  0.043847335            1 
  101000    1.2301672   -6.3628389    45.980649  0.037937829  0.043794652            2 
  102000     1.209911    -6.287798    46.453054  0.037951841  0.043748299            1 
  103000    1.2503609   -6.2913375    47.052411  0.038068293  0.043703711            4 
  104000    1.2355009   -6.3598184     47.53748  0.038090929  0.043666877            1 
  105000    1.2512932    -6.305966    47.732207  0.037882704  0.043621171            3 
  106000    1.2692552   -6.3454051    48.255206  0.037936483  0.043571336            3 
  107000    1.2311648   -6.3437007    48.739258  0.037958924   0.04352368            2 
  108000    1.2119139   -6.3278585    49.380861  0.038102516  0.043474238            1 
  109000    1.2544797   -6.3254725    49.701584  0.037998153  0.043426263            2 
  110000    1.2391382   -6.3376309    50.457063  0.038225048  0.043386962            2 
  111000    1.2460223   -6.3268648    50.949321  0.038250241  0.043353206            2 
  112000    1.1893898   -6.3211961    51.374054  0.038224743  0.043321496            1 
  113000    1.2523992   -6.3465961    51.906348  0.038279017   0.04328972            2 
  114000     1.255517   -6.3476284    52.737918   0.03855111  0.043271325            2 
  115000    1.2338852   -6.3418958    53.446267  0.038729179  0.043264937            5 
  116000    1.2056748    -6.335434    53.804394  0.038652582  0.043252094            3 
  117000    1.2589523   -6.3561024     54.16766  0.038580954  0.043232482            2 
  118000    1.2384501   -6.3609655    54.627316  0.038578613  0.043209426            4 
  119000    1.2491759   -6.3254822    54.837727  0.038401769  0.043184479            2 
  120000    1.2529933    -6.336892    55.543333  0.038571759  0.043156624            1 
  121000    1.2276285   -6.3413716    56.076083  0.038619892  0.043136779            2 
  122000    1.2365906   -6.3149681    56.754313  0.038766607  0.043116496            3 
  123000    1.2256414   -6.3353422    57.013657  0.038627139  0.043094777            2 
  124000    1.2674001   -6.3311202    57.615178  0.038719878  0.043071644            2 
  125000    1.2455044   -6.3633656     58.27319  0.038848793  0.043058446            3 
  126000    1.2425015   -6.3437636    58.751059   0.03885652  0.043044485            2 
  127000    1.2095227   -6.3380576    59.364225  0.038952903  0.043032512            1 
  128000    1.2113668   -6.3527348     59.84158  0.038959362   0.04302383            2 
  129000     1.232431   -6.2956981    60.300727  0.038953958  0.043019245            4 
  130000    1.2299297   -6.3751114    61.197789  0.039229352  0.043015144            4 
  131000    1.2402967   -6.3743472    61.549987  0.039153936   0.04300983            2 
  132000    1.2269491   -6.3642225    62.026868  0.039158376  0.043006723            2 
  133000    1.2123827    -6.357181    62.492809  0.039155896  0.043004901            2 
  134000    1.2480001   -6.3488183    63.172692    0.0392865   0.04300636            1 
  135000    1.2278046   -6.3338696    63.915759  0.039454172  0.043009284            1 
  136000    1.2122496   -6.3574839    64.198756  0.039337473  0.043012384            2 
  137000    1.1997495   -6.3499841    64.814055  0.039424608   0.04301462            4 
  138000     1.207814    -6.344497    65.411251  0.039499548  0.043017118            2 
  139000    1.2372254   -6.3338484    65.741215  0.039413198  0.043011527            3 
  140000    1.2235679    -6.352604    65.793389  0.039162731  0.043001343            2 
  141000    1.2301092   -6.3743012    66.545889  0.039329721  0.042988407            2 
  142000    1.1930756   -6.3730129    67.158456  0.039412239  0.042978885            3 
  143000    1.2157842   -6.3797349     67.42272   0.03929063  0.042969325            2 
  144000    1.2203479   -6.3470487    67.885867  0.039285802  0.042957107            3 
  145000    1.2171277    -6.380031    68.530954  0.039385606  0.042946166            4 
  146000    1.2179273    -6.327332    69.133436  0.039459723  0.042936532            3 
  147000    1.2374207   -6.3697366    69.492938  0.039395089  0.042928878            3 
  148000     1.240562   -6.3585742    69.956048  0.039389666  0.042918792            3 
  149000    1.2563281    -6.340574    70.680377  0.039530412  0.042909715            3 
  150000    1.2367497   -6.3609286     70.88134  0.039378522   0.04290181            1 
  151000    1.1991933   -6.3834272    71.073329  0.039223691  0.042885588            2 
  152000    1.2026464   -6.3063892    71.410248  0.039150355  0.042866822            3 
  153000    1.2219785   -6.3648561    72.253059  0.039353518  0.042849266            1 
  154000    1.2481105   -6.4039849    72.660412  0.039318404   0.04282908            3 
  155000    1.2228284   -6.3515929    73.026198  0.039261397  0.042811276            6 
  156000    1.2645035   -6.3379671    74.047965  0.039555537  0.042797755            3 
  157000    1.2029685   -6.3379344    74.492629  0.039539612  0.042790011            1 
  158000     1.245639   -6.3964933    74.635014  0.039364459  0.042779996            3 
  159000    1.2341808   -6.3437785    75.477875  0.039558634  0.042767566            4 
  160000    1.2474379   -6.3504215    75.761662  0.039459199   0.04275701            1 
  161000    1.1957197   -6.3125618    76.616854  0.039656756  0.042748402            1 
  162000    1.2129594   -6.3701079    76.939427  0.039577895  0.042737827            2 
  163000    1.2352443   -6.3579288    77.136346  0.039435759   0.04272472            3 
  164000    1.2277978   -6.3659478    77.683754  0.039473452  0.042712662            2 
  165000     1.215663   -6.3549035    78.261742  0.039526132   0.04269801            2 
  166000    1.2436932   -6.3069766    78.861488    0.0395891  0.042685594            2 
  167000    1.2452565   -6.3659896    79.141963  0.039491997  0.042672124            1 
  168000    1.2511051   -6.3489378     79.36426  0.039367193  0.042655879            2 
  169000    1.2268968   -6.3198081    79.918175  0.039407384  0.042636343            5 
  170000     1.226564   -6.3749075    80.313548  0.039369386  0.042615143            4 
  171000    1.2315054   -6.3800506    80.338604  0.039151367  0.042592486            1 
  172000       1.2356   -6.3791348    80.598567  0.039049693  0.042566235            2 
  173000    1.2145722   -6.3351055    81.159146  0.039094001  0.042536762            2 
  174000    1.2199504     -6.36498    81.647614  0.039103263  0.042508408            2 
  175000    1.2486698   -6.3580711    82.084052  0.039087644  0.042478419            2 
  176000    1.2223053    -6.375052    82.669326  0.039142673  0.042450619            1 
  177000    1.2517266   -6.3415609    83.268078  0.039203426  0.042424136            2 
  178000     1.222642   -6.3602737    83.715229  0.039192523  0.042398983            1 
  179000     1.224175   -6.3536479    84.499601  0.039338734  0.042376579            1 
  180000    1.2105902   -6.3688036    84.614773  0.039173506   0.04235452            2 
  181000    1.2350505   -6.3228722    85.660836  0.039438691  0.042335873           10 
  182000    1.2450438   -6.3670723    85.810029  0.039290306  0.042317397            1 
  183000    1.2327236   -6.3924912    86.307869  0.039302308  0.042296512            3 
  184000    1.2016492   -6.3265429    86.940416  0.039375188  0.042276491            5 
  185000    1.2352271   -6.3472408    87.381526  0.039361048  0.042259161            3 
  186000    1.2439564   -6.3579196    88.274321  0.039549427  0.042246651            3 
  187000    1.2201804   -6.3549558    89.398334   0.03983883  0.042237023            4 
  188000    1.2068012   -6.3960278    88.976118  0.039439768  0.042226768            2 
  189000    1.2273971   -6.3931143    89.325939  0.039385334  0.042215373            1 
  190000    1.2105308   -6.3632402     90.08762  0.039512114  0.042205005            2 
  191000    1.2179532   -6.3525304    90.731413  0.039586131  0.042196034            2 
  192000    1.2266719   -6.3648827    90.731658   0.03938006  0.042184956            2 
  193000     1.217607   -6.4331765    91.294477  0.039419031  0.042171254            4 
  194000    1.2066931   -6.3674708    92.409957  0.039694998  0.042157703            2 
  195000    1.1832292    -6.389361    92.364099  0.039471837  0.042145448            3 
  196000    1.1935357   -6.3464045    93.104961  0.039585442  0.042134224            3 
  197000    1.2463908   -6.3252652     94.07674  0.039795575  0.042127554            2 
  198000    1.2477942   -6.3761876     94.27191   0.03967673  0.042120921            2 
  199000    1.2324543    -6.393041    94.684962  0.039650319  0.042110614            2 
  200000    1.2116821   -6.3667885    94.979443  0.039574768  0.042099591            2 
  201000    1.2164316   -6.3543663    95.321847  0.039519837  0.042087341            2 
  202000    1.2198558   -6.3571041    96.156215  0.039668406  0.042077615            2 
  203000    1.2166407   -6.3720169    96.147595  0.039469456  0.042067418            2 
  204000    1.2290523   -6.3877288    96.939034  0.039599279  0.042056016            2 
  205000    1.2119235   -6.3568393    97.321597  0.039561625  0.042046074            4 
  206000    1.2132161   -6.3442692    97.776112  0.039553443   0.04203566            2 
  207000    1.2127981   -6.3829154    98.090703  0.039489011   0.04202375            3 
  208000    1.2253233    -6.341629    98.931791  0.039636134  0.042010849            3 
  209000    1.1766932   -6.3620284    99.239463  0.039569164  0.041997437            2 
  210000    1.2099062   -6.3892625    99.168492  0.039352576  0.041982585            2 
  211000    1.2129738   -6.3649673    99.535407  0.039310982  0.041965952            4 
  212000    1.2107038    -6.377736    100.06871  0.039335186   0.04194954            4 
  213000    1.2590642   -6.3715067    100.43226  0.039292746  0.041931583            8 
  214000    1.1973274   -6.3777992    101.47421  0.039514878  0.041915799            3 
  215000    1.2074993   -6.3773927    101.68395  0.039412382  0.041900609            2 
  216000    1.2116312   -6.3501205    102.36125  0.039491222  0.041886487            1 
  217000    1.2216199   -6.3657191    102.96008    0.0395392  0.041872142            2 
  218000    1.2071965   -6.3885915     103.0442  0.039389985   0.04185902            4 
  219000    1.2561837   -6.3442632    103.81209  0.039502318  0.041842303            2 
  220000    1.1955638   -6.3767336    104.66925  0.039647443  0.041829356            2 
  221000    1.1976127   -6.3663624    105.09647  0.039629138  0.041818418            3 
  222000    1.2191576   -6.4128453    105.40425  0.039566161  0.041807928            3 
  223000    1.2259495   -6.3764593    105.43339  0.039399621   0.04179436            2 
  224000    1.1938143   -6.3759894    106.01274  0.039439262    0.0417817            2 
  225000    1.1961243   -6.3595319    107.12471   0.03967582  0.041768707            2 
  226000    1.2497564   -6.3645775    107.14674  0.039508384  0.041755638            3 
  227000    1.2065245    -6.345428    107.38359   0.03942129  0.041741015            5 
  228000    1.1977863   -6.3814958    107.92128  0.039444913  0.041727159            2 
  229000    1.2248552   -6.3803598    108.69732  0.039555066  0.041715449            2 
  230000    1.2039823   -6.3522007    108.82287  0.039428574  0.041704623            3 
  231000    1.2182176   -6.3594357    109.71228  0.039578745  0.041693189            2 
  232000    1.2306601    -6.422643    110.24505  0.039599515  0.041682359            1 
  233000    1.1871942   -6.4049778    110.35391  0.039468494   0.04167194            3 
  234000    1.2238313   -6.3657367    111.54083  0.039722519  0.041662518            2 
  235000    1.2259823   -6.3759948    111.76515  0.039633031  0.041654432            3 
  236000     1.244728   -6.3188255    112.71069  0.039798972  0.041647476            2 
  237000    1.2008195   -6.3574098    113.08343  0.039762106  0.041640842            3 
  238000    1.2128707   -6.3857364    114.05647  0.039935737  0.041635988            2 
  239000    1.2171908   -6.3747047    113.54484  0.039590252  0.041630282            3 
  240000    1.2240809   -6.3695848    114.02968   0.03959364  0.041621052            2 
  241000    1.2019425   -6.3871703    114.44537  0.039573088  0.041610611            3 
  242000    1.2068631    -6.365606    114.83198  0.039542692  0.041598483            1 
  243000    1.2290934   -6.3825158    115.10689  0.039474243  0.041586971            3 
  244000    1.2283845   -6.3480779    116.04516  0.039632909  0.041575187            4 
  245000    1.2205689   -6.3876606      116.394  0.039589796  0.041565658            4 
  246000    1.2172103    -6.361504     116.9154  0.039605487  0.041555168            1 
  247000    1.2028398   -6.3867366    117.04425  0.039488613  0.041543507            2 
  248000    1.2248744   -6.4002242    117.94628  0.039632486  0.041532629            1 
  249000     1.235906   -6.3844471    118.45119  0.039642299  0.041523527            2 
  250000    1.2117966   -6.4057823    118.90389  0.039634629  0.041515512            2 
  251000    1.2053925   -6.3539814     119.5068  0.039676891  0.041508038            2 
  252000    1.1735322   -6.3724498    119.53455   0.03952862  0.041498903            3 
  253000    1.2213936   -6.3892052    120.15246   0.03957591   0.04148954            2 
  254000    1.1794883   -6.4208746     120.8294  0.039642192  0.041480309            3 
  255000    1.2183281    -6.401813    120.74213  0.039458213  0.041468896            2 
  256000     1.187318   -6.3695648    121.36487  0.039506794  0.041456401            1 
  257000    1.2227874   -6.3822993     121.6372  0.039441373  0.041443836            3 
  258000    1.1850725   -6.3711836    122.03993  0.039418582  0.041432538            3 
  259000    1.1580925   -6.3914802    122.55042  0.039430638  0.041420575            2 
  260000    1.2213605    -6.397791    123.27957  0.039512684  0.041409783            1 
  261000    1.2114951   -6.4322404    123.91654  0.039564669  0.041401197            2 
  262000    1.2025127   -6.4072769    124.57146  0.039621967  0.041392988            1 
  263000    1.2438779   -6.3767473    124.59114  0.039477548  0.041381778            3 
  264000    1.2139324   -6.3908658    125.39597   0.03958206  0.041371735            3 
  265000    1.2005436   -6.3653685    125.58868  0.039493295  0.041362571            2 
  266000    1.2142793    -6.434094    125.84688  0.039425716     0.041353            3 
  267000    1.2037452   -6.3799465    126.58297  0.039507794  0.041343677            2 
  268000    1.2340743   -6.3642206    128.02924  0.039810086  0.041336732            2 
  269000    1.1953679   -6.3312203    128.12713   0.03969242  0.041331459            3 
  270000    1.1951532   -6.3841911    128.74445  0.039735943    0.0413249            2 
  271000    1.1704946   -6.3544236    129.26588  0.039749657  0.041319358            2 
  272000    1.1964936   -6.3578733    129.69978  0.039736451   0.04131443            2 
  273000    1.2040013   -6.4090067    129.48548  0.039525481  0.041305707            2 
  274000    1.2093509   -6.3712783    130.24383  0.039611869  0.041298076            6 
  275000    1.2139168   -6.3996808    130.65596  0.039592715  0.041290121            2 
  276000    1.2253488   -6.3926809    131.23183  0.039623136  0.041284109            1 
  277000    1.2053841   -6.3902059     131.8067  0.039653039  0.041276583            1 
  278000    1.1789076   -6.3982841    132.69543  0.039776807  0.041270604            2 
  279000     1.208537   -6.4177976    132.97639  0.039718157  0.041263579            2 
  280000    1.2007606   -6.3644984    133.41415  0.039706592  0.041258972            2 
  281000    1.2059343   -6.4049514    133.04278  0.039455155  0.041253278            3 
  282000    1.1637583   -6.4019551    134.11894  0.039633257  0.041245684            1 
  283000    1.1903851   -6.3740278    134.90586  0.039724928  0.041239443            2 
  284000    1.1992381   -6.4084319    135.23948  0.039682947  0.041234164            1 
  285000    1.2187643   -6.4112621    135.52924  0.039628432  0.041227888            2 
  286000    1.1882015   -6.3798237    136.28044  0.039708753  0.041222295            5 
  287000    1.2075199   -6.4052007     137.1022  0.039809001  0.041219343            1 
  288000    1.2166701    -6.393097    137.34941  0.039742305  0.041215509            3 
  289000    1.2121058    -6.383341    137.26646   0.03958087  0.041210232            2 
  290000    1.2112252   -6.4132059    137.84191  0.039609745  0.041203957            3 
  291000    1.2302812    -6.373979    138.83108  0.039756895  0.041198935            4 
  292000    1.2125836   -6.3697975    139.79277  0.039895198  0.041194634            3 
  293000    1.2129154   -6.3921304    139.77373   0.03975362  0.041190931            1 
  294000    1.2198611   -6.4025415    140.46339  0.039813887  0.041187754            1 
  295000    1.2192963   -6.4004212     140.4413  0.039672683  0.041184183            4 
  296000    1.1975058   -6.4171211    140.99735    0.0396952  0.041179208            6 
  297000    1.2069557   -6.3684988    141.85041  0.039800902  0.041173682            2 
  298000    1.1915458   -6.3919897    141.74736  0.039638525  0.041169605            4 
  299000     1.201552   -6.3756858    142.28512  0.039655832  0.041164203            1 
  300000    1.1775817   -6.3736192    142.98894   0.03971915  0.041157687            3 
  301000    1.1973282   -6.3639201    143.45309  0.039715696  0.041150749            1 
  302000    1.1963684   -6.4169402    142.98816  0.039455895  0.041142587            3 
  303000    1.2082332   -6.4094099    143.70369  0.039522467  0.041132874            2 
  304000    1.1993152   -6.3677688    144.91872  0.039725528   0.04112454            1 
  305000    1.2058792   -6.4065286    144.99749  0.039616801  0.041117536            2 
  306000    1.2489401   -6.4117236    145.52587  0.039631228  0.041110797            2 
  307000    1.2221338   -6.4271922    145.98823  0.039627642  0.041103971            3 
  308000    1.2010398   -6.4213584     146.7994  0.039718452  0.041098421            3 
  309000     1.206666   -6.4074012    147.16774  0.039689251  0.041092939            6 
  310000    1.1996879   -6.3501752    148.24078  0.039849672  0.041088328            3 
  311000     1.213196   -6.3941701     148.0977    0.0396832  0.041085163            3 
  312000    1.1915815   -6.4148703    148.88699  0.039766825  0.041082444            2 
  313000    1.1945141   -6.4165991    149.23727  0.039733032  0.041079615            2 
  314000    1.2254795   -6.3659003    149.76777  0.039747286  0.041076147            1 
  315000    1.1807343   -6.4174157     150.4938  0.039813175  0.041072609            3 
  316000    1.2061836   -6.4150016    151.07706  0.039840995  0.041067764            3 
  317000    1.1663432   -6.4049592    150.73553  0.039625534  0.041062646            2 
  318000     1.211404   -6.4020638    151.41721  0.039679562  0.041056414            3 
  319000    1.1909626   -6.4125247     151.9881   0.03970431  0.041050986            1 
  320000    1.1885991   -6.4405315    152.52364  0.039719697  0.041046484            2 
  321000    1.1720536   -6.4149766    153.29197  0.039795424  0.041040272            4 
  322000    1.2005469   -6.4034954    153.61671  0.039755876  0.041035423            3 
  323000    1.2129278   -6.4061996    154.09112  0.039755191   0.04102994            3 
  324000    1.1958473   -6.3873735    155.31764  0.039947953  0.041026772            6 
  325000    1.2171935   -6.3827754    155.24328  0.039805968  0.041024152            2 
  326000    1.2171989   -6.3944924    155.81844   0.03983089  0.041020684            4 
  327000    1.1747215   -6.4283081    156.11494  0.039784644  0.041016994            2 
  328000    1.1814227   -6.4397884    157.45011  0.040002569   0.04101505            4 
  329000    1.1938747   -6.3769269    157.59553  0.039917813  0.041013738            2 
  330000    1.1725123   -6.4685128    157.67471  0.039816846  0.041012431            7 
  331000    1.2191449    -6.429008    158.42935  0.039886544  0.041010739            2 
  332000    1.2052705   -6.4345652     158.4945  0.039782756  0.041007942            3 
  333000    1.1906841    -6.369289    159.20963   0.03984225  0.041004181            1 
  334000    1.1989317   -6.4384206     159.6907  0.039842988  0.040999951            4 
  335000    1.1880552   -6.3934862    159.85564  0.039765085   0.04099594            1 
  336000    1.1984246   -6.3782645    160.37458  0.039775441  0.040992552            4 
  337000    1.1821567   -6.4015997    161.02298  0.039817749  0.040988179            2 
  338000    1.2311494   -6.3948837    161.42664  0.039799468  0.040984122            1 
  339000     1.218631   -6.4368552    162.15361   0.03986077  0.040980043            3 
  340000    1.1978757    -6.416902     162.3619  0.039794583  0.040977047            2 
  341000    1.1918569   -6.3980252    162.93572  0.039818114  0.040973437            4 
  342000     1.181546   -6.4238929    162.74683  0.039655659  0.040968736            3 
  343000    1.1934041   -6.3657049    163.24064  0.039660019  0.040962773            3 
  344000     1.181852   -6.3938481    163.56567  0.039623466  0.040955373            3 
  345000    1.1805236   -6.3890791    163.88611  0.039586016  0.040947647            5 
  346000    1.1941802   -6.4095855     163.7571  0.039440536  0.040939742            3 
  347000    1.2067107   -6.3992696     164.5527  0.039517938  0.040932366            2 
  348000    1.1953909   -6.4157579    165.27559  0.039577487  0.040924733            6 
  349000    1.2065188    -6.396173    165.73832  0.039574576  0.040917341            2 
  350000    1.1982094   -6.4199906     165.4506  0.039392999  0.040909968            2 
  351000    1.2107104   -6.3976896    166.74669  0.039588483  0.040902658            3 
  352000    1.2095077    -6.386474    168.03982  0.039782155   0.04089603            1 
  353000    1.1956738   -6.4584913    167.94908  0.039648035  0.040890716            2 
  354000     1.171157   -6.3770106    168.75247  0.039725157  0.040885472            2 
  355000    1.1929357   -6.4144043     168.9144  0.039651267  0.040879808            4 
  356000    1.1736784   -6.3647677    168.98869  0.039557278  0.040874377            2 
  357000    1.1968577   -6.3961608    170.47078  0.039792431  0.040870275            2 
  358000    1.2092714   -6.4149794    170.31458  0.039644921  0.040865936            1 
  359000    1.1954558   -6.4068291    171.15583  0.039729765  0.040861069            2 
  360000    1.1754004   -6.3844815    171.84749  0.039779511  0.040856952            4 
  361000    1.1912975   -6.3776174    172.45808  0.039810269  0.040854805            2 
  362000     1.186018   -6.4410454    172.82153  0.039783961  0.040852333            3 
  363000    1.2002828    -6.406956    173.06811  0.039730972  0.040849918            4 
  364000    1.2000211   -6.3772228     174.5756  0.039966941  0.040847209            1 
  365000    1.2014939   -6.4082242    174.41868  0.039821616  0.040845845            3 
  366000    1.1807912   -6.4211364    175.08617  0.039864793   0.04084436            1 
  367000    1.2191342   -6.4102466    175.51367  0.039853241  0.040842458            2 
  368000    1.1982076   -6.4075841    176.43397  0.039953344  0.040840663            3 
  369000    1.1691088   -6.4077158    176.71448  0.039908418  0.040838717            1 
  370000    1.1919191    -6.430998    177.02357  0.039870173  0.040837623            3 
  371000     1.207401   -6.4113337    176.93271  0.039742299  0.040835489            5 
  372000    1.1837806   -6.4536849    177.90399  0.039853043  0.040832472            3 
  373000    1.1503034   -6.4054891    178.22164  0.039817167   0.04082977            3 
  374000    1.2078637    -6.406067    178.84908  0.039850509   0.04082687            2 
  375000    1.1619938    -6.380047    180.00797   0.04000177  0.040824943            3 
  376000    1.1869518   -6.4380195    180.19912  0.039937749  0.040823686            2 
  377000    1.1786264   -6.4225197    180.50139  0.039898627  0.040822217            2 
  378000    1.1766062   -6.4335324    180.73313  0.039844164  0.040820529            2 
  379000    1.2031556   -6.3645203    181.97836  0.040012833  0.040819253            3 
  380000    1.1830719   -6.4220927    181.25649   0.03974923  0.040817041            3 
  381000    1.1914717   -6.4377514    181.69012  0.039739747   0.04081368            4 
  382000    1.1617203   -6.3882786    182.58051  0.039829954  0.040810548            4 
  383000    1.1748473   -6.3961023    182.83284  0.039780861  0.040806366            1 
  384000    1.1819956   -6.4456349    183.14817  0.039745696  0.040802926            2 
  385000    1.2139049   -6.4226604    184.09393  0.039847171  0.040799296            2 
  386000    1.1888814   -6.4225102    183.37302  0.039588303   0.04079573            2 
  387000     1.211289   -6.4399406    184.63654  0.039758083   0.04079107            1 
  388000    1.1970178   -6.4165543    185.15928  0.039767888  0.040786673            4 
  389000    1.2041707   -6.3971004    185.82916  0.039809161  0.040782954            3 
  390000    1.1809762   -6.4366768    185.57904  0.039653642  0.040779743            2 
  391000     1.157715   -6.4012021    186.73114  0.039797771  0.040776825            3 
  392000    1.1883651   -6.3957081    188.78863  0.040133638  0.040774949            5 
  393000    1.2095479   -6.4479164    188.31346  0.039930759  0.040772625            1 
  394000    1.1945108   -6.4336732    188.01747  0.039766809  0.040769941            2 
  395000    1.1958345   -6.4574609    188.57907  0.039784613  0.040766947            4 
  396000    1.1625054   -6.4221984    189.84313  0.039950153  0.040765149            1 
  397000    1.2079045   -6.4237235    189.90921  0.039863393  0.040763918            2 
  398000    1.1811903   -6.4475762    190.58345  0.039904407  0.040762243            2 
  399000    1.1789323   -6.4487664    190.53277  0.039793811  0.040760726            2 
  400000    1.1694916   -6.4571817    191.53984  0.039904133  0.040759425            3 
  401000    1.1825463   -6.4086614    191.54446  0.039805581  0.040757714            2 
  402000    1.1810036   -6.4401531    191.84288  0.039768425  0.040755417            1 
  403000    1.1724793   -6.4379768    192.56123  0.039818286  0.040752423            2 
  404000    1.1847462   -6.4210531    192.73024  0.039754587  0.040749679            2 
  405000    1.2160967    -6.430704    193.35033  0.039784018  0.040747188            2 
  406000    1.1717919   -6.4269368    193.72105  0.039762121  0.040743187            3 
  407000    1.1800486   -6.4318508    194.38238  0.039799832  0.040738639            2 
  408000    1.1846333   -6.4263124    194.52796  0.039732018  0.040734376            4 
  409000    1.1962761   -6.4727412    194.21827  0.039571776  0.040729804            4 
  410000    1.1789442   -6.4365386    195.10021  0.039654514  0.040724965            5 
  411000    1.1877355   -6.4354605    195.35591  0.039609877  0.040719271            3 
  412000     1.175651   -6.4146154    195.30534  0.039503508  0.040712862            1 
  413000    1.2010565   -6.4707572    195.38485    0.0394239  0.040706829            2 
  414000    1.2199937   -6.3967067    196.20133  0.039493021   0.04070011            5 
  415000    1.2022133   -6.4128011    197.02267  0.039562784  0.040693834            2 
  416000    1.1803347   -6.4503474    196.84348  0.039431786  0.040687142            3 
  417000    1.2099704   -6.4274101    197.49643  0.039467711  0.040680851            3 
  418000     1.173661   -6.4064065    198.32989  0.039539451  0.040674021           10 
  419000     1.154056   -6.4789902      198.113   0.03940195  0.040667028            3 
  420000    1.1709203   -6.4306343    198.51115  0.039387134  0.040658137            2 
  421000    1.1755918   -6.3961238    199.17459    0.0394249  0.040649544            1 
  422000    1.1486107    -6.426564    200.32143  0.039557944  0.040641657            2 
  423000    1.1873111   -6.3993405    201.36103  0.039669233  0.040635262            3 
  424000     1.178619   -6.4069939    201.81309  0.039664522  0.040629591            4 
  425000    1.1643958   -6.4206798    202.58223  0.039722006  0.040625065            3 
  426000    1.1961003   -6.4202394    202.11042  0.039536467  0.040620725            3 
  427000     1.155385   -6.4119587    202.95529  0.039608761  0.040615944            1 
  428000    1.1972091   -6.4330455    203.16878  0.039557784  0.040610436            3 
  429000    1.1950514   -6.4269024    203.35979   0.03950268  0.040604544            1 
  430000    1.1829148   -6.4577625    203.16609  0.039373273  0.040597316            2 
  431000    1.1854907    -6.417572    204.79602  0.039597064  0.040590298            4 
  432000    1.1748147   -6.4688416    204.35629   0.03942058  0.040583832            4 
  433000    1.1573214   -6.4428249    205.51412  0.039552372  0.040577735            1 
  434000    1.1987542   -6.4248384    205.75942  0.039508336  0.040572271            1 
  435000    1.1970179   -6.4802995    205.47725  0.039363457  0.040565249            2 
  436000    1.1593762   -6.4396764     206.4099  0.039451434  0.040558947            2 
  437000    1.1873113   -6.4316846    207.33725  0.039537996  0.040552949            4 
  438000    1.1849079    -6.468272    207.56131  0.039490356  0.040546442            1 
  439000    1.1809175   -6.4488447    208.82557  0.039640389  0.040540076            3 
  440000    1.2288065   -6.3993675    208.96518  0.039576739  0.040534231            3 
  441000    1.1701871   -6.4471963    208.83426  0.039462256  0.040529007            2 
  442000    1.1746183   -6.4123353    209.79387  0.039553897  0.040522948            4 
  443000    1.1857606   -6.4431158    209.62024  0.039431948  0.040516126            1 
  444000    1.1940819   -6.4287793    209.92616  0.039400556   0.04050889            3 
  445000    1.1762181   -6.4435659     210.7901  0.039473801  0.040501936            5 
  446000    1.1790504   -6.4257214    211.30242  0.039481021  0.040495274            2 
  447000    1.1518948   -6.4562108    211.13163  0.039360855  0.040489291            2 
  448000    1.1475528    -6.440957    211.85519  0.039407587  0.040482966            2 
  449000    1.1887558   -6.4093784    213.09102  0.039549187  0.040476768            3 
  450000    1.1851559   -6.4323808    212.33117  0.039320587  0.040470911            2 
  451000    1.1773043    -6.458245    213.41342  0.039433373  0.040463921            6 
  452000    1.1804514   -6.4217023    214.06258  0.039465814  0.040457077            1 
  453000    1.1911611   -6.4594997    213.70099  0.039312176  0.040450078            3 
  454000    1.1812703   -6.4419168    214.66035   0.03940168  0.040443385            4 
  455000    1.2193958   -6.4289298    215.51358  0.039471353   0.04043674            3 
  456000     1.182705   -6.4176516    215.56545  0.039394272  0.040429195            2 
  457000    1.1834273   -6.4613013    215.64872  0.039323253  0.040422025            2 
  458000    1.1792844   -6.4171188     216.1678  0.039331842  0.040414232            2 
  459000    1.1741483   -6.4260048    215.87561  0.039193103  0.040406355            2 
  460000    1.1816366   -6.4224191    216.80668  0.039276572  0.040398469            2 
  461000    1.1897973   -6.4386961    217.27781  0.039276538  0.040390238            2 
  462000    1.1760813   -6.4456333    216.30027  0.039015201  0.040381156            6 
  463000    1.1759214    -6.461869    217.60824   0.03916635  0.040371471            3 
  464000    1.1474068   -6.4214082    218.43593   0.03923059  0.040362107            2 
  465000    1.1860103   -6.4393073    218.10037  0.039086088  0.040352397            3 
  466000    1.1810715   -6.4281531    219.07321  0.039176182  0.040342706            3 
  467000    1.1688069   -6.4264823    219.52053  0.039172115  0.040333384            4 
  468000    1.1861215   -6.4422483    219.91359  0.039158402  0.040323983            5 
  469000    1.1815763   -6.4418208    220.45121  0.039170435  0.040315518            3 
  470000    1.1887304   -6.4399762    220.69321  0.039130001  0.040307239            2 
  471000    1.1732924   -6.4321107    222.36472   0.03934266  0.040300218            3 
  472000    1.1861942   -6.4450964    222.09524   0.03921173  0.040292922            5 
  473000    1.1797555   -6.4088575    223.52793  0.039381242  0.040286289            2 
  474000    1.1830725   -6.4195019    223.73831  0.039335146  0.040279236            2 
  475000    1.1420189   -6.4214263    223.10616  0.039141432  0.040272518            3 
  476000    1.1656085   -6.4726054    223.24924  0.039084251  0.040264488            3 
  477000    1.1863745    -6.436237    224.43251  0.039209034  0.040256783            2 
  478000    1.1747633   -6.4582124    224.73425  0.039179611  0.040248734            4 
  479000    1.1783283    -6.443011    226.33959  0.039377103  0.040241958            3 
  480000    1.1634144   -6.4903653    225.76232  0.039194847  0.040235377            3 
  481000    1.1532581   -6.4269911    226.09411  0.039170844  0.040227955            3 
  482000    1.1811099   -6.4692977    226.15697  0.039100444  0.040219904            4 
  483000    1.1588774   -6.4877822    226.56318  0.039089576  0.040212247            3 
  484000    1.1911594   -6.4469956    227.18689    0.0391162  0.040203472            2 
  485000    1.1726098   -6.4664031    227.69099  0.039122164  0.040195385            4 
  486000    1.1651365   -6.4717064    227.59908  0.039025905  0.040187612            2 
  487000    1.1921538   -6.4537415    228.84665  0.039159249  0.040178655            4 
  488000    1.1837136   -6.4407287    228.63513  0.039042885  0.040170863            3 
  489000    1.1841748     -6.43604    230.39458   0.03926288  0.040162839            6 
  490000    1.1542933    -6.453996    231.05832  0.039295632  0.040155757            1 
  491000    1.1796146   -6.4540681    230.94606  0.039196548  0.040149092            3 
  492000     1.165915   -6.4537126    231.25393  0.039169026   0.04014307            1 
  493000    1.1434992   -6.4578322    231.77629  0.039177873  0.040136591            4 
  494000    1.1955461   -6.4543286    232.62156  0.039241155  0.040130972            3 
  495000    1.1929206   -6.4604473       233.72  0.039346801  0.040125907            4 
  496000    1.1896952   -6.4192002    234.85806  0.039458679  0.040121596            2 
  497000    1.1775795   -6.5062103    234.12376  0.039256164  0.040116951            4 
  498000     1.181947   -6.4792406    234.39119  0.039222086  0.040111962            5 
  499000    1.1794446   -6.4679982    236.06918   0.03942371  0.040108035            3 
  500000    1.1428816   -6.4696597    236.56476  0.039427459  0.040103917            2 
  501000    1.1330031   -6.4360174     236.6191  0.039357801  0.040099606            2 
  502000    1.1842015   -6.4725365    237.85192  0.039484051  0.040095442            3 
  503000    1.1731004   -6.4364847    237.11597  0.039283627  0.040091055            4 
  504000    1.1793095    -6.451591    239.20419  0.039550957  0.040087283            3 
  505000    1.1648603   -6.4838654    238.78543  0.039403535  0.040083412            2 
  506000    1.1758976   -6.4665672     238.9865  0.039358778  0.040079037            2 
  507000     1.184503   -6.4276049    239.42148  0.039352643  0.040075006            1 
  508000     1.170644   -6.4664759      239.864   0.03934777  0.040070888            2 
  509000    1.1634362   -6.4177455    240.44791  0.039366062  0.040066986            1 
  510000    1.1578079   -6.4376352    240.34901  0.039272714  0.040062651            3 
  511000    1.1771463   -6.4514135    240.44541   0.03921158  0.040057254            4 
  512000    1.1583641   -6.5190508    240.87532  0.039204968  0.040052107            4 
  513000    1.1602374   -6.4093307    241.89664  0.039294451  0.040047231            3 
  514000    1.1713909   -6.4406161     242.7116  0.039350129  0.040043495            2 
  515000    1.1699651   -6.4397019    243.30496  0.039369735  0.040040382            1 
  516000    1.1855458   -6.4736581    243.90625  0.039390543  0.040036849            3 
  517000    1.1898856   -6.4664148    244.31655  0.039380489  0.040034309            3 
  518000    1.1556998    -6.497842     245.1982  0.039446299  0.040031725            2 
  519000    1.1721495    -6.448789    245.66521  0.039445281  0.040029277            4 
  520000    1.1507167   -6.4701473    246.82589  0.039555431  0.040027394            2 
  521000    1.1790522   -6.4733605    246.30312  0.039395893  0.040024354            3 
  522000    1.1579336     -6.41548    246.98576    0.0394294  0.040021056            2 
  523000    1.1719825    -6.445986    247.72859   0.03947237  0.040018133            3 
  524000    1.1631463   -6.4423163    247.42653  0.039349003  0.040014996            2 
  525000    1.1800763    -6.462113    247.89078  0.039347743  0.040011355            1 
  526000    1.1951793   -6.4293235    248.60716  0.039386431  0.040007758            2 
  527000      1.16374    -6.405614    248.91082  0.039359712   0.04000386            1 
  528000    1.1800447   -6.4929774    248.93336  0.039288725  0.039999839            2 
  529000    1.1894073   -6.4356509    249.08067   0.03923766  0.039995151            2 
  530000    1.1763346   -6.4415809       249.04  0.039157232  0.039989885            1 
  531000    1.1591028   -6.4570456    249.55061  0.039163624  0.039985353            1 
  532000    1.1262308    -6.467539    250.30535  0.039208232  0.039980408            2 
  533000    1.1804096   -6.4674307    251.28402  0.039287683  0.039975418            2 
  534000    1.1461901   -6.4620164    250.47109  0.039087248   0.03997088            3 
  535000    1.1751402   -6.4584087    252.79117  0.039375572  0.039966195            2 
  536000    1.1657538   -6.4824094    253.44693  0.039404062   0.03996182            4 
  537000    1.1762458   -6.4769929    252.97326  0.039257179  0.039957458            3 
  538000    1.1440142   -6.4668037    253.14388  0.039210639  0.039952949            2 
  539000    1.1407579   -6.4648463    254.08206  0.039282941  0.039948511            3 
  540000    1.1784621   -6.4809339     254.0566  0.039206265  0.039944414            2 
  541000    1.1738302   -6.4903496    255.03691  0.039284798  0.039939782            2 
  542000    1.1602314   -6.4593568    254.21361  0.039085734   0.03993585            2 
  543000    1.1637534   -6.5098202    255.16034  0.039159046  0.039931431            1 
  544000    1.1669749   -6.4734738    256.86581  0.039348317  0.039927451            3 
  545000     1.201423   -6.4737085    257.23418  0.039332443  0.039924365            2 
  546000    1.1920763   -6.4582527    258.32581  0.039427017  0.039922181            3 
  547000    1.1519187   -6.4979116    257.70529  0.039260404  0.039919022            3 
  548000    1.1498873   -6.4720562    259.21648  0.039418564   0.03991619            4 
  549000    1.1502265   -6.4501153    260.05667  0.039474297  0.039913672            3 
  550000    1.1500136    -6.498635    258.91395  0.039229387  0.039910746            3 
  551000    1.1448224   -6.4529207    260.08303  0.039335002  0.039907668            3 
  552000    1.1585488   -6.4579504    261.88672  0.039536039  0.039905643            4 
  553000    1.1521894   -6.4945671    261.84369   0.03945806   0.03990405            2 
  554000    1.1587287   -6.4722286    262.10091  0.039425528  0.039901979            2 
  555000    1.1619584   -6.4572638    262.36633  0.039394344  0.039900179            2 
  556000    1.1432917    -6.481585     263.4867  0.039491412  0.039898496            4 
  557000    1.1678176   -6.4371925    263.64935  0.039444846  0.039896481            1 
  558000      1.15546   -6.4444828    264.45454  0.039494406  0.039894072            5 
  559000    1.1734348   -6.4836365    263.41488  0.039268766  0.039891357            2 
  560000    1.1706584   -6.4467385    265.80079  0.039553689  0.039888838            2 
  561000    1.1818742   -6.5086117    264.39563  0.039274454  0.039886184            3 
  562000    1.1408721   -6.4903582    265.03731  0.039299719  0.039883353            4 
  563000    1.1602533   -6.4521479    266.72699  0.039480017  0.039880978            2 
  564000    1.1531442   -6.4330672    267.30569  0.039495521  0.039878954            2 
  565000    1.1812225   -6.5134906    266.28005  0.039274344   0.03987634            5 
  566000    1.1816865   -6.4968774    266.66684  0.039261902  0.039873251            5 
  567000    1.1614289   -6.4908614    266.75767  0.039206007  0.039870017            3 
  568000    1.1692548   -6.4418071    268.87908  0.039448221  0.039866353            2 
  569000    1.1671318   -6.5029071    267.14733  0.039125268  0.039863147            5 
  570000    1.1656136   -6.4432521    269.57236  0.039411164  0.039859856            4 
  571000    1.1718712   -6.5044371    269.80351  0.039375878  0.039856682            2 
  572000    1.1582337   -6.4620544    269.26987  0.039229294  0.039852682            2 
  573000    1.1422449   -6.4816547    269.15146   0.03914361  0.039848548            2 
  574000    1.1530231   -6.4423887    270.22562  0.039231361  0.039844357            3 
  575000    1.1561488   -6.5136759    269.64972   0.03907967  0.039840721            3 
  576000    1.1497341   -6.4384366    270.78983   0.03917677   0.03983665            4 
  577000    1.1576281   -6.4822488     271.8708  0.039264991  0.039833152            2 
  578000    1.1699353   -6.4526499    272.15746  0.039238388  0.039829484            2 
  579000    1.1719694   -6.4647813    274.16404  0.039459418  0.039825942            3 
  580000    1.1621218   -6.4592038    273.07933  0.039235535  0.039822911            3 
  581000    1.1494303   -6.5248689    273.48379  0.039226016  0.039819495            3 
  582000    1.1755462   -6.4667004    275.05365  0.039383398  0.039816553            2 
  583000      1.14647   -6.4305222    275.26081  0.039345457  0.039813263            2 
  584000    1.1669918   -6.4593392    274.96051  0.039235232  0.039809542            4 
  585000    1.1390582   -6.4433768    275.05591  0.039181753  0.039806148            4 
  586000    1.1466193   -6.4402205    274.67412  0.039060597  0.039801834            3 
  587000    1.1713659    -6.470996    276.06453  0.039191444  0.039797508            2 
  588000    1.1515943   -6.4936965    275.70875   0.03907437  0.039793271            2 
  589000    1.1626942   -6.4713428    276.26898  0.039087292   0.03978881            3 
  590000    1.1303925   -6.4798114    276.19972  0.039011261  0.039783911            1 
  591000    1.1356468   -6.4943511    276.10569  0.038931993  0.039778885            6 
  592000    1.1495779   -6.5090443     277.0805  0.039003448  0.039773478            1 
  593000    1.1612824   -6.5288481     277.5205  0.038999508  0.039768006            4 
  594000    1.1425311   -6.4620912    278.21184  0.039030842  0.039762664            2 
  595000    1.1539741   -6.4729241    278.42212  0.038994695  0.039757424            1 
  596000    1.1340745   -6.4427273    279.58778  0.039092251  0.039752708            3 
  597000    1.1685986   -6.4961715    279.82909  0.039060454  0.039748595            3 
  598000    1.1581731   -6.5125091     280.0262  0.039022603  0.039743777            2 
  599000    1.1535142   -6.4736086    280.13155  0.038972113  0.039739192            2 
  600000    1.1474179   -6.4885468    281.74344  0.039131034  0.039735092            2 
  601000    1.1370063   -6.5123419    282.60014  0.039184711  0.039731425            3 
  602000     1.144454   -6.5156722     282.7896  0.039145847  0.039727352            2 
  603000     1.145134   -6.4934484    282.52932  0.039044958  0.039723002            3 
  604000    1.1371684   -6.4878738    282.77255  0.039013872  0.039719106            3 
  605000    1.1324186   -6.5181669    283.86552  0.039099933  0.039714709            3 
  606000    1.1367174   -6.5039472    285.25027  0.039225835  0.039711085            4 
  607000    1.1540545   -6.5086728    284.83845  0.039104675  0.039707326            2 
  608000    1.1945049   -6.4529214    285.33146  0.039107931  0.039704084            2 
  609000    1.1688091   -6.4691798    285.58219  0.039078023  0.039700316            6 
  610000    1.1518935   -6.4801879    286.53678  0.039144369  0.039696286            3 
  611000    1.1518835   -6.5075861    286.38981  0.039060257  0.039691923            4 
  612000    1.1618363    -6.467305    285.84399  0.038922112    0.0396878            2 
  613000    1.1437372   -6.4793217    287.87967  0.039135355  0.039682744            3 
  614000    1.1398464   -6.4816408    288.51155  0.039157376  0.039678086            3 
  615000    1.1701987   -6.4488045    288.68418  0.039117097  0.039674178            2 
  616000    1.1128803   -6.4919455    288.00641  0.038961906  0.039669832            2 
  617000    1.1251914   -6.5102002    289.08033  0.039043805  0.039665365            2 
  618000    1.1709613   -6.4811123    289.15408  0.038990571  0.039660766            2 
  619000    1.1483025    -6.511775    289.69304   0.03900014  0.039656975            2 
  620000     1.144315   -6.5057809    289.88748  0.038963371  0.039652856            5 
  621000    1.1379689   -6.4855851    291.41325  0.039105375   0.03964829            4 
  622000    1.1703945   -6.4967469    291.28749  0.039025654   0.03964374            4 
  623000    1.1541558   -6.4600015    290.89491  0.038910501  0.039638989            2 
  624000    1.1332274    -6.476512    291.59248  0.038941303  0.039634502            2 
  625000    1.1508314   -6.5062769    292.24066  0.038965421  0.039628734            1 
  626000    1.1482622   -6.4777259     292.5225  0.038940694  0.039622975            1 
  627000    1.1823316   -6.4714607    293.18796  0.038967034  0.039617298            2 
  628000    1.1365595   -6.5013748     292.1239  0.038763787   0.03961116            5 
  629000     1.169574   -6.4629219    293.57656  0.038894616  0.039604545            3 
  630000    1.1365398   -6.5152985    293.80611  0.038863242  0.039598098            2 
  631000    1.1392551    -6.523764    292.98314  0.038692966  0.039591379            2 
  632000    1.1658699   -6.4893207    294.19874  0.038792028  0.039585207            2 
  633000    1.1421091   -6.4929515    294.40929  0.038758464  0.039579242            2 
  634000     1.117709   -6.5105757    294.30079  0.038683069  0.039572659            4 
  635000    1.1550436   -6.4742241    294.89709  0.038700405  0.039565564            2 
  636000    1.1651951   -6.5433832    294.61332  0.038602374  0.039558343            3 
  637000    1.1269042   -6.5250967    295.33095  0.038635655  0.039551059            3 
  638000    1.1318942   -6.5271294    295.72731  0.038626869  0.039543976            5 
  639000    1.1607297   -6.5123014    297.25438  0.038765568  0.039537073            2 
  640000    1.1556665    -6.502834    296.79833  0.038645616  0.039530352            1 
  641000    1.1522014    -6.502185    297.69023  0.038701278  0.039523519            2 
  642000     1.158362   -6.4980711    298.38846  0.038731628  0.039516869            2 
  643000    1.1588611   -6.4767516    298.49215   0.03868483  0.039509734            1 
  644000    1.1285412   -6.4605835    300.05651  0.038827189  0.039502909            2 
  645000    1.1313058   -6.4868753    300.11171  0.038774122  0.039496215            3 
  646000     1.150623   -6.4883102    300.00152  0.038699886  0.039489965            4 
  647000    1.1796173   -6.5421911    299.72505  0.038604463  0.039482882            3 
  648000    1.1464823   -6.5288667    301.17806  0.038731747  0.039475946            1 
  649000    1.1387645    -6.499803    300.92195  0.038639182  0.039469365            5 
  650000    1.1435198   -6.5292745    300.72439  0.038554409  0.039462869            2 
  651000    1.1192733   -6.5207065    302.24728  0.038690129  0.039455833            2 
  652000    1.1149255   -6.5044934    301.83528  0.038578128   0.03944835            3 
  653000    1.1779683   -6.5031586    301.00505    0.0384131  0.039441302            3 
  654000    1.1563697   -6.4626454    303.47915  0.038669617  0.039434486            2 
  655000    1.1456332   -6.4464661    303.41824  0.038602829  0.039427765            3 
  656000     1.147333   -6.4900867    303.98227  0.038615634  0.039421513            2 
  657000    1.1383319   -6.4831495    304.77948  0.038657975  0.039415532            3 
  658000    1.1420207    -6.522901    306.74641  0.038848329  0.039409824            1 
  659000    1.1679151   -6.5011955    306.84942  0.038802405  0.039403997            1 
  660000    1.1674534   -6.4834378    307.86166  0.038871422  0.039398626            3 
  661000    1.1488656   -6.4871759    307.55777  0.038774303  0.039393014            3 
  662000    1.1447524   -6.4989138    307.19147  0.038669621  0.039387342            3 
  663000    1.1346991   -6.4818039    307.71668  0.038677311  0.039381664            3 
  664000    1.1416503   -6.5099717    308.18751  0.038678151  0.039375726            1 
  665000    1.1193067    -6.490226    308.50191  0.038659388  0.039369879            1 
  666000    1.1367979   -6.5271054    309.55105  0.038732614  0.039364249            4 
  667000    1.1583321   -6.4953186     309.9775  0.038727823  0.039358674            2 
  668000    1.1857877   -6.5443414    309.38172  0.038595524  0.039353204            6 
  669000    1.1293141   -6.5000947      310.458  0.038671899  0.039347538            3 
  670000    1.1297758   -6.5311843    310.08323  0.038567566   0.03934205            2 
  671000    1.1584525   -6.5081001    309.97173  0.038496241  0.039336292            4 
  672000    1.1390145   -6.5016317    310.74038  0.038534273  0.039330054            4 
  673000    1.1392299   -6.5147556    310.76442  0.038479992  0.039323211            3 
  674000    1.1437138   -6.4937494    311.26656  0.038484985  0.039316214            3 
  675000    1.1276054   -6.4823518    311.24995   0.03842592   0.03930907            2 
  676000     1.134621   -6.4840127      312.265  0.038494206  0.039301625            2 
  677000    1.1418793   -6.4816687    313.08002  0.038537668   0.03929453            3 
  678000    1.1590185   -6.5329422    313.57249  0.038541358   0.03928709            3 
  679000    1.1583304   -6.5051925    313.49814  0.038475471  0.039279679            2 
  680000    1.1279006   -6.5179485    312.36622  0.038280174  0.039272128            3 
  681000    1.1076515   -6.5118605    312.82488  0.038280088  0.039264146            3 
  682000    1.0942998   -6.5359373    313.50994  0.038307667  0.039256071            4 
  683000    1.1287308   -6.5154293    314.09038  0.038322398   0.03924835            1 
  684000    1.1433268   -6.4994831    315.07924  0.038386847  0.039240764            2 
  685000      1.14596   -6.5394537    315.50695  0.038382841  0.039232715            4 
  686000    1.1461894   -6.5433611    314.51159  0.038205976  0.039224094            2 
  687000    1.1291637   -6.5020901    315.48267  0.038268155  0.039215885            5 
  688000    1.1404707   -6.4963541    315.84215  0.038256074  0.039207596            2 
  689000    1.1766835   -6.5039425    317.00703  0.038341441  0.039199604            2 
  690000    1.1491465   -6.5189185    317.15103  0.038303264  0.039191258            1 
  691000    1.1412024   -6.4988104     317.5175  0.038292028   0.03918359            5 
  692000    1.1342477   -6.5115493    317.08092  0.038184118  0.039175829            4 
  693000    1.1585126   -6.4830987    318.74361  0.038328958  0.039168283            3 
  694000    1.1291354   -6.4736543    319.01302  0.038306079   0.03916076            3 
  695000    1.1404984   -6.4822813    319.65034  0.038327378  0.039153237            1 
  696000    1.1568325   -6.4872195    319.97163  0.038310779  0.039146346            3 
  697000    1.1390334   -6.5101406    320.65184   0.03833714  0.039139623            3 
  698000    1.1275832   -6.4858487    322.97095  0.038559092  0.039133053            2 
  699000    1.1460588   -6.5038473    321.85149  0.038370468  0.039126464            1 
  700000    1.1687937   -6.5211731    323.04601  0.038457859  0.039120012            2 
  701000    1.1423318   -6.5382974    322.84587  0.038379205  0.039113627            2 
  702000    1.1421252   -6.5078804    323.74236  0.038430955  0.039107045            2 
  703000    1.1693342   -6.5302306    324.52131  0.038468624  0.039101162            3 
  704000     1.125373   -6.5015228    324.21385  0.038377587   0.03909488            2 
  705000    1.1594441   -6.4721118    325.51868  0.038477386  0.039088686            5 
  706000     1.133815   -6.5014031    325.00301  0.038362017  0.039082301            4 
  707000    1.1455099   -6.5186077    325.18709  0.038329455  0.039075835            1 
  708000    1.1590627   -6.5580298    324.00395  0.038136058  0.039069313            1 
  709000    1.1421781   -6.5031162    325.21602  0.038224732  0.039062879            3 
  710000    1.1274474   -6.4991456    326.27863  0.038295614   0.03905604            2 
  711000    1.1031963   -6.5239199    327.22855  0.038353088  0.039049865            2 
  712000     1.141258   -6.4957408    327.90308   0.03837817  0.039043704            3 
  713000    1.1276595   -6.4953092    329.30111  0.038487741  0.039037688            1 
  714000    1.1510372   -6.5140986    329.73766  0.038484788  0.039032146            2 
  715000    1.1267819   -6.5227368    328.98545  0.038343293  0.039026023            3 
  716000    1.1412833   -6.5296257    329.10612  0.038303784  0.039019928            5 
  717000    1.1391273   -6.5148539    330.12041  0.038368248  0.039013985            3 
  718000    1.1514413   -6.5135803    331.94331  0.038526382  0.039008358            1 
  719000    1.1329983   -6.4904873    331.57713  0.038430359  0.039002884            1 
  720000    1.1171355   -6.4972272    332.00873  0.038426936   0.03899737            2 
  721000    1.1365546   -6.4841566    331.60358  0.038326812  0.038991837            4 
  722000    1.1265516   -6.5100159    333.41709  0.038483043  0.038985892            3 
  723000    1.1538331   -6.5429582    333.53911  0.038443881  0.038979853            2 
  724000    1.1246991   -6.5170067    333.56675  0.038393963  0.038973941            2 
  725000    1.1072228   -6.5054566    333.84571  0.038373071  0.038968049            3 
  726000    1.1363281   -6.5265952    333.51951  0.038282772  0.038962012            4 
  727000    1.1433006   -6.5005448    333.98822   0.03828384   0.03895578            3 
  728000    1.1452453   -6.5219914    333.44995  0.038169637  0.038949659            2 
  729000    1.1552999   -6.5123481    335.22771  0.038320497  0.038943223            2 
  730000    1.1574654   -6.5619158    334.61826  0.038198431  0.038936539            4 
  731000    1.1523511   -6.4798638     336.7883  0.038393559   0.03892998            3 
  732000    1.1164869   -6.5265149    335.34359  0.038176639  0.038923617            2 
  733000    1.1322862   -6.5035863    336.35646  0.038239706  0.038917387            2 
  734000    1.1418034   -6.4921139    337.32277  0.038297317  0.038910733            3 
  735000    1.1328192    -6.495957    337.22009   0.03823357  0.038904405            2 
  736000    1.1558092   -6.5082219    337.87445  0.038255712  0.038898282            6 
  737000    1.1391604   -6.5198786    339.01122   0.03833234  0.038892071            5 
  738000    1.1376018   -6.5363545    339.42846  0.038327513  0.038886142            3 
  739000    1.1324917   -6.5133232    339.26604  0.038257334  0.038880601            3 
  740000    1.1469284   -6.5239505    339.93663  0.038281152  0.038874812            3 
  741000    1.1258996   -6.5111564    341.13676  0.038364457  0.038869125            4 
  742000    1.1438201   -6.5392392    340.40711  0.038230807  0.038863833            3 
  743000    1.1310959   -6.5515543    340.89856  0.038234473   0.03885803            2 
  744000    1.1429766   -6.5190359    342.53347  0.038366204  0.038852814            1 
  745000    1.1362747   -6.5136993    342.40187  0.038299985  0.038847256            3 
  746000    1.1449834   -6.5035402    342.88087  0.038302153  0.038841589            3 
  747000    1.1649135   -6.5110299    343.15151   0.03828107   0.03883614            2 
  748000    1.1196171   -6.5282362      344.601  0.038391377  0.038830269            2 
  749000    1.1334358    -6.523515    344.71487  0.038352789  0.038825066            4 
  750000    1.1378223   -6.5226196    345.05995  0.038339994  0.038819781            2 
  751000    1.1564752   -6.5257723     345.1389  0.038297703  0.038814294            4 
  752000    1.1442467   -6.5162271    344.95821  0.038226752  0.038808423            2 
  753000     1.120952   -6.5314498    344.26764  0.038099562  0.038802825            2 
  754000    1.1631424   -6.5792689    345.88808  0.038228126   0.03879673            2 
  755000     1.135578   -6.5539219    346.07961  0.038198632  0.038791089            5 
  756000    1.1147946   -6.5560418    347.31338  0.038284103  0.038785004            2 
  757000    1.1288874    -6.529258    347.21172  0.038222338  0.038778957            3 
  758000    1.1287327   -6.5197571    346.64571  0.038109687  0.038772902            2 
  759000    1.1626313   -6.5109605    348.68588  0.038283473   0.03876678            3 
  760000    1.1264362   -6.4973913    347.43702  0.038096164  0.038761003            1 
  761000    1.1171562   -6.5430672    347.53163  0.038056465  0.038754782            3 
  762000     1.130746   -6.4919033    347.96991  0.038054452  0.038748759            3 
  763000     1.123326   -6.5339335    348.56832  0.038069934   0.03874218            2 
  764000    1.1090514   -6.5776983    349.12371  0.038080683  0.038735613            5 
  765000    1.1295556   -6.5417027    350.43499  0.038173746  0.038729576            2 
  766000    1.1501791   -6.5419709    349.65278  0.038038815  0.038723401            2 
  767000    1.1391057   -6.5463272     351.6948  0.038211083  0.038717606            2 
  768000    1.1387627   -6.5352229    352.35877  0.038233373  0.038711945            1 
  769000    1.1086866   -6.5488662    352.02202  0.038147162  0.038706435            3 
  770000    1.1146563   -6.5349424    353.70193  0.038279429  0.038701288            2 
  771000     1.146648   -6.5430389    354.22674  0.038286504  0.038696536            2 
  772000    1.1476625   -6.5459484    353.93611  0.038205538  0.038691487            4 
  773000    1.1253813    -6.528035    353.75352   0.03813643  0.038686251            4 
  774000    1.1363659   -6.5536701    354.26769  0.038142516  0.038681067            2 
  775000    1.1190633   -6.5248916    355.96766  0.038276092  0.038676114            6 
  776000    1.1180313   -6.5374135    355.73024  0.038201271  0.038671194            5 
  777000    1.1165766   -6.4895002    357.31781  0.038322374  0.038666302            4 
  778000    1.1154644   -6.4902063    356.80071  0.038217728  0.038661316            2 
  779000    1.1021754   -6.5430318     357.2096  0.038212409  0.038656127            3 
  780000     1.101038   -6.5409092    356.71016  0.038110059  0.038650948            5 
  781000    1.1292863   -6.5547906    358.02454  0.038201509  0.038645611            4 
  782000    1.1235474   -6.5107514    358.39864  0.038192523  0.038640417            2 
  783000    1.1484854   -6.5248875    359.43079  0.038253597  0.038635173            4 
  784000    1.1434359   -6.5641882     357.7215  0.038023118  0.038629129            3 
  785000    1.1251452   -6.5260899    358.52089  0.038059542  0.038623181            2 
  786000    1.1195503   -6.5314976    359.52615  0.038117701  0.038617372            2 
  787000    1.1422227     -6.53684     359.0796  0.038021982  0.038611763            4 
  788000    1.0983465   -6.5405427    359.07925  0.037973694   0.03860594            2 
  789000    1.1243914   -6.5652924    360.70821  0.038097614  0.038599931            6 
  790000    1.1277243   -6.5403013    360.46838  0.038024091  0.038594214            2 
  791000     1.132371   -6.5282634    360.41072  0.037969946  0.038588153            3 
  792000    1.1130051    -6.554195    361.52208  0.038038939  0.038582168            2 
  793000    1.1339554   -6.5290032    362.25781  0.038068286  0.038576389            2 
  794000    1.1060858   -6.5398581    362.00965  0.037994296  0.038570821            2 
  795000    1.1327297   -6.5249291    363.39598  0.038091822  0.038564963            3 
  796000    1.1283468   -6.5257558    362.77802  0.037979273  0.038558944            3 
  797000    1.1195739   -6.5288127    362.73633  0.037927261  0.038552873            4 
  798000    1.1393206   -6.5672259    363.39281  0.037948289  0.038546578            2 
  799000    1.1192696   -6.5513669    363.82809  0.037946192  0.038540699            2 
  800000     1.127441   -6.5715524    364.20028  0.037937529  0.038534567            7 
  801000    1.1201351   -6.5535073    363.36327  0.037803087  0.038528621            4 
  802000    1.1240293   -6.5119655     365.8969  0.038019213  0.038522542            3 
  803000    1.1219484   -6.5729331    365.56318  0.037937233  0.038516636            5 
  804000    1.1060751   -6.5633213    365.59576  0.037893425  0.038510165            4 
  805000      1.12735   -6.5513781    366.51016   0.03794101  0.038503987            6 
  806000    1.1333329   -6.5664193    366.68251  0.037911757  0.038497657            2 
  807000    1.0997809   -6.5487867    366.71843  0.037868487  0.038491463            7 
  808000    1.1249992   -6.4706789    367.47634  0.037899787  0.038485003            2 
  809000    1.1073224   -6.5421545    367.33241  0.037838114   0.03847848            1 
  810000    1.1119728   -6.5359349    368.07614  0.037867916  0.038472059            2 
  811000    1.1420011   -6.5525794    368.31517  0.037845784  0.038465947            1 
  812000    1.1011847   -6.5624225    368.79639  0.037848562  0.038459563            1 
  813000     1.135067   -6.5486518    368.38207   0.03775954  0.038453125            5 
  814000    1.1093766   -6.5296303    369.21181  0.037798096  0.038446766            3 
  815000    1.1178761   -6.5719738    369.19486  0.037749986  0.038440613            4 
  816000    1.1284045   -6.5392609    369.76569  0.037762019   0.03843421            2 
  817000    1.1198042   -6.5414338    371.22569  0.037864717  0.038427855            2 
  818000    1.1213386   -6.5693935    371.31175  0.037827195  0.038421617            2 
  819000     1.119133   -6.5580647    371.70917  0.037821446  0.038415255            2 
  820000    1.1172787   -6.5292538    373.84679   0.03799256  0.038409128            7 
  821000    1.1253296   -6.5334286     373.1133  0.037871833  0.038403236            2 
  822000    1.1298706   -6.5700831     373.1397  0.037828436  0.038397217            2 
  823000    1.1217515   -6.5583634    373.82957  0.037852326  0.038391303            6 
  824000    1.1059939   -6.5094225    373.41879  0.037764845  0.038385314            3 
  825000    1.1392907   -6.5303789    374.21737  0.037799735  0.038379334            2 
  826000    1.1353478   -6.5311381      373.732  0.037705004   0.03837305            2 
  827000    1.1449126   -6.5277636    375.96283  0.037884203  0.038366852            2 
  828000    1.1268631   -6.5005567    375.95655  0.037837817  0.038360414            2 
  829000    1.1421461   -6.5545465    375.67225  0.037763596  0.038354115            3 
  830000     1.138404   -6.5368115    376.83386  0.037834725  0.038348276            4 
  831000    1.1225182     -6.55526    376.87705  0.037793527  0.038342546            6 
  832000     1.111519   -6.5675849    378.51556  0.037912215    0.0383367            2 
  833000    1.1141731   -6.5779947    376.41945  0.037657008  0.038330609            1 
  834000    1.1194199   -6.5297445    377.52766  0.037722588  0.038323925            2 
  835000    1.1230783   -6.5418228    377.35551  0.037660231  0.038317195            4 
  836000    1.1131825    -6.520443    377.24349  0.037604016  0.038310485            3 
  837000    1.1456416    -6.577347    377.59114  0.037593701  0.038303364            3 
  838000    1.1156838   -6.5067496    377.45737  0.037535538  0.038296421            3 
  839000    1.1265793   -6.5722621    378.79733  0.037623891   0.03828963            4 
  840000    1.0973592   -6.5695269    379.29085  0.037628061  0.038282628            6 
  841000    1.0991648   -6.5669152    378.12491  0.037467787  0.038275457            3 
  842000    1.0981158   -6.5743736    379.50061  0.037559442  0.038268444            2 
  843000    1.1183627   -6.5672201    379.62858  0.037527539  0.038261511            3 
  844000    1.1191779   -6.5606016    380.06371  0.037526037  0.038254451            6 
  845000    1.1120988   -6.5681756    380.40709  0.037515492  0.038247441            1 
  846000    1.1254917   -6.5535295    381.94698  0.037622831  0.038240591            2 
  847000     1.098399   -6.5785523    380.09073  0.037395782  0.038233466            2 
  848000    1.1382645   -6.5711805    380.53504  0.037395346  0.038226116            3 
  849000    1.1351069   -6.5576547    382.08264  0.037503203  0.038219024            3 
  850000    1.1423608   -6.5508293    382.07726  0.037458555  0.038211578            4 
  851000    1.0872775   -6.5908368    381.46914  0.037354988  0.038203873            3 
  852000    1.1228577   -6.5134542    383.99562  0.037558257  0.038196315            2 
  853000    1.0984284   -6.5348479    385.00463  0.037612801  0.038189248            2 
  854000    1.1263019   -6.5531004    384.08815  0.037479328  0.038182377            4 
  855000    1.1156599   -6.5731641     384.2154  0.037447894  0.038175176            2 
  856000    1.1270844   -6.5667915    384.29627   0.03741202  0.038168061            3 
  857000    1.1156736    -6.596129    385.30574  0.037466524  0.038161145            3 
  858000    1.1139237   -6.5858102    385.63086  0.037454434  0.038154399            2 
  859000    1.1127107     -6.54829     386.7475  0.037519159  0.038147573            3 
  860000    1.1183949   -6.5485617      386.453  0.037446996  0.038140853            3 
  861000    1.1086164   -6.5870411    386.68763  0.037426213  0.038133647            3 
  862000     1.124014   -6.5318501    388.95686  0.037602171  0.038126726            2 
  863000    1.1004618   -6.5466549    389.21913  0.037583926  0.038119837            5 
  864000    1.1089533   -6.5955737    387.79982  0.037403532  0.038112793            2 
  865000    1.1404971   -6.5629112    389.07438  0.037483081   0.03810601            3 
  866000    1.1235883   -6.5823222    390.29233  0.037556998  0.038099344            2 
  867000    1.1192384   -6.5804327    389.60218  0.037447345  0.038092845            3 
  868000    1.1002155    -6.536494    392.41377  0.037674133  0.038086539            6 
  869000    1.1206905    -6.577467    391.18803  0.037513236  0.038080364            2 
  870000    1.1028353   -6.6020346    391.39939  0.037490363  0.038074102            3 
  871000    1.0865262   -6.5648262    391.14963  0.037423424  0.038067653            2 
  872000    1.1178321   -6.5460256    392.51315  0.037510813  0.038061146            3 
  873000    1.1379658   -6.5605096    393.03721   0.03751787  0.038054741            8 
  874000    1.1367185   -6.5564356    392.54785  0.037428284  0.038048119            1 
  875000     1.106557   -6.5304355     393.5641  0.037482296   0.03804131            2 
  876000     1.105942   -6.5840735    392.12283  0.037302401  0.038034281            3 
  877000     1.105925   -6.5378933    392.62096  0.037307199  0.038027072            3 
  878000    1.1007358   -6.5749608    392.94548  0.037295509  0.038020174            5 
  879000    1.1373088   -6.5513132    394.49792  0.037400258  0.038012921            4 
  880000    1.1406417   -6.5499593    393.08512   0.03722397   0.03800578            3 
  881000    1.0996952   -6.5501898    394.77276   0.03734135  0.037998823            5 
  882000    1.1081593   -6.5781756    394.47949  0.037271305   0.03799171            4 
  883000    1.1169806   -6.5689323    394.94354   0.03727289   0.03798439            3 
  884000     1.145739    -6.570009    396.11326  0.037340994  0.037977361            2 
  885000    1.1065872    -6.558309    397.99623  0.037476105   0.03797072            2 
  886000     1.098006   -6.5697605    397.29416  0.037367773  0.037964248            4 
  887000    1.1077379   -6.5596616     396.9847  0.037296571  0.037957726            2 
  888000    1.1190009   -6.5510284    397.72181  0.037323744  0.037950633            3 
  889000    1.1401932   -6.6099145    396.63662  0.037180035   0.03794334            3 
  890000    1.1056095   -6.5708971    398.72137  0.037333461  0.037936163            2 
  891000    1.0968349    -6.547785    398.43051  0.037264357  0.037928863            4 
  892000    1.1306753   -6.5520408    398.89302  0.037265791  0.037921682            5 
  893000     1.102992   -6.5546351     399.5358  0.037284042  0.037914387            3 
  894000    1.0824439   -6.6107566    398.46472  0.037142498  0.037907092            4 
  895000    1.1113719    -6.556796     401.9171  0.037422449    0.0379001            1 
  896000    1.1189788   -6.5375756    400.61243  0.037259341  0.037893136            2 
  897000    1.1012974   -6.5886959    399.94983  0.037156246  0.037885665            3 
  898000    1.0882929   -6.5735831    400.92665  0.037205517  0.037878059            2 
  899000    1.0790386   -6.5704659    400.88559  0.037160325  0.037870409            2 
  900000    1.0933426   -6.5507549    402.49119  0.037267703   0.03786284            3 
  901000    1.0933534   -6.5640052    400.53914  0.037045796  0.037855324            3 
  902000    1.0896394    -6.556111    402.41605  0.037178127  0.037847386            3 
  903000    1.0980561   -6.5346349    401.89338  0.037088721  0.037839353            4 
  904000    1.1212319   -6.5814393    402.20291  0.037076227  0.037831659            5 
  905000    1.1123037   -6.5915751    402.70452  0.037081447  0.037824068            3 
  906000    1.1259521    -6.579871    403.33224  0.037098256  0.037816901            4 
  907000    1.1222127   -6.5892828    403.24395  0.037049242  0.037809772            6 
  908000    1.0935784   -6.5571719    404.90638  0.037161012  0.037802432            2 
  909000    1.0954995   -6.4958811    406.65109  0.037280078  0.037795415            2 
  910000    1.1203956   -6.5468069    405.82107  0.037163101  0.037788309            5 
  911000    1.0789332     -6.55487    404.94081  0.037041786  0.037780663            4 
  912000    1.0925902   -6.5730995     406.6583  0.037158104  0.037773084            3 
  913000    1.0782421   -6.5849989    405.51862  0.037013383   0.03776569            3 
  914000    1.1154647   -6.5711646    407.51323  0.037154743  0.037758364            6 
  915000    1.1037213   -6.5904557    407.45725  0.037109039  0.037751115            1 
  916000    1.1061406   -6.5811187    408.00172   0.03711806  0.037743809            2 
  917000    1.0992865   -6.5613776    406.46339  0.036937785  0.037736278            2 
  918000    1.1011824   -6.5750077    408.80921  0.037110494  0.037728786            4 
  919000    1.1004544    -6.583314    407.32169  0.036935228  0.037720987            3 
  920000    1.1142141   -6.5666001    407.98599  0.036955253  0.037713045            2 
  921000    1.1184772   -6.5952112    407.79977  0.036898278  0.037704844            1 
  922000    1.1063309   -6.5910091     406.7204  0.036760702  0.037696601            4 
  923000    1.0993663   -6.5459097    408.51186  0.036882617  0.037688367            3 
  924000    1.1155176   -6.6023151    408.22547  0.036816872  0.037680316            3 
  925000    1.0885759   -6.5871653    410.11049  0.036946891  0.037672105            6 
  926000     1.106911   -6.5734094    411.37377  0.037020678  0.037664119            2 
  927000    1.1302632   -6.6446806    410.00342  0.036857553  0.037656622            3 
  928000     1.094316   -6.5684409    411.29978  0.036934247  0.037648572            1 
  929000    1.1156189   -6.5885824    410.68243  0.036839113  0.037640877            3 
  930000    1.1123158    -6.571497    412.10546  0.036927013  0.037633001            5 
  931000    1.1230451   -6.5892819    411.62417  0.036844269  0.037625148            2 
  932000    1.1011004   -6.5525951    412.75706  0.036906031  0.037617102            3 
  933000    1.0881827   -6.5719487    412.42774  0.036837062  0.037609297            3 
  934000    1.0971376   -6.6125238    412.81583  0.036832247  0.037601404            3 
  935000    1.1040461   -6.5792367    412.69224  0.036781839  0.037593284            4 
  936000    1.1091205   -6.5891212    413.61052  0.036824298  0.037585158            3 
  937000    1.0898637   -6.5742551    414.20672  0.036838022  0.037576925            1 
  938000    1.1122378   -6.5946237    414.72148  0.036844481  0.037568521            2 
  939000    1.1078947   -6.5522062     414.4649  0.036782473  0.037560166            2 
  940000     1.110931   -6.5529273    414.37438  0.036735317  0.037551796            3 
  941000    1.0958762    -6.580522    416.00201  0.036840419  0.037543383            3 
  942000    1.1049348   -6.5575957    414.59124  0.036676507  0.037534877            3 
  943000    1.0950971    -6.603167    416.10736  0.036771594  0.037526347            4 
  944000    1.1076388   -6.5683639    415.87872  0.036712458   0.03751797            4 
  945000    1.1077298   -6.5903454     417.7925  0.036842372   0.03750959            2 
  946000    1.0981273   -6.5676033    416.34202  0.036675654  0.037501378            2 
  947000    1.0844808   -6.5609373    418.25462  0.036805228  0.037493144            3 
  948000    1.0897971   -6.6007192    417.68099   0.03671598  0.037484976            3 
  949000     1.101715   -6.6610728    418.34572  0.036735662  0.037476554            2 
  950000    1.1082589    -6.575382    418.39375  0.036701206  0.037468528            3 
  951000     1.102125   -6.5906029    419.37004  0.036748163  0.037460387            4 
  952000    1.0992486   -6.5965598    419.85384  0.036751912  0.037452249            2 
  953000    1.1159446   -6.6106702    419.43314   0.03667656  0.037444302            9 
  954000    1.1134617   -6.5895555    420.79044  0.036756677  0.037436458            6 
  955000    1.1125261   -6.5999159    420.10999  0.036658813  0.037428684            3 
  956000    1.0719524   -6.5853096    421.12971  0.036709354  0.037420724            2 
  957000    1.1067007   -6.5363035    421.72536  0.036722863  0.037412779            1 
  958000    1.1189351    -6.547778    421.74186  0.036685965  0.037404929            3 
  959000    1.0957356   -6.5892679    421.26064  0.036605895   0.03739707            3 
  960000    1.0890359   -6.5958091    421.12779  0.036556232  0.037388908            2 
  961000    1.0953331   -6.5808357    422.94377  0.036675665  0.037380551            3 
  962000    1.1208183   -6.5843524    424.14061  0.036741217  0.037372583            2 
  963000    1.0975489    -6.613989    423.79157   0.03667286  0.037365101            5 
  964000    1.0835276   -6.5956628    423.32271  0.036594287  0.037357719            3 
  965000    1.0804488   -6.5895717    424.94374  0.036696351  0.037350373            2 
  966000     1.111731   -6.5986035     425.0779  0.036669936  0.037342767            2 
  967000    1.0985428   -6.5942536    425.89832  0.036702716  0.037335284            3 
  968000    1.1067168   -6.6062509    426.56663  0.036722334  0.037328115            3 
  969000    1.0819342   -6.6036749    428.15817  0.036821308  0.037321033            3 
  970000    1.0958154    -6.612067    427.12618  0.036694689  0.037313833            3 
  971000    1.0992581   -6.6020643    427.44291  0.036684081  0.037306636            5 
  972000    1.1044825   -6.5479355     428.9398  0.036774674  0.037299637            3 
  973000    1.0818445   -6.6007241    429.10357  0.036750906  0.037292428            3 
  974000    1.0852001   -6.5690014    429.51027   0.03674797  0.037285196            4 
  975000     1.131327   -6.6029672    428.21967  0.036599972  0.037277694            4 
  976000    1.0890001   -6.5834622    430.87686  0.036789349  0.037270354            2 
  977000    1.1156301   -6.5933008    430.08539  0.036684186  0.037262946            3 
  978000    1.0997074   -6.5999731    429.96951  0.036636802  0.037255648            2 
  979000    1.1099524   -6.5918074    430.38415  0.036634674  0.037247993            2 
  980000    1.0974985   -6.5567636    431.50286   0.03669242  0.037240545            2 
  981000    1.1005861   -6.5896143    430.32212  0.036554716  0.037233008            6 
  982000    1.0741287   -6.5844443    430.56921  0.036538459  0.037225391            3 
  983000    1.0993662   -6.5982495    429.91427  0.036445767  0.037217615            3 
  984000    1.0885566   -6.5893004    430.34465  0.036445177  0.037209622            2 
  985000    1.1108457   -6.6031533    432.04781  0.036552268  0.037201537            3 
  986000    1.1216639   -6.5959398    431.23541  0.036446535  0.037193627            3 
  987000     1.088859   -6.5881102    431.77847   0.03645546  0.037185407            2 
  988000     1.100384   -6.6290519     431.0506  0.036357169  0.037177097            2 
  989000    1.0858793   -6.6217158     433.4522  0.036522767  0.037168802            2 
  990000    1.0918496   -6.6090366    432.21772  0.036381963  0.037160488            2 
  991000    1.1036647   -6.6273018    433.73737  0.036473038  0.037152266            2 
  992000    1.0793768   -6.5963451    434.27357  0.036481315  0.037144108            3 
  993000    1.0862455   -6.5885403     434.6419  0.036475487  0.037136027            2 
  994000     1.091332   -6.6127479    433.51933  0.036344679  0.037127716            3 
  995000    1.1205135    -6.589702    435.06206  0.036437358  0.037119421            4 
  996000    1.1178837   -6.6405663    433.21334  0.036246096  0.037110982            4 
  997000    1.0878109   -6.6118722    434.43871  0.036312162  0.037102667            4 
  998000    1.0823811   -6.6256962    434.75453  0.036302149  0.037094225            3 
  999000    1.1019245   -6.6092267    434.35933  0.036232844  0.037085526            2 
 1000000    1.0979653   -6.5659456    436.18576  0.036348813   0.03707677            2 
 1001000    1.0862037   -6.6253989    435.37229  0.036244779  0.037068268            4 
 1002000    1.0954085   -6.6122064    436.25853  0.036282313  0.037059747            3 
 1003000    1.0768308   -6.5861846    437.00279  0.036307975  0.037051251            6 
 1004000     1.090495   -6.6254814    438.09825  0.036362737   0.03704273            3 
 1005000    1.1046008   -6.5859668    438.06035  0.036323412  0.037034124            3 
 1006000    1.0783739   -6.5825093    439.07113  0.036371035  0.037025557            3 
 1007000     1.088574   -6.5888802    439.67692  0.036385048  0.037017247            4 
 1008000    1.0567154   -6.6156709    437.42269   0.03616259  0.037008877            2 
 1009000     1.099193   -6.5818886    437.93119  0.036168747   0.03700029            3 
 1010000    1.1006889   -6.5683065    438.62074   0.03618983  0.036991771            4 
 1011000    1.1061883   -6.6124161    439.13525  0.036196443  0.036983046            2 
 1012000    1.0898201   -6.6121622     439.6079  0.036199596  0.036974388            3 
 1013000     1.075903   -6.5659711    439.40905  0.036147503  0.036965773            2 
 1014000     1.082097   -6.5969123    441.13466   0.03625367  0.036957281            2 
 1015000    1.0959564   -6.5837582     442.0385  0.036292159  0.036949064            3 
 1016000    1.0676845   -6.5872891    440.36627  0.036119281  0.036940714            3 
 1017000    1.0759055   -6.5884914    441.56115  0.036181674  0.036932297            3 
 1018000    1.0905856   -6.6262465    442.67259  0.036237114  0.036923724            2 
 1019000    1.1018662   -6.6103966    440.90914  0.036057339  0.036915062            2 
 1020000    1.0907303   -6.5909788    443.15561  0.036205523  0.036906507            4 
 1021000    1.0775491   -6.6117356     441.9519  0.036071817  0.036897535            3 
 1022000    1.0828828    -6.643348    441.84365  0.036027695  0.036888617            4 
 1023000    1.0883682   -6.5777337    442.84339  0.036073916  0.036879686            3 
 1024000    1.1100707   -6.6055787    442.52349  0.036012654  0.036870956            3 
 1025000    1.0894073   -6.6227867    442.30588  0.035959828  0.036862162            4 
 1026000    1.0851686   -6.6265908    442.98603  0.035980022  0.036853267            3 
 1027000    1.0892775   -6.5840361     444.4658   0.03606506  0.036844353            4 
 1028000    1.0868105   -6.6099791    443.99657   0.03599194  0.036835202            3 
 1029000    1.0860306   -6.6204913    445.40677  0.036071167  0.036826128            2 
 1030000    1.0782431   -6.6379597    444.88324   0.03599379    0.0368173            3 
 1031000      1.05776   -6.6041905    445.83747  0.036036006  0.036808342            5 
 1032000    1.0878825   -6.6266332    445.19558  0.035949256  0.036799289            2 
 1033000    1.0825123   -6.5961953    445.78021  0.035961617  0.036790238           11 
 1034000    1.0646052   -6.5800322    447.53784  0.036068491  0.036781454            3 
 1035000    1.0633684   -6.5737806    446.79461  0.035973801  0.036772588            2 
 1036000    1.0794548   -6.5665434    446.95657  0.035952105  0.036763963            2 
 1037000    1.0981956    -6.613154    447.39961  0.035953038  0.036755217            5 
 1038000     1.067064    -6.633937    447.58256  0.035933089  0.036746527            4 
 1039000    1.1158689   -6.6120352    448.07703  0.035938164    0.0367377            5 
 1040000    1.0750519   -6.6167963    447.25915  0.035838073  0.036728791            2 
 1041000    1.0827443   -6.6374118    449.25527  0.035963438  0.036719996            3 
 1042000    1.0895684   -6.6019556    449.72617  0.035966584  0.036711427            6 
 1043000    1.1041127   -6.6289327    449.05924  0.035878815  0.036702588            3 
 1044000    1.0849154    -6.582414     450.1833  0.035934171  0.036693954            2 
 1045000    1.0980945   -6.6292664    450.96125  0.035961823   0.03668537            2 
 1046000     1.090554   -6.6047056    450.89472  0.035922141  0.036676817            2 
 1047000    1.1021067   -6.6117389    451.67142  0.035949652  0.036668195            2 
 1048000    1.0756173   -6.6149078    452.60603  0.035989665  0.036659551            4 
 1049000     1.091338   -6.6058116    452.18544  0.035921945  0.036650918            3 
 1050000    1.1028855   -6.5697576    452.28313  0.035895486  0.036642396            2 
 1051000    1.0910648   -6.6097877    451.61093  0.035808034  0.036633662            5 
 1052000    1.1010876   -6.6208555    451.86853  0.035794402  0.036624964            8 
 1053000    1.0800219   -6.6065986    453.06359  0.035854985  0.036616404            3 
 1054000    1.0719518   -6.6060456    454.89271  0.035965585  0.036607934            4 
 1055000    1.0818789   -6.6047359    454.02648  0.035863071  0.036599632            1 
 1056000    1.0801108   -6.5895909    454.81426  0.035891277  0.036591259            2 
 1057000    1.0629554    -6.633291    455.14524  0.035883415    0.0365828            3 
 1058000    1.0544149   -6.5940591    454.34809  0.035786712  0.036574169            3 
 1059000    1.0855438   -6.5815857    456.51433  0.035923382  0.036565652            3 
 1060000    1.0956165   -6.6084276    456.55953  0.035893045   0.03655717            2 
 1061000    1.0776937   -6.5956171    456.22148  0.035832664  0.036548757            2 
 1062000     1.095002   -6.6220867    457.16889  0.035873265  0.036540236            2 
 1063000    1.0864078   -6.6036678    457.61964  0.035874854  0.036531718            1 
 1064000    1.1069763   -6.6172092    457.53113  0.035834205  0.036523526            1 
 1065000    1.0884799   -6.5985254    457.72043   0.03581537  0.036515168            4 
 1066000    1.0915745   -6.6080277    458.02202  0.035805349  0.036506988            4 
 1067000    1.0725663    -6.598488     458.5831  0.035815612  0.036498862            4 
 1068000    1.0764373   -6.5832276    459.68148  0.035867781  0.036490783            3 
 1069000    1.0733011   -6.6054371    459.36337   0.03580943  0.036482458            4 
 1070000    1.0876284   -6.6350533    460.56971  0.035869915  0.036474201            2 
 1071000    1.0981549   -6.6273649    459.59738  0.035760767  0.036466139            5 
 1072000    1.0717043   -6.6468857    461.85379  0.035902813  0.036458068            5 
 1073000    1.0879266   -6.6640354    460.46479  0.035761478  0.036449872            2 
 1074000     1.086015   -6.6587645    462.99345  0.035924383  0.036441619            2 
 1075000     1.076363   -6.6014848    461.74419  0.035794123  0.036433496            2 
 1076000    1.0670476   -6.6177507    461.37002  0.035731879  0.036425152            5 
 1077000    1.0875595   -6.6420503    461.31078  0.035694118    0.0364168            3 
 1078000    1.0816768   -6.6377663    460.90975  0.035630005  0.036408433            2 
 1079000    1.0788646   -6.5905345    463.50083  0.035797098  0.036399942            3 
 1080000    1.0772828   -6.6258083    462.79047  0.035709141  0.036391462            3 
 1081000    1.0811627   -6.6349992    462.91168  0.035685452  0.036382967            3 
 1082000    1.0732934   -6.6338951    462.85867  0.035648388  0.036374382            2 
 1083000     1.098041   -6.6149887    463.53844  0.035667778  0.036365849            2 
 1084000    1.0657884   -6.6332436    462.19122  0.035531305  0.036357157            2 
 1085000    1.0808141   -6.6519662    462.77895  0.035543698  0.036348471            6 
 1086000    1.0946086   -6.5993365    464.06813  0.035609894   0.03634005            2 
 1087000    1.0686453   -6.6268043    463.21038  0.035511376  0.036331291            3 
 1088000    1.0564825   -6.6498878    465.42697  0.035648512   0.03632262            5 
 1089000    1.1095627   -6.5996665    466.34674   0.03568616  0.036314057            3 
 1090000    1.0847299   -6.6548261    463.23625  0.035415615  0.036305436            2 
 1091000    1.0782733   -6.6315605    464.86589   0.03550763  0.036296395            4 
 1092000    1.0837237   -6.6148409    466.74362  0.035618408  0.036287468            3 
 1093000    1.0754196   -6.6206777    467.77309   0.03566431  0.036278672            4 
 1094000    1.0615421   -6.6497759    467.03519  0.035575502    0.0362698            4 
 1095000    1.0631251   -6.6153456     466.9512  0.035536621  0.036261107            3 
 1096000    1.0751052    -6.646752    466.32944  0.035456922   0.03625239            3 
 1097000    1.0860984   -6.6118226    468.68082  0.035603223  0.036243734            3 
 1098000    1.0940234   -6.6517903    467.59053  0.035488049  0.036235347            2 
 1099000    1.0571632   -6.6305228    469.18212  0.035576442  0.036226913            2 
 1100000     1.071268   -6.6080402    469.45851  0.035565038  0.036218564            2 
 1101000     1.076919   -6.6744238    468.79884  0.035482807  0.036210124            5 
 1102000    1.0648097   -6.6213019    469.01179  0.035466711  0.036201543            3 
 1103000    1.0792166   -6.6291289    469.63329  0.035481512   0.03619308            3 
 1104000    1.0554145   -6.6734605    470.40438  0.035507577  0.036184479            4 
 1105000    1.0770336   -6.6413367    470.47573  0.035480824  0.036175944            2 
 1106000    1.0893397   -6.6110656    472.09353   0.03557064   0.03616775            6 
 1107000    1.0590501    -6.621319     471.9136  0.035524962  0.036159278            4 
 1108000    1.0784651   -6.6201107     472.6233  0.035546277  0.036150868            2 
 1109000    1.0687366   -6.6018389    472.96588  0.035539967  0.036142552            3 
 1110000    1.0597155   -6.6385187    473.56362  0.035552825  0.036134449            5 
 1111000    1.0705159   -6.6425853    471.88809  0.035395146   0.03612623            3 
 1112000    1.0633611   -6.6345393    472.86223  0.035436318  0.036118041            3 
 1113000    1.0751349   -6.6186593    474.89977  0.035557036  0.036109901            1 
 1114000    1.0638992   -6.6539305    474.17186  0.035470666  0.036101827            3 
 1115000    1.0729114   -6.6279697    474.74929   0.03548201  0.036093597            3 
 1116000    1.0676772    -6.610634       473.64  0.035367383   0.03608519            1 
 1117000    1.0887246   -6.6361615    474.07522   0.03536819  0.036076716            2 
 1118000    1.0532098   -6.6775396    472.72801  0.035236137  0.036068208            2 
 1119000     1.088092   -6.6305842    476.27802  0.035469022  0.036060094            3 
 1120000    1.0928059   -6.6017248    474.88287  0.035333547  0.036052027            2 
 1121000     1.059178   -6.6820017    475.47287  0.035345887  0.036043509            2 
 1122000    1.0977666   -6.6455497    476.15383   0.03536496  0.036035071            3 
 1123000    1.0726898   -6.6210713    476.64661  0.035370036   0.03602662            2 
 1124000    1.0728547   -6.6734427    476.06803  0.035295673  0.036018302            2 
 1125000    1.0768886   -6.6158041    476.77709  0.035316821  0.036009896            2 
 1126000    1.0687897   -6.6395797    477.85067   0.03536491  0.036001453            3 
 1127000     1.073538   -6.6456933    477.53915  0.035310496  0.035993145            2 
 1128000    1.0762665   -6.6441558    479.32217  0.035410917  0.035984663            2 
 1129000    1.0556406   -6.6444505    476.76941  0.035191129  0.035976316            2 
 1130000    1.0584984   -6.6340782    478.86938  0.035314851  0.035967509            3 
 1131000    1.0627848   -6.6140591    480.04724  0.035370412  0.035958961            2 
 1132000    1.0537003   -6.6386562    479.30417  0.035284465  0.035950337            5 
 1133000    1.0582276   -6.6621989    478.82371  0.035217984   0.03594183            3 
 1134000    1.0872763   -6.6434037    478.94556  0.035195881  0.035933226            3 
 1135000    1.0608069   -6.5957885     481.2082  0.035330998  0.035924793            4 
 1136000    1.0505827   -6.6517001    480.91825  0.035278627  0.035916447            3 
 1137000    1.0606502   -6.6079934    481.82219  0.035313851  0.035908015            4 
 1138000    1.0714101   -6.6601312    481.43241  0.035254277  0.035899506            3 
 1139000     1.060641   -6.6208542     481.3324  0.035216008  0.035891167            5 
 1140000    1.0976009   -6.6857449    481.19555  0.035175114  0.035882571            7 
 1141000    1.0555604    -6.671412    482.74907  0.035257747  0.035873939            5 
 1142000    1.0886353   -6.6568764    483.40111  0.035274453  0.035865536            2 
 1143000    1.0447064   -6.6541074    482.76754    0.0351974  0.035857256            3 
 1144000    1.0542333   -6.6486775     483.1495  0.035194457  0.035849055            3 
 1145000    1.0537461   -6.6729986    482.71417  0.035132036  0.035840688            3 
 1146000    1.0379972   -6.6576754    483.71088  0.035173857  0.035832194            3 
 1147000      1.07594   -6.6948166    484.91838   0.03523092    0.0358236            4 
 1148000    1.0644996   -6.6287062    485.77504  0.035262416  0.035815225            2 
 1149000    1.0453656   -6.6442155    483.86698  0.035093341  0.035806906            3 
 1150000    1.0886386   -6.6230755    484.75637  0.035127273  0.035798192            3 
 1151000    1.0581122   -6.7045336    482.68339  0.034946669  0.035789472            2 
 1152000     1.064494   -6.6470931    485.18723  0.035097456   0.03578097            2 
 1153000    1.0719302   -6.6671612    485.44969  0.035085985  0.035772516            7 
 1154000    1.0752902   -6.6754089    485.25817  0.035041751   0.03576407            3 
 1155000    1.0992067   -6.6547471    486.12959  0.035074285  0.035755363            4 
 1156000    1.0542317   -6.6619971    486.72132    0.0350866  0.035746583            2 
 1157000    1.0892144   -6.6162026     487.0897  0.035082808  0.035737946            3 
 1158000    1.0790829    -6.639709    488.78333   0.03517439    0.0357293            4 
 1159000    1.0728077    -6.653599     488.8804  0.035151021   0.03572103            2 
 1160000    1.0492834   -6.6180967    488.90134  0.035122223  0.035712885            3 
 1161000    1.0517737   -6.6562635    488.20615  0.035042072  0.035704365            4 
 1162000     1.037153   -6.6413531    488.44775  0.035029242  0.035695965            3 
 1163000     1.075975   -6.5970017    489.96172  0.035107604  0.035687744            2 
 1164000    1.0620861    -6.629765    489.97837  0.035078635  0.035679515            2 
 1165000    1.0574051   -6.6695833     490.1208  0.035058713  0.035670989            3 
 1166000    1.0771217   -6.6535633    491.17221  0.035103789  0.035662398            4 
 1167000    1.0902163   -6.6046587    491.38576  0.035088957   0.03565389            7 
 1168000    1.0160157   -6.6590839    490.35911  0.034985667  0.035645401            3 
 1169000    1.0569407   -6.6311604     489.8452  0.034919105  0.035636742            4 
 1170000    1.0293972   -6.6439203    490.72927  0.034952227  0.035628056            2 
 1171000    1.0672569   -6.6420939    490.99218  0.034941089  0.035619547            3 
 1172000    1.0707577   -6.6496556    491.50172  0.034947506  0.035610906            2 
 1173000    1.0431128   -6.6294147    491.84453  0.034942066  0.035602357            3 
 1174000     1.073573   -6.6467899    492.04093  0.034926244  0.035593774            2 
 1175000    1.0559671   -6.6410574    491.52031  0.034859596  0.035585051            4 
 1176000     1.075439   -6.6437816    492.31267  0.034886102  0.035576354            3 
 1177000    1.0654441   -6.6448506    492.89092  0.034897403  0.035567585            2 
 1178000    1.0565432   -6.6453863    493.47409  0.034909033  0.035558907            4 
 1179000     1.044599   -6.6637401    492.88021  0.034837448  0.035550347            5 
 1180000    1.0656981   -6.6661184    492.46506  0.034778606  0.035541645            4 
 1181000    1.0744316   -6.6541052    492.76393  0.034770246   0.03553265            2 
 1182000    1.0686717   -6.6620679     493.7811  0.034812542  0.035523683            3 
 1183000    1.0968204    -6.646101    493.78582  0.034783447  0.035514622            5 
 1184000    1.0590055   -6.6842602    492.54156  0.034666495  0.035505353            4 
 1185000    1.0647368   -6.6435839    493.94836  0.034736172  0.035496122            9 
 1186000    1.0602584   -6.6265633    496.04831  0.034854434  0.035486995            5 
 1187000    1.0566815   -6.6563497    494.20385  0.034695581  0.035478009            3 
 1188000    1.0525183   -6.6620307    494.81105  0.034708968   0.03546892            5 
 1189000    1.0616285   -6.6565953    495.12702  0.034701922  0.035459875            4 
 1190000    1.0669851    -6.634425    495.79927  0.034719837  0.035450687            3 
 1191000    1.0456136   -6.6546832    495.78131  0.034689428  0.035441601            6 
 1192000    1.0749586   -6.6485968    497.99029  0.034814758  0.035432667            5 
 1193000    1.0723971   -6.6590667    496.12286  0.034655131  0.035423799            2 
 1194000    1.0477269    -6.625011    497.03929  0.034690068  0.035414762            5 
 1195000    1.0788451   -6.6745022    497.96539   0.03472562  0.035405764            5 
 1196000    1.0457777   -6.6382244    497.97629  0.034697344  0.035396961            5 
 1197000    1.0379214   -6.6541647    498.77208   0.03472376  0.035388384            3 
 1198000    1.0734703   -6.6964123    499.18647  0.034723599  0.035379572            3 
 1199000    1.0464566   -6.6586085    498.05976   0.03461633  0.035370757            4 
 1200000    1.0735709   -6.6461211    498.69666  0.034631713   0.03536186            3 
 1201000    1.0655926    -6.666924    499.19367  0.034637362  0.035353079            4 
 1202000    1.0460154    -6.653905    501.18624  0.034746689  0.035344303            9 
 1203000    1.0484974    -6.651323    501.74249  0.034756338  0.035335735            3 
 1204000    1.0445512   -6.6697904    500.57452  0.034646631  0.035327229            2 
 1205000     1.055631   -6.6941214    500.06278  0.034582488  0.035318511            7 
 1206000    1.0593044   -6.6345308    500.47621  0.034582381  0.035309636            2 
 1207000    1.0422638   -6.6406743    503.44404  0.034758633  0.035300922            3 
 1208000     1.048754   -6.6557275    501.87485   0.03462161  0.035291999            2 
 1209000    1.0697696   -6.6747196    501.32363  0.034554978  0.035283289            4 
 1210000     1.076283    -6.651222      502.857  0.034632025   0.03527438            4 
 1211000    1.0269259   -6.6409755    502.62261  0.034587298  0.035265513            2 
 1212000    1.0719191   -6.6492849    503.88995  0.034645899  0.035256532            6 
 1213000    1.0737231   -6.6579312    503.15449   0.03456681  0.035247617            6 
 1214000    1.0619487    -6.663661    502.72942  0.034509159  0.035238438            6 
 1215000    1.0387886   -6.6353632    503.36551  0.034524383  0.035229467            3 
 1216000    1.0568103   -6.6779363    503.62966  0.034514094  0.035220441            5 
 1217000    1.0713672   -6.6778878    503.76186  0.034494786  0.035211387            3 
 1218000    1.0765921   -6.6852262    502.71267  0.034394682   0.03520228            7 
 1219000    1.0483264   -6.6915895    504.63424  0.034497829  0.035193428            2 
 1220000    1.0750143   -6.6819512    504.74687  0.034477246   0.03518454            6 
 1221000    1.0851203    -6.707488    504.60768  0.034439509  0.035175753            2 
 1222000    1.0519216   -6.6828549    504.82226  0.034425959  0.035166874            3 
 1223000    1.0490276    -6.683841     505.9358  0.034473685  0.035157985            2 
 1224000    1.0604819   -6.6705447    506.25768  0.034467434  0.035149088            3 
 1225000    1.0237437   -6.6959846    506.06628  0.034426278  0.035140152            3 
 1226000    1.0630483   -6.6874938    506.34739  0.034417305  0.035131243            5 
 1227000     1.054244   -6.6569321    509.50134   0.03460346  0.035122479            2 
 1228000    1.0790432   -6.6543842    508.74706  0.034524095  0.035113778            1 
 1229000    1.0289842   -6.6413951    507.50578  0.034411837  0.035105149            3 
 1230000    1.0453771   -6.6571441    509.60376     0.034526  0.035096472            2 
 1231000    1.0326888   -6.6817146    509.13207  0.034466022  0.035087886            3 
 1232000    1.0583887   -6.6621383    508.62283    0.0344036  0.035079141            4 
 1233000    1.0471174   -6.6602451    510.82249  0.034524364  0.035070636            2 
 1234000     1.086882   -6.6472705    510.01746  0.034442022   0.03506202            2 
 1235000    1.0699515   -6.6369214    511.80981  0.034535075  0.035053428            3 
 1236000    1.0698923   -6.6729653    511.62169  0.034494451  0.035044907            3 
 1237000    1.0321343   -6.6935944    510.16087  0.034368153  0.035036167            7 
 1238000    1.0554697    -6.692997    511.62947  0.034439248  0.035027563            3 
 1239000     1.046733   -6.6624792    512.01809   0.03443759  0.035018872            2 
 1240000    1.0438319     -6.66798    511.76895  0.034393074  0.035010266            4 
 1241000    1.0662262    -6.686601    510.60532  0.034287223  0.035001596            3 
 1242000    1.0384482   -6.6811825    512.01206  0.034354003  0.034992812            4 
 1243000    1.0684943   -6.6772801    512.99285  0.034392119  0.034984067            2 
 1244000    1.0503335   -6.6532311    512.73301  0.034347067  0.034975413            3 
 1245000    1.0481391   -6.6674373    512.81627  0.034325052  0.034966683            3 
 1246000     1.079052   -6.6562671    513.78907  0.034362565  0.034957848            2 
 1247000    1.0661884   -6.6980321    513.33707  0.034304803  0.034948863            3 
 1248000    1.0757468   -6.6441054    512.38917  0.034214021  0.034940021            2 
 1249000    1.0506041   -6.7223166    512.28033  0.034179366  0.034930987            3 
 1250000    1.0621793   -6.6568814    515.22913  0.034348609  0.034922226            8 
 1251000     1.066162   -6.6865624    514.59713  0.034279052  0.034913433            2 
 1252000    1.0462597   -6.6939116    513.98915  0.034211205  0.034904665            4 
 1253000    1.0242555   -6.7221381    514.49628   0.03421763  0.034895752            2 
 1254000    1.0406885   -6.6422513      515.581  0.034262427  0.034886984            3 
 1255000    1.0797968   -6.7054764    514.55985   0.03416732  0.034878306            2 
 1256000    1.0422007   -6.6920213    514.85053  0.034159403  0.034869482            4 
 1257000    1.0553657   -6.6783671    515.52402  0.034176877  0.034860731            5 
 1258000    1.0591999   -6.6794961    517.37654  0.034272426  0.034851937            3 
 1259000    1.0455521   -6.6615091    516.66639  0.034198199  0.034843276            4 
 1260000    1.0646004   -6.7091685    516.36062  0.034150835  0.034834421            8 
 1261000    1.0398953   -6.6711129    517.65227  0.034209111  0.034825594            6 
 1262000    1.0463428   -6.6955389    516.21519   0.03408711  0.034816869            3 
 1263000    1.0539494   -6.6613257    517.65806  0.034155322  0.034807947            3 
 1264000    1.0544859   -6.6716046    517.85354  0.034141188  0.034799124            3 
 1265000     1.029099   -6.6888373     518.6263  0.034165106  0.034790483            5 
 1266000    1.0421524   -6.6741931    518.62011  0.034137711  0.034781713            6 
 1267000    1.0363179   -6.6771005    519.29374  0.034155073  0.034773019            3 
 1268000    1.0554927   -6.6789141    517.38564  0.034002736  0.034764249            3 
 1269000    1.0534463   -6.6709226    519.90809  0.034141587   0.03475527            3 
 1270000    1.0388739   -6.6725573    520.33563  0.034142758   0.03474636            3 
 1271000    1.0348309   -6.7173841    519.10661  0.034035314  0.034737366            2 
 1272000    1.0612037   -6.7038452    519.44115  0.034030473  0.034728291            3 
 1273000    1.0392304    -6.663763    520.11509  0.034047859  0.034719311            3 
 1274000    1.0290291   -6.6708919    519.92885  0.034008952   0.03471029            3 
 1275000    1.0681503   -6.7125526    519.09776  0.033927958  0.034701008            3 
 1276000    1.0830511   -6.6537132    521.14492  0.034035065  0.034691707            4 
 1277000    1.0497517   -6.6706712    520.89284  0.033991963  0.034682644            3 
 1278000    1.0471992   -6.6988793    519.52244  0.033876007  0.034673586            2 
 1279000    1.0486517   -6.7147067    519.13508  0.033824282   0.03466431            3 
 1280000    1.0631164   -6.6751222    520.50397  0.033886977  0.034654982            2 
 1281000    1.0563322   -6.6913579    520.12887  0.033836122   0.03464575            6 
 1282000    1.0523053   -6.6887722    520.39116  0.033826778  0.034636483            3 
 1283000    1.0289036   -6.7126357    520.89464  0.033833115  0.034626999            5 
 1284000    1.0646014   -6.7122265    521.64208  0.033855275  0.034617589            6 
 1285000    1.0279273   -6.6714386    522.66963  0.033895566  0.034608335            6 
 1286000    1.0526872   -6.7133841    520.69075  0.033740977  0.034598801            2 
 1287000    1.0257022   -6.6923426    521.95694  0.033796745  0.034589094            4 
 1288000    1.0537458   -6.6920356    523.57829  0.033875407  0.034579459            7 
 1289000    1.0331161   -6.6990466    522.69725  0.033792168  0.034569958            5 
 1290000    1.0390588   -6.7169178     522.8716  0.033777235  0.034560365            2 
 1291000    1.0659343   -6.6873607    522.49145  0.033726533  0.034550612            6 
 1292000    1.0641258   -6.7080411     522.8606  0.033724239  0.034540923            4 
 1293000    1.0596945   -6.7142706    522.19017  0.033654948  0.034531355            5 
 1294000    1.0455581   -6.6832821    523.93686  0.033741426  0.034521838            3 
 1295000    1.0422424   -6.6691255    525.59467  0.033822051  0.034512308            2 
 1296000     1.053085   -6.7065183    524.41123  0.033719858  0.034502737            5 
 1297000    1.0326901   -6.7053496    524.43727  0.033695533  0.034493214            7 
 1298000    1.0543085   -6.6986463    524.55443  0.033677095  0.034483668           10 
 1299000    1.0266328   -6.7179727    525.97645  0.033742395  0.034474188            2 
 1300000    1.0089597   -6.6836562     527.1699  0.033792942  0.034464702            4 
 1301000    1.0534186   -6.6885264    526.61296  0.033731294  0.034455279            2 
 1302000    1.0421852   -6.6436998    527.56399  0.033766257   0.03444592            5 
 1303000    1.0316945   -6.6838983    525.98631  0.033639441  0.034436455            5 
 1304000    1.0438187    -6.680547    527.20389  0.033691455  0.034427043            4 
 1305000    1.0544218   -6.6761361    528.01871   0.03371767  0.034417762            5 
 1306000    1.0332359   -6.6730583      527.902  0.033684405  0.034408311            3 
 1307000    1.0619343   -6.7203052    526.95172  0.033598044  0.034398834            5 
 1308000    1.0464812   -6.6968804     528.1162  0.033646547    0.0343893            3 
 1309000    1.0505963   -6.7013307    529.51316  0.033709776  0.034379928            8 
 1310000    1.0488518   -6.6598318    529.15217   0.03366108  0.034370764            2 
 1311000     1.032869   -6.6735928    530.65605  0.033730997  0.034361601            2 
 1312000    1.0421227   -6.7122121    529.85118  0.033654166  0.034352471            4 
 1313000    1.0403989   -6.6721072    528.49362  0.033542372   0.03434326            3 
 1314000    1.0358869   -6.7042593    529.32503  0.033569573  0.034334013            6 
 1315000    1.0211301   -6.7432591    529.97726  0.033585378  0.034324803            3 
 1316000    1.0318778   -6.7107485    530.87785  0.033616885  0.034315594            4 
 1317000    1.0422987   -6.7210375    531.37868   0.03362305  0.034306371            2 
 1318000    1.0463541   -6.6864267    530.82937  0.033562808  0.034297053            6 
 1319000     1.056997   -6.7089948    531.12052  0.033555757  0.034287724            1 
 1320000    1.0315814   -6.7004326    531.65731  0.033564224   0.03427836            3 
 1321000    1.0386439   -6.7241279    531.63182  0.033537208  0.034268984            3 
 1322000    1.0490136   -6.6967612    533.54929  0.033632709  0.034259713            2 
 1323000    1.0286168   -6.7236407    531.61853  0.033485672   0.03425043            6 
 1324000    1.0479502   -6.6717973    533.13606  0.033555895  0.034241222            4 
 1325000    1.0654599   -6.6832101    532.85446  0.033512859  0.034232156            2 
 1326000    1.0615012   -6.6967018    534.65466   0.03360072  0.034223007            4 
 1327000    1.0392595   -6.6836047    535.72099  0.033642363   0.03421393            3 
 1328000    1.0458808   -6.7121465    535.69006  0.033615089  0.034204759            3 
 1329000     1.054474   -6.6812602    536.26014  0.033625542  0.034195753            5 
 1330000    1.0354364   -6.6954993    535.20676  0.033534258  0.034186631            3 
 1331000    1.0363671   -6.6735177    534.55204  0.033468071  0.034177494            5 
 1332000    1.0452794   -6.7303014    534.54781  0.033442681  0.034168331            3 
 1333000    1.0498424    -6.716502    535.78131  0.033494706  0.034159203            7 
 1334000    1.0274218   -6.7306067    535.51346  0.033452865  0.034150046            4 
 1335000     1.027829   -6.6845564    536.16906   0.03346873  0.034140762            4 
 1336000    1.0341433   -6.6997864    537.30142   0.03351431  0.034131618            2 
 1337000    1.0147492   -6.6544327    537.10342  0.033476902  0.034122534            4 
 1338000     1.042385   -6.6838149    537.38432  0.033469377  0.034113605            2 
 1339000     1.053006   -6.7460905    536.99454  0.033420123  0.034104714            3 
 1340000    1.0228002   -6.7152364    538.00725  0.033458162  0.034095726            4 
 1341000    1.0257733    -6.723316    537.90571  0.033426902  0.034086704            2 
 1342000    1.0451922   -6.7256981    538.98881  0.033469251   0.03407778            5 
 1343000    1.0157391   -6.6782586    540.27504   0.03352414   0.03406883            5 
 1344000     1.027074   -6.6972445    539.98489  0.033481206  0.034059912            3 
 1345000    1.0607064   -6.6801766    539.80935  0.033445437  0.034050915            3 
 1346000    1.0082108   -6.6944174     539.2227  0.033384268  0.034042095            3 
 1347000    1.0222734   -6.6845261    541.35922  0.033491662  0.034033312            6 
 1348000    1.0123871      -6.6929    540.63417  0.033421994  0.034024353            3 
 1349000    1.0437853   -6.6977652    541.17304  0.033430506  0.034015627            4 
 1350000    1.0318275   -6.7333728    541.26722  0.033411557  0.034006753            3 
 1351000    1.0393506   -6.6802743    542.13485  0.033440344  0.033997873            2 
 1352000    1.0445009   -6.7066199    541.42252  0.033371704  0.033988757            4 
 1353000    1.0383684   -6.6661817    542.67296  0.033424055  0.033979943            1 
 1354000    1.0255211   -6.6681774    542.58934  0.033394223  0.033971197            5 
 1355000    1.0451907   -6.7252777    543.92768  0.033451887   0.03396227            3 
 1356000    1.0405711   -6.6901262    543.47345  0.033399302  0.033953435            3 
 1357000    1.0360321   -6.7142943    543.82607  0.033396344   0.03394469            5 
 1358000     1.026303   -6.7127314    541.91474  0.033254464  0.033935798            2 
 1359000    1.0125634   -6.7478432    542.35562  0.033257029  0.033926754            5 
 1360000    1.0261987   -6.7014315    543.60547  0.033309159  0.033917877            3 
 1361000    1.0161501   -6.7438021     544.5667   0.03334354  0.033909098            3 
 1362000    1.0255854   -6.7620431    542.87642   0.03321564  0.033900244            5 
 1363000    1.0292262   -6.7276535    544.01792  0.033261061  0.033891303            3 
 1364000     1.026516   -6.6897915    547.34506  0.033439947  0.033882583            3 
 1365000    1.0325157   -6.6832268    546.33311   0.03335367   0.03387392            5 
 1366000    1.0252616   -6.7378406    545.97488  0.033307399  0.033865109            2 
 1367000    1.0405691   -6.7072522    546.41308  0.033309746  0.033856502            4 
 1368000    1.0152265   -6.6465306    547.65188   0.03336086  0.033847777            2 
 1369000    1.0318078   -6.7122074    546.37244   0.03325861  0.033839015            3 
 1370000    1.0429753   -6.7000978    546.42073   0.03323727   0.03383033            2 
 1371000    1.0497512   -6.6905067    545.65654  0.033166578  0.033821498            5 
 1372000    1.0080721   -6.7031311    546.79236  0.033211392  0.033812763            3 
 1373000    1.0370165   -6.7273348    547.18876  0.033211262  0.033803972            3 
 1374000    1.0365514   -6.7296712    548.68911  0.033278087  0.033795164            3 
 1375000    1.0089752   -6.7438693    547.19363   0.03316325  0.033786336            3 
 1376000    1.0192522   -6.7222333    547.53174  0.033159626  0.033777426            1 
 1377000    1.0228245   -6.7327537    547.84564  0.033154541  0.033768567            5 
 1378000    1.0523216   -6.6887597    547.21701  0.033092465  0.033759737            3 
 1379000    1.0365794   -6.7030535    548.89567   0.03316991   0.03375087            7 
 1380000    1.0249449   -6.7157099    549.69482  0.033194132  0.033741891            3 
 1381000    1.0302162   -6.7160734     549.3265   0.03314787  0.033732857            5 
 1382000    1.0425891   -6.7193101     549.1275  0.033111885  0.033723874            7 
 1383000    1.0482157    -6.729954    548.12352  0.033027448    0.0337149            1 
 1384000    1.0110045   -6.7465306     549.5859  0.033091636  0.033705834            2 
 1385000    1.0505298   -6.7186823    550.30446  0.033110978   0.03369684            5 
 1386000    1.0248039   -6.7356545    550.84134  0.033119369  0.033687872            3 
 1387000    1.0288522   -6.7253058    550.42721  0.033070609  0.033678693            2 
 1388000    1.0265319   -6.7401467    550.91676  0.033076175  0.033669419            4 
 1389000   0.99396238   -6.6779394    552.61511  0.033154254  0.033660218            4 
 1390000    1.0374633   -6.7359405    551.48213  0.033062478  0.033651063            4 
 1391000    1.0262435   -6.7050706    552.79409  0.033117307  0.033641961            2 
 1392000    1.0077529   -6.7087503     553.6268  0.033143367  0.033633183            3 
 1393000    1.0250562   -6.7211215    550.46215  0.032930256  0.033624304            3 
 1394000     1.021004   -6.7045274    553.30193  0.033076394  0.033615399            2 
 1395000    1.0400501     -6.69707    552.39128  0.032998285   0.03360632            6 
 1396000    1.0319059   -6.6847161    553.01485   0.03301187  0.033597375            3 
 1397000    1.0417107   -6.7636027    554.57631  0.033081383  0.033588379            3 
 1398000     1.050667   -6.7274182    553.00474  0.032964041  0.033579263            3 
 1399000    1.0321945   -6.7504021     553.2846  0.032957148  0.033570195            3 
 1400000     1.038551   -6.7274782    554.97165  0.033034027  0.033561172            2 
 1401000     1.030574   -6.7798928    553.08702  0.032898348  0.033552142           11 
 1402000    1.0338535   -6.7124674    553.12839  0.032877341  0.033543144            4 
 1403000    1.0273422   -6.7243147    555.62073  0.033001944   0.03353438            3 
 1404000     1.007841   -6.7061966    555.70882  0.032983667   0.03352546            2 
 1405000    1.0100914   -6.7133608    555.23584  0.032932138  0.033516603            3 
 1406000     1.048648   -6.7101346    557.42729  0.033038602  0.033507846            6 
 1407000    1.0399193   -6.7353573    555.75372  0.032915999  0.033499074            4 
 1408000    1.0202581   -6.7200967    556.84705   0.03295733  0.033490244            3 
 1409000     1.034308   -6.7041608    557.79303  0.032989888  0.033481435            3 
 1410000    1.0429261   -6.6959608    558.65357   0.03301735  0.033472724            3 
 1411000    1.0322103   -6.7410938    557.28762  0.032913278  0.033463989            4 
 1412000    1.0406798   -6.7425872    555.11166  0.032761547  0.033455174            3 
 1413000    1.0265205   -6.7102786    558.54868  0.032941064  0.033446349            3 
 1414000    1.0162718   -6.7370081    558.29546  0.032902844  0.033437445            5 
 1415000    1.0385819   -6.6739087    559.52504  0.032952005  0.033428623            4 
 1416000    1.0193733   -6.7559721    556.65527  0.032759844  0.033419673            7 
 1417000    1.0162181   -6.7354382    559.57022  0.032908152  0.033410756            5 
 1418000     1.056449   -6.7306941    560.39467  0.032933396  0.033401925            2 
 1419000    1.0184627   -6.7644706    558.20914  0.032781838  0.033393088            3 
 1420000    1.0243584   -6.7223945    560.78346  0.032909828  0.033384274            6 
 1421000    1.0168717   -6.7232162     560.4475  0.032866966  0.033375518            7 
 1422000    1.0160194   -6.7424963    560.17011  0.032827597  0.033366791            2 
 1423000    1.0376845   -6.7396242    560.58669  0.032828923  0.033358031            3 
 1424000    1.0241307   -6.7010707    560.64762  0.032809435  0.033349367            1 
 1425000    1.0166901   -6.7725118    559.69016  0.032730419  0.033340491            9 
 1426000    1.0412128   -6.7033391    561.15818  0.032793255  0.033331636            2 
 1427000    1.0506127   -6.7196819    563.57516   0.03291142  0.033322766            3 
 1428000    1.0177053   -6.7179744     561.4554  0.032764671  0.033314059            2 
 1429000    1.0154847   -6.7166137     562.0656  0.032777327   0.03330521            2 
 1430000   0.98792911   -6.7097069    562.71992  0.032792536  0.033296593            6 
 1431000    1.0178871   -6.7150229    562.81355  0.032775073  0.033287952            2 
 1432000    1.0081191   -6.7699918    561.99459  0.032704527  0.033279205            5 
 1433000    1.0400158   -6.7512157    563.37296  0.032761861  0.033270484            6 
 1434000    1.0187821   -6.7536203    563.40605  0.032740938  0.033261806            3 
 1435000    1.0270413   -6.7134665    565.34756  0.032830869  0.033253438            6 
 1436000    1.0239284   -6.7588006    564.32367  0.032748588  0.033245007            2 
 1437000    1.0337887   -6.7565155    565.67495  0.032804161  0.033236578            2 
 1438000    1.0233334   -6.7239292    566.02636  0.032801713  0.033228237            4 
 1439000    1.0369154   -6.7115597    566.60996  0.032812715  0.033219945            3 
 1440000   0.99287938   -6.7735621    564.39613  0.032661813  0.033211553            2 
 1441000    1.0322812   -6.7421689     565.0798  0.032678684  0.033203173            6 
 1442000    0.9943735   -6.6841326    568.53199  0.032855524   0.03319483            2 
 1443000   0.99653033   -6.7311229    566.14924  0.032695151  0.033186557            4 
 1444000    1.0276583   -6.7306717    567.33768  0.032741094  0.033178159            5 
 1445000    1.0268262   -6.7208805    565.57327  0.032616682  0.033169583            2 
 1446000    1.0405018   -6.7307712    567.22855   0.03268952  0.033160854            2 
 1447000    1.0227057   -6.7589727    566.62581  0.032632217  0.033152298            2 
 1448000    1.0270239    -6.767919    568.22553  0.032701745  0.033143661           16 
 1449000    1.0146217   -6.7165906     568.8577  0.032715534  0.033135026            3 
 1450000     1.038134   -6.7117412    568.73549  0.032685947  0.033126558            3 
 1451000    1.0071413   -6.7327013    567.43076  0.032588488  0.033118062            3 
 1452000    1.0251401   -6.7201078    568.40696  0.032622071  0.033109354            4 
 1453000    1.0175854   -6.7234497    567.84585  0.032567438  0.033100829            5 
 1454000    1.0324911   -6.7397955    569.49785  0.032639721  0.033092157            4 
 1455000    1.0409327   -6.7534173    567.97588  0.032530119  0.033083467            6 
 1456000    1.0238287   -6.7510519    569.69179  0.032605986  0.033074843            2 
 1457000    1.0092905   -6.7394811    569.42612  0.032568412  0.033066181            3 
 1458000   0.99867866   -6.7550777    570.03547  0.032580903  0.033057581            5 
 1459000    1.0110591   -6.7094969     570.8108  0.032602856  0.033049019            2 
 1460000    1.0127849   -6.7333826    571.75223   0.03263426  0.033040555            2 
 1461000     1.009544   -6.7560142    570.88413  0.032562407  0.033031911            3 
 1462000    1.0058549   -6.7357621    570.46687  0.032516351  0.033023302            2 
 1463000    1.0435483   -6.7175071    572.61101  0.032616257  0.033014837            4 
 1464000    1.0335079   -6.7585117    572.33139  0.032578062  0.033006428            3 
 1465000    1.0091357   -6.7593993    574.01099  0.032651365  0.032998142            2 
 1466000    1.0187387    -6.737257    573.52281  0.032601342  0.032989739            4 
 1467000    1.0246865   -6.7455837    573.18667  0.032560024   0.03298144            2 
 1468000    1.0120632   -6.7920829    571.29774  0.032430617  0.032972997            3 
 1469000    1.0288288   -6.7430619    572.52455  0.032478134  0.032964517            3 
 1470000    1.0199254   -6.7042199    574.18961  0.032550432  0.032956055            3 
 1471000    1.0163256   -6.7790741    572.57112  0.032436614  0.032947533            3 
 1472000    1.0070244   -6.7593162    573.56896  0.032471069  0.032939002            3 
 1473000    1.0210093    -6.752913    572.77372  0.032404035  0.032930601            4 
 1474000    1.0125535   -6.7738419    574.21432  0.032463496  0.032922159            4 
 1475000    1.0072975   -6.7329723    577.48898  0.032626496  0.032913798            3 
 1476000   0.97852715   -6.7189616     575.7311  0.032505144   0.03290539            3 
 1477000    1.0311678   -6.7321483    574.03567  0.032387479  0.032896986            3 
 1478000    1.0246191    -6.748224    574.05401    0.0323666  0.032888497            2 
 1479000    1.0314709   -6.7449533    574.20215  0.032353063  0.032879746            4 
 1480000    1.0014991   -6.7535611    576.05019  0.032435258  0.032871074            2 
 1481000   0.99819882     -6.74716    575.50781  0.032382839  0.032862564            4 
 1482000    1.0241321   -6.7655467    575.39717  0.032354767  0.032854024            3 
 1483000   0.99785732   -6.7420935    577.28867  0.032439238  0.032845562            4 
 1484000     1.019938   -6.7602014     577.0267  0.032402667  0.032837074            3 
 1485000    1.0068876   -6.7361359    577.23629  0.032392609  0.032828717            4 
 1486000    1.0301641   -6.7617155    578.33624  0.032432494   0.03282043            5 
 1487000    1.0425441   -6.7367444    578.11703  0.032398399  0.032812102            2 
 1488000    1.0254186   -6.7236885    581.61207   0.03257236  0.032804026            4 
 1489000    1.0418415   -6.7465519    578.59846  0.032381826  0.032795947            4 
 1490000    1.0162273   -6.7167266    581.04011  0.032496651  0.032787926            2 
 1491000     1.021662   -6.7310273    582.01768  0.032529493  0.032779938            4 
 1492000    1.0072956   -6.7374367     580.9551  0.032448341  0.032771793            2 
 1493000     1.009368   -6.7570784    580.61481  0.032407614  0.032763781            2 
 1494000    1.0351103   -6.7635905    581.27683  0.032422848  0.032755746            8 
 1495000    1.0185581   -6.7575287    580.27489  0.032345311  0.032747567            2 
 1496000    1.0278114   -6.7693276    581.70034  0.032403094  0.032739529           11 
 1497000    1.0157986    -6.726525    583.13618  0.032461377    0.0327315            2 
 1498000    1.0202916   -6.7677788    583.85306  0.032479587  0.032723552            3 
 1499000   0.99872644   -6.7301664    584.54083  0.032496155  0.032715491            3 
 1500000    1.0238982   -6.7452754    583.79159  0.032432866   0.03270757            4 
 1501000   0.99929337   -6.7951817    583.56396  0.032398621  0.032699559            4 
 1502000    1.0133551   -6.7894965    582.14149   0.03229813   0.03269151            3 
 1503000    1.0112576   -6.7688186    581.86383  0.032261246  0.032683329            3 
 1504000    0.9931657   -6.7559906    584.59108  0.032390906  0.032675225            4 
 1505000    1.0127694   -6.7312285    583.00994  0.032281835  0.032667162            6 
 1506000    0.9926822   -6.7355121    583.71078   0.03229918  0.032659098            2 
 1507000   0.99081825   -6.7532753    585.60932  0.032382732  0.032651081            3 
 1508000    1.0414369   -6.7551384    585.07637  0.032331806  0.032642982            2 
 1509000    1.0106798   -6.7467124    585.04884   0.03230886  0.032635037            5 
 1510000    1.0155619   -6.7706367    584.74891  0.032270911  0.032627018            3 
 1511000    1.0158027   -6.7431297    584.29928  0.032224756  0.032618954            3 
 1512000    1.0173531   -6.7576846    586.01281  0.032297884  0.032610916            3 
 1513000   0.99911489   -6.7619846    586.31445  0.032293151  0.032602829            6 
 1514000   0.98514316   -6.8064553    585.52272  0.032228243  0.032594772            4 
 1515000   0.98814658   -6.7283565    588.83576  0.032389206  0.032586842            3 
 1516000   0.99143036   -6.7555977    588.51155  0.032350019  0.032578972            3 
 1517000    1.0198326    -6.713585    589.09325  0.032360649  0.032571246            3 
 1518000    1.0206155   -6.7444246    586.49346  0.032196611  0.032563525            4 
 1519000    1.0270768   -6.7828319    586.22445  0.032160656  0.032555492            3 
 1520000    1.0165003   -6.7487367    588.42978  0.032260405  0.032547452            3 
 1521000   0.98177525   -6.7297161    588.57225     0.032247  0.032539565            6 
 1522000     0.998199   -6.7511576    589.62551  0.032283482  0.032531721            2 
 1523000    1.0085225   -6.7407588    588.10661  0.032179175  0.032523805            3 
 1524000    1.0241295   -6.7903564    588.50322  0.032179747  0.032515938            2 
 1525000    1.0135159   -6.7772673    589.37496  0.032206282  0.032508058            3 
 1526000    1.0120557   -6.7514344     590.5347  0.032248509  0.032500306            3 
 1527000    1.0073445   -6.7737225    590.12437  0.032204997  0.032492509            4 
 1528000    1.0080134   -6.7555421    589.85526  0.032169244  0.032484835            3 
 1529000   0.99843292   -6.7608976    592.06494  0.032268636  0.032477265            6 
 1530000    1.0106205   -6.7547698    592.42236  0.032267013  0.032469565            3 
 1531000    1.0149879   -6.7852396    590.71723  0.032153126  0.032461687            4 
 1532000    1.0286816   -6.7774131    591.92928  0.032198068  0.032454043            3 
 1533000    1.0049466   -6.7359861    591.15531  0.032134992  0.032446277            5 
 1534000    1.0156895    -6.725505    593.62364  0.032248133  0.032438522            2 
 1535000    1.0170171   -6.7535117    593.62785  0.032227353  0.032430746            4 
 1536000    1.0295521   -6.7836224    593.37356  0.032192576  0.032422983            3 
 1537000   0.97678678   -6.7806323    594.04503  0.032208037  0.032415233            2 
 1538000    1.0052587   -6.7924291    593.13334  0.032137697  0.032407483            3 
 1539000     1.006428   -6.7783111    594.78957  0.032206496  0.032399705            6 
 1540000    1.0123964   -6.7440528    594.71265   0.03218142  0.032392026            3 
 1541000    1.0145786   -6.7567958     594.5393  0.032151163  0.032384371            4 
 1542000    0.9897669   -6.7975809    594.94568  0.032152274  0.032376699            3 
 1543000    1.0141831   -6.7700302    595.14815  0.032142371   0.03236904            1 
 1544000    1.0025901   -6.7590522    595.91826  0.032163118  0.032361446            4 
 1545000   0.98993891   -6.7749398     596.5481  0.032176273   0.03235395            3 
 1546000   0.99280173   -6.7504151    595.95427  0.032123451   0.03234633            2 
 1547000   0.99563564   -6.7493367    596.84723  0.032150788  0.032338772            3 
 1548000    1.0122747   -6.7837328    597.98163  0.032191087  0.032331357            5 
 1549000    1.0169211   -6.7859206    596.64912  0.032098619  0.032323875            2 
 1550000    1.0206829   -6.7371619    597.80162  0.032139872  0.032316316            5 
 1551000   0.99759192   -6.7945623    597.99668   0.03212963  0.032308882            2 
 1552000    1.0022451   -6.7585353    599.10068  0.032168207  0.032301486            4 
 1553000    1.0122527   -6.7686332    599.33886  0.032160274   0.03229405            3 
 1554000   0.99883178   -6.7596445    597.80519  0.032057336  0.032286682            2 
 1555000    1.0081598   -6.7627322    599.44545  0.032124622  0.032279294            4 
 1556000   0.98952869   -6.7607465    599.74751  0.032120154  0.032271881            3 
 1557000    1.0195787   -6.7385798    600.50347  0.032139984  0.032264441            2 
 1558000   0.99668384   -6.7421397    600.29884   0.03210841   0.03225709            5 
 1559000    1.0029929   -6.7562032    601.76668  0.032166275  0.032249652            2 
 1560000    1.0248219   -6.7622265    601.42445  0.032127374  0.032242391            2 
 1561000    1.0162391   -6.7606397    600.95943  0.032081968  0.032235056            5 
 1562000    1.0092307   -6.7861971    602.57987  0.032147881  0.032227725            4 
 1563000    1.0320495   -6.7744946    600.95403  0.032040628  0.032220475            3 
 1564000    1.0254775    -6.763934    604.34009  0.032200559  0.032213238            6 
 1565000    1.0215242   -6.7667138    602.24241  0.032068286  0.032205911            2 
 1566000   0.98817577   -6.8027931    602.48795  0.032060875  0.032198517            4 
 1567000    1.0395827   -6.7398855    601.94824  0.032011712  0.032191208            2 
 1568000    1.0215566   -6.7976693    602.72225  0.032032432  0.032183851            5 
 1569000   0.98546429    -6.778548    601.08023  0.031924805  0.032176424            4 
 1570000   0.99260365   -6.7783584    603.42664  0.032029015  0.032169038            3 
 1571000    1.0078028   -6.7731165    603.14527  0.031993702  0.032161737            3 
 1572000   0.99711665   -6.7844205    603.32342  0.031982794  0.032154485            6 
 1573000    1.0111422   -6.7866911    604.52018  0.032025863  0.032147128            7 
 1574000   0.99760611   -6.7569324    607.52885  0.032164806  0.032139875            3 
 1575000    1.0119163   -6.7733538    604.47318  0.031982708  0.032132596            2 
 1576000    1.0109041   -6.7820454     604.6751  0.031973091  0.032125358            4 
 1577000    1.0069733   -6.7877061    606.70752  0.032060216  0.032118007            4 
 1578000   0.99453391   -6.7931654    604.14557  0.031904603  0.032110583            4 
 1579000   0.99809191   -6.7719741    605.42943  0.031952155  0.032103091            2 
 1580000   0.99363626   -6.7775692    605.73364  0.031947977  0.032095628            2 
 1581000   0.98386645    -6.769129    605.34992  0.031907544  0.032088259            5 
 1582000    1.0085142    -6.786885    606.10777  0.031927295  0.032080753            4 
 1583000     1.003548   -6.7965587    604.92468  0.031844845   0.03207318            3 
 1584000    1.0058682   -6.7880442    605.65007  0.031862904  0.032065763            3 
 1585000    1.0094187   -6.7804756    608.22284  0.031978067  0.032058342            5 
 1586000   0.98112404   -6.7931522     606.4741   0.03186602  0.032050952            2 
 1587000   0.99714626   -6.7739275     607.9071  0.031921188  0.032043549            3 
 1588000    1.0071446   -6.7940121    606.25418  0.031814346  0.032036089            4 
 1589000   0.99619983   -6.7669007     608.1508   0.03189379  0.032028642            3 
 1590000   0.99833744   -6.7633734    608.57123  0.031895767  0.032021116            4 
 1591000    1.0112039   -6.7849331    609.53291   0.03192609  0.032013821            4 
 1592000    1.0092779   -6.7765452    605.45194  0.031692417  0.032006338            5 
 1593000   0.99377728   -6.7694459    609.41389  0.031879781  0.031998799            3 
 1594000   0.99628179   -6.7820084      608.728  0.031823923   0.03199132            2 
 1595000   0.99374659   -6.8135927    608.97107   0.03181667  0.031983804            5 
 1596000   0.98764054   -6.7812151    610.44942  0.031873926  0.031976384            5 
 1597000   0.97755812   -6.7802093    610.32645   0.03184755  0.031969114            2 
 1598000   0.99196529   -6.8136865    611.35695   0.03188136  0.031961788            5 
 1599000   0.99110112   -6.7670276     610.3225   0.03180751  0.031954562            4 
 1600000   0.98610045   -6.7844268    610.33005  0.031788024  0.031947184            2 
 1601000    1.0049687   -6.8168047    610.54216  0.031779209  0.031939808            3 
 1602000    1.0049921   -6.7822644    612.59138  0.031865969  0.031932309            2 
 1603000   0.99214649   -6.7940727    611.21641  0.031774611  0.031924894            2 
 1604000    1.0001104   -6.8219377    611.24539  0.031756307  0.031917483            3 
 1605000    1.0070052   -6.7602881    611.99708  0.031775549   0.03191016            3 
 1606000   0.99441704   -6.8065912    611.63129  0.031736784  0.031902807            3 
 1607000    1.0055053     -6.78475    612.64637  0.031769673  0.031895491            5 
 1608000   0.99238517    -6.760124    612.71649  0.031753549  0.031888225            3 
 1609000    1.0137934   -6.7749546     612.7572  0.031735923  0.031880859            4 
 1610000    1.0015102   -6.7883185    614.13603  0.031787579  0.031873469            3 
 1611000    0.9626575   -6.7765446    612.20965    0.0316682  0.031866017            4 
 1612000   0.99783195   -6.8257474    613.61845  0.031721384  0.031858653            4 
 1613000   0.99196134   -6.7502158    614.00755   0.03172182  0.031851159            3 
 1614000   0.98124168   -6.7668902    612.34498  0.031616325  0.031843706            5 
 1615000   0.98618923   -6.7814309    615.00542  0.031734026  0.031836393            3 
 1616000    1.0108091   -6.8117445    613.37909  0.031630522  0.031828987            4 
 1617000      0.97116   -6.8103301    615.11065  0.031700198  0.031821559            4 
 1618000   0.98864868   -6.7753527    615.80233   0.03171623  0.031814095            1 
 1619000   0.98292762   -6.8228913    613.89863  0.031598653  0.031806632            5 
 1620000   0.99507645   -6.8007262     614.3566  0.031602706  0.031799021            4 
 1621000   0.98516627   -6.7837031    616.55465  0.031696209  0.031791612            3 
 1622000    1.0023252   -6.7985134    614.88549  0.031590911  0.031784226            2 
 1623000   0.99135317   -6.8184928    615.26307  0.031590833  0.031776857            4 
 1624000   0.97304224   -6.8052587    617.16333   0.03166889  0.031769418            4 
 1625000   0.99469506   -6.7855657    616.22933  0.031601504  0.031762078            3 
 1626000   0.98356326   -6.8421365    616.01675  0.031571174  0.031754568            6 
 1627000   0.99265996   -6.8194671    613.96105  0.031446478  0.031746917            2 
 1628000    1.0067087   -6.8160007    615.23351  0.031492297  0.031739278            2 
 1629000   0.99793739   -6.7942791    616.16385  0.031520557  0.031731634            3 
 1630000    1.0010036    -6.831664    616.19701  0.031502914  0.031723929            2 
 1631000    0.9926855   -6.7978411     617.8978  0.031570499  0.031716285            2 
 1632000   0.99451393   -6.7871155    617.94767  0.031553701  0.031708686            3 
 1633000   0.97649888   -6.7735596    617.25832    0.0314992  0.031701079            4 
 1634000   0.98475839   -6.7828189    618.28594  0.031532331  0.031693447            3 
 1635000    1.0040122   -6.8060009    618.15346  0.031506293  0.031685634            3 
 1636000   0.98658291   -6.8245323    617.34887  0.031446051  0.031677926            3 
 1637000   0.98690133   -6.8387782    617.42914  0.031430927  0.031670261            4 
 1638000   0.96552538    -6.820266    618.55816  0.031469178  0.031662675            4 
 1639000   0.98958356   -6.7973683     620.1089  0.031528823  0.031655138            4 
 1640000   0.97583681   -6.8141978     618.4252  0.031424045  0.031647554            4 
 1641000   0.97987171   -6.8085293    618.99348  0.031433754  0.031639903            3 
 1642000   0.97338727   -6.8015592    619.21788  0.031425999  0.031632401            5 
 1643000   0.98040839   -6.7863834    620.31594  0.031462565  0.031624951            5 
 1644000     1.013405   -6.8208524    618.22321  0.031337348  0.031617482            1 
 1645000    1.0032246   -6.7860089    620.54532  0.031435933  0.031610053            2 
 1646000    1.0048471   -6.7437139    622.07651  0.031494356  0.031602608            2 
 1647000   0.98902523   -6.7702671    622.99348  0.031521629  0.031595313            3 
 1648000   0.98724031    -6.822921    620.84105  0.031393662  0.031587873            3 
 1649000   0.97075022   -6.7937149    622.63263  0.031465162   0.03158041            3 
 1650000    1.0069835   -6.8245107    621.45252  0.031386491  0.031572893            3 
 1651000    1.0112167     -6.80307     622.8199  0.031436498  0.031565367            4 
 1652000   0.99703519   -6.8191701    622.69668  0.031411253  0.031557878            3 
 1653000    0.9754456   -6.8409295    623.53187  0.031434355  0.031550406            3 
 1654000   0.97541206   -6.8303844    623.67069  0.031422344  0.031542901            4 
 1655000   0.98274876   -6.7727698     623.4336   0.03139142  0.031535414            6 
 1656000    1.0097903   -6.8191193    622.49073  0.031325016  0.031527966            3 
 1657000   0.99502638   -6.8233243    623.60673  0.031362238  0.031520472            6 
 1658000   0.98375098   -6.8042954    623.93366  0.031359753  0.031513102            3 
 1659000    1.0052631   -6.7973079    624.91436  0.031390113  0.031505688            2 
 1660000    0.9925029   -6.7719922    623.80081  0.031315302  0.031498326            3 
 1661000   0.97560011   -6.7999194    624.21314  0.031317135  0.031490987            4 
 1662000   0.99991004   -6.8310072    623.54567  0.031264825  0.031483545            4 
 1663000   0.99706216   -6.8118397    624.83035    0.0313104  0.031476043            7 
 1664000   0.96892708    -6.822807    624.28349  0.031264197  0.031468518            4 
 1665000   0.99705411   -6.7965325    623.65706  0.031214067   0.03146105           10 
 1666000   0.98054984   -6.7979293    626.72149  0.031348614  0.031453481            6 
 1667000   0.98736133    -6.763881    626.90241  0.031338853  0.031446066           11 
 1668000   0.99544922   -6.8039251    625.34358  0.031242185  0.031438607            6 
 1669000    0.9918231   -6.7937394    625.89065  0.031250781  0.031431255            6 
 1670000   0.98433654   -6.8084265    626.17213  0.031246114  0.031423832            6 
 1671000   0.98830427   -6.7611323    627.70794  0.031304006  0.031416465            6 
 1672000    1.0056267   -6.8282066    626.31838  0.031216028  0.031409013            6 
 1673000    1.0022921   -6.8084475    628.83131   0.03132254  0.031401581            3 
 1674000    1.0016487   -6.8136475    628.54397  0.031289525  0.031394153            3 
 1675000    0.9912022   -6.7765911    628.53487  0.031270391  0.031386667            5 
 1676000    0.9831063   -6.8012313    627.47516  0.031199044  0.031379213            4 
 1677000    0.9929408   -6.7777133    628.92388  0.031252429  0.031371848            4 
 1678000   0.99943924   -6.7968057    627.82368  0.031179166  0.031364428            5 
 1679000   0.96982267   -6.8012535    629.72938  0.031255181  0.031356943            3 
 1680000   0.97849213   -6.8020956    629.08531  0.031204629  0.031349461            3 
 1681000     1.014048   -6.8578084    625.88118  0.031027225  0.031341884            3 
 1682000   0.97630664   -6.7922209    628.66922  0.031146909  0.031334406            5 
 1683000    0.9761474   -6.8102518    629.86232  0.031187479  0.031326956            7 
 1684000   0.98191328   -6.8409587    628.98401  0.031125495  0.031319393            3 
 1685000   0.96231091    -6.821014    629.64411  0.031139669  0.031311887            3 
 1686000   0.96558011   -6.8458388    628.88891  0.031083873  0.031304379            5 
 1687000   0.98362026   -6.8405577    631.19341  0.031179283  0.031296914            3 
 1688000   0.97477181   -6.8109621    631.05432  0.031153946  0.031289518            7 
 1689000    0.9903383   -6.8424772    630.28269  0.031097429   0.03128197            4 
 1690000   0.98019009   -6.8729864    629.78882  0.031054676  0.031274396            4 
 1691000   0.95574969   -6.8276814    630.93775  0.031092931  0.031266761            4 
 1692000   0.96524381   -6.8113258    630.12254  0.031034404  0.031259173            4 
 1693000   0.97279152   -6.8422521     631.2271  0.031070442  0.031251606            3 
 1694000   0.97194604   -6.8057326    633.09842  0.031144157  0.031244108            6 
 1695000   0.97970915   -6.7864522    632.68688   0.03110555  0.031236695            9 
 1696000   0.99270203   -6.8053662    632.42191   0.03107419  0.031229196            4 
 1697000   0.98346376   -6.8020072    632.30264  0.031050022  0.031221853            4 
 1698000    1.0124801   -6.8338132    631.95796  0.031014819  0.031214276            3 
 1699000   0.97028945   -6.8343788    631.38255  0.030968342   0.03120661           13 
 1700000   0.98288815   -6.8550278    631.17722   0.03094006  0.031198797            2 
 1701000   0.99501349   -6.8029731    631.95665  0.030960055  0.031190982            4 
 1702000   0.98364199   -6.8205447    633.12125  0.030998886   0.03118336            3 
 1703000   0.97563181   -6.7878776    634.88333  0.031066908  0.031175795            2 
 1704000   0.99937482   -6.8177688     633.1385  0.030963346  0.031168239            7 
 1705000   0.99324362   -6.8710326    632.65985  0.030921791  0.031160562            4 
 1706000    1.0043291   -6.8191751    634.64782  0.031000773  0.031152922            3 
 1707000   0.97973164   -6.8463812     632.3771  0.030871759  0.031145239            5 
 1708000   0.97221886   -6.8293107    633.17841   0.03089278  0.031137509            4 
 1709000    0.9684167   -6.8320647    633.43385  0.030887159  0.031129766            3 
 1710000   0.97569871   -6.8219504    634.16397  0.030904677  0.031122027            6 
 1711000   0.96700803   -6.8399414    631.94166  0.030778378  0.031114302            6 
 1712000   0.95775577   -6.8364542    634.56122   0.03088791  0.031106643            6 
 1713000   0.98198625   -6.8168633    636.93195  0.030985209  0.031098972            3 
 1714000   0.95926216   -6.8220755    635.68362  0.030906438  0.031091381            4 
 1715000   0.97112194    -6.861472    634.70289  0.030840762  0.031083614            3 
 1716000   0.96651639   -6.8138844    636.69399  0.030919483  0.031075948            3 
 1717000   0.95616093   -6.8432957    637.33131  0.030932407  0.031068272            4 
 1718000   0.97617554   -6.8016826    635.41715  0.030821554  0.031060585            3 
 1719000   0.99902384   -6.8361118    637.07692  0.030884086   0.03105294            3 
 1720000   0.97893293   -6.8356245    636.40089  0.030833376  0.031045177            3 
 1721000   0.96584786   -6.8321777    636.81099  0.030835318  0.031037391            6 
 1722000   0.99938899   -6.8199669    635.84978  0.030770895  0.031029652            4 
 1723000    1.0013999     -6.83398    637.10509   0.03081375  0.031021821            5 
 1724000   0.98799455   -6.7849735    636.52259   0.03076772  0.031013975            3 
 1725000   0.97133517   -6.8284933    636.64437  0.030755767  0.031006271            6 
 1726000   0.99898186    -6.842709    636.59085  0.030735363   0.03099847            5 
 1727000   0.95925147   -6.8319162    635.40954  0.030660565  0.030990653            3 
 1728000   0.97649325   -6.8107609    638.15318  0.030775134  0.030982881            6 
 1729000   0.97672653    -6.842923    638.42642  0.030770504  0.030975228            7 
 1730000   0.96367513   -6.8241547    639.44301  0.030801686  0.030967465            5 
 1731000    0.9771977   -6.8323909    640.41603  0.030830735  0.030959785            3 
 1732000   0.98085999   -6.8593696    639.47166  0.030767497  0.030952145            5 
 1733000   0.96813355   -6.8327148    638.51876  0.030703922  0.030944473            4 
 1734000   0.96824853   -6.8315425    639.45951  0.030731426  0.030936902            8 
 1735000   0.97587173   -6.8595307    641.31747  0.030802953  0.030929307            4 
 1736000   0.97497749   -6.8404798    639.74501  0.030709726   0.03092175            7 
 1737000   0.96228633    -6.835178     640.5922  0.030732691  0.030914142            3 
 1738000   0.95570063   -6.8249799    639.85434  0.030679629  0.030906551            3 
 1739000   0.97705065   -6.8365069    641.69796  0.030750333  0.030898948            6 
 1740000   0.96845691   -6.8221205    642.18806  0.030756133  0.030891443            6 
 1741000   0.97003519   -6.7967259    642.74129  0.030764948  0.030883967            6 
 1742000   0.95803109   -6.8528275    640.30676  0.030630825  0.030876392            1 
 1743000   0.98527223   -6.8184798    644.15188  0.030797087  0.030868823            3 
 1744000   0.96332395   -6.8312755    642.53693  0.030702261  0.030861317            3 
 1745000   0.97750498   -6.8052647    644.00657  0.030754851  0.030853803            8 
 1746000   0.98303474   -6.8701991    643.38312   0.03070748  0.030846274            7 
 1747000   0.99216577   -6.8297799    643.47758  0.030694409  0.030838709            3 
 1748000   0.97879701   -6.7981045    644.95747  0.030747401  0.030831201            4 
 1749000   0.97244864   -6.8242637    643.81293  0.030675287  0.030823736            5 
 1750000   0.95863918   -6.8299623    646.15052  0.030769072  0.030816231            3 
 1751000   0.95222173   -6.8365637     643.9182   0.03064526  0.030808716            3 
 1752000   0.96756891   -6.8434008    643.54147  0.030609849  0.030801245            4 
 1753000   0.98032898   -6.8417376     643.0739  0.030570161  0.030793628            3 
 1754000   0.96150318   -6.8247919    647.35761  0.030756253  0.030786072            3 
 1755000   0.95172547   -6.8386807    644.86665  0.030620449  0.030778554            2 
 1756000   0.96444802   -6.8472256    644.64896   0.03059268  0.030770912            2 
 1757000    0.9737249   -6.8486494     644.0217  0.030545518  0.030763279            5 
 1758000   0.98279533   -6.8725941    644.46853  0.030549324  0.030755598            4 
 1759000   0.97386725   -6.8556593     645.0902  0.030561408  0.030748045            7 
 1760000   0.98690686   -6.8419961     643.8114  0.030483494  0.030740322            6 
 1761000   0.98419101   -6.8516111    644.68873  0.030507701  0.030732642            7 
 1762000   0.96215844   -6.8494269     645.1885  0.030514023  0.030724844            3 
 1763000   0.95584062   -6.8648412    644.92184  0.030484111  0.030717129            7 
 1764000    0.9676974   -6.8411841    645.62655   0.03050012  0.030709437            6 
 1765000   0.96567789   -6.8715205    645.60325   0.03048174   0.03070177           10 
 1766000   0.96889564   -6.8498096    645.42801   0.03045621  0.030694115            8 
 1767000   0.98783399   -6.8680817    646.16477   0.03047372  0.030686483            6 
 1768000   0.96026014   -6.8665907     647.1425  0.030502569  0.030678864            5 
 1769000   0.96981926   -6.8379022    648.71206  0.030559264  0.030671241            4 
 1770000    0.9844161   -6.8056182    648.03545  0.030510144  0.030663713            3 
 1771000   0.96914277   -6.9098005    645.57274  0.030377035   0.03065605            7 
 1772000   0.96347731   -6.8787506    647.93837  0.030471142  0.030648433            3 
 1773000    0.9572284   -6.8408195    647.96621  0.030455264   0.03064077            3 
 1774000   0.97857837   -6.8228385    648.72469  0.030473727  0.030633168            2 
 1775000    1.0028847   -6.8568904    647.82198  0.030414177  0.030625544            3 
 1776000   0.96169683   -6.8309186    648.70229  0.030438358  0.030618015            5 
 1777000   0.96171071   -6.8511632    649.01599   0.03043594  0.030610476            2 
 1778000   0.98246942   -6.8245902    648.29803  0.030385172  0.030602913            2 
 1779000   0.98094209   -6.8438214    647.85553  0.030347364  0.030595328            4 
 1780000   0.96274349   -6.8521245    649.32306   0.03039902  0.030587689            4 
 1781000   0.96506356   -6.8392841     650.2033  0.030423138  0.030580142            6 
 1782000   0.94125774   -6.8621316    648.93384    0.0303467  0.030572604            6 
 1783000   0.96440873   -6.8631895    649.84337   0.03037219  0.030564988            2 
 1784000   0.96036336   -6.8893528    649.00263  0.030315892  0.030557332            7 
 1785000   0.96122168   -6.8462063    650.34972  0.030361798  0.030549696            9 
 1786000    0.9442311   -6.8481982    650.05283  0.030330946  0.030542184            4 
 1787000   0.97144732   -6.8415479    650.98478  0.030357433  0.030534522            4 
 1788000   0.95171298    -6.860016    649.52164  0.030272261  0.030526783            6 
 1789000   0.93668504   -6.8374618    651.64751  0.030354365   0.03051913            2 
 1790000   0.97095482   -6.8515869    651.11707  0.030312713   0.03051153            3 
 1791000   0.96156419   -6.7774668    653.75432  0.030418496  0.030503922            3 
 1792000   0.94363895   -6.8484094     651.9212  0.030316276  0.030496316            6 
 1793000   0.97761806   -6.8821509    651.87711  0.030297319  0.030488637            4 
 1794000   0.98606465   -6.8609167    652.47995  0.030308433  0.030481041            3 
 1795000   0.96161791   -6.8261396    652.72382   0.03030287  0.030473531            4 
 1796000   0.98344448   -6.8525281    653.46553  0.030320412  0.030466054            5 
 1797000    0.9469533   -6.8545333    653.65406  0.030312283  0.030458539            4 
 1798000   0.97019115   -6.8361863    652.78551  0.030255168  0.030451052            4 
 1799000   0.96936054   -6.8349934    653.38044  0.030265909  0.030443585            2 
 1800000   0.96056731   -6.8495824    654.11435  0.030283072  0.030436056            2 
 1801000    0.9497806   -6.8772593    655.21968  0.030317401  0.030428575            3 
 1802000   0.95135851   -6.8498969    653.87662  0.030238467  0.030421057            3 
 1803000    0.9889715   -6.8673854    654.45009  0.030248202  0.030413569            5 
 1804000   0.98810605   -6.8560923    654.21302  0.030220483  0.030406143            8 
 1805000   0.95645032   -6.8329873    654.02346  0.030194989  0.030398722            3 
 1806000    0.9399854   -6.8921038    654.75516  0.030212032  0.030391325            2 
 1807000    0.9895149   -6.8694123    655.44882  0.030227302  0.030383822            3 
 1808000   0.96888431   -6.8678176    655.06878  0.030193067  0.030376361            5 
 1809000   0.95962591   -6.8448334    656.10222  0.030223983  0.030368865            3 
 1810000   0.97774465   -6.8721453    655.80858  0.030193765  0.030361402            5 
 1811000   0.97240808   -6.8839439     655.1174  0.030145288  0.030353808            7 
 1812000   0.93797561   -6.8249984    657.31324  0.030229638  0.030346334            4 
 1813000   0.97468971   -6.8462184    656.59645  0.030180017  0.030338818            3 
 1814000   0.94939968   -6.8783783    657.66723   0.03021257  0.030331285            3 
 1815000   0.95627961   -6.8696472    659.26693  0.030269372  0.030323724            3 
 1816000   0.96399378   -6.8460947    657.83448  0.030186971   0.03031619            5 
 1817000    0.9525257   -6.8719878    656.74272  0.030120286  0.030308584            3 
 1818000   0.97195307   -6.8901663    657.16239  0.030122955  0.030300963            4 
 1819000   0.95805789   -6.8396038    656.31149  0.030067413  0.030293317            7 
 1820000   0.95651617   -6.8460303    658.37394  0.030145327  0.030285643            5 
 1821000   0.97428643   -6.8777346    654.83221  0.029966694   0.03027798            4 
 1822000   0.94165297   -6.9129908    657.70393  0.030081592  0.030270196            7 
 1823000   0.95967252   -6.8623483    657.53155  0.030057211  0.030262379            6 
 1824000   0.96140418   -6.8452723    657.51595   0.03004002  0.030254656            5 
 1825000   0.96050602   -6.8425158    658.51048  0.030068972   0.03024702            4 
 1826000   0.94483916   -6.8467202    659.40631  0.030093388  0.030239289            5 
 1827000   0.95321295   -6.8854514     657.7896  0.030003174  0.030231608            3 
 1828000   0.94697224   -6.8866189    656.61786  0.029933345  0.030223738            3 
 1829000   0.94871421   -6.8775092    658.58343  0.030006535  0.030216006            6 
 1830000   0.94647827   -6.8751035    658.06474  0.029966518  0.030208263            4 
 1831000   0.94737085   -6.8563166    660.14971  0.030045044  0.030200405            8 
 1832000   0.97287655   -6.9019459     657.4642  0.029906486  0.030192592            5 
 1833000   0.95370522   -6.8844611    658.48488  0.029936574  0.030184776            8 
 1834000   0.95543046   -6.8669661    658.75546  0.029932545  0.030176927            3 
 1835000    0.9650581   -6.8523184    659.66851  0.029957698  0.030169102            2 
 1836000   0.96653394    -6.822341    661.90031  0.030042679  0.030161424            4 
 1837000   0.98885219   -6.8531371    661.50046  0.030008187  0.030153756            8 
 1838000   0.93676147   -6.8592593    659.01881  0.029879344  0.030146061            4 
 1839000   0.98317379   -6.8695108    663.04266  0.030045435  0.030138347            3 
 1840000   0.96496419   -6.8378669    663.14193  0.030033602  0.030130762            2 
 1841000   0.93948038    -6.890446    661.80269  0.029956667  0.030123102            4 
 1842000   0.94772812   -6.8747238    662.64064  0.029978313  0.030115492            4 
 1843000   0.95663987   -6.8813324    660.60745  0.029870115  0.030107842            5 
 1844000   0.94561863   -6.8333404     663.6167  0.029989909  0.030100128            2 
 1845000   0.96240632   -6.8942994    658.45537  0.029740532  0.030092421            3 
 1846000   0.95489369   -6.8838227     662.2329  0.029894949  0.030084698            6 
 1847000   0.96222591   -6.8958199    660.12007  0.029783436  0.030076997            5 
 1848000   0.94371134   -6.8300373    663.18009  0.029905307  0.030069338            5 
 1849000    0.9430829   -6.8707588    663.72353  0.029913626  0.030061735            3 
 1850000   0.95058576   -6.8634802    665.09632  0.029959294   0.03005407            4 
 1851000   0.96254626   -6.8561327     662.8712  0.029842932   0.03004631            5 
 1852000   0.95829703   -6.8345028    662.28118  0.029800269  0.030038611            8 
 1853000     0.957506   -6.8661043    663.62621  0.029844676  0.030030877            8 
 1854000   0.93915639   -6.9066459    661.80531  0.029746733   0.03002316            5 
 1855000   0.95821832   -6.8914168    664.03081  0.029830674  0.030015284            3 
 1856000   0.94133527   -6.8835773    664.23368   0.02982371  0.030007514            2 
 1857000    0.9501185   -6.8444984    664.42225  0.029816113  0.029999726            2 
 1858000   0.94460308   -6.9204273    661.96955  0.029690059  0.029991947            3 
 1859000   0.94434533    -6.906714    663.79786  0.029756045  0.029984189            7 
 1860000   0.95544261     -6.85099    664.95583  0.029791928  0.029976494            3 
 1861000   0.95303272   -6.8887657    662.23112   0.02965391  0.029968682            4 
 1862000   0.95405602   -6.8608405    662.68647  0.029658364  0.029960772            2 
 1863000   0.95610273    -6.849774    665.06403  0.029748794  0.029952979            2 
 1864000   0.96597377   -6.8933199    665.37995  0.029746958  0.029945134            4 
 1865000   0.94681973   -6.8951342    663.92618  0.029666049  0.029937363            4 
 1866000   0.94656526   -6.9172625    665.26545  0.029709961   0.02992961            4 
 1867000   0.94192685   -6.8763806    665.38622  0.029699438  0.029921918            5 
 1868000   0.96797032   -6.8615457    667.86428  0.029794088  0.029914289            5 
 1869000   0.95893688   -6.8790549    664.68391  0.029636344  0.029906639            3 
 1870000   0.95028114   -6.8782415      665.604  0.029661497  0.029898925            4 
 1871000   0.95129087   -6.8814365    667.16864  0.029715332  0.029891281            5 
 1872000   0.93668929   -6.8686138    667.17183  0.029699601  0.029883589            5 
 1873000   0.93054201   -6.8623386    667.95847  0.029718743  0.029875821            3 
 1874000   0.98349777   -6.8766263    667.90189  0.029700368  0.029868085            5 
 1875000   0.94028706   -6.8712249    667.99339  0.029688595   0.02986033            3 
 1876000   0.95755656   -6.8924623    666.49473  0.029606198  0.029852466            4 
 1877000   0.94654055   -6.8803356     666.5305  0.029592013  0.029844616            3 
 1878000    0.9549337   -6.8894627    667.40415  0.029615022  0.029836901            3 
 1879000   0.96342327    -6.913631    668.34299  0.029640899   0.02982913            6 
 1880000   0.95289489   -6.8789038    666.26167  0.029532875  0.029821307            5 
 1881000   0.96895843   -6.8928018    667.23002  0.029560076  0.029813362            5 
 1882000    0.9633134   -6.8848397    668.29118  0.029591356  0.029805499            8 
 1883000   0.95327023   -6.8761537    666.71562  0.029505913  0.029797734            1 
 1884000   0.92542112   -6.8462275    669.58004  0.029616952  0.029789959            4 
 1885000    0.9333442   -6.8817302    666.40167  0.029460728  0.029782154            3 
 1886000   0.94515074   -6.8493801    669.94423  0.029601636  0.029774286            3 
 1887000   0.93457282   -6.8873074     668.6148  0.029527239  0.029766423            3 
 1888000   0.96023113   -6.8702874    669.80973  0.029564342  0.029758555            5 
 1889000   0.93649322   -6.8757516    669.31869  0.029527029  0.029750785            6 
 1890000   0.95682928   -6.8763865    669.74317  0.029530122   0.02974302            2 
 1891000   0.93667768   -6.8810033    669.23901  0.029492288   0.02973529            3 
 1892000   0.94977583   -6.8917769    670.07296  0.029513432  0.029727511            5 
 1893000   0.93475492   -6.8966045     671.0843  0.029542362   0.02971981            2 
 1894000   0.95038669   -6.8644442    670.67245  0.029508644  0.029712188            9 
 1895000   0.94249062   -6.8818651    671.65221  0.029536157  0.029704425            3 
 1896000   0.97248414   -6.8685195     670.4124  0.029466087  0.029696704            3 
 1897000   0.93841774   -6.9469172    667.91388  0.029340796  0.029688836            7 
 1898000   0.92973386   -6.8696058    671.01269  0.029461393   0.02968104            4 
 1899000   0.95330767   -6.8851756    673.07641  0.029536441  0.029673359            5 
 1900000   0.92684259   -6.8610695     672.5144  0.029496245  0.029665685            2 
 1901000    0.9407718   -6.8903648    670.81997  0.029406451  0.029657862           11 
 1902000   0.94478033   -6.8791809    673.36762  0.029502612  0.029649976            4 
 1903000    0.9471789   -6.8982306    673.48357  0.029492186  0.029642119            5 
 1904000   0.94628901   -6.8731282    673.86957  0.029493591  0.029634319            6 
 1905000   0.94184835   -6.9177301    669.96661  0.029307376  0.029626615            4 
 1906000   0.91605352   -6.8866625    672.67269  0.029410313  0.029618797            3 
 1907000   0.95764911   -6.8830189    671.98128  0.029364678  0.029610993            7 
 1908000   0.94169584   -6.8645313    673.47886  0.029414695  0.029603243            6 
 1909000   0.94369089   -6.8660619    675.42767  0.029484358  0.029595548            9 
 1910000   0.93738037   -6.8914353     674.2368  0.029416963  0.029587819            2 
 1911000   0.92899117   -6.9012162    674.29796  0.029404237  0.029580037            8 
 1912000   0.93205086   -6.8806299      673.621  0.029359353  0.029572266            5 
 1913000   0.93467461    -6.872906    674.88123  0.029398903  0.029564579            3 
 1914000   0.92627657   -6.8910035    673.82692   0.02933764  0.029556926            3 
 1915000   0.94325904   -6.8911094    678.03412  0.029505401  0.029549282            9 
 1916000   0.93385624   -6.9096778    673.70755  0.029301825  0.029541614            3 
 1917000   0.96110317   -6.8686156    676.72181  0.029417571  0.029533999           10 
 1918000   0.95341323   -6.8871889    675.30869  0.029340836  0.029526417            3 
 1919000   0.95926758   -6.8985692    676.27941  0.029367701  0.029518762            3 
 1920000   0.95189616    -6.919358    675.37374  0.029313097  0.029510997            4 
 1921000   0.93880331   -6.8806972    675.18593   0.02928969  0.029503335            4 
 1922000   0.94655435   -6.9024784    676.18929  0.029317954  0.029495664            4 
 1923000   0.93886937   -6.9013576    677.84924  0.029374642  0.029488079            2 
 1924000   0.92716092   -6.8715394    679.20646  0.029418159  0.029480515            3 
 1925000   0.94262456   -6.9143039    676.34811  0.029279139   0.02947289           12 
 1926000   0.92780033    -6.879057     677.2917  0.029304764  0.029465158            7 
 1927000   0.94862935   -6.9339764    674.80363  0.029181959  0.029457373           14 
 1928000   0.96121386   -6.8698448    677.71589  0.029292699  0.029449661            6 
 1929000   0.93882772   -6.8558065    677.41487   0.02926451  0.029441989            3 
 1930000   0.94081312   -6.8591527    678.36483  0.029290364  0.029434357            3 
 1931000   0.95257549     -6.91126    677.16464  0.029223401  0.029426631            3 
 1932000   0.92472072   -6.8800375    678.70939  0.029274905  0.029418923            4 
 1933000   0.93174554   -6.8487272     678.3806  0.029245585  0.029411178            4 
 1934000     0.948019   -6.9172444    679.36049  0.029272686  0.029403436            3 
 1935000   0.92633305   -6.8983549    678.16431  0.029206043    0.0293957            6 
 1936000   0.92869459   -6.8959239    677.19991  0.029149445  0.029387939            3 
 1937000   0.94107336   -6.9122016    677.08153  0.029129303  0.029380165            7 
 1938000   0.93844348   -6.9072647    676.01659  0.029068481  0.029372292            6 
 1939000    0.9641398   -6.8707805    679.10865  0.029186378   0.02936441            9 
 1940000   0.93069991    -6.922015    676.72081  0.029068763  0.029356552            3 
 1941000   0.93318034   -6.9063069    675.69868  0.029009904  0.029348657            4 
 1942000   0.94297489   -6.9212442    678.39996   0.02911088  0.029340707            7 
 1943000   0.94910911   -6.9207841    676.68481  0.029022337  0.029332762            6 
 1944000   0.94006203   -6.9460048    677.88551  0.029058878  0.029324817            8 
 1945000   0.94290137   -6.9069883    678.96323  0.029090113  0.029316916            3 
 1946000   0.93444605   -6.9012502    677.93267  0.029031032  0.029308953            6 
 1947000   0.92900086   -6.9109335    676.90704  0.028972224  0.029301002            4 
 1948000   0.93857292   -6.8969679    678.36988   0.02901993  0.029293072            3 
 1949000   0.93284554   -6.9375808    678.69492  0.029018938  0.029285117            7 
 1950000   0.93087674   -6.9061658    678.01302  0.028974915  0.029277205            2 
 1951000   0.94651191   -6.8999322    680.47838  0.029065367  0.029269242           11 
 1952000   0.94742015   -6.8795783    678.78299  0.028978099  0.029261393            2 
 1953000   0.94338384   -6.8896953    679.43224  0.028990965  0.029253548            4 
 1954000   0.94367896   -6.8938266    679.78777   0.02899129  0.029245609            4 
 1955000   0.93272266   -6.9117314    679.53166  0.028965544  0.029237708            3 
 1956000   0.93088824   -6.8711983    680.91725  0.029009767  0.029229875            3 
 1957000   0.94692031   -6.9001215    679.08607  0.028916968   0.02922205            5 
 1958000   0.92427211   -6.9313978    680.95186  0.028981608  0.029214212            4 
 1959000   0.95423088   -6.8904343    681.99308  0.029011106  0.029206412            3 
 1960000   0.93589547   -6.8833422    681.90252  0.028992454  0.029198634            3 
 1961000    0.9424571   -6.8480719    682.91396  0.029020651  0.029190956            4 
 1962000    0.9344376   -6.8886028    682.73499  0.028998258  0.029183118            6 
 1963000   0.92755753   -6.9008745    682.73525  0.028983497  0.029175282            2 
 1964000   0.92826854   -6.8961506    684.76798  0.029054989  0.029167517            4 
 1965000   0.94111068   -6.9097382    683.57682  0.028989687  0.029159775            2 
 1966000   0.94957327   -6.9207622    682.56668  0.028932125     0.029152            6 
 1967000   0.95731003    -6.870729    682.82772  0.028928475  0.029144219            3 
 1968000   0.96318154   -6.8987801    682.37858  0.028894757  0.029136526            4 
 1969000   0.95499005   -6.9365294    682.88483  0.028901508   0.02912885            3 
 1970000   0.94197384   -6.9150284    683.64806  0.028919123  0.029121146            2 
 1971000   0.93686968    -6.940404    684.44502  0.028938146  0.029113295            5 
 1972000   0.94902518    -6.883197    684.36867  0.028920245  0.029105519            6 
 1973000   0.94049249   -6.9064872    683.52559  0.028869977  0.029097689            4 
 1974000   0.92803635     -6.91403    682.67234  0.028819332  0.029089849            7 
 1975000   0.93197336   -6.9121213    684.94741  0.028900735  0.029082019            4 
 1976000   0.93617342   -6.9199769    683.71845   0.02883428  0.029074157            6 
 1977000   0.92205331   -6.9085765    685.34373  0.028888203  0.029066312            3 
 1978000   0.91684017    -6.917624    685.19023  0.028867131  0.029058525            5 
 1979000   0.94891424    -6.884086    684.74959   0.02883399  0.029050783            4 
 1980000   0.92213609   -6.9300874    685.43135  0.028848121  0.029042944            3 
 1981000   0.92039169   -6.9028256      687.852  0.028935386  0.029035152            5 
 1982000   0.93950618   -6.9572165    683.82246  0.028751365  0.029027293           11 
 1983000   0.93219353    -6.890209    686.67452  0.028856721  0.029019605            3 
 1984000   0.94355804   -6.8985541    685.00062  0.028771868   0.02901192            2 
 1985000   0.93885365   -6.9031986    686.60298  0.028824642  0.029004181            6 
 1986000   0.94838268   -6.9049934    686.34508  0.028799307  0.028996498            8 
 1987000   0.93837022   -6.9276062    686.27432  0.028781845  0.028988722            4 
 1988000   0.92164673   -6.9120286    687.53531  0.028820226  0.028981012            2 
 1989000   0.93132249   -6.8931798    687.02887  0.028784518  0.028973326            3 
 1990000   0.91125328   -6.8854487    687.56291  0.028792416  0.028965615            5 
 1991000    0.9268338    -6.918534    687.41324  0.028771691  0.028957873            4 
 1992000   0.95345506   -6.8904398    688.24217  0.028791925  0.028950128            3 
 1993000   0.94246361   -6.9033755    687.94629  0.028765107  0.028942355            3 
 1994000   0.94151219   -6.8882837    687.05946  0.028713619  0.028934609            8 
 1995000   0.92534242   -6.8795633    689.37117  0.028795788  0.028926897            3 
 1996000   0.94084637   -6.9072647    689.25632  0.028776567  0.028919187            3 
 1997000   0.93092332   -6.9321538    687.38549  0.028684088  0.028911404            3 
 1998000   0.94222456   -6.9168574    688.25672  0.028706069   0.02890359            3 
 1999000   0.92456102   -6.8754897    689.47431  0.028742468  0.028895799            6 
 2000000   0.93912166   -6.9347528     687.4733  0.028644721  0.028888072            4 
 2001000   0.93194822    -6.910395    690.04871  0.028737661  0.028880274            3 
 2002000   0.91978533   -6.9283823    688.27476  0.028649466  0.028872438            3 
 2003000   0.92694084   -6.8933946    688.23909  0.028633678  0.028864588            4 
 2004000   0.91436458   -6.9332064    688.45956  0.028628558  0.028856694            5 
 2005000   0.93790899   -6.9536778    689.76423  0.028668505  0.028848836            8 
 2006000   0.90630411   -6.9342113    689.13394   0.02862803  0.028841058           13 
 2007000   0.92019575   -6.9319064     689.4973  0.028628853  0.028833262           10 
 2008000    0.9513979   -6.9510547    690.37651  0.028651083  0.028825446            4 
 2009000   0.92217071   -6.9053312    689.54829  0.028602468  0.028817649            4 
 2010000   0.91988029     -6.93505    691.88249  0.028685012  0.028809873            2 
 2011000    0.9345587   -6.9208995    690.26582  0.028603755  0.028802135            3 
 2012000   0.92338743   -6.9273451    690.84227  0.028613414  0.028794352            6 
 2013000   0.94855863   -6.9038841    691.66769   0.02863337  0.028786587            3 
 2014000   0.92757619   -6.9323578    689.69143  0.028537381  0.028778801            2 
 2015000   0.93390238   -6.9333562     691.2833  0.028589053  0.028771028            6 
 2016000    0.9350102   -6.9314365    691.09463  0.028567073  0.028763265            5 
 2017000   0.93903343   -6.9295852    691.56886  0.028572503  0.028755484            6 
 2018000   0.92708787   -6.8878154    691.52799  0.028556656   0.02874774            5 
 2019000   0.93752003   -6.9172908    690.93619  0.028518086  0.028740032            3 
 2020000   0.94298789   -6.9075858    692.02416  0.028548852  0.028732294            2 
 2021000    0.9210893   -6.9295557    690.99834  0.028492427  0.028724594            4 
 2022000    0.9539276   -6.9410971    691.65208  0.028505279  0.028716764            3 
 2023000    0.9341417   -6.9517585    690.47838   0.02844284   0.02870892            6 
 2024000   0.91667808   -6.9276055    692.77974   0.02852354  0.028701103            9 
 2025000   0.93200606   -6.9341563    692.97586  0.028517525   0.02869332            5 
 2026000   0.94176434   -6.9367344    693.26442  0.028515319  0.028685624            5 
 2027000   0.92238122    -6.950919    693.99862  0.028531435  0.028677915            5 
 2028000   0.92902694   -6.9261499    693.87113  0.028512127  0.028670216            8 
 2029000   0.92300892   -6.9397798    694.18539  0.028510982  0.028662441            5 
 2030000   0.91348107   -6.8963456    694.35866   0.02850405  0.028654736            5 
 2031000   0.94864834   -6.9248878    693.76983  0.028465856  0.028647063            2 
 2032000   0.90014735   -6.8867149    696.23541  0.028552961  0.028639427            4 
 2033000   0.92058891   -6.9272524    693.94897  0.028445195  0.028631723            2 
 2034000   0.92507774   -6.9231422    695.02184  0.028475165  0.028624013            2 
 2035000   0.91928149   -6.9202197    694.91445  0.028456775  0.028616364            3 
 2036000    0.9157408   -6.9466158    695.37054  0.028461466   0.02860873            4 
 2037000   0.93447084   -6.9304982    695.19311  0.028440235  0.028601163            3 
 2038000   0.91984079   -6.9428168    696.02906  0.028460462  0.028593484            3 
 2039000   0.94050149   -6.9176242     695.5954   0.02842878  0.028585817            3 
 2040000   0.92220167   -6.9332922    695.29141  0.028402427  0.028578178           11 
 2041000   0.90062399   -6.9352403    695.73054  0.028406441  0.028570539            4 
 2042000   0.93028129   -6.9103832    695.78021  0.028394557  0.028562863            2 
 2043000     0.923841   -6.9325251    695.25706  0.028359319  0.028555132            9 
 2044000   0.91710033   -6.9652624    694.84191  0.028328519  0.028547372            5 
 2045000   0.94032687   -6.9239377    698.34895  0.028457577  0.028539726            3 
 2046000   0.92257141    -6.952601    696.11803  0.028352804  0.028532084            5 
 2047000   0.90537477   -6.9390289    696.56484  0.028357142  0.028524378            5 
 2048000   0.94857313    -6.931383    696.61821  0.028345467  0.028516653            7 
 2049000   0.93593444   -6.9213582    696.65129  0.028332979  0.028508891            2 
 2050000   0.93798291   -6.9630619    696.28383  0.028304221  0.028501186            6 
 2051000    0.9277833   -6.9265346    697.60781  0.028344215  0.028493398           10 
 2052000   0.92109585    -6.960991    695.58801  0.028248376  0.028485577            7 
 2053000   0.91808528   -6.9865255    695.91693  0.028247968  0.028477782            8 
 2054000   0.92572062   -6.9456307    697.51373  0.028298999  0.028469922            6 
 2055000   0.92568396     -6.95751    693.82284  0.028135557  0.028462137            6 
 2056000   0.91342521   -6.9445247    697.30656  0.028263074   0.02845438            7 
 2057000   0.92476462   -6.9239812    697.94713  0.028275285   0.02844657            7 
 2058000   0.90387227   -6.9088496    698.75434  0.028294232  0.028438798            4 
 2059000   0.92921502   -6.9454893     698.8538  0.028284515  0.028431021            9 
 2060000   0.90927466   -6.9246605    699.18503  0.028284184  0.028423255            5 
 2061000   0.93431121   -6.9176459    698.08141  0.028225837  0.028415436            4 
 2062000   0.92212691   -6.9054418    699.53634  0.028270948  0.028407643            3 
 2063000   0.91438184    -6.936511     698.5745  0.028218392  0.028399878            4 
 2064000   0.90740272   -6.9460775    698.31745  0.028194341  0.028392127            3 
 2065000   0.91927055   -6.9149184     698.4398  0.028185626  0.028384269            8 
 2066000   0.92033752    -6.947437    698.72327  0.028183417  0.028376339            4 
 2067000   0.92811235   -6.8821531    698.33903  0.028154291  0.028368511            3 
 2068000   0.93214986   -6.9655381    698.48985  0.028146754  0.028360579            6 
 2069000   0.91985889   -6.9484787    698.23438  0.028122861  0.028352618            2 
 2070000   0.92830461   -6.9441874    698.56786  0.028122699  0.028344691            5 
 2071000   0.91957319    -6.949853    697.98654  0.028085729  0.028336761            5 
 2072000   0.90035617   -6.8651069    700.74142  0.028182972  0.028328832           12 
 2073000   0.92727527   -6.9452928    697.66655  0.028045769  0.028320952            6 
 2074000   0.91567646   -6.9694812    699.06114  0.028088281  0.028313023            7 
 2075000   0.91478649   -6.9649073    698.56291  0.028054736   0.02830497            5 
 2076000   0.93319523   -6.9175028    697.55744  0.028000861  0.028297068            6 
 2077000   0.90364687   -6.9182929    698.44273  0.028022899  0.028289163            4 
 2078000   0.91155873   -6.9351093    699.58176  0.028055091  0.028281216            6 
 2079000   0.91021813   -6.9500748    697.84152  0.027971842  0.028273257            5 
 2080000   0.91845572   -6.9180797    699.81912  0.028037625  0.028265327            5 
 2081000   0.93181395   -6.9441812    699.14103  0.027996998  0.028257452            3 
 2082000   0.92309206   -6.9445964    699.13261  0.027983214  0.028249439           10 
 2083000   0.91753706     -6.93786    699.06887  0.027967229  0.028241328            6 
 2084000   0.90693825   -6.9354084    698.50944   0.02793144  0.028233346            7 
 2085000   0.92944354   -6.9326517    700.39968  0.027993592  0.028225364            4 
 2086000   0.91936476   -6.9358034    701.28379  0.028015492  0.028217393            3 
 2087000   0.93436088   -6.9595156    700.31938  0.027963559  0.028209453            4 
 2088000   0.90783987   -6.9508619    701.07294  0.027980242  0.028201533            3 
 2089000    0.8962016   -6.9506013    701.30656  0.027976167  0.028193687            5 
 2090000   0.92328118   -6.9528607     702.0248   0.02799142  0.028185827            8 
 2091000   0.90547449   -6.9540316     702.0702  0.027979842   0.02817792            5 
 2092000   0.93338754   -6.9592279    701.68156  0.027950986  0.028170078            5 
 2093000    0.8879719   -6.9519458     703.6563  0.028016257  0.028162324            7 
 2094000   0.89880961   -6.9311805    704.33862  0.028030031  0.028154633            4 
 2095000    0.9185997   -6.9013271     705.2048  0.028051106   0.02814701            7 
 2096000   0.90739296   -6.9410812    703.11953  0.027954816  0.028139323            6 
 2097000   0.91798261   -6.9341223     702.2167  0.027905607  0.028131578            3 
 2098000   0.88929098   -6.9407378    703.54812   0.02794519   0.02812384            5 
 2099000   0.91573192   -6.9284279    705.98129  0.028028477  0.028116151            3 
 2100000   0.91686999   -6.9611127    706.56485  0.028038288  0.028108492            5 
 2101000   0.91859644   -6.9567533    703.82385  0.027916224   0.02810088            8 
 2102000   0.92332197   -6.9321369     705.7203  0.027978128  0.028093189            4 
 2103000   0.91206217    -6.941863    705.09749  0.027940145  0.028085548            3 
 2104000   0.91980258    -6.973831    706.11209   0.02796705  0.028077946            5 
 2105000   0.90134216   -6.9792979    706.75168  0.027979085   0.02807028            8 
 2106000   0.91375479   -6.9417715    706.50257  0.027955942  0.028062693            4 
 2107000   0.92392927   -6.9476493    706.33057  0.027935871  0.028055132            6 
 2108000   0.92506119    -6.970105    705.89749  0.027905499  0.028047593            6 
 2109000   0.93026282   -6.9899732    706.94534  0.027933671  0.028040088            3 
 2110000   0.90298699   -6.9287102     708.2421  0.027971647  0.028032632            2 
 2111000   0.91466799   -6.9525618    707.03881  0.027910896  0.028025221            5 
 2112000   0.90722393   -6.9448141    707.75735  0.027926032  0.028017787            4 
 2113000   0.91408649   -6.9263626    707.71115  0.027910994  0.028010293            4 
 2114000   0.90254473   -6.9642552    708.04552  0.027910971  0.028002828            6 
 2115000   0.90236383   -6.9435212    707.36791  0.027871076  0.027995346            3 
 2116000   0.91224266   -6.9388964    709.60338  0.027945943  0.027987822            4 
 2117000   0.89334505   -6.9162212    709.51921  0.027929429  0.027980323            5 
 2118000   0.92343492   -6.9588672    708.73693  0.027885463  0.027972927            6 
 2119000   0.91984035   -6.9671328     707.0941  0.027807696  0.027965361            7 
 2120000   0.90925561   -6.9923864    707.35134  0.027804691  0.027957852            3 
 2121000    0.9023421   -6.9662318     709.0421  0.027858011  0.027950364            4 
 2122000     0.911358   -6.9781936    710.31854   0.02789501  0.027942919           15 
 2123000   0.89846828   -6.9631789    711.07552  0.027911584  0.027935528            6 
 2124000   0.91578171   -6.9715601    710.67217  0.027882618  0.027928194            8 
 2125000   0.90540671   -6.9705004    709.91847   0.02783994  0.027920831           14 
 2126000   0.93706939   -6.9261875    711.67402  0.027895658  0.027913464            2 
 2127000   0.91483132   -6.9317838    712.97523  0.027933523  0.027906103            3 
 2128000   0.93738388   -6.9373624    711.21738  0.027851558  0.027898656            5 
 2129000   0.92068695   -6.9681014    710.32561   0.02780357  0.027891233            3 
 2130000   0.91398096   -6.9704455    710.18041  0.027784836  0.027883811            3 
 2131000    0.9171598   -6.9272075    713.46584  0.027900275  0.027876514            7 
 2132000   0.93124952   -6.9807493    712.44044  0.027847109  0.027869141            3 
 2133000   0.91572259   -6.9627998    712.30326  0.027828694  0.027861802            3 
 2134000   0.92754423   -6.9718847    712.58492  0.027826652  0.027854457            2 
 2135000   0.92239528   -6.9700221    713.26319  0.027840093  0.027847135            7 
 2136000   0.90567356   -6.9618525    712.96887  0.027815577  0.027839833            3 
 2137000   0.91153438   -6.9826653    711.84478  0.027758727  0.027832522            7 
 2138000   0.91931382   -6.9857625    712.74097  0.027780674  0.027825134            3 
 2139000   0.90816888   -6.9679941     713.6778  0.027804184  0.027817675            6 
 2140000   0.91869574   -6.9572586    713.75072  0.027794031  0.027810299            6 
 2141000   0.91213332   -6.9591265    710.29957  0.027646721  0.027802888            5 
 2142000   0.88713813   -6.9536224    714.43176  0.027794575  0.027795525            4 
 2143000   0.91436957   -6.9700548    715.27934  0.027814564  0.027788104            7 
 2144000   0.90201009   -6.9624599    713.00452  0.027713173  0.027780719            3 
 2145000   0.90596702   -6.9852965    712.92477  0.027697155   0.02777332            6 
 2146000   0.91001418   -6.9644852     714.5116  0.027745868  0.027765981            5 
 2147000   0.89751153   -6.9489552    712.34662  0.027648914  0.027758633            4 
 2148000   0.89348973   -6.9188078    714.98717  0.027738484  0.027751274            4 
 2149000   0.90518553   -6.9572103    713.29698  0.027660035  0.027743887            8 
 2150000   0.91514602   -6.9690831     712.5205  0.027617074  0.027736428           11 
 2151000   0.92459989   -6.9597552     713.0859  0.027626139  0.027729025            4 
 2152000   0.90789374   -7.0115143    712.65682  0.027596686  0.027721523            8 
 2153000   0.90350839   -6.9727498    714.21313  0.027644106  0.027714006            5 
 2154000   0.88328572   -6.9881537    716.43659  0.027717293  0.027706584            9 
 2155000   0.89301271   -6.9643461    713.32975   0.02758429  0.027699104            3 
 2156000   0.91693048   -6.9914245    715.03092   0.02763725  0.027691635            2 
 2157000   0.89792126   -7.0097696    712.61997  0.027531292  0.027684116            7 
 2158000   0.88415585   -6.9662229    714.77631  0.027601804  0.027676648            7 
 2159000   0.88998942   -6.9826986    715.33303  0.027610508  0.027669239            3 
 2160000    0.9036776   -6.9761257    715.46904  0.027602972   0.02766186            3 
 2161000   0.88002758   -6.9720702    714.82501  0.027565364  0.027654389            3 
 2162000   0.91728812   -6.9727524    717.04813  0.027638303  0.027646993            4 
 2163000   0.90247705   -6.9904551    714.25419  0.027517884  0.027639503           10 
 2164000   0.90450156   -6.9868789    716.12968  0.027577391  0.027632031            3 
 2165000   0.91957591    -6.976395    716.07451  0.027562529  0.027624574            5 
 2166000   0.89196981   -6.9376628    716.69304  0.027573601  0.027617168            3 
 2167000   0.90851225   -6.9409409    716.11025  0.027538465   0.02760977           11 
 2168000   0.91464572   -6.9746319     716.5976  0.027544495  0.027602349            4 
 2169000   0.90593017   -6.9544603    716.00185  0.027508908  0.027594928            5 
 2170000   0.89301987   -7.0183319    715.42091  0.027473921  0.027587457            2 
 2171000   0.90622898   -6.9869568    716.28541   0.02749445   0.02757997            5 
 2172000   0.89623925   -6.9650128    717.00509  0.027509403   0.02757247            5 
 2173000    0.9123351   -6.9786793     718.5029  0.027554184   0.02756507            4 
 2174000    0.9014057   -6.9462525    716.93396  0.027481369  0.027557636            5 
 2175000    0.9217154   -6.9416166    717.85769  0.027504126  0.027550171            3 
 2176000   0.90653797   -6.9559983    717.92746  0.027494158  0.027542745            2 
 2177000   0.90546785   -6.9882176    716.91729  0.027442861  0.027535267            5 
 2178000   0.92020858   -6.9542441    720.03119  0.027549403  0.027527785            4 
 2179000   0.91454616   -6.9620078    717.07514  0.027423709  0.027520303            2 
 2180000   0.92091541   -6.9550414    717.61161  0.027431636  0.027512829            7 
 2181000   0.91856309   -6.9736899    716.43085  0.027373944  0.027505372            3 
 2182000   0.88483228   -6.9793313    719.30948  0.027471337   0.02749789            3 
 2183000   0.89599664   -6.9860576    716.08814  0.027335782  0.027490369            4 
 2184000   0.89494226   -6.9735439    718.00763  0.027396506  0.027482912            6 
 2185000   0.89344469   -6.9767216    717.20394  0.027353316  0.027475447            3 
 2186000   0.88703174   -6.9783863    718.47419  0.027389226  0.027467989            4 
 2187000   0.86621397   -6.9761283    720.26541  0.027444956   0.02746053            5 
 2188000   0.89246325   -6.9648837    721.44932  0.027477503    0.0274531            6 
 2189000    0.9123318   -6.9746829    718.77828  0.027363266  0.027445663            7 
 2190000   0.91167311   -6.9755981    718.56609  0.027342697  0.027438193            4 
 2191000   0.91600134   -7.0059674    718.59538  0.027331332  0.027430697           12 
 2192000   0.90370742   -6.9987045    718.35402  0.027309688  0.027423182            4 
 2193000   0.90494881   -7.0213464    719.10707   0.02732585  0.027415617            4 
 2194000   0.90760415    -6.987312    718.12399  0.027276056  0.027408095            8 
 2195000   0.91337084   -6.9595451    719.89222   0.02733076  0.027400596            5 
 2196000   0.91008404   -6.9883034    719.91089  0.027319023  0.027393136            6 
 2197000   0.88441215   -6.9396937    723.04881  0.027425611  0.027385665            4 
 2198000   0.90915039   -7.0085196    717.48211  0.027202082  0.027378224            5 
 2199000   0.91045101   -6.9702888    719.96215  0.027283695  0.027370759            5 
 2200000   0.89488738   -6.9785959    719.01865  0.027235555  0.027363223            7 
 2201000   0.90493319   -6.9868884    720.74555  0.027288564  0.027355651            4 
 2202000   0.91932181   -6.9893727    721.35409  0.027299201  0.027348133            4 
 2203000   0.89741645   -7.0055367    719.62827  0.027221526  0.027340646            3 
 2204000   0.89009004   -6.9838271    721.39523  0.027275984   0.02733308            4 
 2205000   0.89834543   -7.0035223    719.65991  0.027198031  0.027325513            3 
 2206000   0.90186042   -6.9890818    720.87974  0.027231782  0.027317917            6 
 2207000   0.88989403   -6.9995228    719.11757  0.027152906  0.027310309            6 
 2208000    0.8881762   -6.9903321    718.74111  0.027126401  0.027302716            5 
 2209000   0.90072616   -6.9981422     722.6188  0.027260404  0.027295139            8 
 2210000   0.91318229   -6.9676972    720.90821  0.027183568  0.027287607            8 
 2211000   0.92365759   -6.9974584    722.11165  0.027216631   0.02728007            5 
 2212000   0.89654636   -6.9703525    722.06426  0.027202541  0.027272562            4 
 2213000   0.91482103   -6.9952661    723.97698  0.027262275  0.027265108            6 
 2214000   0.89791868   -6.9636209    720.83207  0.027131589  0.027257615            5 
 2215000   0.91016148   -6.9723414    721.02025   0.02712642  0.027250138            5 
 2216000   0.90007075   -7.0057117    721.31597    0.0271253  0.027242675            3 
 2217000   0.91998573   -6.9827538    723.40646  0.027191643  0.027235175            4 
 2218000   0.90981481   -6.9863509    721.62736   0.02711254  0.027227664            4 
 2219000   0.91809581   -6.9772996    723.02766  0.027152909  0.027220143            3 
 2220000   0.88274101   -6.9960345    723.70654  0.027166161  0.027212692            5 
 2221000   0.89188182   -6.9791166    724.83361  0.027196218  0.027205261            3 
 2222000   0.89305947   -6.9403722    725.05406  0.027192246  0.027197878            2 
 2223000   0.90625975   -6.9998099    724.62817  0.027164049  0.027190531            8 
 2224000   0.88778977   -7.0120913    722.51201  0.027072542  0.027183082            5 
 2225000   0.88972116   -7.0337394    722.62872  0.027064746  0.027175565            7 
 2226000   0.88188721   -7.0000809    723.82047  0.027097202  0.027168032            2 
 2227000   0.91302367   -6.9874774    723.01656  0.027054953   0.02716056            8 
 2228000   0.87821227   -6.9998826    723.52943  0.027061992  0.027153057            5 
 2229000   0.89032392   -7.0011779    724.27534  0.027077738  0.027145536            9 
 2230000   0.89963633   -6.9725843    725.04085  0.027094202  0.027138041            7 
 2231000   0.89731428   -6.9946294    723.60417  0.027028394  0.027130577            6 
 2232000   0.88952813   -7.0280088     725.1212  0.027072924  0.027123138            3 
 2233000   0.91171014   -7.0221024    726.28708   0.02710431  0.027115684            5 
 2234000   0.89811227   -7.0157386     724.4067  0.027022035  0.027108235            3 
 2235000   0.90002796   -7.0128849    725.83354  0.027063145   0.02710082            4 
 2236000    0.8916958   -6.9898127     727.6818  0.027119924  0.027093449            4 
 2237000   0.88683911   -7.0057748    725.87217  0.027040388  0.027086058            4 
 2238000   0.88714681   -6.9787557    727.74287  0.027097962  0.027078643            3 
 2239000   0.89644872   -7.0051244    726.64464  0.027044984  0.027071292            4 
 2240000    0.8865724   -7.0042329    725.06774  0.026974246  0.027063907            5 
 2241000   0.89105519   -7.0124162    726.25223  0.027006256  0.027056461            7 
 2242000   0.87530036   -7.0125454    724.70405  0.026936666  0.027048936            4 
 2243000   0.90880266   -6.9741834    724.37865  0.026912567  0.027041484            1 
 2244000   0.89205919   -6.9827078    725.77949  0.026952595  0.027034011            3 
 2245000   0.88740162   -6.9959171    726.45737  0.026965752  0.027026636            3 
 2246000   0.90697997   -6.9988654    727.57941  0.026995377  0.027019251            4 
 2247000   0.87696619   -6.9813884    728.74745  0.027026682  0.027011873            4 
 2248000   0.90605525   -7.0083837    726.53446  0.026932624  0.027004533            4 
 2249000   0.89110517   -6.9989721    726.34379  0.026913583  0.026997123            6 
 2250000   0.88163744    -7.016366    728.23097  0.026971518  0.026989679            3 
 2251000   0.89120318   -7.0160317    728.34547  0.026963774  0.026982225            3 
 2252000   0.90224219   -7.0001743    727.55538  0.026922565  0.026974879            4 
 2253000   0.90001351   -6.9893723     727.9448  0.026925019  0.026967438            4 
 2254000   0.90873331   -6.9936282    727.15708   0.02688395  0.026960004            4 
 2255000   0.90549617   -6.9967679    728.89619  0.026936297  0.026952577            4 
 2256000   0.88958746   -7.0024588    728.44852   0.02690782  0.026945115            4 
 2257000   0.89902651   -6.9895423    727.89642  0.026875514  0.026937658            5 
 2258000   0.88911161   -7.0513637    725.72032  0.026783301  0.026930085            5 
 2259000   0.87879491   -7.0259386    728.68494  0.026880808  0.026922604            3 
 2260000   0.89064654    -6.991488    726.78416  0.026798826  0.026915111            6 
 2261000   0.91273554    -6.974584    729.29995  0.026879698  0.026907669            2 
 2262000    0.8865131    -7.004279    727.46881  0.026800354  0.026900212            7 
 2263000   0.91283869   -6.9793074    728.98228  0.026844243  0.026892735            5 
 2264000   0.89970802   -7.0130324    729.54101  0.026852953  0.026885278            6 
 2265000   0.89481442   -7.0159606    728.12808  0.026789113  0.026877746            9 
 2266000   0.85575332   -7.0204153    726.85376  0.026730427  0.026870229            3 
 2267000   0.88770277   -6.9771023    729.02633  0.026798498  0.026862676            7 
 2268000   0.88616047    -7.017051    727.14753  0.026717649  0.026855148            4 
 2269000   0.90593222   -7.0143552    728.75137  0.026764778  0.026847584            7 
 2270000    0.8839259     -7.01686    729.63186  0.026785311  0.026840059            5 
 2271000   0.88293657   -7.0221647    730.34889  0.026799827  0.026832552            4 
 2272000   0.89201905   -7.0258004    728.83896   0.02673265  0.026825063            3 
 2273000   0.88110097   -6.9851713    729.09356  0.026730223  0.026817551            4 
 2274000   0.88622774   -7.0065387     727.9362  0.026676055  0.026810021           11 
 2275000   0.87503299   -7.0266445    729.39593    0.0267178  0.026802489            9 
 2276000   0.88411719   -7.0272707    729.69373  0.026716964  0.026794894           13 
 2277000   0.89090982   -6.9950774    729.89535   0.02671261  0.026787318            8 
 2278000   0.87015475    -7.009702    728.74773  0.026658902   0.02677977            4 
 2279000   0.88751582   -7.0048042    730.57863  0.026714152  0.026772187            7 
 2280000    0.8841071   -7.0010615    729.48169  0.026662343  0.026764593            3 
 2281000   0.88929582   -7.0166417    726.15961  0.026529286  0.026757014            5 
 2282000   0.88659671   -7.0235525    728.24628   0.02659386  0.026749344            9 
 2283000   0.88249261   -7.0050675    731.49209   0.02670069  0.026741702            3 
 2284000   0.89468134   -7.0322888    728.72385  0.026587998  0.026734031           12 
 2285000    0.9019285    -7.038321    729.71014  0.026612332  0.026726365            2 
 2286000   0.89169753   -7.0037043     729.4281  0.026590409  0.026718758            6 
 2287000   0.89617219   -7.0229701    730.09022  0.026602908  0.026711101            9 
 2288000   0.88815668    -7.027786    729.13675  0.026556554  0.026703417            3 
 2289000   0.88925954   -7.0230204    729.51364  0.026558673  0.026695738            4 
 2290000   0.88978675   -7.0051676    730.27836  0.026574904   0.02668808            5 
 2291000   0.88461387    -7.021479    728.52523  0.026499535  0.026680387            3 
 2292000   0.87065793   -6.9950341     730.4129  0.026556606  0.026672694            4 
 2293000   0.89159001   -6.9827692    729.06342  0.026495981  0.026665003            5 
 2294000   0.87730629   -7.0044507    731.00628  0.026555009  0.026657327            7 
 2295000    0.8953946   -7.0222834    731.16535  0.026549214  0.026649711            3 
 2296000   0.88602997   -7.0206142    731.40132  0.026546215  0.026642115            8 
 2297000   0.88853735   -7.0041754    729.19829  0.026454734   0.02663447            6 
 2298000   0.88524586   -7.0250484    731.13169  0.026513334  0.026626783            3 
 2299000   0.88380292   -7.0044546    730.58554  0.026482005  0.026619081            5 
 2300000    0.8891632   -6.9914244    731.25461  0.026494732  0.026611436            3 
 2301000   0.88739916    -7.000345    728.47284  0.026382473  0.026603805            9 
 2302000   0.86241438   -6.9879524    729.30295  0.026401062  0.026596219           11 
 2303000   0.88363837   -7.0259569    731.82072  0.026480703  0.026588593            4 
 2304000   0.90435571   -6.9880808    732.84092   0.02650611  0.026580927            7 
 2305000   0.88446413   -7.0412383    729.75419  0.026383015  0.026573271            6 
 2306000   0.88496262   -7.0009289    732.25483  0.026461941  0.026565592            3 
 2307000   0.88240443   -7.0152577    732.00148  0.026441319  0.026557954            8 
 2308000   0.88745861   -6.9887502    731.52839  0.026412781  0.026550315            8 
 2309000   0.88104685   -7.0072062    735.06494  0.026528979   0.02654274            2 
 2310000   0.87012261   -6.9938543    732.61576   0.02642914  0.026535195            4 
 2311000   0.89079527   -7.0309681    732.82332  0.026425188   0.02652763            7 
 2312000   0.90036206   -7.0203301    732.27274  0.026393914   0.02652009            5 
 2313000   0.90324391   -7.0441818    733.39379  0.026422892   0.02651258            5 
 2314000   0.90214534   -7.0096403    733.80686  0.026426349   0.02650505            2 
 2315000   0.89354465   -7.0009572    735.64995   0.02648128  0.026497571            8 
 2316000   0.89759553   -7.0346578    733.62743  0.026397072  0.026489981            4 
 2317000   0.89161271   -7.0073528    733.47754  0.026380288  0.026482443            7 
 2318000   0.89362767    -6.989795    731.98593  0.026315283  0.026474938           11 
 2319000   0.89037478   -7.0009406    733.27245  0.026350167   0.02646738            3 
 2320000   0.87711097    -7.015055    732.51848  0.026311727   0.02645982            4 
 2321000   0.88336176   -7.0490186    733.98696  0.026353115  0.026452232            5 
 2322000   0.88005415   -6.9895996    734.28883  0.026352599  0.026444684           16 
 2323000   0.86949787   -7.0671433    732.66143  0.026282875  0.026437103            6 
 2324000   0.86041304   -7.0090813    735.54791  0.026375069  0.026429557            5 
 2325000   0.89169877   -7.0107014    735.47267  0.026361028  0.026421951            5 
 2326000   0.87517584   -7.0127098    734.10773  0.026300793  0.026414386            6 
 2327000   0.88570092    -6.990214    733.89414  0.026281841  0.026406828            4 
 2328000   0.88622888   -7.0166918    732.33981  0.026214913  0.026399288            5 
 2329000   0.87889049   -7.0111892    734.01889  0.026263736   0.02639169            8 
 2330000   0.86947724   -7.0420599    735.81761  0.026316796  0.026384092            6 
 2331000   0.88943509    -7.019328    734.11378  0.026244594  0.026376526            6 
 2332000   0.87558007   -7.0129961    734.94811  0.026263154  0.026368986            3 
 2333000   0.87621577   -7.0119803    735.36417  0.026266758  0.026361398            6 
 2334000    0.8672473   -7.0550431      735.397  0.026256677  0.026353842            3 
 2335000   0.87308186   -7.0151866    735.76323  0.026258502  0.026346245            5 
 2336000   0.86636067    -7.044547    737.19968  0.026298504  0.026338695            8 
 2337000   0.88839348   -7.0538763    734.95801  0.026207318  0.026331077            7 
 2338000   0.88771522   -7.0222239      735.704  0.026222698  0.026323491            6 
 2339000   0.87270641   -7.0362498    734.79564  0.026179124  0.026315858            7 
 2340000   0.87374699   -7.0341643    735.70534  0.026200333  0.026308263           10 
 2341000   0.86680188   -7.0317496    736.35289  0.026212192  0.026300677            4 
 2342000   0.87810134   -7.0304384    737.75663  0.026250948   0.02629312            4 
 2343000   0.89762506   -6.9993816    736.83689  0.026207031  0.026285624            2 
 2344000   0.87935196    -7.025353    737.21032  0.026209127  0.026278147            3 
 2345000    0.8891076   -6.9849883    738.14776  0.026231264  0.026270621            4 
 2346000   0.87577167   -7.0562424    736.88916  0.026175375   0.02626311            5 
 2347000   0.89593747   -7.0457007    737.54039  0.026187345  0.026255586            8 
 2348000   0.88286741   -7.0307319    736.99296  0.026156763   0.02624809            3 
 2349000   0.89302174   -6.9941864    737.27078  0.026155484  0.026240561            8 
 2350000   0.84836879   -7.0140959      739.255  0.026214716  0.026233065            4 
 2351000   0.87703573   -7.0325149    738.54104  0.026178259  0.026225562            3 
 2352000   0.85560152   -7.0474323    738.04318  0.026149489   0.02621811            8 
 2353000   0.88959687   -7.0321259    737.39481  0.026115413  0.026210722            4 
 2354000   0.86762707   -7.0532143    739.83273  0.026190623  0.026203256            4 
 2355000   0.90234486   -7.0495355    739.33646  0.026161941  0.026195819            2 
 2356000   0.86976297   -7.0468388    738.57395  0.026123866  0.026188341            3 
 2357000   0.87622284   -7.0648062    738.86445  0.026123054  0.026180888           11 
 2358000   0.88357409    -7.037131    737.65155  0.026069111  0.026173416            7 
 2359000   0.87004666    -7.011768    740.10081  0.026144581     0.026166            5 
 2360000   0.88539642   -7.0260486    738.07598  0.026062005  0.026158519            3 
 2361000   0.88046717   -7.0155197    739.52226  0.026102014  0.026151027            4 
 2362000    0.8722882    -7.035306    739.19582  0.026079446  0.026143588            6 
 2363000   0.86912755    -7.033681    741.33907  0.026143993  0.026136151            8 
 2364000   0.87724492   -7.0285481    741.78888   0.02614879  0.026128719            4 
 2365000   0.89079357   -7.0449282    736.87203  0.025964483  0.026121279            4 
 2366000   0.88629903   -7.0097909    741.70923  0.026123881  0.026113879            8 
 2367000   0.86077459    -7.030431    740.59005  0.026073442  0.026106483            8 
 2368000   0.84961077   -7.0133022    740.92986   0.02607439  0.026099083            6 
 2369000   0.87096762   -7.0407123    740.95162  0.026064149  0.026091695            4 
 2370000   0.88621637   -7.0643581    739.04523  0.025986119  0.026084246            4 
 2371000   0.86454378   -7.0438039    740.05484  0.026010644    0.0260768            4 
 2372000   0.87743531   -7.0468866    740.83888  0.026027223  0.026069331            5 
 2373000   0.87486822   -7.0398084     741.8367  0.026051296  0.026061893            4 
 2374000   0.88027025   -7.0056175    742.28016  0.026055889  0.026054483            2 
 2375000   0.86647471   -7.0683638    741.04053  0.026001422  0.026047052            5 
 2376000    0.8635592   -7.0574853    739.80756  0.025947235  0.026039585            8 
 2377000   0.87690718   -7.0317972    740.52383   0.02596143  0.026032135            3 
 2378000   0.85792018   -7.0523214    741.78576  0.025994735  0.026024752           14 
 2379000    0.8668541   -7.0451523    741.65561  0.025979249  0.026017347            6 
 2380000    0.8599805   -7.0330056    740.49874  0.025927827  0.026009957            7 
 2381000   0.86725039   -7.0254536    744.77398  0.026066568  0.026002529            6 
 2382000   0.84723059   -7.0302882    742.03824  0.025959916   0.02599516            9 
 2383000   0.89567049   -7.0271779    742.59679  0.025968555  0.025987754            6 
 2384000   0.87698045   -7.0618193    741.34213  0.025913805  0.025980315            5 
 2385000   0.87454061   -7.0590451    741.62002  0.025912649  0.025972885            6 
 2386000   0.85820037   -7.0422517    742.85674  0.025944983  0.025965506           13 
 2387000   0.85502877   -7.0395662    745.31449  0.026019917  0.025958145            6 
 2388000   0.83882877   -7.0703907    741.78787  0.025885953  0.025950783           14 
 2389000   0.86543122   -7.0655928    743.32136  0.025928609  0.025943388            5 
 2390000   0.88150402   -7.0158223    743.70996   0.02593131  0.025935986            3 
 2391000   0.87657944    -7.031039    743.83926  0.025924971  0.025928651            5 
 2392000   0.87099039   -7.0477631    743.03535  0.025886126  0.025921274            5 
 2393000   0.86760423   -7.0583894    742.55339  0.025858524   0.02591383           10 
 2394000   0.87031223   -7.0731495    743.28972  0.025873354  0.025906443            8 
 2395000   0.88531232   -7.0670335    741.35075  0.025795085  0.025899058            2 
 2396000   0.87410841   -7.0493898    743.70252  0.025866114   0.02589165            4 
 2397000   0.86330584   -7.0277434    744.91167   0.02589736  0.025884249            5 
 2398000   0.86324733   -7.0407606    744.91605  0.025886713  0.025876874            9 
 2399000   0.86695364    -7.068497    743.79714  0.025837055  0.025869506            9 
 2400000    0.8730308    -7.036516    743.89053  0.025829532  0.025862152            7 
 2401000    0.8736545   -7.0262938    745.38698  0.025870713  0.025854859            3 
 2402000   0.85015051   -7.0292661    745.05975   0.02584859   0.02584753            4 
 2403000   0.87241359   -7.0145677     744.5992  0.025821862  0.025840185            5 
 2404000   0.86523864   -7.0792463    744.56445  0.025809916  0.025832878            6 
 2405000   0.86676441   -7.0560726    746.31459  0.025859827  0.025825532            6 
 2406000   0.88146451   -7.0930471    744.92835  0.025801065  0.025818179            7 
 2407000   0.87646257    -7.060978    746.20053   0.02583439  0.025810838            7 
 2408000   0.86833163   -7.0250265    747.12792  0.025855756  0.025803575            5 
 2409000   0.88070924   -7.0684909    746.07129  0.025808472  0.025796296            8 
 2410000   0.88217571   -7.0268694    747.88923  0.025860624  0.025789055            8 
 2411000   0.86024662   -7.0665682    745.63654  0.025772036  0.025781802           10 
 2412000   0.85813947   -7.0559654      745.791  0.025766687   0.02577451            7 
 2413000   0.85875896   -7.0578582    747.01387  0.025798241  0.025767237            4 
 2414000   0.88461214   -7.0398655    746.39619  0.025766231  0.025760009            9 
 2415000   0.87742651   -7.0701768    745.35437  0.025719612  0.025752746            6 
 2416000   0.86996128   -7.0563313    744.45132  0.025677819    0.0257454            3 
 2417000   0.85462897   -7.0967682    746.49276   0.02573758  0.025738039            5 
 2418000   0.87133029   -7.1007219    746.46294  0.025725908  0.025730667            3 
 2419000   0.87232265   -7.0522037    749.01371  0.025803146  0.025723349            3 
 2420000   0.84956261   -7.0205397    746.53064  0.025706978  0.025716069            5 
 2421000   0.85147725   -7.0168481    748.99939  0.025781337  0.025708922            4 
 2422000   0.86963948    -7.066374    746.72604  0.025692473  0.025701736            4 
 2423000   0.84902304   -7.0484802    746.34029  0.025668603  0.025694504            5 
 2424000   0.85686013   -7.0245339    749.25844  0.025758335  0.025687269            6 
 2425000   0.87339475   -7.0413049    748.20312  0.025711448  0.025680024            6 
 2426000   0.85593051   -7.0383904    749.21265  0.025735527  0.025672822            6 
 2427000   0.86862251   -7.0483211    749.85079  0.025746834  0.025665588            4 
 2428000   0.86069173   -7.0778054    748.59112  0.025692996  0.025658357            9 
 2429000   0.84395056   -7.0570151    748.41986  0.025676542  0.025651078            7 
 2430000   0.83399604   -7.0854099    748.37715  0.025664511  0.025643829            6 
 2431000   0.86638594   -7.0421468    749.11451   0.02567923  0.025636507            4 
 2432000    0.8671858   -7.0696962    747.32177  0.025607243  0.025629261            8 
 2433000   0.87306438   -7.0366712    749.92773  0.025685975  0.025622024            3 
 2434000   0.85892183   -7.0594067     748.0416  0.025610846  0.025614832            8 
 2435000   0.83765053   -7.0751495    750.31683  0.025678194   0.02560761            3 
 2436000   0.85770333   -7.0786315    749.02515  0.025623466  0.025600399            7 
 2437000   0.85325578   -7.0541705    750.62649  0.025667709  0.025593184            7 
 2438000   0.83586308   -7.0658015    751.13819  0.025674672  0.025585977            6 
 2439000   0.86931383   -7.0768483    748.96879  0.025590023  0.025578818            4 
 2440000   0.87113533   -7.0458589    751.54642  0.025667569  0.025571652            9 
 2441000   0.89580219   -7.0715776    751.04435  0.025639914   0.02556449            8 
 2442000   0.86424732   -7.0558744    750.91037  0.025624842  0.025557323            4 
 2443000   0.86358448   -7.0816672    749.96277  0.025582029  0.025550163           11 
 2444000   0.85824314   -7.0614056    750.94539  0.025605067  0.025542987            3 
 2445000    0.8645473   -7.0536465    751.82071  0.025624428  0.025535805            4 
 2446000   0.85997994   -7.0684008    751.53085  0.025604076  0.025528598            5 
 2447000   0.84728177   -7.0809251    750.17986  0.025547605  0.025521395            6 
 2448000   0.88213243     -7.08549     749.6658  0.025519669  0.025514179            5 
 2449000    0.8568076   -7.0648549    750.52591  0.025538516  0.025506958            6 
 2450000   0.87657424   -7.0691408    751.32708  0.025555343  0.025499745            4 
 2451000   0.84013492   -7.0494204    751.13136  0.025538262   0.02549256            4 
 2452000   0.86124962   -7.0992819    749.46641  0.025471262  0.025485333            3 
 2453000   0.85997077   -7.0558477    751.75595  0.025538658  0.025478142            4 
 2454000   0.85222048   -7.1030046     750.7466  0.025493976   0.02547096            4 
 2455000   0.87716719   -7.0590453    751.03754  0.025493467  0.025463756            5 
 2456000   0.86534295    -7.086268    752.95515  0.025548152   0.02545654            4 
 2457000   0.85929795   -7.0680692    755.03716  0.025608369  0.025449346            6 
 2458000   0.83677453   -7.0495692     751.5395   0.02547937  0.025442118            6 
 2459000   0.84978496   -7.0474956    751.32434  0.025461717  0.025434904            6 
 2460000    0.8788704   -7.0332373    751.79993  0.025467477  0.025427705            4 
 2461000   0.86704399   -7.0865734    753.67982  0.025520785  0.025420498            3 
 2462000   0.86179572   -7.0355379    753.50134  0.025504378  0.025413299            3 
 2463000   0.87371655    -7.084495    753.02838  0.025478021  0.025406085            6 
 2464000   0.85423467   -7.0703322    753.49225  0.025483369  0.025398849            6 
 2465000   0.85116536   -7.0614875     753.2061  0.025463357  0.025391636            6 
 2466000   0.85545286   -7.0708268    753.52027  0.025463648  0.025384439            7 
 2467000   0.85553346   -7.0483523    752.64328  0.025423702  0.025377241            8 
 2468000   0.85729423   -7.0582165     752.9902  0.025425115  0.025370056            7 
 2469000   0.86440573   -7.0357601    755.00793  0.025482919  0.025362901            4 
 2470000   0.86457193   -7.0531522    754.69302  0.025461978  0.025355735            7 
 2471000   0.86182772    -7.090092     753.1236  0.025398746  0.025348541            4 
 2472000   0.85384875   -7.0556059    751.96683  0.025349475   0.02534135            6 
 2473000   0.84958404   -7.0672725    753.51262  0.025391314  0.025334149            6 
 2474000   0.87617996   -7.0672421    751.96456  0.025328906   0.02532688            6 
 2475000   0.85170269   -7.0974829    751.10284  0.025289658   0.02531962            7 
 2476000   0.86400752   -7.0374201    752.32268    0.0253205  0.025312307           10 
 2477000   0.84999197   -7.0640408    751.87088  0.025295077  0.025304985            4 
 2478000   0.83539055    -7.100245    752.77003  0.025315107  0.025297668            8 
 2479000   0.83830446   -7.0921604    752.46043  0.025294488  0.025290375            7 
 2480000   0.85901238   -7.0786454    754.34469  0.025347604  0.025283076            4 
 2481000   0.84190978   -7.0747489    753.75473  0.025317571  0.025275771            7 
 2482000    0.8688217   -7.0762446    752.15709   0.02525373  0.025268486            5 
 2483000   0.85500213   -7.0606845    752.91117  0.025268867  0.025261203            4 
 2484000    0.8448594   -7.0825562     752.1405   0.02523284  0.025253871            5 
 2485000   0.85044392   -7.0899213    752.72516  0.025242292  0.025246494            5 
 2486000   0.85054889    -7.037216    754.33717  0.025286175  0.025239176            5 
 2487000    0.8386777   -7.0832125    752.64346  0.025219256  0.025231897            6 
 2488000   0.85264215   -7.0689548    753.96353  0.025253334   0.02522461            5 
 2489000   0.86901928   -7.0477574    754.57956  0.025263813  0.025217285           11 
 2490000    0.8376215   -7.0876133    754.99356  0.025267522  0.025209943            4 
 2491000   0.85217528   -7.0846063    752.65206  0.025179047  0.025202559            7 
 2492000   0.83908585   -7.0571188    752.53915  0.025165167  0.025195166            8 
 2493000   0.85672542   -7.0612841    754.70398  0.025227436  0.025187787            2 
 2494000   0.85255018   -7.0789579    753.95899  0.025192428  0.025180429            6 
 2495000   0.87366957   -7.0512833    753.12785  0.025154571  0.025173071            8 
 2496000   0.86455515   -7.0718358    755.21533  0.025214187  0.025165702            8 
 2497000    0.8549604   -7.1137787    754.21992  0.025170869  0.025158334            7 
 2498000   0.87304398   -7.0812505    754.32984   0.02516446  0.025150997            3 
 2499000   0.86234168   -7.0959222    752.77763  0.025102629  0.025143631            7 
 2500000   0.86542346    -7.072716       754.73  0.025157667   0.02513627            6 
 2501000   0.85282193   -7.1113465    752.30642  0.025066854  0.025128917           11 
 2502000   0.84142295   -7.0857398     754.3966  0.025126452  0.025121613            2 
 2503000   0.84947956   -7.0924533    754.84045  0.025131191  0.025114311            4 
 2504000   0.83715158   -7.0728321    755.62428   0.02514724  0.025107049            4 
 2505000   0.87185704   -7.0844498    754.82713  0.025110683  0.025099755            3 
 2506000   0.84401303   -7.0792652     756.4246  0.025153784  0.025092512            4 
 2507000   0.85001826   -7.1076956    756.45999  0.025144927  0.025085284            2 
 2508000   0.86332886   -7.0740982    757.08517  0.025155674  0.025078052            7 
 2509000   0.83529538   -7.0850168    754.61284  0.025063533  0.025070758            4 
 2510000   0.84848981   -7.0969831    756.28505  0.025109065  0.025063506            7 
 2511000   0.83260057   -7.1142758      754.581  0.025042513  0.025056237            4 
 2512000   0.85409091   -7.0888781    755.12879  0.025050716  0.025048975            3 
 2513000    0.8461879     -7.10463    756.68818  0.025092459  0.025041702            3 
 2514000   0.85901109   -7.0957444    755.39722  0.025039685  0.025034403            5 
 2515000   0.84599192   -7.0666738    756.39743   0.02506287  0.025027157            4 
 2516000   0.84177598   -7.0849517    754.68875  0.024996315  0.025019833            5 
 2517000   0.85899269   -7.0623262    756.25094  0.025038106  0.025012547            3 
 2518000   0.85330507    -7.094979    755.10317  0.024990176  0.025005253            4 
 2519000   0.84160649   -7.0995992    757.27278  0.025052031  0.024997929            4 
 2520000   0.84128491   -7.0534383    758.21429  0.025073224   0.02499068            4 
 2521000   0.82311685   -7.0956794    758.11258  0.025059916  0.024983455            3 
 2522000   0.85758132   -7.0932883    757.32519  0.025023962   0.02497619            7 
 2523000   0.86053805   -7.0976441    755.32329  0.024947922  0.024968932            6 
 2524000   0.84502406    -7.096971    757.27728  0.025002551  0.024961655            9 
 2525000    0.8532167   -7.0956023    756.86721  0.024979116  0.024954421            8 
 2526000    0.8614965   -7.0915769    756.29538  0.024950362  0.024947162            2 
 2527000   0.85434909   -7.0979096    756.76921  0.024956114  0.024939838            5 
 2528000   0.83532956   -7.0831266    758.15253  0.024991842  0.024932597            4 
 2529000   0.85014196   -7.0746128     757.0861   0.02494682  0.024925349            4 
 2530000   0.85255719    -7.115662     756.3667  0.024913264  0.024918054            4 
 2531000   0.85004221   -7.0877837    758.82831   0.02498447   0.02491076            3 
 2532000   0.83812831   -7.0677744    756.93547  0.024912305  0.024903484            5 
 2533000   0.84958725   -7.0927673    757.47007  0.024920058  0.024896186            6 
 2534000   0.84663409   -7.1034516    758.34931  0.024939138  0.024888961            8 
 2535000   0.83746966   -7.1073985    757.19269  0.024891278   0.02488169            7 
 2536000   0.83471232     -7.08129    759.04505  0.024942332  0.024874423            3 
 2537000   0.85054975   -7.0808527    758.73734  0.024922393   0.02486715            5 
 2538000   0.84184725   -7.0853698    757.06513  0.024857668   0.02485984           10 
 2539000   0.87158187   -7.0697617     756.9549   0.02484426  0.024852534            9 
 2540000   0.85821283   -7.0885755    756.99046  0.024835645  0.024845251            7 
 2541000   0.83356783    -7.115964     756.8045  0.024819772  0.024837912            7 
 2542000   0.85052922   -7.0931328    759.13305  0.024886344   0.02483062            5 
 2543000    0.8518337    -7.105455    759.45328  0.024887052  0.024823318            7 
 2544000     0.838453   -7.1019558    757.63363  0.024817663  0.024816042            6 
 2545000   0.84527992    -7.101431    757.67713  0.024809336  0.024808728            4 
 2546000   0.83544709   -7.0944406    756.75024  0.024769254  0.024801435            5 
 2547000   0.84785483   -7.0997645    758.28999  0.024809907  0.024794142            5 
 2548000   0.83111697   -7.1044892    759.04193  0.024824762   0.02478683            4 
 2549000    0.8392754   -7.1218009    756.19795  0.024722046  0.024779534            8 
 2550000   0.84584353   -7.0984862    756.84589  0.024733526   0.02477215           13 
 2551000   0.84836366   -7.1058264      758.997    0.0247941  0.024764785            6 
 2552000   0.82682547    -7.112981    758.96997  0.024783502  0.024757439            6 
 2553000   0.84275481   -7.1163759    758.71754  0.024765555   0.02475017            4 
 2554000   0.83925301   -7.1138581       756.75   0.02469166  0.024742883           10 
 2555000    0.8423967   -7.0553354     759.2938  0.024764964  0.024735593            7 
 2556000   0.84224285    -7.089293    758.92534  0.024743262  0.024728333            2 
 2557000   0.84501615   -7.1005927    757.81898  0.024697529     0.024721            4 
 2558000   0.81866639   -7.0867965    759.80099  0.024752443  0.024713691            6 
 2559000   0.85888025   -7.1332619    756.05838  0.024620893  0.024706306            5 
 2560000   0.84558786   -7.0959736    758.65054  0.024695655  0.024698977            3 
 2561000   0.84257466   -7.0939989    759.61769  0.024717483  0.024691584            9 
 2562000   0.83572271   -7.1188863     756.8407  0.024617509  0.024684197            9 
 2563000   0.83187056   -7.0979291    760.65334  0.024731868  0.024676822            6 
 2564000   0.83540979   -7.1028949    760.14517  0.024705706  0.024669477            7 
 2565000   0.86245696   -7.0949733    759.02502  0.024659682   0.02466208            7 
 2566000   0.84450168   -7.1127812    758.17398  0.024622434  0.024654689            8 
 2567000   0.83089105   -7.0970843    758.87905  0.024635731   0.02464727            7 
 2568000   0.84056491   -7.0817509     759.7883  0.024655643   0.02463988           10 
 2569000   0.84959834    -7.119748    758.63523  0.024608643  0.024632545           12 
 2570000   0.84493345   -7.1019793    758.25109  0.024586611  0.024625147            2 
 2571000   0.85530743   -7.1174827    757.39065  0.024549159   0.02461777           15 
 2572000    0.8577971   -7.0962178    759.35589  0.024603288  0.024610402            7 
 2573000   0.82756107   -7.1060965    758.91748  0.024579527  0.024603021            4 
 2574000   0.83357263   -7.1020587    760.73098   0.02462869  0.024595663            5 
 2575000   0.83358538   -7.0957837    757.57588  0.024517019  0.024588284            5 
 2576000   0.83606854   -7.0764142    759.64699  0.024574502  0.024580942            4 
 2577000   0.84943274   -7.1177207    759.34125  0.024555078   0.02457358            5 
 2578000   0.82666962   -7.1137993    759.31659  0.024544757  0.024566175            6 
 2579000   0.83071986   -7.1089868    761.32352  0.024600088  0.024558827            7 
 2580000   0.82710801   -7.1165916    757.50519  0.024467222  0.024551463            4 
 2581000   0.81725732   -7.0905516    760.70859  0.024561171  0.024544121            4 
 2582000   0.83306014   -7.0951872    760.09182  0.024531753  0.024536768            7 
 2583000    0.8303692   -7.0812398    762.05706  0.024585658  0.024529411            6 
 2584000   0.83790013   -7.1464443    760.72823  0.024533289  0.024522007            5 
 2585000   0.83888295   -7.1031313    758.55697  0.024453803  0.024514571            5 
 2586000   0.84194003   -7.1558192    759.50529  0.024474906  0.024507191           11 
 2587000   0.83328539    -7.107877    760.17554  0.024487036  0.024499812            6 
 2588000    0.8357016   -7.1091731    759.72024  0.024462914  0.024492459            6 
 2589000   0.83478569   -7.1260472    759.07891  0.024432822  0.024485079            6 
 2590000   0.83469084   -7.1466512      761.979  0.024516699  0.024477702            6 
 2591000   0.83051669   -7.1101416    760.61694  0.024463429  0.024470373            5 
 2592000   0.83920711   -7.1200281    760.25144   0.02444224  0.024463026            6 
 2593000   0.83646749   -7.1060862    762.45402    0.0245036  0.024455722            4 
 2594000   0.84792479   -7.1157245    760.87416    0.0244434  0.024448414            5 
 2595000   0.83607607   -7.1317952    761.86401  0.024465768  0.024441075            5 
 2596000   0.82707418    -7.130663    760.03607  0.024397665  0.024433774            6 
 2597000   0.85139053   -7.0813284    762.80034  0.024476972  0.024426495            6 
 2598000   0.81994772   -7.0952906    763.44259  0.024488151  0.024419231            8 
 2599000   0.84685638   -7.1279367    760.92763   0.02439809  0.024411901           17 
 2600000   0.81882679   -7.1354514    760.81119  0.024384974  0.024404594            6 
 2601000   0.86490268   -7.1355972    759.27714  0.024326449  0.024397212            3 
 2602000   0.85594343   -7.1266016    760.61878  0.024360069   0.02438985            3 
 2603000   0.82012308   -7.1433065    760.69129  0.024353031  0.024382478            6 
 2604000   0.84786615   -7.1017712    761.53261  0.024370603  0.024375119            9 
 2605000   0.84256581   -7.0965839    762.33724  0.024386988  0.024367817            8 
 2606000   0.83742503   -7.1367132    760.64511   0.02432352  0.024360498            3 
 2607000   0.83527723   -7.1174989    762.83222  0.024384101  0.024353174            3 
 2608000   0.83859761   -7.1428437    761.83671  0.024342942   0.02434582            4 
 2609000   0.83694977   -7.1133282    761.00688  0.024307106  0.024338421            4 
 2610000   0.82669097   -7.1097001    761.06814  0.024299749  0.024331099            6 
 2611000   0.82926743   -7.1052883    763.60104  0.024371283   0.02432381            8 
 2612000   0.81885726   -7.1323862    762.01372  0.024311311  0.024316526            5 
 2613000   0.83279794   -7.0965499    766.19336  0.024435303  0.024309284            4 
 2614000    0.8481616   -7.1561416    761.29059  0.024269657  0.024302026            8 
 2615000   0.84310961   -7.1069248     762.2563   0.02429115  0.024294734            9 
 2616000   0.82615093   -7.1109996    762.88123  0.024301772  0.024287455           11 
 2617000   0.82130625   -7.1023834    763.67743  0.024317839  0.024280165           10 
 2618000   0.83575217    -7.117119    764.51731  0.024335285  0.024272937            8 
 2619000   0.83785648   -7.1345631    762.93783  0.024275736  0.024265671            5 
 2620000   0.83373251   -7.1568283    762.51402   0.02425299  0.024258417            5 
 2621000   0.81261411   -7.1516399    763.93436  0.024288896  0.024251142            6 
 2622000   0.85022735   -7.1203264    763.82523  0.024276164  0.024243921            3 
 2623000   0.83413011    -7.084128    765.64574  0.024324747  0.024236714            8 
 2624000    0.8245322   -7.1075223    765.17559  0.024300546   0.02422952            4 
 2625000   0.81914777   -7.1139582     765.4121  0.024298797  0.024222342            4 
 2626000   0.82529682   -7.1304372    763.70541  0.024235384  0.024215155            6 
 2627000   0.84206091   -7.0955449    765.58545  0.024285797  0.024207996           15 
 2628000   0.83156586   -7.1155987    765.37995  0.024270039  0.024200823           14 
 2629000   0.85058056   -7.1386926    766.30586  0.024290157  0.024193657           13 
 2630000   0.82788208   -7.1527394    765.13506  0.024243823   0.02418645            6 
 2631000   0.83475754   -7.1251451    765.73563  0.024253631   0.02417924            9 
 2632000   0.81553786   -7.1166896    768.04467  0.024317524  0.024172064            4 
 2633000   0.82956253   -7.1142439    765.71008  0.024234399  0.024164879            5 
 2634000   0.83008584   -7.1148464    767.93383  0.024295553  0.024157686            4 
 2635000   0.82494961   -7.1490791    767.17466  0.024262323  0.024150518            7 
 2636000   0.83882498   -7.1083429    765.08635    0.0241871  0.024143343            5 
 2637000   0.82092757   -7.1359698    764.60626  0.024162756   0.02413614            7 
 2638000   0.83217136   -7.1444932    764.79216  0.024159469  0.024128956            9 
 2639000   0.83017173   -7.1421466    765.61876  0.024176417  0.024121772            9 
 2640000     0.820628   -7.1345533    768.46156  0.024256994  0.024114625            8 
 2641000   0.83747276   -7.1290531     768.7568  0.024257125  0.024107512            8 
 2642000   0.83194037   -7.1129757    768.89413  0.024252275  0.024100412            6 
 2643000   0.81523199   -7.1016036    766.64293  0.024172119  0.024093327            6 
 2644000   0.84604258   -7.1086703    767.54082  0.024191277  0.024086277            5 
 2645000   0.82590657   -7.1379055    768.28946  0.024205717   0.02407918            4 
 2646000   0.81622437   -7.1361483      769.501  0.024234725  0.024072069            2 
 2647000   0.82598491   -7.1286637    767.41692  0.024159958   0.02406495            5 
 2648000   0.83281713   -7.1282495    768.39347  0.024181567  0.024057878           23 
 2649000   0.82713136   -7.1166091    770.42092  0.024236219  0.024050826            3 
 2650000   0.82043726   -7.1370115    768.93153  0.024180237  0.024043803            7 
 2651000   0.83114514   -7.0971818    770.71732  0.024227251  0.024036773            4 
 2652000   0.83859608   -7.1154596     768.0954  0.024135728  0.024029746            4 
 2653000   0.81507511   -7.1494687    768.39442  0.024136023  0.024022736            5 
 2654000   0.82815255   -7.1250155    770.04801   0.02417885  0.024015676            9 
 2655000   0.81940707   -7.1211365    770.98688  0.024199212  0.024008656            4 
 2656000   0.81295319     -7.12913    771.01577  0.024191007  0.024001651            5 
 2657000   0.82371425   -7.1105331    769.01765  0.024119234  0.023994637           10 
 2658000   0.83645692   -7.1357097    769.68342  0.024131033  0.023987627            6 
 2659000   0.83799102   -7.1316065    769.26594  0.024108874  0.023980649            9 
 2660000   0.82539026   -7.1200687    769.86816  0.024118677  0.023973613            7 
 2661000   0.81370482   -7.1382302    769.74218  0.024105668  0.023966606            7 
 2662000   0.81572523   -7.1422907     768.3675  0.024053578  0.023959576            4 
 2663000   0.83023651   -7.1438336    769.68844  0.024085882  0.023952547            5 
 2664000   0.81716297   -7.1176817    771.59728  0.024136552   0.02394553            6 
 2665000   0.83537466    -7.109812    770.10201  0.024080738  0.023938538            8 
 2666000   0.81816452   -7.1361064    770.40652  0.024081224  0.023931501            4 
 2667000   0.83276612   -7.1206722    771.00311  0.024090836  0.023924511            4 
 2668000   0.83055652   -7.1285891    769.62633  0.024038803  0.023917499            7 
 2669000   0.82940268   -7.1310028     770.8032  0.024066542  0.023910487            9 
 2670000   0.82243863   -7.1354645    770.32174  0.024042501  0.023903473            7 
 2671000    0.8056197   -7.1445418    771.16471    0.0240598  0.023896426            3 
 2672000   0.82082963    -7.149852    770.31095  0.024024169    0.0238894            5 
 2673000   0.82472935   -7.1350003    770.75604  0.024029057  0.023882383            4 
 2674000   0.83735549   -7.0968993    772.75538  0.024082379  0.023875386            4 
 2675000   0.80956282   -7.1324799    771.31094  0.024028378  0.023868404            8 
 2676000   0.82690044   -7.1591405    769.84357  0.023973704  0.023861436            8 
 2677000   0.81599486   -7.1214129    772.65798  0.024052359  0.023854472            6 
 2678000   0.83232157   -7.1499333    771.51626   0.02400785  0.023847485           10 
 2679000   0.81060956   -7.1073699    771.71284  0.024005003  0.023840451            5 
 2680000   0.83801586   -7.1506762    770.53304  0.023959361  0.023833406            7 
 2681000   0.81858575   -7.1661373      770.345  0.023944579  0.023826335            6 
 2682000   0.82639263   -7.1241267    771.07182  0.023958235  0.023819297            8 
 2683000   0.82267741   -7.1497811    772.29164  0.023987192  0.023812302            6 
 2684000   0.83020709   -7.1669032    769.63267  0.023895699  0.023805236            6 
 2685000   0.81008177   -7.0996426    771.30032  0.023938557  0.023798197            4 
 2686000   0.83636838   -7.1088861     772.6613  0.023971869  0.023791224            6 
 2687000   0.80080182   -7.1340787    771.99285  0.023942217  0.023784237            8 
 2688000   0.82908239   -7.1606151    773.20559  0.023970908  0.023777275           12 
 2689000   0.81669476    -7.160654    771.34727  0.023904403   0.02377029            6 
 2690000    0.8074873   -7.1454059    772.01205  0.023916111   0.02376328            4 
 2691000   0.83238721    -7.148773    771.45787  0.023890062  0.023756277           11 
 2692000   0.84197237   -7.1425066    773.65669  0.023949254  0.023749343            4 
 2693000   0.82583135   -7.1149901    772.16566  0.023894221   0.02374239            4 
 2694000   0.81895351   -7.1239806    772.35544  0.023891223  0.023735468            8 
 2695000   0.82830518   -7.1267458    772.84021  0.023897347  0.023728509           10 
 2696000   0.81639206   -7.1412957    773.12478  0.023897279   0.02372156           17 
 2697000   0.83919215   -7.1550798    772.05294    0.0238553  0.023714614            7 
 2698000   0.81955417   -7.1886073    773.17586  0.023881142  0.023707658            8 
 2699000   0.82440046   -7.1292737    774.64155  0.023917548  0.023700696            8 
 2700000   0.82334597   -7.1431394     773.5629  0.023875398  0.023693775            8 
 2701000   0.81242259   -7.1505526    775.13309  0.023915003  0.023686879            8 
 2702000   0.83073705   -7.1584737    774.92355   0.02389969  0.023679964            8 
 2703000   0.82281933   -7.1523011    773.62898  0.023850937  0.023673061            7 
 2704000   0.81726197   -7.1357358    774.58656  0.023871627  0.023666138            6 
 2705000    0.8105616   -7.1640106    774.46441  0.023859039   0.02365919            9 
 2706000   0.82812614   -7.1678865    775.28413  0.023875466  0.023652266            5 
 2707000   0.80179905   -7.1693179    771.46692  0.023749136  0.023645306            6 
 2708000   0.83535819    -7.149466    771.82425  0.023751362   0.02363834            9 
 2709000   0.81241559   -7.1475849    774.76762  0.023833137  0.023631386            8 
 2710000   0.81614923   -7.1581995    773.12948  0.023773969  0.023624446           10 
 2711000   0.82207887   -7.1665804    773.29632  0.023770328  0.023617464            4 
 2712000   0.82762224   -7.1364602    774.41623  0.023795976    0.0236105            4 
 2713000   0.79668114   -7.1509963    773.31647  0.023753424  0.023603554            5 
 2714000   0.82128127   -7.1893633    773.22029  0.023741718   0.02359656           10 
 2715000   0.81557786   -7.1589178      771.867  0.023691437   0.02358957            9 
 2716000   0.81327407   -7.1404362     773.5699  0.023734962  0.023582589            7 
 2717000   0.82999786   -7.1548067    774.02571  0.023740207  0.023575599            6 
 2718000   0.81354342   -7.1538707    773.19508  0.023706006  0.023568585            9 
 2719000   0.83224024   -7.1598936    776.88922  0.023810507  0.023561599            5 
 2720000   0.81377534    -7.159727    773.41222  0.023695227  0.023554637           12 
 2721000   0.81228497   -7.1449475    775.03764  0.023736299  0.023547699            4 
 2722000   0.80471258    -7.161014     775.2479  0.023734016  0.023540772            5 
 2723000   0.81443786   -7.1551267     774.7303  0.023709459  0.023533809           10 
 2724000   0.81372143   -7.1396316    773.79491   0.02367214  0.023526837            4 
 2725000   0.81322262   -7.1223798    775.54575  0.023716995  0.023519909            3 
 2726000   0.81441149   -7.1411108    774.37158  0.023672401  0.023512974            8 
 2727000    0.8088976    -7.146068    776.64003  0.023733041   0.02350604            9 
 2728000   0.81168534   -7.1634578    775.15562  0.023678996  0.023499102            4 
 2729000   0.81440801   -7.1556799    776.70854   0.02371774  0.023492221            8 
 2730000   0.79607875   -7.1578059     775.1026   0.02366003   0.02348533           10 
 2731000   0.79570981    -7.146115    774.30216  0.023626942  0.023478407            5 
 2732000   0.81655739   -7.1568993    774.00024  0.023609085  0.023471498            8 
 2733000   0.82865497   -7.1519524     777.4583  0.023705888   0.02346459            6 
 2734000   0.82459877     -7.16979    774.15564  0.023596551  0.023457675            5 
 2735000    0.8204999   -7.1724452    774.95226  0.023612196  0.023450749           14 
 2736000    0.7997568    -7.163988    774.10838  0.023577862  0.023443843           10 
 2737000   0.82436304   -7.1622448     776.6071  0.023645326  0.023436944           12 
 2738000    0.8008999   -7.1720732     774.4106  0.023569838   0.02343003            9 
 2739000   0.82298022   -7.1905184    775.70588  0.023600641  0.023423084            6 
 2740000   0.80797288   -7.1753077    775.09825  0.023573548  0.023416173            7 
 2741000    0.8217482   -7.1714992    775.64399  0.023581539  0.023409292            3 
 2742000   0.80213688     -7.16784    776.76109  0.023606889  0.023402383            5 
 2743000   0.80740195    -7.183423    777.17919  0.023610985  0.023395449           13 
 2744000   0.78120441    -7.184743    777.20722  0.023603232  0.023388531           12 
 2745000   0.82260703   -7.1657873    776.14599  0.023562416  0.023381608            7 
 2746000   0.82289109   -7.1568999    776.82716  0.023574507  0.023374692            5 
 2747000   0.81321741   -7.1973329    775.63378  0.023529723  0.023367794           13 
 2748000   0.81281076    -7.140793       778.12  0.023596555  0.023360899            7 
 2749000   0.80998837   -7.1559781    777.00247  0.023554095  0.023354032           19 
 2750000   0.81788292   -7.1378475     777.0746  0.023547715  0.023347187            6 
 2751000   0.81462677   -7.1250252    778.83973  0.023592625  0.023340338           14 
 2752000   0.81824264   -7.1800309    777.08985  0.023531064  0.023333453            9 
 2753000   0.81715474   -7.1928014    777.34187  0.023530145  0.023326584            7 
 2754000   0.80605752   -7.1474484    779.72104  0.023593592  0.023319743            5 
 2755000   0.83051214   -7.1718156    777.31748  0.023512325  0.023312894            9 
 2756000   0.80944988   -7.1763306    775.70313  0.023454981  0.023306044           11 
 2757000   0.79384392      -7.1627    778.01526   0.02351636  0.023299165            5 
 2758000   0.80930927   -7.1577378    777.64818  0.023496742  0.023292311            5 
 2759000   0.82314711   -7.1462484    777.87245     0.023495  0.023285462            4 
 2760000   0.81212748   -7.1572536    777.68796  0.023480917  0.023278632            2 
 2761000   0.81136572   -7.1677586    780.05071  0.023543726  0.023271799            4 
 2762000   0.80643106   -7.1495598    777.69598  0.023464156  0.023264996            5 
 2763000   0.82419805   -7.1744742    778.32146  0.023474528  0.023258176            9 
 2764000   0.79905848   -7.1637269    779.50916  0.023501844  0.023251314            4 
 2765000   0.80408895   -7.1686654    780.66603  0.023528211   0.02324445            8 
 2766000   0.81154433   -7.1286028    780.51096  0.023515033  0.023237657           15 
 2767000   0.81765962   -7.1441484    780.80747  0.023515464  0.023230872            5 
 2768000   0.82471739   -7.1575141    778.99732  0.023452472  0.023224059            3 
 2769000   0.80641217   -7.1863579    779.71219  0.023465517  0.023217268            4 
 2770000   0.80434786   -7.1983401    778.38301  0.023417058  0.023210437            4 
 2771000     0.817423   -7.2096705    778.99563  0.023427031  0.023203619            3 
 2772000   0.80119379   -7.1590324     780.0403  0.023449985   0.02319682            6 
 2773000   0.81944096   -7.1392249    778.73979  0.023402446  0.023190034            6 
 2774000    0.8136744   -7.1712433    779.40975  0.023414136  0.023183223            6 
 2775000   0.84356101   -7.1773393    778.62927   0.02338226  0.023176414            9 
 2776000   0.80936036    -7.166908    780.18422  0.023420516  0.023169597           16 
 2777000   0.79654273   -7.1786818    779.80932  0.023400832   0.02316274            4 
 2778000   0.79627588   -7.1898257    780.96328  0.023427024  0.023155928            6 
 2779000   0.77509019   -7.1967558    777.81799  0.023324277  0.023149088            8 
 2780000   0.79736815     -7.19801    777.93321  0.023319341  0.023142224           15 
 2781000   0.81472389   -7.1922212     779.3542  0.023353536  0.023135359            7 
 2782000   0.78625714   -7.1723487    778.58062  0.023321969   0.02312853            5 
 2783000   0.82044197   -7.1531337    781.88913  0.023412658  0.023121745            4 
 2784000   0.81843843    -7.199668    779.34383   0.02332806  0.023114935           12 
 2785000   0.81108582    -7.175049    779.36499  0.023320317  0.023108149           14 
 2786000   0.79421572   -7.1764549     780.9213  0.023358498  0.023101334            5 
 2787000    0.8079154   -7.1617993     779.9435   0.02332088  0.023094513           21 
 2788000   0.80870553    -7.175344     780.9977  0.023344025  0.023087723            7 
 2789000   0.80568446   -7.1862528     779.9055  0.023303021  0.023080919            8 
 2790000   0.81201519   -7.1833682    781.54003   0.02334349  0.023074116           12 
 2791000   0.81071187   -7.1714536     780.4289   0.02330195  0.023067306           10 
 2792000   0.81722496   -7.2009586    779.28739  0.023259533  0.023060478            4 
 2793000   0.80349252   -7.1809739    778.75752  0.023235396  0.023053672            7 
 2794000   0.81141817   -7.1826904     779.3805   0.02324566   0.02304689            7 
 2795000   0.79846746   -7.1954329    778.50304  0.023211182  0.023040077           10 
 2796000     0.785661   -7.1712418    780.37666  0.023258722  0.023033225            5 
 2797000   0.79604857   -7.1907511    778.22152  0.023186197  0.023026405            5 
 2798000   0.80780606   -7.1860831    780.34186  0.023241061  0.023019551            8 
 2799000    0.8020496   -7.2171022     779.7589  0.023215401  0.023012713            9 
 2800000   0.79573888   -7.1929162    781.14403  0.023248334  0.023005895           10 
 2801000   0.79278515   -7.1829999    779.37984  0.023187547  0.022999116            5 
 2802000   0.82272937   -7.2040319    780.58162  0.023215014  0.022992322            7 
 2803000   0.79723657   -7.1712298    781.42665  0.023231854  0.022985542            6 
 2804000   0.81886984   -7.1810158    782.14465  0.023244908  0.022978782            9 
 2805000   0.79175957   -7.1652431    783.81445  0.023286228  0.022972049            9 
 2806000   0.80680679   -7.1610019    784.93838  0.023311308  0.022965357            4 
 2807000   0.80305928   -7.1510593    781.72379   0.02320757  0.022958643            4 
 2808000   0.80202146   -7.1955882    782.06504  0.023209433  0.022951908            4 
 2809000   0.79621433   -7.1763341    780.62702  0.023158509  0.022945162            8 
 2810000   0.79780698   -7.1937037    781.81581  0.023185522  0.022938397            5 
 2811000   0.79955724   -7.2251075    782.27465  0.023190877  0.022931627            6 
 2812000   0.81079254   -7.2127501    781.61823  0.023163177   0.02292481            5 
 2813000   0.81117661   -7.1800676    782.63827   0.02318516  0.022918037            6 
 2814000    0.7980442   -7.1543143    782.40104  0.023169896  0.022911294            4 
 2815000   0.83576302   -7.1951969    784.93061  0.023236549  0.022904553            8 
 2816000   0.78990143   -7.1822676    781.69283  0.023132482  0.022897824           16 
 2817000   0.80031527   -7.1656552    781.99498  0.023133208  0.022891096           13 
 2818000   0.79187729   -7.2012327    782.58047  0.023142313   0.02288437            7 
 2819000   0.79525804   -7.2072747    781.13836  0.023091473  0.022877622           10 
 2820000    0.7996797   -7.1879526    782.77772  0.023131729  0.022870908            3 
 2821000   0.78998589   -7.1770043    782.97374   0.02312932  0.022864175            4 
 2822000   0.79800632    -7.212959    783.85074  0.023147022   0.02285746            4 
 2823000    0.8174186   -7.2071571    781.84012   0.02307947  0.022850704            4 
 2824000   0.81415592   -7.1999537    783.74876  0.023127619  0.022843931            3 
 2825000   0.78866708     -7.22104    783.06158  0.023099162  0.022837175            3 
 2826000   0.79222645   -7.2247785    780.97341  0.023029412  0.022830414            7 
 2827000   0.79769976   -7.2013488    783.44778  0.023094204  0.022823655            7 
 2828000   0.80079787   -7.1891904     783.4237  0.023085328  0.022816928            8 
 2829000   0.79562213   -7.1952562    785.15496  0.023128165  0.022810215            6 
 2830000   0.80545491   -7.1730247    784.24128  0.023093088  0.022803491            5 
 2831000    0.7999511   -7.2047968      782.596  0.023036501  0.022796783            6 
 2832000   0.81834702   -7.1981753    782.64602  0.023029838  0.022790032            9 
 2833000   0.80843296   -7.1642844    784.14768  0.023065881  0.022783309            4 
 2834000   0.80112527   -7.1969758    783.43912  0.023036906  0.022776598           10 
 2835000   0.80215048   -7.1777205    787.48497  0.023147706    0.0227699            7 
 2836000   0.78945387   -7.1922469    786.27643  0.023104032  0.022763231            4 
 2837000   0.79713449   -7.2046293    782.34731  0.022980476   0.02275654            6 
 2838000   0.77956933   -7.1692825    785.92104  0.023077315  0.022749857            8 
 2839000   0.78706551   -7.1769739    784.24434   0.02301997  0.022743198            9 
 2840000    0.7749331   -7.1950445    785.15713  0.023038648  0.022736523            7 
 2841000   0.81886615   -7.1988297    783.31776  0.022976586  0.022729805           11 
 2842000   0.79489993    -7.200944    783.73353  0.022980692  0.022723047            8 
 2843000   0.78906719   -7.2216274    782.80972  0.022945531   0.02271633            6 
 2844000   0.80795419   -7.1932051    785.13392  0.023005565  0.022709599            6 
 2845000    0.7872746   -7.2030677    783.98668  0.022963875  0.022702898            7 
 2846000   0.80824885   -7.2053947    784.73191  0.022977627  0.022696189            5 
 2847000   0.79759576   -7.1863451    783.97236  0.022947324  0.022689472            7 
 2848000   0.80169724   -7.2378043     783.8384  0.022935346  0.022682772           10 
 2849000   0.80923689     -7.18259    784.92673   0.02295913  0.022676066            9 
 2850000   0.78876921   -7.1911397    782.38622   0.02287679  0.022669358            3 
 2851000   0.79120411   -7.1965028    785.60165  0.022962751  0.022662608            6 
 2852000   0.79710191   -7.1924332     785.1372  0.022941129  0.022655878            5 
 2853000   0.80405446   -7.1994561    785.76712  0.022951487  0.022649184            9 
 2854000   0.79227767   -7.1904632    785.91329  0.022947713  0.022642503           13 
 2855000   0.81902503    -7.199427    782.69283  0.022845675  0.022635809           10 
 2856000   0.79672104   -7.2301191    785.57131  0.022921665  0.022629105            6 
 2857000   0.79532286   -7.2220453    784.86332  0.022892992  0.022622397           13 
 2858000   0.78847695    -7.243139    785.03168   0.02288989  0.022615674            4 
 2859000   0.79721113   -7.2220592    786.23772  0.022917037  0.022608947            8 
 2860000    0.8047532   -7.2001252    784.51156  0.022858728  0.022602215            4 
 2861000   0.78854484   -7.2157768    786.57226  0.022910761  0.022595517            9 
 2862000   0.80253167   -7.2615419    786.21314    0.0228923  0.022588839            4 
 2863000   0.80443875   -7.2077853    785.70998  0.022869658  0.022582149            8 
 2864000   0.78007725   -7.1884987    786.07154  0.022872193  0.022575491            5 
 2865000   0.78025113   -7.2262419    786.64126  0.022880781  0.022568815            8 
 2866000   0.81267609   -7.2107671    785.82456  0.022849051  0.022562139           15 
 2867000   0.81230291   -7.2375078    784.57248  0.022804688  0.022555466            6 
 2868000   0.79775722   -7.2212121    784.79748  0.022803274  0.022548829            7 
 2869000   0.79778822   -7.1931266    788.42287  0.022900629  0.022542241           10 
 2870000   0.80712364   -7.2108888    785.06387  0.022795118  0.022535602            4 
 2871000   0.79924456    -7.215519    785.40496  0.022797079  0.022528964            4 
 2872000   0.78906577   -7.2170614    785.90265  0.022803582  0.022522375           10 
 2873000   0.78985943    -7.167555    788.89562  0.022882458  0.022515771            7 
 2874000   0.78714527   -7.2326093     786.4574  0.022803798  0.022509127            6 
 2875000   0.79435099   -7.2008948     786.8742  0.022807948  0.022502496            8 
 2876000   0.80377193   -7.1909684    786.61436  0.022792488  0.022495848            5 
 2877000   0.79210361   -7.2141837    785.55905  0.022753999  0.022489253            8 
 2878000   0.79498865   -7.2258583    786.58272  0.022775733  0.022482637            8 
 2879000   0.79380582    -7.215495    785.64998  0.022740824  0.022475991            6 
 2880000   0.79787799   -7.2181455     786.9228  0.022769757  0.022469354           13 
 2881000   0.79927071   -7.2157473    786.67486  0.022754682  0.022462737            9 
 2882000   0.79022009   -7.1984232    787.51673  0.022771129  0.022456152            9 
 2883000   0.79022205   -7.1873678    788.19626  0.022782873  0.022449594            8 
 2884000   0.79336278   -7.1771868    787.76304  0.022762455  0.022443065            4 
 2885000   0.80295211   -7.1911194     789.1083  0.022793423  0.022436528            4 
 2886000   0.78647241   -7.2054855    788.92429  0.022780212  0.022429997            6 
 2887000    0.7941631     -7.21964      788.053  0.022747171   0.02242343            4 
 2888000   0.78693888   -7.1904951     790.6401  0.022813946  0.022416833            9 
 2889000    0.8041674   -7.2090126    788.91098  0.022756172   0.02241025            8 
 2890000   0.78803653   -7.2193491      787.953  0.022720675  0.022403673            6 
 2891000   0.77494493   -7.2221113    788.51352  0.022728973  0.022397099            3 
 2892000   0.79732437   -7.2650789    788.58701  0.022723231  0.022390541            5 
 2893000   0.78168568    -7.226751    789.31223  0.022736267     0.022384            5 
 2894000   0.80193714   -7.2225687    789.55652  0.022735445  0.022377407            4 
 2895000   0.78681757   -7.2422961    788.42804  0.022695108  0.022370824            5 
 2896000   0.79532635   -7.2088124    788.76538  0.022696978  0.022364281            7 
 2897000   0.77517431   -7.1965922     788.3809  0.022678084  0.022357753           10 
 2898000   0.78461278   -7.2439621    788.14898  0.022663589  0.022351202           10 
 2899000    0.8031847   -7.2324991    787.03538  0.022623761  0.022344607           11 
 2900000   0.78583665   -7.2323053    789.88372  0.022697808   0.02233801            7 
 2901000   0.77596371   -7.2632083    787.21319  0.022613271  0.022331411           10 
 2902000   0.78881663   -7.2035944    788.89223  0.022653694  0.022324808            4 
 2903000   0.79078925   -7.2181704    787.87304  0.022616633  0.022318204           12 
 2904000   0.79298464   -7.2322097    790.60572  0.022687262  0.022311621            5 
 2905000    0.7676509   -7.2045363    790.86794  0.022686975  0.022305082            7 
 2906000   0.78225588   -7.2090177    790.44555  0.022667055  0.022298561            7 
 2907000   0.77503975   -7.1932329    791.70013  0.022695222  0.022292037           19 
 2908000   0.78303549   -7.2216384    789.62786  0.022628034  0.022285536           11 
 2909000   0.78794792   -7.2225591    789.61889  0.022619998  0.022279033            5 
 2910000   0.80854556   -7.2221434    790.89643   0.02264881  0.022272567           10 
 2911000   0.78278267    -7.224119    790.42342  0.022627488  0.022266065            6 
 2912000   0.79895375   -7.1892122    790.12661  0.022611224  0.022259606            4 
 2913000   0.77354827   -7.1784252    791.32518   0.02263775  0.022253141            5 
 2914000   0.79791171   -7.2124853    791.97576  0.022648586  0.022246695            6 
 2915000   0.77880005   -7.2121964    791.61185  0.022630413   0.02224023            9 
 2916000   0.77318702   -7.2522855    790.96388  0.022604135  0.022233761            3 
 2917000   0.77253153   -7.2168168    792.50908  0.022640529  0.022227321            5 
 2918000   0.79564878   -7.2276609    790.79987  0.022583958  0.022220862            4 
 2919000   0.80051389   -7.2047216    792.54544  0.022626055  0.022214392            4 
 2920000   0.77706547   -7.2023822    790.89408  0.022571178  0.022207933            8 
 2921000   0.79408737   -7.2298148    790.29363  0.022546321  0.022201438            8 
 2922000   0.78199299   -7.2412588       793.39  0.022626911  0.022194967            7 
 2923000   0.77146157   -7.2002567    791.70704   0.02257119  0.022188529            5 
 2924000   0.80171717   -7.2049249    792.02608  0.022572563  0.022182078           12 
 2925000   0.78869278   -7.2119472    792.97774  0.022591958   0.02217563            5 
 2926000   0.78083428   -7.1996519    791.81413  0.022551097  0.022169204            4 
 2927000    0.7766161   -7.2029398     792.4987  0.022562883  0.022162791            5 
 2928000   0.78307174   -7.2253652    793.46025  0.022582544   0.02215635            6 
 2929000   0.80077812   -7.2453534    792.81101  0.022556362    0.0221499            8 
 2930000   0.77945477   -7.2261094    791.17354  0.022502092  0.022143471            6 
 2931000   0.77831479   -7.2253445    791.70516  0.022509529  0.022137036            9 
 2932000   0.77843305   -7.2321147    791.92827  0.022508193  0.022130574            8 
 2933000   0.77716539    -7.257055    793.10382  0.022533919   0.02212411           10 
 2934000   0.77568117   -7.2004703    793.03787  0.022524366   0.02211767           16 
 2935000    0.7834491   -7.2250513    793.21525  0.022521728  0.022111234            4 
 2936000   0.77659749   -7.2236491     790.6894  0.022442365  0.022104754            4 
 2937000   0.78617348   -7.2238681    795.19249  0.022562493  0.022098289            8 
 2938000   0.76315876   -7.2378842    794.56408  0.022536989  0.022091829            6 
 2939000   0.76930879   -7.2321695    791.42862  0.022440417  0.022085376           15 
 2940000   0.77991684   -7.2537438     791.7515  0.022441936  0.022078952            7 
 2941000   0.76864246   -7.2338906    791.34418  0.022422764  0.022072489            6 
 2942000   0.78509049   -7.2383088    791.72277  0.022425866  0.022066031           15 
 2943000   0.79916481   -7.2258861    792.44918  0.022438815  0.022059595            5 
 2944000   0.77292298   -7.2019988    790.75358  0.022383197  0.022053174            5 
 2945000   0.79323844   -7.2421083    792.55746   0.02242664  0.022046762            6 
 2946000   0.78554513   -7.2533584    792.89532  0.022428585  0.022040326            8 
 2947000    0.7853818   -7.2587199    792.07867  0.022397881  0.022033863           12 
 2948000   0.78197087   -7.2475823    793.77478  0.022438229  0.022027434            7 
 2949000   0.76940515   -7.2315406    793.38232   0.02241953  0.022021047           12 
 2950000   0.79193557    -7.251502    792.82317  0.022396135   0.02201463            8 
 2951000   0.78322471   -7.2280912    793.65816  0.022412125   0.02200822           14 
 2952000   0.78467189   -7.2191424    793.07611  0.022388102  0.022001835            6 
 2953000   0.79181893   -7.2354729    796.18415  0.022468229  0.021995461            5 
 2954000   0.77881265      -7.2343    794.42223  0.022410918  0.021989068           11 
 2955000   0.77922909   -7.2382589    795.74038  0.022440507  0.021982695            7 
 2956000   0.77321529   -7.2335657    795.17586  0.022417001  0.021976329            6 
 2957000   0.78320295   -7.2385077     794.0561  0.022377863  0.021969961            5 
 2958000   0.77851702   -7.2348592    794.84843   0.02239262  0.021963622            7 
 2959000   0.77996939   -7.2502647    795.93432  0.022415634  0.021957273           11 
 2960000   0.78550394   -7.2476764     794.3961  0.022364755  0.021950912            4 
 2961000   0.77584418   -7.1992479    795.66105  0.022392802  0.021944581           10 
 2962000   0.78980191   -7.2077583    797.27582  0.022430672  0.021938295            6 
 2963000   0.76390968   -7.2061946     796.9605  0.022414234  0.021932015            7 
 2964000   0.80019955   -7.2486741    796.18416  0.022384845  0.021925718            5 
 2965000   0.77250297   -7.2384824     797.2916  0.022408421  0.021919435           10 
 2966000   0.76749007   -7.2523263    795.89794  0.022361709  0.021913123           10 
 2967000   0.78267312   -7.2297836     793.3016  0.022281249  0.021906767            6 
 2968000   0.78087282   -7.2471238     795.3379  0.022330916  0.021900421           13 
 2969000   0.76473297   -7.2410751    795.91521  0.022339598  0.021894085            5 
 2970000   0.79430939   -7.2521903    796.08949  0.022336967  0.021887751            3 
 2971000    0.8037003   -7.2667697    794.57573  0.022286989  0.021881413           11 
 2972000   0.77791607   -7.2631318    797.04902   0.02234884   0.02187505            5 
 2973000   0.76475188   -7.2322291    795.03324   0.02228482  0.021868731           10 
 2974000   0.79219867   -7.2607488    795.13875  0.022280283  0.021862408            8 
 2975000   0.78148175   -7.2387856    795.76376  0.022290301  0.021856087           13 
 2976000   0.76845565   -7.2423375    796.23862  0.022296108  0.021849751           10 
 2977000   0.76897456   -7.2447605    795.23528  0.022260533  0.021843381            8 
 2978000   0.78748517   -7.2165995     795.7958  0.022268743  0.021837031            4 
 2979000    0.7801368   -7.2405453    796.56877  0.022282891  0.021830668            6 
 2980000   0.76895488   -7.2191919    795.66284  0.022250079  0.021824321            4 
 2981000    0.7852419   -7.2482061    795.77662  0.022245796  0.021817964            9 
 2982000   0.75495204   -7.2637594    795.31262   0.02222537  0.021811604           11 
 2983000   0.77594688    -7.260868    794.13148  0.022184922   0.02180523           11 
 2984000    0.7640596   -7.2212888    797.17454   0.02226247  0.021798891            4 
 2985000   0.77585262      -7.2336     796.7996  0.022244545  0.021792605            7 
 2986000   0.77446053   -7.2269938     798.3441  0.022280199  0.021786288            6 
 2987000   0.75687573   -7.2489467    796.68638  0.022226492  0.021779961            6 
 2988000   0.76867203   -7.2583224    797.30787  0.022236386   0.02177362            6 
 2989000   0.77007653   -7.2753659    795.59484  0.022181188  0.021767277            4 
 2990000    0.7775275   -7.2586275    796.20052   0.02219065  0.021760948           15 
 2991000   0.76544024   -7.2761237    796.73916  0.022198238  0.021754593           10 
 2992000   0.77373659    -7.264034    795.58478  0.022158667  0.021748239            7 
 2993000   0.78856725   -7.2415439    796.82491  0.022185792  0.021741895            6 
 2994000   0.75839415   -7.2793833    796.24521  0.022162247  0.021735566           10 
 2995000   0.76496244   -7.2659268     798.3238  0.022212682  0.021729257            7 
 2996000   0.76951708   -7.2617849    797.11409   0.02217162  0.021722906            8 
 2997000   0.77199029   -7.2566824    795.82856  0.022128477  0.021716575           15 
 2998000   0.76912938   -7.2326769    796.91507  0.022151297  0.021710256           10 
 2999000    0.7672928   -7.2786037    797.48825  0.022159838  0.021703945            4 
 3000000   0.77955654   -7.2608751    797.28239  0.022146733  0.021697619            7 
 3001000   0.77967967   -7.2573374    797.72539  0.022151655  0.021691329            4 
 3002000   0.76289086   -7.2540706    797.29885  0.022132435  0.021684987            8 
 3003000    0.7637186   -7.2592426     797.6017  0.022133469  0.021678657            5 
 3004000   0.76256304   -7.2385344    798.88811  0.022161787  0.021672378            5 
 3005000   0.76354321   -7.2424241    798.46952  0.022142804   0.02166609            3 
 3006000   0.76186699   -7.2305644    798.72872  0.022142624  0.021659813            6 
 3007000   0.78199564   -7.2486183    798.30069  0.022123398  0.021653545            6 
 3008000    0.7573768   -7.2394918    798.20368  0.022113355  0.021647239           16 
 3009000   0.76137139   -7.2272993     796.6841  0.022063922  0.021640938            5 
 3010000   0.77430255   -7.2539501    796.72556   0.02205774  0.021634627            6 
 3011000   0.76585798   -7.2534338    795.62508  0.022019957  0.021628308           10 
 3012000   0.77911308    -7.230835    798.65774  0.022096551  0.021622002            4 
 3013000   0.75319547   -7.2668814    797.41894  0.022054955  0.021615676            5 
 3014000   0.78047458   -7.2656405    798.07423  0.022065755  0.021609364            4 
 3015000   0.77068311   -7.2346106    798.03966  0.022057481  0.021603083            7 
 3016000    0.7859615   -7.3081565    797.21586  0.022027406  0.021596798            8 
 3017000    0.7693824   -7.2679928    797.00079  0.022014164  0.021590485           13 
 3018000   0.76533753    -7.273995    797.18222  0.022011879  0.021584199           10 
 3019000   0.76295975   -7.2393445    797.59809  0.022016067  0.021577881            7 
 3020000   0.76452086   -7.2629209    798.65656  0.022037984  0.021571565            8 
 3021000   0.74773705   -7.2925632    796.65274  0.021975415  0.021565237            3 
 3022000   0.76989394   -7.2533953    798.18787  0.022010475  0.021558918           12 
 3023000    0.7672384   -7.2532839    799.16427   0.02203011  0.021552637            4 
 3024000   0.76875744   -7.2704398    797.88493   0.02198757  0.021546371           12 
 3025000   0.76663513   -7.2825388    799.82878  0.022033851  0.021540083            5 
 3026000   0.77162876   -7.2643884    797.40514  0.021959824  0.021533769            9 
 3027000   0.74878809   -7.2957596    797.42069  0.021952998  0.021527447           10 
 3028000   0.77525275   -7.2622454    798.51689  0.021975916  0.021521111           12 
 3029000   0.77133497   -7.2653413    798.20418  0.021960058  0.021514805            4 
 3030000   0.76336934   -7.2873463    797.87981  0.021943889  0.021508531            3 
 3031000   0.78359797   -7.2740145    797.89759  0.021937138  0.021502242            8 
 3032000   0.77973976   -7.2604446    797.91115  0.021930276  0.021495958            9 
 3033000   0.77499657   -7.2529689    799.29983    0.0219612  0.021489682            5 
 3034000   0.76187011   -7.2698177     798.8361  0.021941224  0.021483424            4 
 3035000   0.74670634   -7.2687375    798.37079  0.021921219  0.021477135           11 
 3036000   0.76706187   -7.2742338    799.01995  0.021931817  0.021470828            7 
 3037000   0.77324861   -7.2661542    799.15853  0.021928398  0.021464583           10 
 3038000   0.76439203   -7.2720336    798.37642  0.021899726  0.021458302            7 
 3039000   0.77969595   -7.2940666    797.95748  0.021881032  0.021452008            5 
 3040000   0.78054717   -7.2565258    798.96012  0.021901319  0.021445725           12 
 3041000   0.77649446   -7.2902909    799.01592  0.021895646  0.021439437            6 
 3042000   0.75891265   -7.2935366     798.1187   0.02186387  0.021433141            9 
 3043000   0.76560575   -7.2638118    798.25551  0.021860431  0.021426822            4 
 3044000   0.77365787    -7.260822    798.45829  0.021858801  0.021420512           12 
 3045000   0.74825418   -7.2608865    800.07641  0.021895906  0.021414226           12 
 3046000   0.76871545   -7.2651145    798.06798  0.021833771  0.021407947           19 
 3047000   0.76259576    -7.294575    798.12885   0.02182827  0.021401629            8 
 3048000   0.75546695   -7.2554402    799.13087  0.021848504  0.021395331            7 
 3049000   0.76441402   -7.2471518    801.22653  0.021898615  0.021389077            3 
 3050000   0.77496906   -7.2584011    799.70169  0.021849773  0.021382817           12 
 3051000   0.77006287   -7.2804909    798.14884  0.021800198  0.021376565           28 
 3052000   0.74525624   -7.2725055    799.94495  0.021842097  0.021370283           11 
 3053000   0.76153293   -7.2528859    796.38414  0.021737748   0.02136402            7 
 3054000   0.76871403   -7.2648119     800.3985  0.021840169   0.02135777            7 
 3055000   0.76211079   -7.2672257    800.05651  0.021823691  0.021351513            7 
 3056000    0.7671036   -7.3049526    799.98915  0.021814713  0.021345232           10 
 3057000   0.77635734   -7.2713741    799.48854   0.02179393  0.021338918            3 
 3058000   0.76618748   -7.2726021    801.56773  0.021843463  0.021332614            8 
 3059000   0.77947981   -7.2519297     799.4353  0.021778231  0.021326308            8 
 3060000   0.75550926   -7.2709305    799.85798  0.021782625  0.021320034            9 
 3061000   0.77496189   -7.2586365    798.73792  0.021745016  0.021313746            4 
 3062000     0.775057     -7.28205    800.87591    0.0217961  0.021307463            7 
 3063000   0.73877101   -7.2805775    798.60685  0.021727251  0.021301152           10 
 3064000   0.75695508   -7.2868752    801.32579  0.021794109  0.021294839            4 
 3065000   0.76094334   -7.3096407    799.96118  0.021749896  0.021288523           10 
 3066000   0.75005787   -7.2529339    800.16689  0.021748393   0.02128224            8 
 3067000   0.76156705   -7.2771582    798.99494  0.021709459  0.021275945           12 
 3068000   0.75921562   -7.2970289     798.2971  0.021683428  0.021269648           11 
 3069000    0.7762331   -7.2562334    800.07756  0.021724709  0.021263336            4 
 3070000   0.75426315   -7.2852512    798.79935  0.021682936  0.021257024            7 
 3071000   0.75948237   -7.2756265    797.68989  0.021645769  0.021250704            7 
 3072000   0.77474425    -7.299838    799.98457   0.02170097  0.021244402            4 
 3073000   0.74492772   -7.2909826     799.5919   0.02168326  0.021238079            7 
 3074000   0.77261838   -7.2753823    798.18852  0.021638162  0.021231753            6 
 3075000   0.75523283   -7.2727605    799.69231  0.021671878  0.021225461            5 
 3076000     0.767221    -7.275405    800.88314  0.021697094  0.021219152            9 
 3077000   0.76419368   -7.2943159    798.00986  0.021612227  0.021212826            7 
 3078000   0.74063719   -7.2848305    800.88771   0.02168312  0.021206536            4 
 3079000   0.75871802   -7.2928777    799.12844  0.021628463  0.021200224           15 
 3080000   0.75861102   -7.2948119    799.57015  0.021633392  0.021193899           12 
 3081000   0.75883918   -7.2920513    799.65536  0.021628675    0.0211876           17 
 3082000   0.75938682   -7.2969332    800.09537  0.021633554  0.021181298            6 
 3083000   0.72503952   -7.2920219    799.04813   0.02159823  0.021174965            8 
 3084000   0.75144126    -7.311255    799.50604    0.0216036  0.021168636           10 
 3085000   0.75319606   -7.3150409    801.68508  0.021655459  0.021162338            8 
 3086000   0.77756061   -7.2776768     800.6852  0.021621441  0.021156037            8 
 3087000   0.74119909    -7.294376    800.63177  0.021612995  0.021149761            4 
 3088000   0.74375138   -7.2920685    800.35429  0.021598507  0.021143483           17 
 3089000   0.74741521   -7.2771149    800.93703  0.021607236  0.021137199            5 
 3090000   0.76023392   -7.2685808    800.70924    0.0215941  0.021130925           14 
 3091000   0.76896609   -7.2667306    799.34279  0.021550275  0.021124637            5 
 3092000   0.75422301   -7.2885307     799.1281  0.021537519  0.021118381           10 
 3093000   0.75164928   -7.2727069      798.324  0.021508891   0.02111211           10 
 3094000   0.73393074   -7.2872578    800.44391  0.021559037  0.021105811            6 
 3095000   0.74299067    -7.289736    799.76512  0.021533794  0.021099506           13 
 3096000   0.74670295   -7.2824589    800.82641  0.021555405  0.021093214            6 
 3097000   0.76686099   -7.2669707    800.78555  0.021547345  0.021086945            9 
 3098000   0.74363928   -7.2855831    800.47753  0.021532105  0.021080671            6 
 3099000   0.76957094   -7.2833014    800.65665  0.021529973  0.021074389            6 
 3100000   0.76426917   -7.2792877     800.3451  0.021514653   0.02106811            4 
 3101000   0.75497192   -7.2969654    799.32953  0.021480424  0.021061823            8 
 3102000   0.75499172   -7.3127358    798.94579   0.02146319  0.021055522            5 
 3103000   0.75688691   -7.2925182    799.48116  0.021470651  0.021049213            5 
 3104000   0.76705367   -7.2811144    801.14704  0.021508458  0.021042912            9 
 3105000   0.75731171   -7.2907354    799.97735  0.021470138  0.021036617            5 
 3106000   0.74971467   -7.2839312    799.66239  0.021454775  0.021030302            4 
 3107000   0.74689107    -7.276616    800.34314  0.021466129  0.021024014            6 
 3108000   0.74066961   -7.3002344    799.15938  0.021427482  0.021017712           10 
 3109000   0.74575394   -7.2704265    800.76245  0.021463559  0.021011388            8 
 3110000   0.74268147   -7.2767395    799.41168  0.021420463  0.021005064           19 
 3111000   0.74202764   -7.3312762    799.91842  0.021427151  0.020998727            8 
 3112000   0.75145137   -7.2937511    802.19973  0.021481355  0.020992392            5 
 3113000   0.76485173   -7.3202154     798.3774  0.021372133  0.020986053            8 
 3114000   0.75617539   -7.2851988    799.01201  0.021382253   0.02097972            4 
 3115000   0.75568361   -7.3085803    799.73152  0.021394637  0.020973375           12 
 3116000   0.75736314    -7.275737    800.15215   0.02139902  0.020967066           13 
 3117000   0.75268663   -7.2662312    801.50508  0.021428325  0.020960762           12 
 3118000   0.73173636   -7.2918588    800.26998  0.021388443  0.020954465            5 
 3119000   0.75572015   -7.3016241    800.19255  0.021379517  0.020948152            6 
 3120000   0.76158641   -7.3087412    797.13275  0.021290939  0.020941823            5 
 3121000   0.75907656   -7.2978473    800.57583   0.02137605  0.020935515            6 
 3122000   0.76268823   -7.2859114    800.13537  0.021357446  0.020929231           14 
 3123000   0.74492169   -7.2796419    798.63817  0.021310657  0.020922927            7 
 3124000   0.75783841   -7.2903504    799.73112   0.02133299  0.020916626           12 
 3125000   0.75845129   -7.2967437    800.73674   0.02135298  0.020910319            7 
 3126000   0.73553616   -7.2753143    800.74082  0.021346258  0.020904036           10 
 3127000   0.76146728   -7.2736312    800.81645  0.021341447  0.020897755           11 
 3128000   0.75589347   -7.2870176    801.54792  0.021354111    0.0208915            6 
 3129000   0.73906402   -7.3105917    799.97836  0.021305485  0.020885214            5 
 3130000   0.73861419   -7.2794013    800.89832  0.021323171  0.020878931            5 
 3131000   0.75549647   -7.3084144    800.70645  0.021311254  0.020872637           11 
 3132000   0.76054274    -7.286434    801.09386  0.021314758  0.020866374            7 
 3133000    0.7559424   -7.2828172    799.39986  0.021262897  0.020860114           10 
 3134000   0.75621114   -7.3301905    799.37992  0.021255582  0.020853835           10 
 3135000   0.74416574     -7.32623    800.87889  0.021288647   0.02084755           17 
 3136000   0.75866014   -7.3121578    801.51104  0.021298657  0.020841268           16 
 3137000   0.74677681   -7.2704972    802.45004  0.021316811  0.020834998            9 
 3138000   0.75341178   -7.2705173    802.14628  0.021301951   0.02082875            4 
 3139000   0.76219895   -7.2971424    800.34729  0.021247406   0.02082247            5 
 3140000   0.73719289   -7.3073759    802.04366   0.02128566  0.020816206            6 
 3141000    0.7530229   -7.3119473     801.5795  0.021266568  0.020809916           10 
 3142000   0.75823538   -7.3438516    801.98427  0.021270535  0.020803617            9 
 3143000   0.75270981   -7.3088635    801.75877  0.021257789  0.020797326            8 
 3144000   0.73451157   -7.3062312    800.43016  0.021215812  0.020791023           12 
 3145000     0.754468   -7.3175312    800.37453  0.021207592  0.020784723            3 
 3146000   0.75260012   -7.3102195    801.90839  0.021241481  0.020778409            6 
 3147000   0.75228687    -7.306399    801.19932  0.021215955  0.020772141            7 
 3148000   0.73600857    -7.317849    801.24954  0.021210545  0.020765861            7 
 3149000   0.73739907    -7.315766    800.93817  0.021195569  0.020759601            9 
 3150000   0.74029145   -7.2978004    802.97514  0.021242729  0.020753329            9 
 3151000   0.72997435   -7.2983651    802.99715  0.021236569  0.020747069            7 
 3152000   0.74822155   -7.3108172    800.73674   0.02117007  0.020740835            4 
 3153000   0.74724408   -7.2917354    802.82552  0.021218562  0.020734585            5 
 3154000   0.74373534   -7.2964772    803.15478  0.021220534  0.020728306            6 
 3155000   0.74437906   -7.2990166    801.43307  0.021168332  0.020722013            2 
 3156000   0.74963476   -7.3200318    802.47656  0.021189178  0.020715741            8 
 3157000   0.75697872   -7.3052658    802.08083  0.021172021  0.020709476           10 
 3158000   0.74750429   -7.2965639    801.54311  0.021151127  0.020703229           11 
 3159000   0.74365405   -7.3025778      801.293  0.021137834  0.020696976           10 
 3160000   0.76264293   -7.3195827    801.32072  0.021131875  0.020690725            5 
 3161000   0.75679829   -7.3202241    800.76544  0.021110552   0.02068448           10 
 3162000   0.75307461   -7.3059554    802.69773    0.0211548  0.020678225            7 
 3163000   0.72997144   -7.2857172    801.64919  0.021120487  0.020671959            7 
 3164000   0.73795411   -7.3072119    802.48684  0.021135873  0.020665689            5 
 3165000   0.73743969   -7.3352581     801.7004  0.021108489  0.020659418            8 
 3166000   0.74642527   -7.2873364    803.26146  0.021142911  0.020653168            3 
 3167000   0.75058777   -7.2790069    802.94499  0.021127907  0.020646929            5 
 3168000   0.74431464   -7.3185216     803.1475  0.021126565  0.020640706            9 
 3169000   0.74406911   -7.2802952    804.62817  0.021158835  0.020634469            6 
 3170000   0.73672167   -7.3138339    801.97055  0.021082296  0.020628258            5 
 3171000   0.75073895   -7.2957975    801.68831  0.021068231  0.020622015           11 
 3172000   0.73969887   -7.2962897    801.99833  0.021069733  0.020615739            5 
 3173000   0.73082434   -7.3533618     801.0228  0.021037472  0.020609463           11 
 3174000   0.71806388   -7.3290026    800.14298  0.021007745  0.020603162            9 
 3175000   0.74695952   -7.3284964    802.00373  0.021049967  0.020596882            8 
 3176000   0.74186796   -7.3142085    801.04058  0.021018067  0.020590619           11 
 3177000   0.74001453   -7.3301575    801.83592  0.021032314  0.020584367           26 
 3178000   0.75748876   -7.3090755    803.42254    0.0210673  0.020578133            9 
 3179000   0.72768878   -7.3215822    801.99005  0.021023122  0.020571919           16 
 3180000   0.73887195    -7.317323    800.35764  0.020973733  0.020565688           13 
 3181000   0.73394621   -7.3197308    801.76593  0.021004033  0.020559468           10 
 3182000   0.73774028   -7.3311228    803.07113  0.021031614  0.020553246            8 
 3183000   0.72581389   -7.3222055    803.40704    0.0210338  0.020547017           13 
 3184000   0.73390856   -7.3259566    801.84748  0.020986377  0.020540766           21 
 3185000   0.75008355    -7.324724    802.40618  0.020994405  0.020534523            9 
 3186000   0.74596771   -7.3043842    803.11164  0.021006268  0.020528281            8 
 3187000   0.74017979   -7.3282154    803.00309  0.020996838   0.02052206            4 
 3188000   0.74565489   -7.3222521    803.80188  0.021011132  0.020515872            6 
 3189000   0.75046808   -7.2696627    803.30054  0.020991443  0.020509692           10 
 3190000   0.75082831   -7.2942917    803.95766  0.021002029  0.020503526            8 
 3191000   0.74619965   -7.3108315    803.48992  0.020983232  0.020497338            3 
 3192000   0.74286265   -7.2924719    804.03856  0.020990982  0.020491152            7 
 3193000   0.74199559   -7.3410323    804.86148  0.021005885  0.020484975            8 
 3194000   0.74374799   -7.3208451    803.88118  0.020973732  0.020478794            3 
 3195000   0.73940359   -7.3105762     805.6425  0.021013106  0.020472625           16 
 3196000   0.73734049   -7.2995197    803.35636  0.020946922  0.020466461           20 
 3197000   0.76470035   -7.3061319    803.43831  0.020942506  0.020460284           11 
 3198000   0.73681833   -7.3068706    803.58554  0.020939794  0.020454088            9 
 3199000   0.73286204   -7.3139679    802.28806  0.020899449  0.020447878            6 
 3200000   0.71663426   -7.3071003    802.65131  0.020902378  0.020441684            9 
 3201000   0.73152007   -7.3106478     803.4945  0.020917799  0.020435463            7 
 3202000   0.72541635   -7.3074991    804.81161  0.020945545  0.020429243            6 
 3203000   0.73245995   -7.3384313    804.23685  0.020924052  0.020423037            6 
 3204000   0.73748389   -7.3017505    803.93668  0.020909714  0.020416848            8 
 3205000   0.73822584   -7.3015963    805.23301  0.020936896  0.020410677           17 
 3206000   0.74889995   -7.3277206    803.82332  0.020893723  0.020404521           14 
 3207000   0.73811504   -7.3237474    804.23982  0.020898031  0.020398334            9 
 3208000   0.73102755   -7.3302158    804.55667  0.020899747  0.020392131            9 
 3209000   0.76043976   -7.3371576    803.26564  0.020859708  0.020385938           19 
 3210000   0.74148973   -7.3344432    805.24155  0.020904505  0.020379757           15 
 3211000    0.7331981   -7.3121145    804.34466  0.020874719  0.020373594           10 
 3212000    0.7251045   -7.3236313    803.14655  0.020837136   0.02036742            6 
 3213000   0.76448324   -7.3479949    803.76177  0.020846607  0.020361219            8 
 3214000   0.74487866   -7.3570186      803.471  0.020832581  0.020355022            7 
 3215000   0.73988847   -7.3481841    804.07445  0.020841743  0.020348821            4 
 3216000   0.73557939   -7.3088709    803.47274  0.020819671  0.020342623            8 
 3217000    0.7288188   -7.3319708    803.94748  0.020825497  0.020336457            6 
 3218000   0.73612729   -7.3186684    803.36862  0.020804035  0.020330287           14 
 3219000   0.74322296   -7.3380342    804.81622  0.020835048  0.020324119           21 
 3220000   0.76004622   -7.3367597    804.22505  0.020813278  0.020317955            6 
 3221000   0.73314194   -7.3116927    803.28745  0.020782558  0.020311822           11 
 3222000   0.74675319   -7.3103099    804.32252  0.020802879  0.020305677            5 
 3223000   0.74112523   -7.3176279    803.58595   0.02077738  0.020299538            5 
 3224000   0.72498027   -7.2959387    804.81486    0.0208027  0.020293358            8 
 3225000   0.72817225   -7.3167484    805.13628  0.020804555  0.020287201           11 
 3226000    0.7380106   -7.3361442    804.70491  0.020786963  0.020281027           10 
 3227000   0.71243598   -7.3291374    806.08626  0.020816193  0.020274858            7 
 3228000   0.74687478   -7.3337709    804.09255  0.020758275  0.020268702           13 
 3229000   0.74915389    -7.350083    804.35596  0.020758644   0.02026252            6 
 3230000   0.72135944    -7.350224    805.31378  0.020776929  0.020256338            9 
 3231000   0.73549292   -7.3294747    804.54094  0.020750566  0.020250158            5 
 3232000   0.74054705   -7.3078731    803.76887  0.020724239  0.020244007            5 
 3233000   0.74214117   -7.3406428    803.57263   0.02071277   0.02023785            9 
 3234000   0.74056814   -7.3445194    804.78787   0.02073768  0.020231675            5 
 3235000   0.75699346   -7.3394758    805.09684  0.020739228  0.020225506            9 
 3236000   0.73063865   -7.3257859    803.76895  0.020698624  0.020219359           16 
 3237000   0.74003357   -7.3143908    805.92927  0.020747845  0.020213214            7 
 3238000   0.72297147   -7.3310898    804.07851  0.020693806  0.020207074           10 
 3239000   0.73199432   -7.3174565    803.60967  0.020675354  0.020200912           13 
 3240000   0.73165172   -7.3308871    804.70035  0.020697025  0.020194755            8 
 3241000   0.72527968   -7.3685431    804.31635  0.020680766  0.020188585            6 
 3242000   0.74494776   -7.3363969    805.68109  0.020709467  0.020182416           11 
 3243000   0.73123334   -7.3420545    804.24843  0.020666267  0.020176248            8 
 3244000   0.73306316   -7.3362658    804.91555  0.020677033  0.020170104            9 
 3245000   0.72721794   -7.3350468    804.34823  0.020656092  0.020163942           15 
 3246000   0.72069866   -7.3220192    805.50925  0.020679535  0.020157802           12 
 3247000   0.72131239   -7.3123722    805.23956  0.020666245  0.020151693            8 
 3248000   0.71305949     -7.31785    806.11556  0.020682357  0.020145601            8 
 3249000   0.72607381   -7.3324178     804.5566  0.020636006  0.020139476            4 
 3250000   0.73210087   -7.3389607    807.72978   0.02071102  0.020133369            6 
 3251000    0.7179896   -7.3207094    803.13536   0.02058688  0.020127264            9 
 3252000   0.72247086   -7.3324656    806.60296  0.020669407  0.020121157            6 
 3253000   0.74718621    -7.344983    803.44863  0.020582248  0.020115037            7 
 3254000   0.71246969   -7.3407946     804.8287  0.020611266    0.0201089            7 
 3255000   0.72181001   -7.3471197    805.95221  0.020633697  0.020102788            4 
 3256000   0.74110159   -7.3514444     806.5303  0.020642156  0.020096677            8 
 3257000   0.73704918     -7.33176    806.58153  0.020637129  0.020090573            3 
 3258000   0.73468357   -7.3122869    806.28028  0.020623089  0.020084451            7 
 3259000   0.72721845   -7.3450008    803.97503  0.020557815  0.020078325            4 
 3260000    0.7283736   -7.3468659    805.08728  0.020579941  0.020072216            7 
 3261000   0.71394553   -7.3502369    804.21078  0.020551231  0.020066112            8 
 3262000   0.72855793   -7.3385374     806.8713  0.020612899   0.02005998            7 
 3263000   0.73434596   -7.3477125    804.64377  0.020549693  0.020053853            8 
 3264000   0.71019362   -7.3611235     805.1805    0.0205571  0.020047729           11 
 3265000    0.7430917   -7.3060095    806.35171  0.020580697  0.020041613            7 
 3266000   0.72746154    -7.312394    805.07707  0.020541873  0.020035526            5 
 3267000   0.71679634   -7.3435614    804.38979  0.020518054  0.020029418            3 
 3268000   0.74530142   -7.3582789    805.54874  0.020541329  0.020023305            8 
 3269000   0.73928759   -7.3604435    804.94819  0.020519736  0.020017182            8 
 3270000   0.73189849   -7.3217201    804.93909  0.020513229  0.020011023            7 
 3271000   0.71108362   -7.3124013    806.15552  0.020537948  0.020004929            5 
 3272000   0.74464214   -7.3513939    805.89802  0.020525112  0.019998837            5 
 3273000   0.73483694   -7.3178651    805.95544  0.020520303  0.019992755            4 
 3274000   0.74221168   -7.3415877    806.47311  0.020527212  0.019986665            8 
 3275000   0.72078364   -7.3263742    806.29433  0.020516395  0.019980561            6 
 3276000   0.73249066   -7.3424211    805.66127  0.020494029  0.019974478            5 
 3277000   0.72604361   -7.3170527    805.79436   0.02049116  0.019968393            7 
 3278000   0.72515343   -7.3484858    805.27852  0.020471795   0.01996228            4 
 3279000   0.72779036   -7.3272507    806.01154  0.020484181  0.019956186            4 
 3280000   0.73599049   -7.3653803    804.23411  0.020432777  0.019950067           10 
 3281000   0.72628298    -7.352722    806.38634  0.020481213  0.019943961            8 
 3282000   0.72359887   -7.3487033    806.37214  0.020474613  0.019937872            7 
 3283000   0.72883404   -7.3756017    804.90586  0.020431157  0.019931757            3 
 3284000   0.72256804    -7.346087    807.94764  0.020502122  0.019925656            4 
 3285000   0.72556712   -7.3406338    807.48864  0.020484237  0.019919577            5 
 3286000   0.71862166     -7.32904    806.39597  0.020450294  0.019913532           15 
 3287000   0.72842578   -7.3322777    808.45197  0.020496196  0.019907469            6 
 3288000   0.72898689   -7.3404607    805.74222  0.020421285  0.019901407            5 
 3289000   0.74922146   -7.3241865    805.76666  0.020415695  0.019895371            5 
 3290000   0.73471016   -7.3328229     808.1066  0.020468759   0.01988933           13 
 3291000   0.71779029   -7.3132611    807.36611  0.020443789  0.019883286           16 
 3292000   0.73444554   -7.3611929    806.55699  0.020417097  0.019877237           13 
 3293000   0.70910883   -7.3392321    806.26259  0.020403446  0.019871189            8 
 3294000   0.72183808    -7.342522     805.3811  0.020374952  0.019865139           15 
 3295000    0.7336303   -7.3412343    806.73028   0.02040289  0.019859078            9 
 3296000   0.73350383   -7.3655593    807.23216  0.020409389  0.019853019            8 
 3297000   0.73703122     -7.35984    806.24322  0.020378203   0.01984695            6 
 3298000   0.69766877   -7.3595619    806.73877  0.020384545  0.019840879           17 
 3299000    0.7352997    -7.348052    805.76177  0.020353687  0.019834798            7 
 3300000   0.72606264   -7.3485006    806.66489  0.020370325  0.019828741           10 
 3301000   0.72440974   -7.3684688    805.78727  0.020341999   0.01982267           13 
 3302000   0.71595287   -7.3293716    806.58091  0.020355868  0.019816606            9 
 3303000   0.71719308   -7.3541217    808.48562   0.02039776  0.019810542            8 
 3304000   0.73598278   -7.3672732    807.76097  0.020373309  0.019804497           11 
 3305000   0.71647562   -7.3490354    806.90708  0.020345615  0.019798427           14 
 3306000   0.71701965   -7.3498838    804.76563  0.020285482  0.019792363           15 
 3307000   0.71640392   -7.3487219    807.58264  0.020350334  0.019786326           22 
 3308000   0.71783799   -7.3577183    807.05028  0.020330771  0.019780265            7 
 3309000   0.72524773   -7.3816689    807.29644  0.020330826  0.019774202            9 
 3310000   0.73521032   -7.3619956    807.15948  0.020321236  0.019768144            7 
 3311000   0.71903455   -7.3553678    807.56103  0.020325205  0.019762111            5 
 3312000   0.73033556   -7.3560413    807.22125  0.020310519  0.019756053            5 
 3313000   0.71278225   -7.3358493    805.93088  0.020271931  0.019749985            6 
 3314000   0.72379691   -7.3724766    806.22913  0.020273314  0.019743901           13 
 3315000   0.71683708   -7.3755849    807.61498  0.020302036  0.019737804            6 
 3316000   0.71205814   -7.3608605    806.30829  0.020263075  0.019731702            8 
 3317000    0.7258701   -7.3838222    806.56308  0.020263368  0.019725619            7 
 3318000   0.72486241   -7.3786002     805.7331  0.020236415  0.019719536            7 
 3319000   0.72249952   -7.3588612    806.52194  0.020250124  0.019713446            7 
 3320000   0.71820527   -7.3759579     806.7016  0.020248534  0.019707352            7 
 3321000   0.72523348   -7.3467449    806.39902  0.020234844  0.019701283            9 
 3322000    0.7207982   -7.3682688    807.04207  0.020244884   0.01969521            5 
 3323000   0.70023782   -7.3763266    804.80594  0.020182715  0.019689141           10 
 3324000   0.71640828   -7.3672574    805.92425  0.020204679  0.019683063            3 
 3325000   0.72087218   -7.3774673    807.76944  0.020244848  0.019677002            4 
 3326000   0.72349839    -7.358609    807.46331  0.020231091  0.019670932            5 
 3327000   0.72285225   -7.3632141    807.19683  0.020218336  0.019664875           15 
 3328000   0.71086266   -7.3773372    806.44604  0.020193461  0.019658803           11 
 3329000   0.71743594   -7.4052575    805.96625  0.020175384  0.019652732           12 
 3330000   0.71892243   -7.3785445    806.11794  0.020173122  0.019646641            8 
 3331000   0.71623051   -7.3819232     805.9652  0.020163244  0.019640556            9 
 3332000   0.71869367   -7.3778645    806.53803  0.020171519  0.019634466            9 
 3333000   0.72059683   -7.3708535    806.84048  0.020173029  0.019628389            8 
 3334000   0.72904337   -7.3746418    805.01515  0.020121355  0.019622309           12 
 3335000   0.72926636   -7.3503248    806.85177  0.020161214  0.019616235            9 
 3336000   0.72171853   -7.3675891    807.91556  0.020181744  0.019610154            6 
 3337000   0.72163168   -7.3440015    807.20854   0.02015804  0.019604068            8 
 3338000   0.71498359   -7.3639669    806.03569   0.02012272  0.019597977            9 
 3339000   0.72728079   -7.3815052    805.99583  0.020115699  0.019591895            7 
 3340000   0.73227762   -7.3413562     805.9095  0.020107522  0.019585806           14 
 3341000   0.72979158   -7.3648999    805.69076  0.020096048  0.019579712            9 
 3342000   0.72576384   -7.3589276    805.24094  0.020078819  0.019573651           13 
 3343000   0.71300965   -7.3467589    806.09502  0.020094103  0.019567595           16 
 3344000   0.72734846   -7.3736167    805.55144  0.020074548  0.019561554            6 
 3345000   0.70855915    -7.381578    806.62205  0.020095218   0.01955549            7 
 3346000   0.72500388   -7.3809576    807.07792  0.020100566   0.01954943            3 
 3347000   0.71303137   -7.3865598     806.0013  0.020067755   0.01954336           10 
 3348000    0.7209576   -7.3672239    806.13084  0.020064985  0.019537284            7 
 3349000   0.73118333   -7.3774178    807.53495  0.020093932  0.019531208            7 
 3350000   0.72328887   -7.3841289    806.85447  0.020071007   0.01952513           12 
 3351000   0.70803004   -7.4012056    805.85026  0.020040044  0.019519065            5 
 3352000   0.71378541   -7.3672799    806.76192   0.02005673  0.019512978            6 
 3353000   0.71327537   -7.3934681    807.36577  0.020065756  0.019506896            6 
 3354000    0.7158331   -7.3755028    806.29295  0.020033118  0.019500804           12 
 3355000   0.72192021   -7.3789331    807.16289  0.020048755  0.019494734            7 
 3356000   0.70976785   -7.3828189    804.99602  0.019988975  0.019488669           14 
 3357000   0.73173896   -7.3722482    807.29986  0.020040211  0.019482614           14 
 3358000   0.71254594   -7.3374041    808.65892   0.02006797  0.019476578           16 
 3359000   0.71721072   -7.3756036    805.33633  0.019979565  0.019470521            7 
 3360000   0.72068087   -7.3913165    806.20252  0.019995102  0.019464457           15 
 3361000     0.707473   -7.3796662    807.33054  0.020017121  0.019458392            9 
 3362000   0.72644076    -7.355809    807.27023  0.020009673  0.019452335            6 
 3363000   0.70037833   -7.3782607    805.76779  0.019966493   0.01944628            4 
 3364000   0.71978507   -7.3555734    807.19685  0.019995959   0.01944025            7 
 3365000   0.71487845   -7.3965588    805.62896  0.019951188  0.019434224           10 
 3366000   0.70824918   -7.3902928    807.10855  0.019981891  0.019428195            7 
 3367000   0.70153436   -7.3669383     808.0259  0.019998661  0.019422167           13 
 3368000   0.71012223   -7.3722615     808.3339  0.020000344  0.019416135            7 
 3369000   0.71553314   -7.3840226    809.09142  0.020013145  0.019410112           10 
 3370000   0.71009962   -7.3754228    807.13416  0.019958807  0.019404093            6 
 3371000   0.71506559   -7.3908972    808.64685  0.019990281  0.019398062           11 
 3372000   0.71267578   -7.3865099    807.07961  0.019945621  0.019392036           16 
 3373000   0.70939796   -7.4049237    808.81523  0.019982588  0.019386007            8 
 3374000   0.72237864   -7.3671356    806.51519  0.019919858  0.019379972           15 
 3375000   0.70589713    -7.391392    807.88998  0.019947901  0.019373954            8 
 3376000   0.69734395   -7.3701353    807.48348  0.019931958  0.019367943           19 
 3377000   0.70994195    -7.378027    807.80836  0.019934073  0.019361935           16 
 3378000   0.71014714   -7.4198601    805.63054  0.019874446  0.019355909           11 
 3379000   0.71520354   -7.3831208    806.45416  0.019888876  0.019349865           12 
 3380000   0.71751334   -7.3827324    808.44291  0.019932025   0.01934384            9 
 3381000   0.70743548   -7.3876449    807.51446  0.019903245  0.019337827            6 
 3382000   0.71023084   -7.4124459    806.39787  0.019869847  0.019331811           14 
 3383000   0.70902115   -7.4096366    807.04936  0.019880022  0.019325773           13 
 3384000   0.71349052   -7.3942981    808.95515  0.019921078  0.019319749           16 
 3385000   0.70458726   -7.4004118    805.89625  0.019839888  0.019313709           10 
 3386000   0.69876626   -7.4414251    806.40883  0.019846644  0.019307646           15 
 3387000   0.71971955   -7.4143339    806.02441  0.019831326  0.019301605            7 
 3388000   0.71277143   -7.3873888    808.99215  0.019898469  0.019295595            8 
 3389000   0.72075227    -7.391694     809.5047  0.019905201  0.019289575           10 
 3390000   0.72580797   -7.4003448    806.77389    0.0198322  0.019283565            9 
 3391000   0.71313961   -7.3801862    807.27003  0.019838544  0.019277548           44 
 3392000   0.71100665   -7.4151897    806.78998  0.019820902  0.019271546            7 
 3393000   0.73586429   -7.3803805    805.68248  0.019787859   0.01926554           10 
 3394000   0.70668533   -7.3832172    807.50864  0.019826867  0.019259533            7 
 3395000   0.70882636    -7.405263    809.26514  0.019864142  0.019253511            8 
 3396000   0.72154204   -7.4029718     806.9735  0.019802059  0.019247505           12 
 3397000    0.7146723   -7.4167626    806.99863  0.019796846    0.0192415           23 
 3398000   0.70147133    -7.418073    806.07462  0.019768359  0.019235487           16 
 3399000    0.7017448   -7.3625291    806.72949  0.019778599  0.019229479           15 
 3400000   0.71129506   -7.3779015    807.41925  0.019789687  0.019223468            7 
 3401000   0.68878286   -7.3602895    807.11783  0.019776483  0.019217486            9 
 3402000   0.72139552   -7.3779748    806.88701  0.019765016  0.019211504            7 
 3403000   0.71663881   -7.3632693    807.45306  0.019773069  0.019205508           10 
 3404000   0.72285211   -7.3777065    807.33739  0.019764429  0.019199521            7 
 3405000   0.71213161   -7.3825408    806.78258  0.019745046  0.019193543           17 
 3406000   0.71172944   -7.4104961    807.97525  0.019768429  0.019187527            6 
 3407000   0.69783186   -7.3973685    806.85545  0.019735238  0.019181505           11 
 3408000   0.70342536   -7.3994839    808.29485  0.019764643   0.01917549           19 
 3409000   0.70760168   -7.3798007    807.18557  0.019731729  0.019169472           13 
 3410000   0.70942189   -7.4181008     807.5941  0.019735926  0.019163456           10 
 3411000   0.70915096   -7.4108458    806.48505  0.019703045  0.019157428            8 
 3412000   0.71705549   -7.3903038    808.15829  0.019738137  0.019151435            6 
 3413000   0.69595662   -7.4319243     806.7133  0.019697072  0.019145411            6 
 3414000   0.70979457   -7.3944014    805.14984   0.01965314  0.019139398           11 
 3415000   0.70887447   -7.3764629    806.72687  0.019685868  0.019133389            5 
 3416000   0.71474362   -7.3863115    806.10936  0.019665041  0.019127384            7 
 3417000   0.70390506   -7.3906021    806.40785  0.019666565  0.019121371           13 
 3418000    0.7117277   -7.4142559    808.15776  0.019703476  0.019115378            7 
 3419000   0.70349879   -7.4208008    807.91419  0.019691776  0.019109407            8 
 3420000    0.7234194   -7.4062566    807.81853  0.019683687  0.019103438            6 
 3421000   0.71884589   -7.4062502    807.75194  0.019676311  0.019097452           10 
 3422000   0.70087269   -7.4071524    805.95058  0.019626694  0.019091484           10 
 3423000    0.6876036   -7.3935844    809.27035  0.019701781  0.019085521           17 
 3424000   0.70484466   -7.3979757    807.80751  0.019660424  0.019079563           11 
 3425000    0.7079258   -7.4225521    809.91521  0.019705966  0.019073625           18 
 3426000   0.69664427   -7.4001018    810.00708  0.019702449  0.019067702           17 
 3427000   0.70287819   -7.4179052    809.29149  0.019679299  0.019061768           13 
 3428000     0.693513   -7.4046796    806.66908  0.019609808  0.019055831            9 
 3429000   0.69511664    -7.401413      809.576  0.019674735  0.019049917            6 
 3430000   0.69555259   -7.3953555    807.80526  0.019625978  0.019044002           19 
 3431000   0.71632499   -7.3917888    808.21672  0.019630252  0.019038088            6 
 3432000   0.71654846   -7.4161123    810.68317  0.019684421  0.019032174           16 
 3433000   0.70253318   -7.4098797    808.97527  0.019637229  0.019026264            6 
 3434000    0.6955292   -7.4021789    808.80977  0.019627494   0.01902035            8 
 3435000   0.71322663   -7.4129621    808.58764  0.019616391  0.019014446            7 
 3436000   0.69854522   -7.4144596    808.32177  0.019604234  0.019008533           11 
 3437000    0.7017443   -7.4323699    809.27655   0.01962168  0.019002609           17 
 3438000   0.70507809   -7.4046539    808.60444  0.019599681  0.018996697           34 
 3439000   0.69234033   -7.4024702    809.07706  0.019605434  0.018990782           12 
 3440000   0.69820884   -7.4023721    807.91581  0.019571604  0.018984871           21 
 3441000   0.69712467   -7.4110892    808.34903  0.019576408  0.018978967           18 
 3442000   0.68872047    -7.424935     808.8692  0.019583314  0.018973056           23 
 3443000   0.68855826   -7.4294433    807.73265  0.019550118  0.018967137           24 
 3444000   0.69305053   -7.4245308    807.78735  0.019545764  0.018961205            7 
 3445000   0.71327717   -7.4062378    807.44525  0.019531816  0.018955268           10 
 3446000   0.70218922   -7.4349942    809.25371  0.019569881  0.018949354           11 
 3447000   0.69740364   -7.3986422    809.00841  0.019558273  0.018943428            9 
 3448000   0.69313633   -7.4195958    810.08782  0.019578689  0.018937556            9 
 3449000   0.69338932   -7.4020594     808.0176  0.019522992  0.018931662           32 
 3450000   0.68675505   -7.4146254     809.1333  0.019544283  0.018925754           22 
 3451000   0.69559786   -7.3917629    808.61512  0.019526106  0.018919864           14 
 3452000   0.70095487    -7.398729    810.13308  0.019557094  0.018913988            8 
 3453000   0.69977504   -7.4093452    808.75562  0.019518188  0.018908116           13 
 3454000    0.7109035   -7.4065833    809.76641  0.019536923   0.01890225           12 
 3455000   0.69356548     -7.38647    810.31022  0.019544385  0.018896402           17 
 3456000   0.69368535   -7.4089774    808.20652  0.019488004  0.018890554           28 
 3457000   0.70014256   -7.4136551    809.61606  0.019516345   0.01888469           26 
 3458000   0.70335634   -7.4130664    809.15497   0.01949959  0.018878826            6 
 3459000   0.68196175   -7.4258167    811.65823   0.01955426  0.018872952           18 
 3460000   0.71491995   -7.4217173    809.19278  0.019489229  0.018867091           20 
 3461000   0.70700123    -7.430787    809.35914  0.019487603  0.018861204           16 
 3462000    0.7115007   -7.4363049    807.14082  0.019428577  0.018855306           15 
 3463000   0.69671895    -7.408371    808.63028  0.019458809  0.018849408           23 
 3464000   0.70206493    -7.428174    809.52435    0.0194747  0.018843531           12 
 3465000   0.67746292   -7.4115979    810.24733  0.019486468  0.018837644           11 
 3466000   0.69914071   -7.4148411    809.63889  0.019466217  0.018831786            5 
 3467000   0.70166116   -7.4084267    810.36131  0.019477966  0.018825927            9 
 3468000   0.69616107   -7.4112408    809.70482  0.019456575  0.018820049            9 
 3469000   0.69203438   -7.4272953    809.32563  0.019441857   0.01881418           17 
 3470000   0.69174612   -7.3979183    809.30513  0.019435762  0.018808336           15 
 3471000   0.70721988   -7.4480809    808.85852   0.01941944  0.018802473           10 
 3472000   0.68232639   -7.4505748    808.77081  0.019411742  0.018796597           10 
 3473000   0.69806132    -7.432768    809.67089  0.019427749  0.018790722            9 
 3474000   0.70045543   -7.4335145    808.99266  0.019405888  0.018784855           11 
 3475000   0.70234519   -7.4428014    808.67184   0.01939261  0.018778976           10 
 3476000    0.6898435   -7.4235319    808.36808  0.019379749  0.018773107            8 
 3477000   0.68615098   -7.4083544    808.16977  0.019369422  0.018767251            8 
 3478000   0.70131588   -7.3814297    810.17904  0.019411995  0.018761407           14 
 3479000   0.68860709   -7.4030686    809.82767  0.019397999  0.018755575           11 
 3480000   0.69190189   -7.4133644    810.37894  0.019405626  0.018749736            9 
 3481000   0.70029417   -7.4368817     807.9491  0.019341882  0.018743899           11 
 3482000    0.6998228   -7.4337263    809.38852  0.019370776  0.018738047            6 
 3483000   0.70574034   -7.4209893    809.01416  0.019356258  0.018732203           11 
 3484000   0.69259004   -7.4262856    810.03855  0.019375205  0.018726367           19 
 3485000   0.67798482    -7.404068    811.68764  0.019409078  0.018720537           21 
 3486000   0.69020401   -7.4345007    809.80181  0.019358429  0.018714709           17 
 3487000    0.6805545     -7.42062    809.44178  0.019344273   0.01870887           13 
 3488000   0.68697667   -7.4223399     808.5674  0.019317837  0.018703029           15 
 3489000    0.6982354   -7.4659418    807.87945  0.019295869  0.018697168           11 
 3490000   0.69134699   -7.4626651    809.45492  0.019327959  0.018691321           14 
 3491000   0.69602359   -7.4688388    808.20393   0.01929256  0.018685483           11 
 3492000   0.68500591   -7.4307952    811.41791  0.019363734  0.018679643            6 
 3493000   0.68940382   -7.4413207     811.2496  0.019354175  0.018673824            8 
 3494000   0.69627639   -7.4235208    810.03149  0.019319583  0.018668009            7 
 3495000   0.68424918   -7.4281585    811.50292   0.01934914  0.018662198           10 
 3496000   0.68753021   -7.4186168    810.96363   0.01933075  0.018656382            9 
 3497000   0.69422502   -7.4336722    809.03969  0.019279375  0.018650576           10 
 3498000    0.6938029   -7.4582081    808.67218  0.019265108  0.018644754            7 
 3499000   0.70285953   -7.4144964    810.46983  0.019302416  0.018638949            7 
 3500000   0.69016313     -7.43047     809.6073  0.019276364  0.018633142            9 
 3501000   0.69702569   -7.4327212    810.01061  0.019280458  0.018627332           10 
 3502000   0.70132518   -7.4260615    810.95279  0.019297373   0.01862149           10 
 3503000   0.69241096   -7.4006711    810.30975  0.019276566  0.018615663            8 
 3504000   0.68898265   -7.4597565    808.90589  0.019237678  0.018609847           12 
 3505000   0.70761635   -7.4133789    811.40135  0.019291521  0.018604015            7 
 3506000   0.69126405   -7.4337036    807.53938  0.019194224  0.018598179            6 
 3507000   0.68407614   -7.4549534    808.63971  0.019214897  0.018592335           13 
 3508000   0.70345125    -7.439316    809.22662  0.019223361  0.018586495            9 
 3509000   0.68302428   -7.4345956     807.5804  0.019178788   0.01858065           21 
 3510000   0.70210737   -7.4510114    809.06555  0.019208584  0.018574807            9 
 3511000   0.68878374   -7.4458559    808.33795  0.019185843  0.018568978           10 
 3512000   0.69123913   -7.4402844    810.03872  0.019220737  0.018563161           19 
 3513000   0.69296717   -7.4278759     810.8962  0.019235606  0.018557351           20 
 3514000   0.68045735   -7.4435528    810.67569  0.019224903  0.018551533           15 
 3515000   0.67584754   -7.4182317     810.5458  0.019216354  0.018545725            8 
 3516000   0.69689162   -7.4404917    808.77109  0.019168826  0.018539918           24 
 3517000   0.69027966   -7.4434667    810.56599  0.019205904  0.018534131           39 
 3518000   0.69004637    -7.433865    810.30052  0.019194157  0.018528332           27 
 3519000   0.68509659   -7.4352961    811.12667  0.019208266  0.018522553           20 
 3520000   0.68414085   -7.4302051    810.09934  0.019178488  0.018516798           12 
 3521000   0.67468645   -7.4274883    809.83489  0.019166782  0.018511018           14 
 3522000   0.67805209   -7.4358074    807.88295  0.019115156  0.018505223           10 
 3523000   0.69664626   -7.4194079    810.02053  0.019160293  0.018499444            8 
 3524000   0.69295237    -7.450609    811.44845  0.019188622  0.018493661           18 
 3525000   0.69083644   -7.4554848    811.24878  0.019178458  0.018487891            9 
 3526000   0.68932488   -7.4339999    811.42871  0.019177271   0.01848209            9 
 3527000   0.68121096   -7.4519478    808.85928  0.019111126  0.018476289           18 
 3528000   0.68479807    -7.435877    809.13099  0.019112126  0.018470491           11 
 3529000   0.68727233   -7.4471218    809.19724  0.019108275  0.018464695            9 
 3530000   0.68673244   -7.4446317    809.20731    0.0191031    0.0184589           13 
 3531000   0.68100285   -7.4458435    810.17208  0.019120459  0.018453132           19 
 3532000   0.69718586   -7.4364751    810.38559  0.019120083  0.018447371           11 
 3533000   0.71066459   -7.4429775    809.44614  0.019092512  0.018441605            9 
 3534000    0.6909913   -7.4481066    810.20653   0.01910504  0.018435849            8 
 3535000   0.68633794   -7.4311771    810.18026  0.019099016  0.018430076           13 
 3536000   0.68825309   -7.4264069    810.62322  0.019104054  0.018424318           13 
 3537000   0.68621593    -7.465632    810.41636  0.019093779  0.018418556            7 
 3538000   0.66956047   -7.4286771    810.35886  0.019087028  0.018412799            8 
 3539000   0.66723797   -7.4455319    811.28712  0.019103493  0.018407043           17 
 3540000   0.67819354   -7.4344124    813.73742  0.019155777  0.018401282           18 
 3541000   0.68366796   -7.4213051    811.58175  0.019099636  0.018395532           17 
 3542000   0.67541567   -7.4373662    810.73787   0.01907439  0.018389798           11 
 3543000   0.67029626   -7.4305549    811.44319  0.019085596  0.018384064           10 
 3544000   0.68292636   -7.4412738    811.71966  0.019086711  0.018378333            8 
 3545000   0.68334673   -7.4288132    810.88123  0.019061618  0.018372599           10 
 3546000   0.67144688   -7.4328036    811.48123  0.019070343  0.018366861           21 
 3547000   0.67759808   -7.4575848    812.41231  0.019086841  0.018361125           11 
 3548000   0.67217815   -7.4620755     810.1495  0.019028314  0.018355405            9 
 3549000   0.68983089   -7.4655404    811.09684  0.019045197  0.018349673            7 
 3550000   0.67948656   -7.4428646    809.88105  0.019011292  0.018343951           10 
 3551000   0.65964392   -7.4483565    809.37059  0.018993959  0.018338211           13 
 3552000   0.68842851   -7.4619339    811.72041  0.019043741  0.018332477            8 
 3553000   0.68518609   -7.4508186    810.88053  0.019018682   0.01832677            5 
 3554000   0.69334257   -7.4709012    812.21368   0.01904459  0.018321039            4 
 3555000   0.68840529   -7.4369409    813.18981  0.019062115   0.01831532            8 
 3556000    0.6669496   -7.4795226    811.56875  0.019018765  0.018309586           14 
 3557000   0.68163197   -7.4499475    811.94891  0.019022325  0.018303848           24 
 3558000   0.68787104   -7.4693189    809.66352  0.018963451  0.018298105           12 
 3559000   0.68265217   -7.4457897    811.00984  0.018989647  0.018292373           10 
 3560000   0.67510888    -7.459885    812.71592  0.019024249  0.018286656           12 
 3561000   0.69119509   -7.4411796    810.27857  0.018961869  0.018280959           11 
 3562000   0.68047678   -7.4518411    810.48597  0.018961398  0.018275255           15 
 3563000   0.67803316   -7.4538708    810.91353  0.018966076  0.018269543            5 
 3564000   0.67744786   -7.4514749    809.21391  0.018921014  0.018263813           10 
 3565000   0.67176582   -7.4540273    810.74905  0.018951591   0.01825809            9 
 3566000   0.67382726   -7.4690379    810.12909  0.018931789  0.018252365           12 
 3567000   0.68198048    -7.431673    811.25774  0.018952849  0.018246643           13 
 3568000   0.67488649   -7.4460798    811.75427  0.018959134  0.018240932           10 
 3569000    0.6648268   -7.4450993    810.77678  0.018930998  0.018235229           11 
 3570000   0.68004073   -7.4543598    810.25737  0.018913571  0.018229526           19 
 3571000   0.67058376   -7.4744543    810.26535   0.01890846  0.018223813            9 
 3572000   0.70092085   -7.4660284    812.48883   0.01895504  0.018218103            9 
 3573000   0.67189249   -7.4656047     810.1378  0.018894902  0.018212389           11 
 3574000   0.69566913   -7.4347695    813.62378  0.018970896  0.018206696           14 
 3575000   0.69126165   -7.4374237    814.05146  0.018975558  0.018200999           10 
 3576000   0.68203141   -7.4146337    811.96113   0.01892154  0.018195326            7 
 3577000   0.68757755   -7.4453504    811.93877  0.018915729  0.018189659           10 
 3578000   0.65412807   -7.4386068    813.29416   0.01894201  0.018183996           11 
 3579000   0.68326089   -7.4594754    811.80681  0.018902087  0.018178319           14 
 3580000   0.68889085   -7.4538505    813.22917  0.018929915  0.018172639           20 
 3581000   0.70243585    -7.456913    811.48545  0.018884051  0.018166957            7 
 3582000   0.67842875   -7.4606883    814.61539  0.018951596    0.0181613           12 
 3583000   0.67768447    -7.454946    810.52741  0.018851228  0.018155629           15 
 3584000   0.67385852    -7.469579    811.44378  0.018867275  0.018149971            8 
 3585000   0.66894389   -7.4327428    810.71245  0.018845013  0.018144328            7 
 3586000   0.67642537   -7.4465442    811.83029  0.018865735  0.018138685            9 
 3587000   0.67198175   -7.4393543    812.24776  0.018870174  0.018133048           13 
 3588000   0.67489102   -7.4344151    812.44053  0.018869392  0.018127404           22 
 3589000    0.6929979   -7.4491586    813.05535   0.01887841  0.018121759           18 
 3590000   0.68246406   -7.4484338    812.10458  0.018851081  0.018116116           16 
 3591000   0.69240636   -7.4749445    811.37985  0.018829013  0.018110477           13 
 3592000   0.67649836   -7.4390541    810.51744  0.018803764  0.018104827           10 
 3593000   0.67903636   -7.4533316       812.05  0.018834075   0.01809919           13 
 3594000   0.68538164   -7.4538567    811.05394   0.01880574  0.018093528           13 
 3595000   0.66853969   -7.4608577    811.26815  0.018805474  0.018087869           10 
 3596000   0.69555065   -7.4599191    810.48303   0.01878205  0.018082203            5 
 3597000     0.673563    -7.468494    810.49973  0.018777216  0.018076533           10 
 3598000    0.6736547   -7.4727507    811.14763  0.018787003   0.01807086           15 
 3599000   0.68482903   -7.4846287    811.41451  0.018787962  0.018065208           11 
 3600000   0.67450127    -7.493038    811.44176  0.018783374  0.018059538           35 
 3601000   0.68426391   -7.4895377    811.98145  0.018790647  0.018053886           21 
 3602000   0.67843736   -7.4590777    811.36928  0.018771268  0.018048238           14 
 3603000     0.674192   -7.4825475     810.9791  0.018757034  0.018042591           17 
 3604000   0.68885215   -7.4484424    810.92186  0.018750506  0.018036946           14 
 3605000   0.66758739   -7.4730331    813.22955  0.018798649  0.018031303           12 
 3606000   0.67947791   -7.4617274    813.01793  0.018788545  0.018025662           20 
 3607000    0.6696179   -7.4622277    812.69386  0.018775849  0.018020006           16 
 3608000   0.67949758   -7.4529602    812.93384  0.018776188  0.018014368            9 
 3609000   0.67533144   -7.4749485    810.28849  0.018709903  0.018008714           31 
 3610000   0.67911382   -7.4944143    811.62877   0.01873566  0.018003048           34 
 3611000   0.66110797    -7.475045     812.0329  0.018739797  0.017997374           19 
 3612000      0.68278   -7.4922307    811.65734  0.018725945  0.017991737           11 
 3613000   0.67653279   -7.4801275    810.11193  0.018685117  0.017986076           12 
 3614000   0.65130234    -7.513137    810.11255  0.018679961  0.017980399           13 
 3615000   0.66773322   -7.4931958    811.72557  0.018711977  0.017974725           12 
 3616000   0.66030344   -7.4772385    811.25048  0.018695854  0.017969074           13 
 3617000   0.68627177   -7.5047095    811.64813  0.018699846  0.017963433           17 
 3618000   0.66411558   -7.4989984    811.01393   0.01868007  0.017957781           13 
 3619000   0.69048886   -7.4941802    810.57901  0.018664894  0.017952117            9 
 3620000    0.6740438   -7.4854881    810.38626  0.018655301  0.017946456           14 
 3621000    0.6798498   -7.4955467     811.4038  0.018673566  0.017940797           20 
 3622000   0.68488215   -7.4981296    812.06236  0.018683563  0.017935153            7 
 3623000   0.67802011   -7.4749487    811.14594  0.018657327  0.017929499           15 
 3624000   0.67426621    -7.515771    811.69435  0.018664789  0.017923842           10 
 3625000   0.66087633   -7.5030558    812.65273  0.018681672  0.017918176            9 
 3626000   0.66361387    -7.479428    809.92497   0.01861383  0.017912521            9 
 3627000   0.66585397    -7.499075    811.48694  0.018644585  0.017906885            7 
 3628000   0.65909058   -7.4973144    813.24307  0.018679784  0.017901226            9 
 3629000   0.67159757   -7.4704974    812.35597  0.018654266  0.017895562           12 
 3630000   0.66194606   -7.4940416    810.59199  0.018608632  0.017889908            7 
 3631000   0.67285817   -7.5026619    811.53876  0.018625235  0.017884259           13 
 3632000   0.66240498   -7.4783204    811.11029  0.018610276  0.017878605            7 
 3633000   0.65365955   -7.4954679    809.80362  0.018575182  0.017872942            9 
 3634000   0.66316946   -7.4892146    809.38514  0.018560474  0.017867289           10 
 3635000   0.67954137   -7.5186538    810.47613  0.018580379  0.017861634            9 
 3636000   0.65349212   -7.4771515    811.14413  0.018590579  0.017855995           14 
 3637000    0.6693317   -7.5146834    810.80565  0.018577712  0.017850358           21 
 3638000    0.6609462   -7.4922068    811.52622  0.018589111   0.01784473           13 
 3639000   0.66789955   -7.4946588     810.9632  0.018571109  0.017839097           11 
 3640000   0.66785972   -7.5030428    810.50158  0.018555439  0.017833465           18 
 3641000    0.6723309   -7.4735087     810.8965  0.018559382  0.017827843           12 
 3642000   0.66011145   -7.4740792    812.59264  0.018593095  0.017822225           25 
 3643000   0.66193567     -7.48354    812.17124  0.018578352  0.017816636           16 
 3644000   0.66010652   -7.4541273    811.27341  0.018552722  0.017811027           13 
 3645000   0.65916532   -7.4702492    811.57828  0.018554602  0.017805418           13 
 3646000   0.67111946   -7.5086361    811.10144  0.018538614  0.017799807           17 
 3647000   0.67425364   -7.4782065    811.68607   0.01854689  0.017794198           20 
 3648000   0.67996882    -7.468884    812.72729  0.018565591  0.017788589           16 
 3649000   0.67474533   -7.4948974    811.72255  0.018537557  0.017782989           17 
 3650000   0.66265627    -7.500721    813.36641  0.018570009  0.017777393           15 
 3651000   0.66946374   -7.4832556    812.20098  0.018538322  0.017771774           23 
 3652000   0.67985998   -7.4928115     810.9305  0.018504256  0.017766162           13 
 3653000   0.67088767   -7.4953967     812.4327  0.018533459  0.017760567           17 
 3654000   0.66717072   -7.4811859    812.81528  0.018537112   0.01775498           15 
 3655000   0.65939054   -7.4769986    812.26088    0.0185194  0.017749378           13 
 3656000   0.67953048   -7.5170704    810.69865  0.018478726  0.017743771           20 
 3657000    0.6981175   -7.5029704    810.02766  0.018458383  0.017738153           12 
 3658000    0.6709169   -7.4792417    811.80224  0.018493764  0.017732561            8 
 3659000   0.65786602   -7.4581058    811.42502  0.018480118  0.017726971           16 
 3660000   0.68010404   -7.4855802    813.50279  0.018522377  0.017721387           17 
 3661000    0.6531349   -7.4803113    811.91896  0.018481266  0.017715801            8 
 3662000   0.67442799   -7.5077952    812.63261  0.018492459  0.017710213           10 
 3663000    0.6687775   -7.4796171    812.92891  0.018494151  0.017704633            6 
 3664000   0.66246719    -7.485399     810.1998  0.018427033  0.017699043            8 
 3665000   0.65210461   -7.4704336    813.01285  0.018485967   0.01769347            7 
 3666000   0.66619977   -7.4856292    812.56635  0.018470775   0.01768789            7 
 3667000   0.66398473   -7.4941699    812.89667  0.018473245  0.017682313            9 
 3668000   0.67596574   -7.4946308    811.90894  0.018445768  0.017676745            7 
 3669000   0.66686797   -7.4847784    814.09706  0.018490439  0.017671175            8 
 3670000   0.67367578   -7.4755879    813.25259  0.018466226  0.017665605           15 
 3671000   0.66916809   -7.4973543    813.47905  0.018466336  0.017660033            7 
 3672000   0.66314375   -7.5095676    811.92624  0.018426068  0.017654468            7 
 3673000    0.6667931   -7.4902814      812.584  0.018435974  0.017648893            9 
 3674000   0.66135363   -7.5032265    812.53662  0.018429882  0.017643324            7 
 3675000   0.67030341   -7.4625596    811.37215  0.018398461   0.01763777            9 
 3676000   0.66166041   -7.4917749    810.70481  0.018378328  0.017632207            7 
 3677000   0.66138733   -7.5092409    811.81143   0.01839841  0.017626645           10 
 3678000    0.6702597   -7.4937828    811.40253  0.018384143  0.017621096           13 
 3679000   0.67438129   -7.4916094    813.20797  0.018420041  0.017615546            9 
 3680000   0.65149453   -7.5015396    812.34699  0.018395539  0.017610004           11 
 3681000   0.65613921   -7.4746181    812.70606   0.01839867  0.017604469           31 
 3682000   0.66522478    -7.486568    812.73822  0.018394401  0.017598935           10 
 3683000   0.66666637   -7.5152567    811.91864  0.018370862  0.017593408            7 
 3684000   0.66297268     -7.51649    810.94313  0.018343809  0.017587857           21 
 3685000   0.65379513   -7.5187864    813.07651  0.018387076  0.017582297           16 
 3686000   0.66805509   -7.4971854     811.9661  0.018356984  0.017576749           11 
 3687000   0.66253373   -7.5048881     811.6472  0.018344797  0.017571191           11 
 3688000   0.65004405   -7.5167485    813.00603  0.018370527  0.017565649           17 
 3689000   0.67039113   -7.5011347     811.0754  0.018321935    0.0175601           16 
 3690000   0.65254481    -7.493996    813.35641  0.018368483  0.017554554           13 
 3691000   0.66777223   -7.4796463    813.11089  0.018357963  0.017549031           10 
 3692000   0.66904288   -7.5009374     812.4174  0.018337337  0.017543514           10 
 3693000    0.6530147   -7.4972953    810.89815   0.01829809  0.017538002           21 
 3694000   0.65701158   -7.5167349    813.82975  0.018359271  0.017532479           13 
 3695000   0.65936677    -7.507111    813.46845  0.018346154  0.017526952           12 
 3696000   0.65177951   -7.5146133    812.53958  0.018320247  0.017521431           15 
 3697000   0.67263891    -7.510569    812.50791  0.018314577  0.017515899           10 
 3698000   0.66643414   -7.4879874    813.05219   0.01832189  0.017510388           10 
 3699000   0.65913736   -7.4920959    811.72441  0.018287024  0.017504871            8 
 3700000   0.66106047   -7.4894799    812.60797  0.018301981  0.017499365           10 
 3701000   0.65666348   -7.5035018    813.02502  0.018306427  0.017493886           18 
 3702000   0.68170068   -7.4826117    813.53506  0.018312963  0.017488398            8 
 3703000   0.65158466   -7.4838104    811.41632  0.018260337  0.017482906            8 
 3704000   0.64465807   -7.4973679    813.62453  0.018305088  0.017477422           10 
 3705000   0.66067434   -7.5145414    813.20194  0.018290642  0.017471932            7 
 3706000   0.65950726   -7.5112643    812.64921  0.018273278  0.017466444            7 
 3707000   0.65671584    -7.499928     811.5884  0.018244501  0.017460963           11 
 3708000   0.65910184   -7.5103258    813.15307  0.018274745  0.017455487           14 
 3709000   0.65848129   -7.5087654    812.03209  0.018244632  0.017450003           11 
 3710000   0.66000463   -7.4943309     813.3937  0.018270299  0.017444522           15 
 3711000   0.68140501   -7.4698805    812.64985  0.018248672  0.017439051           10 
 3712000   0.66480261   -7.4967015    813.41347  0.018260899  0.017433595           18 
 3713000    0.6660487    -7.498943    811.66843  0.018216815  0.017428151           20 
 3714000   0.64787641    -7.483735    812.38859  0.018228069  0.017422679           11 
 3715000   0.66658465   -7.4859426    813.76682  0.018254078  0.017417202            7 
 3716000   0.65710543   -7.5158856    810.85559   0.01818388  0.017411718            9 
 3717000   0.67149528   -7.5061948    812.50962  0.018216071  0.017406236            7 
 3718000   0.65264958   -7.5430218    811.60419  0.018190877  0.017400751           17 
 3719000   0.66123666   -7.4967567    811.48909  0.018183407  0.017395272            9 
 3720000   0.65237709   -7.4950191    813.93795  0.018233377  0.017389781            8 
 3721000   0.65466071   -7.5226596    813.40269  0.018216489  0.017384286            5 
 3722000   0.65811913   -7.5209642    814.26839  0.018230978  0.017378809           11 
 3723000   0.65325523   -7.5078776    813.55474  0.018210107  0.017373323           12 
 3724000   0.65420675   -7.5008518    810.19807  0.018130104  0.017367837            8 
 3725000   0.66185206   -7.5399215    811.41059  0.018152362  0.017362349            8 
 3726000   0.65211627   -7.5140086    814.03925  0.018206281  0.017356861           13 
 3727000   0.63426752   -7.5249974    812.37461  0.018164176  0.017351376           15 
 3728000   0.66280561   -7.5189321    813.44986  0.018183339  0.017345891           10 
 3729000   0.64788464   -7.5132837    813.06643  0.018169894  0.017340403           16 
 3730000   0.65565469   -7.5073108    812.89267  0.018161141   0.01733494            6 
 3731000   0.65148183   -7.5022579    813.18746  0.018162858  0.017329485           15 
 3732000   0.65749028   -7.5133608    814.53905  0.018188171  0.017324039            8 
 3733000   0.65559971   -7.5204659    814.14221   0.01817444  0.017318572           26 
 3734000    0.6638278   -7.5175809    813.14677  0.018147357  0.017313123           11 
 3735000   0.67357153    -7.511963    813.19229  0.018143514  0.017307683            8 
 3736000   0.65891601    -7.503201    813.04589  0.018135392  0.017302252           14 
 3737000   0.65273441   -7.4910346    814.24622  0.018157306  0.017296818           11 
 3738000    0.6661986   -7.5130226    813.28764  0.018131078  0.017291391           20 
 3739000   0.63872165   -7.4947563    812.01996  0.018097975   0.01728596           14 
 3740000   0.65987245   -7.5326058    811.40454  0.018079424  0.017280534            9 
 3741000    0.6613431   -7.5163023    813.24555  0.018115601  0.017275092           14 
 3742000   0.65296718   -7.5086553    813.78345  0.018122738  0.017269666            6 
 3743000   0.65238337   -7.5208547    812.82914   0.01809665   0.01726424           12 
 3744000   0.65340463   -7.5170566    813.60299  0.018109041  0.017258814           22 
 3745000     0.659267   -7.5237414    813.53668   0.01810273  0.017253403           11 
 3746000   0.65108157   -7.5132032    813.41984  0.018095298  0.017247987           14 
 3747000   0.65119078   -7.4968361    813.58801  0.018094209  0.017242573           12 
 3748000   0.64457059   -7.5268974    813.11221  0.018078802  0.017237157           27 
 3749000   0.65768541   -7.4999838    814.24392  0.018099136  0.017231763           14 
 3750000   0.64446889    -7.498624    813.63629  0.018080806  0.017226365           22 
 3751000   0.65236809   -7.5009817    814.09065   0.01808608  0.017220955            8 
 3752000   0.65806068   -7.4897605     812.7464  0.018051404  0.017215553            7 
 3753000    0.6527236    -7.496041    813.91148  0.018072464  0.017210159           10 
 3754000   0.66231785   -7.5057316     813.0415  0.018048337  0.017204757           12 
 3755000   0.65799732   -7.4686551    814.03732  0.018065631   0.01719936           14 
 3756000   0.64429385   -7.5099117    813.73431  0.018054098  0.017193961           10 
 3757000    0.6406487   -7.4958835    812.82747  0.018029178  0.017188557           11 
 3758000   0.64538573   -7.5133101    813.65968  0.018042835  0.017183162            9 
 3759000   0.63074399   -7.5053848    811.66967  0.017993918  0.017177766           10 
 3760000   0.64399374   -7.5073498    813.33007  0.018025932  0.017172374           11 
 3761000   0.65614214   -7.5127401     814.9783   0.01805766  0.017166985           12 
 3762000   0.66352014   -7.5238794    815.06223  0.018054719  0.017161593            5 
 3763000   0.65208326   -7.5075674    814.15015  0.018029723  0.017156207           13 
 3764000   0.63993725   -7.4922067    815.29631  0.018050308  0.017150838           14 
 3765000   0.64892515   -7.5295135    813.75545  0.018011409  0.017145455           18 
 3766000   0.65125293   -7.5235426    812.47235  0.017978234  0.017140074           30 
 3767000   0.65681898   -7.5152965    812.39618  0.017971776  0.017134691           19 
 3768000   0.65092845   -7.5304134    814.27039  0.018008457  0.017129315           27 
 3769000   0.65960048   -7.4900025    814.85364  0.018016575  0.017123939           11 
 3770000    0.6454522   -7.5195528    812.87047  0.017967959   0.01711857           15 
 3771000   0.64940966   -7.5362175    813.80042  0.017983745  0.017113196           16 
 3772000   0.64635108     -7.51451    814.00582  0.017983515  0.017107828           15 
 3773000   0.65718623   -7.5243493    812.67742  0.017949409  0.017102456            8 
 3774000   0.64177856   -7.5284845     812.2515  0.017935248  0.017097072           13 
 3775000   0.64832929   -7.5406807    814.29108  0.017975521  0.017091679           14 
 3776000   0.64031787   -7.5186877    814.08139  0.017966132  0.017086291            9 
 3777000   0.64976742   -7.5267255    813.79067  0.017954961  0.017080904            8 
 3778000    0.6393646   -7.5317993     814.1198  0.017957469  0.017075526           18 
 3779000    0.6507649   -7.5268562    813.24622  0.017933453  0.017070138           19 
 3780000   0.66019823   -7.5251384    813.26055  0.017929024  0.017064765            9 
 3781000   0.64511679   -7.5143383    812.34086  0.017904013  0.017059394           11 
 3782000   0.64675911   -7.5343518    812.71871  0.017907604  0.017054016            9 
 3783000   0.64855715   -7.5285334    812.64362  0.017901217  0.017048641           17 
 3784000   0.64045351   -7.5293715    813.16609  0.017907992  0.017043282           12 
 3785000   0.65168827   -7.5447224    813.16565  0.017903251  0.017037912           22 
 3786000   0.64496541   -7.5372151    814.41527  0.017926027  0.017032551           18 
 3787000   0.64727984   -7.5390268    813.81263  0.017908033  0.017027181           12 
 3788000   0.64419991   -7.5391532    812.11899  0.017866046  0.017021824           20 
 3789000   0.64354902   -7.5418844    812.05492  0.017859922  0.017016455           11 
 3790000   0.64144625   -7.5497572    813.45523  0.017885999  0.017011082           13 
 3791000   0.65343319   -7.5444149    812.39174  0.017857903  0.017005719           16 
 3792000   0.64428603   -7.5431635    814.58511  0.017901396  0.017000354           15 
 3793000   0.64574281   -7.5512471    813.25819  0.017867523  0.016994987           13 
 3794000   0.63841736   -7.5419926    813.87652  0.017876395  0.016989616           21 
 3795000   0.63556466   -7.5501512    811.37671  0.017816792  0.016984248           13 
 3796000   0.65056968   -7.5327609    813.40717  0.017856673  0.016978871           12 
 3797000   0.66098593   -7.5396306    811.63549  0.017813087  0.016973507           14 
 3798000   0.65213777   -7.5051195    813.81838  0.017856292  0.016968143           26 
 3799000   0.62889408   -7.5310001    812.60441  0.017824963  0.016962781           11 
 3800000   0.64802839   -7.5362084    814.22093  0.017855722  0.016957435            5 
 3801000   0.63759419   -7.5397468    813.08731  0.017826171   0.01695209           14 
 3802000   0.63898329    -7.532169    813.69224  0.017834741  0.016946751           10 
 3803000   0.63944598   -7.5244231    813.22195  0.017819747  0.016941415           14 
 3804000   0.64392106   -7.5163429    814.41174  0.017841127  0.016936077            7 
 3805000    0.6489564   -7.5351166    812.18471  0.017787663  0.016930742           17 
 3806000    0.6612219   -7.5409952     814.4604  0.017832817  0.016925408           14 
 3807000   0.65751373   -7.5395879    814.16033  0.017821564  0.016920073            7 
 3808000   0.64779691   -7.5077307    814.34471  0.017820919  0.016914742           11 
 3809000   0.63146553   -7.5068775    814.18041  0.017812646  0.016909432           13 
 3810000   0.64686457   -7.5254874    814.39006  0.017812556  0.016904128           10 
 3811000   0.63956018   -7.5332207    813.55012  0.017789516  0.016898823            9 
 3812000   0.62785372   -7.5154928    813.79529  0.017790208  0.016893509            8 
 3813000   0.65549739   -7.5163786    812.75695   0.01776285  0.016888195           12 
 3814000     0.632602   -7.5137601    812.26475  0.017747438  0.016882879           11 
 3815000   0.65027852   -7.5305488    814.88723  0.017800071  0.016877557            6 
 3816000   0.62731586   -7.5268001    813.94607  0.017774853  0.016872249            6 
 3817000   0.63975784   -7.5296332    813.45699  0.017759519  0.016866942            8 
 3818000   0.64260516     -7.55133    814.79557  0.017784083   0.01686164           15 
 3819000   0.63544071   -7.5294383    813.08018  0.017741996  0.016856338           10 
 3820000   0.64096075   -7.5228798    812.70526  0.017729172  0.016851028           12 
 3821000   0.63521469   -7.5572387    812.82779  0.017727205  0.016845706           15 
 3822000   0.63006425    -7.529627    812.44089  0.017714131  0.016840389           12 
 3823000   0.63793367   -7.5545054    813.34317  0.017729165  0.016835074           15 
 3824000    0.6327809   -7.5535436    814.05477  0.017740036  0.016829757           10 
 3825000    0.6327427   -7.5370748    813.98461  0.017733869  0.016824438           13 
 3826000   0.65648894   -7.5405918    814.74307  0.017745754   0.01681914           19 
 3827000   0.63840591   -7.5396449    814.02969  0.017725583   0.01681384           21 
 3828000   0.63404311   -7.5382367    813.59535  0.017711498  0.016808525            9 
 3829000   0.64356529   -7.5601823    813.70292  0.017709213   0.01680321           15 
 3830000   0.63372137   -7.5317837    813.72005  0.017704962  0.016797907            8 
 3831000   0.63598153   -7.5331134    813.87558  0.017703724  0.016792608            9 
 3832000   0.63153616   -7.5336142    813.18081  0.017683995  0.016787313            9 
 3833000   0.64916776    -7.529234    812.51584  0.017664924  0.016782029            8 
 3834000   0.63732502   -7.5380202     813.0059  0.017670968  0.016776736           11 
 3835000   0.61959332   -7.5393425    811.42596  0.017632029  0.016771431           12 
 3836000   0.63147344    -7.523416    813.92241  0.017681665  0.016766118            9 
 3837000    0.6453263   -7.5579955    813.10423  0.017659287  0.016760812           12 
 3838000   0.62429703   -7.5427626    813.32641   0.01765951  0.016755505           11 
 3839000   0.63722263    -7.557682    812.51607   0.01763732  0.016750207           13 
 3840000   0.64601011    -7.552563    811.93266  0.017620066  0.016744893            8 
 3841000   0.64612041   -7.5486818     813.1205   0.01764125  0.016739588           22 
 3842000   0.64468845   -7.5499853    813.51476   0.01764521  0.016734284           14 
 3843000   0.63422502   -7.5527693    812.91604  0.017627636  0.016728978           34 
 3844000   0.63592932   -7.5661694    811.83485  0.017599611   0.01672367           13 
 3845000   0.62781606   -7.5737727    812.20438  0.017603042  0.016718351           13 
 3846000   0.64763473    -7.586041    813.12669   0.01761845  0.016713041           17 
 3847000   0.63260218   -7.5707016    812.95248  0.017610096  0.016707731           23 
 3848000   0.63954482   -7.5495402    813.17147  0.017610262  0.016702425           21 
 3849000   0.62793812   -7.5740518    811.05562  0.017559878  0.016697117           24 
 3850000   0.63330083   -7.5662956    811.21395  0.017558744  0.016691823           14 
 3851000   0.63742014   -7.5785266    813.38065   0.01760107  0.016686526           16 
 3852000   0.64927401   -7.5522324    813.20052  0.017592604   0.01668124           13 
 3853000   0.64173886   -7.5770343    813.92506  0.017603708  0.016675957           22 
 3854000   0.62808637   -7.5590278    814.32209  0.017607726  0.016670679           17 
 3855000   0.62828201    -7.556174    811.33488  0.017538584  0.016665391           30 
 3856000   0.63403241   -7.5671468    811.52062  0.017538049  0.016660109           20 
 3857000   0.64463438   -7.5489831    813.68854  0.017580342  0.016654829           11 
 3858000   0.63558438   -7.5578577      812.213  0.017543913  0.016649558           19 
 3859000   0.62633108   -7.5612543     813.1226  0.017559009  0.016644295           20 
 3860000   0.63193659   -7.5646444     812.8622  0.017548839  0.016639022           18 
 3861000   0.63167725   -7.5897176    812.93403  0.017545844  0.016633759           17 
 3862000    0.6174014   -7.5928734    812.52701  0.017532518   0.01662849           27 
 3863000   0.62880889   -7.5830653    812.05996  0.017517904  0.016623228           29 
 3864000   0.62109922   -7.5458909     813.6484  0.017547628   0.01661797           15 
 3865000   0.63986308   -7.5473815    813.45009  0.017538812  0.016612709           13 
 3866000   0.62537506   -7.5499353    812.81762  0.017520642  0.016607463           11 
 3867000   0.63764046   -7.5540976    814.07666  0.017543243  0.016602206           16 
 3868000   0.62358811   -7.5663141    813.01022  0.017515732  0.016596955           17 
 3869000   0.64089162   -7.5766359    813.98723  0.017532248  0.016591701            7 
 3870000   0.64065083   -7.5584035    812.83008  0.017502801   0.01658645           23 
 3871000   0.64382478   -7.5567297    812.91834  0.017500179  0.016581191            8 
 3872000   0.62690847   -7.5755885    811.57717  0.017466795  0.016575944           14 
 3873000   0.62407596    -7.572638    813.84375  0.017511054  0.016570688           27 
 3874000   0.63173593   -7.5932384    811.96109  0.017466036  0.016565434           35 
 3875000    0.6340724   -7.5733885    813.07969  0.017485585  0.016560178           11 
 3876000   0.63038228   -7.5743062     812.2435  0.017463096  0.016554925           28 
 3877000   0.63256205   -7.5791006    811.89323  0.017451062  0.016549663           15 
 3878000   0.64226516    -7.593591    814.05257  0.017492964  0.016544403           19 
 3879000   0.63334683   -7.5787084    814.13171  0.017490154  0.016539155           22 
 3880000   0.62043683   -7.5621893     814.7644  0.017499235  0.016533904           17 
 3881000   0.63079948   -7.5715631     813.4008  0.017465447  0.016528657           22 
 3882000   0.63042127   -7.6045088    811.95818   0.01742998  0.016523404           24 
 3883000   0.63252661   -7.5755418    812.90421  0.017445794  0.016518157           19 
 3884000   0.62788974   -7.5595346    811.91468  0.017420071  0.016512915           20 
 3885000   0.62376438   -7.5670845    813.36571  0.017446712  0.016507674           15 
 3886000   0.62324379   -7.5558822    813.04327  0.017435308  0.016502438           16 
 3887000   0.62903611    -7.595309    812.24501  0.017413708  0.016497213           17 
 3888000   0.63107898   -7.5855099    813.43053  0.017434639  0.016491981           13 
 3889000   0.63399949   -7.5595695    813.64342  0.017434718  0.016486763           12 
 3890000   0.62733638   -7.5606547    813.81675  0.017433949  0.016481557           14 
 3891000   0.62635206   -7.5637224    814.79422  0.017450403  0.016476353           20 
 3892000   0.63385854   -7.5742114    812.65608  0.017400139  0.016471132           19 
 3893000    0.6328369   -7.5676485    812.99574   0.01740294  0.016465922           22 
 3894000   0.63399834    -7.538154    815.35554  0.017448971  0.016460714           16 
 3895000   0.62078612   -7.5701959    812.44838  0.017382293  0.016455521           14 
 3896000   0.63443181   -7.5596118    813.33586  0.017396814  0.016450328           25 
 3897000    0.6286867     -7.60864    813.44068  0.017394592  0.016445122           17 
 3898000   0.62935954   -7.5857833    814.17402  0.017405807  0.016439911           22 
 3899000   0.64705153    -7.583905    813.73314   0.01739192  0.016434708           19 
 3900000   0.63333149   -7.5715773    813.90817    0.0173912  0.016429506           16 
 3901000   0.62609918   -7.5911666    813.99529  0.017388603  0.016424304           13 
 3902000   0.62578257   -7.5924777    813.21361  0.017367453  0.016419093           18 
 3903000   0.63012263    -7.569462    814.07342  0.017381361  0.016413894           11 
 3904000   0.63006053   -7.5907699    812.34366  0.017339986  0.016408689           18 
 3905000   0.62700062   -7.5867829    813.03163  0.017350227  0.016403483           12 
 3906000   0.62813913   -7.6116984    812.83165  0.017341518  0.016398274           20 
 3907000     0.624173   -7.5719775      813.839  0.017358566  0.016393076           10 
 3908000   0.60826783   -7.5705504    813.25229  0.017341613  0.016387889            8 
 3909000   0.62988181   -7.5982106    813.44875  0.017341365  0.016382708           10 
 3910000   0.63107938   -7.5904726    812.90722  0.017325388  0.016377528            6 
 3911000   0.63208363   -7.5917445    814.50053  0.017354908  0.016372339            8 
 3912000   0.61314243    -7.590919    812.51296  0.017308132  0.016367148            6 
 3913000    0.6318599   -7.5677188    814.33181  0.017342444  0.016361967           10 
 3914000   0.63066119   -7.5767757    813.32621  0.017316603  0.016356786           12 
 3915000   0.63234963   -7.5947061    813.27553  0.017311101  0.016351613           12 
 3916000   0.62384236   -7.6072066    813.80614  0.017317972  0.016346452           27 
 3917000   0.62251803   -7.5934784    813.47194  0.017306441  0.016341289           11 
 3918000   0.61336426    -7.595333    814.04982  0.017314315  0.016336122           13 
 3919000   0.62905397   -7.5652249      813.273  0.017293378  0.016330951           12 
 3920000   0.63121427   -7.5630971     813.7229  0.017298531  0.016325792            7 
 3921000   0.63383818    -7.584828    814.81615  0.017317354  0.016320642            6 
 3922000   0.62104939   -7.5703866    815.17217  0.017320503  0.016315487           14 
 3923000   0.61212414   -7.5846727    813.01431  0.017270251   0.01631032            9 
 3924000   0.63056676   -7.5679728     814.2689  0.017292493  0.016305158           13 
 3925000   0.63621685   -7.5727746     812.5421  0.017251425  0.016300006            8 
 3926000   0.62938855   -7.5766205    813.62868  0.017270094  0.016294855           10 
 3927000   0.61849368   -7.5679104    814.44116  0.017282938  0.016289713           11 
 3928000   0.62083801   -7.5963127    813.94023   0.01726791  0.016284571           12 
 3929000   0.62079566   -7.5814834    813.20307   0.01724788   0.01627943           10 
 3930000   0.61892791    -7.585348    813.77762  0.017255675  0.016274291           12 
 3931000   0.61911999   -7.6007319    814.04416  0.017256936  0.016269148           12 
 3932000   0.63056684   -7.5837651    815.82785   0.01729035  0.016264012           14 
 3933000   0.62411931   -7.5804389     815.0688   0.01726987  0.016258888           14 
 3934000   0.63021749   -7.5785758    815.17679  0.017267768  0.016253759           10 
 3935000   0.62542341   -7.5570624    813.94245  0.017237239  0.016248635           11 
 3936000   0.62205528   -7.5909158    814.00085  0.017234097  0.016243516            7 
 3937000   0.60596237   -7.5637301    814.26085  0.017235222  0.016238395            9 
 3938000   0.62454867   -7.5736021    814.86094  0.017243545  0.016233287            8 
 3939000   0.60522569   -7.5864207     814.3518  0.017228395   0.01622817           15 
 3940000   0.62139826   -7.5790367    815.69065   0.01725234  0.016223057           10 
 3941000   0.62469977   -7.5847251    814.21453   0.01721675  0.016217955           17 
 3942000   0.62668293   -7.5890678    813.78302   0.01720326  0.016212852            5 
 3943000    0.6293217   -7.5944927    814.22773  0.017208296  0.016207747           12 
 3944000   0.61432277   -7.5887409    814.58528  0.017211487  0.016202633            9 
 3945000   0.62573711    -7.574419    814.63699  0.017208217  0.016197521            9 
 3946000   0.62836763   -7.5928619    814.27106  0.017196128  0.016192412            6 
 3947000   0.64674392   -7.5870485    813.56592  0.017176884  0.016187298           25 
 3948000   0.60629249   -7.5882119    813.14725  0.017163696  0.016182185            8 
 3949000   0.61750051   -7.5923347    813.31876  0.017162969   0.01617707            6 
 3950000   0.62963575    -7.589587     812.6869  0.017145293  0.016171961           16 
 3951000   0.62060404   -7.5796874    813.89557  0.017166447  0.016166852           13 
 3952000   0.62433443   -7.6026877    814.39917  0.017172722  0.016161747           10 
 3953000    0.6210937   -7.6031029    814.44116  0.017169263   0.01615664           10 
 3954000   0.61027956   -7.5904238    815.32178   0.01718348   0.01615154           21 
 3955000   0.62465629   -7.5960111    812.63372  0.017122497  0.016146432           13 
 3956000   0.61372177   -7.5916236    812.83044  0.017122313  0.016141326           17 
 3957000    0.6212888   -7.6187519      814.225  0.017147355  0.016136216           29 
 3958000   0.61264734    -7.598888    813.97305  0.017137718  0.016131102           21 
 3959000   0.63095011   -7.5900985    812.15204  0.017095058  0.016125988           15 
 3960000   0.61630019   -7.6168521    813.18487  0.017112476  0.016120874           14 
 3961000   0.61819774   -7.5982082    813.14133   0.01710724  0.016115772           38 
 3962000   0.62608601   -7.5767011    814.45728  0.017130601  0.016110679           11 
 3963000   0.61241942   -7.6010945    811.80135   0.01707043   0.01610558           30 
 3964000   0.62261861   -7.5980756    812.90519  0.017089329  0.016100493           30 
 3965000   0.61285234   -7.5860371    812.79894  0.017082786  0.016095398           33 
 3966000   0.63782381   -7.5976458    813.01841   0.01708309   0.01609031           31 
 3967000   0.61796126   -7.5725006    814.74852  0.017115127   0.01608523           11 
 3968000   0.61999973   -7.5963848    814.19456   0.01709918  0.016080142           31 
 3969000   0.60598649   -7.5866075     813.5494  0.017081326  0.016075062            9 
 3970000   0.61934696   -7.5983032    812.72463  0.017059711   0.01606997           16 
 3971000    0.6291169   -7.5810007     813.0033  0.017061263  0.016064876           23 
 3972000    0.6155587    -7.588321    813.77935  0.017073249  0.016059785            8 
 3973000   0.62445932   -7.5908502    814.84673   0.01709134  0.016054704           29 
 3974000   0.61328477   -7.6045259    813.74524  0.017063942  0.016049614           18 
 3975000   0.61800704   -7.6071794    812.64344   0.01703655  0.016044517           20 
 3976000   0.60398673   -7.5917171    813.99611  0.017060616  0.016039436           29 
 3977000   0.60400912   -7.5965268    814.41876  0.017065182  0.016034349           22 
 3978000   0.62543872    -7.595667    812.34248  0.017017397  0.016029264           28 
 3979000   0.62748527   -7.5772694    812.79628  0.017022625  0.016024177           19 
 3980000   0.61202837   -7.6013233    813.23373  0.017027507  0.016019098           15 
 3981000   0.62483475   -7.6130048     813.4123  0.017026968  0.016014019           24 
 3982000     0.614488   -7.6325771    813.55074  0.017025589  0.016008933           15 
 3983000   0.62108481   -7.6056006     812.8168  0.017005959   0.01600384           20 
 3984000   0.61751932   -7.6007248     813.4096   0.01701409  0.015998748           21 
 3985000   0.61508637   -7.6358786    813.83069  0.017018626  0.015993661           13 
 3986000   0.61108441   -7.6231115    812.12777  0.016978754  0.015988583           22 
 3987000   0.61842393   -7.6485667    813.47135  0.017002578  0.015983491           20 
 3988000   0.60417906   -7.6023454    812.34879  0.016974858  0.015978396           25 
 3989000   0.61546895    -7.621621    812.48719  0.016973493  0.015973316           30 
 3990000   0.61131189   -7.6159292    811.71807  0.016953176  0.015968224           28 
 3991000   0.63150662   -7.6323659    811.34895  0.016941221  0.015963136           24 
 3992000   0.61292356   -7.6300899    812.16313  0.016953973  0.015958041           29 
 3993000   0.61267456   -7.6396577    812.07347  0.016947856  0.015952952           21 
 3994000   0.61267663   -7.6277241    813.48151  0.016972991  0.015947866           31 
 3995000   0.61312175   -7.5972496    812.91315  0.016956887  0.015942786           20 
 3996000   0.60027835   -7.6214263    812.55322  0.016945137  0.015937705           14 
 3997000    0.6190972   -7.6092511    812.59424  0.016941753  0.015932626           24 
 3998000   0.60172127   -7.6298624    814.01323  0.016967092  0.015927556           11 
 3999000   0.59961659   -7.5992255    813.26537  0.016947265  0.015922486           25 
 4000000   0.60823526   -7.6122048    812.14862  0.016919763   0.01591742           13 
 4001000   0.61731936   -7.6151651    813.43257  0.016942276  0.015912357           22 
 4002000   0.60517647   -7.6355856    813.58326  0.016941181  0.015907296           20 
 4003000   0.62479672   -7.6239752     813.0854  0.016926584  0.015902237           13 
 4004000   0.62076725    -7.628482    811.08166  0.016880654  0.015897169           19 
 4005000   0.61731881   -7.6393544    813.33445  0.016923314  0.015892103           32 
 4006000   0.62050537   -7.6203489    812.56129  0.016903006  0.015887038           32 
 4007000   0.60050215    -7.616584    812.89836  0.016905797  0.015881967           31 
 4008000   0.60324435   -7.6256461    811.63109  0.016875231  0.015876903           31 
 4009000   0.61222655   -7.6270637    811.75104  0.016873515   0.01587185           38 
 4010000   0.60421375   -7.6101422    812.60261  0.016887003  0.015866792           17 
 4011000   0.61458545   -7.6360827    813.69466  0.016905482  0.015861742           28 
 4012000    0.6089776   -7.6119847    814.40973  0.016916121    0.0158567           20 
 4013000   0.60006999   -7.6319577    813.73947  0.016897987  0.015851653           14 
 4014000   0.60584882   -7.6222548    812.26892  0.016863248  0.015846604           23 
 4015000   0.61054127   -7.6403389      813.286  0.016880158  0.015841559           12 
 4016000   0.60817775   -7.6263078    813.19703  0.016874108  0.015836519           25 
 4017000   0.60103185   -7.6397843    812.76761  0.016860999  0.015831468           11 
 4018000   0.60276869   -7.5948724    812.57864  0.016852884  0.015826421           13 
 4019000   0.61949539    -7.623519    811.53039  0.016826955  0.015821372           16 
 4020000   0.60364281   -7.6184203    811.28091  0.016817598  0.015816324           15 
 4021000   0.60837361   -7.6156241    811.30592  0.016813934  0.015811275           14 
 4022000   0.61199935   -7.6261851    812.39747  0.016832369  0.015806229           20 
 4023000   0.60926127   -7.6373071    813.30662  0.016847018  0.015801185           15 
 4024000   0.62258073   -7.6335965    812.60213  0.016828242   0.01579614           23 
 4025000    0.6228375   -7.6186619    812.57109  0.016823418  0.015791097            8 
 4026000   0.61551547   -7.5976223    813.08804   0.01682994  0.015786061           18 
 4027000   0.61571667   -7.6196573    811.63748  0.016795743   0.01578103           10 
 4028000   0.59284935   -7.6164446     811.7859  0.016794644  0.015775994           11 
 4029000   0.61310623   -7.6219553    812.69154  0.016809207  0.015770974           13 
 4030000   0.58863229   -7.5984182    812.98575   0.01681112  0.015765954           25 
 4031000   0.60732572    -7.619592    811.77959  0.016782014  0.015760934           23 
 4032000   0.60760303   -7.6142555    812.18291  0.016786188   0.01575591           26 
 4033000    0.6018873   -7.6265402    812.28513  0.016784138  0.015750888           20 
 4034000   0.60436022   -7.6171857    813.14316  0.016797702  0.015745875           70 
 4035000   0.59106315   -7.6318987     812.4827  0.016779899  0.015740866           36 
 4036000   0.61383541   -7.6169788    813.15833  0.016789691  0.015735855           22 
 4037000   0.60929892   -7.6187581    810.91339  0.016739192  0.015730836           27 
 4038000   0.60794562   -7.6420754    812.61172  0.016770095  0.015725826           34 
 4039000   0.59947129   -7.6242486    811.53081  0.016743641  0.015720813           32 
 4040000   0.61630331   -7.6333288     813.2557  0.016775076  0.015715812           34 
 4041000   0.61487394   -7.6204918     813.9664  0.016785581   0.01571081           16 
 4042000   0.59506597    -7.632342    812.98055  0.016761103  0.015705819           35 
 4043000    0.6074492   -7.6180271    814.29525  0.016784056  0.015700827           26 
 4044000   0.61048077    -7.630902    812.68005  0.016746622  0.015695837           27 
 4045000   0.61036142   -7.6300817    812.52111  0.016739207  0.015690846            6 
 4046000   0.60366322   -7.6226854    813.59155  0.016757117  0.015685853           25 
 4047000   0.60872216   -7.6127453    813.03661  0.016741549  0.015680867           15 
 4048000   0.61462935   -7.6137373    814.28111  0.016763033  0.015675891           17 
 4049000   0.60191925   -7.6178492     813.3021  0.016738744   0.01567092           15 
 4050000    0.5984018    -7.625765    813.12211  0.016730908  0.015665948           49 
 4051000   0.60540552   -7.6351425    812.94982  0.016723233  0.015660975           18 
 4052000   0.61900762   -7.6065239    813.59794  0.016732435  0.015655996           28 
 4053000    0.6117824   -7.6235049    812.41209  0.016703925  0.015651019           40 
 4054000   0.58824547   -7.6254074    812.83506  0.016708499  0.015646036           21 
 4055000   0.60848359   -7.6131798    812.61655  0.016699888   0.01564105            8 
 4056000   0.58946118   -7.6232629      812.483  0.016693027  0.015636068           17 
 4057000    0.6026865       -7.593    812.44479  0.016688127  0.015631098           29 
 4058000   0.60148182   -7.6325866    813.32303   0.01670205  0.015626127           26 
 4059000   0.60433557    -7.637797    813.03666  0.016692056  0.015621145           23 
 4060000   0.60890252   -7.6155334    812.59867  0.016678955  0.015616168           19 
 4061000   0.60755181   -7.6408495    811.65123  0.016655406  0.015611195           26 
 4062000   0.60367295   -7.6195917     811.8239  0.016654848  0.015606225           45 
 4063000   0.61065744   -7.6451193    813.01706  0.016675221  0.015601254           17 
 4064000   0.61205255   -7.6273352    814.06782  0.016692664  0.015596281           24 
 4065000   0.59944329   -7.6179741    812.38569  0.016654073  0.015591315           30 
 4066000   0.58653975   -7.6371891    812.72791  0.016656991  0.015586355           27 
 4067000   0.60288106   -7.6230329    813.31409  0.016664906  0.015581393           30 
 4068000   0.59791052   -7.6236259    811.85662  0.016630953  0.015576436           29 
 4069000   0.59358763   -7.6265115    812.89777  0.016648189   0.01557148           32 
 4070000   0.59932739   -7.6362115     811.3613  0.016612639  0.015566521           37 
 4071000   0.60618109   -7.6477956     813.5197  0.016652741  0.015561561           30 
 4072000   0.62255666   -7.6457354    813.04049  0.016638844  0.015556602           24 
 4073000    0.5984097   -7.6342044    811.54699  0.016604202  0.015551639           23 
 4074000    0.6004051   -7.6289454       812.65  0.016622689  0.015546682           19 
 4075000   0.59342598   -7.6415551    814.09776  0.016648216  0.015541728           17 
 4076000   0.60469895   -7.6287363    812.39998  0.016609421  0.015536774           18 
 4077000   0.59758904   -7.6370568    812.20344  0.016601329  0.015531824           14 
 4078000   0.60298167    -7.640567    813.40938  0.016621902  0.015526881           15 
 4079000   0.59452457   -7.6369198    812.22304   0.01659359  0.015521947           21 
 4080000   0.59535824   -7.6450599    812.93839  0.016604134  0.015517006           23 
 4081000   0.59093727   -7.6510053    812.98862  0.016601091  0.015512061           21 
 4082000   0.59356864    -7.616844    811.51042  0.016566847  0.015507116           37 
 4083000    0.5959234   -7.6325762    812.47341  0.016582444  0.015502175           31 
 4084000   0.59420951   -7.6245684    811.12979  0.016550967  0.015497232           35 
 4085000   0.58176871   -7.6336163    811.63955  0.016557314  0.015492285           41 
 4086000   0.60135718   -7.6306898    811.28141  0.016545958  0.015487352           38 
 4087000   0.60725385   -7.6455268      811.989  0.016556337  0.015482407           43 
 4088000   0.58522055   -7.6234187    812.94455  0.016571766  0.015477468           40 
 4089000   0.58468843   -7.6202415    814.05052  0.016590253  0.015472537           33 
 4090000   0.59127828   -7.6391161    811.70598  0.016538427  0.015467608           39 
 4091000   0.59654079   -7.6301188    812.10441    0.0165425   0.01546268           80 
 4092000    0.6051434   -7.6404684    811.52316   0.01652662  0.015457762           32 
 4093000   0.60587127   -7.6420947    813.51483  0.016563133  0.015452837           41 
 4094000   0.60258364   -7.6297437    812.29017  0.016534159   0.01544792           33 
 4095000   0.60360388   -7.6179846    812.30032  0.016530328  0.015442996           35 
 4096000   0.59024851   -7.6397711    811.73566  0.016514804  0.015438079           35 
 4097000   0.58955122   -7.6530151    811.87781  0.016513665  0.015433167           40 
 4098000   0.59146189   -7.6326345    812.69542  0.016526261   0.01542826           43 
 4099000   0.59906914   -7.6475387    814.17822  0.016552375  0.015423357           37 
 4100000   0.58271408   -7.6324832    811.61238  0.016496187  0.015418451           41 
 4101000   0.58816223   -7.6698799    812.22579  0.016504629   0.01541355           42 
 4102000   0.59124314   -7.6388205    812.21454  0.016500377  0.015408649           43 
 4103000   0.60731007   -7.6346195    812.46128  0.016501367  0.015403743           42 
 4104000   0.59244885   -7.6302651    812.84082  0.016505052  0.015398843           36 
 4105000   0.61079773    -7.633464    813.90773  0.016522691  0.015393941           34 
 4106000   0.58007726   -7.6591477    811.62096  0.016472255  0.015389037           45 
 4107000   0.62099708   -7.6605953    813.46723  0.016505706  0.015384137           32 
 4108000   0.59909507   -7.6508448    812.52906  0.016482657  0.015379233           40 
 4109000   0.58236182   -7.6689723    811.09909  0.016449645   0.01537434           36 
 4110000   0.59475337   -7.6378809    812.60063  0.016476087   0.01536944           34 
 4111000   0.59776199   -7.6294787    811.37653  0.016447266  0.015364541           33 
 4112000   0.59964342   -7.6466073    813.20976  0.016480418  0.015359637           42 
 4113000   0.59879395   -7.6699576    812.52385  0.016462514  0.015354733           32 
 4114000   0.60476408    -7.653078    812.77265  0.016463552  0.015349832           34 
 4115000   0.59746004    -7.642762    811.85413   0.01644095  0.015344936           36 
 4116000   0.59013543   -7.6653251    812.11864  0.016442311  0.015340047           46 
 4117000   0.58589644   -7.6569314    811.89451  0.016433781  0.015335161           35 
 4118000   0.60467747   -7.6590205    813.38029  0.016459857   0.01533027           38 
 4119000    0.5886501   -7.6653919    812.14204  0.016430809  0.015325393           39 
 4120000   0.60162721   -7.6405405    813.05388  0.016445265  0.015320519           32 
 4121000   0.59917841    -7.672305    812.73991  0.016434925  0.015315644           23 
 4122000   0.60252345   -7.6269666    812.39972   0.01642406  0.015310774           41 
 4123000   0.59497025   -7.6430491    813.12574  0.016434751  0.015305908           61 
 4124000    0.5946767    -7.631887    813.22168  0.016432704   0.01530105           42 
 4125000   0.60668039    -7.674031    812.95125  0.016423257  0.015296187           42 
 4126000   0.59349064   -7.6544256    811.67791  0.016393559  0.015291324           43 
 4127000   0.58114911   -7.6583796    812.72149  0.016410659  0.015286459           41 
 4128000   0.59545138   -7.6457997    811.47156  0.016381451    0.0152816           28 
 4129000   0.58717976   -7.6622093    812.29148  0.016394032  0.015276738           47 
 4130000   0.59518428   -7.6501077     810.6344  0.016356626  0.015271876           50 
 4131000   0.59555152   -7.6481361    813.97028  0.016419961   0.01526702           44 
 4132000   0.59979445   -7.6482108    812.04248  0.016377107  0.015262163           50 
 4133000   0.57887259   -7.6445523    812.90435  0.016390523  0.015257308           41 
 4134000   0.59811256   -7.6566119     812.2588  0.016373545  0.015252453           45 
 4135000   0.59393837   -7.6523567    811.22174  0.016348685  0.015247594           39 
 4136000   0.60103519   -7.6501485     814.2764  0.016406278  0.015242744           66 
 4137000   0.60504287   -7.6510536    812.78796   0.01637233  0.015237898           50 
 4138000    0.5940321   -7.6504036    813.13035  0.016375269  0.015233055           53 
 4139000   0.58953961   -7.6280948    813.05149  0.016369725  0.015228206           53 
 4140000   0.59802704   -7.6412857    811.45191  0.016333573  0.015223364           53 
 4141000   0.59133302    -7.677177    811.17903  0.016324137  0.015218525           44 
 4142000   0.61212238   -7.6812159    813.37141  0.016364305  0.015213677           51 
 4143000   0.58511433      -7.6818    811.91675  0.016331096  0.015208826           53 
 4144000   0.60308077   -7.6773389    811.01713  0.016309064  0.015203976           55 
 4145000   0.59013057    -7.656736    810.75359  0.016299831   0.01519913           49 
 4146000   0.58520666   -7.6681834    812.99235  0.016340898  0.015194291           43 
 4147000   0.57847541   -7.6565139    812.50985  0.016327262  0.015189457           40 
 4148000   0.58805476   -7.6608018    812.66317  0.016326406  0.015184615           41 
 4149000   0.59647712   -7.6570698    813.19443  0.016333141  0.015179783           31 
 4150000   0.58494254   -7.6657176    811.94819   0.01630418  0.015174947           46 
 4151000   0.58990033   -7.6717034    812.83054  0.016317966  0.015170117           62 
 4152000   0.57902579   -7.6730708    812.66927  0.016310799  0.015165281           52 
 4153000   0.58161015   -7.6665099    810.87722  0.016270913  0.015160448           60 
 4154000   0.58987088   -7.6634828    811.22249  0.016273923  0.015155614          101 
 4155000   0.58606238   -7.6724816    812.63688  0.016298373   0.01515077          125 
 4156000   0.58444676   -7.6734076    811.94472  0.016280573  0.015145933           54 
 4157000   0.58582408    -7.673244    811.74095  0.016272571  0.015141088           26 
 4158000   0.59062817   -7.6744704    811.62071  0.016266248  0.015136248           92 
 4159000   0.58288219    -7.676064    810.74252  0.016244741  0.015131411           94 
 4160000    0.5864761   -7.6622557    811.75089  0.016261035   0.01512658          102 
 4161000    0.5807998   -7.6856509     812.1373  0.016264866  0.015121742           57 
 4162000   0.60029117   -7.6745636    811.41458  0.016246488  0.015116905           78 
 4163000   0.59234834   -7.6710636    811.83061  0.016250913  0.015112071          132 
 4164000   0.58587511    -7.680012    811.19468  0.016234283   0.01510724           47 
 4165000   0.59757511   -7.6870489    810.73333  0.016221155  0.015102409           40 
 4166000     0.575011   -7.6722659     812.2109  0.016246817   0.01509758           98 
 4167000   0.58117114   -7.6524621    810.54714  0.016209646   0.01509275           42 
 4168000   0.58554289   -7.6696191    811.86805  0.016232167  0.015087922           59 
 4169000   0.59539174   -7.6716205    812.36554  0.016238217  0.015083092           93 
 4170000   0.58310546   -7.6619431    810.92048  0.016205445  0.015078264           95 
 4171000   0.58748766     -7.67227    811.29545  0.016209052  0.015073441           62 
 4172000   0.58948313   -7.6566462    813.60061  0.016251211   0.01506862           66 
 4173000   0.58328214   -7.6678601    811.70343   0.01620943  0.015063807           43 
 4174000   0.56785309   -7.6653079    811.77956  0.016207067  0.015058995           53 
 4175000   0.58880081   -7.6765431    811.69523  0.016201502  0.015054187           58 
 4176000   0.58064991   -7.6567529    812.87455  0.016221156  0.015049375           67 
 4177000   0.58558552   -7.6836685    812.12527  0.016202324  0.015044571          117 
 4178000   0.56848215   -7.6714909    811.43812   0.01618474  0.015039765           57 
 4179000   0.58532233   -7.6765019    811.71625  0.016186413  0.015034952           49 
 4180000   0.59124231    -7.675674     811.1035  0.016170325   0.01503014           70 
 4181000     0.584925   -7.6558699    811.10025  0.016166393  0.015025333           96 
 4182000   0.57869632   -7.6719391    811.22896  0.016165092   0.01502052           59 
 4183000   0.58901437   -7.6716622    811.05337  0.016157729  0.015015717           56 
 4184000   0.57334762   -7.6925896    810.44529  0.016141756  0.015010907           53 
 4185000   0.57708276   -7.6819933    811.01226  0.016149189  0.015006104           51 
 4186000   0.58399201   -7.6806477    810.86631  0.016142425  0.015001299          108 
 4187000   0.58190389    -7.698023    810.99809  0.016141193  0.014996504           71 
 4188000   0.57082077   -7.6783978    810.91481  0.016135682  0.014991709           74 
 4189000   0.57218204   -7.6675826    811.06108  0.016134739  0.014986922           47 
 4190000   0.57942203   -7.6831411    810.13562  0.016112483   0.01498214           86 
 4191000   0.58569917   -7.7009993    811.51661  0.016136097  0.014977361           90 
 4192000   0.58544031   -7.6892399    811.56986  0.016133307  0.014972579           94 
 4193000   0.56580887   -7.6962475    810.90718  0.016116289  0.014967804           54 
 4194000   0.58648788   -7.6792922    813.74074  0.016168748  0.014963026           52 
 4195000   0.56782643   -7.6729852    812.62209  0.016142672   0.01495825           57 
 4196000   0.57951024   -7.6621013     810.6423  0.016099506  0.014953478           75 
 4197000   0.58006638   -7.6784734     811.9234  0.016121106    0.0149487          145 
 4198000   0.58470414   -7.6793739    810.13613  0.016081787  0.014943935           51 
 4199000   0.57320665   -7.6744149    812.12218  0.016117373  0.014939161           92 
 4200000   0.57614449   -7.6690852    812.25056  0.016116083  0.014934395           58 
 4201000   0.59085075   -7.6742366    812.48754  0.016116947  0.014929622           50 
 4202000   0.57252031   -7.6874947    813.06477  0.016124559  0.014924852           98 
 4203000   0.58017495   -7.6875827    810.98787  0.016079544  0.014920084           63 
 4204000   0.58238213   -7.6633014    811.21927  0.016080306   0.01491532           52 
 4205000   0.57459153   -7.6883373     811.5642  0.016083317  0.014910563           63 
 4206000   0.56638803   -7.6893531    812.37781  0.016095614  0.014905809           55 
 4207000   0.56529118   -7.6838629    811.89537  0.016082231  0.014901048           66 
 4208000    0.5762424   -7.6883696    811.91242  0.016078747  0.014896289          108 
 4209000   0.58931246   -7.6762547     811.4592  0.016065954  0.014891533          105 
 4210000   0.58001699   -7.7007905    812.82593  0.016089191  0.014886774           85 
 4211000   0.57771036   -7.6987374    812.09551  0.016070916  0.014882015          109 
 4212000   0.59598785   -7.6695176    813.09086  0.016086793  0.014877259           48 
 4213000   0.57143542   -7.6888876    812.44415  0.016070183  0.014872508          100 
 4214000   0.57774689   -7.6968105    810.24882  0.016022956  0.014867761           67 
 4215000   0.58611887   -7.6833437    810.71866  0.016028443  0.014863011           90 
 4216000   0.58007756   -7.6786696    811.99042  0.016049779   0.01485826           95 
 4217000   0.57466329   -7.6810096    811.70664  0.016040365   0.01485351          157 
 4218000   0.56664025   -7.6854195    810.44378  0.016011613   0.01484876           82 
 4219000   0.58111626   -7.7113495    811.03077  0.016019412  0.014844017          120 
 4220000   0.57017505   -7.6882647    811.31938  0.016021315  0.014839271          114 
 4221000    0.5787308   -7.6775537    811.08546  0.016012901  0.014834516           75 
 4222000    0.5859046   -7.6837455    811.40427  0.016015401  0.014829757           63 
 4223000    0.5830097   -7.6928076     811.0939  0.016005484   0.01482501          139 
 4224000   0.58723771    -7.687217    812.16522   0.01602283  0.014820264           90 
 4225000   0.57096439   -7.6767225    811.59542  0.016007799  0.014815521          107 
 4226000   0.57412851   -7.6908828    810.45085  0.015981441  0.014810775          145 
 4227000   0.57142218   -7.7177214    810.92598  0.015987028  0.014806026          138 
 4228000   0.57109545   -7.7025054    808.72903  0.015939945  0.014801283          124 
 4229000   0.57769769   -7.7051021    811.19804  0.015984828  0.014796541          121 
 4230000   0.55957598    -7.697796     809.9363  0.015956192  0.014791801          108 
 4231000   0.58306834    -7.703077    810.11377  0.015955916  0.014787063          101 
 4232000   0.56687554   -7.6841384    809.62538  0.015942529  0.014782328           70 
 4233000   0.59169625   -7.6939973    811.06185  0.015967042  0.014777596           46 
 4234000   0.57033447   -7.6745117    812.34472   0.01598852  0.014772863          127 
 4235000   0.57558676   -7.7059724    810.84293  0.015955193  0.014768142           77 
 4236000   0.58292986   -7.6997451    811.67867  0.015967868  0.014763418          131 
 4237000   0.58488669    -7.712753    809.44825  0.015920232  0.014758697          121 
 4238000   0.56560202   -7.7087447    811.23532  0.015951615  0.014753965          109 
 4239000   0.56821343   -7.6927795    810.85843  0.015940443  0.014749237           70 
 4240000   0.57402089   -7.7088337    811.11669  0.015941759  0.014744512           58 
 4241000   0.56982825   -7.7147723    812.73379  0.015969775  0.014739789           54 
 4242000   0.57071796   -7.6905074    810.62078  0.015924501  0.014735073           62 
 4243000   0.56346276   -7.7119117    810.81419  0.015924546  0.014730357          123 
 4244000   0.56801557   -7.6822232    811.35761  0.015931464  0.014725642           73 
 4245000   0.57061415    -7.696128    812.10432   0.01594237  0.014720929           95 
 4246000   0.57244421   -7.7025276    811.02822  0.015917495  0.014716212          132 
 4247000   0.57809803   -7.7265757    810.98708   0.01591294    0.0147115           84 
 4248000   0.56906479   -7.7320041     809.4824  0.015879677  0.014706787           50 
 4249000   0.57771876   -7.7041161    810.92587   0.01590425  0.014702067          151 
 4250000   0.57823493   -7.7130926    810.68271  0.015895739  0.014697355           84 
 4251000   0.57063974    -7.716751     811.4966  0.015907955  0.014692641           92 
 4252000   0.56382786   -7.7142265    811.34057  0.015901156  0.014687935           71 
 4253000   0.57806514   -7.7099954    810.21039  0.015875272  0.014683229           64 
 4254000   0.57554523   -7.7044774    810.35529  0.015874379  0.014678529          170 
 4255000   0.59041059   -7.7003663    810.08032  0.015865263  0.014673832          207 
 4256000   0.57452883   -7.7126979    809.55486  0.015851246  0.014669131           78 
 4257000   0.57840011   -7.7125809    809.86482  0.015853591  0.014664425          105 
 4258000   0.57576893   -7.7309844    810.42678  0.015860865   0.01465972          124 
 4259000    0.5676028   -7.7107857    810.10001  0.015850748  0.014655013          111 
 4260000   0.57524913   -7.6998273    810.46357  0.015854139  0.014650309           94 
 4261000   0.57512453    -7.707476    810.26544  0.015846543  0.014645611          140 
 4262000   0.55488716   -7.7021896    809.58913  0.015829601  0.014640907          122 
 4263000   0.57066668   -7.7008468     811.2156  0.015857682  0.014636215          147 
 4264000    0.5479193    -7.703091    809.38831  0.015818252  0.014631528           81 
 4265000   0.58212263   -7.7089581    810.40184  0.015834346  0.014626844           96 
 4266000   0.56361477   -7.6975337     810.1669  0.015826045  0.014622156           96 
 4267000   0.57550092   -7.7184716    810.62178   0.01583122  0.014617473           94 
 4268000   0.55974217   -7.7059865    810.38547  0.015822897  0.014612797          108 
 4269000   0.57217248   -7.7108512    812.12601  0.015853166  0.014608124          104 
 4270000   0.56991116    -7.719207    811.23825  0.015832128  0.014603451          116 
 4271000   0.56390371   -7.6998196    809.88495  0.015802017  0.014598784           82 
 4272000   0.57107544   -7.7000712    811.52281  0.015830267  0.014594113          148 
 4273000   0.56865083   -7.6967869    809.09986  0.015779309  0.014589448           70 
 4274000   0.58607113   -7.6905889    809.62481  0.015785853  0.014584777           80 
 4275000    0.5621241   -7.7022526    810.63449  0.015801842  0.014580111           61 
 4276000   0.56912045   -7.6982163    811.24295  0.015810005  0.014575447           91 
 4277000   0.57211373   -7.7070163    809.72726  0.015776776   0.01457079          126 
 4278000   0.56931685   -7.6981453    809.67942  0.015772156  0.014566129          113 
 4279000   0.56976431   -7.7204677    809.62803   0.01576747   0.01456147          112 
 4280000   0.57673117   -7.7063472    810.12922  0.015773544  0.014556819           85 
 4281000   0.57029617   -7.7240125    810.72331  0.015781424  0.014552163          173 
 4282000   0.56426469   -7.7128179    811.67148  0.015796191  0.014547506          111 
 4283000   0.57049229   -7.7081933    810.71704  0.015773933  0.014542854          127 
 4284000   0.55826137   -7.7193501     809.9658  0.015755637    0.0145382          132 
 4285000   0.55952547   -7.7196432    809.24883  0.015738017   0.01453355          158 
 4286000   0.55564517   -7.7137533    811.21157  0.015772507  0.014528898          109 
 4287000   0.56162587   -7.7398157    810.05786  0.015746401  0.014524252           98 
 4288000   0.57872119   -7.7226056    809.82111  0.015738128  0.014519603          126 
 4289000   0.56254749   -7.7301833    810.72541  0.015752029  0.014514958          106 
 4290000    0.5653385   -7.7208598    809.33006  0.015721252  0.014510316           61 
 4291000   0.56622826   -7.7297157    809.37566  0.015718474  0.014505671           85 
 4292000   0.57239778   -7.7235188    811.30285   0.01575223  0.014501025          112 
 4293000   0.56764444   -7.7075622    810.77525  0.015738319  0.014496385          150 
 4294000   0.56462783   -7.7056807    810.63702  0.015731971  0.014491741           52 
 4295000   0.56684342   -7.7229527    810.65384  0.015728635  0.014487102          101 
 4296000   0.56059642   -7.7169958    810.51046  0.015722192  0.014482465          103 
 4297000   0.56813149   -7.7197121    810.37627  0.015715931  0.014477828           95 
 4298000   0.56192605   -7.7162312    809.44041  0.015694129  0.014473188           92 
 4299000   0.55824364   -7.7240477    810.80621  0.015716954  0.014468552          103 
 4300000   0.55994686   -7.7002517    809.80803  0.015693954   0.01446392           61 
 4301000   0.58101639   -7.7149798    809.21209  0.015678759  0.014459284           66 
 4302000   0.56091109   -7.7353518    810.18337  0.015693929   0.01445465           62 
 4303000   0.55926745   -7.7246741    810.25784  0.015691724  0.014450022           97 
 4304000   0.56519547   -7.7237681    810.12919  0.015685587  0.014445394          106 
 4305000    0.5605024   -7.7120417    811.58609  0.015710145  0.014440774           66 
 4306000    0.5553553   -7.7362584    809.80685  0.015672063  0.014436149           96 
 4307000   0.55815605    -7.695212    810.48045  0.015681458  0.014431526           73 
 4308000   0.56576592   -7.7220475    810.52248   0.01567863  0.014426906          100 
 4309000   0.57082285   -7.7037357    810.20681  0.015668887  0.014422287          193 
 4310000   0.57159508   -7.6976458    809.92318  0.015659768  0.014417668           57 
 4311000   0.56461139   -7.7091842    810.71118  0.015671367  0.014413053           75 
 4312000   0.56038526   -7.7285537    810.04154  0.015654792  0.014408433           86 
 4313000   0.55826247   -7.7374852    809.96045  0.015649595  0.014403818           50 
 4314000   0.56692851   -7.7385425    808.93043  0.015626071  0.014399198          130 
 4315000   0.56158117   -7.7269485    810.24784  0.015647892  0.014394584           84 
 4316000   0.56754998   -7.7281843    810.09381  0.015641292  0.014389964           66 
 4317000   0.56101267   -7.7209802    808.89726  0.015614571  0.014385354           94 
 4318000   0.55505354   -7.7236384    808.86559  0.015610344  0.014380746          132 
 4319000   0.55824217   -7.7331135    808.30251  0.015595865  0.014376132          102 
 4320000   0.56300374   -7.7446091    810.73238  0.015639128  0.014371528          109 
 4321000   0.57335816   -7.7418733    810.19834  0.015625209  0.014366921          141 
 4322000   0.55380509   -7.7399582    809.99541  0.015617681  0.014362318           79 
 4323000   0.54453883   -7.7232905    809.04235  0.015595696  0.014357719          147 
 4324000   0.56445204   -7.7107047    809.72394  0.015605225  0.014353121          103 
 4325000   0.56110242   -7.7174569     810.3171  0.015613046  0.014348523          127 
 4326000   0.54987395   -7.7276641    809.96075  0.015602573  0.014343931           96 
 4327000   0.56218677   -7.7196369    809.91182  0.015598024  0.014339331           80 
 4328000   0.56796084   -7.7224231    808.82706  0.015573534   0.01433473          133 
 4329000   0.55238463   -7.7251346    809.75626  0.015587824  0.014330137          129 
 4330000    0.5510555   -7.7387281    808.54478  0.015560908  0.014325539           60 
 4331000   0.56993072   -7.7250548    809.52702  0.015576215  0.014320942           91 
 4332000   0.56129311   -7.7311951    810.23954  0.015586325  0.014316352           74 
 4333000   0.55891951   -7.7374575    808.88354  0.015556649  0.014311768           78 
 4334000    0.5586423   -7.7629756    810.86912  0.015591238  0.014307179          113 
 4335000   0.57041658   -7.7561616    808.12727  0.015534934  0.014302594           66 
 4336000   0.56382059   -7.7348536    809.99029  0.015567157  0.014298005           99 
 4337000   0.56325374   -7.7159048     809.5192  0.015554515  0.014293421           85 
 4338000   0.56330347    -7.736351    809.44559  0.015549516  0.014288836           90 
 4339000   0.55541629   -7.7440905    809.05045  0.015538343  0.014284255           67 
 4340000   0.54303485   -7.7505562    808.72892  0.015528589  0.014279678          100 
 4341000   0.55174884   -7.7232473    808.51759  0.015520955  0.014275105           69 
 4342000   0.56078167   -7.7298405    808.68213  0.015520538  0.014270535           78 
 4343000   0.56406351   -7.7473836    810.27349    0.0155475  0.014265961           74 
 4344000   0.55518531   -7.7372099    810.40269  0.015546399  0.014261391          109 
 4345000   0.55921954   -7.7123396    809.22815  0.015520294  0.014256824           58 
 4346000   0.55132984   -7.7373651    809.65199   0.01552485   0.01425225           79 
 4347000   0.55639622   -7.7432759    809.33967  0.015515292  0.014247679           78 
 4348000   0.55999136   -7.7287747    808.96079  0.015504462  0.014243116           73 
 4349000   0.55714555     -7.74027    809.43416  0.015509967  0.014238554           64 
 4350000   0.55535856   -7.7260857    808.70548  0.015492442  0.014233993           80 
 4351000    0.5588155   -7.7195236    809.98768  0.015513439  0.014229433           63 
 4352000   0.56027749   -7.7453152    809.92897   0.01550875  0.014224872           71 
 4353000   0.54837493   -7.7304251    809.86513  0.015503965  0.014220316           96 
 4354000   0.54224876   -7.7342111    808.83689  0.015480724  0.014215757           62 
 4355000   0.55045993   -7.7301796    808.99499  0.015480195  0.014211196           98 
 4356000   0.55722914   -7.7413719    807.69725  0.015451815  0.014206633           64 
 4357000   0.55869818   -7.7163472    810.12187  0.015494642   0.01420208          113 
 4358000   0.55355154   -7.7467613     808.8384  0.015466544  0.014197528           57 
 4359000   0.55518575   -7.7403833     810.1156  0.015487413  0.014192976           75 
 4360000   0.56234418    -7.741045    809.02131  0.015462945  0.014188431           97 
 4361000   0.55442888   -7.7330998    810.49525  0.015487565  0.014183879           89 
 4362000   0.53803264   -7.7415903    810.41186  0.015482421  0.014179339          111 
 4363000   0.55342317   -7.7440043    809.54366   0.01546229    0.0141748          113 
 4364000   0.56394007   -7.7340357    809.86164  0.015464819  0.014170267           75 
 4365000   0.54825127   -7.7402069    808.99723  0.015444773  0.014165734          109 
 4366000   0.54812348   -7.7594689    809.45371  0.015449949  0.014161194           95 
 4367000   0.55062791   -7.7468372    808.19419  0.015422376   0.01415666           79 
 4368000   0.55399539   -7.7310188    807.94213  0.015414036  0.014152126           90 
 4369000   0.54893136   -7.7432263    809.74709  0.015444936  0.014147589           64 
 4370000   0.54339879   -7.7311998    808.23579  0.015412582  0.014143056          117 
 4371000   0.55826119   -7.7304458    808.42398  0.015412644  0.014138528           85 
 4372000   0.54951944   -7.7336201    809.74746  0.015434345  0.014134001           93 
 4373000   0.54963909   -7.7423261    808.23046  0.015401907  0.014129479          111 
 4374000   0.54531506   -7.7435536     808.7639  0.015408549  0.014124961           65 
 4375000   0.53976706   -7.7411671    809.71695   0.01542318   0.01412044           60 
 4376000   0.55750805   -7.7233898    807.67419  0.015380755  0.014115923           63 
 4377000   0.55011702    -7.741098    808.63909  0.015395611  0.014111408          130 
 4378000   0.55146168   -7.7338605    810.32904  0.015424262    0.0141069          130 
 4379000   0.55553389   -7.7362767    809.83719   0.01541138  0.014102389           75 
 4380000    0.5475751   -7.7504082    809.73959  0.015406004  0.014097875           87 
 4381000   0.54808327   -7.7475951    809.59078  0.015399657  0.014093369           56 
 4382000   0.55046646   -7.7521624    809.45302  0.015393523  0.014088864           72 
 4383000   0.54850343   -7.7459164    809.93518  0.015399178  0.014084368          132 
 4384000   0.55447232   -7.7370035    808.54331  0.015369208  0.014079869           89 
 4385000   0.55195819   -7.7364946    810.28857  0.015398871  0.014075373           79 
 4386000   0.55311343   -7.7405175    809.44563  0.015379344  0.014070878           71 
 4387000   0.55506789   -7.7412885    810.16332  0.015389471   0.01406638           72 
 4388000   0.55704132   -7.7253093    809.77767   0.01537864  0.014061886           66 
 4389000    0.5479243   -7.7496816    810.39601  0.015386876  0.014057389           67 
 4390000   0.56056114   -7.7378102    809.17349  0.015360165  0.014052897           99 
 4391000     0.542815   -7.7458358    809.60641  0.015364883  0.014048398           97 
 4392000   0.55592876   -7.7315175    811.03672  0.015388523   0.01404391           68 
 4393000   0.53854448   -7.7602912    808.96622  0.015345744  0.014039418           83 
 4394000   0.54672797   -7.7447367    809.71841  0.015356517  0.014034926           93 
 4395000   0.54177888   -7.7379126    810.80475  0.015373621  0.014030439           55 
 4396000   0.56628544   -7.7456088    809.85002  0.015352025  0.014025963           92 
 4397000   0.55409627    -7.733841    810.61333     0.015363  0.014021484           82 
 4398000   0.55341408   -7.7278284    809.35314  0.015335629  0.014017007           79 
 4399000   0.54807218   -7.7324794    809.95817  0.015343604   0.01401253          106 
 4400000   0.54781948   -7.7487323    809.40091  0.015329563  0.014008055           81 
 4401000   0.54985028   -7.7332127    808.99326  0.015318361  0.014003577           63 
 4402000   0.54472249   -7.7492106    809.66495  0.015327596  0.013999107           78 
 4403000   0.53648818   -7.7529084    807.21317  0.015277712   0.01399463           82 
 4404000   0.54738153   -7.7440842     809.1629  0.015311136  0.013990154           74 
 4405000   0.54181779   -7.7283837    808.98643  0.015304321  0.013985674           62 
 4406000   0.54793334   -7.7123341     808.1717  0.015285438  0.013981198          104 
 4407000   0.54373552   -7.7540722     809.2421   0.01530221  0.013976723           72 
 4408000   0.55198932   -7.7541142    809.29535  0.015299746  0.013972253           66 
 4409000   0.54900488    -7.762952    809.37446  0.015297771  0.013967789           75 
 4410000   0.55256661   -7.7308133    809.12389  0.015289567  0.013963324           86 
 4411000   0.55538771   -7.7580925    810.34371  0.015309146  0.013958859           84 
 4412000   0.54637889   -7.7477229    809.57242  0.015291108  0.013954396           68 
 4413000   0.54636544   -7.7467805    808.05751  0.015259036  0.013949935          105 
 4414000    0.5498001   -7.7468732     809.1517  0.015276237  0.013945475          100 
 4415000   0.53927644   -7.7581006    809.81149   0.01528523  0.013941019           94 
 4416000    0.5508846   -7.7345423    810.51797  0.015295101  0.013936563           62 
 4417000   0.54191174   -7.7426692    808.17212   0.01524738  0.013932102           65 
 4418000   0.53835239    -7.727882    808.41078   0.01524843  0.013927646           69 
 4419000   0.53595089   -7.7491798    809.03648  0.015256779   0.01392319           99 
 4420000   0.54815524   -7.7852472    809.99615  0.015271421  0.013918738           65 
 4421000   0.54972977   -7.7651023    808.96274  0.015248487  0.013914289           60 
 4422000   0.53898811   -7.7596957    809.62416  0.015257503  0.013909842           59 
 4423000   0.53697118   -7.7409577    807.89289  0.015221435  0.013905396          119 
 4424000   0.53489149   -7.7436508    809.60541  0.015250253  0.013900957           71 
 4425000   0.54108675   -7.7712979    809.42483  0.015243405   0.01389651           95 
 4426000    0.5553846   -7.7531509    809.85639  0.015248087  0.013892067           79 
 4427000   0.54138099   -7.7656361    809.98143  0.015246996  0.013887626           65 
 4428000   0.53457088    -7.734807    808.28122  0.015211556  0.013883192           62 
 4429000    0.5436899   -7.7531122    808.42128  0.015210756  0.013878752           83 
 4430000    0.5286183   -7.7641537    807.75846  0.015194854  0.013874309           85 
 4431000   0.54407133   -7.7483802    809.09305  0.015216525  0.013869872           80 
 4432000   0.54611492   -7.7642321    809.37398  0.015218373  0.013865431           78 
 4433000   0.55105097   -7.7567203    809.76752  0.015222339     0.013861           92 
 4434000   0.53723003    -7.775647     808.7916  0.015200564  0.013856574           61 
 4435000   0.52678618   -7.7501204    806.31818  0.015150661  0.013852139           56 
 4436000   0.54274544   -7.7496344    809.50755   0.01520716  0.013847707           92 
 4437000   0.54670591   -7.7610777    808.83296  0.015191063  0.013843274          110 
 4438000   0.54897714    -7.752038    807.82287  0.015168673  0.013838845           74 
 4439000    0.5408476    -7.775027    807.34837  0.015156348  0.013834413           79 
 4440000   0.53783502   -7.7580402    808.55481  0.015175578  0.013829983           63 
 4441000   0.54749479   -7.7645565    807.81193  0.015158221  0.013825551           91 
 4442000   0.54951554   -7.7626815    808.19956  0.015162081  0.013821125           78 
 4443000   0.54006378   -7.7729783    808.64752   0.01516707  0.013816699          128 
 4444000   0.54438047   -7.7679947     807.3729  0.015139756  0.013812271           77 
 4445000   0.54628048   -7.7412708    808.19662  0.015151793  0.013807851           71 
 4446000   0.53929944    -7.757667    809.25018  0.015168132  0.013803433           69 
 4447000   0.54596896   -7.7578895    809.18378  0.015163477  0.013799011           86 
 4448000   0.53211197   -7.7553123    808.18191  0.015141298  0.013794593          107 
 4449000    0.5492147   -7.7727155    807.26761  0.015120769  0.013790175          107 
 4450000   0.54613978   -7.7583712    807.99823  0.015131053  0.013785754           99 
 4451000   0.54590698   -7.7637737    808.22566  0.015131912  0.013781335          128 
 4452000   0.53906132   -7.7830284    807.50063  0.015114941  0.013776918          114 
 4453000   0.53285183   -7.7610732    808.44316  0.015129186   0.01377251          130 
 4454000    0.5382545   -7.7583247    809.17143  0.015139415    0.0137681          106 
 4455000   0.53608222   -7.7547292    808.06312  0.015115285  0.013763692          111 
 4456000    0.5380136   -7.7488132     807.2692  0.015097045  0.013759282           71 
 4457000   0.53810326   -7.7560695    808.02959  0.015107875  0.013754878          105 
 4458000   0.52604051   -7.7545415    808.70867   0.01511718  0.013750472          105 
 4459000    0.5423262   -7.7670203    808.26793  0.015105553  0.013746069           83 
 4460000   0.54104368   -7.7653665    808.89509  0.015113884  0.013741671           85 
 4461000   0.52661058   -7.7498459    806.70692   0.01506962  0.013737268          117 
 4462000   0.53896753   -7.7730915    808.68074  0.015103107  0.013732868          140 
 4463000   0.54606673   -7.7589256    808.95912   0.01510492  0.013728473          100 
 4464000   0.53799845    -7.759988    809.16502  0.015105381  0.013724075          122 
 4465000   0.54098959   -7.7727591    808.98761  0.015098686  0.013719682          106 
 4466000   0.53635097   -7.7797216    807.89949  0.015075002   0.01371528          102 
 4467000   0.53250303   -7.7535675    808.06457  0.015074707  0.013710882           69 
 4468000   0.53500692   -7.7670868    807.97307  0.015069626  0.013706493          100 
 4469000   0.53657595   -7.7763532    807.50821  0.015057586  0.013702106           99 
 4470000   0.53909079   -7.7735176    807.48143  0.015053718  0.013697714           98 
 4471000   0.52867045   -7.7812623       808.47  0.015068777  0.013693326          129 
 4472000   0.53957501   -7.7711152    808.16995  0.015059816  0.013688935          151 
 4473000   0.54868285   -7.7777295    808.06353  0.015054466  0.013684541          128 
 4474000   0.53827259   -7.7748616    806.71961  0.015026069   0.01368016          103 
 4475000   0.52709242   -7.7748065    808.63849  0.015058445  0.013675781           96 
 4476000    0.5338671   -7.7630195    807.62693  0.015036248  0.013671402          137 
 4477000   0.53009587   -7.7939811    807.97799  0.015039424  0.013667025           90 
 4478000   0.53229797    -7.789123     808.0365  0.015037154   0.01366264          106 
 4479000   0.52895178   -7.7682312    807.17702  0.015017806  0.013658259          107 
 4480000   0.52484924   -7.7653878     807.8759  0.015027454  0.013653885          121 
 4481000   0.53042322   -7.7644988     807.6854  0.015020557  0.013649512           97 
 4482000   0.54317755   -7.7602203    807.29773  0.015009998  0.013645143           93 
 4483000   0.54879471   -7.7747939     806.9294  0.014999803   0.01364077           98 
 4484000   0.52849169   -7.7737098    808.08242  0.015017886  0.013636401           93 
 4485000   0.53852161      -7.7734    808.06314  0.015014179  0.013632031           70 
 4486000   0.52968903   -7.7746607    806.93779  0.014989928  0.013627671           88 
 4487000      0.52404   -7.7644403    806.61697  0.014980629  0.013623309          122 
 4488000    0.5437601   -7.7706872    806.89489  0.014982451  0.013618948          102 
 4489000   0.51855413   -7.7893406    807.86715  0.014997163   0.01361459           64 
 4490000   0.53869555   -7.7763336    808.21054  0.015000196   0.01361023          111 
 4491000   0.53954273     -7.77536    808.03124  0.014993529  0.013605873           99 
 4492000    0.5335517   -7.7862052    807.86294  0.014987068  0.013601517           78 
 4493000   0.53745421   -7.7784219     807.7949  0.014982471   0.01359716           90 
 4494000   0.53489098   -7.7792007    806.97457  0.014963925  0.013592806          107 
 4495000   0.53328404   -7.7597764    807.17755  0.014964359  0.013588454           88 
 4496000   0.53755029   -7.7942069    808.36343  0.014983011  0.013584102           89 
 4497000   0.53155699   -7.7823286     807.2834  0.014959666  0.013579751           85 
 4498000   0.54866469   -7.7871341    808.24032  0.014974068  0.013575404           97 
 4499000   0.53170239   -7.7703316    806.71746  0.014942533  0.013571058           78 
 4500000   0.52780524   -7.7843878    807.47589  0.014953257  0.013566713           86 
 4501000   0.53849322   -7.7772913    807.97709  0.014959214  0.013562369          135 
 4502000   0.52889536   -7.7727331    807.98596  0.014956056  0.013558031           87 
 4503000   0.53341009   -7.7695858    808.39737  0.014960348  0.013553695          140 
 4504000   0.53286588   -7.7907978    807.88024  0.014947459  0.013549367           93 
 4505000   0.52481393   -7.7620174    807.15387  0.014930704  0.013545031          111 
 4506000   0.51700052   -7.7747115    808.11042  0.014945081  0.013540697           82 
 4507000   0.52799397   -7.7987687    807.46485  0.014929829  0.013536367           98 
 4508000   0.52868212   -7.7913868    808.21636  0.014940409  0.013532033          103 
 4509000    0.5316624   -7.7844858     806.8663  0.014912144    0.0135277           86 
 4510000   0.52389744   -7.7767317    806.42301  0.014900647  0.013523371           83 
 4511000   0.53331977   -7.7839114    808.69093   0.01493924  0.013519051           76 
 4512000   0.52363303   -7.7840188    808.18546  0.014926593  0.013514728           71 
 4513000   0.53655861   -7.7775916     808.3158  0.014925692  0.013510408           86 
 4514000   0.51816252   -7.7762658    807.20123   0.01490181  0.013506091          102 
 4515000   0.54087096   -7.7984133    810.09282  0.014951879  0.013501775          103 
 4516000   0.53139274    -7.798267    806.82969  0.014888354   0.01349746           98 
 4517000   0.53815153   -7.7986977    806.50661  0.014879098  0.013493142          114 
 4518000    0.5353778   -7.7765899    807.52205  0.014894534  0.013488826           95 
 4519000   0.53357387   -7.8028831    807.81023  0.014896552  0.013484512          109 
 4520000   0.53341551   -7.7704115    807.98002  0.014896387  0.013480201          100 
 4521000    0.5400733   -7.7772247    806.15521  0.014859456  0.013475893          117 
 4522000   0.54511166   -7.7783907    807.84678  0.014887343   0.01347159           92 
 4523000   0.54351099    -7.784666    807.38709  0.014875582  0.013467286           97 
 4524000   0.51881712   -7.7961369    807.63989  0.014876951  0.013462983           93 
 4525000   0.52380866   -7.7875116    807.24888  0.014866462   0.01345868           96 
 4526000   0.53532942   -7.7910973    809.16854  0.014898522  0.013454381          124 
 4527000   0.53269699   -7.7980062    806.81732   0.01485195   0.01345008          104 
 4528000   0.52736747   -7.8009025    807.44928    0.0148603  0.013445779           88 
 4529000    0.5292624   -7.7644059    806.51648  0.014839856  0.013441484           89 
 4530000   0.52146509   -7.7712797    808.00292  0.014863924  0.013437193           79 
 4531000   0.53902201    -7.771147    808.72663  0.014873954  0.013432898           80 
 4532000   0.51822177   -7.8017314    808.11723  0.014859466  0.013428608          103 
 4533000   0.52664377   -7.7759201    806.67847  0.014829739  0.013424312           97 
 4534000   0.53705867   -7.7943726    807.29401  0.014837781  0.013420016          104 
 4535000   0.51852641   -7.7967585    806.72697   0.01482409  0.013415723           69 
 4536000   0.53435638   -7.7933843    807.72953   0.01483924  0.013411433           88 
 4537000   0.52584178   -7.7762007    807.60324   0.01483365  0.013407146          103 
 4538000   0.53341279   -7.7884582    808.09478  0.014839408  0.013402862          120 
 4539000    0.5227858     -7.78231    807.37433  0.014822911  0.013398572          105 
 4540000    0.5281152   -7.7890534    808.55695  0.014841354  0.013394288          106 
 4541000    0.5283848   -7.7958281    807.18117  0.014812838  0.013390007           95 
 4542000   0.51375611   -7.7839248    807.02571  0.014806724  0.013385729           95 
 4543000   0.53335191    -7.784759    806.86104  0.014800445   0.01338145          108 
 4544000   0.52330603    -7.791752    806.61719  0.014792715  0.013377173          100 
 4545000   0.52094466   -7.7904829    807.28729  0.014801747  0.013372899           91 
 4546000   0.53954621   -7.7884282    807.74583  0.014806897  0.013368622           88 
 4547000    0.5180692   -7.8014003    806.88963  0.014787949  0.013364348           91 
 4548000   0.52668721   -7.7903073    807.97201   0.01480453  0.013360077           86 
 4549000   0.53294609   -7.7907157    806.55356  0.014775291  0.013355808           98 
 4550000   0.51861161   -7.7863287    807.09322  0.014781927  0.013351538          116 
 4551000   0.52525971   -7.7963551    806.57745  0.014769235  0.013347277          105 
 4552000   0.53921428   -7.8016256    808.00107  0.014792052  0.013343013           99 
 4553000   0.51342719   -7.7941737    806.79479  0.014766725  0.013338756          103 
 4554000   0.52584743   -7.8014939    806.71774  0.014762073  0.013334496          113 
 4555000   0.52141818   -7.7842254     805.5504  0.014737475   0.01333024           93 
 4556000   0.52396436    -7.787989    807.13179  0.014763166  0.013325985           87 
 4557000   0.53383002   -7.7914687     807.7721  0.014771635  0.013321734          113 
 4558000   0.51959468   -7.7929494    807.94538  0.014771563  0.013317486           99 
 4559000   0.51910289   -7.7996603    805.87307  0.014730443  0.013313235           71 
 4560000    0.5312356   -7.7980563    807.39401  0.014755008  0.013308991           94 
 4561000    0.5318199   -7.7905141    806.86911  0.014742182  0.013304749           88 
 4562000   0.51535595   -7.7645737    807.68131  0.014753787  0.013300505           92 
 4563000    0.5244891   -7.7964683    806.00365  0.014719915  0.013296262          117 
 4564000   0.52521136   -7.7854976    807.06051  0.014735987  0.013292025           80 
 4565000   0.51279559   -7.8062599    807.17234    0.0147348  0.013287787           92 
 4566000   0.52149934   -7.7857097    807.84189  0.014743793  0.013283551           85 
 4567000   0.52404816   -7.7908811    807.41307   0.01473274  0.013279313           94 
 4568000   0.50469932   -7.7890974    807.78921  0.014736376  0.013275076           87 
 4569000   0.52506478    -7.777204    806.70762  0.014713424  0.013270843          145 
 4570000   0.52088072   -7.7964552    807.27009  0.014720461  0.013266608           90 
 4571000   0.52748386   -7.7788348    807.06156  0.014713439  0.013262375           73 
 4572000   0.51963547    -7.806677    807.28002  0.014714203  0.013258143           94 
 4573000   0.52098104   -7.7983615    805.94333  0.014686627  0.013253913           98 
 4574000   0.51593081   -7.8032484    807.26744   0.01470754  0.013249683          106 
 4575000   0.50896047   -7.7809435    806.16976  0.014684331  0.013245457           89 
 4576000   0.51569033   -7.8012457    807.13219  0.014698649  0.013241236          114 
 4577000    0.5198143   -7.7993806    808.13415   0.01471368   0.01323701          154 
 4578000   0.50436739   -7.7964173    806.79418  0.014686074   0.01323279           84 
 4579000   0.51664133    -7.789855     808.2978  0.014710231  0.013228568          107 
 4580000    0.5226349   -7.8073181    807.06785  0.014684641  0.013224348           90 
 4581000   0.51973898   -7.8050818    806.73207  0.014675327  0.013220129          105 
 4582000   0.52334236   -7.7865329    806.04371  0.014659605  0.013215916           72 
 4583000   0.52504752   -7.7956208    808.04984  0.014692884  0.013211703           95 
 4584000   0.51579168   -7.7908734    807.17908  0.014673849  0.013207489           70 
 4585000   0.50952856   -7.8045047    807.23898  0.014671737  0.013203278           85 
 4586000   0.52037012   -7.8077212    806.68359  0.014658446  0.013199066           77 
 4587000   0.51249852   -7.7859771    806.30153  0.014648309  0.013194855           96 
 4588000    0.5119539   -7.8051472    807.02001  0.014658166  0.013190647           93 
 4589000    0.5156813   -7.8026563    807.07229  0.014655922  0.013186442          106 
 4590000   0.51362204    -7.811336    806.07902  0.014634695   0.01318224           83 
 4591000   0.52228008   -7.8047181    806.52963  0.014639687  0.013178038           94 
 4592000   0.52792574   -7.8115854    807.43565  0.014652941  0.013173842           92 
 4593000   0.51313234   -7.8162142     807.4655  0.014650292  0.013169644          112 
 4594000   0.51110915    -7.814846    807.88121  0.014654644  0.013165446           82 
 4595000   0.51438673   -7.7937112    806.50947  0.014626577  0.013161251           72 
 4596000   0.51466498   -7.8158018    807.46899  0.014640793  0.013157057           78 
 4597000   0.52380423   -7.7946775    806.35041   0.01461733  0.013152863           94 
 4598000   0.52011469   -7.8035063    806.37801  0.014614652  0.013148674           92 
 4599000   0.51808784   -7.8072025    807.32873  0.014628701  0.013144484           76 
 4600000   0.50781566   -7.8199265    806.06135  0.014602561  0.013140294           96 
 4601000   0.51299415   -7.7986602    806.25743  0.014602938    0.0131361          110 
 4602000   0.52541643   -7.8171553    805.61635  0.014588156  0.013131914           80 
 4603000   0.51350291   -7.7973254    806.18009  0.014595193  0.013127732           89 
 4604000   0.51851796   -7.7735989    805.75521  0.014584333   0.01312355           88 
 4605000   0.51016257   -7.7986339    806.01225  0.014585817  0.013119371           80 
 4606000   0.51252395   -7.7939019     806.1946   0.01458595  0.013115187           96 
 4607000    0.5080221   -7.8110943    806.74112  0.014592669  0.013111006           80 
 4608000   0.51438612   -7.7936486    806.67542  0.014588314  0.013106835           79 
 4609000   0.50520751   -7.8138977    806.79255  0.014587267  0.013102662           77 
 4610000   0.52201351   -7.8077402    806.65167  0.014581556  0.013098491           92 
 4611000   0.51095175   -7.8041548    806.84121  0.014581819  0.013094314           82 
 4612000   0.50994264   -7.8085305    805.85998  0.014560928  0.013090143           86 
 4613000    0.5196223   -7.8063787    807.28021  0.014583427  0.013085973           92 
 4614000   0.52334258    -7.818005    805.52813  0.014548622  0.013081805          111 
 4615000   0.52696091   -7.8126692    806.10727  0.014555928   0.01307764           90 
 4616000   0.50910612   -7.8116806    807.03854  0.014569587  0.013073478           87 
 4617000   0.50737504   -7.8125162    807.95242  0.014582926  0.013069316           84 
 4618000   0.49476842     -7.81325    806.45266  0.014552704  0.013065157           85 
 4619000   0.51853508   -7.8252239    805.47876  0.014531983  0.013060997           73 
 4620000   0.51456699   -7.8061331    806.77814  0.014552275  0.013056842           83 
 4621000   0.52347657    -7.822286    805.25068   0.01452158  0.013052688          118 
 4622000   0.51558216   -7.8125429    807.39366  0.014557076  0.013048533           79 
 4623000   0.52073468   -7.8101373    806.55617  0.014538831  0.013044382           81 
 4624000   0.51288596   -7.8030511    806.57425  0.014536012  0.013040232           93 
 4625000   0.52052284   -7.8125811    806.19337  0.014526007  0.013036082           76 
 4626000   0.52252472   -7.8015851    806.66071  0.014531285  0.013031933           94 
 4627000   0.51340196   -7.8031092    805.93022  0.014514988  0.013027788           92 
 4628000   0.50976549   -7.8307803    806.42478  0.014520757  0.013023637           97 
 4629000   0.53195379   -7.8031169    806.65955  0.014521847  0.013019486           87 
 4630000   0.51397599   -7.8077739    806.03212  0.014507418  0.013015341          109 
 4631000   0.50254043   -7.8187874    805.25973  0.014490386  0.013011196           90 
 4632000   0.50962619    -7.821486    806.67262  0.014512677  0.013007051          138 
 4633000    0.5068914   -7.8310027    807.60023  0.014526229  0.013002914          109 
 4634000   0.51130314   -7.8024503    806.69924  0.014506892  0.012998776          148 
 4635000   0.51942859   -7.8169485    806.12481  0.014493434  0.012994637          107 
 4636000   0.51161689   -7.8081436    805.91587  0.014486552  0.012990501           90 
 4637000   0.51177044   -7.8282338    806.71973  0.014497875  0.012986366           80 
 4638000   0.50871951   -7.8230386    806.63548  0.014493235  0.012982232           95 
 4639000   0.50781301   -7.8281731    807.15903  0.014499516  0.012978099           85 
 4640000   0.50726838   -7.8187557    806.25841  0.014480216  0.012973967           94 
 4641000   0.51520365   -7.8203713    806.64067  0.014483959  0.012969839           85 
 4642000   0.51396397   -7.8202158    806.54386  0.014479101   0.01296571          137 
 4643000   0.51263267   -7.8419337     805.9625  0.014465548   0.01296158          148 
 4644000   0.51789362   -7.8304125    806.94585  0.014480079  0.012957455           85 
 4645000   0.51579297   -7.8123531    805.72619   0.01445508  0.012953327          102 
 4646000   0.51267778   -7.8249342    806.63189  0.014468214  0.012949202          101 
 4647000   0.51462882   -7.8308696    805.69558   0.01444831  0.012945078           79 
 4648000   0.50131693    -7.817113    806.38192  0.014457507   0.01294096           82 
 4649000   0.52016867   -7.8314596    805.57679  0.014439965  0.012936838           87 
 4650000    0.4967238   -7.8306541    807.52208  0.014471722  0.012932719           82 
 4651000   0.50571063   -7.8216644    806.38056  0.014448157  0.012928603           88 
 4652000   0.50607803   -7.8195302    806.92221  0.014454754  0.012924488          108 
 4653000   0.50983753   -7.8019733    805.06278  0.014418346  0.012920375           89 
 4654000   0.50466196   -7.8073783    808.05224  0.014468777  0.012916267          111 
 4655000   0.49651859   -7.8147419    805.67015  0.014423025   0.01291216           86 
 4656000   0.50334379   -7.8167913    806.54034  0.014435501  0.012908054          102 
 4657000   0.50999836   -7.8322749    807.40325  0.014447843  0.012903951          124 
 4658000   0.49721035   -7.8406887    805.24336    0.0144061  0.012899844           93 
 4659000   0.51336872   -7.8115204    806.67803  0.014428669  0.012895742          100 
 4660000   0.50406241   -7.8366024    805.80418  0.014409946  0.012891642          138 
 4661000   0.50946262   -7.8178441    806.97606  0.014427806  0.012887541          117 
 4662000   0.50622307   -7.8254986    808.25723  0.014447612  0.012883444          138 
 4663000   0.49862922   -7.8210518    806.35166  0.014410459  0.012879353          103 
 4664000   0.51799333   -7.8258686    806.23966  0.014405368  0.012875255           84 
 4665000   0.51127159   -7.8031357    805.13488  0.014382545   0.01287116          125 
 4666000   0.50548923   -7.8103201    805.72145  0.014389939  0.012867063          135 
 4667000   0.51047664   -7.8320553    805.54537  0.014383711   0.01286297           91 
 4668000   0.51117342   -7.8136192    806.93976  0.014405523   0.01285888          188 
 4669000   0.50349322    -7.806846    806.73275  0.014398743  0.012854789           93 
 4670000   0.49232537   -7.8389984    806.53291  0.014392093  0.012850698          108 
 4671000   0.50329837   -7.7966906    806.13481   0.01438191  0.012846613          141 
 4672000   0.51380657    -7.818632    804.16689   0.01434373   0.01284253           79 
 4673000   0.51143025   -7.8195666    804.90522  0.014353827  0.012838448          149 
 4674000   0.49383685   -7.8295663    806.19871  0.014373818  0.012834363          125 
 4675000   0.49749588   -7.8293076    805.00931  0.014349542   0.01283028           95 
 4676000   0.50352482   -7.8451147    805.24772  0.014350722  0.012826202          100 
 4677000   0.50251425   -7.8331685    805.57043  0.014353404  0.012822122          145 
 4678000   0.49594579   -7.8483499    805.77143  0.014353916  0.012818046          108 
 4679000   0.50272414   -7.8301889    806.15912  0.014357753  0.012813969           98 
 4680000    0.5026247   -7.8142837    806.04923  0.014352728  0.012809894           86 
 4681000    0.5055736   -7.8252122    805.33314  0.014336914  0.012805824          140 
 4682000   0.50900529    -7.845156    807.45009  0.014371531  0.012801753          116 
 4683000   0.51898893   -7.8222282    806.51539  0.014351829  0.012797683           85 
 4684000   0.50813794   -7.8145364    804.67328  0.014315992  0.012793617          136 
 4685000   0.49776889   -7.8418065    805.88392   0.01433447   0.01278955          139 
 4686000   0.50758489   -7.8331308     805.0037  0.014315758   0.01278549          156 
 4687000   0.50301642   -7.8410078    806.45551  0.014338516  0.012781426          106 
 4688000   0.50768309   -7.8402935    805.89173  0.014325436  0.012777361          150 
 4689000   0.49630199   -7.8393233    806.57778  0.014334574  0.012773299          161 
 4690000   0.49584997   -7.8314773    805.11514  0.014305529  0.012769236           96 
 4691000   0.50211971   -7.8461883     806.0005  0.014318207  0.012765176          112 
 4692000   0.50106306   -7.8260671    805.20914    0.0143011  0.012761118          146 
 4693000   0.52008214   -7.8318679    806.62729  0.014323235  0.012757063          189 
 4694000   0.50069244   -7.8117395    805.35824  0.014297654  0.012753007          168 
 4695000    0.5071848   -7.8346155    804.69915   0.01428291  0.012748954           82 
 4696000   0.49850421    -7.840152    806.92364  0.014319343  0.012744904          103 
 4697000   0.50748207    -7.825928    806.79767   0.01431406  0.012740852          122 
 4698000   0.49168253   -7.8258593    805.42999  0.014286753  0.012736808           88 
 4699000   0.49908892   -7.8345024    806.30206  0.014299178  0.012732764           80 
 4700000   0.50719889    -7.839916     805.4694  0.014281372  0.012728719           85 
 4701000   0.49174186   -7.8247991    806.55432  0.014297567  0.012724682          117 
 4702000   0.49294993   -7.8424963     805.4918  0.014275695  0.012720641           89 
 4703000   0.49758916   -7.8295283    805.58331  0.014274281  0.012716605          100 
 4704000   0.50597178   -7.8300983    806.74143  0.014291763  0.012712571          153 
 4705000   0.48963844   -7.8248708    805.40913  0.014265128  0.012708535          131 
 4706000   0.48757458   -7.8288732    805.65937  0.014266528  0.012704499           98 
 4707000   0.50533578   -7.8390716    807.02235  0.014287627  0.012700468          109 
 4708000    0.4986198    -7.805378    806.23346  0.014270629  0.012696435          118 
 4709000   0.50469277   -7.8355498    805.90857  0.014261849  0.012692407           91 
 4710000   0.49733233   -7.8548919     806.3748   0.01426707  0.012688377          121 
 4711000   0.50435451   -7.8240903    805.11362  0.014241732  0.012684351           86 
 4712000   0.48069116   -7.8353374    805.38427  0.014243496  0.012680323          120 
 4713000   0.50226611   -7.8237724    806.31122  0.014256864  0.012676297          125 
 4714000    0.5087406   -7.8183333    805.48874    0.0142393  0.012672274           97 
 4715000   0.49136759   -7.8606986      805.637  0.014238901  0.012668249          179 
 4716000   0.49440593    -7.837507    805.99501  0.014242208  0.012664224           99 
 4717000   0.50122133   -7.8551137    806.50439  0.014248187  0.012660202           88 
 4718000    0.4975336   -7.8274937     805.7343  0.014231565   0.01265618           80 
 4719000   0.50334084   -7.8265193    804.72862   0.01421079   0.01265216           97 
 4720000   0.49945801   -7.8381634    806.06151  0.014231312  0.012648145          132 
 4721000   0.49057892   -7.8432781    806.41509  0.014234539  0.012644132          173 
 4722000    0.5037907   -7.8407976    806.23108  0.014228277  0.012640115          100 
 4723000   0.50737048   -7.8433765    805.43297  0.014211182    0.0126361          117 
 4724000   0.49917941   -7.8490833     805.6184  0.014211445  0.012632093          126 
 4725000   0.48494385   -7.8369405    807.31363  0.014238336   0.01262808          163 
 4726000   0.49886573   -7.8387637    806.07014  0.014213396  0.012624069          128 
 4727000   0.50127675   -7.8444782    804.21635  0.014177709  0.012620065          133 
 4728000   0.49456066   -7.8293437     804.9877  0.014188305  0.012616059          140 
 4729000   0.49319499   -7.8527393    805.07958  0.014186924  0.012612054           93 
 4730000   0.48478292   -7.8383137    805.99204  0.014200001  0.012608051          138 
 4731000   0.48099319   -7.8487026    804.84424  0.014176781  0.012604048          193 
 4732000   0.48794248   -7.8460752    806.19597   0.01419759  0.012600052          226 
 4733000   0.49548418   -7.8326637    804.34656  0.014162028  0.012596054          175 
 4734000   0.49968917   -7.8279451    807.21577  0.014209544   0.01259206           88 
 4735000   0.48999271   -7.8476653    804.71155   0.01416247  0.012588071           91 
 4736000   0.49314628   -7.8505197    805.19746   0.01416803  0.012584081          190 
 4737000   0.49103206   -7.8413505    805.32257   0.01416724   0.01258009          103 
 4738000   0.50084686   -7.8232084     805.4032  0.014165668  0.012576107           97 
 4739000    0.4996458   -7.8417286    804.72267  0.014150712   0.01257212           89 
 4740000   0.49598616   -7.8576631    804.21977  0.014138885  0.012568134           92 
 4741000   0.49698053   -7.8398846    805.58195  0.014159846   0.01256415           95 
 4742000   0.49806822   -7.8597399    806.46602  0.014172396  0.012560167          103 
 4743000    0.4851101   -7.8536833    805.30316  0.014148977  0.012556183           84 
 4744000    0.4923057   -7.8398073    806.13598  0.014160624  0.012552204           99 
 4745000    0.4868853   -7.8423597    806.37744   0.01416188  0.012548227           95 
 4746000   0.49695903   -7.8401136    804.82656  0.014131665  0.012544253           88 
 4747000   0.49466837   -7.8404215    805.72303  0.014144425  0.012540276          138 
 4748000   0.49068285   -7.8438368    805.67498  0.014140603  0.012536306           88 
 4749000   0.48332862   -7.8507153    805.76202  0.014139152  0.012532333          107 
 4750000   0.49165553   -7.8401391    804.54635  0.014114848  0.012528362           90 
 4751000   0.49073465   -7.8343192    805.31372  0.014125337  0.012524393          104 
 4752000   0.48448734   -7.8320527    805.29187  0.014121981  0.012520427          156 
 4753000   0.49487791   -7.8468937    804.77052   0.01410987  0.012516465           88 
 4754000   0.49282087   -7.8488927    806.54447  0.014137997  0.012512499          126 
 4755000   0.49657266   -7.8421778    806.37297  0.014132018  0.012508536           84 
 4756000   0.49212818   -7.8417302    804.84982  0.014102359  0.012504577           83 
 4757000   0.49579028   -7.8472657    804.80051   0.01409853  0.012500617           94 
 4758000   0.49637754    -7.843685    805.51057  0.014108003  0.012496663          167 
 4759000   0.47878588   -7.8236439    806.16161  0.014116439   0.01249271           95 
 4760000    0.4985365   -7.8261917    804.48347  0.014084094   0.01248876           78 
 4761000   0.48987934   -7.8370165    805.30048  0.014095437  0.012484807           95 
 4762000   0.50443531   -7.8445318    806.18808  0.014108009  0.012480859           88 
 4763000   0.48451921   -7.8525752    805.16626   0.01408717  0.012476911           96 
 4764000   0.48737745   -7.8600885    805.88672  0.014096815  0.012472964           94 
 4765000   0.49428052     -7.85064    804.81498  0.014075113  0.012469016          117 
 4766000   0.48689326    -7.844184    804.39649  0.014064843  0.012465073          102 
 4767000   0.48125802   -7.8332993    805.62003  0.014083281  0.012461127          103 
 4768000   0.47651859   -7.8426646      805.224  0.014073406  0.012457183           94 
 4769000   0.48897094    -7.845138     805.7993  0.014080508  0.012453243           92 
 4770000    0.4939654   -7.8591365    805.68463  0.014075553  0.012449302           84 
 4771000   0.49368718   -7.8529042    805.77005  0.014074094  0.012445368          126 
 4772000   0.49610868   -7.8638355    803.98498  0.014039972  0.012441431           97 
 4773000   0.48516379   -7.8443514    805.64184  0.014065958  0.012437493           96 
 4774000   0.48629956   -7.8579852     805.1815  0.014054977  0.012433561          173 
 4775000   0.48946632   -7.8625727    806.47239  0.014074562  0.012429632          140 
 4776000   0.48746591   -7.8458873    805.90185   0.01406166  0.012425699           81 
 4777000   0.48672591   -7.8472521    805.38047  0.014049621  0.012421772          166 
 4778000   0.48691067    -7.842267    806.23273  0.014061545  0.012417849           95 
 4779000   0.47939869   -7.8494847    806.22735  0.014058509  0.012413926           87 
 4780000   0.47612987   -7.8592364     805.0923  0.014035779  0.012410001           98 
 4781000   0.47879956   -7.8553344    803.93362  0.014012648  0.012406081          102 
 4782000    0.4869318   -7.8492092    803.35345  0.013999607  0.012402158           95 
 4783000   0.48201864   -7.8729784    806.00106  0.014042809  0.012398239           97 
 4784000   0.48589445   -7.8574375    803.45883   0.01399559  0.012394322          104 
 4785000   0.49006025   -7.8707993    804.73316  0.014014858  0.012390406          162 
 4786000   0.49265525   -7.8593592    805.86627   0.01403166  0.012386495          102 
 4787000   0.48189977   -7.8676658    806.46741  0.014039193   0.01238258           91 
 4788000   0.47731538   -7.8635164    804.09133  0.013994906  0.012378667          107 
 4789000   0.47753134   -7.8425568    804.59391  0.014000729  0.012374756           88 
 4790000   0.49001735   -7.8635447    805.35797  0.014011099  0.012370847          128 
 4791000   0.48104603   -7.8525388    804.12861  0.013986791  0.012366937          125 
 4792000   0.48739264   -7.8737944    804.39822  0.013988561  0.012363031          101 
 4793000   0.46686647   -7.8549826    804.23867  0.013982869  0.012359124          108 
 4794000   0.48989576   -7.8458107    805.12561  0.013995369  0.012355217           87 
 4795000   0.49661484   -7.8701442    805.84765  0.014004999  0.012351313           88 
 4796000   0.47607988   -7.8474764    804.97152  0.013986856   0.01234741          111 
 4797000   0.48270547   -7.8455019    804.15723  0.013969794   0.01234351          105 
 4798000   0.47977899   -7.8650533    804.84827  0.013978885  0.012339607           88 
 4799000   0.48305773    -7.861838    804.51091  0.013970114   0.01233571           95 
 4800000   0.48202493   -7.8530974    804.56891   0.01396821  0.012331813          122 
 4801000   0.47415529   -7.8559906    804.00342  0.013955485  0.012327915           97 
 4802000     0.484073   -7.8587034    804.88016  0.013967794   0.01232402           85 
 4803000   0.48580132   -7.8642883    804.56895  0.013959486  0.012320125          111 
 4804000   0.49269001   -7.8485566    803.96821   0.01394616  0.012316233          131 
 4805000   0.48971354   -7.8620761    805.47505   0.01396939  0.012312345          131 
 4806000   0.49119108   -7.8609081    804.86067  0.013955831  0.012308458           93 
 4807000   0.48659471   -7.8687316     805.7461  0.013968277  0.012304568           98 
 4808000   0.47586267   -7.8503265    804.88427  0.013950434  0.012300681           87 
 4809000   0.47949662   -7.8602503    804.73507  0.013944948  0.012296798          162 
 4810000   0.47433195   -7.8600102    805.00955  0.013946804  0.012292914           83 
 4811000   0.48033099   -7.8640554    804.92456  0.013942433  0.012289031           98 
 4812000    0.4799062   -7.8594691    805.77492  0.013954262  0.012285147          120 
 4813000   0.47523254   -7.8426228    805.61828  0.013948651  0.012281268           88 
 4814000   0.47930918   -7.8555184    804.55623  0.013927369  0.012277386          117 
 4815000   0.48893897   -7.8478212    804.87887   0.01393006  0.012273506           89 
 4816000    0.4698903   -7.8637617    803.73301   0.01390734  0.012269632          153 
 4817000   0.46840623   -7.8552101    803.99609  0.013909004  0.012265754          100 
 4818000   0.48114807   -7.8728056    805.83709   0.01393796   0.01226188           99 
 4819000   0.47585989   -7.8730654    803.68844  0.013897912  0.012258005          119 
 4820000   0.48754101   -7.8799173    804.59801  0.013910754  0.012254134          102 
 4821000   0.47787023   -7.8722753    804.95996  0.013914125  0.012250267           93 
 4822000   0.48744496    -7.863922    803.16747  0.013880262  0.012246398          194 
 4823000   0.48450844    -7.862105    805.48376  0.013917405  0.012242529           85 
 4824000   0.47191763   -7.8686002    805.85215  0.013920884  0.012238667          119 
 4825000    0.4884231   -7.8741807    803.96592  0.013885422    0.0122348          106 
 4826000   0.48553726   -7.8516552    803.21954  0.013869656  0.012230936          102 
 4827000    0.4895841   -7.8697409    804.59327  0.013890499  0.012227072           99 
 4828000   0.48160322   -7.8735039    804.73151  0.013890008  0.012223212          156 
 4829000    0.4793646   -7.8654252    804.83716  0.013888955  0.012219354          142 
 4830000   0.49088637   -7.8619842    803.60309  0.013864788  0.012215495          149 
 4831000   0.46101195   -7.8479366     806.3244   0.01390886  0.012211639           92 
 4832000   0.48005535    -7.860465    804.59152  0.013876095  0.012207783          101 
 4833000   0.48458253   -7.8732859    804.97177  0.013879781  0.012203929           97 
 4834000   0.48277296   -7.8621849    803.70862  0.013855134  0.012200075           99 
 4835000   0.46565216   -7.8722547    804.31705  0.013862755  0.012196222          118 
 4836000   0.48406027   -7.8557485    804.89865  0.013869911  0.012192373           99 
 4837000   0.48414415   -7.8700403    803.70549  0.013846487  0.012188523           96 
 4838000   0.47606225   -7.8542873     804.0335  0.013849275  0.012184678           88 
 4839000   0.48137786   -7.8727192    803.95922  0.013845134  0.012180829          166 
 4840000   0.47295291   -7.8638929    805.05507  0.013861141  0.012176984           92 
 4841000   0.47951061   -7.8639323    804.86131  0.013854942  0.012173141          107 
 4842000   0.48238572   -7.8666856    803.23203   0.01382404  0.012169299          146 
 4843000   0.47754496   -7.8755324    804.59131  0.013844575  0.012165457           92 
 4844000   0.47592244   -7.8682483     805.3924  0.013855498  0.012161619          109 
 4845000   0.48114614   -7.8700016    804.63838  0.013839669  0.012157783           95 
 4846000   0.46951207   -7.8859385    804.16679  0.013828704  0.012153949          113 
 4847000   0.47066525   -7.8694871    803.78524  0.013819291  0.012150117          141 
 4848000   0.48054155   -7.8693469    804.39454  0.013826914  0.012146286          125 
 4849000   0.47673496   -7.8700222    804.12468  0.013819425  0.012142458           94 
 4850000   0.47318506   -7.8697354    804.73462  0.013827055  0.012138634           87 
 4851000   0.46718088    -7.878484    803.32782  0.013800038  0.012134806           79 
 4852000   0.48015993   -7.8580173    803.23415  0.013795585  0.012130981          106 
 4853000   0.47051216   -7.8805089    804.24865  0.013810163  0.012127158          104 
 4854000   0.46468639   -7.8668168    804.26465  0.013807593  0.012123336          158 
 4855000   0.48130129   -7.8699128    804.25002  0.013804497  0.012119516          143 
 4856000   0.47969973   -7.8726733    803.33167  0.013785895  0.012115697          105 
 4857000   0.46539195   -7.8734103    803.97454  0.013794086  0.012111878           87 
 4858000   0.47935046   -7.8683823    803.64678  0.013785625   0.01210806          102 
 4859000   0.47305691   -7.8685047    804.13476  0.013791157  0.012104247          102 
 4860000   0.47789015   -7.8783789    803.44904  0.013776561  0.012100434           78 
 4861000    0.4672465   -7.8659586    804.07299  0.013784423   0.01209662           74 
 4862000   0.46741457   -7.8889137    804.75609  0.013793297   0.01209281          105 
 4863000   0.48119991   -7.8707664    804.33383  0.013783224  0.012088999          111 
 4864000   0.48496236   -7.8660031    804.10774  0.013776517  0.012085191           97 
 4865000   0.47637295   -7.8891686    805.04042  0.013789661  0.012081386           98 
 4866000   0.47542725   -7.8690264    803.25924  0.013756323  0.012077578           83 
 4867000   0.47654451   -7.8666655    803.68952  0.013760864   0.01207377          105 
 4868000   0.47571066   -7.8678749    804.21719   0.01376707  0.012069966          119 
 4869000    0.4761207     -7.86659    804.05921  0.013761539  0.012066169          113 
 4870000   0.46977098   -7.8745585    804.35069  0.013763701  0.012062367          101 
 4871000   0.48013908   -7.8873371    803.43529  0.013745215  0.012058568           90 
 4872000   0.46978522   -7.8806186    803.99828  0.013752023  0.012054768           94 
 4873000   0.47848348    -7.874571     803.1437  0.013734587  0.012050976          136 
 4874000   0.47076409   -7.8649413    803.66613  0.013740701  0.012047184          129 
 4875000    0.4709629   -7.8822457    803.81116  0.013740362   0.01204339           94 
 4876000   0.48043034   -7.8844621     804.0582  0.013741766  0.012039598          152 
 4877000   0.46762421   -7.8770232    804.90477  0.013753414  0.012035806          113 
 4878000   0.44895112   -7.8857823    803.31839  0.013723493  0.012032017           94 
 4879000   0.46725462   -7.8819664     804.3519  0.013738333  0.012028231           96 
 4880000   0.46862472   -7.8811053     803.2588  0.013716851  0.012024443           98 
 4881000   0.46948795    -7.877487    805.01312  0.013743992  0.012020659           78 
 4882000   0.47528199    -7.885403    804.65765  0.013735109  0.012016877           91 
 4883000   0.47276202    -7.885909    804.65653  0.013732277  0.012013096          102 
 4884000   0.46088562   -7.8840594    803.96871   0.01371773  0.012009317          106 
 4885000   0.47676625   -7.8768313     803.6657  0.013709753  0.012005539          101 
 4886000   0.47550751   -7.8629424    803.91953  0.013711276  0.012001761          109 
 4887000   0.46956799    -7.877139    805.16571   0.01372972  0.011997987           92 
 4888000   0.47071438    -7.886624    803.80644  0.013703738  0.011994212           98 
 4889000   0.47516717   -7.8631748    802.40406  0.013677031  0.011990442          104 
 4890000   0.47535508   -7.8811497    804.20571  0.013704937  0.011986672           83 
 4891000   0.46626505   -7.8832899    802.31989  0.013670004  0.011982902          150 
 4892000   0.48184648   -7.8562581    803.27845  0.013683539  0.011979136           96 
 4893000   0.47354229   -7.8836422    804.12483  0.013695157   0.01197537           89 
 4894000   0.47509213    -7.874102     804.4331  0.013697608  0.011971607           80 
 4895000    0.4669636   -7.8722282    803.95811  0.013686723  0.011967848          136 
 4896000   0.46245517   -7.8666297    803.95125  0.013683811  0.011964088          157 
 4897000   0.46457716    -7.914812    805.05024  0.013699718  0.011960328           98 
 4898000   0.47228774     -7.87939    803.48633  0.013670313  0.011956568           85 
 4899000   0.46635059   -7.8805753    804.09628  0.013677898  0.011952809          121 
 4900000   0.46776383   -7.8810273     803.9358  0.013672378  0.011949049          118 
 4901000   0.46363548   -7.8759959    804.48302  0.013678892  0.011945294          100 
 4902000   0.46989007   -7.8756983    804.03549  0.013668494  0.011941537           91 
 4903000   0.47420691   -7.8838823    804.28887  0.013670013  0.011937784          146 
 4904000   0.46303806   -7.8817458    803.24478  0.013649483  0.011934031           87 
 4905000   0.46954425   -7.8831366    803.82134  0.013656496   0.01193028           98 
 4906000   0.47414403   -7.8987663    804.98183  0.013673424  0.011926533           94 
 4907000   0.47724579   -7.8825768    803.95607  0.013653218  0.011922786          140 
 4908000   0.46226666   -7.8768471     803.3693  0.013640473  0.011919042           85 
 4909000   0.47479393    -7.892204     804.3839  0.013654918  0.011915301           93 
 4910000   0.45984927   -7.8754335    804.52509  0.013654533  0.011911557          103 
 4911000   0.46020128   -7.8890519    804.16344  0.013645616  0.011907814          121 
 4912000   0.46194559   -7.8793651    802.68086  0.013617686  0.011904074           90 
 4913000   0.46837607   -7.8932747    802.71752  0.013615536  0.011900335           73 
 4914000   0.46554938   -7.9049902     804.0416  0.013635219  0.011896593           87 
 4915000   0.48039771   -7.8799461    804.53194  0.013640759  0.011892857           88 
 4916000   0.47067886   -7.8759437    802.71059  0.013607109  0.011889121           73 
 4917000   0.45904178   -7.8882698    802.43537  0.013599678  0.011885389          109 
 4918000   0.46580768   -7.8867932    801.99932  0.013589524  0.011881659           90 
 4919000   0.46722634   -7.8760789    802.45126  0.013594417  0.011877925           97 
 4920000   0.48341269   -7.8944872     803.8746  0.013615762  0.011874198           91 
 4921000    0.4695783   -7.8950558     802.6315  0.013591944  0.011870471          119 
 4922000   0.46584593     -7.89332    802.93965    0.0135944  0.011866746           97 
 4923000   0.46337054     -7.89184     802.9267  0.013591419  0.011863018           82 
 4924000   0.45854122   -7.8896493    802.44053  0.013580431  0.011859294           85 
 4925000   0.46436772   -7.8994567    803.47186  0.013595124  0.011855569           94 
 4926000   0.46007985   -7.8856919    804.02918  0.013601793  0.011851847          129 
 4927000   0.44871923   -7.8853286    804.41991  0.013605641  0.011848127          106 
 4928000   0.46180187   -7.8847905    804.28162  0.013600541  0.011844409          175 
 4929000   0.46287507   -7.8899166    804.24613  0.013597182  0.011840693           95 
 4930000   0.46140031   -7.8853732    802.20045  0.013559845  0.011836977           93 
 4931000   0.46922316   -7.9068323    803.54466  0.013579812  0.011833265          129 
 4932000   0.45473558   -7.8969939    803.32918  0.013573418  0.011829553          108 
 4933000   0.46162079   -7.8886834    803.81061  0.013578799  0.011825844           94 
 4934000   0.46140094   -7.8957784    803.53803  0.013571444  0.011822134           87 
 4935000   0.45393938   -7.8918022    803.80528  0.013573206  0.011818424          109 
 4936000   0.46636222   -7.8881925    803.66848  0.013568147  0.011814716           95 
 4937000   0.46229916   -7.8846148     803.2915  0.013559036  0.011811013          121 
 4938000   0.46023674   -7.8853263     803.6444  0.013562245  0.011807311           86 
 4939000   0.46142983   -7.8795715    803.35895  0.013554683  0.011803609           92 
 4940000   0.45939708   -7.8920959    803.73665  0.013558311  0.011799911           96 
 4941000   0.46018301   -7.8934439    804.29821  0.013565038  0.011796215           95 
 4942000   0.45453083   -7.8924953    804.01552  0.013557526   0.01179252          102 
 4943000   0.45978777   -7.8781062    802.63386   0.01353149  0.011788825           93 
 4944000   0.46931163   -7.8891095    803.74604  0.013547499  0.011785133           87 
 4945000   0.46737457   -7.8853688    803.35977   0.01353825  0.011781447           86 
 4946000    0.4557338   -7.8968367    802.72234  0.013524773  0.011777756          100 
 4947000   0.45693698   -7.8987916    803.20642  0.013530194  0.011774067          105 
 4948000   0.46610706    -7.883676    802.69844  0.013518904  0.011770381          149 
 4949000   0.46103382   -7.8926263    803.04466  0.013522002  0.011766696           93 
 4950000   0.45860069   -7.8947018    804.16798  0.013538181  0.011763013           96 
 4951000   0.45676042   -7.8902825    803.64853  0.013526704   0.01175933          132 
 4952000    0.4663202   -7.9015086    804.35434   0.01353585  0.011755649          158 
 4953000   0.46027992   -7.8907947    803.47449  0.013518314  0.011751971          182 
 4954000   0.47417223   -7.8997967    803.44138  0.013515028   0.01174829          104 
 4955000   0.45744474    -7.889595    803.58848  0.013514774  0.011744612           84 
 4956000   0.46557954     -7.90185    802.43603  0.013492669  0.011740934           99 
 4957000   0.45637257   -7.8933612    802.87499  0.013497327  0.011737258          100 
 4958000   0.45223891   -7.9043011    803.30078  0.013501761  0.011733582           95 
 4959000   0.45241871   -7.8939372    803.20255  0.013497388  0.011729909          124 
 4960000   0.46786837   -7.8943911    803.35757  0.013497271  0.011726235          103 
 4961000   0.46494347   -7.9015005    803.35262  0.013494467   0.01172256           90 
 4962000   0.45810761   -7.8985049    802.53276  0.013477979  0.011718888           87 
 4963000   0.46215881   -7.9049189    802.89645   0.01348137  0.011715216          102 
 4964000   0.45127768   -7.8851999    803.68436  0.013491881  0.011711547          109 
 4965000   0.45084211   -7.8952176    802.28694  0.013465709  0.011707881           99 
 4966000   0.45886056    -7.901759    803.13078  0.013477158  0.011704214          145 
 4967000   0.46256516   -7.8882746    803.09011  0.013473762   0.01170055           96 
 4968000    0.4526219    -7.909062    803.36703  0.013475695  0.011696887           94 
 4969000   0.45620026   -7.9162937    803.61745  0.013477183  0.011693224          161 
 4970000   0.46744573   -7.8903056    802.57735  0.013457031  0.011689563          130 
 4971000   0.46420208   -7.8966834    802.35254  0.013450556  0.011685902          128 
 4972000   0.45952766   -7.8918314     803.2004  0.013462061  0.011682242           92 
 4973000   0.45958413   -7.8874734    801.09566  0.013424084  0.011678583           97 
 4974000   0.46059754   -7.8907689    803.11896  0.013455283  0.011674928           87 
 4975000   0.46285046    -7.892732    803.58016  0.013460304  0.011671274          109 
 4976000   0.45227484   -7.8886849    803.92123  0.013463311  0.011667624          101 
 4977000   0.44733312   -7.9159717    803.05549   0.01344611  0.011663974          100 
 4978000   0.45801749   -7.9035259    802.72641    0.0134379  0.011660323          126 
 4979000   0.45445127   -7.9149678    803.72679  0.013451945  0.011656676           83 
 4980000   0.46218935   -7.8986298    802.53483  0.013429298  0.011653029          117 
 4981000   0.45913473     -7.90592    802.16432  0.013420403  0.011649384          150 
 4982000   0.44953063   -7.8947576    802.41731  0.013421941  0.011645737           90 
 4983000   0.45116108   -7.9047413    803.41362  0.013435909  0.011642094          122 
 4984000   0.44941986   -7.8842012    801.90999  0.013408072   0.01163845          149 
 4985000   0.45107846   -7.8958362     803.9987  0.013440299  0.011634812          127 
 4986000   0.45444176    -7.908804    803.31258  0.013426136  0.011631174          104 
 4987000   0.46102408   -7.8993584    801.14667  0.013387251   0.01162754           99 
 4988000   0.46273138   -7.8969815     803.1226  0.013417579  0.011623904           91 
 4989000   0.45923803   -7.8952764    802.83612  0.013410104  0.011620268          128 
 4990000   0.46196283   -7.9119191    802.13968  0.013395786  0.011616638          156 
 4991000   0.44819105   -7.9020464    801.84765  0.013388226  0.011613006          135 
 4992000   0.44773881    -7.911224    803.11976   0.01340678  0.011609377          118 
 4993000   0.45127804   -7.9015834    803.22328  0.013405823  0.011605747           93 
 4994000   0.45812692   -7.9115352    802.05781  0.013383691  0.011602118          130 
 4995000   0.44713552    -7.924431    803.43183  0.013403934  0.011598493          118 
 4996000   0.45920284   -7.9021962     803.0767  0.013395328  0.011594868           98 
 4997000   0.45319495    -7.919048    803.78998  0.013404542  0.011591242          111 
 4998000   0.45292055   -7.9145583    802.78434  0.013385093  0.011587619          103 
 4999000   0.45000963   -7.8897817    802.17305  0.013372225  0.011583999          118 
 5000000   0.44750873   -7.8848852    803.06131  0.013384355  0.011580382           85 
 5001000   0.46038461   -7.9034994    803.67644  0.013391929  0.011576767          148 
 5002000   0.44825295   -7.8869285    803.19774  0.013381277  0.011573151          101 
 5003000   0.46111408   -7.9020063    802.32685  0.013364096  0.011569536           87 
 5004000   0.45164232   -7.8936622     803.0991  0.013374286  0.011565923          140 
 5005000   0.44382009   -7.9042394    802.71678  0.013365248  0.011562311           95 
 5006000   0.45088119    -7.904836     802.5928  0.013360514  0.011558701           91 
 5007000   0.45369941   -7.9193055     802.5089  0.013356449  0.011555089          160 
 5008000   0.45281328   -7.9035322    802.29534  0.013350229  0.011551484          106 
 5009000    0.4563422   -7.9084208    801.27351  0.013330563  0.011547878           97 
 5010000   0.44851063   -7.8940074     802.2684  0.013344451  0.011544275          110 
 5011000   0.44504097   -7.8948708    802.28038  0.013341987  0.011540669          101 
 5012000   0.44969662   -7.9169613    802.43246  0.013341854  0.011537066          113 
Loop time of 11034.4 on 48 procs for 5000000 steps with 4000 atoms

Performance: 78300.681 tau/day, 453.129 timesteps/s
99.4% CPU use with 48 MPI tasks x no OpenMP threads

MPI task timing breakdown:
Section |  min time  |  avg time  |  max time  |%varavg| %total
---------------------------------------------------------------
Pair    | 704.32     | 736.09     | 773.08     |  49.6 |  6.67
Neigh   | 70.034     | 71.427     | 72.851     |   7.8 |  0.65
Comm    | 616.12     | 664.37     | 698.18     |  65.9 |  6.02
Output  | 13.471     | 13.476     | 13.571     |   0.4 |  0.12
Modify  | 9398.4     | 9435       | 9469.9     |  18.2 | 85.51
Other   |            | 114        |            |       |  1.03

Nlocal:        83.3333 ave          95 max          77 min
Histogram: 5 5 13 8 6 6 3 0 1 1
Nghost:        1849.85 ave        1875 max        1827 min
Histogram: 2 2 9 8 5 7 7 2 5 1
Neighs:        11471.2 ave       13387 max       10298 min
Histogram: 1 9 10 10 7 2 4 4 0 1
FullNghs:      22941.5 ave       26484 max       20830 min
Histogram: 4 4 10 9 9 6 4 0 1 1

Total # of neighbors = 1101192
Ave neighs/atom = 275.29800
Neighbor list builds = 269201
Dangerous builds = 5

#clear
#
#next RN
#
#jump SELF
Total wall time: 3:03:57
