
units lj                  # Use reduced LJ style units
atom_style atomic         # Uncharged point particles
atom_modify map hash      # Needed for indexing of clusters etc
                          # Used to be able to find where atoms are in relation to each other.

lattice fcc 1.0 spacing 1 1 1
Lattice spacing in x,y,z = 1.5874011 1.5874011 1.5874011
region box block 0 10 0 10 0 10 units lattice
create_box 2 box
Created orthogonal box = (0.0000000 0.0000000 0.0000000) to (15.874011 15.874011 15.874011)
  3 by 4 by 4 MPI processor grid
create_atoms 1 box
Created 4000 atoms
  using lattice units in orthogonal box = (0.0000000 0.0000000 0.0000000) to (15.874011 15.874011 15.874011)
  create_atoms CPU = 0.038 seconds
set type 1 type/fraction 2 0.88 78393
Setting atom values ...
  3511 settings made for type/fraction
mass 1 1.0
mass 2 1.0
pair_style lj/cut  3.5
pair_modify tail  yes
pair_coeff 1  1  1.0  1.0   # Intearaction between 1 and 1 set with epsilon = 1 and sigma = 1
pair_coeff 1  2  1.5  0.8
pair_coeff 2  2  0.5  0.88

write_data data.0
System init for write_data ...
Neighbor list info ...
  update every 1 steps, delay 10 steps, check yes
  max neighbors/atom: 2000, page size: 100000
  master list distance cutoff = 3.8
  ghost atom cutoff = 3.8
  binsize = 1.9, bins = 9 9 9
  1 neighbor lists, perpetual/occasional/extra = 1 0 0
  (1) pair lj/cut, perpetual
      attributes: half, newton on
      pair build: half/bin/atomonly/newton
      stencil: half/bin/3d
      bin: standard
WARNING: Not all mixed pair coeffs generated from mixing. Use write_data with 'pair ij' option to store all pair coeffs. (../write_data.cpp:312)


#############################
#   M E L T   S Y S T E M   #
#############################

velocity all create 2.4 2750902 mom yes dist gaussian # Assign velocities
                                                    # Temperature 2.4, random number seed, zero linear momentum
                                                                                # Gaussian distribution

timestep 0.002   # simulation timestep
thermo 1000       # output thermodynamic data every 1000 steps bf 100

# Define a fix  in this case with index 1 applied to all
# particles in the simulation. This fix is for simulations
# in the anisotropic NPT ensemble. Note that we use the MTK
# correction.
fix 1 all npt temp 2.4 2.4 0.1 iso 5.68 5.68 0.5 mtk yes tchain 5 pchain 5 # Use NPT ensemble
                                                                         # Set temperature and pressure and damping
                                                                         # Numbers of thermostats in chain and in barostat
run 10000          # run for 10000 steps
Per MPI rank memory allocation (min/avg/max) = 3.642 | 3.644 | 3.648 Mbytes
Step Temp E_pair E_mol TotEng Press Volume 
       0          2.4   -3.2921436            0   0.30695645   -2.7369977         4000 
    1000    2.4210773   -2.4211052            0    1.2096029    5.6230941    3963.3034 
    2000    2.4151408   -2.4421024            0    1.1797032    5.7129785    3927.0146 
    3000     2.404938   -2.3999603            0    1.2065448    5.6935625    3960.3663 
    4000    2.3675846   -2.3859014            0    1.1645876    5.7953527    3949.3432 
    5000    2.3976149   -2.4089746            0    1.1865487    5.5443086    3969.3524 
    6000     2.351783   -2.4289879            0    1.0978047     5.370051    3979.7199 
    7000    2.3754019   -2.3774442            0    1.1847678    5.5525585     3987.044 
    8000    2.3536344   -2.4090857            0    1.1204834    5.3186506    4002.4878 
    9000     2.424145   -2.3991371            0    1.2361713    5.4235105    3994.5537 
   10000    2.4740268   -2.3774728            0    1.3326397    6.0641809    3938.1617 
Loop time of 2.52236 on 48 procs for 10000 steps with 4000 atoms

Performance: 685073.807 tau/day, 3964.547 timesteps/s
99.6% CPU use with 48 MPI tasks x no OpenMP threads

MPI task timing breakdown:
Section |  min time  |  avg time  |  max time  |%varavg| %total
---------------------------------------------------------------
Pair    | 1.0957     | 1.1745     | 1.3162     |   3.3 | 46.56
Neigh   | 0.20847    | 0.21862    | 0.24562    |   1.2 |  8.67
Comm    | 0.73382    | 0.86431    | 0.94749    |   4.6 | 34.27
Output  | 0.0002478  | 0.00025361 | 0.00041048 |   0.0 |  0.01
Modify  | 0.20925    | 0.24946    | 0.29609    |   4.8 |  9.89
Other   |            | 0.01521    |            |       |  0.60

Nlocal:        83.3333 ave          91 max          72 min
Histogram: 2 0 1 6 11 2 11 5 5 5
Nghost:        1652.44 ave        1680 max        1626 min
Histogram: 2 3 6 6 8 8 6 6 1 2
Neighs:        9685.19 ave       11135 max        7980 min
Histogram: 1 2 4 7 5 8 10 5 4 2

Total # of neighbors = 464889
Ave neighs/atom = 116.22225
Neighbor list builds = 911
Dangerous builds = 225

# Equilibrate just above the melting temperature to avoid step fn in T

fix 1 all npt temp 1.25 1.25 0.1 iso 5.68 5.68 0.5 mtk yes tchain 5 pchain 5
run 2000
Per MPI rank memory allocation (min/avg/max) = 3.643 | 3.645 | 3.649 Mbytes
Step Temp E_pair E_mol TotEng Press Volume 
   10000    2.4740268   -2.3774728            0    1.3326397    6.0641809    3938.1617 
   11000    1.2226769   -3.6210066            0   -1.7874497    5.5900571    3044.8256 
   12000    1.2557364   -3.5322811            0   -1.6491473    5.9248139    3062.7982 
Loop time of 0.631766 on 48 procs for 2000 steps with 4000 atoms

Performance: 547037.927 tau/day, 3165.729 timesteps/s
99.6% CPU use with 48 MPI tasks x no OpenMP threads

MPI task timing breakdown:
Section |  min time  |  avg time  |  max time  |%varavg| %total
---------------------------------------------------------------
Pair    | 0.27662    | 0.30183    | 0.36026    |   2.9 | 47.78
Neigh   | 0.04031    | 0.042719   | 0.05048    |   0.8 |  6.76
Comm    | 0.177      | 0.23626    | 0.26494    |   3.6 | 37.40
Output  | 5.0734e-05 | 5.2665e-05 | 6.6758e-05 |   0.0 |  0.01
Modify  | 0.039131   | 0.045983   | 0.051413   |   1.6 |  7.28
Other   |            | 0.004918   |            |       |  0.78

Nlocal:        83.3333 ave          92 max          72 min
Histogram: 1 1 3 4 8 5 10 8 6 2
Nghost:        1970.50 ave        1989 max        1952 min
Histogram: 1 4 5 4 12 10 3 5 2 2
Neighs:        12471.4 ave       14200 max       10839 min
Histogram: 3 5 7 3 6 6 6 7 3 2

Total # of neighbors = 598627
Ave neighs/atom = 149.65675
Neighbor list builds = 144
Dangerous builds = 16

#############################
# L I N E A R  Q U E N C H  #
#############################

# Define solid atoms. This closely follows ten Wolde  Ruiz-Montero and Frenkel  Faraday Discuss  1996  104  93-110
# Compute components of the per-atom q6 vector
compute q6 all orientorder/atom degrees 1 6 components 6 nnn NULL cutoff 1.3 # compute the Q6 parameter.
                                                                             # Use all neighbours within 1.3 unit cell.

# get number of connections
compute coord_number all coord/atom orientorder q6 0.5

# An atom is solid if it has 8 or more connections (of a possible 14)
variable is_solid atom c_coord_number>=8
group solid dynamic all var is_solid    # Must be dynamic to update
dynamic group solid defined

# do clustering
compute cluster solid cluster/atom 1.3 # Create a cluster where all atoms within are solid and max 1.3 units from another member

# define chunks one chunk per cluster
compute clus_chunks solid chunk/atom c_cluster nchunk every compress yes  # Says which atoms are in which chunk

# count the size of each chunk
compute size_chunks solid property/chunk clus_chunks count


# Find the maximum entry in the vector of chunk sizes
variable max_n equal max(c_size_chunks)


# Thermo style which includes this variable
# thermo_style custom step temp pe vol v_max_n

thermo ${N}  # Print the thermo information every 100 steps
thermo 1000  

# Reset the npt fix at a lower temperature (below freezing)
fix 1  all npt temp  ${temp} ${temp}  0.1  iso  5.68  5.68  0.5  mtk yes tchain  5  pchain  5
fix 1  all npt temp  0.45 ${temp}  0.1  iso  5.68  5.68  0.5  mtk yes tchain  5  pchain  5
fix 1  all npt temp  0.45 0.45  0.1  iso  5.68  5.68  0.5  mtk yes tchain  5  pchain  5

dump dmp2 all dcd ${N} traj.dcd
dump dmp2 all dcd 1000 traj.dcd


compute msd all msd com yes
variable twopoint equal c_msd[4]/6/(step*dt+1.0e-6)
fix 9 all vector 10 c_msd[4]
variable fit equal slope(f_9)/6/(10*dt)
thermo_style custom step temp pe c_msd[4] v_twopoint v_fit v_max_n

fix 1 all npt temp 1.25 ${temp} 0.1 iso 5.68 5.68 0.5 mtk yes tchain 5 pchain 5
fix 1 all npt temp 1.25 0.45 0.1 iso 5.68 5.68 0.5 mtk yes tchain 5 pchain 5
run 2000000 # 5000000  # Run for this many steps
Neighbor list info ...
  update every 1 steps, delay 10 steps, check yes
  max neighbors/atom: 2000, page size: 100000
  master list distance cutoff = 3.8
  ghost atom cutoff = 3.8
  binsize = 1.9, bins = 8 8 8
  4 neighbor lists, perpetual/occasional/extra = 1 3 0
  (1) pair lj/cut, perpetual
      attributes: half, newton on
      pair build: half/bin/atomonly/newton
      stencil: half/bin/3d
      bin: standard
  (2) compute orientorder/atom, occasional
      attributes: full, newton on
      pair build: full/bin/atomonly
      stencil: full/bin/3d
      bin: standard
  (3) compute coord/atom, occasional
      attributes: full, newton on
      pair build: full/bin/atomonly
      stencil: full/bin/3d
      bin: standard
  (4) compute cluster/atom, occasional
      attributes: full, newton on
      pair build: full/bin/atomonly
      stencil: full/bin/3d
      bin: standard
Per MPI rank memory allocation (min/avg/max) = 9.828 | 9.832 | 9.837 Mbytes
Step Temp PotEng c_msd[4] v_twopoint v_fit v_max_n 
   12000    1.2557364   -3.5322811 1.9721523e-34 1.3695501e-36 8.3333333e+20            1 
   13000    1.2357218   -3.5867937   0.95412278 0.0061161714  0.081029091            2 
   14000    1.2511196   -3.5316267    1.9890519  0.011839594  0.084486163            6 
   15000     1.264735   -3.5723265    3.1085611  0.017269783  0.086307067            2 
   16000    1.2561106   -3.5915561    4.2219918   0.02198954  0.089193257            2 
   17000    1.2255728   -3.5999557    5.3700454  0.026323751  0.090685075            1 
   18000    1.2761783   -3.5976531    6.2508976   0.02893934  0.090238264            1 
   19000    1.2416726   -3.6131095    7.3260278    0.0321317  0.088925098            4 
   20000     1.233236   -3.5880016    8.4633355  0.035263897  0.088783672            2 
   21000    1.2437435   -3.5871206    9.4314176  0.037426259  0.088819003            2 
   22000    1.2355731   -3.5615249    10.510598  0.039812872  0.088536796            2 
   23000     1.232704   -3.5941322    11.485533  0.041614247  0.088132473            5 
   24000     1.240026   -3.5764767    12.571807  0.043652106  0.087945749            3 
   25000    1.2494967   -3.5949287    13.670964  0.045569879  0.087990868            3 
   26000    1.2619246   -3.5673818    14.556917  0.046656785  0.087897173            1 
   27000    1.2606216   -3.5809481    15.562497  0.048032398  0.087599971            1 
   28000    1.2284753   -3.5881399    16.448136  0.048952785  0.087140881            1 
   29000    1.2440504   -3.5891218    17.550806  0.050433349  0.086684833            1 
   30000    1.2392754   -3.5779218     18.64217  0.051783805  0.086528093            1 
   31000    1.2236197   -3.5915266    19.516196  0.052462891  0.086359921            2 
   32000    1.2429503   -3.5783723    20.510833  0.053413627  0.086101036            1 
   33000    1.2574431     -3.60167    21.744591  0.054910583  0.085865655            3 
   34000    1.2410479   -3.5671253    22.751092   0.05576248  0.085883471            1 
   35000    1.2675885   -3.5615667    23.867501  0.056827384  0.085900807            2 
   36000    1.2508404   -3.6237874    24.832768   0.05748326  0.085980907            2 
   37000    1.2309202   -3.5699306    26.084974  0.058749941   0.08604016            2 
   38000    1.2646301    -3.549442    26.921814  0.059039065  0.086021028            2 
   39000    1.2254296   -3.5912576    27.633012  0.059044897  0.085938442            2 
   40000     1.253924   -3.5947273     28.68746  0.059765541  0.085730469            2 
   41000    1.2594965   -3.5647017    29.504466  0.059968426   0.08556978            2 
   42000    1.2399626   -3.5864871    30.393525  0.060304613  0.085295402            1 
   43000      1.23079   -3.5936617    31.349117  0.060754102  0.085045199            2 
   44000    1.2391717   -3.6166855    32.188571  0.060963202  0.084794807            1 
   45000    1.2517546   -3.5782436    33.864735  0.062712471  0.084688002            4 
   46000    1.2534098   -3.5939719    34.695829  0.062854762  0.084665334            1 
   47000    1.2447387   -3.6196932    35.787894  0.063453712  0.084664136            3 
   48000    1.2166617   -3.5922639    36.638763  0.063608962  0.084647469            2 
   49000    1.2197204   -3.5934998    37.895616  0.064448327  0.084650264            1 
   50000    1.2423377   -3.6045478    38.688394  0.064480655   0.08465223            1 
   51000    1.2370285   -3.6233718    39.661159  0.064805814  0.084626387            2 
   52000    1.2331147   -3.5978659    40.526021  0.064945546  0.084571494            1 
   53000    1.1959061   -3.5836302    41.505582  0.065260349  0.084478718            3 
   54000     1.236023   -3.5895953    42.438551  0.065491591   0.08438657            1 
   55000    1.2406784   -3.5765779    43.624793  0.066098171  0.084298169            1 
   56000    1.2081798   -3.6294998    44.234062  0.065824497  0.084187764            2 
   57000    1.2390898   -3.6321878    45.099545  0.065935007  0.084057063            3 
   58000    1.2312404   -3.5922044    46.223834  0.066413554  0.083936885            3 
   59000    1.2666141   -3.6001143    47.373624  0.066911898  0.083842303            5 
   60000    1.2155918    -3.591655    48.266621  0.067036973  0.083729277            3 
   61000    1.2536317   -3.5799093    49.116359  0.067098851  0.083626784            1 
   62000    1.2355388   -3.5909228    50.314313  0.067626764  0.083550452            2 
   63000    1.2198431   -3.5824913    51.186103  0.067706486  0.083465145            2 
   64000    1.2209448   -3.5988214    52.215735  0.067989238  0.083363358            2 
   65000    1.1946612   -3.6031919    53.407841   0.06847159  0.083310158            2 
   66000    1.2297867   -3.6018507     54.38855  0.068672411  0.083266871            2 
   67000    1.2438327   -3.6041435    55.222076  0.068684174  0.083232648            1 
   68000    1.2146584   -3.6017767    56.115627  0.068769151  0.083187193            2 
   69000    1.2394586   -3.6400146    56.986356  0.068824101   0.08311873            4 
   70000    1.2392056   -3.5946092    58.007394  0.069056421  0.083049414            2 
   71000     1.229945   -3.6111273    58.874386  0.069101391  0.082986818            3 
   72000    1.2544462   -3.5955914    59.612302   0.06899572  0.082906552            1 
   73000    1.2196219   -3.5807294    60.414812   0.06896668  0.082802179            1 
   74000    1.2101353   -3.6075233    61.454285  0.069205275  0.082690482            2 
   75000    1.2196322   -3.6275634     62.54756  0.069497289  0.082603459            2 
   76000    1.2210141    -3.599751    63.625585  0.069764895  0.082544159            2 
   77000    1.2267095   -3.6342986    64.441077  0.069741424  0.082504154            1 
   78000    1.2310907   -3.6409276    65.778835  0.070276532  0.082469051            2 
   79000    1.2288717   -3.6098195    67.150319  0.070833669   0.08247064            2 
   80000    1.2130073    -3.593916    67.835603  0.070662086   0.08246333            3 
   81000    1.2476791   -3.5969566    68.869688  0.070853588  0.082457262            2 
   82000    1.2201921   -3.6107116    70.486289  0.071632407  0.082474886            2 
   83000    1.2190831   -3.6209549    70.950854  0.071235797  0.082487685            2 
   84000    1.2340591   -3.6182011    71.860886  0.071290561  0.082472719            3 
   85000    1.2135311   -3.6293357    73.022069  0.071590263  0.082473988            3 
   86000    1.2494621   -3.6351293     73.76248  0.071475271  0.082479772            3 
   87000    1.2079042   -3.6639344    74.716776  0.071567792  0.082476047            2 
   88000     1.256004   -3.6284782    75.725821  0.071710058  0.082474764            6 
   89000    1.2182452   -3.6272156    76.885313  0.071989993  0.082470242            3 
   90000    1.2289634   -3.6042871     77.85607  0.072088953  0.082477062            1 
   91000    1.2279549   -3.6276229    78.835601  0.072193773  0.082476654            1 
   92000     1.219496   -3.5850655    79.843754  0.072322241   0.08247187            1 
   93000    1.2446155     -3.61564    80.693464  0.072305971  0.082455363            2 
   94000    1.1865911   -3.6027643    81.430641  0.072190284  0.082430055            3 
   95000    1.2284654   -3.6095098    82.443092  0.072318501  0.082407751            1 
   96000    1.2318066   -3.6399564    83.015738  0.072062272  0.082387191            3 
   97000    1.2452266   -3.6171179    84.162374  0.072304444  0.082347646            3 
   98000     1.200315   -3.5820989     85.38252  0.072604183  0.082303725            1 
   99000    1.2036157   -3.6404128    85.790509  0.072214233  0.082249141            2 
  100000    1.2157587   -3.6195945    86.807079  0.072339232  0.082198557            1 
  101000    1.1984218   -3.5862107    87.930508  0.072549923  0.082153874            4 
  102000    1.1712377   -3.6584625    88.465745  0.072275935  0.082125582            3 
  103000    1.2147859   -3.6018165    89.793158  0.072648185  0.082084577            2 
  104000    1.2066032     -3.62197    90.618095  0.072610653  0.082029621            2 
  105000    1.1934752   -3.6306045    90.819811  0.072079215  0.081966733            3 
  106000    1.1966374   -3.5991719    92.475725  0.072701041  0.081910346            2 
  107000    1.2305663   -3.6396147    93.207269   0.07259133    0.0818497            1 
  108000    1.2162053   -3.6165904    94.143237  0.072641386  0.081795081            4 
  109000     1.222112   -3.6166721     94.67615  0.072382377  0.081736525            2 
  110000    1.2008014   -3.6226929    96.303789  0.072957415   0.08169069            3 
  111000    1.1960576   -3.6521418    97.213053  0.072982772  0.081658749            1 
  112000    1.2549175   -3.6503584    97.904328  0.072845482  0.081631696            2 
  113000     1.208739   -3.6270718    99.410732  0.073311749  0.081616065            2 
  114000    1.2034784   -3.6308633    100.48552  0.073454329  0.081597183            1 
  115000    1.2255573   -3.5859827    101.57943  0.073608282  0.081574453            4 
  116000    1.2284255   -3.6111002    101.81346  0.073141852  0.081541787            2 
  117000    1.2176415   -3.6303864    102.91853  0.073303794  0.081503862            3 
  118000    1.2104582   -3.6223818    103.51146  0.073101314  0.081465084            2 
  119000    1.1988241   -3.6035479    105.10574  0.073603461  0.081424776            2 
  120000    1.2004139   -3.6224887    105.40186  0.073195736  0.081385545            1 
  121000    1.2032759    -3.634801    106.07908  0.073057216  0.081345672            5 
  122000    1.1972933   -3.6182626    106.98739  0.073078821  0.081284434            3 
  123000    1.1934145   -3.6232287    107.65045  0.072933912  0.081218864            1 
  124000    1.2124228   -3.6590687    108.76591   0.07309537  0.081149926            3 
  125000    1.2066754   -3.6165998    109.72975  0.073153166  0.081079934            3 
  126000    1.2072809   -3.6471355    111.04296  0.073441111   0.08102052            2 
  127000    1.1892771   -3.6198703    111.86303  0.073400938  0.080971715            3 
  128000    1.1791368   -3.6417748    112.91457  0.073512091  0.080940024            2 
  129000    1.1881022   -3.6044083    114.22346  0.073787762  0.080905516            2 
  130000    1.2069011   -3.6334823    114.82381  0.073605005  0.080874462            1 
  131000     1.163221   -3.6219688     115.5873  0.073528818  0.080844188            1 
  132000    1.1736576   -3.6338874    116.82373  0.073752352  0.080808242            3 
  133000    1.2176356   -3.6475165     117.2999  0.073496177  0.080772076            1 
  134000    1.1943405   -3.6505841    118.31734  0.073580434  0.080741116            3 
  135000    1.2102588   -3.6528562     119.5694   0.07380827  0.080706649            2 
  136000    1.1863297   -3.6582604    120.40036  0.073774727  0.080673386            1 
  137000    1.2134408   -3.6610697    121.21697  0.073732949  0.080638672            4 
  138000    1.1682038   -3.6881814    122.07683  0.073717892  0.080603517            2 
  139000    1.2111263   -3.6171265    123.32305  0.073934685  0.080569488            3 
  140000    1.1944643   -3.6687285    123.75564  0.073664071  0.080536705            3 
  141000    1.2302529   -3.6475874     125.1448  0.073962647  0.080503876            2 
  142000    1.2101271   -3.6335263    125.15089  0.073445361  0.080459561            2 
  143000    1.2086552   -3.6828529    126.78068  0.073881517   0.08041542            3 
  144000    1.2134552   -3.6215904    128.15515  0.074163862  0.080377816            2 
  145000    1.1921959   -3.6688766    128.64361  0.073933109  0.080343252            3 
  146000    1.1918611    -3.617324    129.94906  0.074171837  0.080310371            1 
  147000    1.1768268   -3.6416984    130.57146  0.074020103  0.080283347            2 
  148000    1.2197164   -3.6521333    132.12654  0.074395576  0.080259149            2 
  149000     1.167297   -3.6650424    131.93612  0.073789778   0.08023372            3 
  150000    1.2071098   -3.6198089    133.31547  0.074064147  0.080200853            1 
  151000    1.1964759    -3.638303    134.39373  0.074168723   0.08017284            4 
  152000    1.1930249   -3.6758106    135.23415  0.074141527  0.080149406            2 
  153000    1.2147312   -3.6706773    135.85447  0.073994809   0.08012673            1 
  154000     1.205009   -3.6511704    137.16323  0.074222527  0.080107072            1 
  155000    1.2055693   -3.6435959    138.10787  0.074251542  0.080088037            1 
  156000    1.1783321   -3.6491513    139.35563  0.074442109  0.080073846            1 
  157000    1.2241407   -3.6884045    140.26075  0.074448382   0.08005942            2 
  158000    1.1910433   -3.6726716    141.71417  0.074743762  0.080045102            2 
  159000    1.1942523   -3.6886643    141.97936  0.074412663  0.080022102            2 
  160000    1.1803504   -3.6609013    143.64646  0.074815864  0.080000814            3 
  161000    1.1900536   -3.6623899    143.37892  0.074212692  0.079982875            3 
  162000     1.201409   -3.6337662    144.61938  0.074392684   0.07995901            2 
  163000    1.1582669   -3.6506918    144.54505  0.073898285  0.079927536            2 
  164000    1.2027674   -3.6398189    146.04501  0.074209863  0.079893505            2 
  165000    1.1858891   -3.6614551    146.31813  0.073898047  0.079858511            1 
  166000    1.1965943   -3.6930433    147.14506  0.073868001  0.079820153            1 
  167000    1.1711647   -3.7061261     148.3451    0.0740245  0.079783701            1 
  168000    1.1652576   -3.6490466    148.88728  0.073852818  0.079742654            3 
  169000     1.189197   -3.6779565    150.42468  0.074173905  0.079707098            1 
  170000    1.1642741   -3.6543299     151.5919  0.074309754  0.079665806            2 
  171000    1.1754695   -3.6617377     152.0278  0.074087623  0.079628255            6 
  172000    1.1897072   -3.6580044    153.15713  0.074204035  0.079595727            2 
  173000    1.1635255   -3.6616006    153.83345  0.074100892  0.079558075            4 
  174000    1.1969559   -3.6584746    155.22891   0.07434335  0.079523584            2 
  175000    1.2009291   -3.6743931    155.89615  0.074236262  0.079492228            2 
  176000    1.1897826   -3.6999739    155.92106   0.07382626  0.079455108            5 
  177000    1.1963418   -3.6827092     157.2479  0.074033853  0.079427175            2 
  178000    1.1819741   -3.6640711    158.36134  0.074139205  0.079403188            3 
  179000    1.1649554   -3.6434577    159.93646  0.074458313  0.079378595            1 
  180000    1.1996353   -3.6500047    161.54576  0.074789703  0.079349342            2 
  181000    1.1961345   -3.6686899     161.6262  0.074413536  0.079324009            1 
  182000    1.1761959   -3.6752411    163.08354  0.074671949  0.079299293            4 
  183000    1.1712089   -3.6483842    164.50026  0.074909044  0.079283106            1 
  184000    1.1947157   -3.6672868    163.87791  0.074220068  0.079268153            2 
  185000    1.1674505   -3.6670734    166.24233  0.074883934  0.079257528            4 
  186000    1.1842461   -3.6827745    167.26484  0.074939442  0.079243717            3 
  187000    1.1852208   -3.6675511    167.01364  0.074426754  0.079230283            2 
  188000    1.1635061    -3.663604    168.51864   0.07469798  0.079207984            5 
  189000    1.1916197   -3.6552259    168.81365  0.074432825  0.079185926            2 
  190000    1.1642813   -3.6360359    169.75742  0.074455007   0.07916544            2 
  191000    1.1739583   -3.6711614    170.42794   0.07435774   0.07913332            3 
  192000    1.1483829   -3.6417381    171.81751  0.074573573  0.079105384            4 
  193000    1.1472248   -3.6666389    172.14576  0.074328914  0.079073072            1 
  194000    1.1778921   -3.6739282    172.78946  0.074222275  0.079037681            3 
  195000    1.1580924   -3.6565724    173.33365  0.074074209  0.079001814            4 
  196000     1.180904   -3.6795854     174.4247  0.074160162  0.078961755            1 
  197000    1.1698405   -3.6420773    175.36365  0.074180901  0.078926837            3 
  198000    1.2029122   -3.6417966    176.11726  0.074123424  0.078889353            3 
  199000    1.1730486   -3.6714529    176.96811  0.074107249   0.07884812            2 
  200000    1.1680579   -3.6709597    177.62535  0.074010561  0.078810988       -1e+20 
  201000    1.1565531   -3.6722794     178.9315  0.074183873  0.078776199            3 
  202000    1.1691866   -3.6617445    179.33947  0.073984928  0.078739604            3 
  203000    1.1805382   -3.6594288    180.52212  0.074105959  0.078700854            2 
  204000     1.183874   -3.6909145    181.51566  0.074148552  0.078662859            4 
  205000    1.1885409   -3.6779466    181.83838  0.073918041  0.078615771            1 
  206000    1.1506335    -3.672467    182.98608  0.074023496   0.07857595            2 
  207000    1.1760299   -3.6747702    183.88173  0.074026459  0.078535308            1 
  208000    1.1672179   -3.6720893     184.8592  0.074062179  0.078503267            3 
  209000    1.1811699   -3.7067126     185.9183  0.074130102  0.078474392            4 
  210000     1.200694   -3.6806238     187.0596  0.074229999  0.078444016            2 
  211000    1.1648201   -3.7127651    187.01931  0.073862288  0.078414325            1 
  212000    1.1652429   -3.6791762     188.4916  0.074092611  0.078385473            2 
  213000    1.1975412   -3.6513566    190.14099  0.074390059  0.078361976            1 
  214000    1.1564261   -3.7059213    191.56226  0.074595894  0.078343803            2 
  215000    1.1692395   -3.6828762    192.94568  0.074785146  0.078324716            3 
  216000    1.1762567   -3.6616745     193.0141  0.074465316  0.078306571            2 
  217000    1.1635284    -3.670447    192.83802  0.074054538  0.078283276            1 
  218000    1.1530912    -3.719102    193.01348  0.073781912  0.078258213            1 
  219000    1.1780513   -3.7197026    195.31168  0.074319513  0.078234748            5 
  220000    1.1762582   -3.6616656    196.86932  0.074571712  0.078215254            2 
  221000    1.1754303   -3.6922716      197.593  0.074507164  0.078192127            1 
  222000    1.1444549   -3.6742008     198.0102  0.074328151  0.078175459            1 
  223000    1.1663331   -3.7164127    198.87266  0.074317137  0.078159239            3 
  224000    1.1841892   -3.6860723    200.28461  0.074510644  0.078143269            2 
  225000    1.1647175   -3.6712842    201.70506  0.074705579  0.078126381            3 
  226000    1.1835831   -3.7230489    200.78309  0.074035063  0.078108209            2 
  227000     1.162505   -3.7062849    202.24302  0.074244867  0.078088877            5 
  228000    1.1998414   -3.6641253    204.49163  0.074741091  0.078070788            2 
  229000    1.1700536   -3.6974872    204.19035  0.074305076  0.078047851            3 
  230000    1.1862378   -3.6681818    204.94518  0.074255499  0.078020136            4 
  231000    1.1710696   -3.6847862    205.06507  0.073977299  0.077990234            2 
  232000    1.1717229   -3.7154158     204.7287  0.073537607  0.077958245            2 
  233000     1.145732   -3.7224673    206.40084  0.073820042  0.077925248            3 
  234000    1.1693687   -3.6954758    208.44866  0.074233854  0.077894377            2 
  235000    1.1817515    -3.651922     209.1706  0.074173971  0.077862465            2 
  236000    1.1434289   -3.6946323    209.70116  0.074047021  0.077833396            2 
  237000    1.1581101   -3.7000545    210.53268  0.074026962  0.077806096            2 
  238000    1.1286011   -3.6905266    211.92128   0.07420213  0.077778093            1 
  239000    1.1556535   -3.6958375    211.35936  0.073695733  0.077750633            2 
  240000    1.1356687   -3.7128905    212.62848  0.073829333  0.077717614            2 
  241000    1.1524655   -3.7097652    213.55799  0.073844394  0.077686484            3 
  242000    1.1490957   -3.6949713    214.67661  0.073924452   0.07765396            1 
  243000    1.1432958   -3.7265742    215.15797  0.073785314  0.077620306            2 
  244000    1.1537176     -3.69144    215.90574    0.0737383   0.07759086            1 
  245000    1.1458094   -3.7176759    217.14178  0.073857747  0.077560741            2 
  246000    1.1711912   -3.7144508     218.4981  0.074016972  0.077527848            2 
  247000    1.1487291   -3.7103134    218.25646  0.073635783    0.0774969            2 
  248000    1.1758842   -3.7050169    218.70864  0.073490805   0.07746769            1 
  249000    1.1513675   -3.7114017    219.84986  0.073577595   0.07743475            6 
  250000    1.1452834   -3.7325869    220.70657  0.073568857  0.077395473            5 
  251000     1.134726   -3.7249949    221.16786  0.073428904  0.077353708            3 
  252000    1.1398608   -3.7441603    221.67767  0.073306106  0.077315105            3 
  253000    1.1554127   -3.7220146    222.86784  0.073408381  0.077278561            2 
  254000    1.1598194   -3.7388188    224.26187  0.073576727   0.07724179            2 
  255000     1.145215   -3.7128695    224.66658   0.07342045  0.077207673            3 
  256000    1.1409526   -3.6838438    224.98027  0.073235764  0.077170593            1 
  257000    1.1717621   -3.7381391    226.79236  0.073538378  0.077135634            4 
  258000    1.1502068   -3.7001339    227.38965   0.07344627  0.077100085            1 
  259000    1.1693345    -3.675633    228.94009  0.073661547  0.077067037            2 
  260000    1.1459884   -3.6837817    229.38308  0.073520218  0.077034442            4 
  261000    1.1595126   -3.7264689     229.1847   0.07317519  0.077002923            2 
  262000    1.1620774   -3.7386765    231.98189  0.073785588  0.076972254            3 
  263000    1.1258572   -3.7532411    232.21282  0.073578207  0.076942989            3 
  264000    1.1426654   -3.6931525    233.85295  0.073817218  0.076916116            1 
  265000    1.1581278   -3.6622955    234.25218  0.073664207   0.07688861            2 
  266000    1.1556005   -3.7112322    234.97099  0.073612466  0.076858841            3 
  267000    1.1440326   -3.7154765    235.62137  0.073539754  0.076829558            2 
  268000    1.1550756   -3.7218778    236.51337  0.073542716  0.076798229            4 
  269000    1.1484496   -3.7567556     236.6729  0.073318743  0.076764243            2 
  270000    1.1507658   -3.7373868    238.13767  0.073499281  0.076730394            6 
  271000    1.1266012    -3.718361    238.04043  0.073198164   0.07669981            3 
  272000    1.1589767   -3.7228418    239.64004   0.07341913     0.076667            2 
  273000    1.1555578   -3.7133849    239.77926  0.073192692  0.076635478            5 
  274000    1.1467606   -3.7296103    240.18949  0.073050332   0.07660313            1 
  275000    1.1648575   -3.7096125    242.99595  0.073635135   0.07657342            3 
  276000    1.1554398   -3.7156417    243.87406  0.073633472  0.076545184            2 
  277000    1.1354716   -3.7090706    244.75164  0.073631661  0.076521925            1 
  278000    1.1761223   -3.7263207    243.64638  0.073035484  0.076494628            2 
  279000    1.1535986   -3.7291685    245.79138   0.07341439   0.07646784            1 
  280000    1.1453988   -3.6820058    247.02763  0.073520128  0.076439079            2 
  281000    1.1424378   -3.7334539     247.5995  0.073428085  0.076410634            1 
  282000    1.1594821   -3.7082243     248.3811  0.073398669  0.076383857            1 
  283000    1.1030052   -3.6920418    248.68362  0.073228391  0.076353443            6 
  284000    1.1464884   -3.7009897    249.47899  0.073203929  0.076322878            2 
  285000    1.1076412   -3.7305109    249.72605  0.073019312  0.076289599            2 
  286000    1.1426817   -3.7044286    250.28548  0.072927006  0.076254505            2 
  287000    1.1322053   -3.7284864    252.11343  0.073203666  0.076222067            2 
  288000    1.1334423   -3.7198118    253.17865   0.07325771  0.076191529            1 
  289000    1.1491615    -3.735423    252.64045  0.072849034  0.076162642            2 
  290000    1.1714192   -3.6894226    254.86538  0.073237177  0.076130578            1 
  291000    1.1290198   -3.7149022    255.37235  0.073130684   0.07609956            3 
  292000    1.1524563   -3.7187347    256.30387  0.073146082  0.076068763            1 
  293000    1.1444231   -3.7331981     255.5239  0.072674601  0.076035264            2 
  294000    1.1263868   -3.7130261    257.63722  0.073026423  0.075999002            2 
  295000    1.1400216   -3.7235192    258.15696  0.072925696  0.075961583            1 
  296000    1.1328432   -3.7466033    257.25138  0.072424375  0.075922786            2 
  297000    1.1506804   -3.7469916     258.3385  0.072485549  0.075883927            1 
  298000    1.1549293   -3.7440747    258.63064  0.072324004  0.075842865            1 
  299000    1.1260038   -3.7567671    260.26696  0.072538173  0.075802219            3 
  300000     1.136119   -3.7294016    260.52396  0.072367767  0.075760464            5 
  301000    1.1426149   -3.7421511    261.31456  0.072346223  0.075719753            2 
  302000    1.1272269    -3.726609    263.37862   0.07267622  0.075682526            3 
  303000    1.1281606   -3.7542687    263.46225  0.072459364  0.075645314            2 
  304000    1.1341852   -3.7671837    263.59323  0.072256917  0.075607068            2 
  305000    1.1378027   -3.7524836    265.36433  0.072503915  0.075568336            2 
  306000     1.148901   -3.7201998    266.85651  0.072673341  0.075532636            1 
  307000    1.1331083   -3.7593331    266.80667  0.072423092   0.07549842            2 
  308000    1.1507919   -3.7361603    267.68665  0.072426041   0.07546546            1 
  309000     1.138479   -3.7201354    269.32385  0.072633184  0.075435056            1 
  310000    1.1350933   -3.7625666    269.64074   0.07248407   0.07540664            2 
  311000    1.1516356   -3.7536246    270.05073   0.07236086  0.075376961            2 
  312000    1.1119043   -3.7689158    272.35294  0.072743841  0.075346025            1 
  313000    1.1317066   -3.7328411    273.39408  0.072788627  0.075315557            3 
  314000    1.1467976   -3.7306545    274.02612  0.072724554   0.07528686            3 
  315000    1.1196515   -3.7524134    275.51387  0.072887267  0.075258358            1 
  316000    1.1120858   -3.7438538    275.86802  0.072750006  0.075231544            5 
  317000    1.1119429   -3.7499692    277.10415  0.072845464  0.075205807            3 
  318000    1.1320317   -3.7261449    279.15402  0.073153569  0.075182282            2 
  319000    1.1237068   -3.7282565    278.45362   0.07274128  0.075158513            6 
  320000    1.1424262   -3.7542322     279.9145  0.072894401  0.075133901            3 
  321000    1.1088724   -3.7219707    282.46122  0.073328458   0.07511411            1 
  322000    1.1221185   -3.7515538    282.33801  0.073068842  0.075096163            2 
  323000    1.1360738   -3.7538085    283.66155  0.073184094  0.075077523            3 
  324000    1.1312535   -3.7620905    283.56602  0.072933648   0.07505988            6 
  325000    1.1237674   -3.7117281    285.56012  0.073220543  0.075041008            2 
  326000    1.1496326   -3.7661675    285.62098  0.073011499  0.075023608            1 
  327000    1.1099775   -3.7489435    286.60484   0.07303895  0.075007917            2 
  328000    1.1210611    -3.752014    286.99412  0.072915172  0.074993139            1 
  329000    1.1259134   -3.7825954    288.72835  0.073132814  0.074977686            1 
  330000      1.12673   -3.7724724    289.25294  0.073043671  0.074962344            2 
  331000    1.1287933    -3.774558    289.47051  0.072877771  0.074943728            2 
  332000    1.1120947   -3.7521205    289.94785  0.072778075  0.074922977            1 
  333000    1.1099461   -3.7569454     290.7846  0.072768918  0.074903267            1 
  334000    1.1213092   -3.7615073     291.0944  0.072628344  0.074881995            5 
  335000    1.1185501   -3.7510954    293.51804  0.073014438   0.07485956            1 
  336000    1.1309138   -3.7657758    292.37296  0.072513135  0.074834672            4 
  337000    1.1241626   -3.7663136    291.48225  0.072077709  0.074807995            2 
  338000     1.140399   -3.7757694    292.65027  0.072152434  0.074780181            1 
  339000    1.1344127   -3.7550979     294.0237  0.072277212  0.074752527            2 
  340000     1.132106   -3.7528242    295.03046  0.072311387  0.074725713            1 
  341000    1.1337567   -3.7509741    296.12787  0.072367515  0.074698359            2 
  342000    1.1183323   -3.7536229    295.67048  0.072044464   0.07466938            1 
  343000    1.1159541   -3.7697218    296.82781  0.072115599  0.074638917            2 
  344000    1.1117006   -3.7580467    297.24005  0.072005825   0.07460804            2 
  345000    1.1386616   -3.7537011    297.82683  0.071938848  0.074579299            2 
  346000    1.0947824     -3.77057    299.08336  0.072033564  0.074552595            3 
  347000    1.0791893   -3.7591336     301.1202  0.072315129  0.074526553            3 
  348000    1.1079178   -3.7677885    301.19744  0.072125824  0.074499383            2 
  349000    1.1337159   -3.7387611    302.73158  0.072285477  0.074472126            2 
  350000    1.0804365   -3.7671231    303.98785   0.07237806  0.074446656            2 
  351000    1.1227384   -3.7597994    303.02763  0.071943882  0.074419339            2 
  352000     1.115973   -3.7545726     304.3245  0.072046519  0.074391593            2 
  353000    1.1117771   -3.7714031    304.81589  0.071958426  0.074362789            1 
  354000    1.0986008   -3.7763966    306.09483  0.072056222  0.074336099            6 
  355000    1.1110784   -3.7699062     305.6339  0.071745047  0.074306622            1 
  356000    1.1092658   -3.7600668    307.06298  0.071878039  0.074277564            2 
  357000    1.1118731   -3.7906883    308.09715  0.071918103  0.074249662            2 
  358000    1.1005066   -3.7821288     309.5468  0.072054655  0.074225261            2 
  359000    1.1033662   -3.7511053    310.47816  0.072070138   0.07420101            2 
  360000     1.117541   -3.7652968     313.5334  0.072577176  0.074180113            3 
  361000    1.1102556   -3.7711787     313.8012  0.072437949  0.074159606            4 
  362000    1.1112618   -3.8302379     313.7818   0.07223338  0.074141228            2 
  363000    1.1170609   -3.7737546    314.79728  0.072267511  0.074122324            2 
  364000    1.1149839   -3.7717414    317.00375  0.072574117  0.074104676            2 
  365000    1.1066084   -3.7576159    318.21976  0.072652912  0.074088992            4 
  366000     1.117253   -3.7528086    317.55999  0.072304187  0.074073975            2 
  367000    1.1213468   -3.7683125    319.36625  0.072517313  0.074058705            3 
  368000    1.1197687    -3.758733    320.74463   0.07263239  0.074044674            1 
  369000    1.1101599   -3.8000839     320.6592  0.072416261  0.074029441            2 
  370000    1.0932121   -3.7558336    321.54908  0.072420965  0.074014188            2 
  371000    1.0998586   -3.7859647    321.75195  0.072271328  0.073998931            2 
  372000    1.1271848   -3.8102712    321.98442  0.072129127  0.073983896            2 
  373000    1.1223855   -3.7804413    324.66913  0.072535551  0.073970374            3 
  374000     1.106908   -3.7793077    324.62936  0.072332746  0.073955036            2 
  375000    1.1063704   -3.7617771    324.46325  0.072102945   0.07393818            4 
  376000    1.1079482   -3.7813048    325.95287  0.072241328  0.073922121            4 
  377000    1.0906759   -3.8023047    325.84098  0.072024973  0.073904006            2 
  378000    1.1107558   -3.7657773    328.62208  0.072447547  0.073887707            1 
  379000    1.0835602   -3.8103811    328.97196  0.072333325  0.073872827            1 
  380000    1.1165407   -3.7578884    329.12374   0.07217626  0.073856432            1 
  381000    1.1070386   -3.7604667    329.84218  0.072143959  0.073838955            2 
  382000    1.0871507   -3.7744055    332.21729  0.072473232   0.07382012            1 
  383000    1.1450511   -3.8009944    331.01735  0.072022922  0.073802937            2 
  384000    1.1184235   -3.7674899    332.78167  0.072218245  0.073784603            3 
  385000    1.0796888   -3.8028084    332.97387  0.072072266  0.073766424            1 
  386000    1.1135295    -3.789934    332.24629  0.071728475  0.073747255            6 
  387000    1.0964318   -3.8107173    335.35639  0.072212832  0.073726053            3 
  388000    1.0883364   -3.7721739    334.17177  0.071772288  0.073705464            1 
  389000     1.102799   -3.7900458    335.61045  0.071895982  0.073682404            2 
  390000    1.1033355   -3.7862563    335.96338  0.071787048  0.073660337            2 
  391000    1.1045695   -3.7958172    336.22122  0.071658401  0.073638126            4 
  392000    1.0782964   -3.7600528    339.14263  0.072096647  0.073617602            5 
  393000    1.1084566   -3.7448612     339.3902  0.071965692  0.073597469            1 
  394000    1.0910527   -3.8009882    338.17424  0.071525855   0.07357758            3 
  395000    1.0794482   -3.7723756    341.40617  0.072026618  0.073558421            2 
  396000    1.1049908   -3.7718043    341.82434  0.071932731  0.073537959            3 
  397000    1.0897779   -3.7835312    341.57744  0.071699714  0.073518284            2 
  398000    1.0894815   -3.8098508    342.23959  0.071658207  0.073496502            3 
  399000    1.1242858    -3.792574     342.7814  0.071591772  0.073473733            2 
  400000    1.0966854    -3.780918    344.27096  0.071723116  0.073452172            1 
  401000    1.1026877   -3.7853631    343.41075  0.071365493   0.07343019            1 
  402000    1.1008084    -3.805011    345.52114  0.071625444  0.073405071            1 
  403000     1.093251   -3.8382587    343.01858  0.070930227  0.073378189            4 
  404000    1.0759642     -3.78199    347.01782  0.071579583  0.073350751            2 
  405000    1.1045664   -3.8103658    344.63161  0.070911855  0.073321734            3 
  406000    1.0861446   -3.7450073    347.74462  0.071376153  0.073293489            2 
  407000    1.0946416   -3.7833718    349.04502  0.071467038  0.073266252            4 
  408000    1.0964094   -3.8032255     348.3883  0.071157741  0.073241184            3 
  409000    1.1015336   -3.7771151    349.63474  0.071237722  0.073215413            2 
  410000    1.0862719   -3.8224032    349.21844  0.070979357  0.073189402            3 
  411000    1.0709299   -3.7863345    351.99706  0.071370045  0.073162236            3 
  412000    1.0768009   -3.7992491    351.69433  0.071135585  0.073135912            3 
  413000    1.0833212   -3.8044639     351.9144  0.071007748  0.073109724            1 
  414000    1.0932687   -3.8148545    352.82876  0.071020282  0.073083505            1 
  415000    1.0743198   -3.8239347    353.43135  0.070970151  0.073056135            1 
  416000    1.0701334   -3.8114752     354.5961  0.071032873  0.073030702            4 
  417000    1.0829362   -3.8294682    355.30066   0.07100333   0.07300521            3 
  418000    1.1010443   -3.8055733    357.46357  0.071264668  0.072979574            3 
  419000    1.0831384   -3.8052386    357.45724  0.071093324  0.072954857            3 
  420000    1.1045181   -3.7752447    358.48123  0.071127229   0.07292954            2 
  421000    1.1092681   -3.8137708    357.96835  0.070856759  0.072904006            2 
  422000    1.1044211   -3.8013214    360.74624  0.071237409  0.072878963            2 
  423000    1.0817435   -3.7872611    360.24559  0.070970368   0.07285428            2 
  424000    1.0747148   -3.8459465    360.58104  0.070868915  0.072829579            3 
  425000    1.0624554   -3.7783579    363.04088  0.071184486  0.072806283            7 
  426000    1.0977434     -3.79783    363.43392  0.071094272  0.072782248            4 
  427000    1.0906032   -3.7672987    364.28343  0.071093565  0.072758259            6 
  428000    1.0950828   -3.8155089    364.98942  0.071064919  0.072734487            3 
  429000    1.0989907   -3.8189028    366.00834   0.07109719  0.072710971            2 
  430000    1.0916525   -3.8569478     365.8371  0.070898663   0.07268724            4 
  431000    1.0688351   -3.8148144    366.89189  0.070938106   0.07266239            2 
  432000    1.0805503   -3.7895413    366.61977  0.070721405  0.072636793            3 
  433000    1.0555135   -3.7933144    370.53489  0.071311565   0.07261186            3 
  434000    1.0805237   -3.8139358    368.76618  0.070807637  0.072587321            4 
  435000    1.0705809   -3.8108771    369.86568  0.070855494  0.072561774            4 
  436000    1.0866729   -3.8555399    368.64906  0.070460446   0.07253719            2 
  437000      1.09494   -3.8222399    368.30009  0.070232663  0.072508966            2 
  438000    1.0670819   -3.7971361    370.66516   0.07052229  0.072480816            3 
  439000    1.0633441   -3.8223526    370.28047  0.070288624  0.072452966            4 
  440000    1.0683718   -3.8463459    369.21446   0.06992698  0.072422972            2 
  441000    1.0944636    -3.810842    371.43029  0.070187129  0.072392239            2 
  442000    1.0862716   -3.8110227    372.00472  0.070136637  0.072362431            2 
  443000    1.0767756   -3.8092361    373.44908  0.070250016   0.07233369            1 
  444000     1.061074    -3.820402    374.00316  0.070195789  0.072303717            4 
  445000      1.08069   -3.7841833    375.41999   0.07030337  0.072274889            3 
  446000    1.0699709   -3.8237914    376.07259  0.070267673  0.072248004            4 
  447000    1.0732493    -3.827414    378.97129  0.070650875  0.072222321            4 
  448000    1.0573331   -3.8151313    378.42493  0.070391543  0.072196322            2 
  449000    1.0685284   -3.8416389    377.50331  0.070063717  0.072171686            2 
  450000     1.070066   -3.8159228    379.41205  0.070261491  0.072145605            3 
  451000    1.0758169   -3.8377493    378.73835  0.069981217  0.072118649            2 
  452000    1.0803644   -3.8373032     379.9717   0.07005378  0.072092238            3 
  453000    1.0649085   -3.8179381    380.58046  0.070011123  0.072065327            2 
  454000    1.0523486   -3.8165911    382.71709  0.070249099  0.072039489            1 
  455000    1.0721496   -3.8284191    384.55231  0.070430826  0.072014476            2 
  456000    1.0736069   -3.8044681    386.12122  0.070563088  0.071989025            2 
  457000    1.0692816   -3.8003425    385.34819  0.070267722  0.071963838            3 
  458000    1.0818978   -3.8674167    385.06847  0.070063403  0.071937504            3 
  459000    1.0615045    -3.821222    387.35117  0.070325194  0.071911799            2 
  460000    1.0811448   -3.7889434    387.42307  0.070185339  0.071886998            3 
  461000     1.052861   -3.8463972     387.6264  0.070069848  0.071861474            4 
  462000    1.0727079   -3.8385063    389.07715  0.070179861  0.071834825            4 
  463000    1.0667424   -3.8297271    390.68231   0.07031719   0.07180979            3 
  464000    1.0824517   -3.8311799    389.87879  0.070021335  0.071783238            3 
  465000    1.0707233   -3.8305825    391.10235  0.070090028  0.071757063            4 
  466000    1.0715719   -3.8478054    391.21435  0.069959647   0.07173153            2 
  467000    1.0854338   -3.7870093    393.11928  0.070149765  0.071706289            2 
  468000    1.0653138   -3.8124845    392.35664  0.069864074  0.071680083            3 
  469000    1.0620787   -3.8213633    392.11362   0.06967193  0.071653447            5 
  470000    1.0572312   -3.8210875    392.94656  0.069671376  0.071625161            4 
  471000    1.0761257   -3.8251261    393.41024  0.069605491  0.071598469            1 
  472000    1.0662812   -3.8078604    395.34196  0.069799074  0.071570873            2 
  473000    1.0723704   -3.8537076     393.7055  0.069363196  0.071542904            6 
  474000    1.0462004   -3.8751696    396.14329  0.069645445  0.071512599            2 
  475000    1.0645128   -3.8351799    397.42407  0.069723521  0.071482605            3 
  476000     1.070229   -3.8223581    396.53572   0.06942152  0.071453895            2 
  477000    1.0672668   -3.8509613    397.40456  0.069427771  0.071423388            5 
  478000    1.0854468   -3.8273614    397.00335  0.069212578  0.071393337            2 
  479000    1.0802192   -3.8429228    397.25864  0.069112498  0.071360951            1 
  480000    1.0644526   -3.8446639    397.17974  0.068954816   0.07132768            2 
  481000     1.049668   -3.8332632    399.46487  0.069207358  0.071294596            3 
  482000    1.0692066   -3.8397721    399.85799  0.069131741  0.071260573            3 
  483000    1.0512515   -3.8201306    398.26812  0.068714306  0.071225022            4 
  484000    1.0675003   -3.8537586    397.69298   0.06847331  0.071188384            5 
  485000    1.0523119   -3.8249931    399.38291  0.068622493  0.071150954            6 
  486000    1.0735545   -3.8312581    401.64614  0.068869365  0.071115578            4 
  487000    1.0713903   -3.8336989    401.65944  0.068730226  0.071079648            2 
  488000    1.0612313   -3.8827944    400.86702  0.068454067  0.071042023            1 
  489000    1.0688662   -3.8673698    399.65801  0.068108046  0.071002411            4 
  490000    1.0498734   -3.8481363    402.19487  0.068400488  0.070962807            4 
  491000    1.0445153   -3.8298793    401.91778  0.068214151  0.070922962            3 
  492000    1.0268548   -3.8654543    402.51915  0.068177362  0.070883028            2 
  493000    1.0754564   -3.8454296    404.81008  0.068426316  0.070843036            1 
  494000    1.0659641   -3.8593826    405.22864  0.068358407  0.070802676            3 
  495000    1.0555928   -3.8459766    403.10662  0.067863068  0.070762785            6 
  496000    1.0638635   -3.8877966    405.05615  0.068053789  0.070723398            2 
  497000    1.0677557   -3.8646616    407.35377  0.068302108  0.070683287            3 
  498000    1.0618922    -3.831263    407.41092  0.068174518  0.070644365            1 
  499000    1.0801715   -3.8566371    407.32254  0.068023137  0.070604492            2 
  500000    1.0323893   -3.8938395    407.55244  0.067925406  0.070564026            2 
  501000    1.0687212   -3.8629263    408.17246  0.067892957  0.070522915            7 
  502000    1.0698573   -3.8422616    408.96078  0.067888576   0.07048243            4 
  503000    1.0333735   -3.8652996    409.22817  0.067797907  0.070441886            6 
  504000    1.0399428   -3.8366666    410.64888  0.067898293  0.070401683            2 
  505000    1.0539484   -3.8425056    411.45632  0.067897083  0.070360691            1 
  506000    1.0580619     -3.87607    411.10672  0.067705322  0.070320231            4 
  507000    1.0714501   -3.8664957     410.6731  0.067500509   0.07027888            3 
  508000    1.0413739   -3.8491461    411.17558  0.067450063  0.070237751            4 
  509000    1.0461808   -3.8661276    413.07975  0.067629298   0.07019774            4 
  510000    1.0629277   -3.8696424    413.31434  0.067535023  0.070158723            3 
  511000    1.0230683   -3.8600876    416.51217  0.067924359  0.070120343            2 
  512000    1.0701334   -3.8262567    415.59238  0.067641989  0.070081853            2 
  513000    1.0497998   -3.8602607    415.65729  0.067520677  0.070042927            1 
  514000      1.07598   -3.8399076    417.90613  0.067753912  0.070006062            1 
  515000    1.0329704   -3.8588444     419.4196  0.067867249  0.069969095            2 
  516000    1.0556759   -3.8734013    419.42646  0.067736831  0.069932813            3 
  517000    1.0638161   -3.8812936    420.79411  0.067826259  0.069896212            2 
  518000    1.0600686   -3.8570774    421.01302  0.067730537  0.069862554            2 
  519000    1.0528254   -3.8633976    422.79768  0.067886589  0.069827161            5 
  520000    1.0357467   -3.8550341    422.28662  0.067674138  0.069790669            4 
  521000    1.0453659   -3.8379513    422.26955  0.067541515   0.06975608            2 
  522000    1.0392641   -3.8485505    424.15315  0.067712827  0.069722059            3 
  523000    1.0562715   -3.8291098    424.82297  0.067690085  0.069688021            1 
  524000    1.0161534   -3.8628379    424.83127  0.067562225  0.069654211            2 
  525000    1.0367912   -3.8731051    426.26505  0.067661119  0.069620141            3 
  526000    1.0338309   -3.8778189    428.23963  0.067845315   0.06958693            1 
  527000    1.0472613   -3.8603769    429.51307  0.067917943  0.069553922            2 
  528000    1.0500389   -3.8788772    428.31276  0.067599868  0.069520757            2 
  529000    1.0409638   -3.8959894    427.92392  0.067410826  0.069487045            1 
  530000    1.0437233   -3.8693292    430.66268  0.067714258  0.069452691            5 
  531000    1.0474107   -3.8804387    430.03817  0.067488727  0.069418552            3 
  532000    1.0576853   -3.8806358    431.08473  0.067525804  0.069384856            1 
  533000    1.0447996    -3.883218    431.29125  0.067431403  0.069350839            4 
  534000     1.026691   -3.8687885    432.36872  0.067473271  0.069317413            5 
  535000    1.0464627   -3.8842125    433.54701  0.067530687  0.069283321            3 
  536000    1.0302459   -3.8706141    434.24824  0.067513718  0.069249271            3 
  537000    1.0431458   -3.8504819    434.86699  0.067484015  0.069216105            4 
  538000    1.0272794   -3.8962218    434.09321  0.067238725   0.06918349            1 
  539000    1.0174167   -3.8817595    436.04271  0.067415384  0.069149145            3 
  540000    1.0118284    -3.893029    436.83574  0.067412923  0.069114742            1 
  541000    1.0449037   -3.8704544     436.2434  0.067197073   0.06908079            4 
  542000    1.0131689   -3.8855799    437.07051  0.067200263  0.069047868            2 
  543000    1.0186225   -3.8759855    438.18123  0.067246965  0.069016268            2 
  544000    1.0256244   -3.8607476     438.8406  0.067224357  0.068984774            2 
  545000    1.0479163   -3.9116468    438.50741  0.067050062  0.068952568            5 
  546000    1.0309899   -3.8962513    440.57868  0.067243389  0.068920032            3 
  547000    1.0216484   -3.8880648    440.06916  0.067042834  0.068887687            4 
  548000    1.0381936   -3.8505476    439.85993  0.066888676  0.068854119            3 
  549000    1.0389883   -3.8970158    441.28968  0.066983861   0.06882143            3 
  550000    1.0237644   -3.8963099    442.51003  0.067046975  0.068788973            4 
  551000    1.0301087   -3.8776261    444.82705  0.067275718  0.068758364            3 
  552000    1.0092238   -3.8903156     444.2362  0.067064643  0.068726502            3 
  553000    1.0046716   -3.8937188    445.17322  0.067084572    0.0686952            3 
  554000    1.0233518   -3.8458883    447.47124  0.067309151  0.068663574            4 
  555000    1.0118539   -3.8531558    448.03762  0.067272916  0.068631837            3 
  556000    1.0487872   -3.9021507    445.44551  0.066763416   0.06860032            3 
  557000     1.034352   -3.9048123     446.3796  0.066783303    0.0685672            1 
  558000    1.0443855   -3.8897957     446.4684  0.066676882  0.068535373            4 
  559000    1.0415289   -3.8846187    449.10123  0.066950094  0.068503623            2 
  560000    1.0340212   -3.8579824    449.34414  0.066866687  0.068471414            3 
  561000    1.0202174   -3.9095926    449.93837  0.066835765  0.068438643            3 
  562000    1.0337513   -3.8807437      451.213  0.066905842  0.068404774            2 
  563000    1.0212547    -3.889719    449.78607  0.066575795   0.06837183            3 
  564000    1.0034699    -3.909499    450.05114  0.066496918  0.068338156            4 
  565000    1.0505652   -3.9137998    451.35967  0.066572222  0.068304949            5 
  566000    1.0453696   -3.8795513    452.54693  0.066629407  0.068272138            3 
  567000   0.99693654   -3.9120947    450.89198  0.066268663  0.068238345            1 
  568000    1.0215863   -3.8937193    453.10452  0.066476603  0.068203826            2 
  569000    1.0345519   -3.8895035    452.15643  0.066220918  0.068169839            2 
  570000    1.0341004   -3.8662685    454.12609  0.066392704  0.068135573            1 
  571000     1.036118   -3.9133923    454.36137  0.066310767  0.068101662            2 
  572000    1.0158782   -3.8761681    454.92485  0.066276931  0.068068321            2 
  573000    1.0224154   -3.9395173     455.1902  0.066199854  0.068035213            4 
  574000    1.0103433   -3.8902865    457.21449   0.06637841  0.068000937            2 
  575000    1.0371141   -3.9221337    456.59063  0.066172555  0.067967763            4 
  576000    1.0283722   -3.9078227    459.17375  0.066431388  0.067936181            2 
  577000    1.0343249   -3.8419294    461.33958  0.066629055  0.067904156            3 
  578000    1.0179745   -3.9190119    458.71603  0.066135529  0.067872387            3 
  579000    1.0246416   -3.8799078    459.50108  0.066134294   0.06784018            4 
  580000   0.99905985   -3.8981592    459.49684  0.066019661  0.067808262            3 
  581000    1.0109445    -3.892866    461.26983  0.066160331  0.067776203            5 
  582000    1.0215883   -3.9008851    462.01748  0.066153706  0.067743497            2 
  583000    1.0167351   -3.8826342    461.84582  0.066015697   0.06771072            3 
  584000    1.0140083   -3.8969349    463.38296  0.066121998  0.067677858            3 
  585000    1.0245564   -3.9179079     461.8683  0.065793205  0.067644822            4 
  586000    1.0111793   -3.9248213    463.85352  0.065963243  0.067611424            2 
  587000    1.0094964   -3.9117736    463.00361  0.065730211  0.067578141            3 
  588000    1.0216509   -3.8738768    464.49292  0.065829496  0.067544469            2 
  589000    1.0384679   -3.9016127    463.22137  0.065537828  0.067510424            5 
  590000     1.015108   -3.8945423    466.16649  0.065842725  0.067475919            2 
  591000    1.0268041    -3.870004    464.76187  0.065533259  0.067440255            1 
  592000    1.0066917    -3.901342    464.79229  0.065426842  0.067404476            4 
  593000    1.0146827   -3.9045963    467.30827  0.065670078  0.067368708            2 
  594000    1.0094878   -3.8995256    466.21734  0.065406473  0.067331756            2 
  595000    1.0157582    -3.897968    467.05801  0.065414288  0.067295591            7 
  596000    1.0261409   -3.9257395    468.38607  0.065490222  0.067258939            3 
  597000    1.0126017   -3.9418054    467.24674  0.065221487  0.067223095            2 
  598000    1.0012534   -3.8962522    470.55386   0.06557328  0.067186609            3 
  599000    1.0207704    -3.926633    471.48571  0.065593448  0.067151451            5 
  600000    1.0088412   -3.9133338    470.51532   0.06534935  0.067117622            2 
  601000   0.98876186   -3.8997556    472.81442  0.065559403  0.067082911            4 
  602000     1.007659   -3.9365021    471.44344   0.06526072  0.067048521            6 
  603000    1.0233637   -3.9291707    472.27074  0.065266824   0.06701386            4 
  604000   0.99597564   -3.9258836    473.33787  0.065305998  0.066978789            2 
  605000    1.0041655   -3.9288982    473.20161  0.065179285  0.066943849            3 
  606000    1.0034604   -3.9223122    472.22499   0.06493743   0.06690792            3 
  607000    1.0026784   -3.9102543    474.18001  0.065098848   0.06687317            2 
  608000    1.0199934   -3.9463635    475.48991  0.065171315  0.066837967            8 
  609000   0.99534461   -3.9232586    473.98442  0.064858294  0.066802472            2 
  610000    1.0131375   -3.9246748    475.15134  0.064911385  0.066766421            1 
  611000    1.0240097   -3.9512217    474.41754  0.064705065  0.066729515            3 
  612000    1.0132692   -3.9225284    475.89878  0.064801033  0.066692163            3 
  613000    1.0187681   -3.9035923     476.7338  0.064808837  0.066655955            6 
  614000    1.0005651   -3.9182514    476.74078  0.064704232  0.066619957            2 
  615000      1.02056    -3.896716    481.44269  0.065236137  0.066585102            4 
  616000    0.9876396   -3.9336032     480.7408  0.065035282  0.066549896            2 
  617000     1.011261    -3.925168    477.97319  0.064556077  0.066514217            3 
  618000    1.0024306   -3.9375062    478.12673  0.064472321   0.06647873            3 
  619000    1.0279778   -3.9053083    480.53646  0.064692576  0.066442529            4 
  620000    1.0113508   -3.9199498    480.35109  0.064563318  0.066406856            3 
  621000    1.0045654   -3.9203512    480.67446  0.064502746  0.066370256            1 
  622000   0.98889233   -3.9334107    479.22357  0.064204659  0.066333945            4 
  623000    1.0149835   -3.9153946    483.23719  0.064638469  0.066298468            3 
  624000    1.0069897    -3.928198    485.78976   0.06487577  0.066264036            3 
  625000    1.0152349   -3.9514566     484.1191  0.064549213  0.066229186            3 
  626000   0.99719131   -3.9435888    484.12473  0.064446848  0.066194001            2 
  627000    1.0082195   -3.9594448    484.53589  0.064398709  0.066158858            4 
  628000    1.0129557   -3.9093326    484.37133  0.064274327  0.066123537            4 
  629000   0.99706711   -3.9298526    486.97872  0.064517583  0.066088436            4 
  630000    1.0008863   -3.9338232    487.23361   0.06444889  0.066054104            8 
  631000   0.99193994   -3.9399165    487.94616  0.064440856  0.066019609            2 
  632000   0.98677805   -3.9263532    489.38331   0.06452839  0.065985388            3 
  633000   0.98804734   -3.9455221    489.39746  0.064428313  0.065951322            6 
  634000    1.0113314   -3.9618185      489.067  0.064283255  0.065916863            3 
  635000   0.99108645   -3.9209813    489.64299   0.06425761  0.065883341            2 
  636000   0.99891376   -3.9657889    491.84264   0.06444479  0.065848563            3 
  637000   0.99161445   -3.9210934    492.82032  0.064471522  0.065815328            3 
  638000    1.0349685   -3.9510514    491.28307   0.06416968  0.065782672            3 
  639000    1.0055117   -3.9458278    493.20776  0.064320261  0.065750149            5 
  640000      1.00031   -3.9658263    493.87843  0.064307087  0.065717773            2 
  641000   0.98453607   -3.9239658     495.6233  0.064433606   0.06568464            3 
  642000    1.0163456   -3.9527219    493.85278  0.064103424    0.0656511            3 
  643000   0.97306574   -3.9446304    497.13186  0.064428701  0.065618689            2 
  644000    0.9800897   -3.9568644    497.23285  0.064341725  0.065586354            2 
  645000    1.0008612   -3.9549779     495.6262  0.064034393  0.065553537            1 
  646000   0.97958585    -3.909694     498.9312   0.06436161  0.065520926            2 
  647000    1.0071586   -3.9212497    498.29086  0.064179658  0.065489057            6 
  648000   0.99038967   -3.9469208     500.9802  0.064426466  0.065457397            5 
  649000    1.0010642   -3.9557008    500.12733  0.064217685  0.065425315            3 
  650000   0.99674386   -3.9421639    500.14814  0.064121556  0.065393374            2 
  651000   0.99111279    -3.950118    500.48964  0.064066774  0.065361659            3 
  652000   0.98401432   -3.9718199    502.07684  0.064171375  0.065330451            4 
  653000   0.98674787   -3.9400439     503.7182  0.064282568  0.065299735            3 
  654000   0.97416173    -3.970665    501.81524    0.0639418  0.065269432            1 
  655000   0.99131115   -3.9431811    505.38903  0.064298859  0.065239706            3 
  656000   0.99603237   -3.9218922    505.29964  0.064189486  0.065210582            6 
  657000   0.97403369   -3.9502831    505.88099  0.064165524  0.065180701            2 
  658000   0.98804811   -3.9648217    507.06399   0.06421783    0.0651513            2 
  659000    1.0124261   -3.9430642    508.88391  0.064350519  0.065122438            3 
  660000   0.99121442   -3.9706586    507.26627  0.064048771  0.065093368            8 
  661000   0.98517903   -3.9230038    509.65245  0.064252704  0.065064837            2 
  662000   0.99633903   -3.9495919    510.21115  0.064225976  0.065036331            4 
  663000    1.0038286   -3.9902476    509.13538  0.063993889  0.065007932            5 
  664000   0.99316685    -3.974073    507.44095  0.063684858  0.064979532            7 
  665000   0.99290826   -3.9390218    511.16181  0.064055365  0.064951337            3 
  666000   0.99449889   -3.9449828    512.44785  0.064120102  0.064923186            3 
  667000    0.9925589   -3.9392525    512.49208  0.064029496  0.064895562            1 
  668000   0.99094026   -3.9481297    514.41881  0.064174004  0.064867483            3 
  669000   0.97308968   -3.9618232    514.72558  0.064116291   0.06483991            2 
  670000   0.99532856   -3.9490862    515.02493  0.064057826  0.064812214            1 
  671000    1.0016566   -3.9580509     512.9525   0.06370498  0.064783956            5 
  672000   0.97417984   -4.0109591    512.77758  0.063588489  0.064754951            7 
  673000    0.9931379   -3.9999284    514.96135  0.063764406  0.064726668            5 
  674000   0.98284923   -3.9518927    518.79348  0.064143605  0.064699098            4 
  675000   0.97987966   -3.9544308    517.38531  0.063874729  0.064670476            3 
  676000   0.95188802   -3.9388913    519.51053  0.064042226   0.06464269            5 
  677000   0.97686512   -3.9427415    520.18779  0.064030993  0.064614665            3 
  678000   0.97954457   -3.9333638    520.26723  0.063946316  0.064588138            3 
  679000    1.0004282   -3.9425178    520.19688  0.063843506  0.064561027            3 
  680000    0.9741847   -3.9322076    520.99047  0.063846872  0.064533843            3 
  681000   0.97638146   -3.9454314    523.64308  0.064077714  0.064506991            1 
  682000    0.9504807   -3.9847455    521.06569  0.063668828  0.064479506            2 
  683000   0.95904171   -3.9546836    522.63868   0.06376753  0.064451978            5 
  684000   0.98101419    -3.979499     523.5989  0.063791289  0.064425066            8 
  685000   0.98589272   -3.9673519    522.15401  0.063522386  0.064398307            3 
  686000   0.97341651   -3.9652361    524.66998   0.06373542  0.064371337            3 
  687000    1.0001961   -3.9630029    525.98306  0.063801924  0.064343994            2 
  688000   0.98383881   -3.9394801    527.12529   0.06384754  0.064317234            2 
  689000   0.98913756    -3.936327     526.5939  0.063690602  0.064290537            4 
  690000   0.98288749    -3.975353    527.58527  0.063718028  0.064263795            8 
  691000   0.99254398   -3.9793237    527.16471  0.063575098  0.064236832            3 
  692000   0.98961254   -3.9575664     528.8452  0.063685597  0.064210287            1 
  693000   0.96728667   -3.9596756    531.09221  0.063863902  0.064183556            1 
  694000   0.98907436   -3.9493763    530.14629  0.063658296  0.064157406            5 
  695000   0.96604866   -3.9493349    528.59959  0.063381246  0.064130581            2 
  696000    1.0049502   -3.9983404    529.60737  0.063410844   0.06410424            7 
  697000   0.96065957   -3.9789639     531.0009  0.063486477  0.064077833            4 
  698000   0.96490677   -3.9738662    531.02503  0.063398404  0.064051206            3 
  699000   0.96764588   -3.9979576    531.24245  0.063333626  0.064025084            2 
  700000   0.95223743   -3.9579806    532.08961  0.063344001  0.063998045            5 
  701000   0.94817827   -3.9768647    534.60122  0.063552213  0.063972603            3 
  702000   0.95741153   -3.9851984     534.5641  0.063457277  0.063947272            2 
  703000    0.9738742   -3.9726315    533.11612  0.063195367  0.063920983            4 
  704000   0.99931225   -4.0171784    534.82597  0.063307999  0.063894752            2 
  705000   0.97599397   -3.9380918    536.38618  0.063402622  0.063868285            3 
  706000   0.98388308   -3.9841635    535.73621  0.063236096  0.063841818            4 
  707000   0.96960222   -3.9994641    536.11666  0.063191497   0.06381484            3 
  708000   0.96800357   -3.9780193    536.49949  0.063147304  0.063788429            2 
  709000    1.0017336   -3.9724129    537.91534  0.063224652  0.063761953            2 
  710000   0.94876485   -3.9692936    538.98954  0.063261683  0.063735428            5 
  711000   0.96726161   -3.9943981    538.20615   0.06308089  0.063708338            1 
  712000   0.97624949   -3.9909008    539.63097  0.063159055  0.063681778            4 
  713000   0.98063073   -4.0193826    539.35632  0.063038373  0.063655198            3 
  714000   0.98026767    -3.974165    540.45424  0.063078226  0.063629362            3 
  715000   0.96745485    -3.981521    542.40406  0.063217256  0.063603783            4 
  716000   0.95284513   -3.9781579    541.71314   0.06304855  0.063577972            2 
  717000   0.97629352    -3.978058    542.85865  0.063093753  0.063552384            3 
  718000   0.96780275   -3.9567673    543.08704  0.063032386  0.063526514            7 
  719000   0.95229138   -3.9951269     542.3158  0.062855332  0.063500764            4 
  720000   0.96826897   -3.9900548    544.21777  0.062988168   0.06347462            2 
  721000   0.94071268    -3.970715    543.97356   0.06287258  0.063448633            6 
  722000   0.95651995   -3.9821649    545.71622  0.062986637  0.063423094            4 
  723000   0.97242942   -4.0015692    544.96226  0.062812616  0.063397251            4 
  724000   0.96884726   -4.0147009    545.42524  0.062779148  0.063371188            3 
  725000   0.96178275   -3.9916723    546.29416  0.062792432  0.063345355            4 
  726000   0.97587127   -4.0009891    546.88155  0.062773364  0.063319929            9 
  727000   0.95456679   -4.0088418    546.55947    0.0626501  0.063294846            4 
  728000   0.94904265    -3.999634    549.17182  0.062863074  0.063269764            4 
  729000   0.96284598   -4.0087868     550.3668  0.062913444  0.063244905            8 
  730000   0.97648875   -4.0179433    548.93887  0.062664255   0.06321998            3 
  731000   0.96308087   -3.9856471    550.51023  0.062757664  0.063194347            4 
  732000   0.97390357     -4.02166     551.8122   0.06282015  0.063169482            6 
  733000   0.96080188   -4.0035595    551.21721  0.062666804  0.063144844            5 
  734000   0.97182533   -3.9959293    552.38805  0.062714356  0.063119957            6 
  735000     0.967266   -3.9923508    552.63784  0.062657352  0.063094701            5 
  736000   0.96238109   -4.0173399    553.88255  0.062713151  0.063069958            3 
  737000   0.95922212   -4.0015036    555.23867  0.062781396  0.063045681            3 
  738000   0.97048831   -3.9949624    557.19423  0.062917144  0.063021906            6 
  739000    0.9579599   -4.0067881    556.84903  0.062793079  0.062997967            2 
  740000   0.95840762   -4.0033743     555.4438  0.062549977  0.062973506            2 
  741000   0.96677251   -4.0048481    556.08639   0.06253783  0.062949094            4 
  742000   0.95872851   -4.0007811    558.21457  0.062692562  0.062924293            5 
  743000   0.94849638   -3.9823597    558.76348  0.062669749  0.062900222            3 
  744000   0.95837252   -3.9932089    558.22327  0.062525007     0.062875            3 
  745000   0.96762704   -4.0341047    556.91722  0.062294991  0.062849503            6 
  746000   0.97410153    -4.015265    557.13271  0.062235558  0.062823538            2 
  747000   0.95392248   -3.9827852    559.09697   0.06237137  0.062798107            2 
  748000   0.94268308   -4.0041397    559.33123  0.062314085  0.062772652            3 
  749000   0.96172677    -4.002746    561.23803  0.062443039  0.062747688            3 
  750000   0.97955175   -4.0061574    561.93747  0.062437496  0.062722442            6 
  751000   0.95386495   -4.0217786    561.32319  0.062286195  0.062698207            3 
  752000   0.94812293   -4.0204126    562.42249  0.062325187  0.062673704            3 
  753000   0.94621997   -4.0369228    564.06945  0.062424684  0.062649188            2 
  754000   0.95223174   -4.0236497    563.18113  0.062243714  0.062623546            7 
  755000   0.93254803    -3.984449    564.13343  0.062266383  0.062597561            4 
  756000   0.94778037   -4.0010212     563.5365  0.062118221  0.062572314            2 
  757000    0.9467759    -4.002761    565.40556  0.062241916  0.062546513            7 
  758000   0.96743291   -4.0360658     562.8047  0.061873867  0.062521253            3 
  759000   0.93887235   -4.0182824    566.37102  0.062183907  0.062496777            2 
  760000   0.93370224   -4.0202812    564.21156  0.061865303  0.062472076            4 
  761000   0.96447739   -4.0179975    565.91404  0.061970438  0.062447026            6 
  762000     0.971995   -3.9988179    565.49076  0.061842822  0.062421693            4 
  763000   0.95712609   -4.0125769    567.42403  0.061972917  0.062396174            3 
  764000   0.95520498   -4.0102029    569.39755  0.062107063  0.062370869            3 
  765000   0.94262506   -4.0143217    569.58944   0.06204678   0.06234599            3 
  766000   0.96041334    -4.027489    569.22874  0.061926538  0.062320486            4 
  767000   0.94423374   -4.0121034    571.23247  0.062063501  0.062295576            4 
  768000   0.94484829   -4.0359514    569.29287   0.06177223  0.062270776            8 
  769000   0.94846712   -4.0179073    572.06636  0.061992453  0.062246298            4 
  770000   0.94696976   -4.0155681     572.4985  0.061958712  0.062222231            4 
  771000   0.91965848    -4.019211     573.5064  0.061987289   0.06219797            5 
  772000   0.93271263   -4.0402171    572.81518  0.061832382  0.062173581            3 
  773000   0.94812661   -4.0341527    572.85054  0.061756203   0.06214892            4 
  774000   0.92616639   -4.0265142    574.41265  0.061844601  0.062124343            4 
  775000   0.96242942   -3.9975226     577.7181  0.062120225  0.062101149            2 
  776000   0.92085342   -4.0563913    574.46643  0.061690982  0.062077335            4 
  777000   0.95189182   -4.0259145    578.05171  0.061996108  0.062054147            1 
  778000   0.94084638   -4.0307374    578.29991  0.061943007  0.062031193            2 
  779000    0.9489086   -4.0089772    579.70168  0.062013445  0.062007742            2 
  780000   0.94882468   -4.0263986    578.37778  0.061792498   0.06198437            3 
  781000   0.92661481   -4.0414753    579.00003  0.061779773  0.061960331            3 
  782000   0.93463694    -4.028007    580.46319  0.061856692  0.061935555            4 
  783000   0.94831046   -4.0078331    578.49896  0.061568642  0.061911342            3 
  784000   0.93673547     -4.02437     579.0037   0.06154376  0.061886731            2 
  785000   0.95322488   -4.0183879    579.90192  0.061560713  0.061862367            5 
  786000   0.94967469   -4.0085546     581.5319  0.061655206  0.061837953            3 
  787000   0.94666292   -4.0493943    580.41795   0.06145891  0.061812862            3 
  788000   0.95856025   -4.0551057    580.89093  0.061430936  0.061787574            2 
  789000   0.92118509   -4.0275061     579.9475  0.061253432  0.061762315            3 
  790000   0.95445531   -4.0762144     579.8051  0.061160875  0.061737242            3 
  791000   0.94017622   -4.0363743    583.92372  0.061517459  0.061712141            4 
  792000   0.95114765   -4.0383457    583.43723  0.061388597   0.06168704            3 
  793000   0.91803732   -4.0214543    581.37739  0.061094723  0.061662324            2 
  794000   0.92779177   -4.0625577      582.731  0.061159845  0.061636507            5 
  795000   0.91369828   -4.0409622    583.29028  0.061141538  0.061611391            7 
  796000   0.92031099   -4.0186442    586.83098  0.061435404  0.061586019            2 
  797000   0.92644398   -4.0455399    585.76964  0.061247348  0.061560899            2 
  798000   0.92182657   -4.0550779    586.82744  0.061281061  0.061536112            4 
  799000   0.93417657   -4.0391009    586.09785  0.061128269  0.061511209            3 
  800000   0.93185985   -4.0516445    588.43852  0.061295679  0.061486198            2 
  801000   0.93296414   -4.0295711    585.78906  0.060943514  0.061461168            2 
  802000   0.93829108   -4.0468004    586.28231  0.060918777  0.061436288            2 
  803000    0.9200582   -4.0496916    587.74931  0.060995155  0.061411471            3 
  804000   0.92939931   -4.0639488    587.32115  0.060874911   0.06138744            2 
  805000   0.92489846   -4.0617381    588.93139  0.060965982  0.061362933            5 
  806000   0.94423468   -4.0394981    589.29681  0.060928123  0.061338282            4 
  807000   0.92575667   -4.0786053    590.29963  0.060956179  0.061314039            3 
  808000   0.91806177   -4.0804405    591.04524  0.060957636  0.061289556            3 
  809000   0.92920334   -4.0486526    590.81441  0.060858509  0.061265215            3 
  810000    0.9403379   -4.0659906    591.33667  0.060837106  0.061241209            3 
  811000   0.91978382   -4.0603061    591.41794  0.060770441  0.061216913            4 
  812000   0.93399179   -4.0473976    593.94956  0.060955415   0.06119252            6 
  813000   0.93470278   -4.0251035     595.3104  0.061019926  0.061168116            4 
  814000   0.92931652   -4.0826846    591.27555  0.060531895  0.061143241            6 
  815000   0.91869564   -4.0218369     598.2001  0.061165654  0.061118659            7 
  816000   0.92803702   -4.0532768    594.90249   0.06075393  0.061094618            3 
  817000   0.93360116   -4.0692323    593.85079  0.060572296  0.061069852            2 
  818000   0.94365336   -4.0818573    596.45965  0.060764023   0.06104588            3 
  819000   0.94239274   -4.0305479    598.72005  0.060919826  0.061021714            3 
  820000   0.92698057   -4.0952897    595.31885  0.060499884  0.060997357            4 
  821000   0.93618807   -4.0499396    598.17798    0.0607164  0.060972293            5 
  822000   0.92873702   -4.0697908    597.95814  0.060620249  0.060946965            5 
  823000   0.92731117   -4.0522863    596.25422  0.060374061   0.06092146            2 
  824000   0.92822477   -4.0854471    598.07917  0.060485353  0.060895774            4 
  825000   0.92705121   -4.0578346    601.95805  0.060803844  0.060870564            4 
  826000   0.94505913    -4.046584     600.4369  0.060576766  0.060845245            3 
  827000   0.91806438   -4.0587938    598.78783  0.060337347  0.060819783            3 
  828000   0.94346782   -4.0711949     600.5299  0.060439805  0.060794469            1 
  829000   0.92022824   -4.0674795    601.20416  0.060434676  0.060769634            2 
  830000   0.90674815   -4.0590705    602.11313  0.060453126  0.060745343            2 
  831000   0.92728485   -4.0960322    601.23715  0.060292534  0.060720179            3 
  832000   0.93148499   -4.0408463    604.98738  0.060595691   0.06069501            5 
  833000   0.92415947   -4.0426102    604.53061  0.060477251  0.060670223            5 
  834000   0.90482815   -4.0798784    604.49952   0.06040163  0.060645571            3 
  835000   0.93667908   -4.0639034    604.74732  0.060354024  0.060621277            5 
  836000   0.93975523   -4.0600607    605.74087  0.060380868  0.060596539            4 
  837000   0.93436978   -4.0607634    606.41736  0.060376081  0.060571874            4 
  838000   0.92439733   -4.0985391    604.23183  0.060086698  0.060547147            3 
  839000   0.90578463   -4.0434582    606.29919   0.06022042  0.060522203            2 
  840000   0.92578517   -4.1066814    604.18581  0.059939069  0.060496384            5 
  841000   0.92409874   -4.0768541    605.98473  0.060046049  0.060470378           10 
  842000   0.92102726   -4.0633703    606.31138  0.060007064  0.060444289            3 
  843000   0.93129637   -4.0645635    605.51498  0.059857155  0.060417993            4 
  844000   0.93187688   -4.0593518     607.6785  0.059999852  0.060392418            5 
  845000   0.91554527   -4.0740291    605.88391  0.059751865  0.060365961            2 
  846000   0.90973433   -4.0878358    608.13669  0.059903142  0.060339791            3 
  847000   0.90671531   -4.0723028    608.36236   0.05985462  0.060313682            2 
  848000    0.9142706   -4.0701313    609.48278  0.059894141  0.060287539            4 
  849000   0.90882285     -4.06088    609.89026  0.059863591  0.060261829            4 
  850000   0.90371571   -4.1246274     609.5357  0.059758401  0.060235644            6 
  851000     0.897547   -4.0645084    612.19358  0.059948451  0.060210216            4 
  852000   0.90328729    -4.091358    611.18469   0.05977941  0.060184656            3 
  853000   0.91019469    -4.080284    610.00805  0.059594378  0.060158903            6 
  854000   0.92624573   -4.0907547    613.52374  0.059867656  0.060133156            2 
  855000   0.92838369   -4.0973622    611.47689  0.059598137  0.060107913            3 
  856000   0.92044322   -4.1067299    612.54618  0.059632611  0.060082162            3 
  857000   0.91890598     -4.08944    612.62211  0.059570411  0.060056629            3 
  858000   0.91400736   -4.0562959     616.9216   0.05991857  0.060031659            3 
  859000    0.9316879   -4.1099279    613.86262  0.059552059   0.06000676            4 
  860000   0.91021924   -4.0748901    616.09725  0.059699346  0.059981629            4 
  861000   0.90383161   -4.0602594    617.71482  0.059786568  0.059956777            5 
  862000   0.90044411   -4.0975933    617.61567  0.059707625  0.059932452            3 
  863000    0.9122969   -4.0990223    618.37337  0.059711604  0.059907614            5 
  864000   0.93312329   -4.1176159    615.96842  0.059410534  0.059883491            2 
  865000   0.91034362   -4.0871934    617.73938  0.059512465  0.059859233            3 
  866000    0.9067213   -4.0731428    618.78117  0.059543993  0.059834491            3 
  867000   0.91081984    -4.105678    618.71668  0.059469116  0.059809479            3 
  868000   0.91695969   -4.1095069    619.37046   0.05946337  0.059783838            2 
  869000   0.91791781    -4.083992    620.32767  0.059486735   0.05975872            7 
  870000   0.91527777   -4.0941689    621.88719  0.059567738  0.059733682            3 
  871000   0.91809901   -4.1317762    619.82802  0.059302336  0.059708763            5 
  872000   0.91263314   -4.0785104    622.46693  0.059486518  0.059683829            3 
  873000     0.922079   -4.0593702    621.67619  0.059342897  0.059658842            3 
  874000   0.89511174   -4.0933663    622.53397  0.059356786  0.059633442            4 
  875000   0.89594375   -4.0735497    624.46531  0.059472887  0.059608123            4 
  876000   0.90702874   -4.1016733    624.62971  0.059420635  0.059582881            4 
  877000   0.90349544   -4.1232247    621.91331  0.059094765  0.059557182            3 
  878000   0.90735091   -4.0979868    623.39841  0.059168414  0.059531565            4 
  879000    0.8837337   -4.0940885    623.58407  0.059118702  0.059505687            4 
  880000   0.91091712   -4.0951349    624.70984  0.059158129  0.059480216            3 
  881000   0.90767279   -4.1070395    620.53179   0.05869578  0.059453995            3 
  882000   0.91805326   -4.0750196     621.9758  0.058765665  0.059428018            3 
  883000   0.90367401   -4.0886207     624.9702   0.05898171  0.059402003            7 
  884000   0.89480234   -4.1128208    623.84582  0.058808995  0.059376113            3 
  885000   0.89351283   -4.0764821    626.34193  0.058977583   0.05935038            5 
  886000   0.91431268   -4.1176848    625.84464  0.058864244  0.059324613            2 
  887000   0.88726991   -4.0984672    626.93012  0.058899861  0.059298836            8 
  888000   0.87586566    -4.116077    625.54882  0.058703906  0.059273231            7 
  889000   0.87765184   -4.1084764    626.99125  0.058773083  0.059247205           12 
  890000   0.88791264   -4.1133906    627.64043  0.058767831  0.059221119            5 
  891000    0.9209324   -4.1141258    629.22991  0.058850534  0.059195171            3 
  892000   0.89904138   -4.0920669    629.38501  0.058799048  0.059169935            5 
  893000   0.88840565   -4.1011539    630.23599  0.058812616  0.059144293            3 
  894000   0.90651049   -4.1177671    629.82389  0.058708417  0.059118984            4 
  895000   0.89045809    -4.107378    628.21505  0.058493021   0.05909377            6 
  896000    0.9115346   -4.1234654    632.90948  0.058864349  0.059068368            2 
  897000   0.88351397    -4.113897    634.31625  0.058929418  0.059043369            2 
  898000   0.89195907   -4.1020582    632.55837  0.058700666  0.059018002            3 
  899000   0.89260745   -4.1252784    631.32526  0.058521066  0.058992034            5 
  900000   0.89642553    -4.102324    633.99276  0.058703033  0.058966645            3 
  901000    0.8771426    -4.114432    634.13142  0.058650705  0.058941141            7 
  902000   0.89777474   -4.1398271    632.65544   0.05844932  0.058915782            7 
  903000   0.90080024   -4.1182674    633.77932  0.058488309  0.058890301            3 
  904000   0.90650836   -4.1162767    633.62583   0.05840946  0.058864661            2 
  905000   0.86815144   -4.1124612    635.43365  0.058511386  0.058839074            4 
  906000   0.88481042   -4.1246174    636.36408  0.058532384  0.058813345            8 
  907000    0.8954994   -4.1180545    636.66258  0.058495276  0.058788494            4 
  908000   0.89076276   -4.1389128    635.34335  0.058309778  0.058763513            1 
  909000   0.88883093   -4.0986499    638.79382  0.058561956  0.058738298            2 
  910000   0.89372281   -4.1325668    636.74751  0.058310211  0.058712567            4 
  911000    0.8880124   -4.1043862    638.41381  0.058398629  0.058687021            3 
  912000   0.88147688   -4.1288592    637.73982   0.05827301  0.058661777            4 
  913000   0.87377293    -4.131084    639.61519  0.058380357   0.05863645            2 
  914000   0.87765976   -4.1584633    639.47274  0.058303496  0.058611081            4 
  915000   0.87736881    -4.112045    641.39317  0.058414679  0.058585987            3 
  916000   0.88875549   -4.1380539    638.93469  0.058127246  0.058561148            3 
  917000   0.88903807   -4.1201695    640.71086  0.058225269  0.058536367            3 
  918000   0.87428036   -4.1540795    639.40407  0.058043216   0.05851062            3 
  919000   0.88014784   -4.1209292    641.27268  0.058149499  0.058484832            4 
  920000   0.90337832   -4.1026803    643.58802  0.058296016  0.058459847            4 
  921000   0.87988062   -4.1124332    642.68237  0.058150775  0.058434607            2 
  922000   0.87932737   -4.1311373      643.311  0.058144523  0.058409159            4 
  923000   0.89042707   -4.1319465    641.67693  0.057933995  0.058383197            3 
  924000   0.89431187   -4.1419749    642.56941  0.057951786  0.058357056            5 
  925000   0.88776805   -4.1097818    643.79996  0.057999996  0.058331533            3 
  926000   0.89084833   -4.1331353    644.41528  0.057992736  0.058306202            4 
  927000   0.88847213   -4.1422256    646.32611  0.058101951  0.058280675            7 
  928000   0.89712385   -4.1209748    643.51499  0.057786906  0.058254822            2 
  929000   0.88271469   -4.1405627     644.2655  0.057792026  0.058228894            4 
  930000   0.89830819   -4.1458438    643.72913  0.057681822   0.05820305            3 
  931000   0.89692423   -4.1493226    645.13601  0.057745794  0.058176858            6 
  932000   0.87764722   -4.1326685     645.3088  0.057699285  0.058150945            5 
  933000    0.8891474   -4.1266309    646.55726  0.057748952  0.058124992            3 
  934000   0.88121378   -4.1561414    647.23526  0.057747614  0.058098994            4 
  935000   0.88950408   -4.1269122    648.80032   0.05782534  0.058073292            6 
  936000   0.89654451   -4.1553512     645.8639  0.057502128  0.058047451            3 
  937000   0.88957816   -4.1307893     647.5571  0.057591346   0.05802106            3 
  938000   0.88671851   -4.1202682    646.89064  0.057470739  0.057994502            6 
  939000   0.89099727    -4.120949    647.23775   0.05744034  0.057968104            2 
  940000   0.89278451   -4.1280419    644.52399  0.057138652  0.057941149            6 
  941000   0.87388476   -4.1254874    646.32147  0.057237112  0.057914169            3 
  942000   0.88320567   -4.1352566    649.80321   0.05748436  0.057887102            1 
  943000   0.87257658   -4.1672198    649.28544  0.057377646  0.057860242            4 
  944000   0.89567239   -4.1513063    649.61134  0.057345634  0.057833849            2 
  945000   0.87780239    -4.132946    649.07313  0.057237489  0.057807173            3 
  946000   0.86607915   -4.1367383    651.38439  0.057380584  0.057780448            6 
  947000   0.87424189   -4.1515997     651.1653  0.057300713  0.057753995            5 
  948000   0.86594374   -4.1314173    651.52734  0.057272094  0.057727567            3 
  949000   0.86154961   -4.1279878    650.95323   0.05716133  0.057701044            2 
  950000   0.88915408   -4.1576087    651.66821  0.057163878  0.057674085            6 
  951000   0.88718391   -4.1003468    653.98535  0.057306813  0.057647562            6 
  952000    0.8728382   -4.1230012    651.79446  0.057054837  0.057621196            2 
  953000   0.86473855   -4.1464849    653.97868  0.057185964  0.057594633            7 
  954000   0.87268566   -4.1659952    653.08711   0.05704814  0.057567907           10 
  955000   0.84648542   -4.1261801    657.07535  0.057336418  0.057541285            2 
  956000    0.8814547    -4.138799    654.71052  0.057070303    0.0575149            2 
  957000   0.87467561   -4.1273045    656.37788  0.057155858  0.057488597            4 
  958000   0.87865357   -4.1637385    654.72788  0.056952669  0.057461988            4 
  959000   0.85730223   -4.1220847    658.53455  0.057224065  0.057435549            5 
  960000   0.87001233   -4.1644798    657.33044  0.057059934  0.057408853            2 
  961000   0.86106776   -4.1427249    657.22606  0.056991507  0.057382158            5 
  962000   0.87511688   -4.1429432    654.81012  0.056722983  0.057355546            8 
  963000    0.8876355   -4.1590089    657.13816  0.056865538  0.057329114            2 
  964000   0.85882179   -4.1227552    655.38521  0.056655015  0.057302276            5 
  965000   0.88394628   -4.1549963    656.68517  0.056708564   0.05727537            5 
  966000     0.861396   -4.1653207    657.54643  0.056724157  0.057248848            4 
  967000    0.8665144   -4.1812305    658.15417  0.056717871  0.057221532            4 
  968000   0.86727795   -4.1598071    657.14011  0.056571979   0.05719465            2 
  969000   0.86379443   -4.1785676    654.06197  0.056248879   0.05716739            5 
  970000   0.86081916   -4.2047102    653.77824  0.056166515  0.057139597            4 
  971000   0.88190333   -4.1632209    657.07432  0.056391548  0.057111574            1 
  972000   0.85458379   -4.1751646    659.43657  0.056536057  0.057084046            4 
  973000   0.86945213   -4.1553097    658.15655  0.056368324  0.057056166            9 
  974000   0.86431209    -4.149353    659.28146  0.056406696   0.05702863            3 
  975000   0.85655714   -4.1591081    659.62264  0.056378003  0.057000591            6 
  976000    0.8543144   -4.2049063    659.02872  0.056269529  0.056972463            4 
  977000   0.85010358   -4.1766517     660.1806  0.056310184  0.056944487            4 
  978000   0.84170973    -4.182552    660.48552  0.056278589  0.056916377            7 
  979000   0.89410681   -4.1597796    658.79507  0.056077211  0.056888053            7 
  980000   0.85431391   -4.1675526    661.15231  0.056220434  0.056860723            6 
  981000   0.85451355   -4.1722247    661.72664  0.056211913  0.056832585            3 
  982000   0.86688701   -4.1703561    661.55463  0.056140074  0.056804506            6 
  983000   0.86649611   -4.1922825    659.30033  0.055891856  0.056776331            7 
  984000   0.84377626   -4.1468821    662.49325  0.056105458  0.056747975            3 
  985000   0.86613338   -4.1675402    663.66129  0.056147317  0.056719858            7 
  986000    0.8605832   -4.1568921    664.89562  0.056194694   0.05669141            3 
  987000   0.86453047   -4.1737806    663.40188  0.056011641  0.056663227            3 
  988000   0.85123439   -4.1815956    662.89644  0.055912318   0.05663518            6 
  989000    0.8614794   -4.1579694    665.13794  0.056044653  0.056606938            3 
  990000   0.86958987    -4.147373    664.73824  0.055954398  0.056579059            3 
  991000   0.84855702   -4.1739323    664.12294  0.055846194  0.056550996            2 
  992000   0.85420402   -4.1794649    663.10735  0.055704583   0.05652268            6 
  993000   0.87108845   -4.1855777    663.76024  0.055703276  0.056494305            4 
  994000   0.84200017   -4.1781242    665.32347  0.055778292  0.056466128            6 
  995000   0.86131457   -4.1715832    665.65639  0.055750116  0.056438248            3 
  996000   0.85321803   -4.1728756    663.98707  0.055554473  0.056410753            4 
  997000   0.85742198   -4.1423915    666.94219  0.055745753  0.056382744            4 
  998000   0.84128735   -4.2044425      666.303  0.055636523   0.05635477            3 
  999000   0.86696193   -4.1777077    667.84452  0.055709419  0.056326842            6 
 1000000    0.8622957   -4.1553711    667.80968  0.055650806  0.056298704            6 
 1001000   0.86831083    -4.146326    668.12388  0.055621368  0.056271095            3 
 1002000   0.84017519   -4.1884741    668.66664  0.055610998  0.056242834            6 
 1003000   0.86333051   -4.1771076    668.41904  0.055534981  0.056214923            4 
 1004000   0.84647279   -4.1997299    667.54567  0.055407177  0.056186751            6 
 1005000   0.86329366   -4.1887591    669.06782  0.055478261  0.056159104            6 
 1006000   0.86331862   -4.1861749    669.38939  0.055449751  0.056131457           11 
 1007000   0.84782385   -4.1881831    671.10877  0.055536972  0.056103665            3 
 1008000   0.85332602   -4.1935915     669.2274  0.055326339  0.056075395           12 
 1009000   0.84073191   -4.1962867    673.12014  0.055593008  0.056047688            4 
 1010000   0.84831049   -4.2049417    670.58013  0.055328394  0.056020156            2 
 1011000   0.85248081   -4.1758636    673.94926  0.055551373  0.055992476            4 
 1012000    0.8377498   -4.1747492    671.88906  0.055326833  0.055965336            3 
 1013000    0.8408129   -4.2195045    671.27712  0.055221875  0.055937643            4 
 1014000    0.8553043   -4.2181971    671.81018  0.055211225  0.055909602            3 
 1015000   0.84549315   -4.2132582    673.04517  0.055258224  0.055881959            8 
 1016000   0.84314182   -4.1826315    672.32101   0.05514444  0.055854354            4 
 1017000   0.84014534   -4.2163382    672.44172  0.055100108  0.055826491            7 
 1018000   0.84246324   -4.1833002    676.06916  0.055342924  0.055798425            3 
 1019000   0.84433518   -4.1629986    675.55091  0.055246231  0.055771027            5 
 1020000   0.84172652   -4.2268545     676.2683  0.055250678  0.055743607            3 
 1021000   0.85420032   -4.1808161    676.15049  0.055186948  0.055716333            5 
 1022000   0.86581189   -4.1845831    678.80939  0.055349755  0.055689169            3 
 1023000   0.84785221   -4.2040959    677.37194  0.055178555  0.055662057            4 
 1024000   0.84850833   -4.2135012    677.40671  0.055127499  0.055634619            5 
 1025000   0.84343655   -4.1867972    677.53078  0.055083803  0.055607194            5 
 1026000    0.8500087    -4.216611    679.17346  0.055163536  0.055580029            4 
 1027000   0.84990152   -4.2029515     677.0324  0.054936092  0.055553085            2 
 1028000   0.84652327   -4.1774042    679.93761  0.055118159   0.05552582            3 
 1029000   0.85218394   -4.2001448    679.01935  0.054990229    0.0554988            5 
 1030000    0.8587477   -4.1895597    681.44321  0.055132946  0.055471702            4 
 1031000   0.84501792   -4.2194293    679.72357  0.054940476  0.055444552            4 
 1032000   0.85933075   -4.2008758    680.94563   0.05498592  0.055417448            3 
 1033000   0.84465521   -4.2005009    681.15025  0.054949198   0.05539053            3 
 1034000   0.85274374    -4.203494     684.4072  0.055158543  0.055363957            6 
 1035000   0.83605793   -4.2038357    685.15264  0.055165269  0.055337517            4 
 1036000   0.84512121   -4.2088767    682.43962  0.054893792  0.055310963            5 
 1037000   0.85733306   -4.2223203    683.35536  0.054914445   0.05528385            5 
 1038000   0.83008879   -4.1874489    682.79315  0.054816406   0.05525714            9 
 1039000   0.85292121   -4.2251382    681.91639  0.054693326  0.055230474            2 
 1040000   0.83203367   -4.2268766    680.99397  0.054566824   0.05520326            4 
 1041000   0.82967844   -4.2348312    683.51352    0.0547161  0.055175963            4 
 1042000   0.82498526   -4.2112318    684.46088  0.054739354  0.055148691            5 
 1043000   0.82747851   -4.2296635    682.58436  0.054536941  0.055121194            4 
 1044000   0.85332469   -4.2300601    681.94778  0.054433891  0.055093114            5 
 1045000   0.85196336   -4.2463425    682.34466  0.054413449  0.055065397            7 
 1046000   0.82224207   -4.2015191    682.38908  0.054364968  0.055037344            6 
 1047000   0.83063736   -4.1861283    682.68852  0.054336876  0.055009308            6 
 1048000   0.86196577   -4.2025963     686.4548   0.05458451  0.054981258            3 
 1049000   0.84408163   -4.2147432    684.59393  0.054384646   0.05495342            3 
 1050000    0.8520821   -4.2028179    685.14302   0.05437643   0.05492575            5 
 1051000   0.83974255   -4.2120938    687.09652  0.054479584  0.054897763            3 
 1052000   0.82822775   -4.2210241    683.28425  0.054125812  0.054870039            5 
 1053000   0.83131675   -4.2258055    684.96983  0.054207805  0.054841661            5 
 1054000   0.83075264   -4.2073526    685.20156  0.054174696  0.054813252            5 
 1055000   0.85252959   -4.1907031    687.66273  0.054317751  0.054785244            6 
 1056000   0.82809751   -4.2001374    687.84937  0.054281043  0.054757165            2 
 1057000   0.84226012   -4.2235056    685.94402  0.054079472  0.054729124            4 
 1058000   0.82716539   -4.2168514    687.79377  0.054174053  0.054701013           10 
 1059000   0.83725005   -4.2317516     686.8999  0.054052557  0.054672981            2 
 1060000   0.81304377   -4.2388138     687.0853   0.05401614  0.054644958           15 
 1061000    0.8418936   -4.2058871    687.27281  0.053979957  0.054617059            4 
 1062000   0.83356058   -4.2059812    687.70898  0.053963354  0.054589329            4 
 1063000   0.83943982   -4.2245748      689.403  0.054045391  0.054561988            6 
 1064000   0.83108843   -4.2252562    688.96913  0.053960615  0.054533529            9 
 1065000   0.83378541   -4.2146743    688.15772  0.053846457  0.054505509            5 
 1066000   0.82919716   -4.2499575    683.88467  0.053461904  0.054477235           10 
 1067000   0.82232164   -4.2046319    690.27367  0.053910783  0.054448565            2 
 1068000    0.8262295    -4.228179    689.72976  0.053817866  0.054420488            4 
 1069000   0.81622312   -4.2243703    691.45831  0.053902269  0.054392379            3 
 1070000   0.85266202   -4.2215212    688.95157  0.053656664  0.054364018            6 
 1071000   0.82011802   -4.2339775    689.06727  0.053615567  0.054335702            4 
 1072000    0.8146571   -4.2267782    690.10959  0.053646579   0.05430708            6 
 1073000     0.827562    -4.244587    688.16497  0.053445555  0.054278688            3 
 1074000   0.82150355   -4.2515193    689.06573  0.053465683  0.054249766            5 
 1075000   0.83026552   -4.2398984     692.1372  0.053654046  0.054221278            5 
 1076000    0.8243952   -4.2190032    692.19031  0.053608296  0.054192984            5 
 1077000    0.8198265   -4.2280805    691.19996  0.053481891  0.054164704            7 
 1078000   0.82156357   -4.2372497     691.9405  0.053489525  0.054136449            6 
 1079000    0.8596215   -4.2389105    691.20249  0.053382954   0.05410798            4 
 1080000   0.81363666   -4.2410691    691.60781    0.0533648  0.054079548            4 
 1081000   0.81361494    -4.231213    692.85398    0.0534115  0.054051107            5 
 1082000   0.82551267   -4.2476539    691.53961  0.053260906   0.05402243            3 
 1083000    0.8224005   -4.2436165    692.21013  0.053263322   0.05399391            4 
 1084000   0.81957131   -4.2294915    694.97203  0.053426509  0.053965431            3 
 1085000   0.81094228   -4.2445789    691.32777  0.053097371  0.053936807            5 
 1086000   0.82333546    -4.243223    693.73266  0.053233016  0.053908153            6 
 1087000   0.81673696   -4.2428109    693.93328  0.053199424  0.053879876            3 
 1088000   0.83444661    -4.258979    692.98115    0.0530776  0.053851392            3 
 1089000   0.82426161   -4.2498909    696.06289  0.053264684  0.053822662            3 
 1090000   0.81403864   -4.2265728    696.23495  0.053228972  0.053794418            2 
 1091000   0.80442278   -4.2528167    696.21281  0.053178492  0.053766104            8 
 1092000   0.81313493   -4.2447583    696.98681  0.053188859  0.053738153            5 
 1093000   0.81741677   -4.2728752    698.26472  0.053237627  0.053710194            4 
 1094000   0.80797341   -4.2727164    697.72647  0.053147964  0.053682018            9 
 1095000   0.82789886   -4.2572758     698.1272  0.053129924  0.053653851            6 
 1096000   0.80946777   -4.2525084    695.51114  0.052882538  0.053625343            5 
 1097000   0.79740034   -4.2475523    698.00902  0.053024082  0.053596995            3 
 1098000    0.8048736   -4.2421891    698.95454  0.053047551  0.053568552            3 
 1099000   0.81538447   -4.2514997    698.75249  0.052983962  0.053540248            7 
 1100000   0.82935576   -4.2587195    696.91502  0.052796592  0.053511816            5 
 1101000   0.81517326   -4.2185275    698.62179  0.052877823   0.05348328            4 
 1102000    0.8294276   -4.2340037    698.71443  0.052836845  0.053455028            5 
 1103000    0.8229211   -4.2439209    697.74907  0.052716007  0.053426752            3 
 1104000   0.83515746   -4.2532506    697.36023  0.052638906  0.053398452            2 
 1105000   0.81129202    -4.234405    699.23962  0.052733003  0.053369974            5 
 1106000   0.81942538   -4.2610292    702.86317  0.052958346  0.053341718            3 
 1107000   0.81583226   -4.2738718    698.58679  0.052588587  0.053312934            3 
 1108000   0.81413152   -4.2595027     700.1064  0.052655415  0.053284365            6 
 1109000    0.8040937   -4.2648997    701.19949  0.052690073  0.053256099            3 
 1110000   0.81595218   -4.2447719    699.08289    0.0524837  0.053227819            5 
 1111000   0.79907455   -4.2546094    701.93046  0.052650049  0.053199496           12 
 1112000   0.81127459   -4.2548083    701.88678  0.052599429  0.053171096            8 
 1113000   0.80795097   -4.2705425    703.24894  0.052654158  0.053142524            8 
 1114000   0.81611015   -4.2519016    701.52435  0.052477883  0.053113892            5 
 1115000   0.80688333   -4.2413675    704.54676  0.052656708  0.053085558            9 
 1116000   0.79284503   -4.2537126    703.45886   0.05252829  0.053057358            4 
 1117000   0.82321221   -4.2417786    703.96785  0.052519237  0.053029087            4 
 1118000   0.81275415   -4.2398532    704.21694  0.052490828  0.053000936            5 
 1119000    0.8102244    -4.242971     703.1378  0.052363554  0.052972779            3 
 1120000   0.80317522   -4.2702166    702.27284  0.052252443   0.05294431            5 
 1121000   0.81115424   -4.2498075    705.84778  0.052471587  0.052915808            4 
 1122000   0.79414739   -4.2412217    703.68189  0.052263955  0.052887703            3 
 1123000   0.80289259   -4.2624427    704.12927  0.052250613  0.052859386            3 
 1124000   0.79991462   -4.2805261    703.96729  0.052192118  0.052830907            8 
 1125000   0.79346535   -4.2752061    703.31169  0.052097162  0.052802314            4 
 1126000   0.80931897    -4.301235    703.93256  0.052096844  0.052773731            4 
 1127000   0.79674963   -4.2504149    708.59655  0.052395486   0.05274593            5 
 1128000   0.81934336   -4.2777345    706.40987   0.05218749  0.052717691            5 
 1129000   0.81180434   -4.2865361    705.45796  0.052071004  0.052689514            6 
 1130000   0.81167742   -4.2702175    706.77767  0.052122247  0.052661285            5 
 1131000   0.78439064    -4.289354    703.44585   0.05183067  0.052633044            4 
 1132000   0.79594438   -4.2634012     705.1575  0.051910888  0.052604692            5 
 1133000   0.79213828   -4.2605012    708.54225  0.052114022  0.052576333            7 
 1134000   0.79410449   -4.2894735    707.30202  0.051976927   0.05254827            2 
 1135000   0.79414719   -4.2806194    706.87609   0.05189986  0.052520085            5 
 1136000   0.79933242   -4.2486578    709.18391  0.052023467  0.052491776            4 
 1137000   0.80230494    -4.243891    708.70277  0.051942449  0.052463657            4 
 1138000   0.81194899   -4.2708707    708.60946  0.051889972  0.052435407            7 
 1139000   0.81330071   -4.2878302    707.70693  0.051778382  0.052406928            3 
 1140000   0.81270541    -4.255833    707.90634  0.051747539  0.052378641            5 
 1141000   0.78528509   -4.2829751    711.12672  0.051937389  0.052350601            3 
 1142000   0.80499901   -4.2606035    711.23118  0.051899532  0.052322857            5 
 1143000   0.80842768   -4.2893772    708.01859  0.051619903  0.052295092            4 
 1144000   0.78331629   -4.2690098    711.77108  0.051848126  0.052267086            4 
 1145000   0.79269923   -4.3015704    710.47465   0.05170849  0.052238928            5 
 1146000   0.80141494   -4.2650125    711.94453  0.051770254  0.052210904            4 
 1147000   0.79996548   -4.3045201    709.87457  0.051574729  0.052182875            4 
 1148000   0.78897784   -4.2995676    711.18076   0.05162462  0.052154976            5 
 1149000   0.78081684   -4.2949861     712.9991  0.051711568  0.052127116            3 
 1150000   0.79770574   -4.2825723    711.84919  0.051583275  0.052099434            4 
 1151000   0.78363145   -4.2845191    713.53214  0.051660306  0.052071638            5 
 1152000   0.78579037   -4.3047913    711.56431  0.051473112   0.05204371           12 
 1153000    0.8081069   -4.2996484    710.48213  0.051350255   0.05201537            6 
 1154000   0.77434946   -4.3191935    713.06877  0.051492545  0.051987224            4 
 1155000   0.79209147   -4.2948833    712.21846  0.051386613  0.051959118            4 
 1156000    0.7943796   -4.3178395    713.19489   0.05141255  0.051930901            4 
 1157000   0.78617733   -4.2629525    714.02347  0.051427792  0.051902652            5 
 1158000   0.79713427   -4.2674928    712.85653  0.051299405  0.051874398            8 
 1159000   0.77939159   -4.2952846    712.46319  0.051226861  0.051846235            7 
 1160000   0.78030984   -4.2918439    712.74226  0.051202749  0.051818025            5 
 1161000   0.79204748   -4.2816294    714.66003  0.051296298   0.05179011            7 
 1162000   0.79732308    -4.290449    714.93041  0.051271544  0.051762354            3 
 1163000   0.80047713   -4.3040814    715.57006  0.051273292  0.051734694            7 
 1164000   0.78507121   -4.3065537    714.92206  0.051182851  0.051706648            5 
 1165000   0.78003883   -4.3053519    715.18345  0.051157614   0.05167875            3 
 1166000   0.79412938   -4.2824196    715.39494  0.051128855     0.051651            3 
 1167000   0.80210341   -4.2974365    715.05091  0.051060477  0.051623046            8 
 1168000   0.77268103   -4.3036549    715.74608  0.051066358  0.051595043            7 
 1169000   0.78936004   -4.2996621     716.1871  0.051054113  0.051567204            4 
 1170000   0.80201214    -4.327059    715.26654   0.05094491  0.051539368            7 
 1171000   0.78578539   -4.2870103    716.54648  0.050992491  0.051511318            5 
 1172000   0.78771091   -4.2907593    715.99552  0.050909806  0.051483483           14 
 1173000   0.78335758   -4.2978602    718.37748  0.051035627  0.051455678            6 
 1174000   0.78680416   -4.2969693     718.0824   0.05097121  0.051427793            5 
 1175000   0.77803411   -4.2884639    718.50193  0.050957584  0.051399547            5 
 1176000   0.78882534   -4.3217371    714.39311  0.050623095  0.051370961            4 
 1177000    0.7826707   -4.3229235    717.53333  0.050802416  0.051342472            5 
 1178000   0.77915669   -4.3233797     718.3838  0.050819454  0.051313913           10 
 1179000   0.78673422   -4.3009346    718.50548   0.05078495   0.05128582            9 
 1180000   0.80477356   -4.3085227    719.64861  0.050822642  0.051257718            6 
 1181000   0.78626441   -4.3205893    717.38279  0.050619728  0.051229435            7 
 1182000   0.76173924   -4.3016215    719.07909  0.050696496  0.051201423           11 
 1183000   0.75115877   -4.3168256    720.63621  0.050763328  0.051173304            6 
 1184000   0.77484432   -4.3116769    717.69779   0.05051364  0.051145363            4 
 1185000   0.77312759   -4.3082271    719.32565  0.050585489  0.051117196            6 
 1186000   0.77361687   -4.3156558    719.79776  0.050576009  0.051089029            4 
 1187000   0.78178223   -4.3343044     720.0026  0.050547781   0.05106116            5 
 1188000   0.79596021   -4.3241789    719.37493  0.050461204  0.051033155            4 
 1189000   0.76530094   -4.3030271    721.36721  0.050558397  0.051005057            4 
 1190000   0.78551866   -4.3011426    720.73689  0.050471771  0.050977115            4 
 1191000   0.76920507    -4.316139    720.67654  0.050425171  0.050948878           17 
 1192000   0.76876165   -4.3381649    720.05943  0.050339725  0.050920668           11 
 1193000   0.78281462   -4.3265489    721.63382  0.050407503  0.050892581            8 
 1194000   0.77641972   -4.3154588    721.48155  0.050354659  0.050864554            6 
 1195000   0.76624783   -4.3190907    719.46226  0.050171706    0.0508364            3 
 1196000   0.78550643   -4.3257241    722.51352  0.050342358  0.050808403            4 
 1197000   0.76625834   -4.3468538    720.56755  0.050164825  0.050780196            5 
 1198000   0.79223436   -4.3107177    721.32277  0.050175485   0.05075188            7 
 1199000   0.77604367   -4.3171797    723.37598   0.05027634  0.050723518            6 
 1200000   0.77852026   -4.3288896    723.38942  0.050235376  0.050695462            5 
 1201000    0.7597339   -4.3327535    722.59517  0.050138438  0.050667181           13 
 1202000   0.76338967   -4.3349474    722.05298  0.050059136  0.050639012           14 
 1203000   0.76196765   -4.3270448    722.88695  0.050075294  0.050610823            6 
 1204000     0.765346   -4.3153588    722.67377  0.050018949  0.050582525            5 
 1205000   0.77782295   -4.3060172    725.94044   0.05020335  0.050554493            7 
 1206000   0.76826351   -4.3131506    725.07525  0.050101938  0.050526309            3 
 1207000   0.76392016    -4.331682    724.45354  0.050017505  0.050498266            7 
 1208000   0.76698386   -4.3088059    725.30704  0.050034978  0.050470096            3 
 1209000   0.76803798   -4.3517514    725.88681  0.050033554  0.050441941            8 
 1210000   0.77240684   -4.3055978    726.97244  0.050066973  0.050414269            4 
 1211000   0.75506072   -4.3322895    725.14371  0.049899787  0.050386472            3 
 1212000   0.75751668    -4.310365    726.57169  0.049956799  0.050358639            6 
 1213000   0.76821195   -4.2993908    727.88799  0.050006045  0.050330869            5 
 1214000   0.74514144   -4.3388074    725.86097  0.049825712  0.050303037            6 
 1215000   0.75436414   -4.3486911    725.00232  0.049725811  0.050275078            4 
 1216000   0.78697893   -4.3094936     726.0665  0.049757847  0.050247076            4 
 1217000   0.75792177   -4.3251122    731.09914  0.050061568  0.050219491            4 
 1218000   0.76809307   -4.3134366    727.33678  0.049763053   0.05019202            5 
 1219000   0.76132524    -4.330341    727.76181  0.049751286  0.050164532            5 
 1220000   0.76105189   -4.3219228    729.81221  0.049850561  0.050137053            7 
 1221000   0.77942555   -4.3632628    727.18998  0.049630766  0.050109283            8 
 1222000    0.7730679    -4.343918    726.05424  0.049512701  0.050081149            4 
 1223000   0.77047531   -4.3605767    727.55798  0.049574678  0.050053487            5 
 1224000   0.77209574   -4.3269044    728.76881  0.049616613  0.050025687            6 
 1225000    0.7626586   -4.3262343    729.54747   0.04962908  0.049998031            9 
 1226000   0.77600975   -4.3492087     726.9148  0.049409652  0.049969976            5 
 1227000   0.74709358   -4.3437645    728.28439    0.0494624  0.049942337            3 
 1228000    0.7523181   -4.3321474    731.59892  0.049647049   0.04991502            3 
 1229000   0.75065436   -4.3463681    728.94022  0.049426378   0.04988771            5 
 1230000   0.76073163   -4.3680843    729.97269  0.049456144  0.049859836            3 
 1231000   0.75903283    -4.346587    728.80798  0.049337123  0.049832109            7 
 1232000   0.75472181   -4.3292324    731.59447  0.049485557   0.04980445           10 
 1233000   0.77580951   -4.3560368    729.98854  0.049336885  0.049777117            5 
 1234000   0.75933142    -4.376345    729.23909  0.049246292  0.049749062            6 
 1235000   0.76579915   -4.3599654    729.64999  0.049234142  0.049720944            8 
 1236000   0.74897335   -4.3511242    730.33345  0.049240389  0.049693183            5 
 1237000   0.77593877   -4.3602275     729.7158  0.049158973  0.049665795            3 
 1238000   0.76494325    -4.349334    730.51204  0.049172862  0.049637682            7 
 1239000   0.75117013   -4.3366873    730.49746  0.049132194  0.049609651            9 
 1240000   0.76297453   -4.3347406    732.11621  0.049201358  0.049581604            6 
 1241000   0.75840109   -4.3928861    730.54233  0.049056025  0.049553855            5 
 1242000    0.7644578   -4.3437502    731.92714  0.049109443  0.049526054            5 
 1243000   0.78297941   -4.3732239    732.94542  0.049138202  0.049498273            7 
 1244000   0.76720615   -4.3545991    732.54315  0.049071754   0.04947072            4 
 1245000   0.75141183   -4.3822334    733.18579  0.049075354  0.049443174           10 
 1246000   0.76073308   -4.3495759    732.49276  0.048989617  0.049415441            4 
 1247000    0.7473554   -4.3546836    734.99548  0.049117581  0.049387775            5 
 1248000    0.7520892   -4.3708165    732.90614  0.048938712  0.049359956            3 
 1249000   0.75476504   -4.3707928    733.40547  0.048932844  0.049332078            5 
 1250000   0.75967538    -4.351637    734.50038  0.048966692  0.049304524            6 
 1251000   0.74993161   -4.3567184    733.67633  0.048872657  0.049276976            6 
 1252000   0.75985797    -4.361911    733.75571  0.048838905  0.049249214            6 
 1253000   0.76440862   -4.3806021    734.68026  0.048861417  0.049221211            6 
 1254000   0.74723517   -4.3438446     733.4245  0.048739002  0.049193611            4 
 1255000   0.75340206   -4.3758242    735.28578  0.048823757  0.049165668            3 
 1256000   0.74577719   -4.3815675    733.85452  0.048689923  0.049137786            4 
 1257000   0.76991063   -4.3810599    734.50342  0.048694207  0.049109938            7 
 1258000   0.75483673   -4.3567011    733.82604  0.048610628  0.049082102            6 
 1259000   0.76310154   -4.3689594    735.51848  0.048684041  0.049054106            8 
 1260000   0.74602079   -4.3763399    734.40182  0.048571549  0.049026065            3 
 1261000   0.75642763   -4.3720437    735.19953  0.048585748  0.048997932            5 
 1262000   0.73442182   -4.3618934    734.93109  0.048529523  0.048969811            6 
 1263000   0.73046356   -4.3618246      734.976  0.048494062  0.048941752            4 
 1264000    0.7487569   -4.4080745    733.10704  0.048332479  0.048913562            3 
 1265000   0.75599693   -4.3586466    734.71711  0.048400337  0.048885263            3 
 1266000   0.74024788   -4.3804704    735.12858   0.04838919  0.048857406            7 
 1267000   0.73614818    -4.358415    735.39164    0.0483683  0.048829517            5 
 1268000   0.75855272   -4.3911615    734.89959  0.048297818  0.048801637            4 
 1269000   0.73814353   -4.3743187    735.33885  0.048288603  0.048773436            4 
 1270000   0.73805324    -4.381707    734.66035   0.04820606  0.048745184            5 
 1271000   0.76500078   -4.3748177     737.2116  0.048335405   0.04871714           11 
 1272000   0.75181848   -4.3990147    735.96574  0.048215785  0.048688967           12 
 1273000   0.74251118    -4.388811    735.03377    0.0481169  0.048660394            7 
 1274000   0.75391494   -4.3894573    736.07984  0.048147556  0.048632357            7 
 1275000   0.74347493    -4.382136     735.9883   0.04810381  0.048604136            7 
 1276000   0.75440942   -4.4162612    735.04519  0.048004519  0.048575713           16 
 1277000   0.71348409   -4.3880541    737.16548  0.048105291  0.048547679            3 
 1278000   0.73486853   -4.3863661    737.79368  0.048108613  0.048519448            4 
 1279000   0.74628384   -4.3803739    738.64368   0.04812638  0.048491419            3 
 1280000   0.74521463   -4.3693814    739.20944  0.048125615  0.048463399           12 
 1281000   0.73050673   -4.3929027    737.72666  0.047991586  0.048435563            4 
 1282000   0.73613237    -4.391002    736.83769  0.047896366  0.048407523            4 
 1283000   0.74715381    -4.388672    737.58852  0.047907802   0.04837958            7 
 1284000    0.7522683   -4.3933213    739.03756  0.047964536   0.04835152            5 
 1285000    0.7439247   -4.3842222    740.62423  0.048030106   0.04832383            4 
 1286000   0.71840432   -4.4001183     737.0555  0.047761502  0.048295876            4 
 1287000   0.74696674   -4.3987203    737.94298  0.047781856  0.048267999           12 
 1288000   0.73670097   -4.3638987    742.05671  0.048010916  0.048240393            6 
 1289000     0.748663   -4.3958042    737.68056  0.047690752  0.048212698            9 
 1290000   0.73693828   -4.4083377    742.23873  0.047948239  0.048184868            3 
 1291000   0.74846258    -4.383461    740.88751  0.047823877  0.048157247            7 
 1292000   0.73498133   -4.4183114    739.97167  0.047727791  0.048129651            5 
 1293000   0.74126906   -4.3979583    741.75285  0.047805675  0.048101983            3 
 1294000   0.73980197   -4.3863859     739.9936  0.047655436  0.048074521            3 
 1295000    0.7368025    -4.413143    741.99047  0.047747134  0.048046909            7 
 1296000   0.75001679   -4.4218689    740.13466  0.047590963  0.048019403           11 
 1297000   0.73304378   -4.3725839    742.28276  0.047692287  0.047992018            4 
 1298000   0.73550194   -4.4175724    742.31825  0.047657823  0.047964444            6 
 1299000   0.73520681   -4.3974997    740.31373  0.047492541  0.047936884            8 
 1300000   0.72399948   -4.3877998    741.83331  0.047553418  0.047909335           11 
 1301000   0.73427163   -4.4143176    740.67929  0.047442947  0.047881914            5 
 1302000   0.72593847   -4.4219068     742.6993  0.047535797  0.047854413            6 
 1303000   0.73131705   -4.3761941    745.23794  0.047661674  0.047827084            5 
 1304000   0.71017798   -4.4308382    740.03461    0.0472926  0.047799423           12 
 1305000   0.72134079   -4.4203122    742.62356  0.047421683  0.047771589            8 
 1306000   0.74360728   -4.4114943    739.86807   0.04720955  0.047743768            8 
 1307000   0.74442041   -4.4079016    742.96813  0.047371087  0.047715873            6 
 1308000   0.73686832    -4.402102    742.23501  0.047288163  0.047688087            5 
 1309000   0.73820445    -4.383922    743.29814  0.047319719  0.047660373            4 
 1310000   0.73324812   -4.3701294    744.95696   0.04738912  0.047632766            7 
 1311000    0.7486074   -4.4026264    742.77503  0.047214279  0.047605017            5 
 1312000   0.72824461   -4.4031608     742.5161  0.047161846  0.047577153            5 
 1313000   0.72256825   -4.4151117    740.34346  0.046988033   0.04754897            5 
 1314000   0.73374589   -4.4107228    743.46502  0.047150242  0.047521039            3 
 1315000   0.73160499   -4.4369779    741.50463  0.046990154  0.047493216            4 
 1316000   0.72837581   -4.4044885    743.83421  0.047101964  0.047465247            9 
 1317000   0.71986391   -4.4084088    741.74711  0.046934138  0.047437464            9 
 1318000   0.72745521   -4.4097474    743.59835  0.047015576  0.047409617            8 
 1319000   0.73224805    -4.412457    745.09699  0.047074614  0.047381896            3 
 1320000   0.72672404   -4.3981264     745.2614  0.047049331  0.047354221            6 
 1321000   0.72780897   -4.3984617    743.61613  0.046909925  0.047326469            8 
 1322000   0.73715309   -4.3895403    746.91921  0.047082653    0.0472991            7 
 1323000   0.72107373   -4.4178261    745.03949  0.046928665  0.047271857            4 
 1324000   0.73244741   -4.4010148    747.64537  0.047057236  0.047244159            5 
 1325000   0.73445008   -4.4006488    746.70882  0.046962819   0.04721663            3 
 1326000   0.71307681   -4.4042198    744.18862  0.046769019  0.047189028            6 
 1327000   0.71728574   -4.4449852     744.7833  0.046771119   0.04716146            7 
 1328000   0.71404725   -4.4162759    747.70473  0.046919223  0.047133927            8 
 1329000   0.73205766   -4.4260997    747.24415  0.046855038  0.047106481            4 
 1330000   0.72615257   -4.4221776    745.16136  0.046689308  0.047078942            4 
 1331000   0.70801897   -4.4283876    747.25808  0.046785505  0.047051562            4 
 1332000   0.73231275   -4.4542475    747.65815   0.04677541  0.047023944            9 
 1333000   0.70984264   -4.4023937     749.3551  0.046846405  0.046996699           16 
 1334000   0.71910933   -4.4300306    745.12282  0.046546903  0.046969478            6 
 1335000   0.72006908   -4.4101016    747.67144  0.046671126  0.046942201           11 
 1336000     0.739981   -4.4333955    748.56909  0.046692184  0.046915182            5 
 1337000    0.7222394   -4.4369723    746.32397  0.046517326  0.046888011            6 
 1338000   0.70789089   -4.4258973    747.26035  0.046540879  0.046860704            7 
 1339000   0.73540657   -4.4274206    747.94372  0.046548651  0.046833433           10 
 1340000   0.71913522   -4.4411667    747.57706  0.046491111  0.046805935           10 
 1341000    0.7154203   -4.4253993     747.8342  0.046472421  0.046778596            6 
 1342000   0.72440855   -4.4405029    748.81116  0.046498458  0.046751178            5 
 1343000   0.73652224   -4.4167678    750.74912  0.046584086   0.04672404            6 
 1344000   0.71383839   -4.4098226    750.71769  0.046547476  0.046697026            5 
 1345000   0.71594327   -4.4500658    748.74912    0.0463909  0.046669801           10 
 1346000   0.70800604   -4.4287277    748.90678  0.046366195  0.046642413            8 
 1347000   0.70759062   -4.4005354    751.92344  0.046518401    0.0466153            7 
 1348000   0.70674808   -4.4294761    750.27016  0.046381686  0.046588355           10 
 1349000    0.7249329   -4.4367438    749.00617  0.046269222  0.046561206            8 
 1350000   0.71353677   -4.4327618    749.14584   0.04624357  0.046534221            8 
 1351000   0.71768525   -4.4156159    749.31489  0.046219769  0.046507057            6 
 1352000   0.69917352   -4.4228531    750.96977  0.046287585  0.046479916           10 
 1353000   0.69191733   -4.4087441    752.69302  0.046359511  0.046452618            9 
 1354000    0.7011345   -4.4525938    750.55336  0.046193585  0.046425574            8 
 1355000   0.72872305   -4.4371474     750.6239  0.046163832  0.046398343            4 
 1356000   0.72981535   -4.4358798    751.56221  0.046187451  0.046371148            8 
 1357000   0.71665143   -4.4531553    751.35738  0.046140837  0.046344053            6 
 1358000   0.70679923   -4.4489488    750.29359   0.04604158  0.046316935            7 
 1359000   0.71840263   -4.4493312    749.84797  0.045980376  0.046289663            5 
 1360000   0.72672252   -4.4455175    750.68731  0.045997997  0.046262491           10 
 1361000   0.70170102   -4.4217393    753.02168  0.046107132  0.046235314            3 
 1362000   0.71608009   -4.4433108    753.25943  0.046087826  0.046208135            5 
 1363000   0.71019002   -4.4518713    754.54208  0.046132433  0.046181205            9 
 1364000   0.71267373   -4.4349264    754.25339  0.046080974  0.046154399            5 
 1365000   0.72340057   -4.4689863    752.45654  0.045937518  0.046127463            4 
 1366000   0.70576494   -4.4365678    753.47834  0.045966224  0.046100505            6 
 1367000   0.69978158   -4.4587185    752.90159  0.045897439   0.04607339            4 
 1368000   0.70277383   -4.4344171    750.48152  0.045716467  0.046046513            8 
 1369000   0.69632884   -4.4558616    750.81968  0.045703657  0.046019428            7 
 1370000   0.70936589   -4.4745435    751.15641  0.045690779  0.045992257            7 
 1371000   0.70314347   -4.4669932    752.88983  0.045762815  0.045965242            6 
 1372000   0.71422901   -4.4323267    753.06989  0.045740397  0.045938137            4 
 1373000   0.68874991   -4.4371341    755.90921  0.045879413  0.045911122           12 
 1374000   0.71842773   -4.4424382    752.00109  0.045608994  0.045884063            5 
 1375000   0.69542815   -4.4604788    753.43313  0.045662614  0.045856954            3 
 1376000     0.706425    -4.460048    754.89289  0.045717835  0.045829832            5 
 1377000   0.71280235   -4.4571921    753.43623   0.04559648  0.045802614            3 
 1378000   0.71501174   -4.4445348    752.40344  0.045500933  0.045775407           12 
 1379000    0.7124123   -4.4569621    755.65588  0.045664484  0.045748068            7 
 1380000   0.69963249   -4.4743399    751.89126  0.045404062  0.045720825           11 
 1381000   0.70624037   -4.4445887    753.48083  0.045467103  0.045693165           13 
 1382000   0.69990889   -4.4337543    753.04332  0.045407822  0.045665857            8 
 1383000    0.7098002   -4.4703408    751.84912  0.045303032  0.045638359           16 
 1384000   0.69379739   -4.4606589    753.79287  0.045387336  0.045610797            9 
 1385000   0.69314689   -4.4661559    753.83422  0.045357053  0.045583216            4 
 1386000   0.70359596   -4.4463188     753.1636  0.045284007  0.045555859            9 
 1387000   0.69093302   -4.4741886    752.25952  0.045197039  0.045528567            5 
 1388000   0.68693819   -4.4752132    754.41775  0.045294053  0.045501214            4 
 1389000   0.69286788   -4.4742069    753.98883  0.045235711  0.045474068           14 
 1390000   0.68550025    -4.461283    757.22683  0.045397292  0.045446991            9 
 1391000   0.69494784   -4.4708953    755.74126  0.045275656  0.045419782            5 
 1392000   0.69310711   -4.4496611    755.67344  0.045239071  0.045392492            8 
 1393000   0.70047732   -4.4783183    756.00027  0.045226147   0.04536519            8 
 1394000    0.6847861   -4.4597603    755.32562  0.045153373  0.045338055            5 
 1395000   0.69452927   -4.4504666     757.3984  0.045244827  0.045311015            6 
 1396000   0.68779186   -4.4682436    756.40944  0.045153381  0.045283706            4 
 1397000   0.70089908   -4.4663434    753.64032  0.044955877  0.045256588            3 
 1398000   0.68904105   -4.4649086     758.1013  0.045189634  0.045229246            6 
 1399000   0.69054029   -4.4690138    755.74943   0.04501724   0.04520211            5 
 1400000   0.68840269   -4.4821448    755.42461   0.04496575  0.045175011            5 
 1401000   0.70192455   -4.4980761    753.96179  0.044846644  0.045147699            9 
 1402000   0.70052976   -4.4776329    755.51908  0.044907221  0.045120475            5 
 1403000   0.67827658   -4.4676358    758.23472  0.045036512  0.045093331            7 
 1404000   0.68510794   -4.4579861    756.82828  0.044920957  0.045066257            4 
 1405000   0.68348323   -4.5058277     754.2498   0.04473605  0.045038936            7 
 1406000   0.68358405   -4.4914285    754.90217  0.044742898  0.045011904            9 
 1407000   0.68694171   -4.4952427     756.0461   0.04477885  0.044985007           10 
 1408000   0.70819316   -4.4770133    756.17285  0.044754549  0.044957896           15 
 1409000   0.69064641    -4.487595    758.26168  0.044846326  0.044930987            8 
 1410000   0.69306754   -4.4864748    759.40699   0.04488221  0.044903948           13 
 1411000   0.70251211   -4.4707261    757.74099  0.044752007  0.044876987           12 
 1412000   0.68659511   -4.4519661    759.06356  0.044798368  0.044850138            7 
 1413000   0.68706335   -4.4604508    759.12834  0.044770484  0.044823539            6 
 1414000   0.68752934    -4.496197    755.92884  0.044550262  0.044796668            5 
 1415000   0.68100683   -4.4750831    759.25193  0.044714484  0.044769956            4 
 1416000   0.70839862   -4.4832872     758.2934  0.044626495   0.04474323            5 
 1417000   0.67831481   -4.4650465    758.14499  0.044586273  0.044716602            8 
 1418000   0.68364564   -4.4823952    759.68369  0.044645257  0.044689906            5 
 1419000   0.67172049   -4.4902391    758.55529  0.044547527  0.044663421           15 
 1420000   0.68816903   -4.4713542     760.8952  0.044653474   0.04463684            3 
 1421000   0.68223418   -4.5110059    758.67895   0.04449208  0.044610229            6 
 1422000   0.68263751    -4.492922    758.69551  0.044461762  0.044583667            7 
 1423000    0.6945849   -4.5048147    760.54668  0.044538925  0.044557126           11 
 1424000   0.69466392   -4.4924141    759.78046  0.044462808  0.044530806            6 
 1425000   0.68283787   -4.4895159    760.54381  0.044476246  0.044504348           10 
 1426000   0.68985748   -4.5019679    761.71685  0.044513607  0.044478034            8 
 1427000   0.69904831   -4.4940363    760.45188  0.044408543  0.044451698            4 
 1428000   0.70537666   -4.4787316    761.29579  0.044426692  0.044425326           12 
 1429000   0.67568993   -4.4748254    758.97286  0.044260139  0.044399008            6 
 1430000   0.68326402   -4.4916945    760.31438  0.044307365  0.044372846           19 
 1431000   0.68545494   -4.4969356    758.73045  0.044184163  0.044346401           11 
 1432000   0.67148672   -4.4950559    761.41167  0.044309338  0.044320031            9 
 1433000   0.68030532   -4.4735697    762.33954  0.044332376  0.044293736            4 
 1434000   0.68141909    -4.507328    761.86134  0.044273672  0.044267311           10 
 1435000   0.68012306   -4.5265627    759.68528   0.04411645  0.044240799           10 
 1436000   0.69495582   -4.5010968    761.32406   0.04418083  0.044214492            8 
 1437000   0.67398551    -4.515982    760.12381  0.044080481  0.044187993            9 
 1438000   0.68697634   -4.4954071    761.44328  0.044126291  0.044161677            8 
 1439000   0.68669356   -4.4875131    761.09058  0.044075202  0.044135318           10 
 1440000   0.67138675   -4.5027957    762.62321  0.044133288  0.044108936            7 
 1441000   0.68698932   -4.4938939    761.15645  0.044017837  0.044082666            6 
 1442000   0.66828971   -4.5045932    762.99104  0.044093333  0.044056274            6 
 1443000   0.66473597   -4.5158091    762.36755   0.04402677  0.044030054           13 
 1444000   0.68049558   -4.5226553    762.41051   0.04399876  0.044003719            7 
 1445000   0.67814324   -4.5270699    762.32693  0.043963491  0.043977264            6 
 1446000   0.67501579   -4.4848132    764.46236  0.044056153   0.04395107            4 
 1447000   0.66860401   -4.5115253    763.12144  0.043948482  0.043924896            9 
 1448000   0.66998613   -4.4946773    763.42542  0.043935625  0.043898584            8 
 1449000   0.66612868   -4.5112173    762.04648  0.043825999  0.043872345            4 
 1450000   0.67166834   -4.4990476    763.56254  0.043882904  0.043846202            9 
 1451000   0.67205893   -4.5183693    762.91025  0.043815199  0.043819907            6 
 1452000   0.68712229   -4.5175315    762.69095  0.043772438  0.043793664            4 
 1453000   0.68373915   -4.5436956    761.22804   0.04365841  0.043767141            9 
 1454000   0.67702063    -4.520288    766.52485  0.043931961  0.043740738            8 
 1455000   0.66802357   -4.5249812    759.80379  0.043516827  0.043714413            8 
 1456000   0.66894197   -4.5136114    761.52732  0.043585584  0.043687926            9 
 1457000   0.67325031   -4.5291215    762.75957  0.043626148  0.043661497           10 
 1458000   0.65962555   -4.5322304    762.34796    0.0435727  0.043635056            9 
 1459000   0.67077227   -4.5247041     764.3855  0.043659213   0.04360867            8 
 1460000   0.67449317   -4.5187515    765.05901  0.043667752  0.043582345            6 
 1461000   0.67608613    -4.534397    764.21224  0.043589564  0.043556192            5 
 1462000   0.65982634   -4.5150991    763.08717  0.043495621  0.043529916           11 
 1463000   0.66270852   -4.5078847    765.88328  0.043625158  0.043503902            9 
 1464000   0.66918491   -4.5188272    766.70919  0.043642372  0.043477989            6 
 1465000   0.68108992    -4.509003    766.37252  0.043593431  0.043452186            7 
 1466000   0.67135369   -4.5290626     765.1067  0.043491741   0.04342643            5 
 1467000    0.6624466   -4.5037377    768.86886  0.043675804  0.043400468           13 
 1468000   0.67445405   -4.5449819    766.47806  0.043510335  0.043374583            7 
 1469000   0.65370757   -4.5114698     765.3954  0.043419299  0.043348583            2 
 1470000     0.672872   -4.5202435    765.98917  0.043423422  0.043322628            8 
 1471000    0.6686193   -4.5401484    766.30384  0.043411729  0.043296959            9 
 1472000   0.65194695   -4.5369036    765.11265  0.043314801  0.043271084           11 
 1473000   0.67509523   -4.5233745    768.29484  0.043465425  0.043245133            6 
 1474000   0.66383249   -4.5455687    765.07407  0.043253848  0.043219451            5 
 1475000    0.6664243   -4.5387414    765.28609  0.043236502  0.043193521            5 
 1476000   0.66562524   -4.5401286    767.49303   0.04333181  0.043167755            7 
 1477000   0.65876916   -4.5249308    766.00565  0.043218554   0.04314201            6 
 1478000   0.67082224   -4.5316801    767.40259  0.043268076  0.043116126            4 
 1479000   0.67683191   -4.5272186    767.53387  0.043246218  0.043090391            6 
 1480000   0.67519985   -4.5042665    766.97697   0.04318564  0.043064776            8 
 1481000   0.68080083   -4.5448646    768.97318  0.043268804  0.043039201           11 
 1482000   0.66849298   -4.5686033    766.33766  0.043091411  0.043013372           12 
 1483000   0.65908622   -4.5447506    766.25506  0.043057713  0.042987552           16 
 1484000   0.67132735   -4.5395061     767.6593  0.043107553  0.042961879           12 
 1485000   0.64829114   -4.5454463    767.59588  0.043074965    0.0429362            6 
 1486000   0.65917804   -4.5608284    768.04481  0.043071154  0.042910475           13 
 1487000   0.66068338   -4.5575824     769.3057   0.04311285  0.042884923            6 
 1488000   0.66277062    -4.552538    767.02276  0.042956024  0.042859242           10 
 1489000   0.65904102   -4.5427326    769.99927  0.043093758  0.042833625           14 
 1490000   0.67462181   -4.5321748    768.52795  0.042982548  0.042808152           17 
 1491000   0.65534414   -4.5553157    768.20434  0.042935633  0.042782631           13 
 1492000   0.67268681   -4.5635341    768.22046  0.042907756  0.042757153            8 
 1493000   0.66532133   -4.5400901    770.06812  0.042982146  0.042731583            9 
 1494000   0.66269317   -4.5390984    768.45514  0.042863406   0.04270609            8 
 1495000   0.65912429   -4.5591522    768.77838  0.042852752  0.042680559           18 
 1496000   0.65092328   -4.5499016    768.55343  0.042811577  0.042654876            8 
 1497000   0.65637055   -4.5422579    769.40144  0.042830185  0.042629326           13 
 1498000   0.65010336   -4.5553739    772.45536  0.042971482  0.042603811           18 
 1499000   0.64569212   -4.5201938    772.25505  0.042931679  0.042578354            4 
 1500000   0.64610992   -4.5423767    770.20464  0.042789146  0.042552987            7 
 1501000   0.65475493   -4.5663342    769.38769  0.042715284  0.042527603            9 
 1502000   0.65096334   -4.5470971    768.12502   0.04261679  0.042501983           10 
 1503000   0.65429537   -4.5716004    770.24979  0.042706242  0.042476353           13 
 1504000   0.65667958   -4.5495401    769.62771   0.04264338  0.042450676            6 
 1505000   0.65446128   -4.5389301    772.57982  0.042778506  0.042425285           28 
 1506000   0.64198788   -4.5720134    769.62885  0.042586811  0.042399943            5 
 1507000   0.65494308   -4.5340184    771.46506   0.04266009  0.042374551           11 
 1508000   0.65594871   -4.5616818     769.4293  0.042519303   0.04234919           20 
 1509000    0.6556076     -4.56855    769.59748  0.042500413  0.042323553            7 
 1510000   0.63195669   -4.5674898     770.1761    0.0425042  0.042298056            7 
 1511000   0.64751956   -4.5598712    769.86836  0.042459098  0.042272538            7 
 1512000   0.64509709   -4.5794883    771.43125  0.042517154  0.042247223            6 
 1513000   0.65219267   -4.5657731    771.94375  0.042517281  0.042221739           12 
 1514000   0.63908655   -4.5471993    769.97721  0.042380956  0.042196222            6 
 1515000   0.63819481   -4.5606939    770.71542  0.042393587  0.042170699           12 
 1516000   0.64250534   -4.5825795    769.34209  0.042290133  0.042145243            4 
 1517000   0.63916088   -4.5845588    772.18134  0.042418223   0.04212007           11 
 1518000   0.65619668   -4.5790017    771.40433  0.042347625  0.042094705            6 
 1519000   0.65920541   -4.5701031    771.22333  0.042309816  0.042069392           22 
 1520000   0.64247263   -4.5561588    770.59226  0.042247382  0.042044014           10 
 1521000   0.64891729   -4.5594348    770.53372  0.042216399  0.042018633           11 
 1522000   0.64797842   -4.5922537    769.86926  0.042152281  0.041993313            6 
 1523000   0.64551341   -4.5919832    770.36605  0.042151787  0.041968028            8 
 1524000   0.64630888   -4.5709987    770.62351  0.042138206  0.041942546            6 
 1525000   0.63499857   -4.5850323    771.53629  0.042160453  0.041917171           11 
 1526000   0.65620842   -4.5692769    773.31549  0.042229985  0.041891903           11 
 1527000   0.64513273    -4.565459    773.92077  0.042235362  0.041866649           10 
 1528000   0.63938437    -4.578885    771.65196  0.042083986  0.041841416            7 
 1529000   0.64234993   -4.5987503    770.57627  0.041997834  0.041816127            7 
 1530000   0.63205882   -4.5823571    771.83593  0.042038994  0.041790804            4 
 1531000   0.64520967   -4.5652952    771.89138  0.042014554  0.041765624            5 
 1532000   0.64888465   -4.5849768    771.87511  0.041986244   0.04174026            5 
 1533000   0.64337405   -4.5955426    771.10207  0.041916833  0.041714983            6 
 1534000   0.63985212   -4.5916814    772.60303  0.041971047  0.041689585            6 
 1535000   0.63315146   -4.5693438    770.82398  0.041847122  0.041664288            7 
 1536000   0.62652254   -4.5920517    771.41205  0.041851782  0.041638971            9 
 1537000   0.64703405   -4.5907169    771.31842  0.041819476   0.04161357           16 
 1538000   0.63055737    -4.593728    772.94472  0.041880403  0.041588175           12 
 1539000   0.62461211   -4.5783951    773.91434  0.041905693  0.041562863            7 
 1540000   0.63287087   -4.5831627    772.09764  0.041780175  0.041537373           10 
 1541000   0.63906678   -4.6000833    771.71241  0.041732231  0.041511917            8 
 1542000   0.63633907   -4.5758513    773.09394  0.041779828  0.041486513            8 
 1543000   0.63568625   -4.5873708    770.59624  0.041617857  0.041461131            5 
 1544000   0.63645425   -4.5861888     773.4229  0.041743464  0.041435687            5 
 1545000   0.64398133   -4.6148895    769.99586    0.0415316  0.041410068            6 
 1546000   0.64217421   -4.6038104    769.90929   0.04150007  0.041384476           15 
 1547000   0.64558126   -4.5890182     772.7945  0.041628663  0.041358889           13 
 1548000   0.64311668   -4.5873386     773.0075  0.041613238  0.041333488            7 
 1549000   0.65013401   -4.5976146    772.65971  0.041567663  0.041308063            5 
 1550000   0.65269447   -4.5913108    773.04304  0.041561454  0.041282626            4 
 1551000   0.64658831   -4.5906112    771.05371  0.041427773  0.041257303            8 
 1552000   0.61772499   -4.6073134    771.82133  0.041442297  0.041231726            9 
 1553000   0.64023058   -4.5712297    772.44351  0.041448997  0.041206216            6 
 1554000   0.63396429   -4.5698977    774.75949  0.041546519  0.041180968            6 
 1555000   0.62538896   -4.5832455    773.76737  0.041466633  0.041155743           11 
 1556000   0.64682115   -4.5879068    772.26815  0.041359691  0.041130409           11 
 1557000   0.63109685   -4.5945849    773.06857  0.041375967  0.041104967            7 
 1558000   0.61757769    -4.593286    772.11014  0.041298146  0.041079413           11 
 1559000   0.63376517   -4.5984424     772.5241  0.041293783  0.041054014            9 
 1560000   0.65219319   -4.5906221    772.03064  0.041240953  0.041028565           16 
 1561000   0.65252526   -4.6103106    774.00312  0.041319833  0.041003124            7 
 1562000   0.61882251   -4.6113581    772.40684  0.041208218  0.040977593           12 
 1563000   0.61995626   -4.5945184    771.78676  0.041148793  0.040952081            8 
 1564000    0.6247659   -4.6205692     771.7676  0.041121462  0.040926405           16 
 1565000   0.62235261   -4.6033448     772.0688  0.041111225  0.040900888            8 
 1566000    0.6288498   -4.6258899    771.17938  0.041037643   0.04087541            8 
 1567000   0.63747769   -4.6222139    772.11879  0.041061412  0.040849719            5 
 1568000   0.61677824   -4.6302163    772.74742  0.041068634  0.040824256            6 
 1569000   0.62623242   -4.6059299      773.528  0.041083918  0.040798735           13 
 1570000    0.6269264   -4.6013721    774.88859  0.041129967  0.040773436            7 
 1571000   0.61977385   -4.5990807    771.07619  0.040901559  0.040748235            5 
 1572000   0.62552889   -4.6245544    773.60473  0.041009581  0.040722939            7 
 1573000   0.63361034   -4.5974214     773.7206  0.040989648  0.040697674            7 
 1574000   0.62470527   -4.6167309    772.81059  0.040915427  0.040672445            6 
 1575000   0.63083879   -4.6181764    773.40024  0.040920647  0.040647041            8 
 1576000   0.61616071   -4.6132293    773.27182  0.040887892  0.040621908            9 
 1577000   0.62335963   -4.6061719    772.38885  0.040815306  0.040596649           10 
 1578000   0.61812089   -4.5989734    775.32183   0.04094433  0.040571617           26 
 1579000   0.60842719   -4.6277019    774.89813  0.040896038  0.040546462           14 
 1580000   0.63101393   -4.6262037    774.60289  0.040854583   0.04052121           13 
 1581000   0.63560046    -4.597914    773.79096  0.040785945  0.040495945            9 
 1582000   0.61935802   -4.6159796    775.04656  0.040826304   0.04047086            5 
 1583000   0.61136089   -4.6386442    772.84475  0.040684605  0.040445755            7 
 1584000   0.63781727   -4.6253916    774.50519  0.040746275  0.040420593           10 
 1585000   0.60801691     -4.59787    775.53098    0.0407745  0.040395669            7 
 1586000   0.62155876   -4.6588696    774.74059  0.040707261  0.040370527           11 
 1587000   0.61542231   -4.6364595    772.46223  0.040561974  0.040345329            8 
 1588000   0.63578505   -4.6112072    772.47477  0.040537089  0.040320177           17 
 1589000    0.6249429    -4.622508    775.69845   0.04068064  0.040295094           12 
 1590000   0.63088811   -4.6284534    774.97307  0.040617037  0.040270062            7 
 1591000    0.6324537   -4.6372716    774.73108  0.040578833  0.040244804            7 
 1592000   0.61345142   -4.6551104    773.41019  0.040484202  0.040219641            5 
 1593000   0.61630968   -4.6110044    773.38528  0.040457485  0.040194405           11 
 1594000   0.61271561   -4.6232023    775.64073  0.040550017  0.040169436            9 
 1595000   0.62481781   -4.6259234     775.0471  0.040493579  0.040144537           11 
 1596000   0.60702001   -4.6533068    773.65722  0.040395636  0.040119407            9 
 1597000    0.6250994    -4.618342    775.61032  0.040472256  0.040094369            9 
 1598000   0.61311644    -4.641428    773.48495  0.040336094  0.040069199           24 
 1599000   0.59765131   -4.6344109    772.61684  0.040265626  0.040044174           20 
 1600000   0.61222065   -4.6331111    774.20959  0.040323416   0.04001927           10 
 1601000   0.60761745   -4.6445823    775.63374  0.040372358  0.039994358            6 
 1602000   0.61817793   -4.6236392    774.93996  0.040311067  0.039969535            7 
 1603000   0.60805093   -4.6435041    773.02831  0.040186541  0.039944616           27 
 1604000   0.61164395   -4.6382239    775.55684  0.040292853  0.039919621            8 
 1605000   0.60598312   -4.6529206     777.2932  0.040357902  0.039894735            9 
 1606000   0.59948761   -4.6553462    775.35093  0.040231991  0.039869879            6 
 1607000   0.61304101   -4.6505253     776.2392  0.040253018   0.03984501           10 
 1608000   0.60907801   -4.6215372    776.73153    0.0402535   0.03982034           10 
 1609000   0.62911622   -4.6444206    776.39127  0.040210859  0.039795683            9 
 1610000   0.62634182   -4.6411824    777.04118  0.040219523  0.039770954            8 
 1611000   0.61164709   -4.6352463    776.15214  0.040148569  0.039746242           14 
 1612000   0.60027776    -4.621705     776.3536  0.040134078  0.039721591           13 
 1613000   0.61980289   -4.6278783     776.3231   0.04010762  0.039696888            6 
 1614000   0.61427092   -4.6647432    778.07729  0.040173342  0.039672192           21 
 1615000   0.62581326   -4.6500341    774.27557    0.0399523  0.039647329            5 
 1616000    0.6158317   -4.6395936    775.64407  0.039998147  0.039622438            8 
 1617000   0.59868656   -4.6507836    773.73427  0.039874988  0.039597707           15 
 1618000   0.60410708   -4.6453361    776.23515  0.039979149  0.039572932           10 
 1619000   0.59183891   -4.6421946    777.02507  0.039995114  0.039548123           13 
 1620000   0.58611937    -4.647603    776.27132  0.039931652   0.03952327            5 
 1621000   0.61004282   -4.6762983    774.46403  0.039814108  0.039498469           12 
 1622000   0.60455202   -4.6594002    774.88754   0.03981132  0.039473643            8 
 1623000   0.61218894   -4.6447831    777.49373  0.039920606  0.039448867           35 
 1624000   0.59653436   -4.6480605    776.04968  0.039821925  0.039424105           10 
 1625000   0.61851047   -4.6703325    774.76955  0.039731772  0.039399303            9 
 1626000   0.60716891   -4.6817473    775.08481  0.039723494  0.039374414           12 
 1627000   0.61036093    -4.650079    777.17488   0.03980613  0.039349594            6 
 1628000   0.59567377   -4.6712399    775.83201  0.039712941  0.039324811            6 
 1629000   0.60314501   -4.6757434    776.16866  0.039705784  0.039299967           10 
 1630000   0.60217401   -4.6602832    775.49916  0.039647196  0.039275189            5 
 1631000   0.60867264   -4.6605155    776.07302  0.039652208  0.039250314            8 
 1632000    0.6012715   -4.6631267    774.18703  0.039531609  0.039225382            8 
 1633000   0.59782249   -4.6545041    777.72812  0.039688106  0.039200714           10 
 1634000   0.60651896   -4.6619661    777.38335  0.039646234  0.039175979            7 
 1635000    0.6088658   -4.6633676    775.90706  0.039546741  0.039151355           11 
 1636000    0.5866321   -4.6546212    777.26486  0.039591731  0.039126612           16 
 1637000   0.60069206   -4.6706084    776.00019  0.039503166  0.039101977           12 
 1638000   0.59006831   -4.6697904    774.95079  0.039425661  0.039077234           10 
 1639000   0.60484197   -4.6749046    777.39084  0.039525668  0.039052466           12 
 1640000   0.59687397   -4.6582883    775.43764  0.039402319  0.039027744           12 
 1641000   0.59663481    -4.663325    776.45674   0.03943006  0.039003059           15 
 1642000   0.58384978   -4.6725427     778.1186  0.039490388  0.038978442           10 
 1643000   0.58777158   -4.6582243    776.76878  0.039397889  0.038953762            6 
 1644000   0.59130655    -4.671045     775.2428  0.039296573   0.03892916            7 
 1645000   0.59820396   -4.6761253    776.30018   0.03932625  0.038904591           12 
 1646000   0.60182424   -4.6804199    775.18843  0.039246073  0.038879905           14 
 1647000   0.59556132   -4.6725933    775.07892  0.039216703  0.038855107           10 
 1648000   0.59750171   -4.6769909    776.80915  0.039280398   0.03883034            9 
 1649000   0.60650386   -4.6780125    775.99177  0.039215271  0.038805597           10 
 1650000   0.59907546   -4.6940014    776.14643  0.039199315  0.038780986           11 
 1651000   0.59835999    -4.673134    777.22872    0.0392302  0.038756349            9 
 1652000   0.59913082    -4.702383    777.26534    0.0392083  0.038731769            7 
 1653000   0.58830071   -4.6706487    775.45889  0.039093511   0.03870722           22 
 1654000   0.59143753   -4.6763382    776.83811  0.039139364   0.03868259           11 
 1655000   0.60345181   -4.6751674    778.00804  0.039174624  0.038658063           13 
 1656000   0.59850596   -4.7003829    775.61471  0.039030531  0.038633425           30 
 1657000   0.58727663   -4.6757861    776.33155  0.039043027  0.038608726           12 
 1658000   0.60273417   -4.6949436    778.57084  0.039132028  0.038584197           19 
 1659000   0.60348886   -4.6872796    775.58896  0.038958658  0.038559697            5 
 1660000   0.59302777   -4.6787884    778.73848  0.039093297  0.038535276           10 
 1661000   0.58433736   -4.6645481    778.51527  0.039058562  0.038510979           13 
 1662000    0.5796991   -4.6997106    777.18197   0.03896821  0.038486478            7 
 1663000   0.58981443   -4.6760062    777.97173  0.038984352  0.038462168            6 
 1664000    0.5879078    -4.679644     778.4568  0.038985216  0.038437875            5 
 1665000   0.59263985   -4.6743516    776.16349  0.038847022  0.038413513            7 
 1666000   0.59999031   -4.6741224     779.8505  0.039008128   0.03838915           11 
 1667000   0.58266009   -4.6863048    778.59863  0.038922147   0.03836476           28 
 1668000   0.59161683    -4.684179      779.161  0.038926908  0.038340419           16 
 1669000   0.58425235   -4.7027604      777.012  0.038796285  0.038316216           15 
 1670000   0.58368166   -4.6840654    778.55712  0.038850156  0.038291992           13 
 1671000   0.58803509   -4.6919614    777.39416  0.038768909  0.038267937           15 
 1672000   0.58309001   -4.7037798    778.80742  0.038816159  0.038243754           17 
 1673000   0.57310955   -4.6802127    777.74783  0.038740179  0.038219517           10 
 1674000   0.59845058   -4.7016849    779.31064  0.038794835  0.038195406            6 
 1675000   0.58477912   -4.6933283    778.94109  0.038753288  0.038171317           15 
 1676000   0.57778791   -4.6871111    778.96146  0.038731179  0.038147227           16 
 1677000   0.58569969   -4.7131412    778.71778  0.038695974  0.038123048           19 
 1678000   0.59741161   -4.7261281    777.51927  0.038613392  0.038098707           12 
 1679000   0.57420216   -4.7111961     778.6175  0.038644903  0.038074408           21 
 1680000   0.58321561   -4.6956432     778.3603  0.038609142  0.038050185           10 
 1681000   0.57301095   -4.6950234    778.67769  0.038601908  0.038026078           13 
 1682000   0.58541378   -4.6700291    779.35856  0.038612691  0.038002106            9 
 1683000    0.5856084   -4.6883052    778.50619  0.038547544  0.037978065            7 
 1684000   0.58133725   -4.7077277    779.77361  0.038587372  0.037954041           17 
 1685000   0.58590431   -4.7058845    778.86321  0.038519447  0.037930058           18 
 1686000   0.58848368   -4.6938793    778.18411  0.038463034  0.037906059           12 
 1687000   0.58181163   -4.7012795    778.75386  0.038468379   0.03788205           11 
 1688000   0.57302914   -4.7053999    779.08513  0.038461944  0.037858088           16 
 1689000   0.57039769   -4.6924698    778.70752  0.038420541  0.037834186            9 
 1690000   0.58798058   -4.6789691    780.67544  0.038494844  0.037810308            8 
 1691000   0.57338299   -4.6938717    780.17979  0.038447654  0.037786503           17 
 1692000   0.57793767   -4.6904434    781.48592  0.038489259  0.037762624           11 
 1693000   0.58630463   -4.7066318     779.8747  0.038387217  0.037738683            7 
 1694000   0.57020382   -4.7202756    781.24218  0.038431827  0.037714717            8 
 1695000   0.58487652   -4.7104216    779.21829  0.038309651  0.037690743           14 
 1696000   0.57999374   -4.7125039    780.26838  0.038338658  0.037666771           16 
 1697000   0.57815033   -4.7213504    778.56965  0.038232648  0.037642936           11 
 1698000   0.56917323   -4.7162894    778.70558  0.038216803  0.037619087           10 
 1699000   0.58320594    -4.712861    779.60782  0.038238563   0.03759531           11 
 1700000   0.56086448   -4.6846196    780.29457  0.038249734  0.037571589           11 
 1701000   0.57238015   -4.7273349     781.7096  0.038296571  0.037547821           16 
 1702000   0.59175305   -4.6965126    779.49547  0.038165661  0.037524051           24 
 1703000   0.57175629   -4.7280304     781.2369  0.038228464  0.037500434           11 
 1704000   0.58270848    -4.724589    780.09675  0.038150271   0.03747679            7 
 1705000    0.5698929   -4.6968241    778.49166  0.038049446  0.037453064            6 
 1706000   0.57117299   -4.7150153    779.48041   0.03807544  0.037429406            8 
 1707000   0.56750067   -4.7182248    781.95164  0.038173777  0.037405717            7 
 1708000   0.58402914   -4.7221194    780.08816  0.038060507  0.037381982           18 
 1709000   0.57248599   -4.7356722     780.2994  0.038048537  0.037358216           16 
 1710000   0.56261941   -4.7307565     777.9638  0.037912466  0.037334533           36 
 1711000   0.58176741   -4.7302048    779.82351  0.037980884  0.037310743           20 
 1712000   0.56657325   -4.7308906     778.5899  0.037898651  0.037286954            9 
 1713000   0.56685079   -4.7231434    779.81694   0.03793622  0.037263206           12 
 1714000   0.58124325   -4.7359333    779.39095  0.037893376  0.037239478           16 
 1715000   0.56444326   -4.7291899    779.59577  0.037881233  0.037215741           14 
 1716000    0.5650981   -4.7025274    781.82862  0.037967591  0.037192108            9 
 1717000     0.576036   -4.7271658    780.96131  0.037903383  0.037168523           12 
 1718000   0.57724141    -4.736484    779.12073  0.037792041  0.037144875           27 
 1719000   0.57867232   -4.7423487    778.70027  0.037749674  0.037121316           32 
 1720000   0.56470111   -4.7332949     779.5797  0.037770334  0.037097723           32 
 1721000   0.56240849    -4.716135     781.7087  0.037851477  0.037074226           14 
 1722000   0.56535752   -4.7494188    780.19667  0.037756324  0.037050781           20 
 1723000   0.56120179   -4.7620166    778.78654  0.037666209  0.037027213           12 
 1724000   0.57289251   -4.7513807    781.37017  0.037769247  0.037003699           10 
 1725000   0.56591258   -4.7513278    781.58044  0.037757509  0.036980249            9 
 1726000   0.56757692   -4.7357205    779.19688  0.037620552  0.036956813           14 
 1727000    0.5638102   -4.7292191    781.13572  0.037692324    0.0369334           12 
 1728000   0.57720857   -4.7540885    781.87393  0.037706112  0.036909973           11 
 1729000   0.57192058   -4.7446062    778.84102  0.037538125   0.03688646            9 
 1730000   0.56776041   -4.7533442    779.13374  0.037530527  0.036863003           13 
 1731000   0.55958169   -4.7519888    778.78763  0.037492183  0.036839504            8 
 1732000   0.56513459   -4.7551563    780.69283  0.037562203  0.036816026            6 
 1733000   0.56873581   -4.7457812    779.02786  0.037460466  0.036792497           16 
 1734000   0.54977989   -4.7517657    781.33818  0.037549893  0.036768896           27 
 1735000    0.5472876   -4.7392656    781.24152  0.037523608  0.036745394           34 
 1736000   0.56181013   -4.7363013     779.7651  0.037431121  0.036722133           15 
 1737000   0.55644587   -4.7487423     781.0546  0.037471435  0.036698854           13 
 1738000   0.54504587   -4.7379057    781.32904  0.037463034  0.036675597           16 
 1739000   0.55734152   -4.7629496    781.06381  0.037428782  0.036652255           13 
 1740000    0.5567743   -4.7386913    779.14973    0.0373156   0.03662886           11 
 1741000   0.55859292   -4.7476414    780.79522  0.037372928  0.036605584           10 
 1742000   0.56020759   -4.7351046    780.58051  0.037341203  0.036582242           18 
 1743000   0.55454446   -4.7437422    781.41375  0.037359617  0.036558912           57 
 1744000   0.55441715   -4.7639337    780.74965  0.037306462  0.036535536           35 
 1745000   0.56344774    -4.750077    780.05589  0.037251953   0.03651215           20 
 1746000   0.55759264   -4.7561865    782.07382  0.037326929  0.036488918           22 
 1747000   0.55370794   -4.7618175    780.70726  0.037240377  0.036465663           15 
 1748000   0.55662198   -4.7723938    781.64591  0.037263821  0.036442502           14 
 1749000   0.56984282   -4.7500215    781.94491  0.037256761   0.03641934           27 
 1750000   0.56402668    -4.740732    784.03544  0.037335021  0.036396277           21 
 1751000   0.55721759   -4.7664499    783.87345   0.03730599  0.036373203           12 
 1752000   0.54925031   -4.7696778     781.2869  0.037161668  0.036350134           13 
 1753000   0.55350542   -4.7571254    781.03718  0.037128597  0.036327079           11 
 1754000   0.53762601   -4.7780727    781.06929  0.037108955  0.036303991           15 
 1755000   0.55149202   -4.7710427    781.16386  0.037092301  0.036280892           11 
 1756000   0.54661516   -4.7700695    782.40004  0.037129842  0.036257782           14 
 1757000   0.55630891   -4.7689024    781.96469  0.037088061  0.036234788           16 
 1758000   0.55873872   -4.7540639    781.25193  0.037033179  0.036211753            6 
 1759000   0.55301896   -4.7829856    781.89175  0.037042436  0.036188703           25 
 1760000   0.55849214   -4.7677057    781.16524   0.03698699  0.036165588           33 
 1761000   0.55326662   -4.7833798    782.91397   0.03704874  0.036142641           16 
 1762000   0.55136132   -4.7373029    783.01424  0.037032456  0.036119718           11 
 1763000   0.54887857   -4.7639177     782.4741  0.036985919  0.036096879           32 
 1764000   0.54452853   -4.7870631    783.32786  0.037005285  0.036073883           16 
 1765000    0.5397603   -4.7689712    781.52835  0.036899355  0.036050777           11 
 1766000   0.54434833   -4.7684723     781.1503  0.036860622  0.036027734            9 
 1767000   0.55720124   -4.7903068    780.39273  0.036804034  0.036004667           12 
 1768000   0.54769166   -4.7687376     781.2004  0.036821286  0.035981634            9 
 1769000   0.53337466   -4.7691617    781.38893  0.036809352  0.035958653           18 
 1770000   0.53717552   -4.7707986    782.33884  0.036833279  0.035935783           14 
 1771000   0.54999448    -4.777033    780.65665  0.036733326  0.035912939           21 
 1772000   0.54048978   -4.7720401    780.78594  0.036718677  0.035890036           28 
 1773000   0.54819817   -4.7799287    781.69358  0.036740627  0.035867134           10 
 1774000   0.54016984   -4.7773313    782.91005   0.03677706  0.035844167           20 
 1775000   0.54694261   -4.7674097    782.64802  0.036744038  0.035821239           14 
 1776000   0.55232741   -4.7664268     782.5845  0.036720369  0.035798328           20 
 1777000   0.53529277   -4.7760062    783.73165  0.036753501   0.03577555           23 
 1778000   0.54447422   -4.7930165    782.58411  0.036679045  0.035752749           12 
 1779000   0.55021998   -4.8049803    779.84583  0.036530159  0.035729895           16 
 1780000   0.54666976   -4.7793782    781.92472  0.036606963  0.035707071           19 
 1781000   0.53361351   -4.7892213    782.59907  0.036617961  0.035684291           10 
 1782000   0.53497495    -4.794003    781.28523  0.036535972  0.035661463           48 
 1783000   0.54827857   -4.8003605    781.69403  0.036534587  0.035638558           14 
 1784000   0.54117782   -4.7930108    781.93873  0.036525538  0.035615704           18 
 1785000   0.53582014   -4.7884844    782.50546  0.036531534  0.035593007           44 
 1786000   0.53824788   -4.7997714    782.68721   0.03651956  0.035570232           26 
 1787000   0.53961226   -4.7820529    781.96754  0.036465563   0.03554745           21 
 1788000    0.5416223   -4.8029413    782.33472  0.036462282  0.035524711           24 
 1789000   0.55349533   -4.7793232    782.53687  0.036451317  0.035501946           17 
 1790000   0.54352833   -4.7795173    782.17145  0.036413941  0.035479177           22 
 1791000   0.54295619   -4.7952456    781.48532  0.036361684  0.035456419           13 
 1792000   0.53665794   -4.7968003    781.85644  0.036358651  0.035433637           19 
 1793000   0.54346232   -4.8020613    781.08508  0.036302523  0.035410894           21 
 1794000   0.53910976   -4.7866587    783.21929  0.036381424  0.035388133           16 
 1795000   0.54270721   -4.7980781    781.88126  0.036299037  0.035365483           12 
 1796000   0.54157425   -4.7849942    782.08164  0.036288124  0.035342837           32 
 1797000   0.54445679   -4.7942039    781.45686  0.036238956  0.035320218           44 
 1798000   0.53336969   -4.7967104    781.79122  0.036234298  0.035297618           20 
 1799000   0.54321332   -4.7973155    781.61204  0.036205857  0.035274947           12 
 1800000   0.53644857    -4.799338    784.06775  0.036299433  0.035252366            8 
 1801000    0.5265767   -4.7910307    782.42607  0.036203316  0.035229813           12 
 1802000   0.52812964   -4.7740505    783.91293  0.036251985  0.035207336           16 
 1803000   0.53465672   -4.8056816    782.61845  0.036172049  0.035184858           15 
 1804000   0.52217381   -4.7794915     781.5254  0.036101506   0.03516229           13 
 1805000   0.54350883   -4.8152867    782.87459  0.036143794  0.035139737           20 
 1806000   0.52736761   -4.7974638    782.60743  0.036111454  0.035117239           12 
 1807000   0.54331942   -4.7875268    782.34127  0.036079195  0.035094633           26 
 1808000   0.53556851   -4.8149567    781.34208  0.036013186  0.035072039           16 
 1809000   0.52867014    -4.817372    783.28642  0.036082846  0.035049485           11 
 1810000   0.52147419     -4.81392    780.82982  0.035949808  0.035026951           18 
 1811000   0.53359608    -4.801208    781.38956  0.035955713  0.035004348           37 
 1812000   0.53646518    -4.806498    782.70275  0.035996263  0.034981911           11 
 1813000   0.52889277   -4.7907885    781.82297   0.03593597  0.034959494           25 
 1814000   0.52615076   -4.8154175    781.72072  0.035911462  0.034937015            8 
 1815000   0.51291222   -4.7844209    782.59549  0.035931841  0.034914538           30 
 1816000   0.53143039   -4.7944603    782.57288  0.035911017  0.034892106           20 
 1817000   0.53524156   -4.8031511    780.96583  0.035817549  0.034869658           23 
 1818000    0.5214883    -4.802461    783.56663  0.035917062  0.034847247           16 
 1819000   0.52839881   -4.8173866    781.58475  0.035806521  0.034824789           34 
 1820000   0.52702619   -4.8245818    781.32369  0.035774894  0.034802347           21 
 1821000   0.52656802   -4.7972391    783.13886  0.035838315  0.034779909           25 
 1822000   0.52691244   -4.8060945    781.78731  0.035756829  0.034757519           42 
 1823000   0.52248323   -4.8041601    783.12891  0.035798542  0.034735071           31 
 1824000   0.52043344   -4.8219758    778.76151  0.035579382  0.034712613           14 
 1825000   0.51975743   -4.8331628    781.39856    0.0356803  0.034690011           14 
 1826000   0.52917287   -4.8138675    780.63256  0.035625801  0.034667432           11 
 1827000   0.53104238   -4.8222363    780.15644  0.035584585  0.034644897           18 
 1828000   0.54000868   -4.8325204    783.05307  0.035697168  0.034622468           14 
 1829000   0.53094313   -4.8362661    780.43441  0.035558338  0.034599986           56 
 1830000   0.52521288   -4.8322543    781.31119  0.035578834  0.034577541           17 
 1831000   0.52733787   -4.8185427    780.81286  0.035536722  0.034555174           12 
 1832000   0.52857346   -4.8147027    783.50241  0.035639665  0.034532778           21 
 1833000   0.53266606   -4.8388507    782.81703  0.035589063  0.034510483           35 
 1834000    0.5379583   -4.8159432    781.66464  0.035517295  0.034488062           27 
 1835000   0.51929432   -4.8410445    781.23206  0.035478295  0.034465641           12 
 1836000   0.51837865   -4.8288676    779.64661   0.03538701  0.034443245           25 
 1837000   0.52262089   -4.8607949    781.34348  0.035444723  0.034420888           31 
 1838000     0.525686   -4.8378313    781.10508   0.03541463  0.034398511           34 
 1839000   0.52381078   -4.8361616    783.53387  0.035505432  0.034376108           29 
 1840000   0.52260537   -4.8325317    783.37193  0.035478801  0.034353834           20 
 1841000   0.52929953   -4.8284546    780.68394  0.035337857  0.034331543           12 
 1842000   0.51658484    -4.832014     780.2593  0.035299462  0.034309179           22 
 1843000   0.51264646   -4.8421761    780.37272  0.035285437  0.034286791           42 
 1844000   0.52033237   -4.8344903    780.34237   0.03526493  0.034264402           23 
 1845000    0.5167677   -4.8282553    780.97375  0.035274334  0.034242062           17 
 1846000   0.52113258   -4.8287815    782.11366  0.035306684  0.034219799           19 
 1847000   0.51813157   -4.8326435    780.08345  0.035195969   0.03419756           16 
 1848000   0.50364688   -4.8160684    780.55668  0.035198263  0.034175382           39 
 1849000   0.51765317   -4.8370301    781.85635  0.035237802  0.034153124           23 
 1850000     0.521536   -4.8200477    780.98656  0.035179575  0.034130882           15 
 1851000    0.5184032   -4.8380832     781.0261  0.035162349  0.034108679           11 
 1852000   0.51351294    -4.846288    781.92812  0.035183951  0.034086509           28 
 1853000   0.50626603   -4.8364479    781.89915   0.03516366  0.034064284           76 
 1854000   0.49709364   -4.8445086    782.30439  0.035162909  0.034042102           59 
 1855000   0.50672239   -4.8477355    779.12171  0.035000975  0.034019921           21 
 1856000   0.50108394   -4.8351465    781.09026  0.035070504  0.033997693           24 
 1857000   0.50441386   -4.8518013    779.59789  0.034984648  0.033975445           36 
 1858000   0.49808805   -4.8669535    781.40181  0.035046726  0.033953208           40 
 1859000   0.50557222   -4.8562085     780.5543  0.034989882  0.033930994           40 
 1860000   0.50002961   -4.8546997    780.27381  0.034958504  0.033908781           83 
 1861000   0.49907031   -4.8605228    780.47118  0.034948557  0.033886591           38 
 1862000   0.51435893   -4.8388572    781.63638  0.034981936  0.033864428           11 
 1863000   0.50397584   -4.8521507    780.56825  0.034915381  0.033842248            7 
 1864000   0.51764339   -4.8572327    778.77316  0.034816396  0.033820092           22 
 1865000   0.50122673   -4.8703671    780.47033  0.034873562  0.033797983           21 
 1866000   0.50422945   -4.8675653    782.05598  0.034925687  0.033775823           12 
 1867000   0.50191794   -4.8479272    781.21186  0.034869303  0.033753735           22 
 1868000    0.5189879   -4.8638075    779.80061  0.034787679  0.033731662           22 
 1869000   0.51211211   -4.8448998    780.55333  0.034802627  0.033709648           15 
 1870000   0.50061695   -4.8661138    779.18664  0.034723113  0.033687526           37 
 1871000   0.49560474   -4.8764749    781.38679  0.034802547  0.033665474           18 
 1872000   0.50296909   -4.8503946    779.49669  0.034699817  0.033643454           15 
 1873000    0.4987545   -4.8498039    781.83389  0.034785277  0.033621448           33 
 1874000   0.50440415   -4.8629864    778.91837  0.034637067  0.033599491           52 
 1875000   0.50614011   -4.8760547    779.04434  0.034624193   0.03357743           24 
 1876000   0.50572048   -4.8711345    780.32105  0.034662449  0.033555375           34 
 1877000   0.51367497   -4.8707931    778.67228  0.034570782  0.033533346           20 
 1878000   0.49731785   -4.8568416    781.81447  0.034691803  0.033511346           24 
 1879000   0.48841634   -4.8798239    780.68739  0.034623354  0.033489448           23 
 1880000   0.49920929   -4.8671712    780.75239  0.034607818   0.03346753           18 
 1881000   0.49090655   -4.8553283    781.09889  0.034604771   0.03344568           32 
 1882000   0.50682961   -4.8581638    781.18504  0.034590198  0.033423859           14 
 1883000   0.49234622   -4.8647349    782.97993  0.034651263  0.033402069           32 
 1884000   0.48527668   -4.8640141    781.22718  0.034555342  0.033380279           47 
 1885000   0.49745958   -4.8679273     782.0005  0.034571198  0.033358492           28 
 1886000   0.49659517   -4.8587049    782.20304  0.034561817  0.033336688           62 
 1887000   0.50378431   -4.8575508    782.66655  0.034563971  0.033315015           41 
 1888000   0.50266469   -4.8709264    783.27484  0.034572512  0.033293376           72 
 1889000   0.50635869   -4.8610218    782.13256  0.034503818  0.033271694           25 
 1890000   0.49931187   -4.8775542    781.11264  0.034440592  0.033249982           47 
 1891000   0.48972667   -4.8514033    780.78425  0.034407908  0.033228249           30 
 1892000    0.4980388     -4.89374    778.50008  0.034289116  0.033206444           53 
 1893000   0.48674098   -4.8745664     780.3269  0.034351422   0.03318465           22 
 1894000   0.48581967   -4.8817084    778.80149  0.034266169  0.033162858           47 
 1895000   0.48651004   -4.8897744    779.13151  0.034262599  0.033141025           44 
 1896000   0.49577845   -4.8778329    780.35862  0.034298463  0.033119226           39 
 1897000   0.49544532   -4.8933725    780.99402  0.034308295  0.033097434           41 
 1898000    0.4954645    -4.884285    780.19543  0.034255156  0.033075641           45 
 1899000   0.48590197   -4.8973894    781.27046  0.034284293  0.033053902           31 
 1900000   0.49445075   -4.8679254    780.17172  0.034218058  0.033032131           29 
 1901000   0.50355258   -4.8744531    779.31214  0.034162377  0.033010433           23 
 1902000   0.49706371   -4.8717806    780.71229  0.034205761  0.032988761           30 
 1903000   0.49541246   -4.8745546    780.94517  0.034197984  0.032967178           25 
 1904000   0.49205274   -4.8806192    782.40682  0.034243996  0.032945613           49 
 1905000   0.49681096   -4.8769513    780.08663  0.034124524  0.032924004           34 
 1906000   0.49539155   -4.8728174    780.84013  0.034139565  0.032902394           33 
 1907000     0.495593   -4.8866408      780.822   0.03412087  0.032880768           34 
 1908000   0.49175204   -4.9024356    781.80841   0.03414607  0.032859156           50 
 1909000   0.49436449   -4.8915055    780.43191  0.034068094  0.032837526           50 
 1910000   0.49470787   -4.9037053    780.59172   0.03405723  0.032815875           50 
 1911000   0.49122179   -4.8969641    779.49616  0.033991635  0.032794262           36 
 1912000   0.48636666   -4.9064099    778.68224  0.033938382  0.032772616           75 
 1913000   0.48377754   -4.8971703    779.44943  0.033954061  0.032751007          113 
 1914000    0.4902892   -4.9030248    779.74674  0.033949266  0.032729315           40 
 1915000   0.48828401   -4.8992275      778.486  0.033876675  0.032707724           34 
 1916000   0.48885738   -4.9030442    780.14139  0.033930993  0.032686131           16 
 1917000   0.49335169   -4.9066463    780.50205  0.033928971  0.032664576           17 
 1918000   0.49268155   -4.8947455    779.97314  0.033888301  0.032643053           32 
 1919000   0.47658898   -4.9100299    778.86378  0.033822467   0.03262151           36 
 1920000   0.48061173   -4.8981653      780.592  0.033879861  0.032600011           50 
 1921000   0.48689662   -4.8940999    780.09871  0.033840826  0.032578528           45 
 1922000   0.47573881   -4.9113307    780.18466  0.033826945  0.032556989           48 
 1923000   0.49643484   -4.8995169    780.03792  0.033802995  0.032535472           25 
 1924000   0.47572759   -4.9141041    780.18235  0.033791682   0.03251399           59 
 1925000   0.48609078   -4.9171098     781.7751  0.033843078  0.032492541           43 
 1926000   0.47318629   -4.9036583    780.06301  0.033751428  0.032471159           29 
 1927000   0.48804175   -4.9159679    780.96784  0.033773043  0.032449757           41 
 1928000   0.48357508   -4.9162979    779.24039   0.03368086  0.032428355           63 
 1929000    0.4776862   -4.8979954    780.18783   0.03370433  0.032407006           47 
 1930000   0.47611792    -4.916547    780.95636   0.03372005  0.032385613           48 
 1931000    0.4796604   -4.9050781    780.19085  0.033669552  0.032364327           63 
 1932000   0.48635475   -4.9188829    781.00225  0.033687123  0.032343053           24 
 1933000   0.48498528   -4.9195291    779.45658   0.03360306  0.032321692           31 
 1934000   0.47961078   -4.9086106     778.9578  0.033564193  0.032300349           33 
 1935000   0.47828451   -4.9197067    779.60994  0.033574933  0.032278959           23 
 1936000   0.48727134   -4.8992603    780.42918  0.033592854  0.032257655           21 
 1937000    0.4742414   -4.9069473    779.06106  0.033516652  0.032236392           38 
 1938000   0.46787829   -4.9081329    780.68111  0.033569019  0.032215137           69 
 1939000   0.48750831   -4.9206383    780.76548  0.033555332  0.032193875           59 
 1940000   0.47454798   -4.8984897    778.71309  0.033449875  0.032172672           69 
 1941000   0.47532375   -4.9125777    781.05129  0.033533028  0.032151461          147 
 1942000   0.47970246   -4.9215695    780.36294  0.033486223  0.032130283           88 
 1943000   0.47442694   -4.9441844    780.39401  0.033470321  0.032109056          169 
 1944000   0.47629248   -4.9180517    779.58568  0.033418453  0.032087868           95 
 1945000   0.47176763   -4.9458428    778.74741  0.033365356   0.03206667           77 
 1946000   0.47978706   -4.9279277    779.18836  0.033367093  0.032045453           58 
 1947000   0.47266818   -4.9312009    780.35934  0.033400074  0.032024246           84 
 1948000   0.48468794    -4.936885    779.33362  0.033339049   0.03200308           90 
 1949000   0.48404659   -4.9314809    779.53212  0.033330431  0.031981943           74 
 1950000   0.47401472   -4.9313999    779.11087  0.033295336  0.031960827           94 
 1951000   0.47382701   -4.9316561    779.23586  0.033283609  0.031939648          116 
 1952000   0.46633258   -4.9247777    778.57491  0.033238341   0.03191847           60 
 1953000   0.46749885   -4.9282339    779.90514  0.033278082  0.031897339           60 
 1954000   0.47626555   -4.9406309    778.29526  0.033192394  0.031876174           37 
 1955000   0.47600238   -4.9356532    778.44495  0.033181796   0.03185499          131 
 1956000   0.47555896   -4.9220105    777.95968  0.033144158  0.031833842           56 
 1957000   0.47179738   -4.9464597    778.46473  0.033148728  0.031812678           62 
 1958000   0.46456582   -4.9358936    777.32657  0.033083358  0.031791514           63 
 1959000   0.46988893   -4.9452143    778.19362  0.033103353  0.031770358           63 
 1960000   0.46563463   -4.9499481    779.26723   0.03313211  0.031749233           37 
 1961000   0.46415893    -4.931775    777.67562  0.033047579  0.031728138           25 
 1962000   0.46244572   -4.9411135    779.99405  0.033129207  0.031707038           33 
 1963000   0.46553667   -4.9317364    779.34606  0.033084822  0.031685998           40 
 1964000   0.46704903   -4.9482634    776.41631  0.032943665  0.031664907           63 
 1965000   0.47091777   -4.9475741    777.69048  0.032980937  0.031643788           33 
 1966000   0.46959953   -4.9520805    779.12548  0.033024987  0.031622745           44 
 1967000   0.47682353   -4.9472626    778.27501  0.032972166  0.031601668           35 
 1968000   0.47026208    -4.947322    778.92408  0.032982896  0.031580658           21 
 1969000   0.46694979   -4.9397865    779.30671  0.032982339  0.031559652           18 
 1970000    0.4724697   -4.9636297    778.76915  0.032942858  0.031538608           51 
 1971000   0.46903083   -4.9478676    778.36633  0.032909112   0.03151756           49 
 1972000   0.46671674   -4.9565468    778.02889  0.032878165  0.031496539           41 
 1973000   0.46664633   -4.9462089    777.26507  0.032829239  0.031475525          104 
 1974000   0.46675057   -4.9434737    777.12981  0.032806899   0.03145459           67 
 1975000    0.4633579   -4.9524806    778.28046  0.032838838  0.031433675           61 
 1976000    0.4681826   -4.9568162    777.76556  0.032800504  0.031412786           71 
 1977000   0.46294347   -4.9605805    778.47671  0.032813889  0.031391888           30 
 1978000   0.46682025   -4.9541125    777.91764  0.032773746  0.031371007           24 
 1979000   0.46836921   -4.9552634    777.81763  0.032752974  0.031350129           59 
 1980000   0.45677427    -4.983017    778.22914  0.032753752  0.031329239           30 
 1981000   0.45545616   -4.9514344     778.0269   0.03272871  0.031308356           67 
 1982000    0.4626824   -4.9617922    777.19744  0.032677322  0.031287485           39 
 1983000     0.460902    -4.970793    778.11482  0.032699396  0.031266662           59 
 1984000   0.45772521    -4.959571    778.78261  0.032710963   0.03124584           55 
 1985000   0.45309957   -4.9600159    778.39731  0.032678309  0.031225035           33 
 1986000   0.46468794   -4.9643067    776.75163  0.032592801  0.031204161           54 
 1987000   0.45526451   -4.9528357    777.57045  0.032610739  0.031183282           46 
 1988000   0.46124597    -4.953748    776.68277  0.032557125  0.031162435           83 
 1989000   0.45614386   -4.9644656    778.01525  0.032596583  0.031141618           40 
 1990000   0.45630481   -4.9505031    776.24219  0.032505954  0.031120802           39 
 1991000    0.4670534   -4.9727998    777.78126  0.032554046   0.03109999           37 
 1992000   0.45770254   -4.9686306    776.08233   0.03246663  0.031079184           81 
 1993000   0.46036618   -4.9798604     777.0421  0.032490471  0.031058351          116 
 1994000   0.46192945   -4.9656752     779.1229  0.032561137   0.03103758           90 
 1995000   0.45714962   -4.9773829    777.30304  0.032468799  0.031016804           50 
 1996000   0.44998122    -4.989042    778.10539   0.03248603  0.030996038           26 
 1997000    0.4570445   -4.9616596    777.38384  0.032439653    0.0309753           54 
 1998000   0.45367518   -4.9672159    778.05572   0.03245144  0.030954589           29 
 1999000   0.45354615   -4.9656604    778.71369  0.032462635  0.030933883          105 
 2000000   0.44746773   -4.9814767    776.32721  0.032346967  0.030913191          130 
 2001000   0.45758344   -4.9713851    777.48089  0.032378847   0.03089256           57 
 2002000   0.45224913   -4.9854064    777.56197  0.032366049  0.030871922           76 
 2003000   0.45472994   -4.9818325    778.68536  0.032396628  0.030851294          109 
 2004000   0.45668383   -4.9645773    775.52774  0.032249157  0.030830677           81 
 2005000   0.44785759   -4.9776683    776.84772  0.032287935  0.030810078          106 
 2006000    0.4622771   -4.9766327    776.94316  0.032275804  0.030789486          139 
 2007000   0.44938904   -4.9701445    778.02436  0.032304616  0.030768883           82 
 2008000   0.45164553   -4.9823507    778.64566  0.032314312  0.030748268           65 
 2009000   0.45487419   -4.9736553    777.03461  0.032231401  0.030727689          108 
 2010000    0.4523174   -4.9676507    777.34425  0.032228203   0.03070716          106 
 2011000   0.44761957   -4.9793753    777.18623  0.032205629   0.03068666           77 
 2012000   0.44852945   -4.9783947    776.40877  0.032157421  0.030666168           70 
Loop time of 4928.91 on 48 procs for 2000000 steps with 4000 atoms

Performance: 70116.879 tau/day, 405.769 timesteps/s
99.4% CPU use with 48 MPI tasks x no OpenMP threads

MPI task timing breakdown:
Section |  min time  |  avg time  |  max time  |%varavg| %total
---------------------------------------------------------------
Pair    | 333.8      | 354.9      | 378.06     |  65.5 |  7.20
Neigh   | 33.477     | 34.875     | 36.272     |  12.3 |  0.71
Comm    | 318.33     | 341.71     | 366.78     |  70.3 |  6.93
Output  | 4.2369     | 4.2388     | 4.276      |   0.3 |  0.09
Modify  | 4140.8     | 4149.3     | 4158.5     |   6.6 | 84.18
Other   |            | 43.87      |            |       |  0.89

Nlocal:        83.3333 ave          90 max          77 min
Histogram: 5 2 5 11 4 2 5 6 4 4
Nghost:        2277.94 ave        2291 max        2261 min
Histogram: 1 1 3 5 5 11 9 5 5 3
Neighs:        15417.6 ave       17506 max       13559 min
Histogram: 2 3 3 14 6 5 10 3 0 2
FullNghs:      30835.9 ave       33790 max       28181 min
Histogram: 4 4 8 9 2 4 2 9 2 4

Total # of neighbors = 1480123
Ave neighs/atom = 370.03075
Neighbor list builds = 108031
Dangerous builds = 0

#clear
#
#next RN
#
#jump SELF
Total wall time: 1:22:12
