
units lj                  # Use reduced LJ style units
atom_style atomic         # Uncharged point particles
atom_modify map hash      # Needed for indexing of clusters etc
                          # Used to be able to find where atoms are in relation to each other.

lattice fcc 1.0 spacing 1 1 1
Lattice spacing in x,y,z = 1.5874011 1.5874011 1.5874011
region box block 0 10 0 10 0 10 units lattice
create_box 2 box
Created orthogonal box = (0.0000000 0.0000000 0.0000000) to (15.874011 15.874011 15.874011)
  3 by 4 by 4 MPI processor grid
create_atoms 1 box
Created 4000 atoms
  using lattice units in orthogonal box = (0.0000000 0.0000000 0.0000000) to (15.874011 15.874011 15.874011)
  create_atoms CPU = 0.002 seconds
set type 1 type/fraction 2 0.52 78393
Setting atom values ...
  2077 settings made for type/fraction
mass 1 1.0
mass 2 1.0
pair_style lj/cut  3.5
pair_modify tail  yes
pair_coeff 1  1  1.0  1.0   # Intearaction between 1 and 1 set with epsilon = 1 and sigma = 1
pair_coeff 1  2  1.5  0.8
pair_coeff 2  2  0.5  0.88

write_data data.0
System init for write_data ...
Neighbor list info ...
  update every 1 steps, delay 10 steps, check yes
  max neighbors/atom: 2000, page size: 100000
  master list distance cutoff = 3.8
  ghost atom cutoff = 3.8
  binsize = 1.9, bins = 9 9 9
  1 neighbor lists, perpetual/occasional/extra = 1 0 0
  (1) pair lj/cut, perpetual
      attributes: half, newton on
      pair build: half/bin/atomonly/newton
      stencil: half/bin/3d
      bin: standard
WARNING: Not all mixed pair coeffs generated from mixing. Use write_data with 'pair ij' option to store all pair coeffs. (../write_data.cpp:312)


#############################
#   M E L T   S Y S T E M   #
#############################

velocity all create 2.4 2750902 mom yes dist gaussian # Assign velocities
                                                    # Temperature 2.4, random number seed, zero linear momentum
                                                                                # Gaussian distribution

timestep 0.002   # simulation timestep
thermo 1000       # output thermodynamic data every 1000 steps bf 100

# Define a fix  in this case with index 1 applied to all
# particles in the simulation. This fix is for simulations
# in the anisotropic NPT ensemble. Note that we use the MTK
# correction.
fix 1 all npt temp 2.4 2.4 0.1 iso 5.68 5.68 0.5 mtk yes tchain 5 pchain 5 # Use NPT ensemble
                                                                         # Set temperature and pressure and damping
                                                                         # Numbers of thermostats in chain and in barostat
run 10000          # run for 10000 steps
Per MPI rank memory allocation (min/avg/max) = 3.642 | 3.644 | 3.648 Mbytes
Step Temp E_pair E_mol TotEng Press Volume 
       0          2.4   -5.1913276            0   -1.5922276   -4.1950394         4000 
    1000    2.4338178   -4.8222878            0   -1.1724738    5.5215184    3700.1126 
    2000     2.367764   -4.7993509            0   -1.2485928    5.6295493      3700.62 
    3000    2.4323724   -4.8959333            0   -1.2482868    5.9751626    3631.1679 
    4000    2.3762926    -4.889309            0   -1.3257611    5.7412548    3638.7107 
    5000    2.4298536   -4.8760114            0   -1.2321421    5.5479041    3673.1487 
    6000    2.4424822   -4.8195577            0   -1.1567502    5.6424968    3689.2296 
    7000    2.3638786    -4.853473            0   -1.3085416    5.2673032    3700.3666 
    8000    2.3979754   -4.7912449            0    -1.195181    5.8127613    3679.4479 
    9000    2.3777501   -4.8459753            0   -1.2802418    5.7669311    3658.5537 
   10000      2.38987   -4.9486342            0   -1.3647253    5.4512675    3645.6571 
Loop time of 2.96727 on 48 procs for 10000 steps with 4000 atoms

Performance: 582352.949 tau/day, 3370.098 timesteps/s
99.4% CPU use with 48 MPI tasks x no OpenMP threads

MPI task timing breakdown:
Section |  min time  |  avg time  |  max time  |%varavg| %total
---------------------------------------------------------------
Pair    | 1.1643     | 1.2723     | 1.3594     |   3.4 | 42.88
Neigh   | 0.21534    | 0.2245     | 0.23625    |   1.1 |  7.57
Comm    | 0.89409    | 0.99176    | 1.0996     |   4.9 | 33.42
Output  | 0.00025605 | 0.00026396 | 0.00033506 |   0.0 |  0.01
Modify  | 0.38559    | 0.46244    | 0.50526    |   3.7 | 15.58
Other   |            | 0.01603    |            |       |  0.54

Nlocal:        83.3333 ave          93 max          76 min
Histogram: 3 6 7 7 11 2 2 6 2 2
Nghost:        1737.42 ave        1771 max        1705 min
Histogram: 3 2 4 7 7 11 8 1 3 2
Neighs:        10479.7 ave       11965 max        9270 min
Histogram: 2 4 6 8 13 4 2 5 2 2

Total # of neighbors = 503026
Ave neighs/atom = 125.75650
Neighbor list builds = 903
Dangerous builds = 189

# Equilibrate just above the melting temperature to avoid step fn in T

fix 1 all npt temp 1.25 1.25 0.1 iso 5.68 5.68 0.5 mtk yes tchain 5 pchain 5
run 2000
Per MPI rank memory allocation (min/avg/max) = 3.644 | 3.646 | 3.649 Mbytes
Step Temp E_pair E_mol TotEng Press Volume 
   10000      2.38987   -4.9486342            0   -1.3647253    5.4512675    3645.6571 
   11000    1.2440888   -6.9365513            0   -5.0708846    5.9170691     2847.231 
   12000    1.2736194   -7.0645317            0   -5.1545801    5.1926891    2837.8863 
Loop time of 0.651114 on 48 procs for 2000 steps with 4000 atoms

Performance: 530782.669 tau/day, 3071.659 timesteps/s
99.6% CPU use with 48 MPI tasks x no OpenMP threads

MPI task timing breakdown:
Section |  min time  |  avg time  |  max time  |%varavg| %total
---------------------------------------------------------------
Pair    | 0.29948    | 0.32054    | 0.34636    |   1.9 | 49.23
Neigh   | 0.041351   | 0.043428   | 0.046625   |   0.5 |  6.67
Comm    | 0.20716    | 0.23686    | 0.26236    |   2.6 | 36.38
Output  | 5.2968e-05 | 5.4229e-05 | 7.0822e-05 |   0.0 |  0.01
Modify  | 0.04148    | 0.045247   | 0.048068   |   0.9 |  6.95
Other   |            | 0.004985   |            |       |  0.77

Nlocal:        83.3333 ave          90 max          76 min
Histogram: 1 2 6 8 8 4 4 7 5 3
Nghost:        2063.65 ave        2080 max        2041 min
Histogram: 2 2 3 5 4 6 9 9 6 2
Neighs:        13454.1 ave       14834 max       11992 min
Histogram: 2 5 2 5 8 8 6 4 5 3

Total # of neighbors = 645795
Ave neighs/atom = 161.44875
Neighbor list builds = 142
Dangerous builds = 6

#############################
# L I N E A R  Q U E N C H  #
#############################

# Define solid atoms. This closely follows ten Wolde  Ruiz-Montero and Frenkel  Faraday Discuss  1996  104  93-110
# Compute components of the per-atom q6 vector
compute q6 all orientorder/atom degrees 1 6 components 6 nnn NULL cutoff 1.3 # compute the Q6 parameter.
                                                                             # Use all neighbours within 1.3 unit cell.

# get number of connections
compute coord_number all coord/atom orientorder q6 0.5

# An atom is solid if it has 8 or more connections (of a possible 14)
variable is_solid atom c_coord_number>=8
group solid dynamic all var is_solid    # Must be dynamic to update
dynamic group solid defined

# do clustering
compute cluster solid cluster/atom 1.3 # Create a cluster where all atoms within are solid and max 1.3 units from another member

# define chunks one chunk per cluster
compute clus_chunks solid chunk/atom c_cluster nchunk every compress yes  # Says which atoms are in which chunk

# count the size of each chunk
compute size_chunks solid property/chunk clus_chunks count


# Find the maximum entry in the vector of chunk sizes
variable max_n equal max(c_size_chunks)


# Thermo style which includes this variable
# thermo_style custom step temp pe vol v_max_n

thermo ${N}  # Print the thermo information every 100 steps
thermo 1000  

# Reset the npt fix at a lower temperature (below freezing)
fix 1  all npt temp  ${temp} ${temp}  0.1  iso  5.68  5.68  0.5  mtk yes tchain  5  pchain  5
fix 1  all npt temp  0.45 ${temp}  0.1  iso  5.68  5.68  0.5  mtk yes tchain  5  pchain  5
fix 1  all npt temp  0.45 0.45  0.1  iso  5.68  5.68  0.5  mtk yes tchain  5  pchain  5

dump dmp2 all dcd ${N} traj.dcd
dump dmp2 all dcd 1000 traj.dcd


compute msd all msd com yes
variable twopoint equal c_msd[4]/6/(step*dt+1.0e-6)
fix 9 all vector 10 c_msd[4]
variable fit equal slope(f_9)/6/(10*dt)
thermo_style custom step temp pe c_msd[4] v_twopoint v_fit v_max_n

fix 1 all npt temp 1.25 ${temp} 0.1 iso 5.68 5.68 0.5 mtk yes tchain 5 pchain 5
fix 1 all npt temp 1.25 0.45 0.1 iso 5.68 5.68 0.5 mtk yes tchain 5 pchain 5
run 500000 # 5000000  # Run for this many steps
Neighbor list info ...
  update every 1 steps, delay 10 steps, check yes
  max neighbors/atom: 2000, page size: 100000
  master list distance cutoff = 3.8
  ghost atom cutoff = 3.8
  binsize = 1.9, bins = 8 8 8
  4 neighbor lists, perpetual/occasional/extra = 1 3 0
  (1) pair lj/cut, perpetual
      attributes: half, newton on
      pair build: half/bin/atomonly/newton
      stencil: half/bin/3d
      bin: standard
  (2) compute orientorder/atom, occasional
      attributes: full, newton on
      pair build: full/bin/atomonly
      stencil: full/bin/3d
      bin: standard
  (3) compute coord/atom, occasional
      attributes: full, newton on
      pair build: full/bin/atomonly
      stencil: full/bin/3d
      bin: standard
  (4) compute cluster/atom, occasional
      attributes: full, newton on
      pair build: full/bin/atomonly
      stencil: full/bin/3d
      bin: standard
Per MPI rank memory allocation (min/avg/max) = 9.839 | 9.844 | 9.848 Mbytes
Step Temp PotEng c_msd[4] v_twopoint v_fit v_max_n 
   12000    1.2736194   -7.0645317 1.8291712e-30 1.2702577e-32 8.3333333e+20            2 
   13000    1.2552154   -7.0154314   0.44578736 0.0028576111   0.03625745            1 
   14000    1.2580216   -7.0864715   0.85115936 0.0050664246  0.034282137            1 
   15000    1.2517989   -7.1152777    1.2703479 0.0070574883  0.034347142            2 
   16000    1.2201877   -7.0772607    1.6713683 0.0087050428  0.034128402            3 
   17000    1.2239141   -7.0250177    2.1261551  0.010422329  0.034241435            4 
   18000    1.2691939   -7.0533056    2.4736471  0.011452069  0.034175381            2 
   19000    1.2340416   -7.0964475    2.7825905  0.012204344   0.03360384            3 
   20000    1.2671766   -7.0457825    3.1532608  0.013138586  0.032889277            2 
   21000    1.2608922   -7.0445826    3.5233786  0.013981661  0.032448502            2 
   22000    1.2291445   -7.0607244    3.8735903   0.01467269  0.032066905            3 
   23000    1.2434192   -7.1096321    4.2557477  0.015419375  0.031753465            2 
   24000     1.202198   -7.0878008    4.6764602  0.016237709  0.031619618            2 
   25000    1.2492493   -7.0875518    5.0526082  0.016842027  0.031612698            2 
   26000    1.2490171   -7.0223884    5.4121684  0.017346693  0.031608256            2 
   27000    1.2236683    -7.143171    5.6967868  0.017582675  0.031466668            2 
   28000    1.2397759   -7.1042176    6.1213076  0.018218177  0.031344926            2 
   29000    1.2253899    -7.103868    6.4812142  0.018624179  0.031286353            1 
   30000    1.2275771   -7.1537924    6.7676944  0.018799151  0.031200863            2 
   31000    1.2112118   -7.1137065    7.1927905  0.019335458  0.031114303            5 
   32000    1.2345436   -7.1305606     7.564564  0.019699385  0.031040746            3 
   33000    1.2248676   -7.1004485    7.9597573  0.020100397  0.030993735            1 
   34000    1.2319623   -7.1203473    8.3089727  0.020365129  0.030949514            1 
   35000    1.2270984   -7.1257419    8.6880726  0.020685887  0.030931542            2 
   36000    1.2257777   -7.1714956    9.0358166  0.020916242  0.030897246            8 
   37000    1.1933917   -7.0965361    9.4234411  0.021223966  0.030876822            5 
   38000    1.1965588   -7.1989647    9.8308217  0.021558819  0.030865288            4 
   39000    1.2215824   -7.1518934    10.149285  0.021686506  0.030864633            1 
   40000    1.2182611    -7.157051    10.526395  0.021929989  0.030839664            2 
   41000    1.1900151   -7.1516363     10.93261  0.022220751  0.030827438            2 
   42000    1.2046191   -7.1797345    11.280809  0.022382558   0.03082689            5 
   43000     1.193657   -7.1527928    11.619278   0.02251798  0.030815373            3 
   44000    1.1914252   -7.1720173    11.986151  0.022701043  0.030801354            2 
   45000    1.1714903   -7.2281452    12.352383  0.022874784  0.030784715            3 
   46000    1.1874312   -7.2515159    12.538114  0.022713975  0.030736335            2 
   47000    1.1968191   -7.2222999    12.937662  0.022939117  0.030681429            2 
   48000    1.1886552   -7.2282836    13.216509  0.022945327  0.030613748            1 
   49000    1.2090468   -7.2204834    13.633841  0.023186805  0.030562737            1 
   50000    1.1922764   -7.2070728    13.917024   0.02319504  0.030501917            5 
   51000    1.1836771   -7.2240629    14.234151  0.023258417  0.030434125            1 
   52000    1.1843183   -7.2144655     14.63128  0.023447564  0.030353011            2 
   53000    1.2050876   -7.2000426    14.933346  0.023480103  0.030293786            6 
   54000    1.1919973   -7.2370875    15.265572  0.023557981  0.030246461            2 
   55000    1.1924793   -7.2755469    15.548685  0.023558614  0.030173195            1 
   56000    1.1857269   -7.2143254    15.880035  0.023631005   0.03009593            2 
   57000    1.1733715   -7.2912256    16.135243  0.023589536   0.03001522            3 
   58000    1.1689198   -7.2349617    16.400494  0.023563928  0.029922827            3 
   59000    1.1818464   -7.2515269    16.659204  0.023529949  0.029817539            1 
   60000     1.188087   -7.2675513     16.93443  0.023520042   0.02969994            2 
   61000    1.1967087   -7.2618358    17.281534  0.023608653  0.029586087            1 
   62000    1.1886983   -7.2708839    17.510406  0.023535491  0.029481686            3 
   63000    1.1448175   -7.2491466    17.919623  0.023703205  0.029377111            4 
   64000    1.1644294   -7.2660006    18.192913  0.023688689  0.029280231            2 
   65000    1.1673718   -7.2809541    18.566266  0.023802905   0.02917996            3 
   66000    1.1637947   -7.2818258    18.771742  0.023701694  0.029085272            1 
   67000    1.1783839   -7.2996306    19.050837  0.023695071  0.028994399            2 
   68000    1.1688547   -7.2404103     19.46805  0.023857904  0.028912241            2 
   69000    1.1684969    -7.310744    19.734096  0.023833449  0.028826485            4 
   70000     1.167633   -7.2851803    19.978838  0.023784331  0.028739004            3 
   71000    1.1591954   -7.2824657    20.333511  0.023865624  0.028658691            1 
   72000    1.1483945   -7.3263811    20.677785  0.023932621  0.028577754            2 
   73000    1.1519702   -7.3231564    20.896366  0.023854299  0.028508346            3 
   74000    1.1466472   -7.2939155    21.179605  0.023850906   0.02842831            2 
   75000    1.1551576   -7.3171669    21.619209  0.024021343  0.028358244            4 
   76000    1.1547451   -7.3194722     21.99031  0.024112182  0.028307185            5 
   77000    1.1519038   -7.3260738    22.165648  0.023988796  0.028250313            2 
   78000    1.1263412   -7.3581617    22.416575  0.023949332  0.028182699            1 
   79000    1.1644051   -7.3303785    22.633132  0.023874611   0.02810984            2 
   80000    1.1392164   -7.3449059    22.981738  0.023939311  0.028036914            3 
   81000    1.1254214   -7.3688233    23.222543  0.023891505  0.027964882            2 
   82000    1.1300396   -7.3415289    23.580632  0.023964057   0.02789799            6 
   83000    1.1579232   -7.3187865    23.896766  0.023992736  0.027838872            2 
   84000    1.1522277   -7.3084673    24.321579  0.024128551  0.027782921            7 
   85000    1.1507668    -7.370382    24.506157  0.024025644  0.027720585            2 
   86000    1.1150412   -7.3636217    24.816791  0.024047278  0.027662499            3 
   87000    1.1470032   -7.4244487    24.980541  0.023927721  0.027603502            2 
   88000    1.1194051    -7.392298    25.391638  0.024045111  0.027546102            5 
   89000     1.141512   -7.3614761    25.625202  0.023993634  0.027488184            4 
   90000    1.1024091   -7.3830846    25.945154   0.02402329  0.027430482            3 
   91000    1.1237329    -7.404027    26.237444  0.024026963  0.027382223            2 
   92000    1.1153702   -7.4113878    26.458866  0.023966364  0.027331445            4 
   93000    1.0963018   -7.4319264    26.803849  0.024017785  0.027278784            1 
   94000    1.1180094   -7.4145134    27.063696  0.023992638  0.027230373            2 
   95000    1.1596133   -7.4268064    27.426302   0.02405816  0.027181096            5 
   96000    1.1304061   -7.4088586    27.619926   0.02397563  0.027133785            4 
   97000    1.1021681   -7.3860165    28.027755  0.024078827  0.027087378           10 
   98000    1.1163822   -7.3766586    28.161571  0.023946914  0.027033668            1 
   99000     1.121057   -7.3894235    28.249953  0.023779422  0.026968833            4 
  100000    1.0895857   -7.4634281    28.348329  0.023623608  0.026900785            3 
  101000    1.1028628   -7.4127827    28.594783  0.023593055  0.026824468            2 
  102000    1.1023537   -7.4282191    28.707844  0.023454121  0.026744622            3 
  103000    1.1311561   -7.4570796    28.952603  0.023424436  0.026663112            2 
  104000    1.1267455   -7.4374526    29.317836  0.023491856  0.026583656            3 
  105000    1.1084605   -7.4634694    29.278017  0.023236522  0.026505121            4 
  106000    1.0879916   -7.4858569    29.552288  0.023232931  0.026419823            2 
  107000    1.1111747   -7.4307903    29.874584   0.02326681  0.026336077            2 
  108000    1.1079267   -7.4918594    30.040106  0.023179094  0.026256267            8 
  109000    1.1049364   -7.4540723    30.378954    0.0232255  0.026172248            3 
  110000    1.1059739   -7.4580959    30.566848  0.023156703  0.026094013            3 
  111000    1.0872937   -7.4623402    30.744023  0.023081099  0.026013212            6 
  112000    1.0968748   -7.4839449    30.825281  0.022935477  0.025932072            5 
  113000    1.0776808   -7.4716542    31.223688  0.023026318  0.025848965            1 
  114000    1.0595979   -7.5005594     31.36018  0.022924108  0.025769816            4 
  115000    1.0880224   -7.5103975    31.770583  0.023022161  0.025694258            5 
  116000    1.0913562   -7.4829125    31.942408  0.022947132  0.025621218            5 
  117000    1.0672436   -7.4960916    32.034143  0.022816341  0.025546111            5 
  118000    1.0930342   -7.5106222    32.295317  0.022807427  0.025469885            5 
  119000    1.0741504   -7.4953008    32.534735  0.022783428  0.025391731            2 
  120000    1.0927333   -7.5388297    32.628541  0.022658709  0.025312725            2 
  121000    1.0585347    -7.522911    32.996283  0.022724713  0.025237473            3 
  122000    1.0796576   -7.5419115    33.112107  0.022617559  0.025161024            3 
  123000    1.1078156    -7.541969    33.272415  0.022542286  0.025082791            3 
  124000     1.072362   -7.5398217    33.503118  0.022515536  0.025006087            3 
  125000    1.0772713   -7.5634678     33.68854  0.022459026  0.024927489            4 
  126000    1.0738889   -7.5706998    33.931513  0.022441477  0.024852684            2 
  127000    1.0800555   -7.5530159    34.015351  0.022319784  0.024775978            2 
  128000    1.0479384     -7.55631    34.274271  0.022313978  0.024700359            1 
  129000    1.0542886   -7.5379635    34.770166  0.022461348  0.024627927            4 
  130000    1.0680116   -7.5407989    34.847974  0.022338445  0.024556948            3 
  131000    1.0648807   -7.5871905    34.938637  0.022225596  0.024484762            4 
  132000    1.0427297    -7.513934    35.224605  0.022237755  0.024411935            2 
  133000    1.0551884    -7.576469    35.258305   0.02209167  0.024338019            3 
  134000    1.0501518    -7.503069    35.662407  0.022178114  0.024264233            3 
  135000    1.0565067   -7.5662889    35.640995  0.022000614  0.024190761            2 
  136000    1.0456227   -7.5827207    36.006957  0.022063086  0.024118417            2 
  137000    1.0445447   -7.5978142    36.068882  0.021939709  0.024044566            8 
  138000     1.067118   -7.6223425    36.245972  0.021887664  0.023971505            2 
  139000    1.0445867   -7.5635892    36.698112  0.022001266  0.023900388            4 
  140000    1.0571509   -7.5902826    36.742925  0.021870789  0.023830202            4 
  141000    1.0383411   -7.5763784    36.990103  0.021861763  0.023760493            4 
  142000    1.0532401   -7.5993149    37.123745  0.021786235  0.023691329            7 
  143000    1.0454424   -7.5518641    37.494708  0.021850063  0.023624568            6 
  144000    1.0642358   -7.6021224    37.640476  0.021782683  0.023559185            4 
  145000    1.0448108   -7.5911064    37.801363  0.021724921  0.023495752            2 
  146000    1.0062228    -7.623044    38.047241  0.021716462  0.023432265            2 
  147000    1.0198995   -7.5972039    38.299745  0.021711873  0.023369667            3 
  148000     1.020202   -7.6261977    38.525874  0.021692497  0.023307549            3 
  149000    1.0075911   -7.6430922    38.512587  0.021539478   0.02324311            1 
  150000    1.0289873   -7.6381088    38.672348  0.021484638  0.023177408            2 
  151000    1.0106278   -7.6888085    38.686329  0.021350071  0.023109933            2 
  152000    1.0238024   -7.6386938    38.851077  0.021299932  0.023040437            3 
  153000    1.0204396   -7.6486448    38.969684  0.021225318  0.022970307            8 
  154000    1.0171682   -7.6691035    39.193724  0.021208725  0.022900371            4 
  155000    1.0076739   -7.6997641    39.204166  0.021077509  0.022829924            3 
  156000     1.005696   -7.6894489    39.303641  0.020995535  0.022756476            2 
  157000    1.0239017   -7.7101585    39.416922  0.020921933  0.022683354            5 
  158000    1.0169852   -7.6750846    39.681869  0.020929256  0.022610578            3 
  159000    1.0139218   -7.7062591    39.810887  0.020865245  0.022539579            3 
  160000    1.0248105   -7.7024728    39.872487   0.02076692  0.022467641            5 
  161000   0.99991199   -7.6625839    40.050167    0.0207299  0.022394695            5 
  162000    1.0027538    -7.702682    40.133245  0.020644673  0.022321311            2 
  163000   0.99701117   -7.7293055    40.242041   0.02057364  0.022246145            5 
  164000    1.0055854   -7.6913047    40.315526  0.020485532  0.022171974            4 
  165000   0.99237734   -7.7187067    40.544885  0.020477215  0.022098533            4 
  166000   0.96918331   -7.6982521    40.787316   0.02047556  0.022025364            4 
  167000   0.99920017   -7.7537006    40.978547  0.020448377  0.021953805            2 
  168000   0.99482536   -7.7329008    41.160447  0.020416888  0.021884497            2 
  169000   0.98219788   -7.7082282    41.463198  0.020445364  0.021817266            2 
  170000    1.0124309   -7.7149294    41.369308  0.020279072  0.021748675            4 
  171000   0.99564303   -7.7339053    41.495025  0.020221747  0.021680267            1 
  172000    1.0088039   -7.7199322    41.684284  0.020195874  0.021611311            3 
  173000    0.9884154   -7.7321374    41.871404   0.02016927  0.021543298            4 
  174000    1.0030556   -7.7174223    41.963386  0.020097407   0.02147381            5 
  175000   0.98800655   -7.7759504    42.016041  0.020007638   0.02140525            2 
  176000   0.98051019   -7.7978872    42.125943  0.019945996  0.021336908            5 
  177000   0.96787309   -7.7726481    42.154076  0.019846552  0.021268586            4 
  178000   0.98574051   -7.7825024     42.40258  0.019851395  0.021200336            2 
  179000   0.99394453   -7.7499533    42.756098  0.019905074  0.021133552            8 
  180000      0.99388   -7.7968569    42.692525  0.019765058  0.021068069            5 
  181000   0.97057734    -7.794057    42.932116  0.019766167  0.021001242            4 
  182000   0.97788119   -7.7504576    43.050135    0.0197116  0.020935266            5 
  183000   0.98192736   -7.7517583    43.065057  0.019610682  0.020868342            5 
  184000   0.98971978   -7.7689526    43.304643   0.01961261  0.020802509            1 
  185000   0.95601507   -7.7867352    43.432835   0.01956434  0.020737033            2 
  186000   0.96278777   -7.8513803    43.387027  0.019438632  0.020671438            4 
  187000   0.97849976   -7.8389967    43.464161  0.019369056  0.020604036           14 
  188000   0.97339657   -7.8680101    43.505203  0.019284221  0.020535684            6 
  189000   0.94880645   -7.8753616    43.418064  0.019143767   0.02046649           11 
  190000   0.94476106   -7.8614966    43.701599  0.019167368  0.020396646            5 
  191000   0.97340397   -7.8589926     43.72605  0.019077683  0.020327577            5 
  192000   0.95313046   -7.8018633    43.884183  0.019046954  0.020258522            5 
  193000   0.96080243   -7.8534961    43.926559  0.018966563  0.020188806            4 
  194000   0.95016694   -7.8391997     43.92309  0.018867307  0.020118866            2 
  195000   0.94185442   -7.8334058    44.193878  0.018886272  0.020049216            2 
  196000   0.96100583   -7.8515949    44.106019  0.018752559   0.01997973            3 
  197000   0.94539046   -7.8454603    44.350151  0.018760639  0.019909739            3 
  198000   0.94530157   -7.8327507    44.401027  0.018687301  0.019839475            4 
  199000   0.98145128   -7.8694731    44.340315  0.018567971  0.019769059            9 
  200000   0.95614381   -7.8938402    44.370516  0.018487715   0.01969808            4 
  201000   0.93912676   -7.8660303    44.663651  0.018517268  0.019627089            3 
  202000   0.95590978   -7.8394479    44.749116  0.018460856  0.019557585           11 
  203000   0.95189812   -7.8916493    44.577705  0.018299551  0.019487593            5 
  204000   0.96060531   -7.9259568     44.84127  0.018317512   0.01941824            6 
  205000   0.94346246   -7.8642044     45.13977    0.0183495  0.019350556            7 
  206000   0.92764378    -7.901401    45.226278   0.01829542  0.019282811            2 
  207000   0.93878291   -7.9182117    45.301614  0.018237365  0.019214909            7 
  208000   0.94563724   -7.8999119    45.290482  0.018145225  0.019147439            2 
  209000   0.93099615   -7.9378995    45.350738  0.018082431  0.019080227            4 
  210000   0.93968256    -7.926317    45.433304  0.018029089  0.019012464            3 
  211000    0.9145085   -7.9893183    45.324676  0.017900741  0.018944577            3 
  212000   0.93106604   -7.9425724    45.432979  0.017858875  0.018876568            5 
  213000   0.94049807   -7.9494297     45.56351  0.017826099  0.018807858            4 
  214000   0.91788312   -7.9579311    45.601315  0.017757521  0.018739547           13 
  215000   0.92023527   -7.9787685    45.723039  0.017722108  0.018671615            8 
  216000   0.92634085   -7.9215784    45.928084  0.017719168  0.018604004            6 
  217000   0.91327913   -7.9720361    45.883938   0.01762056  0.018536534            6 
  218000   0.88872227    -7.960226     45.88098  0.017538601  0.018469013            7 
  219000   0.91211193   -7.9675694    46.086385  0.017536676  0.018403003            3 
  220000   0.93865669     -7.96991    46.124895  0.017471551  0.018336424            9 
  221000   0.92895529   -7.9461446    46.262871  0.017444522  0.018269981            8 
  222000   0.91423629   -7.9798335    46.233189  0.017354801  0.018204831           20 
  223000   0.88603615   -7.9581214    46.471476  0.017366022  0.018139876            4 
  224000   0.89318639   -7.9496609    46.641399  0.017351711  0.018075638            8 
  225000   0.91931009   -7.9601367    46.706842   0.01729883  0.018012073            4 
  226000   0.87464422   -8.0303212    46.652778  0.017202352  0.017948266            9 
  227000   0.93128307   -8.0344755    46.692582  0.017141183  0.017884485            5 
  228000   0.89290365   -8.0098303    46.916572   0.01714787   0.01782158            3 
  229000   0.91485598   -8.0630597    46.979041  0.017095721  0.017759429            8 
  230000   0.90128622   -8.0241428    46.922703  0.017000979  0.017696728            9 
  231000   0.90293583   -8.0060313    47.049693  0.016973194  0.017634325            5 
  232000   0.89775616   -8.0608532    47.125999  0.016927442   0.01757262            6 
  233000   0.89777483   -8.0489775      47.0969  0.016844385  0.017510275            9 
  234000   0.89876184   -8.0540296    47.127559  0.016783319  0.017447766            6 
  235000   0.88308786   -8.0234643    47.225435  0.016746608  0.017385194           23 
  236000   0.90913322   -8.0229601    47.362491  0.016724043  0.017322505            9 
  237000   0.88496106   -7.9882228    47.367089  0.016655094  0.017259411           11 
  238000   0.87653168   -8.0628312    47.111487  0.016495619  0.017196326            4 
  239000   0.89737795   -8.0357449    47.383278  0.016521366  0.017132568           12 
  240000   0.86357216   -8.0455054    47.344661  0.016439119  0.017069016            5 
  241000    0.9050141    -8.108951    47.285412  0.016350419  0.017005169            5 
  242000   0.87001102   -8.0836129    47.359655  0.016308421  0.016941804            3 
  243000   0.88746848   -8.0658838    47.535709  0.016301683  0.016878581            7 
  244000   0.88471689   -8.0716611    47.493318  0.016220395  0.016815808            4 
  245000   0.87654077   -8.0917086    47.568009  0.016179595  0.016753474           15 
  246000   0.86894287   -8.0517316    47.796782  0.016191322     0.016692            7 
  247000   0.87379871   -8.0963272      47.8122  0.016130972    0.0166312            4 
  248000   0.88987044   -8.1040429    47.851214  0.016079037  0.016570147           12 
  249000   0.85987987    -8.129644    47.953028  0.016048537  0.016509009            4 
  250000   0.87306317     -8.11445    47.855252  0.015951751  0.016448153            6 
  251000   0.88954217   -8.1315101    47.957124   0.01592202  0.016387417            5 
  252000    0.8725957   -8.1586546    47.887213  0.015835718  0.016326737            4 
  253000   0.85599635   -8.0941593    47.885998  0.015772727  0.016265516            6 
  254000   0.87187072   -8.1477532    47.914056  0.015719834  0.016204688            6 
  255000   0.86422309    -8.157325    48.074071  0.015710481  0.016144188            3 
  256000   0.88068681   -8.1538806    48.038794  0.015637628  0.016083243            4 
  257000   0.86991664   -8.1392137    47.865476  0.015520582  0.016022209           10 
  258000   0.88506494   -8.1302256    48.099137  0.015535897  0.015960811            6 
  259000   0.86600271   -8.1502619    48.084059  0.015471061   0.01590022            5 
  260000   0.84675878   -8.1762625     47.87919  0.015345894  0.015839019            5 
  261000   0.86724367   -8.1401539    47.934838  0.015304865  0.015777968            9 
  262000   0.85159571   -8.1742137    48.145651  0.015313502  0.015717479            7 
  263000   0.85831564   -8.1793323    48.145085  0.015255097  0.015657108            6 
  264000   0.84640243   -8.1751419    48.129676  0.015192448  0.015597397            6 
  265000   0.85655249   -8.2144034    48.152308  0.015142235  0.015537938           16 
  266000   0.84105127   -8.1862473    48.330567  0.015141155  0.015478558            3 
  267000   0.85945111   -8.1737698    48.348024  0.015089895  0.015419501            4 
  268000   0.82779143   -8.2040346    48.399538  0.015049607  0.015361294           23 
  269000   0.85777998   -8.2203697    48.341858  0.014975792  0.015303375            9 
  270000   0.82710466   -8.1747852    48.511697  0.014972746  0.015245857            4 
  271000   0.84420885   -8.2607956    48.466209  0.014903508  0.015187571            8 
  272000   0.83532747   -8.2008344    48.467881  0.014849228  0.015129461           12 
  273000    0.8246975   -8.2442834    48.325475  0.014751366  0.015071077            9 
  274000   0.80682742   -8.2407997    48.628956  0.014789829  0.015013267            9 
  275000   0.83868368   -8.2292226    48.469962  0.014687867  0.014955477            9 
  276000   0.82269762    -8.234077    48.569957  0.014664842  0.014897893            6 
  277000   0.82589144   -8.2829842    48.425951  0.014568577  0.014839933            6 
  278000   0.82500263   -8.2505048    48.452968  0.014524271  0.014782294            9 
  279000   0.82881436   -8.2454728    48.542459  0.014498942  0.014725193           20 
  280000   0.81941755   -8.2235036    48.736118  0.014504797  0.014668593           19 
  281000   0.80797933   -8.2670487    48.697833  0.014441825  0.014612312            8 
  282000   0.82019143   -8.2754625    48.800244  0.014420876  0.014556285            9 
  283000   0.82833822   -8.2701058     48.68658  0.014336449  0.014500336           15 
  284000     0.819899   -8.2843905    48.744576  0.014302986  0.014444282           12 
  285000   0.81737061   -8.2768873    48.673639  0.014232058  0.014388512           17 
  286000   0.81420005   -8.2741775    48.919139  0.014253828  0.014333115           17 
  287000   0.81698992   -8.3115239    48.769605  0.014160745  0.014278033           11 
  288000   0.82930134   -8.2898076    48.750217  0.014105965   0.01422274            8 
  289000   0.80314742   -8.2886939    48.951717  0.014115259  0.014168124            8 
  290000   0.79250557   -8.3331752      48.7132  0.013998046  0.014113785            7 
  291000   0.79300833   -8.2908453    48.991357  0.014029598  0.014059614           10 
  292000   0.80577946   -8.2959653    48.926075  0.013962921  0.014005675            9 
  293000   0.79938361   -8.3279222     48.95174  0.013922565  0.013951534            9 
  294000   0.79941986   -8.3655118    48.841571  0.013843983  0.013897472            6 
  295000   0.80110041   -8.3297404    48.955667  0.013829285  0.013843348            8 
  296000   0.80146505   -8.3064864    48.915734  0.013771322  0.013789654            5 
  297000   0.78423449   -8.3270994    48.932856  0.013729758  0.013735937           15 
  298000   0.80835022   -8.3214618     48.94704  0.013687651  0.013682311            9 
  299000   0.78410775   -8.3187321    48.941864   0.01364043  0.013629145            9 
  300000   0.81231935   -8.3273108    48.998406  0.013610668  0.013576131            8 
  301000   0.78665262   -8.3438412    49.043933  0.013578055  0.013523723           10 
  302000   0.79833139   -8.3504396    49.132061  0.013557412  0.013471495           14 
  303000   0.78479778   -8.3609832    49.096302  0.013502833  0.013419508            9 
  304000   0.77827133   -8.4025396    49.056361  0.013447467  0.013367573           12 
  305000   0.78076248   -8.3950624     48.97316  0.013380645  0.013315877           11 
  306000   0.77810708   -8.3705594    49.111516  0.013374596  0.013264285           10 
  307000   0.77147034   -8.4083496    49.053092  0.013315171  0.013212968           18 
  308000   0.77431863   -8.3609784    49.044691  0.013269668  0.013161721           12 
  309000   0.77680442   -8.3968593    49.140665  0.013252606  0.013110728           12 
  310000    0.7691838   -8.4062808    49.061582  0.013188597  0.013060004           23 
  311000    0.7664537   -8.3766645    49.242924  0.013194781  0.013009649           12 
  312000   0.77231418   -8.3967797    49.184658  0.013136928  0.012959665            9 
  313000   0.77505394   -8.4050154    49.160547  0.013088538  0.012909871            8 
  314000   0.76786642   -8.4009693    49.095206  0.013029513  0.012860124           13 
  315000    0.7741971   -8.4094605    49.276632  0.013036146  0.012810489           14 
  316000   0.76791062   -8.4174165    49.196389  0.012973731  0.012761109           13 
  317000   0.76740712   -8.4397288    49.104077  0.012908538  0.012711903           23 
  318000   0.75106195   -8.4120753    49.127643   0.01287412  0.012662732           24 
  319000   0.75503498   -8.4499131    49.196347   0.01285171   0.01261359           28 
  320000   0.73825094   -8.4361525    49.230881  0.012820542  0.012564513           27 
  321000   0.75853818   -8.4703882    49.101857  0.012747107  0.012515624           26 
  322000   0.75884325   -8.4424406     49.24002  0.012743276  0.012467105           23 
  323000   0.75771346   -8.4595203    49.218488  0.012698268  0.012418518           10 
  324000   0.75795963    -8.458379    49.134065  0.012637362  0.012370138           28 
  325000   0.75909704   -8.4437809    49.208406   0.01261754  0.012321791           14 
  326000   0.74131649     -8.47139    49.208607  0.012578887  0.012273594           15 
  327000   0.75335921     -8.47521    49.197574  0.012537608   0.01222573            9 
  328000   0.74828644   -8.4821321    49.224087   0.01250612  0.012177982           25 
  329000    0.7396606   -8.4671822    49.226496  0.012468717  0.012130552           10 
  330000   0.74545129   -8.4894572    49.114685  0.012402698  0.012083178           32 
  331000   0.74702281   -8.4830938    49.230044  0.012394271  0.012036049           33 
  332000   0.74820533   -8.4944312    49.272116  0.012367499  0.011989023           60 
  333000   0.74774467   -8.4791261    49.142046  0.012297809  0.011942097           24 
  334000    0.7327749   -8.4951947    49.165774   0.01226691   0.01189552           40 
  335000   0.72255594   -8.5104397    49.146253  0.012225436  0.011849117           55 
  336000   0.73477451   -8.4870622    49.187135   0.01219919  0.011802859           50 
  337000   0.73211447   -8.5034705     49.21448  0.012169753  0.011756845           58 
  338000   0.71928069   -8.5156502    49.252443  0.012143107  0.011711016           31 
  339000   0.72508095   -8.4975149    49.276112  0.012113105  0.011665422           32 
  340000   0.72606331   -8.5076591    49.165141   0.01205028  0.011620287           34 
  341000   0.72000711   -8.4996715    49.208976  0.012025654  0.011574999           30 
  342000   0.70675464    -8.528507     49.26209  0.012003433  0.011529929           61 
  343000   0.71146574   -8.5194518    49.268516  0.011969999  0.011485105           41 
  344000   0.72221883   -8.5139046    49.178094  0.011913298  0.011440613           44 
  345000   0.71367797   -8.5743297    49.280168  0.011903422  0.011396171           36 
  346000   0.71884677   -8.5404341    49.236053  0.011858394  0.011351954           27 
  347000   0.71478642   -8.5893571    49.185147  0.011811995  0.011307786           40 
  348000   0.70845559   -8.5661862    49.215087  0.011785222  0.011263824           81 
  349000   0.70783519   -8.5779128    49.181755  0.011743495  0.011219909           29 
  350000   0.69633397   -8.5885204    49.118321  0.011694838  0.011176115           31 
  351000   0.69855557   -8.5900861    49.034652  0.011641655  0.011132454           33 
  352000   0.70783778   -8.5570091     49.29501   0.01167022  0.011089304           53 
  353000   0.70617188   -8.5921151    49.152735  0.011603573  0.011046507           32 
  354000   0.73160451   -8.5723754    49.239291   0.01159117  0.011003719           22 
  355000   0.70139663   -8.5824111    49.225372  0.011555252  0.010961027           38 
  356000   0.70448657   -8.5961915    49.274629  0.011534323  0.010918394           37 
  357000   0.69274494   -8.5994834    49.144708  0.011471687  0.010875951           23 
  358000    0.7010688   -8.5989478    49.086695  0.011426139  0.010833687           50 
  359000    0.7021767   -8.6038232    49.251777  0.011432632  0.010791541           35 
  360000   0.70417176   -8.6108209    49.252076  0.011400944  0.010749714           67 
  361000   0.71624769   -8.5905929    49.206153  0.011358761   0.01070804           53 
  362000   0.68788116   -8.6374274    49.159267   0.01131659  0.010666611           85 
  363000   0.67958197   -8.6266175    49.196574  0.011293979  0.010625243           40 
  364000   0.68931812   -8.6422578     49.17908  0.011258947  0.010584247           39 
  365000   0.68369706   -8.6171963    49.122576    0.0112152  0.010543281           46 
  366000   0.68693428   -8.6179766    49.128381  0.011185879  0.010502554           42 
  367000   0.67214852   -8.6306087    49.208364  0.011173561   0.01046196           57 
  368000   0.69625452   -8.6659336    49.081225  0.011114408   0.01042143           59 
  369000   0.67554453   -8.6319441    49.086513  0.011085482  0.010381116           64 
  370000   0.68148093   -8.6599236    49.177973   0.01107612  0.010340994           81 
  371000   0.67877698   -8.6722894    49.138989  0.011037509  0.010301019           73 
  372000   0.68214394   -8.6801067    49.144836  0.011009148  0.010261144           87 
  373000   0.66597468   -8.6417786    49.188916  0.010989481  0.010221497           73 
  374000   0.67422717   -8.6543413    49.187682  0.010959822  0.010182122           82 
  375000   0.67025345   -8.6823522    49.175467  0.010927881  0.010142899           79 
  376000   0.66992096    -8.681382    49.145259  0.010892123  0.010103808          136 
  377000   0.66014612   -8.6767207    49.133899   0.01086072  0.010064932          188 
  378000   0.66430269   -8.6877076    48.977251  0.010797454  0.010026238          131 
  379000   0.65433971   -8.6856832    49.176101  0.010812687 0.0099876513          136 
  380000   0.66135322   -8.6759446    49.126852  0.010773432 0.0099492577          107 
  381000   0.64991314    -8.700963    49.088709  0.010736813   0.00991092          106 
  382000   0.64245558   -8.7317162    48.937659  0.010675755 0.0098726785           85 
  383000    0.6702882    -8.708494    49.052802  0.010672933 0.0098346398          114 
  384000   0.66032778   -8.7035679    49.010918   0.01063605 0.0097967723          114 
  385000   0.65564252   -8.7233124    49.058604  0.010618746 0.0097590654           96 
  386000   0.65367311   -8.7102347    48.995254  0.010577559 0.0097216682           88 
  387000   0.64539978   -8.7005082    49.094193  0.010571532 0.0096842707          128 
  388000   0.64560998   -8.7170596    49.060709  0.010537094 0.0096471341          120 
  389000   0.64621665   -8.7308152    48.962067  0.010488875  0.009610169          117 
  390000   0.64115542   -8.7107484    49.010354  0.010472298 0.0095732449          222 
  391000   0.64970557   -8.7272831    48.996132  0.010442483 0.0095365347          129 
  392000   0.63610012   -8.7457295    48.936383  0.010403143  0.009499951          100 
  393000   0.63852517   -8.7453712     48.93053  0.010375431 0.0094635583           98 
  394000     0.640284   -8.7466838    48.942203  0.010351566 0.0094272559          150 
  395000   0.64951523   -8.7692823    49.016629  0.010341061  0.009391102          123 
  396000   0.65429542   -8.7527292    48.968477  0.010304814 0.0093550835          106 
  397000   0.63175014   -8.7567144    48.969418  0.010279055 0.0093193996          118 
  398000   0.62791924   -8.7517414    49.044019  0.010268848 0.0092839041           82 
  399000   0.64086302   -8.7516727     49.12341  0.010259693 0.0092486254          109 
  400000   0.63485349   -8.7805433    48.976301  0.010203396 0.0092134985          121 
  401000   0.62151915   -8.7689467    49.030554  0.010189226 0.0091784946           95 
  402000   0.64060923   -8.7609944    48.956509   0.01014853 0.0091436953          102 
  403000   0.62498029   -8.8008844    48.901317  0.010111935  0.009109064           84 
  404000   0.61883113   -8.7511337     49.03352  0.010114175 0.0090745992          201 
  405000   0.61713431   -8.7697338    49.001858  0.010082687 0.0090403724          101 
  406000   0.61969425   -8.8120046    48.946243  0.010046437 0.0090061634          180 
  407000   0.61345581   -8.7857863    48.991554  0.010031031 0.0089721341          160 
  408000   0.61841344   -8.7827886    48.904144 0.0099885915 0.0089381664          117 
  409000   0.62731739   -8.8030737    48.939742 0.0099714225 0.0089043424           94 
  410000   0.62052408   -8.8042214    48.840185 0.0099268669 0.0088707377          102 
  411000   0.62059872   -8.8069867    48.943436 0.0099236489 0.0088371588          102 
  412000   0.59952969   -8.8056404    48.964541  0.009903831 0.0088038006          193 
  413000   0.60504407   -8.7996885    48.975193 0.0098820001 0.0087706086           86 
  414000   0.62810198   -8.8251351    48.899879 0.0098429707 0.0087376298          102 
  415000   0.60329614   -8.8003555    48.883988 0.0098160619 0.0087046881          196 
  416000   0.59848957   -8.8353779     48.86699 0.0097890604 0.0086719292          110 
  417000   0.60605107   -8.8159617    48.852766 0.0097627429 0.0086392877          137 
  418000   0.59551383   -8.8546276    48.814254 0.0097317093  0.008606813          190 
  419000   0.59755026   -8.8317205    48.821406 0.0097099058 0.0085744673          119 
  420000   0.59454233   -8.8516355     48.86238 0.0096949167 0.0085423499          115 
  421000   0.59361183    -8.872845    48.792258 0.0096580082 0.0085103228          161 
  422000   0.61026489   -8.8582878     48.89103 0.0096546268 0.0084784303          118 
  423000   0.59634974   -8.8363203    48.748423 0.0096037083 0.0084466966          118 
  424000   0.58863055   -8.8498789    48.871432 0.0096052343 0.0084151068          160 
  425000   0.59093982   -8.8488877    48.804342 0.0095694788 0.0083836595          105 
  426000   0.58893604   -8.8406843    48.850407 0.0095560265 0.0083524454          147 
  427000   0.57411404   -8.8395947    48.757447 0.0095155049 0.0083213689          186 
  428000   0.58070597   -8.8425147    48.860014 0.0095132425 0.0082905421          125 
  429000    0.5794622   -8.8642784    48.783893 0.0094762808 0.0082597664          108 
  430000   0.57407961   -8.8516513      48.8495 0.0094669573 0.0082290991          127 
  431000   0.58167577   -8.8730914    48.810055 0.0094373656 0.0081985287          128 
  432000   0.58365013   -8.8736941    48.795786 0.0094127673 0.0081680619          269 
  433000   0.58665795   -8.8691895    48.727866 0.0093779572 0.0081377013          139 
  434000   0.57920611   -8.8757161    48.810798  0.009372273 0.0081075098          129 
  435000   0.56862517   -8.8551168    48.915179 0.0093707239  0.008077509          147 
  436000   0.58985093   -8.8778756    48.769782 0.0093214415  0.008047665          249 
  437000    0.5778593    -8.895507    48.744511  0.009295292 0.0080178616          201 
  438000   0.56684998   -8.9059781    48.714699 0.0092683978 0.0079881831          180 
  439000   0.56377704   -8.9086914    48.700937  0.009244673 0.0079586602          155 
  440000   0.57072031   -8.8679476    48.767441 0.0092362577 0.0079292874          239 
  441000   0.55886586   -8.8963629    48.756983 0.0092133376 0.0079000494          116 
  442000   0.56554868   -8.9090678    48.786939 0.0091981408 0.0078708966          153 
  443000   0.56122935   -8.9029655    48.687385 0.0091586502 0.0078419604          132 
  444000   0.55658609    -8.899816    48.682431 0.0091370929 0.0078131885          175 
  445000   0.56371208    -8.919356    48.698037 0.0091194825 0.0077844931          179 
  446000   0.56521847    -8.897111    48.785487 0.0091153749 0.0077560211          183 
  447000   0.55972064   -8.9067145    48.687302 0.0090766783 0.0077276684          343 
  448000   0.55499745   -8.9133481    48.672558 0.0090536753 0.0076993754          137 
  449000   0.54936822   -8.9365245    48.669163 0.0090328811  0.007671182          172 
  450000   0.55152767     -8.93183    48.697148 0.0090179904 0.0076432089          175 
  451000    0.5451174   -8.9254679    48.791344 0.0090153998 0.0076153839          160 
  452000   0.53574634   -8.9365699     48.75158 0.0089881231 0.0075877045          212 
  453000   0.53809283   -8.9498475    48.685337 0.0089560958  0.007560131          172 
  454000   0.54150889   -8.9237143    48.713681 0.0089415714 0.0075327068          170 
  455000   0.53269435   -8.9340423    48.713328  0.008921855 0.0075054036          194 
  456000   0.52778921   -8.9544581    48.570104 0.0088761155 0.0074782385          165 
  457000   0.53104407    -8.948649    48.558648 0.0088546039 0.0074511042          255 
  458000   0.53368553   -8.9414687    48.582807 0.0088396664 0.0074241225          237 
  459000   0.53262079   -8.9362823    48.592546 0.0088221762 0.0073972466          193 
  460000   0.50952886   -8.9422282    48.620325 0.0088080298 0.0073704915          169 
  461000   0.53317343   -8.9405789     48.68911 0.0088013575 0.0073438851          264 
  462000    0.5145727   -8.9541439    48.478732   0.00874436 0.0073173997          133 
  463000   0.52624435   -8.9738641    48.581169 0.0087439109 0.0072910589          166 
  464000   0.52865596   -8.9489046    48.658552 0.0087389642 0.0072647916          174 
  465000   0.52208749   -8.9572127     48.61296 0.0087119999 0.0072386956          280 
  466000    0.5098162   -8.9620879     48.56547 0.0086848122 0.0072126723          188 
  467000   0.51953574   -8.9790971    48.535555 0.0086608771 0.0071866972          175 
  468000    0.5180631   -8.9575784    48.585961 0.0086513463 0.0071608679          192 
  469000   0.51397121   -8.9830814    48.582784 0.0086323354  0.007135131          216 
  470000   0.52524653   -8.9777735    48.560178 0.0086099606 0.0071095102          221 
  471000    0.5146549   -8.9697067    48.529903  0.008586324 0.0070840228          181 
  472000   0.51755135   -8.9733666     48.51073 0.0085647475 0.0070586687          216 
  473000   0.50438884   -8.9714201     48.49781  0.008544364 0.0070334303          364 
  474000   0.50797796   -9.0070846    48.521844 0.0085305633 0.0070082938          192 
  475000   0.50713274   -8.9719925    48.513568 0.0085111522 0.0069832776          193 
  476000   0.50875138   -8.9920727    48.552967 0.0085001694 0.0069583963          207 
  477000   0.50034899   -9.0050313     48.57352 0.0084859399 0.0069336317          272 
  478000   0.49332576   -9.0053776    48.515889 0.0084581396 0.0069090163          218 
  479000   0.50149702   -9.0103133    48.490928 0.0084361391 0.0068844486          178 
  480000   0.50449403   -9.0170796    48.500034 0.0084201447 0.0068600048          197 
  481000   0.50059596   -8.9922553    48.586183 0.0084175646 0.0068357312          222 
  482000   0.50148002   -9.0023406    48.546114 0.0083931733 0.0068115274          278 
  483000   0.48861202   -9.0164082    48.425529 0.0083549913 0.0067874095          196 
  484000   0.49072201   -9.0057695    48.408636 0.0083348202  0.006763416          189 
  485000   0.49606615   -9.0107562    48.556325 0.0083430112 0.0067395262          196 
  486000   0.48863468   -9.0066815    48.521773 0.0083199199 0.0067157727          192 
  487000   0.48404271   -9.0098924     48.41391 0.0082843789 0.0066921068          141 
  488000   0.47435153   -9.0106333    48.429562 0.0082700755 0.0066685419          235 
  489000    0.4876314    -9.015807    48.478248 0.0082614601 0.0066450716          229 
  490000   0.48281078   -9.0234796    48.400956 0.0082314551 0.0066217082          349 
  491000   0.48472832    -9.014826    48.393988 0.0082135078 0.0065984545          346 
  492000   0.47950059   -9.0355074    48.378519 0.0081941936  0.006575308          140 
  493000   0.47903322   -9.0443429    48.332556 0.0081698033 0.0065522416          203 
  494000    0.4826722   -9.0450128    48.391566 0.0081632196 0.0065293257          206 
  495000   0.48336661      -9.0392    48.468084 0.0081596101 0.0065064752          182 
  496000   0.47767342   -9.0470178    48.392875 0.0081305234 0.0064837139          227 
  497000   0.47284599   -9.0467815    48.482091 0.0081291232 0.0064610826          184 
  498000   0.46872491   -9.0496122    48.425523 0.0081033338 0.0064385683          178 
  499000   0.47474093   -9.0597669    48.455956 0.0080921769  0.006416146          274 
  500000   0.46955896     -9.05165    48.393458 0.0080655764 0.0063938462          184 
  501000   0.47676781   -9.0439623    48.383545 0.0080478286 0.0063716513          218 
  502000   0.47115571   -9.0516837    48.384693 0.0080319876  0.006349561          190 
  503000   0.46633446   -9.0690662    48.413679 0.0080208215 0.0063275937          212 
  504000   0.45724246   -9.0657483    48.308887 0.0079875805 0.0063056905          192 
  505000   0.46029687   -9.0728043    48.346534 0.0079779759 0.0062838618          214 
  506000   0.46755927   -9.0748816    48.293576 0.0079534875 0.0062621381          302 
  507000   0.45988461   -9.0713219    48.346185 0.0079464472 0.0062405199          195 
  508000   0.45903507   -9.0755104    48.424721 0.0079436879 0.0062189992          354 
  509000   0.44753203   -9.0922935    48.329627 0.0079125126 0.0061975644          191 
  510000   0.44488778   -9.0906813    48.368838 0.0079034049 0.0061762277          198 
  511000   0.46575859   -9.0779268    48.314458 0.0078790701 0.0061549771          324 
  512000   0.44845285   -9.0880736    48.372881 0.0078731903 0.0061338229          202 
Loop time of 1297.63 on 48 procs for 500000 steps with 4000 atoms

Performance: 66582.797 tau/day, 385.317 timesteps/s
99.4% CPU use with 48 MPI tasks x no OpenMP threads

MPI task timing breakdown:
Section |  min time  |  avg time  |  max time  |%varavg| %total
---------------------------------------------------------------
Pair    | 90.145     | 96.505     | 104.46     |  30.5 |  7.44
Neigh   | 8.6521     | 9.0256     | 9.5061     |   7.6 |  0.70
Comm    | 76.186     | 88.151     | 96.075     |  47.1 |  6.79
Output  | 0.93603    | 0.93699    | 0.96132    |   0.4 |  0.07
Modify  | 1081.2     | 1089.6     | 1097.9     |  14.3 | 83.97
Other   |            | 13.39      |            |       |  1.03

Nlocal:        83.3333 ave          91 max          77 min
Histogram: 2 0 10 9 7 8 5 6 0 1
Nghost:        2332.50 ave        2349 max        2315 min
Histogram: 4 2 4 10 4 3 6 7 4 4
Neighs:        15920.8 ave       17588 max       14253 min
Histogram: 2 1 8 6 6 10 4 7 3 1
FullNghs:      31840.9 ave       34783 max       29386 min
Histogram: 1 1 9 10 8 7 6 4 1 1

Total # of neighbors = 1528365
Ave neighs/atom = 382.09125
Neighbor list builds = 26643
Dangerous builds = 0

#clear
#
#next RN
#
#jump SELF
Total wall time: 0:21:41
