
units lj                  # Use reduced LJ style units
atom_style atomic         # Uncharged point particles
atom_modify map hash      # Needed for indexing of clusters etc
                          # Used to be able to find where atoms are in relation to each other.

lattice fcc 1.0 spacing 1 1 1
Lattice spacing in x,y,z = 1.5874011 1.5874011 1.5874011
region box block 0 10 0 10 0 10 units lattice
create_box 2 box
Created orthogonal box = (0.0000000 0.0000000 0.0000000) to (15.874011 15.874011 15.874011)
  3 by 4 by 4 MPI processor grid
create_atoms 1 box
Created 4000 atoms
  using lattice units in orthogonal box = (0.0000000 0.0000000 0.0000000) to (15.874011 15.874011 15.874011)
  create_atoms CPU = 0.002 seconds
set type 1 type/fraction 2 0.91 78393
Setting atom values ...
  3634 settings made for type/fraction
mass 1 1.0
mass 2 1.0
pair_style lj/cut  3.5
pair_modify tail  yes
pair_coeff 1  1  1.0  1.0   # Intearaction between 1 and 1 set with epsilon = 1 and sigma = 1
pair_coeff 1  2  1.5  0.8
pair_coeff 2  2  0.5  0.88

write_data data.0
System init for write_data ...
Neighbor list info ...
  update every 1 steps, delay 10 steps, check yes
  max neighbors/atom: 2000, page size: 100000
  master list distance cutoff = 3.8
  ghost atom cutoff = 3.8
  binsize = 1.9, bins = 9 9 9
  1 neighbor lists, perpetual/occasional/extra = 1 0 0
  (1) pair lj/cut, perpetual
      attributes: half, newton on
      pair build: half/bin/atomonly/newton
      stencil: half/bin/3d
      bin: standard
WARNING: Not all mixed pair coeffs generated from mixing. Use write_data with 'pair ij' option to store all pair coeffs. (../write_data.cpp:312)


#############################
#   M E L T   S Y S T E M   #
#############################

velocity all create 2.4 9622624 mom yes dist gaussian # Assign velocities
                                                    # Temperature 2.4, random number seed, zero linear momentum
                                                                                # Gaussian distribution

timestep 0.002   # simulation timestep
thermo 1000       # output thermodynamic data every 1000 steps bf 100

# Define a fix  in this case with index 1 applied to all
# particles in the simulation. This fix is for simulations
# in the anisotropic NPT ensemble. Note that we use the MTK
# correction.
fix 1 all npt temp 2.4 2.4 0.1 iso 5.68 5.68 0.5 mtk yes tchain 5 pchain 5 # Use NPT ensemble
                                                                         # Set temperature and pressure and damping
                                                                         # Numbers of thermostats in chain and in barostat
run 10000          # run for 10000 steps
Per MPI rank memory allocation (min/avg/max) = 3.642 | 3.644 | 3.648 Mbytes
Step Temp E_pair E_mol TotEng Press Volume 
       0          2.4    -3.140535            0     0.458565   -2.4974117         4000 
    1000    2.4054235   -2.1628602            0    1.4443729    5.5668963    4047.4539 
    2000     2.346423   -2.1252504            0    1.3935041    6.0670783    3975.8638 
    3000    2.3404124   -2.1884486            0    1.3212923    5.3699484    4027.7632 
    4000    2.3948185   -2.1647444            0    1.4265853    5.6928314    4015.5579 
    5000    2.4221429   -2.1627111            0     1.469595    5.7290306    4022.1736 
    6000    2.3469783   -2.1595839            0    1.3600033    5.8806728    3992.0525 
    7000    2.4143923   -2.1507204            0    1.4699627    5.7335305     4015.435 
    8000    2.4422043   -2.1089682            0    1.5534224    5.6381702    4073.8324 
    9000    2.4110359   -2.1100364            0    1.5056133    5.8713669    4033.0889 
   10000    2.4270892   -2.1931756            0     1.446548    5.7505676    3987.8195 
Loop time of 2.69294 on 48 procs for 10000 steps with 4000 atoms

Performance: 641678.822 tau/day, 3713.419 timesteps/s
99.4% CPU use with 48 MPI tasks x no OpenMP threads

MPI task timing breakdown:
Section |  min time  |  avg time  |  max time  |%varavg| %total
---------------------------------------------------------------
Pair    | 1.0654     | 1.1365     | 1.2362     |   3.1 | 42.20
Neigh   | 0.20392    | 0.21495    | 0.22639    |   0.9 |  7.98
Comm    | 0.76995    | 0.88931    | 1.016      |   7.0 | 33.02
Output  | 0.0002421  | 0.00024944 | 0.00041047 |   0.0 |  0.01
Modify  | 0.33492    | 0.43698    | 0.52813    |   8.5 | 16.23
Other   |            | 0.01493    |            |       |  0.55

Nlocal:        83.3333 ave          97 max          73 min
Histogram: 2 4 6 5 11 14 4 1 0 1
Nghost:        1643.60 ave        1673 max        1614 min
Histogram: 2 2 2 3 13 13 7 3 2 1
Neighs:        9565.27 ave       11080 max        7827 min
Histogram: 1 1 5 4 7 13 9 4 3 1

Total # of neighbors = 459133
Ave neighs/atom = 114.78325
Neighbor list builds = 913
Dangerous builds = 248

# Equilibrate just above the melting temperature to avoid step fn in T

fix 1 all npt temp 1.25 1.25 0.1 iso 5.68 5.68 0.5 mtk yes tchain 5 pchain 5
run 2000
Per MPI rank memory allocation (min/avg/max) = 3.643 | 3.645 | 3.649 Mbytes
Step Temp E_pair E_mol TotEng Press Volume 
   10000    2.4270892   -2.1931756            0     1.446548    5.7505676    3987.8195 
   11000    1.2461255   -3.2516405            0   -1.3829196    5.4781793    3125.6165 
   12000    1.2403293   -3.2180353            0   -1.3580064    5.7629191    3120.7389 
Loop time of 0.597054 on 48 procs for 2000 steps with 4000 atoms

Performance: 578842.462 tau/day, 3349.783 timesteps/s
99.7% CPU use with 48 MPI tasks x no OpenMP threads

MPI task timing breakdown:
Section |  min time  |  avg time  |  max time  |%varavg| %total
---------------------------------------------------------------
Pair    | 0.26133    | 0.28696    | 0.33325    |   2.5 | 48.06
Neigh   | 0.038173   | 0.041375   | 0.048107   |   0.7 |  6.93
Comm    | 0.1741     | 0.22057    | 0.2539     |   3.2 | 36.94
Output  | 4.9839e-05 | 5.1118e-05 | 6.6666e-05 |   0.0 |  0.01
Modify  | 0.036495   | 0.043552   | 0.049327   |   1.8 |  7.29
Other   |            | 0.004543   |            |       |  0.76

Nlocal:        83.3333 ave          91 max          74 min
Histogram: 1 3 4 2 6 10 7 11 3 1
Nghost:        1931.15 ave        1950 max        1903 min
Histogram: 2 3 1 1 6 13 5 6 7 4
Neighs:        12220.0 ave       13814 max       10453 min
Histogram: 2 3 2 4 9 7 12 5 2 2

Total # of neighbors = 586558
Ave neighs/atom = 146.63950
Neighbor list builds = 144
Dangerous builds = 8

#############################
# L I N E A R  Q U E N C H  #
#############################

# Define solid atoms. This closely follows ten Wolde  Ruiz-Montero and Frenkel  Faraday Discuss  1996  104  93-110
# Compute components of the per-atom q6 vector
compute q6 all orientorder/atom degrees 1 6 components 6 nnn NULL cutoff 1.3 # compute the Q6 parameter.
                                                                             # Use all neighbours within 1.3 unit cell.

# get number of connections
compute coord_number all coord/atom orientorder q6 0.5

# An atom is solid if it has 8 or more connections (of a possible 14)
variable is_solid atom c_coord_number>=8
group solid dynamic all var is_solid    # Must be dynamic to update
dynamic group solid defined

# do clustering
compute cluster solid cluster/atom 1.3 # Create a cluster where all atoms within are solid and max 1.3 units from another member

# define chunks one chunk per cluster
compute clus_chunks solid chunk/atom c_cluster nchunk every compress yes  # Says which atoms are in which chunk

# count the size of each chunk
compute size_chunks solid property/chunk clus_chunks count


# Find the maximum entry in the vector of chunk sizes
variable max_n equal max(c_size_chunks)


# Thermo style which includes this variable
# thermo_style custom step temp pe vol v_max_n

thermo ${N}  # Print the thermo information every 100 steps
thermo 1000  

# Reset the npt fix at a lower temperature (below freezing)
fix 1  all npt temp  ${temp} ${temp}  0.1  iso  5.68  5.68  0.5  mtk yes tchain  5  pchain  5
fix 1  all npt temp  0.45 ${temp}  0.1  iso  5.68  5.68  0.5  mtk yes tchain  5  pchain  5
fix 1  all npt temp  0.45 0.45  0.1  iso  5.68  5.68  0.5  mtk yes tchain  5  pchain  5

dump dmp2 all dcd ${N} traj.dcd
dump dmp2 all dcd 1000 traj.dcd


compute msd all msd com yes
variable twopoint equal c_msd[4]/6/(step*dt+1.0e-6)
fix 9 all vector 10 c_msd[4]
variable fit equal slope(f_9)/6/(10*dt)
thermo_style custom step temp pe c_msd[4] v_twopoint v_fit v_max_n

fix 1 all npt temp 1.25 ${temp} 0.1 iso 5.68 5.68 0.5 mtk yes tchain 5 pchain 5
fix 1 all npt temp 1.25 0.45 0.1 iso 5.68 5.68 0.5 mtk yes tchain 5 pchain 5
run 2000000 # 5000000  # Run for this many steps
Neighbor list info ...
  update every 1 steps, delay 10 steps, check yes
  max neighbors/atom: 2000, page size: 100000
  master list distance cutoff = 3.8
  ghost atom cutoff = 3.8
  binsize = 1.9, bins = 8 8 8
  4 neighbor lists, perpetual/occasional/extra = 1 3 0
  (1) pair lj/cut, perpetual
      attributes: half, newton on
      pair build: half/bin/atomonly/newton
      stencil: half/bin/3d
      bin: standard
  (2) compute orientorder/atom, occasional
      attributes: full, newton on
      pair build: full/bin/atomonly
      stencil: full/bin/3d
      bin: standard
  (3) compute coord/atom, occasional
      attributes: full, newton on
      pair build: full/bin/atomonly
      stencil: full/bin/3d
      bin: standard
  (4) compute cluster/atom, occasional
      attributes: full, newton on
      pair build: full/bin/atomonly
      stencil: full/bin/3d
      bin: standard
Per MPI rank memory allocation (min/avg/max) = 9.819 | 9.826 | 9.829 Mbytes
Step Temp PotEng c_msd[4] v_twopoint v_fit v_max_n 
   12000    1.2403293   -3.2180353 7.318657e-31 5.0824005e-33 8.3333333e+20            1 
   13000    1.2698578   -3.2147157    1.0352728 0.0066363637  0.088603308            2 
   14000    1.2229282   -3.2433229    2.1155495  0.012592556  0.089241169            2 
   15000    1.2699544   -3.2101039     3.151228  0.017506821  0.089350604            1 
   16000    1.2651979   -3.2389809    4.2654527  0.022215899  0.088849035            3 
   17000    1.2564653   -3.2069104     5.396987  0.026455818  0.090192319            2 
   18000    1.2516603    -3.236971    6.6236971  0.030665263  0.091577353            2 
   19000    1.2487986   -3.2260307     7.751622  0.033998341  0.092632389            1 
   20000    1.2275131   -3.2161757    8.8541556  0.036892314  0.093185377            1 
   21000    1.2539934   -3.2709018    10.039427  0.039838993  0.093705567            2 
   22000    1.2540174   -3.2274344    11.232025  0.042545548  0.094198958            1 
   23000    1.2274933   -3.2071037    12.339959  0.044709995  0.094360696            1 
   24000    1.2426337   -3.2463377     13.46159  0.046741631  0.094537883            2 
   25000    1.2261165   -3.2465683    14.679851  0.048932836  0.094757321            2 
   26000    1.2421747   -3.2704873    15.797183  0.050631996  0.095103311            2 
   27000    1.2361765   -3.2243541    17.012624  0.052508097  0.095234208            2 
   28000    1.2461557   -3.2534795    17.778838  0.052913207  0.095022377            2 
   29000    1.2436413   -3.2221606    18.911308  0.054342838  0.094630471            2 
   30000    1.2372837   -3.2013406    20.242744  0.056229843  0.094385006            1 
   31000    1.2704827   -3.2154316     21.22641   0.05706024   0.09417551            4 
   32000    1.2440827   -3.2411039    22.278709  0.058017469  0.094011997            1 
   33000    1.2263133    -3.229091    23.239106   0.05868461  0.093844049            1 
   34000    1.2343762   -3.2317737    24.485967  0.060014624  0.093590219            3 
   35000    1.2169018   -3.2322608    25.594245  0.060938677  0.093521928            5 
   36000    1.1974904   -3.2216812    26.931515   0.06234147    0.0935215            2 
   37000    1.2571943   -3.2266809    28.044088   0.06316236  0.093485061            1 
   38000    1.2391142   -3.2243359    29.137219  0.063897409   0.09344453            2 
   39000    1.2339596   -3.2463504    30.168515  0.064462637   0.09349768            1 
   40000    1.2336542   -3.2428696    31.362833  0.065339234  0.093548917            1 
   41000    1.2130739    -3.249881    32.258786  0.065566637   0.09351561            2 
   42000    1.2361616   -3.2084302    33.533982  0.066535678  0.093471561            1 
   43000    1.2431788   -3.2239988    34.658672  0.067167968  0.093438535            2 
   44000    1.2453625   -3.2296116    35.505987  0.067246187  0.093364857            1 
   45000    1.2477155    -3.185619    36.874554  0.068286211  0.093317668            2 
   46000     1.229315   -3.2279361    37.702066  0.068300844  0.093192628            1 
   47000    1.2165121    -3.246585    38.890606  0.068954975  0.093083689            2 
   48000    1.2295963     -3.23813    39.883778   0.06924267  0.092970423            2 
   49000    1.2336084   -3.2274014    41.359285  0.070338919  0.092949685            1 
   50000    1.1767132   -3.2526041    42.361983  0.070603304   0.09294088            1 
   51000    1.2484667   -3.2198889    43.724812   0.07144577  0.092913483            2 
   52000    1.2615287   -3.2425444    44.435643  0.071210966  0.092936342            1 
   53000    1.2483765   -3.2447301    45.781745  0.071983876  0.092927654            2 
   54000    1.2367297   -3.2551494    47.016051  0.072555633  0.093006597            1 
   55000    1.2431384     -3.26205    48.116757  0.072904176  0.093094394            2 
   56000    1.2406387    -3.235894    49.145969  0.073133881  0.093108404            2 
   57000    1.2421715    -3.256138    50.243611  0.073455571  0.093097445            2 
   58000    1.2255209   -3.2441057    51.498846  0.073992595  0.093131292            4 
   59000    1.2101869    -3.268928    52.191128  0.073716282  0.093117138            1 
   60000    1.2300534   -3.2519184    53.543379  0.074365804  0.093105609            2 
   61000    1.2495167   -3.2236809     54.80317  0.074867718  0.093076551            1 
   62000    1.2434615   -3.2442439    56.110249  0.075417001  0.093077441            1 
   63000     1.237745   -3.2353455    57.109896   0.07554219  0.093116117            2 
   64000    1.2375374   -3.2557125    58.341895  0.075966009   0.09317197            1 
   65000    1.2241266   -3.2453553    59.350277  0.076090099  0.093231195            4 
   66000    1.2371982   -3.2842016    60.160721  0.075960506  0.093248041            1 
   67000    1.2156498   -3.2439344    61.786888  0.076849362  0.093248515            1 
   68000    1.2280076   -3.2305508    62.953108  0.077148416  0.093277197            2 
   69000    1.2349543   -3.2606474    64.231766  0.077574596  0.093315895            3 
   70000    1.2539537   -3.2358775    65.379901  0.077833214  0.093369595            1 
   71000    1.2325273   -3.2433052    66.735595  0.078328163  0.093431988            2 
   72000    1.2334485   -3.2154871    67.297311  0.077890405   0.09349334            3 
   73000    1.2037057   -3.2459681    68.561833  0.078266933  0.093524103            2 
   74000      1.21705   -3.2875844      69.2638  0.077999774  0.093520703            1 
   75000    1.2150466   -3.2704584    70.311081  0.078123423  0.093514034            1 
   76000    1.2015875   -3.2167108    71.444876  0.078338679  0.093495696            2 
   77000    1.2261569   -3.2745785    72.617161      0.07859  0.093480863            2 
   78000    1.1960803   -3.2736578    73.464758  0.078487989  0.093446541            3 
   79000    1.2059057   -3.2724636    74.406663  0.078488041  0.093416717            2 
   80000    1.2376575   -3.2633975    75.663921  0.078816584  0.093382089            4 
   81000    1.2148309   -3.2550548     77.24235  0.079467438  0.093361539            1 
   82000    1.2373488   -3.2760724    77.891397  0.079157923  0.093346056            2 
   83000    1.2094938   -3.2787998     79.12869  0.079446475  0.093335741            2 
   84000    1.2209773   -3.2633547    80.329174  0.079691641  0.093315762            3 
   85000    1.2113768   -3.2379149    81.366394  0.079770974  0.093297814            1 
   86000    1.2343915   -3.2644963    82.714691  0.080149894  0.093264783            1 
   87000    1.2292146   -3.2533023    83.166384  0.079661287  0.093236711            1 
   88000    1.2074195   -3.2576775     84.00321  0.079548494  0.093177715            2 
   89000    1.2048948   -3.2605525     85.48691  0.080043923  0.093123787            1 
   90000    1.2086816   -3.2768543    85.956528  0.079589378  0.093079509            2 
   91000    1.2204843   -3.2389616    87.548021   0.08017218  0.093020481            2 
   92000    1.2198644   -3.3289872    87.825393  0.079551986  0.092943263            1 
   93000    1.2001788   -3.2584484    89.331743  0.080046365  0.092874014            2 
   94000     1.236241   -3.2390676    90.188114  0.079954001  0.092802263            1 
   95000    1.2085993    -3.246699    91.499193   0.08026245  0.092717728            2 
   96000    1.2026063   -3.2770425     92.26436   0.08009059   0.09262955            1 
   97000    1.2117239   -3.2678887    93.796567  0.080581242    0.0925503            2 
   98000    1.2299927    -3.320463    93.901945  0.079848592  0.092472526            2 
   99000    1.2107423   -3.3099446     94.82187  0.079816389  0.092383802            1 
  100000    1.1980025   -3.2968962    96.556222  0.080463518  0.092293913            1 
  101000    1.2329953   -3.2779041    98.228317  0.081046466  0.092218412            1 
  102000    1.2008868   -3.2719503    99.154237  0.081008363  0.092167875            4 
  103000    1.2199973   -3.2825147    99.870514  0.080801387   0.09211798            1 
  104000    1.2190234   -3.2515828    100.73665  0.080718472  0.092079424            2 
  105000    1.2357413    -3.275855    102.44489  0.081305464  0.092037232            2 
  106000    1.2149319   -3.2632448    103.33298  0.081236619  0.092004498            2 
  107000    1.1942812   -3.2630532    104.33117  0.081254803  0.091964603            1 
  108000    1.2274192   -3.2548742    105.53071  0.081428013  0.091922406            4 
  109000    1.1825833   -3.2587341    106.91446  0.081738884  0.091884694            2 
  110000    1.2117905   -3.2526127    107.86316  0.081714515  0.091843935            2 
  111000    1.2402674   -3.2586545    108.87963  0.081741464  0.091819576            2 
  112000    1.2077732   -3.2504454    109.62251   0.08156437  0.091793818            1 
  113000    1.2149172   -3.2669433    111.30245  0.082081451  0.091771146            2 
  114000    1.1850924   -3.2698295    112.26481  0.082064916  0.091751526            2 
  115000    1.2283701   -3.2862113     113.2317  0.082051956   0.09171145            4 
  116000    1.1972093   -3.2977341    113.65195  0.081646512  0.091668511            1 
  117000    1.1898557   -3.2655298    115.00387  0.081911591  0.091625486            1 
  118000    1.2041682   -3.2455134    116.24933  0.082096987   0.09159188            2 
  119000    1.1947307   -3.2989721    116.92132  0.081877676  0.091555061            1 
  120000    1.2036783   -3.2747675    118.54509  0.082322976  0.091526812            3 
  121000    1.1994833   -3.2747077    119.31354  0.082171861  0.091503762            3 
  122000    1.1798295   -3.2480096    120.47207  0.082289666  0.091468255            3 
  123000    1.1895706    -3.262075    121.10671  0.082050615   0.09143807            1 
  124000    1.2046104   -3.2867042     123.2406  0.082822981  0.091411096            1 
  125000     1.226088   -3.2760074    123.93573  0.082623818  0.091389391            4 
  126000    1.1975142   -3.2291425    124.96451  0.082648483  0.091370453            2 
  127000    1.2172444   -3.2970374    125.55109  0.082382606  0.091330784            1 
  128000    1.1947536   -3.3232092    125.99043  0.082025018  0.091277326            2 
  129000    1.1891802   -3.3009645    127.21745  0.082181818  0.091219239            3 
  130000    1.2232105   -3.2885277    128.29995  0.082243558  0.091162572            1 
  131000     1.205114   -3.2458335    128.87184  0.081979541  0.091101457            1 
  132000    1.2045853   -3.2524642    130.27913  0.082246924  0.091047073            3 
  133000    1.2166565   -3.2900589    131.46143  0.082369316   0.09099283            2 
  134000    1.2080397   -3.2975295    133.08548  0.082764601  0.090953023            3 
  135000    1.1962418   -3.2595115    133.63851  0.082492907  0.090915717            4 
  136000    1.1912705   -3.3163284    133.87862  0.082033471  0.090873237            2 
  137000    1.1935298   -3.2705914    136.09839  0.082784907  0.090838429            1 
  138000     1.184936   -3.2628315    136.99846   0.08272854  0.090804554            1 
  139000    1.2008449   -3.2663897    138.86135  0.083250207  0.090784279            1 
  140000    1.1824512   -3.2728188    140.21471  0.083461138  0.090767621            1 
  141000    1.1825276   -3.2560588    140.95522   0.08330687  0.090753162            2 
  142000    1.1926808   -3.3284042    141.58394  0.083089165  0.090736926            2 
  143000    1.1751888   -3.2735664    143.44155  0.083590648  0.090715437            2 
  144000    1.1976531   -3.2601643    143.89234  0.083271032  0.090698379            1 
  145000    1.1825014   -3.2956446    144.16167  0.082851532  0.090674905            2 
  146000    1.2132295   -3.2587996    146.07203  0.083374443  0.090649856            1 
  147000    1.1871084   -3.3031114    146.37092  0.082976713  0.090624157            3 
  148000    1.1926462   -3.2833857    148.06399  0.083369364  0.090594125            3 
  149000    1.1980257   -3.3008871     149.0179  0.083343346   0.09056727            3 
  150000    1.2003511   -3.2828717    149.30193  0.082945516  0.090540082            1 
  151000    1.2095494   -3.2654671    150.51674  0.083066631  0.090500394            2 
  152000    1.1891391   -3.2688656    151.30539  0.082952515  0.090454149            1 
  153000    1.1926511   -3.3151597    151.33793  0.082428064  0.090402611            2 
  154000    1.1865033   -3.3099971    153.26639  0.082936359  0.090351769            1 
  155000    1.1938195   -3.2919799    154.75933  0.083203941  0.090302541            4 
  156000    1.1946806   -3.2769168    155.15227  0.082880487  0.090254448            1 
  157000    1.2187828   -3.3059082    156.65343  0.083149377  0.090214416            1 
  158000     1.204799    -3.259865    157.60669  0.083125892  0.090181175            1 
  159000    1.1899796   -3.2890623    158.49693  0.083069669  0.090140304            1 
  160000    1.1814751   -3.3068473    159.30945  0.082973672  0.090096079            1 
  161000    1.1964002   -3.2691235    160.87773  0.083270044  0.090056961            3 
  162000    1.1909315   -3.2691319      162.428  0.083553497  0.090017765            2 
  163000    1.1802139   -3.3188429    163.44508   0.08356088   0.08998661            2 
  164000    1.2217049   -3.2853957    164.03799  0.083352639  0.089957847            1 
  165000    1.1657557   -3.2721338    165.73877  0.083706451   0.08993239            2 
  166000    1.1848395   -3.2996863    165.60849  0.083136792  0.089899877            1 
  167000    1.1893525   -3.3220722    166.02831   0.08284846  0.089865284            3 
  168000    1.1760869   -3.3208915    168.32556  0.083494821  0.089830957            1 
  169000    1.1984889   -3.3038034    169.20799  0.083435891  0.089800448            2 
  170000    1.1715023   -3.2995529    170.53514  0.083595658  0.089764202            1 
  171000    1.1923365   -3.2624583    171.56573  0.083609031  0.089728081            1 
  172000    1.1563608   -3.2894167    171.75782  0.083215996  0.089690479            3 
  173000    1.1867955   -3.3192616    172.02786  0.082865059  0.089651773            3 
  174000    1.1867836   -3.2834442    174.63797  0.083638874  0.089611429            3 
  175000    1.2133964   -3.3111106    174.27281  0.082987052  0.089567433            2 
  176000    1.1780699   -3.3054117    174.69334  0.082714651  0.089511741            2 
  177000    1.1652378   -3.3103938    176.34246  0.083023758  0.089461284            3 
  178000    1.1461514   -3.2781321     177.0092  0.082869476  0.089409542            3 
  179000    1.1804346   -3.3256157    177.15354  0.082473713  0.089358008            3 
  180000    1.1873781   -3.3179181    179.57985  0.083138819  0.089310651            1 
  181000     1.160574   -3.3435627    179.50055   0.08264298  0.089265864            1 
  182000    1.1828327   -3.3161485    180.96404  0.082858991  0.089221263            3 
  183000    1.1744639    -3.286175    182.59122  0.083147183  0.089185837            1 
  184000     1.191484   -3.3254095    184.17811  0.083413999   0.08915513            2 
  185000      1.18517   -3.3156374    184.76908  0.083229317  0.089118922            3 
  186000    1.1981447   -3.3246974    185.82292  0.083253995  0.089079749            2 
  187000    1.1695181   -3.2779426    187.21679  0.083429942  0.089044712            2 
  188000    1.1715864   -3.3168592    187.41738   0.08307508  0.089008009            5 
  189000    1.1707088   -3.3109341    189.18027  0.083412816  0.088975927            1 
  190000    1.1767156   -3.2980778    189.74621  0.083222023  0.088936384            1 
  191000    1.1942886    -3.292573    190.63711  0.083175003  0.088903334            1 
  192000     1.171573   -3.3135927    191.62894  0.083172283  0.088871905            3 
  193000    1.1686925   -3.3263854    193.94424  0.083741035  0.088845617            5 
  194000    1.1803877   -3.3309832    193.48204  0.083110843   0.08881731            2 
  195000    1.1835871   -3.2896978    195.61487  0.083596098  0.088793088            2 
  196000    1.1580432   -3.2946865    196.99682  0.083757152  0.088774724            2 
  197000    1.1942555   -3.3253849    197.73562  0.083644508  0.088750206            2 
  198000    1.1588135   -3.3076725    199.17125  0.083826282  0.088731231            2 
  199000    1.1945227    -3.307183    199.85299  0.083690533  0.088716608            2 
  200000    1.1727696   -3.2931928    201.10174  0.083792392  0.088697096            2 
  201000    1.1820839   -3.3119311    202.32489  0.083882623  0.088678461            2 
  202000    1.1571741   -3.3239729    203.53554  0.083966807  0.088655179            4 
  203000    1.1586281    -3.326309    202.92071  0.083300784  0.088626723            1 
  204000    1.2199895   -3.3385783    204.05441  0.083355559  0.088593326            2 
  205000    1.1806878   -3.3150479    205.39684   0.08349465  0.088562015            2 
  206000    1.1732399     -3.32451    205.62581  0.083181962  0.088526985            2 
  207000    1.1920346    -3.293404    207.13188  0.083386426   0.08849286            1 
  208000    1.1709919   -3.3264396    207.45298  0.083114173  0.088462064            2 
  209000    1.1822914   -3.3186067    208.71787  0.083220842  0.088429044            2 
  210000    1.1909996   -3.3204612    209.97787  0.083324553  0.088391855            3 
  211000    1.1712619   -3.3164914     210.7936  0.083251817   0.08836121            2 
  212000     1.186427   -3.3270781    211.80307  0.083255922   0.08832168            1 
  213000    1.1360733   -3.3030798    212.92204  0.083302833  0.088281648            3 
  214000    1.1689422   -3.3029829     213.5397  0.083154087  0.088243622            2 
  215000     1.188947    -3.326612    213.74119  0.082845424  0.088202261            2 
  216000    1.1611317    -3.361837     214.6798  0.082823997  0.088160835            1 
  217000    1.1470024   -3.3226112    216.36445  0.083089267  0.088122237            3 
  218000    1.1359977   -3.3474388    216.12964  0.082618363  0.088079092            2 
  219000    1.1849904   -3.3128397    217.44145  0.082740277  0.088036181            2 
  220000     1.147664   -3.3464571     217.9393  0.082552764  0.087989355            2 
  221000    1.1807795   -3.3196641    219.88348  0.082912323  0.087944523            2 
  222000    1.1512902   -3.3079329    220.95795  0.082942173  0.087905319            2 
  223000    1.1685339   -3.3165221    221.95905  0.082944338  0.087859813            2 
  224000    1.1484459   -3.2918362    222.75688  0.082870861  0.087815407            1 
  225000    1.1701259   -3.3167496    224.02098  0.082970735  0.087773895            2 
  226000    1.1713155   -3.2924472    225.32913  0.083085961   0.08773147            1 
  227000    1.1653557   -3.3489547     224.8687  0.082550917  0.087690955            2 
  228000    1.1651032   -3.3145854    226.34147  0.082727145   0.08764746            3 
  229000    1.1774519   -3.3450869    226.51686  0.082429716  0.087603256            2 
  230000    1.1653011   -3.3363755    227.71347  0.082504881  0.087561038            3 
  231000    1.1603722   -3.3262267     228.6824  0.082497258  0.087518309            2 
  232000    1.1626123   -3.3142575    229.67359  0.082497698  0.087474346            2 
  233000    1.1577526   -3.3162623     231.1367  0.082666918  0.087429611            1 
  234000    1.1690606   -3.3437213    232.33239  0.082739455  0.087384905            2 
  235000    1.1455377    -3.322868    232.76703    0.0825415  0.087340722            1 
  236000    1.1752303   -3.3651842    233.33861  0.082393577  0.087296386            2 
  237000    1.1469244    -3.344906     234.1917  0.082345886  0.087252188            2 
  238000    1.1789518   -3.3459061    236.14257  0.082682974  0.087205683            3 
  239000    1.1483805   -3.3444841    236.14291  0.082337136  0.087160159            2 
  240000    1.1585504   -3.3374076    236.95092  0.082274624  0.087114134            3 
  241000    1.1605589   -3.3256743    238.71074  0.082541748  0.087065762            3 
  242000    1.1548593    -3.324268    238.03641  0.081968461  0.087012664            3 
  243000    1.1527972   -3.3703994    237.25004  0.081361469  0.086955547            2 
  244000    1.1176726   -3.3256973    240.08855  0.081997454  0.086897804            2 
  245000     1.182311   -3.3536481    239.51173  0.081466573  0.086840692            2 
  246000    1.1449419   -3.3445947    241.34291  0.081755727  0.086785255            1 
  247000    1.1453778   -3.3438721    242.11648  0.081685723  0.086732902            1 
  248000    1.1633291   -3.3411147    242.73961  0.081565731  0.086676739            2 
  249000    1.1547951   -3.3376046     244.3181  0.081766431  0.086619651            1 
  250000    1.1584477   -3.3707795     244.9398  0.081646598  0.086563193            1 
  251000    1.1581745   -3.3275654    247.05207  0.082022601  0.086510105            1 
  252000    1.1689268   -3.3869343     248.4955  0.082174438  0.086461966            2 
  253000    1.1601885    -3.352173    248.55258  0.081868439  0.086411482            4 
  254000    1.1417358     -3.34131    250.78943  0.082279996  0.086365116            1 
  255000    1.1422033   -3.3783129    250.01546  0.081704398  0.086321431            2 
  256000     1.139967   -3.3548151    251.45969  0.081855367  0.086276989            3 
  257000    1.1660128   -3.3353095    252.87558  0.081995972  0.086228454            3 
  258000    1.1513799   -3.3256159    253.51643  0.081885153   0.08618333            4 
  259000    1.1333705   -3.3335851    255.18225  0.082104969  0.086142318            2 
  260000    1.1692019    -3.359626    255.35997  0.081846144  0.086099217            1 
  261000    1.1514976   -3.3369678    256.36924  0.081854803   0.08605383            2 
  262000    1.1541872   -3.3251829    259.30464  0.082476031  0.086010665            2 
  263000    1.1541612   -3.3097723    258.98408  0.082060861  0.085970149       -1e+20 
  264000    1.1712367   -3.3507283    259.52595  0.081921071  0.085930611            4 
  265000    1.1470003   -3.3685118    259.40259   0.08157314  0.085887231            2 
  266000     1.150308   -3.3549473    260.37876  0.081572294  0.085841672            2 
  267000    1.1623856   -3.3494756    261.01556   0.08146553  0.085797559            1 
  268000    1.1424763   -3.3273256    262.91485  0.081752131  0.085754534            2 
  269000    1.1571224   -3.3630253    263.00807  0.081477096  0.085712098            2 
  270000     1.127862   -3.3657933     263.0401  0.081185215  0.085663518            3 
  271000    1.1788905    -3.349629    263.73666  0.081099833  0.085614054            2 
  272000    1.1377225   -3.3301208    266.13669  0.081536977   0.08556633            1 
  273000    1.1467624   -3.3646408    266.03343  0.081206786  0.085516363            2 
  274000    1.1361871   -3.3580561    268.27086  0.081590894  0.085469438            4 
  275000    1.1230531   -3.3490556    268.57845   0.08138741  0.085422766            2 
  276000    1.1622483   -3.3514177    269.88379  0.081486651  0.085379606            2 
  277000     1.163728   -3.3428417    269.56663  0.081097062  0.085331241            1 
  278000    1.1581032   -3.3529158    269.12676  0.080673489  0.085277755            2 
  279000    1.1654402   -3.3439577    270.41936  0.080770419  0.085225045            1 
  280000    1.1457547   -3.3441149    270.68914  0.080562245  0.085170504            2 
  281000    1.1478461   -3.3458141     271.8943  0.080632948  0.085112157            1 
  282000    1.1199356   -3.3450259    273.63218  0.080860574  0.085054833            5 
  283000    1.1479171   -3.3660685    273.86257  0.080642687  0.085000881            2 
  284000    1.1481766   -3.3408985    275.49241  0.080836975  0.084945917            3 
  285000    1.1332764   -3.3585267    275.89502  0.080671058  0.084890826            2 
  286000    1.1322584   -3.3544345    275.57505  0.080295759  0.084836641            1 
  287000    1.1446485   -3.3787545    278.00877  0.080722639  0.084782072            2 
  288000     1.147158   -3.3706221    278.36181  0.080544506  0.084726834            1 
  289000    1.1356906   -3.3591726    279.46843  0.080584898  0.084674914            2 
  290000    1.1295762   -3.3558591    281.55255  0.080905905  0.084625873            4 
  291000    1.1528402   -3.3494315    281.36115  0.080573067  0.084577163            2 
  292000    1.1450367   -3.3698298    281.39189  0.080305904  0.084529827            1 
  293000     1.159118   -3.3517525    283.42679  0.080610578  0.084483752            3 
  294000    1.1337315     -3.35953    284.49011  0.080637786  0.084439785            3 
  295000    1.1340255    -3.346125     285.3937   0.08061969  0.084394573            4 
  296000    1.1373111   -3.3683225    285.77436  0.080454494  0.084348829            2 
  297000    1.1333357   -3.3512937    287.35166  0.080626166   0.08430364            4 
  298000    1.1266889   -3.3734486    288.19636  0.080591824  0.084260282            1 
  299000     1.138449   -3.3262302     290.0904  0.080850167  0.084217213            2 
  300000     1.143075   -3.3858241     289.9857  0.080551584  0.084173577            2 
  301000     1.153696   -3.3702007    291.49313  0.080701309   0.08412603            1 
  302000    1.1058336   -3.3607664    292.43426  0.080693781  0.084080152            2 
  303000    1.1332436   -3.3494319    292.27512  0.080383696  0.084038681            2 
  304000    1.1304889   -3.3857067    294.63555  0.080766325   0.08399651            2 
  305000    1.1180686   -3.3595453    295.51827  0.080742696   0.08395882            1 
  306000    1.1331967   -3.3760432    296.37856  0.080713114   0.08392187            2 
  307000    1.1502272   -3.4039111     296.3832  0.080451465  0.083885461            3 
  308000    1.1230129   -3.3774361    299.18534  0.080948415   0.08384991            1 
  309000    1.1362734   -3.3532263    299.32428  0.080723915  0.083813221            2 
  310000    1.1292223   -3.3877307    298.78892  0.080319602  0.083773232            6 
  311000    1.1569404   -3.3650217    300.44687  0.080505593  0.083733874            2 
  312000     1.126975   -3.3529986    301.91977  0.080640964  0.083696149            1 
  313000    1.1430908   -3.3581081     302.4385  0.080521432  0.083657072            3 
  314000    1.1257407   -3.3633776     303.9717  0.080671894  0.083617955            2 
  315000    1.1324994   -3.3840949    303.74699  0.080356348  0.083581717            3 
  316000    1.1382507   -3.3830333    305.66004  0.080606551  0.083545709            2 
  317000    1.1367583   -3.3525802    306.01659  0.080446001  0.083510696            5 
  318000    1.1306405   -3.3755569    307.19662  0.080502259  0.083477117            1 
  319000    1.1187058   -3.3902761    308.77873    0.0806632  0.083444763            4 
  320000    1.1267929   -3.3852388    309.62429  0.080631324  0.083410591            1 
  321000    1.1230149   -3.4000019    310.15083  0.080516831  0.083373223            4 
  322000    1.1349035   -3.3567058    310.28201  0.080300726  0.083335139            2 
  323000    1.1007957    -3.361681    312.05149   0.08050864  0.083299989            1 
  324000    1.1353282   -3.3840378    311.55406  0.080132216  0.083263178            3 
  325000    1.1292624   -3.3956595    311.45672  0.079860697  0.083224947            3 
  326000    1.0917172   -3.3871185      312.908  0.079986707  0.083185789            3 
  327000    1.1380887    -3.411375    313.16953  0.079808748  0.083144076            3 
  328000    1.1286377   -3.3944886    315.34129  0.080117199  0.083104115            3 
  329000    1.1325395   -3.3562095    315.61681  0.079943467  0.083063498            2 
  330000    1.1060467   -3.3899301    317.44486  0.080162843   0.08302384            2 
  331000    1.1280695   -3.3704369    317.58782  0.079956651  0.082983892            5 
  332000    1.1200779   -3.3591774    318.13128   0.07985223  0.082940341            2 
  333000    1.1225286     -3.39097    317.83053  0.079537169  0.082894726            2 
  334000    1.1033885    -3.367265    319.35707  0.079679908  0.082849735            3 
  335000    1.1123235   -3.3899645     321.4934  0.079973483  0.082809174            2 
  336000    1.1334179   -3.3964668    323.24129  0.080168972  0.082769363            4 
  337000    1.1268715   -3.3928613     321.9841  0.079620203  0.082730277            2 
  338000    1.1168476   -3.3596899    325.66751  0.080292779  0.082691693            1 
  339000     1.106485   -3.3965819    323.09551  0.079423676  0.082655726            6 
  340000    1.1165692   -3.3641248    326.90325  0.080123345  0.082618714            2 
  341000    1.1244243   -3.3610538    327.19642  0.079960023  0.082581542            2 
  342000    1.1263068   -3.3908137    325.55904  0.079327251  0.082543579            1 
  343000    1.1273166   -3.3759475    328.54397  0.079821177  0.082505532            2 
  344000    1.1227925   -3.3854006    329.71273  0.079872269  0.082470983            2 
  345000    1.1147491    -3.398997    330.26387   0.07977388  0.082433829            1 
  346000    1.1208902   -3.4216175    330.45236  0.079588718  0.082398667            2 
  347000    1.1283792   -3.4014271    333.36565  0.080058993  0.082366932            1 
  348000    1.1189605   -3.4143122     332.1028  0.079526532  0.082333383            1 
  349000    1.1064957   -3.3826352    335.00895  0.079992586  0.082300048            2 
  350000    1.1192752   -3.3735687    335.50987  0.079883302    0.0822644            2 
  351000    1.1329238   -3.3853447    337.22235  0.080062287  0.082230919            2 
  352000    1.1006987   -3.4053814    336.57647   0.07968193  0.082199382            2 
  353000    1.0764718   -3.3973982    337.56293  0.079689077  0.082165889            8 
  354000    1.1112843   -3.3707836    338.17113   0.07960714  0.082133454            2 
  355000    1.1421017   -3.3940699    339.85413  0.079777966  0.082103091            2 
  356000    1.1044313   -3.3975541    340.28794  0.079655417  0.082069126            4 
  357000    1.1175498   -3.3946037    340.57515  0.079499336  0.082035947            2 
  358000    1.1128688   -3.3948099    341.44755  0.079480342   0.08200451            2 
  359000    1.1022699   -3.3771297    343.88335  0.079824361  0.081973516            3 
  360000    1.1121528   -3.3589529    344.30001  0.079699076  0.081940257            1 
  361000    1.1112452   -3.3793517    345.51204  0.079758088  0.081907921            3 
  362000    1.1081824   -3.3561763    346.04149  0.079659643  0.081876017            1 
  363000    1.1366465   -3.3594477    346.48427  0.079541843  0.081842896            3 
  364000    1.1408577   -3.4005054    348.01236  0.079673158  0.081809545            3 
  365000    1.1065594   -3.4076421    348.07222  0.079468543  0.081777665            2 
  366000     1.094581    -3.416884     348.4844  0.079345264  0.081744844            2 
  367000    1.1019338   -3.3901961    350.13388  0.079503605  0.081710097            2 
  368000    1.1066613   -3.4322999    349.68708  0.079186386  0.081675833            4 
  369000    1.1229665   -3.3978142    350.65301   0.07918993  0.081643297            4 
  370000    1.0988223   -3.4205647    351.51002  0.079168923  0.081610482            1 
  371000    1.1310432   -3.4440478    352.03148  0.079072658  0.081574315            2 
  372000    1.0831824     -3.39612    350.88371  0.078602981  0.081534513            2 
  373000     1.108147    -3.401801    353.81704  0.079047596  0.081495897            1 
  374000    1.1388889   -3.3887283     354.2831  0.078940085  0.081459011            3 
  375000    1.1194015   -3.4080618    355.39839  0.078977419  0.081418575            2 
  376000    1.1189635   -3.4063333    354.79712  0.078634113  0.081381433            4 
  377000    1.1234193   -3.3761985    355.04579  0.078480503  0.081338765            3 
  378000     1.098318    -3.404449    355.39116  0.078349021  0.081295923            1 
  379000    1.1006514   -3.3988779    356.51018  0.078388341  0.081251674            1 
  380000    1.0759364   -3.4419218    356.88027  0.078263217  0.081206745            2 
  381000    1.0847989   -3.4259969    357.52191  0.078198143  0.081165574            2 
  382000    1.1132557   -3.4260215    359.04833  0.078326424  0.081122447            9 
  383000    1.1140735   -3.3841364    361.98746  0.078761415  0.081083825            1 
  384000    1.0878503   -3.4170012    360.28514  0.078186879  0.081042678            2 
  385000    1.1151626   -3.4220913    362.35512  0.078431845  0.081000873            2 
  386000     1.079075   -3.3895315    362.73385  0.078310416  0.080960546            2 
  387000    1.1081523   -3.4120061    364.21272  0.078426511  0.080920878            3 
  388000    1.0812476   -3.4193522    366.13297  0.078636807  0.080881521            1 
  389000    1.0792936   -3.4126231    365.80468  0.078364327  0.080842009            2 
  390000    1.1195667   -3.4328132    365.56156  0.078111444  0.080802768            1 
  391000     1.100253   -3.3928656     367.4241  0.078308631  0.080763049            1 
  392000    1.0996136   -3.4196713    368.71072  0.078382381  0.080723388            1 
  393000    1.1048693   -3.4128448    369.27393  0.078302361  0.080683346            2 
  394000    1.1048119   -3.4103945    369.69471   0.07819262  0.080644691            3 
  395000    1.1259882   -3.4144392    371.88024  0.078455747  0.080606085            4 
  396000    1.1086114   -3.4237412    372.27543   0.07834079  0.080570614            1 
  397000    1.0950831   -3.4237889    372.55206  0.078201523  0.080535131            1 
  398000    1.1141141   -3.4229492    373.16717   0.07813383  0.080498824            2 
  399000    1.0957164   -3.4184961    374.94331  0.078308961  0.080462061            1 
  400000    1.0934103   -3.4031335    375.08119  0.078141914  0.080426418            3 
  401000    1.1021027   -3.4481106    377.26819  0.078401536  0.080392278            2 
  402000    1.0786485   -3.4121992    377.60817  0.078276984  0.080359422            5 
  403000    1.0782538   -3.4376298    377.15501  0.077989042  0.080326225            1 
  404000     1.106939    -3.436779    376.98343  0.077760608   0.08029235            3 
  405000    1.0766959   -3.4280663    380.52626  0.078297584  0.080258393            3 
  406000    1.1142077    -3.438438    380.37097   0.07807286  0.080225598            2 
  407000    1.0868337    -3.418373    382.07612  0.078230163  0.080190729            2 
  408000    1.1087187   -3.4518512    383.42503  0.078313936  0.080158771            2 
  409000    1.1080746   -3.4258047    383.70845  0.078180207  0.080128237            1 
  410000    1.1027297   -3.4156129    385.37052  0.078327342  0.080100398            2 
  411000    1.0923314   -3.4288418    386.13969  0.078292718  0.080072769            2 
  412000    1.1094742   -3.3969078    388.41073   0.07856204  0.080044347            2 
  413000    1.0874732   -3.4428167    385.39684  0.077763689  0.080015548            2 
  414000    1.1024219   -3.4323679    386.58485  0.077814986  0.079983061            2 
  415000    1.1086165   -3.3686192    390.08013  0.078329344   0.07995284            1 
  416000    1.1016161     -3.39094    390.50821  0.078226805  0.079923029            2 
  417000    1.0870921   -3.4245635    389.83597   0.07790487  0.079892805            5 
  418000     1.107208   -3.4036266     392.2422  0.078198207   0.07986155            3 
  419000     1.068936   -3.4338787    391.96532  0.077956508  0.079829606            1 
  420000    1.0829269   -3.4537815    391.34741  0.077648296  0.079795897            1 
  421000    1.0860344   -3.4069188    392.23506  0.077639561   0.07976252            1 
  422000    1.0760856   -3.4300809    393.47012   0.07769947  0.079730414            3 
  423000    1.0732603   -3.4613137    392.73963  0.077371874  0.079697292            2 
  424000    1.0811779   -3.4028084    395.23144  0.077679135  0.079663437            2 
  425000    1.0696897   -3.4659159    395.83609   0.07761492  0.079630882            2 
  426000    1.0877638   -3.4455353    396.88279  0.077637478  0.079597255            4 
  427000    1.0673483    -3.436229    396.73577  0.077426966  0.079564752            1 
  428000    1.0926112   -3.4367182    399.28902  0.077743189  0.079531149            2 
  429000    1.1008917   -3.4503291    399.97851  0.077695904  0.079497882            2 
  430000    1.0661741   -3.4441293    400.22288  0.077562574  0.079465511            2 
  431000    1.0780688   -3.4470891    401.85039  0.077697292  0.079432645            2 
  432000    1.0812166   -3.4444404    401.42997  0.077436337  0.079400279            5 
  433000    1.0687556   -3.4399731    402.27597  0.077420317  0.079366987            2 
  434000     1.089339   -3.4589329    403.59196  0.077494616  0.079333633            1 
  435000    1.0877561   -3.4423882    404.29625   0.07745139  0.079300287            2 
  436000    1.0743026   -3.4599038    406.15566   0.07762914  0.079267336            2 
  437000      1.08709   -3.4211232    404.96334  0.077224131  0.079233479            2 
  438000    1.0619709   -3.4463032    406.52867  0.077345637  0.079198948            1 
  439000    1.0917747   -3.4307928    406.02507  0.077073856  0.079162697            2 
  440000    1.0780032   -3.4353603    406.66571  0.077020021  0.079127789            3 
  441000    1.0707836   -3.4383362    407.92942  0.077084169   0.07909266            3 
  442000    1.0692418   -3.4674677    408.49309  0.077016042   0.07905799            2 
  443000    1.0850737   -3.4242151    409.82957  0.077093599  0.079025285            1 
  444000    1.0754393   -3.4544914    409.95786  0.076944043  0.078989338            2 
  445000    1.0710396   -3.4474091    411.46585  0.077053529  0.078954936            2 
  446000    1.0960672   -3.4491479    411.95799  0.076972718  0.078919477            3 
  447000    1.0695422   -3.4253657    410.61271  0.076549723  0.078882959            3 
  448000    1.0745926   -3.4476795    410.63415  0.076382841  0.078846124            4 
  449000    1.1029829   -3.4489269     412.5614  0.076570415  0.078808679            2 
  450000    1.0872821   -3.4509972    413.55748  0.076584719  0.078771539            2 
  451000    1.0610091   -3.4407528     414.4305  0.076576219  0.078734284            1 
  452000    1.0724075   -3.4229948     415.3036  0.076567772  0.078697947            1 
  453000    1.0782957   -3.4648109    414.39688   0.07623195  0.078660139            1 
  454000    1.0563534   -3.4389062    417.23766  0.076585474  0.078621082            1 
  455000    1.0822094   -3.4705233    416.69382  0.076317549  0.078581738            2 
  456000    1.0759717   -3.4419296    418.05264  0.076398509  0.078543646            5 
  457000    1.0896415   -3.4422008    420.56406  0.076689289  0.078504898            2 
  458000     1.089429   -3.4432017    419.92624  0.076405792  0.078466445            3 
  459000    1.0740087    -3.449317    422.28379  0.076667354  0.078428778            2 
  460000    1.0768265   -3.4470043     421.8845  0.076428351  0.078392126            2 
  461000    1.0546985   -3.4525338    421.90503  0.076266274  0.078354148            2 
  462000    1.0995838   -3.4534307    421.51264  0.076030418  0.078315953            3 
  463000    1.0876902   -3.4535556    423.22752   0.07617486  0.078277329            1 
  464000    1.0626047    -3.440841      423.824  0.076117816  0.078236613            2 
  465000    1.0850134   -3.4785888    422.77107  0.075765425  0.078195034            2 
  466000    1.0740552   -3.4543473    424.29328   0.07587505  0.078154243            5 
  467000    1.0734267   -3.4633247     425.3909   0.07590844  0.078113587            3 
  468000    1.0760813   -3.4725872    423.26602  0.075367881  0.078069933            7 
  469000    1.0932498   -3.4550077    425.66358  0.075633188   0.07802674            2 
  470000    1.0603894    -3.459594    426.13051  0.075555054  0.077985745            4 
  471000    1.0610181   -3.4568898    428.23002  0.075766104  0.077942048            1 
  472000    1.0720792   -3.4358598    428.01608  0.075567811  0.077899513            4 
  473000    1.0616607   -3.4724961    428.89869  0.075563546  0.077856914            1 
  474000    1.0760483   -3.4402912     430.2912  0.075648944  0.077814001            1 
  475000    1.0634451   -3.4678649     429.5299  0.075356122  0.077769704            5 
  476000    1.0750583   -3.4542108    430.68846  0.075400641  0.077727138            2 
  477000     1.078613   -3.4652517    431.58486  0.075399172  0.077683312            3 
  478000     1.076815   -3.4653051    432.16601  0.075342749  0.077639206            4 
  479000    1.0936872   -3.4430737    432.58914  0.075259071  0.077595036            4 
  480000    1.0544929   -3.5070359    431.48609  0.074910779  0.077551595            1 
  481000    1.0755406   -3.4887225     433.9633  0.075184217  0.077507874            2 
  482000    1.0960544   -3.4812874    434.78734  0.075170702   0.07746593            3 
  483000    1.0881123   -3.4535397    435.71754  0.075175559  0.077424631            2 
  484000    1.0686415   -3.4810172    435.66932  0.075011935  0.077383213            6 
  485000    1.0558977   -3.4855211     435.9862  0.074911719  0.077341798            2 
  486000    1.0511268    -3.452637    437.08105   0.07494531  0.077299544            2 
  487000    1.0808158    -3.452938    439.46351  0.075199094  0.077257572            2 
  488000    1.0804369    -3.459687    439.78871  0.075100531  0.077217694            3 
  489000    1.0596992   -3.4413982    440.99489  0.075152504  0.077177605            2 
  490000    1.0571769    -3.454927    441.76427  0.075129978  0.077136348            4 
  491000    1.0549655   -3.4858193    441.01719  0.074850169  0.077093648            3 
  492000    1.0507529   -3.4652502    440.88536  0.074675704  0.077051254            2 
  493000    1.0761147   -3.4778576    442.54745   0.07480518  0.077009286            2 
  494000    1.0505208   -3.4993429    442.85134  0.074705017  0.076967599            1 
  495000    1.0515791   -3.4618737    443.99293  0.074746285   0.07692654            4 
  496000    1.0446784   -3.4560877    446.93891  0.075090543  0.076885337            1 
  497000    1.0593356   -3.4679098    446.65435  0.074891742  0.076844328            2 
  498000     1.031095   -3.4570665    446.34293  0.074689246  0.076803121            2 
  499000    1.0753973   -3.4978072    448.66163  0.074926791    0.0767622            1 
  500000    1.0497386   -3.4540586    449.85049  0.074975081  0.076720213            1 
  501000    1.0713891   -3.4703831     448.3565   0.07457693  0.076679193            2 
  502000    1.0232716   -3.4764612    449.20628  0.074569436  0.076640287            2 
  503000    1.0352795   -3.5022071    452.29303  0.074932577  0.076600027            2 
  504000    1.0530313   -3.5135828    450.57686  0.074500142  0.076559858            3 
  505000    1.0415489   -3.4927542    451.71084  0.074539743  0.076519617            4 
  506000    1.0503345    -3.482906    452.17913  0.074469553  0.076479083            6 
  507000    1.0360057   -3.4894543    450.79478  0.074095131  0.076437293            2 
  508000    1.0651248    -3.463993    454.66933  0.074584864  0.076395874            4 
  509000    1.0581761   -3.4815363    453.29623  0.074213528  0.076352396            2 
  510000    1.0323406   -3.4859393     452.8648  0.073997517  0.076309511            2 
  511000    1.0919977   -3.4769812    455.24577  0.074240993  0.076266641            5 
  512000    1.0257675    -3.494868    455.99944  0.074218659  0.076223378            3 
  513000     1.050622   -3.5270728    453.91724  0.073735745  0.076179888            3 
  514000    1.0470458   -3.4855924    457.25783  0.074133889  0.076137526            3 
  515000    1.0506373   -3.5140586    456.61017  0.073885141  0.076095065            1 
  516000    1.0685296   -3.4873948    457.16087  0.073830889  0.076053783            2 
  517000    1.0327771   -3.5125316    458.78392  0.073949697  0.076013218            2 
  518000    1.0425143   -3.4872275    459.31709   0.07389271  0.075973192            2 
  519000      1.03209   -3.5066405     461.4031  0.074085276   0.07593357            3 
  520000    1.0269172   -3.4956621    465.65991  0.074624986  0.075895586            4 
  521000    1.0411863   -3.4440918    465.23456  0.074413717  0.075859029            2 
  522000    1.0340519   -3.5012871    463.61391  0.074012438  0.075821404            5 
  523000    1.0095834   -3.4863517    463.86941  0.073911633  0.075782155            3 
  524000    1.0392408   -3.5040132    465.40264  0.074014414  0.075743018            3 
  525000    1.0591386   -3.5034863    464.31444  0.073700705  0.075704816            2 
  526000    1.0260067   -3.4954294    467.47243  0.074060904  0.075666262            2 
  527000    1.0315959   -3.4764168    468.00031  0.074003843  0.075627928            3 
  528000    1.0347285   -3.4996527    468.77487  0.073985933  0.075589968            2 
  529000    1.0491722    -3.466332    471.11064  0.074214027  0.075553482            2 
  530000    1.0617132   -3.5053445    469.77278  0.073863645  0.075516909            2 
  531000    1.0436858   -3.4971179    468.50743  0.073525962   0.07547786            3 
  532000     1.047704   -3.5077147    468.98717  0.073462902  0.075438472            2 
  533000    1.0516662   -3.4853368    470.41269  0.073547951  0.075399394            2 
  534000    1.0338155   -3.5201069    470.28222   0.07338986  0.075359543            2 
  535000    1.0671326   -3.4826345    472.35574  0.073575661  0.075319676            2 
  536000    1.0361517   -3.5128567    472.76993  0.073502787   0.07528203            4 
  537000    1.0365377   -3.4817458    473.58598  0.073492548  0.075243834            1 
  538000    1.0387276   -3.5048318    474.25724   0.07345992  0.075203586            5 
  539000    1.0442433   -3.5044472    473.87597  0.073264683  0.075165946            1 
  540000    1.0447467   -3.5309997    474.57612  0.073237056  0.075127211            2 
  541000    1.0552569   -3.4700585    476.53461  0.073403359  0.075088408            2 
  542000    1.0164047   -3.5149689    476.97498  0.073335637  0.075049368            3 
  543000    1.0273861   -3.5025192    478.87584  0.073492302  0.075011143            1 
  544000     1.031122   -3.5097685    478.03265  0.073228041  0.074973493            1 
  545000    1.0154807   -3.5391362     478.6113  0.073182157   0.07493601            2 
  546000    1.0329195   -3.5100917    481.58176   0.07350149  0.074899574            3 
  547000    1.0459958     -3.48252    482.94495  0.073574795  0.074864154            1 
  548000    1.0173958   -3.5188698    483.12719  0.073468246  0.074827888            2 
  549000    1.0467705   -3.5044602    486.20929  0.073802259  0.074794471            4 
  550000    1.0491596   -3.4850306     484.4515  0.073401742  0.074760291            4 
  551000     1.043066   -3.5202871    486.73792  0.073614326  0.074725246            3 
  552000    1.0448664   -3.5017455    487.11183  0.073537414  0.074690239            1 
  553000    1.0422102   -3.5140995    484.98934  0.073084589  0.074655181            2 
  554000    1.0298909    -3.539479    486.23782  0.073140466  0.074620216            2 
  555000    1.0443369   -3.5194605     487.7732  0.073239219  0.074585098            4 
  556000    1.0100933   -3.5078618    486.86566  0.072971472  0.074550634            2 
  557000    1.0409975   -3.4941387     489.9452  0.073301196  0.074515805            3 
  558000    1.0485346   -3.5212459     490.0757  0.073189321  0.074480094            1 
  559000    1.0171769   -3.5167551    491.07517   0.07320739  0.074444068            2 
  560000    1.0252633   -3.5152802    490.21584  0.072948786  0.074408647            2 
  561000    1.0433235   -3.5169702    493.33326  0.073281828  0.074375085            2 
  562000    1.0221682   -3.5344956    494.13409   0.07327018  0.074341506            2 
  563000    1.0440519   -3.5377583    491.91274   0.07281124   0.07430927            1 
  564000    1.0176162    -3.499007    495.43803  0.073203019  0.074275915            4 
  565000    1.0037407   -3.5093128     495.6158  0.073099675   0.07424332            3 
  566000    1.0458823   -3.5180431    496.82249  0.073148188  0.074211662            4 
  567000    1.0313721    -3.525888    497.21361  0.073076662  0.074179659            3 
  568000    1.0019493   -3.4999325    499.01994  0.073213019  0.074147956            2 
  569000    1.0158813   -3.5407405    498.71011  0.073038973  0.074114923            4 
  570000    1.0118791   -3.5164074    501.06694    0.0732554  0.074082598            1 
  571000    1.0228953   -3.5171379    501.27226  0.073157072  0.074052269            3 
  572000    1.0204752   -3.5198722    502.18233  0.073161762  0.074019744            2 
  573000    1.0276861   -3.5143938     500.7584  0.072826992  0.073989053            2 
  574000    1.0194876   -3.5040336    500.80261  0.072706535  0.073956402            2 
  575000    1.0328676    -3.493565    502.73374  0.072859963  0.073923932            2 
  576000    1.0302572   -3.5335332    500.83779  0.072459171  0.073889908            4 
  577000      1.01629   -3.5318575    503.08348  0.072657926  0.073855224            2 
  578000    1.0218328   -3.5121662    504.02942  0.072668602  0.073820331            2 
  579000     1.021901   -3.5012064    505.78911   0.07279636  0.073784138            4 
  580000    1.0289065   -3.5277698    501.87962  0.072109141  0.073748117            3 
  581000    1.0248734   -3.5348191    504.55647  0.072368971  0.073712508            8 
  582000    1.0092509   -3.4720587    506.30047   0.07249434  0.073676067            3 
  583000    1.0171024   -3.5028367    506.39385  0.072383341  0.073639687            1 
  584000    1.0108443   -3.5280162     506.0577   0.07221143   0.07360423            5 
  585000     1.022529   -3.5247691    509.50289   0.07257876  0.073570148            5 
  586000    1.0058146    -3.483181    510.32855  0.072572319  0.073535853            3 
  587000    1.0192231   -3.5174566    507.78284  0.072087285  0.073500868            3 
  588000    1.0219623   -3.5048663    511.77521  0.072530501  0.073466609            2 
  589000    0.9882908   -3.5208348    510.41507  0.072214923  0.073432555            4 
  590000    1.0083409   -3.5388218    509.09728  0.071906395  0.073396732            3 
  591000    1.0145548   -3.5346913    510.69712  0.072010311  0.073360224            2 
  592000     1.008557   -3.5487813    512.73545  0.072175598  0.073324385            3 
  593000    1.0118015   -3.4967726    512.92021  0.072079849  0.073289279            4 
  594000    1.0215572   -3.5370121    513.23069  0.072002061  0.073254449            2 
  595000    1.0154901   -3.5252467    514.44649  0.072051329  0.073219091            3 
  596000   0.99538947   -3.5523856    513.29364  0.071769245  0.073184841            3 
  597000    1.0042854   -3.5269218    515.88993  0.072011436  0.073149285            2 
  598000    1.0153177   -3.5169619    515.48947  0.071835211  0.073115438            4 
  599000    1.0237334   -3.5255531    516.68408   0.07188148  0.073081294            2 
  600000    1.0058642    -3.535693      517.742  0.071908611  0.073047561            3 
  601000    1.0121554   -3.5315527    521.33684  0.072287415  0.073015897            2 
  602000    1.0138575   -3.5605572     519.5832  0.071924585  0.072983915            2 
  603000   0.99563377   -3.5516909    521.73782  0.072103071  0.072953046            2 
  604000    1.0320668   -3.5274619    524.66606  0.072387701  0.072922486            2 
  605000   0.99639469   -3.5479442    523.94237   0.07216837  0.072892508            3 
  606000    1.0147854   -3.5296358    525.15151  0.072215554  0.072864018            2 
  607000     1.005474   -3.5143056    524.35141   0.07198674  0.072834806            2 
  608000    1.0175393   -3.5185612    527.64638  0.072319953  0.072804821            2 
  609000    1.0048812   -3.5158692    527.89783  0.072235609  0.072775136            2 
  610000    0.9789614   -3.5638249    527.69491  0.072089468  0.072745211            2 
  611000    1.0216872   -3.5213687    523.46813  0.071394998  0.072713496            1 
  612000    1.0221643   -3.5600464    528.33349  0.071940834  0.072682219            4 
  613000   0.99506272   -3.5390131    529.37578  0.071965169  0.072651889            2 
  614000    1.0259998   -3.5251422    528.66745  0.071751825  0.072620453            1 
  615000    1.0057652   -3.5203372    530.49281  0.071882495  0.072589955            2 
  616000    1.0147832   -3.5383561    532.27559  0.072006979  0.072559215            3 
  617000    1.0314081   -3.5726094     530.3354  0.071628228  0.072528281            1 
  618000   0.99671942   -3.5407596    531.99405  0.071735982  0.072496992            4 
  619000    1.0218423   -3.5364268     532.5806  0.071699058  0.072465891            2 
  620000    0.9927497   -3.5418881    532.97968  0.071637054  0.072434596            3 
  621000    1.0114336   -3.5331442    536.15364  0.071947617  0.072404612            2 
  622000    1.0131261   -3.5519456    534.82014  0.071653288  0.072374363            4 
  623000    1.0217965   -3.5537254    536.04658  0.071702324  0.072342994            3 
  624000    1.0399472   -3.5204059    536.49288   0.07164702  0.072312105            2 
  625000    1.0505878   -3.5487094     536.1318  0.071484239   0.07228059            3 
  626000   0.99326939    -3.568913    535.57598  0.071296057  0.072249113            3 
  627000   0.99449778   -3.5384119    535.72406  0.071202028  0.072216591            3 
  628000    1.0243325   -3.5459164    536.25741  0.071159423  0.072183636            3 
  629000    1.0028727   -3.5272303    537.66096  0.071232242  0.072150682            4 
  630000    1.0080729   -3.5345032    539.31398  0.071337828  0.072118852            5 
  631000   0.99647234   -3.5734522    539.29503   0.07122227  0.072087448            1 
  632000    1.0031013   -3.5688464    541.70514  0.071427366  0.072056677            5 
  633000   0.99857929    -3.545036    543.03883  0.071490104  0.072026428            2 
  634000    1.0228381   -3.5613952    541.24963  0.071142171  0.071995537            2 
  635000    0.9842015   -3.5654731    543.35671  0.071306654  0.071965288            4 
  636000   0.99434094   -3.5698589    542.26648  0.071051688  0.071935353            4 
  637000    1.0017181   -3.5511274    545.17091  0.071320109  0.071904295            7 
  638000   0.99936607   -3.5457517     544.7059  0.071147583  0.071873443            3 
  639000    1.0192818   -3.5407251    545.51212  0.071141382  0.071842045            3 
  640000   0.98454295   -3.5661103    545.70378  0.071055179  0.071812117            2 
  641000    1.0173578   -3.5456986    547.98421  0.071240797   0.07178315            2 
  642000   0.97295667    -3.558074    549.92161   0.07138131  0.071754774            2 
  643000   0.98981111   -3.5643642    551.37434  0.071458572  0.071725493            2 
  644000    1.0305504   -3.5921952    547.46356  0.070841557  0.071695615            3 
  645000    1.0138665   -3.5580834    550.58321  0.071134781  0.071666652            3 
  646000   0.99392847   -3.5567681    553.89303   0.07145163  0.071636948            2 
  647000     1.005664   -3.5827359    553.89733  0.071341748  0.071608079            3 
  648000    1.0060805   -3.5572367    556.55237  0.071573092  0.071579568            2 
  649000    1.0026949    -3.581922    552.76795  0.070976881  0.071551305            4 
  650000    1.0075429   -3.5967834    553.94375  0.071018429  0.071521428            5 
  651000    1.0004427   -3.5810143    555.37608  0.071092688  0.071492369            4 
  652000    1.0037722   -3.5860454    554.23202  0.070837425  0.071463723            4 
  653000   0.97973588   -3.5900121    556.39785   0.07100534  0.071433984            2 
  654000   0.98153213   -3.5682279    554.93829  0.070710792  0.071403787            4 
  655000    0.9962414   -3.5770668    556.18938  0.070762008  0.071373164            1 
  656000   0.98493425   -3.5773112    556.12586  0.070646069  0.071342312            2 
  657000   0.99680863   -3.5808903    557.80744  0.070751832  0.071312198            1 
  658000   0.97989928   -3.5763007    557.24943  0.070573635  0.071281869            5 
  659000   0.98387017   -3.5548584    557.09264  0.070446717  0.071251433            2 
  660000      1.01777   -3.5830302    557.17929   0.07035092  0.071220262            3 
  661000   0.95978834   -3.5672258    560.41824  0.070652829  0.071188576            2 
  662000   0.99389452   -3.5846379    559.89633  0.070480404  0.071157995            2 
  663000   0.98774574   -3.5876673    561.51466  0.070577508  0.071127178            2 
  664000   0.98048698   -3.5703694    561.74595  0.070500245  0.071097576            2 
  665000    0.9770318   -3.5548359       562.58  0.070498747  0.071066336            3 
  666000   0.96932519   -3.5970146    561.62396  0.070273269  0.071034881            2 
  667000    0.9839614   -3.5879351    562.05634  0.070221931  0.071002399            1 
  668000   0.97591748   -3.6049518    563.08234  0.070244803  0.070970723            2 
  669000   0.98476198   -3.5487828    566.06507  0.070511343  0.070939283            3 
  670000    1.0013764   -3.5736415     565.8213  0.070375783  0.070907817            2 
  671000   0.98799971   -3.5709602    561.83764   0.06977616  0.070875882            3 
  672000   0.98894129   -3.5695731    565.91443   0.07017788  0.070844198            3 
  673000    1.0007209   -3.5931684    564.12178  0.069851632  0.070812504            2 
  674000   0.98428633   -3.5934668    564.74824   0.06982545  0.070779902            4 
  675000   0.99349908   -3.5711855    567.50665   0.07006255  0.070747161            1 
  676000   0.99112433   -3.5894197    567.86524  0.070003112   0.07071448            1 
  677000   0.99455303    -3.607118    567.24652   0.06982355  0.070681888            3 
  678000    0.9862357   -3.5740247    565.14808  0.069462645  0.070649187            4 
  679000   0.97263252   -3.6036301    565.41985  0.069393698  0.070615521            2 
  680000   0.98575039   -3.5796887    569.91748  0.069842828  0.070583164            3 
  681000   0.98130735    -3.571086    569.65543  0.069708202  0.070550925            3 
  682000   0.98797748   -3.5946758     569.5561  0.069593854  0.070518212            5 
  683000   0.96997114   -3.5790514    568.65435  0.069381936  0.070484904            5 
  684000   0.99559408   -3.5773104    569.79095  0.069418976  0.070451581            2 
  685000   0.98740485   -3.6144233    569.13103  0.069237352  0.070418999            2 
  686000   0.98173486   -3.5920558    571.23074  0.069391489  0.070385008            3 
  687000   0.96964502   -3.5540944    572.35814  0.069427237  0.070352036            3 
  688000   0.96426932   -3.5675661    570.64579  0.069118918  0.070319069            5 
  689000   0.98903729   -3.5700316    574.00178  0.069424502   0.07028524            3 
  690000   0.97194767   -3.5819765    573.50642   0.06926406  0.070252263            2 
  691000   0.96849609   -3.5932776    574.33285  0.069263489  0.070218628            6 
  692000   0.99045134   -3.5964505    573.51402   0.06906479  0.070184741            2 
  693000   0.97772963     -3.59502    576.48316  0.069322169  0.070152033            2 
  694000   0.96268288   -3.5627232    576.71838  0.069250526  0.070118535            3 
  695000   0.97547005   -3.6154995    575.93229  0.069056629  0.070084918            2 
  696000   0.97396518   -3.5952864    577.51331  0.069146708  0.070050579            2 
  697000   0.97329943   -3.5660976    578.09357  0.069116879  0.070017019            3 
  698000   0.97466817   -3.5935685    578.29114  0.069041444  0.069983987            4 
  699000   0.99467246   -3.5857851    576.81483   0.06876667  0.069949568            7 
  700000   0.96571373    -3.587562    578.18044  0.068831005  0.069914653            2 
  701000   0.96497224   -3.6016345    579.61982  0.068903926  0.069880673            7 
  702000   0.96086125   -3.6005835    578.94729  0.068725936   0.06984545            1 
  703000   0.97090532    -3.598867    579.49893  0.068693567  0.069810634            3 
  704000   0.94734679   -3.6147038    578.54283  0.068482816  0.069775858            3 
  705000    0.9714841   -3.6109082    581.06266   0.06868353  0.069741413            2 
  706000   0.98359462   -3.5972849    581.90438  0.068685597  0.069706734            2 
  707000   0.96135106   -3.6191972    582.54179  0.068663578  0.069673258            4 
  708000    0.9756084   -3.5888698    583.39544  0.068667071  0.069639909            2 
  709000   0.94831524   -3.5922162    583.65091  0.068600249  0.069606264            3 
  710000   0.97431616   -3.6151649    584.45209  0.068597663  0.069572804            4 
  711000   0.97466349   -3.6187273    585.28399  0.068598686  0.069539578            2 
  712000   0.95973012   -3.5888122    588.17765  0.068841018  0.069506084            4 
  713000   0.97726797   -3.5830528    587.64125  0.068681773  0.069473056            4 
  714000   0.97191642   -3.6002434    587.71387  0.068594055   0.06943909            6 
  715000   0.97990267   -3.5869932    585.88129  0.068284532  0.069404453            3 
  716000   0.95770829   -3.6254781    588.64592  0.068510931  0.069369438            3 
  717000   0.96612503   -3.6014385    587.52398  0.068284981  0.069334247            4 
  718000   0.96507782   -3.6015052    587.38426  0.068173661  0.069298613            4 
  719000   0.94461316    -3.608448     587.7753  0.068124166  0.069262714            5 
  720000   0.95498099   -3.6014132    588.82042  0.068150511  0.069227212            3 
  721000   0.96337181   -3.6310945    589.06256  0.068083976  0.069192396            2 
  722000   0.96604296   -3.6102226    589.22624  0.068008569  0.069156946            5 
  723000   0.96472438   -3.5952468    590.51923  0.068063535  0.069121035            3 
  724000   0.96286795   -3.6102053    589.39501  0.067840125  0.069086024            3 
  725000   0.98335025   -3.5910783    591.17932  0.067951646  0.069050168            6 
  726000   0.97848695   -3.6111006    592.32819   0.06798992  0.069015392            1 
  727000   0.96939232   -3.5984101    590.68804  0.067708395  0.068980146            3 
  728000   0.96411666   -3.5713865    593.17002  0.067899499  0.068944803            5 
  729000   0.96123512   -3.6310449    592.10355  0.067684448  0.068909067            2 
  730000   0.95082834   -3.6176504    591.76214  0.067552756   0.06887389            3 
  731000   0.97588487    -3.636755    593.00289  0.067601788  0.068837758            6 
  732000   0.97671129   -3.6344487    594.08572   0.06763271  0.068801257            3 
  733000   0.96192537   -3.6201305    594.53613  0.067591647  0.068765041            2 
  734000   0.95527776   -3.5960156    593.15673  0.067342953  0.068728604            4 
  735000   0.96990546   -3.5767117    597.79947  0.067777718  0.068692959            2 
  736000   0.96553667   -3.5931411    598.28597  0.067740712    0.0686576            4 
  737000   0.96568791   -3.6010744     596.0913  0.067400645  0.068621231            2 
  738000   0.96252916   -3.6027573    597.54906  0.067473922  0.068585046            2 
  739000   0.97638444   -3.6340498     594.9968  0.067094813  0.068548558            3 
  740000   0.95744846   -3.6109618    599.02774  0.067458079   0.06851134            3 
  741000   0.95438572   -3.6252048    600.82818  0.067569521  0.068474846            3 
  742000   0.95073059   -3.6157183    599.60971  0.067341611  0.068438745            4 
  743000   0.98396095   -3.6131742    599.35459  0.067222363  0.068402107            5 
  744000   0.96843704   -3.6131446     599.6744  0.067167831  0.068365834            7 
  745000   0.96841658   -3.6085601    602.69942  0.067416043   0.06832986            2 
  746000   0.97013357   -3.6030624    602.25034  0.067275508  0.068293382            3 
  747000   0.92795614   -3.6258496    601.51684  0.067103619  0.068257067            6 
  748000   0.97077072   -3.6348165    599.86103  0.066829437  0.068220753            1 
  749000   0.93798391   -3.6199414    601.89191  0.066966167  0.068184065            3 
  750000   0.94288779   -3.6474685    601.47665  0.066830738  0.068147652            2 
  751000   0.94879365   -3.6146033    604.10121  0.067032979  0.068110423            8 
  752000   0.93318753   -3.6387788    602.80855  0.066800593  0.068074069            6 
  753000   0.95248289   -3.6222044    606.76428  0.067149655  0.068038716            4 
  754000   0.97138201   -3.6375547    605.22937  0.066890956  0.068003292            3 
  755000   0.93736605    -3.607774    607.56214  0.067059838   0.06796697            4 
  756000   0.96241776    -3.625518    603.82753  0.066559472  0.067930799            3 
  757000     0.955061   -3.6314498    605.71024  0.066678802  0.067893921            3 
  758000   0.96575719   -3.6335443    605.13903  0.066528037  0.067857753            4 
  759000   0.93782173   -3.6601009    609.50767  0.066920034  0.067821509            1 
  760000   0.94915556   -3.6023226    608.38739  0.066709143  0.067785727            6 
  761000   0.95955718   -3.6489002    607.68986  0.066545101  0.067749688            2 
  762000   0.96597841   -3.6588386    607.62848  0.066451058  0.067713478            5 
  763000   0.97313594   -3.6518801    606.46674  0.066237084  0.067676962            4 
  764000   0.92706966   -3.6372355    609.73828  0.066507229  0.067639754            2 
  765000   0.97059684   -3.6562797     610.7636  0.066531982  0.067602665            7 
  766000   0.95174349   -3.6156514    613.49398  0.066742165  0.067565851            3 
  767000   0.94502036   -3.6371303    611.68128  0.066458201  0.067528835            2 
  768000   0.93794397   -3.6245361    608.84564  0.066063981  0.067491296            2 
  769000   0.95086802   -3.6216015    611.51782  0.066267644   0.06745437            7 
  770000   0.94955972   -3.6045982    612.64638  0.066303721  0.067417422            2 
  771000   0.92754892   -3.6675152    612.07195  0.066155636  0.067380953            2 
  772000   0.92078246   -3.6172753    613.85526  0.066262442  0.067343468            1 
  773000   0.95900297    -3.642418    611.42001  0.065914188  0.067306704            3 
  774000   0.93163026   -3.6476978    612.08704  0.065900844  0.067269602            3 
  775000   0.95252362   -3.6273874    614.29146  0.066052845  0.067232324            1 
  776000   0.95480425   -3.6418097    616.46819   0.06620148  0.067196822            3 
  777000   0.93352656   -3.6527655    614.99815  0.065958617  0.067160153            3 
  778000   0.95267568   -3.5946339    616.79396  0.066066191  0.067124593            2 
  779000   0.95111379   -3.6074625    619.79849  0.066302791  0.067089603            4 
  780000   0.91257893   -3.6419567    618.65723  0.066095858  0.067054635            6 
  781000   0.93232945   -3.6242846    618.60296  0.066005437  0.067019813            3 
  782000   0.94055873    -3.648648    620.67784   0.06614214  0.066984527            3 
  783000    0.9484791   -3.6806518    619.54883  0.065937509  0.066949041            2 
  784000   0.93809605   -3.6590011    620.94492  0.066001798    0.0669139            2 
  785000   0.93171634   -3.6628969    621.20517  0.065945347  0.066879446            2 
  786000   0.93977291   -3.6484472    621.60181    0.0659035  0.066844651            2 
  787000   0.93115496   -3.6429045    622.20954  0.065884111  0.066809689            2 
  788000   0.94881734   -3.6534728    623.78423   0.06596703  0.066774321            2 
  789000   0.92444548   -3.6396286     623.8564  0.065891044  0.066739466            5 
  790000   0.93944253   -3.6439017    622.23419  0.065636518  0.066704621            3 
  791000   0.94118768   -3.6480873    624.37393  0.065778964  0.066669213            4 
  792000   0.93035899   -3.6550399    622.82309  0.065532733  0.066634392            2 
  793000   0.94882645   -3.6184548    624.87936  0.065666179  0.066599686            2 
  794000   0.93075469   -3.6298778    626.58219  0.065762194  0.066565261            3 
  795000   0.94439765   -3.6577316    626.76152  0.065698273  0.066530156            3 
  796000   0.91817875   -3.6688023    626.35653  0.065573339  0.066495578            6 
  797000   0.95157423   -3.6717634    626.07728  0.065461865  0.066460513            4 
  798000   0.93853499   -3.6164784    631.79178  0.065976585  0.066426281            1 
  799000   0.91678617    -3.639804    628.41296   0.06554161  0.066391881            5 
  800000   0.93865844   -3.6591167    629.76161  0.065600168  0.066357566            2 
  801000   0.94865698   -3.6486068    631.80217  0.065730563  0.066323379            1 
  802000   0.92615425   -3.6609888    631.21192  0.065587274  0.066289538            5 
  803000   0.93671531   -3.6595692    632.15827  0.065603805  0.066255626            4 
  804000   0.95877819   -3.6519861    632.82043   0.06559084  0.066221972            4 
  805000   0.93119098   -3.6629048    634.02833  0.065634403  0.066188682            4 
  806000   0.93514751   -3.6822005    631.60745  0.065302672  0.066154857            2 
  807000   0.94030196    -3.686292    630.73778  0.065131948  0.066120331            3 
  808000   0.94372757   -3.6467548    633.11507  0.065296521  0.066086324            2 
  809000   0.92698628   -3.6587987    635.51566  0.065463088  0.066052964            3 
  810000   0.93030782   -3.6966268    631.95121  0.065015556  0.066018874            3 
  811000    0.9282754    -3.669853    635.34386  0.065283997  0.065985056            5 
  812000   0.93469889    -3.645686    636.97758  0.065371262  0.065951349            2 
  813000   0.93147514   -3.6505677    637.09526  0.065302917  0.065918103            7 
  814000   0.93927321   -3.6660202     636.0595  0.065116656  0.065885276            3 
  815000   0.91447788   -3.6657783    636.17278  0.065048342   0.06585198            5 
  816000   0.95979964   -3.6737238    635.25991  0.064875399  0.065818303            3 
  817000   0.92674256   -3.6460483    638.30387  0.065106474  0.065784413            5 
  818000   0.92906943   -3.6600972    635.53029  0.064744325  0.065750897            5 
  819000   0.90999153    -3.657944    639.30926  0.065049782  0.065716703            3 
  820000   0.90696593   -3.6784735    640.10911  0.065051739  0.065683275            2 
  821000   0.92383534   -3.6493059    640.20485  0.064982222  0.065649615            3 
  822000   0.90466267   -3.6545251    641.67905  0.065052621  0.065616684            2 
  823000   0.92400669   -3.6619274    643.59279  0.065167354  0.065583288            5 
  824000   0.94068138   -3.6644542    643.48493  0.065077359  0.065550466            3 
  825000   0.93899059   -3.6668727    640.32122  0.064678911  0.065516721            4 
  826000   0.93413515   -3.6476404    642.29163  0.064799397  0.065482805            4 
  827000   0.93730131   -3.6332871    643.63418  0.064856326  0.065449348            3 
  828000   0.92346351   -3.6555482    641.60822  0.064574096  0.065416153            3 
  829000   0.93556007   -3.6571104    645.07928  0.064845123  0.065383435            2 
  830000   0.92810628   -3.6627263    645.02202  0.064761247  0.065350653            5 
  831000   0.93150983    -3.653526    648.41311  0.065023377  0.065317363            4 
  832000    0.9198568   -3.6990704     648.1579  0.064919662  0.065285003            3 
  833000    0.9195348   -3.6649446    647.56996  0.064782909  0.065253247            3 
  834000   0.91514858   -3.7081761    649.68818  0.064916885  0.065221981            2 
  835000   0.92370125    -3.687449    650.46632  0.064916798  0.065190724            4 
  836000   0.92747506   -3.6850592     650.6466  0.064857117  0.065159609            2 
  837000   0.92285241    -3.673107    650.23569  0.064738719  0.065128881            6 
  838000   0.90401563   -3.6798407    653.88435  0.065024298  0.065098261            3 
  839000   0.92061126   -3.6973605    650.84095  0.064644512  0.065066904            3 
  840000   0.91756722   -3.6882588    653.66022  0.064847244  0.065036105            3 
  841000   0.91065211   -3.6728065    653.22266  0.064726779  0.065005179            4 
  842000   0.92452772   -3.6866572    650.33469  0.064364082  0.064973641            5 
  843000   0.92120822   -3.6730828    653.60321  0.064610835  0.064941949            3 
  844000   0.90805701   -3.6719145    654.87579  0.064659931  0.064910621            4 
  845000   0.92290682   -3.6706531     652.3961  0.064338866  0.064879473            3 
  846000   0.89414531   -3.7167238     653.8674  0.064407742  0.064847588            2 
  847000   0.92586347   -3.6912512    656.14564  0.064555848  0.064816064            2 
  848000   0.92316978   -3.6729654    655.21064  0.064387838  0.064784777            8 
  849000   0.89659532   -3.6765377    656.19135  0.064408259   0.06475398            2 
  850000   0.92407832   -3.6878956    655.05418  0.064220998  0.064722525            4 
  851000   0.92149983   -3.6924219    659.02415  0.064534288  0.064691475            4 
  852000   0.93045323   -3.6886945    656.31277  0.064193346  0.064661079            7 
  853000     0.924798   -3.6940054    660.92446  0.064568626  0.064630474            4 
  854000   0.90868695   -3.6731658     660.3615  0.064438085  0.064600029            4 
  855000     0.927833   -3.6617935    661.07257  0.064432024  0.064569973            4 
  856000   0.89802619    -3.694904    661.00966  0.064350629  0.064539127            6 
  857000   0.91088303    -3.696471     661.8297   0.06435528  0.064508821            3 
  858000   0.92236592   -3.6949289    662.01582  0.064298351    0.0644787            2 
  859000   0.93005187   -3.6920893    661.60392  0.064183539   0.06444845            4 
  860000   0.92005556   -3.6739779    663.27044  0.064270391  0.064418122            7 
  861000    0.9061707    -3.715306    663.43388  0.064211564  0.064387978            4 
  862000   0.91012998   -3.6753273     667.1673  0.064497999  0.064358401            4 
  863000   0.90638917   -3.6561451    667.20681  0.064427077   0.06432858            3 
  864000   0.89762843   -3.6986136    667.44856  0.064375825   0.06429882            3 
  865000   0.91068385   -3.6993228    668.54251  0.064406793  0.064269463            3 
  866000   0.90028296   -3.6815945    664.67292  0.063960057  0.064240962            3 
  867000   0.90856046   -3.7208723    668.68982  0.064272377  0.064211646            5 
  868000   0.90699021   -3.7415814     667.5534  0.064089228   0.06418228            4 
  869000   0.91490616   -3.6893888    667.98376  0.064056747  0.064153445            4 
  870000   0.90530062   -3.6724761    668.18506    0.0640024  0.064125032            2 
  871000   0.91501192   -3.6853423    668.43792  0.063953111  0.064096103            4 
  872000   0.92676882   -3.7100209     667.4091   0.06378145  0.064067325            5 
  873000   0.90192576   -3.7060451    668.88083  0.063848876  0.064038481            4 
  874000   0.90618936   -3.6942813    669.99237  0.063881805  0.064009413            4 
  875000   0.89383455   -3.6810393    671.32224  0.063935452  0.063979551            4 
  876000   0.89277472   -3.7091038    671.67048  0.063895594  0.063949203            2 
  877000   0.90775966   -3.6924505    671.09477  0.063768032  0.063919801            3 
  878000   0.87653512   -3.6925059    669.67389  0.063560543  0.063889407            3 
  879000    0.9048805   -3.7031251      671.359  0.063647991   0.06385932            2 
  880000   0.90614357   -3.7030694    674.01892  0.063827549  0.063828679            3 
  881000   0.89171062   -3.7117457    671.45315  0.063512405  0.063798245            4 
  882000   0.90511048   -3.7037956    672.37274  0.063527281  0.063768173            6 
  883000   0.88600962   -3.6862382    674.65748  0.063670959  0.063737882            4 
  884000   0.92545961   -3.6748573    675.90606  0.063716635  0.063708197            3 
  885000   0.90022598   -3.7298058    672.35263   0.06331004  0.063678209            3 
  886000   0.91331895   -3.7048897    673.92818  0.063386774  0.063648577            4 
  887000   0.89705355   -3.6889258    676.83944  0.063588824   0.06361897            4 
  888000   0.91606916   -3.6787967    674.62652  0.063309546  0.063589504            3 
  889000   0.89715687    -3.742717    672.98327  0.063084296  0.063559523            3 
  890000     0.878034    -3.711199    677.55473  0.063441454  0.063529084            4 
  891000    0.9014855   -3.7103296    675.94793  0.063219971  0.063499065            2 
  892000   0.89582515   -3.7134041     679.8052  0.063509454  0.063468871            4 
  893000   0.91818679   -3.7033843    681.64019  0.063609573  0.063438534            5 
  894000   0.90320247   -3.7172619    679.49692  0.063338639  0.063408397            5 
  895000   0.89076868   -3.6895215    678.07932  0.063135877  0.063377563            5 
  896000   0.88017732   -3.7263937    678.18168  0.063074933  0.063347573            3 
  897000   0.89981695   -3.7210457    677.28886   0.06292167  0.063317062            4 
  898000   0.90044307   -3.7286064    676.18621  0.062749277   0.06328623            4 
  899000   0.89326238   -3.7232254    679.22208  0.062960889  0.063254797            3 
  900000   0.89851971   -3.7281768    677.33514  0.062716216  0.063222665            2 
  901000    0.9025008    -3.730964    676.71972   0.06258969  0.063190923            3 
  902000   0.86461026   -3.7139448    681.25409  0.062939218  0.063159347            5 
  903000   0.88219513   -3.7008382    678.63633  0.062627937  0.063127024            4 
  904000   0.90348845   -3.7082422    679.17591  0.062608399  0.063094649            3 
  905000   0.89304875    -3.737515    679.59854  0.062578135  0.063062372            3 
  906000   0.91024782   -3.7348603    679.48134  0.062498283  0.063030364            3 
  907000   0.88852581   -3.7206535    680.29324  0.062503972  0.062998074            4 
  908000   0.89655224   -3.7156012    680.65438   0.06246828  0.062965704            4 
  909000     0.900572   -3.7354634     682.6079  0.062578649   0.06293326            4 
  910000   0.89188632   -3.7249461    681.54394  0.062412449  0.062901096            2 
  911000   0.90125726   -3.7159835    683.88223  0.062557833  0.062869147            3 
  912000    0.9165186   -3.7075604    683.64465   0.06246753  0.062837361            3 
  913000   0.90512849    -3.726345    683.03436  0.062343406  0.062804982            5 
  914000   0.87552826    -3.698465    683.82575  0.062347351  0.062772971            3 
  915000   0.89460424   -3.7103156    682.08073  0.062120285  0.062741606            3 
  916000   0.88104424    -3.717057    686.21874  0.062428925  0.062709596            3 
  917000   0.88775613   -3.7466937    682.40417  0.062014192  0.062677486            4 
  918000    0.8909962   -3.7436158    683.64566  0.062059338  0.062645081            4 
  919000   0.87783373   -3.7348067    686.29511  0.062232056  0.062612829            4 
  920000   0.88265489   -3.7191712    686.51317  0.062184164  0.062580306            4 
  921000   0.87242274   -3.7141282    687.46312  0.062202598  0.062548199            4 
  922000   0.88411942   -3.7475518    686.62274  0.062059177  0.062515463            3 
  923000   0.88533226   -3.7744557    686.41403  0.061973098   0.06248273            3 
  924000   0.88050644   -3.7320653    687.83128  0.062033846  0.062450268            2 
  925000   0.87172833   -3.7163041    686.80318   0.06187416  0.062418394            1 
  926000   0.88208046   -3.7355524    687.74382  0.061891993  0.062386405            2 
  927000   0.88892263   -3.7261843    688.90893  0.061929965   0.06235432            2 
  928000   0.88904358   -3.7335375    689.83373  0.061946276  0.062322752            2 
  929000   0.88424106    -3.731424    688.38706  0.061749826  0.062291036            2 
  930000   0.87456206   -3.7232911    690.68103  0.061888981  0.062259107            2 
  931000   0.88242209   -3.7295678    692.13424  0.061952581  0.062227872            2 
  932000   0.89635274   -3.7215512    691.47116  0.061826821  0.062196752            8 
  933000   0.86704275   -3.7219853    693.40091  0.061932915  0.062165091            4 
  934000   0.88710183   -3.7437483    692.67678  0.061801997  0.062133838            6 
  935000   0.89393574   -3.7492188    694.34472  0.061884556  0.062102589            2 
  936000   0.88501212   -3.7342954    694.21919  0.061807264  0.062071633            2 
  937000   0.86868647   -3.7201739    694.06078  0.061727213  0.062040672            4 
  938000   0.87241734   -3.7481354    693.19304  0.061584314  0.062009498            5 
  939000    0.8910857   -3.7260051    696.77052  0.061836219  0.061978716            2 
  940000   0.87981713    -3.752049    694.05692  0.061529869  0.061948141           10 
  941000   0.87779042   -3.7635999    696.00945  0.061637393  0.061917012            6 
  942000   0.87345861   -3.7750244    697.08292  0.061666925  0.061886249            5 
  943000    0.8442059   -3.7339563    695.88901  0.061496024  0.061855921            2 
  944000   0.86002439   -3.7367458    698.18749  0.061633783   0.06182535            5 
  945000   0.89117497   -3.7470253    698.51543   0.06159748  0.061794671            3 
  946000   0.89376922    -3.742425    699.98722  0.061662017  0.061764527            3 
  947000   0.88051876   -3.7804954    701.46873  0.061727273  0.061734488           11 
  948000   0.86778295   -3.7381159    701.76585  0.061688278  0.061704698            5 
  949000   0.87292053   -3.7671978    699.11571  0.061390561  0.061674177            5 
  950000   0.86950184   -3.7392667    700.97051  0.061488641  0.061644216            3 
  951000   0.86421063   -3.7506321    703.09038  0.061609742  0.061613981            5 
  952000   0.91515258   -3.7379793    701.51335  0.061406981   0.06158401            2 
  953000   0.87296407   -3.7601469    702.95352  0.061468478  0.061553725            5 
  954000    0.8570319   -3.7686241    703.20611   0.06142611  0.061523411            4 
  955000   0.88800155   -3.7497322    705.90813  0.061597568  0.061494067            4 
  956000   0.87576036   -3.7460862    706.32115  0.061569138  0.061464873            4 
  957000   0.88172793   -3.7456192    705.79287  0.061458801  0.061435585            6 
  958000    0.8742752   -3.7373574    707.57186  0.061549396  0.061405986            4 
  959000    0.8791641   -3.7759686    704.79311  0.061243753  0.061376106            5 
  960000   0.88561827   -3.7479041    704.74604  0.061175871  0.061346214            3 
  961000   0.87765556    -3.775225    704.85021  0.061121246  0.061315892            4 
  962000   0.87595505   -3.7463812    707.09074  0.061251796  0.061285672            2 
  963000   0.87656972   -3.7565043    707.63915  0.061235648  0.061255267            7 
  964000   0.85977813   -3.7616556     707.0043  0.061117246  0.061224753           11 
  965000    0.8630003   -3.7801825    704.38144  0.060827413  0.061194293            3 
  966000    0.8697738   -3.7736767    708.23778  0.061097117  0.061164033            4 
  967000   0.85254785   -3.7226812    708.16978  0.061028075  0.061133614            3 
  968000   0.86402843    -3.729223    709.53104  0.061082217  0.061103206            5 
  969000    0.8782871   -3.7695466    710.12545    0.0610703  0.061072798            4 
  970000   0.88341159   -3.7531145    709.19949  0.060927792  0.061042407            4 
  971000   0.86756269   -3.7405538    710.52534  0.060978831  0.061011793            4 
  972000   0.88173119   -3.7864543    709.14405  0.060797672  0.060980808            1 
  973000   0.84587865   -3.7494535    710.59532  0.060859483  0.060950316            8 
  974000   0.86423698   -3.7710016    708.94351  0.060655673  0.060920054            3 
  975000   0.85783929   -3.7735518    708.30332  0.060538745   0.06088968            3 
  976000   0.86079511   -3.7589973    711.32607  0.060734808  0.060859149            4 
  977000   0.86357581   -3.7456843    712.02946  0.060732639  0.060829427            4 
  978000   0.85780135   -3.7688323    712.93547   0.06074774  0.060799144            4 
  979000    0.8650266   -3.7598952    710.03853  0.060439099  0.060768417            4 
  980000    0.8751314   -3.7795917    712.32315  0.060571696  0.060737531            4 
  981000   0.88931646   -3.7681234    712.24039  0.060502921  0.060706394            6 
  982000   0.86763382    -3.780543    712.39597  0.060454512  0.060675404            4 
  983000   0.88130741   -3.7672084    710.44951  0.060228001  0.060644389            3 
  984000   0.86910218   -3.7798589    711.76592  0.060278279  0.060612851            6 
  985000     0.853223   -3.7729449    712.55569  0.060283899  0.060581565            3 
  986000   0.85651558   -3.7728106    712.54707  0.060222031  0.060550643            8 
  987000   0.86239469   -3.7364779    715.46104  0.060407045  0.060519613            5 
  988000   0.84111468   -3.7527145    717.19839  0.060492442  0.060488795            4 
  989000   0.87005764   -3.7654594    717.79187  0.060481283  0.060457916            2 
  990000   0.87129598    -3.760013    714.88681  0.060175657  0.060427214            3 
  991000    0.8720385   -3.7621245     713.9976  0.060040162  0.060396557            5 
  992000   0.84588288   -3.7631374    716.49882  0.060189753  0.060366048            2 
  993000   0.86309355   -3.7720729    717.06636  0.060176767  0.060335265            3 
  994000   0.86232143   -3.7680832    715.23953  0.059963072  0.060304454            4 
  995000   0.84157365   -3.7668188    717.43408  0.060086606  0.060273774            5 
  996000   0.86471061   -3.7788764    717.48283  0.060030357  0.060242369            6 
  997000   0.87227739   -3.7739049    715.74326  0.059824746  0.060211262            3 
  998000   0.84816027   -3.7775812    717.78533  0.059935314  0.060180262            3 
  999000   0.84163827   -3.7874477    716.26148  0.059748205  0.060149027            4 
 1000000     0.865732   -3.7690749    717.95139  0.059829283  0.060117992            3 
 1001000   0.84646126   -3.7985843    717.50193  0.059732095  0.060086594            3 
 1002000   0.84284193   -3.7816913    719.19864  0.059813593  0.060055409            6 
 1003000   0.86145169   -3.8154055    719.79938   0.05980387  0.060024355            4 
 1004000   0.87033299    -3.786185    721.64168  0.059897217  0.059993319            7 
 1005000   0.85280686   -3.7603046    721.48102  0.059824297  0.059962949            5 
 1006000   0.84600475   -3.7643713     722.6081  0.059858193   0.05993236            3 
 1007000    0.8368771   -3.7807982     722.5067  0.059790359  0.059901709            1 
 1008000   0.83815498   -3.7692658    725.28051   0.05996036  0.059871057            2 
 1009000   0.85930241   -3.7816187    724.15231  0.059807756  0.059840487            6 
 1010000   0.84214668   -3.7995421    726.22001  0.059919143  0.059809921            4 
 1011000   0.87809058   -3.7727177    723.70507  0.059652577   0.05977912            5 
 1012000   0.84584022   -3.7656264    724.22338  0.059636312  0.059748261            2 
 1013000   0.84749474   -3.7728916     726.2965  0.059747984  0.059717595            2 
 1014000   0.84380061   -3.7936583    725.49034  0.059622809  0.059687521            9 
 1015000   0.85055673   -3.7899676    725.68469  0.059580024  0.059657233            3 
 1016000   0.82308372   -3.8091222     722.4145  0.059253158  0.059626517            3 
 1017000    0.8503689   -3.8082354    722.67881  0.059216553  0.059595801            2 
 1018000   0.84567722     -3.79688     726.7349  0.059490414  0.059564931            4 
 1019000   0.84643877   -3.7709561    726.16222    0.0593852  0.059534637            4 
 1020000   0.84537005   -3.7977917    727.47392  0.059434144   0.05950409            1 
 1021000   0.83269959   -3.7924939    727.28063  0.059360156  0.059473623            2 
 1022000   0.85529017   -3.7982932    728.44072  0.059396667  0.059443164            4 
 1023000   0.86796028   -3.7951434    726.72881  0.059199153  0.059412593            5 
 1024000   0.84862498   -3.7770538    728.69518  0.059301365  0.059382128            8 
 1025000   0.83422071    -3.792854    727.69263  0.059162002  0.059351696            6 
 1026000   0.86170403   -3.8142297    728.20224  0.059145731  0.059321131            8 
 1027000   0.85321956   -3.8042691    730.36229  0.059263412  0.059290394            3 
 1028000   0.85227058   -3.8083603     730.5872  0.059223995  0.059260097            7 
 1029000   0.84654961   -3.7818864    733.27072  0.059383764  0.059229805            4 
 1030000   0.85163229   -3.7892161    730.92888  0.059136641  0.059199574            3 
 1031000   0.82310883   -3.8243886    730.92694  0.059079125  0.059169365            5 
 1032000   0.85703102    -3.799727    732.56517  0.059154164  0.059138981            5 
 1033000    0.8468733   -3.7649898    733.76866  0.059193986  0.059108793            3 
 1034000    0.8365602   -3.8120852    730.56782  0.058878773  0.059078593            2 
 1035000   0.83723433   -3.8259472    732.43277  0.058972043  0.059048257            5 
 1036000   0.84952537   -3.8069508     732.1943  0.058895938  0.059017899            5 
 1037000   0.86128962   -3.7946814    732.25863  0.058844313  0.058987336            3 
 1038000   0.84676056   -3.8215907    732.13566   0.05877775  0.058956944            7 
 1039000   0.85319544    -3.797993    733.83758  0.058857682  0.058926765            3 
 1040000   0.83370387   -3.7912074    733.27038  0.058755639  0.058897048            6 
 1041000   0.83671112   -3.7817627    732.80508   0.05866195  0.058866579            4 
 1042000   0.83225492   -3.8383555    733.45409  0.058657556  0.058835715            9 
 1043000   0.84110932    -3.806113    733.29105  0.058588291  0.058805458            2 
 1044000   0.84506651   -3.8272097    732.29507  0.058452671  0.058775084            3 
 1045000   0.83501383   -3.7792013    737.76817  0.058833187  0.058744275            4 
 1046000   0.83211435   -3.8191718    736.29216   0.05865935  0.058714101           12 
 1047000   0.82667505   -3.7860149    737.00754  0.058660263  0.058683615            4 
 1048000    0.8460085   -3.7852423     736.0234  0.058526034  0.058653585            4 
 1049000    0.8290009   -3.8086354    736.04414  0.058471889  0.058623617            5 
 1050000   0.82226236    -3.805983    737.10313  0.058500249  0.058592844           12 
 1051000   0.83862242   -3.7720737    737.64662   0.05848768  0.058562539            4 
 1052000    0.8397976   -3.7713973    739.90192  0.058610735  0.058532801            6 
 1053000   0.81591399   -3.8074982     739.3403  0.058510628   0.05850299            2 
 1054000   0.80916414   -3.8278434    738.46188  0.058385664  0.058473014            3 
 1055000   0.83506445   -3.8069998     740.7557  0.058511509  0.058443188            4 
 1056000    0.8501578    -3.798688    740.03988  0.058399611  0.058413422            4 
 1057000   0.82682156    -3.831517    739.83773  0.058328424  0.058383706            3 
 1058000   0.82032609   -3.7989058     741.9011  0.058435815  0.058353774            6 
 1059000   0.82641231   -3.8213335    740.64849  0.058282066  0.058323814            3 
 1060000   0.81851241   -3.8228619    742.05676  0.058337795  0.058294088            5 
 1061000   0.83224835   -3.7818865    743.99409  0.058434974  0.058264354            3 
 1062000   0.83206869   -3.8251031    742.19996  0.058239168  0.058234101            4 
 1063000   0.82083956   -3.8193979    744.07416  0.058331308  0.058203886            3 
 1064000   0.81608049   -3.8236743    740.43764  0.057991669  0.058173483            3 
 1065000   0.82140613    -3.804463     745.2101   0.05831065   0.05814348            2 
 1066000   0.84692096   -3.8513087    741.73491   0.05798428  0.058113458            4 
 1067000   0.81650868   -3.8230431    744.69879  0.058161418   0.05808327            4 
 1068000   0.82968361   -3.8248279    743.19218  0.057989402  0.058052851            3 
 1069000   0.83492902   -3.8202193    741.57546  0.057809125  0.058022326            5 
 1070000   0.84157799   -3.7976486    745.32746   0.05804731  0.057992393            5 
 1071000   0.83584315   -3.8497997    743.61019  0.057859492  0.057962295            4 
 1072000   0.82179729   -3.8246688    745.53552  0.057955187  0.057932128            4 
 1073000   0.82481695   -3.8369534    745.11635   0.05786862  0.057902104            4 
 1074000   0.82279379   -3.8303743    744.26458  0.057748649  0.057871608            3 
 1075000   0.82068404   -3.8239426    745.91747   0.05782306  0.057841327            2 
 1076000   0.83751676   -3.8540097     745.8631   0.05776511  0.057811262            5 
 1077000   0.82147847   -3.8421019    747.05257   0.05780351  0.057780633            4 
 1078000   0.86573637   -3.8410764    745.25101  0.057610622    0.0577508            6 
 1079000   0.84244594   -3.8635533    744.20975  0.057476811  0.057720691            3 
 1080000   0.83155606   -3.8205846    747.88724  0.057707349  0.057690894            4 
 1081000   0.83436923    -3.836082    747.67498  0.057637603  0.057661181            5 
 1082000   0.82135327   -3.8152887     753.0796  0.058000585  0.057631594            4 
 1083000   0.81102034   -3.8341481    749.88187  0.057700975  0.057602117            4 
 1084000   0.79647752   -3.8257686     749.0598  0.057584548  0.057572475            4 
 1085000   0.83578467   -3.8294912    750.33254  0.057629228  0.057543043            6 
 1086000   0.80227583   -3.8535647    751.43094  0.057660447   0.05751369            5 
 1087000   0.80213381   -3.8275218    751.39496  0.057604643  0.057484758            3 
 1088000   0.81351701   -3.8659417     749.5986  0.057414108  0.057455436            4 
 1089000   0.81667104     -3.82847    751.53092  0.057509253   0.05742568            4 
 1090000   0.81904229   -3.8500567    750.73218  0.057395427  0.057396321            4 
 1091000   0.80509412   -3.8525022    753.97718   0.05759068  0.057367203            5 
 1092000   0.81010096   -3.8436201    753.17288  0.057476563  0.057337911            2 
 1093000   0.81779684    -3.837457    756.47595  0.057675812  0.057308988            4 
 1094000   0.82003371   -3.8338471    753.00365  0.057358596   0.05727954            7 
 1095000   0.83117703   -3.8322253    751.02762  0.057155831  0.057250017            6 
 1096000   0.82208231   -3.8499555    752.58832  0.057222348  0.057220517            7 
 1097000    0.8079945   -3.8345787    753.42194  0.057233511  0.057190829            5 
 1098000   0.79468117   -3.8644802    751.72542  0.057052627  0.057160848            7 
 1099000   0.81795222   -3.8273357    752.24144  0.057039842  0.057130715            5 
 1100000   0.81234233   -3.8617657    755.88989  0.057264386  0.057100764            6 
 1101000   0.80414711   -3.8345805     753.2968  0.057016107  0.057070978            4 
 1102000   0.81324849    -3.873857     755.3145  0.057116947  0.057041176            6 
 1103000    0.8141041   -3.8553622     755.2275   0.05705859  0.057011839            3 
 1104000   0.81612172   -3.8609544    756.96143  0.057137789  0.056982316            5 
 1105000   0.80735017   -3.8487415    755.54265  0.056979083  0.056952844            4 
 1106000    0.8323593   -3.8447053    756.68157  0.057013379  0.056923113            5 
 1107000   0.82273517   -3.8562346    755.97085  0.056908375  0.056893645            6 
 1108000   0.79667874   -3.8720974     755.4852  0.056820487  0.056863968            7 
 1109000   0.81024991   -3.8434322    757.75457  0.056939778  0.056834514            3 
 1110000   0.77781156   -3.8515576    758.03393  0.056909454  0.056805203            4 
 1111000   0.81568492   -3.8530859    757.84384  0.056843972  0.056775717            5 
 1112000   0.81738747    -3.846106    758.29577  0.056826722  0.056746368            9 
 1113000   0.82012307   -3.8495645    758.13411   0.05676356  0.056717228            5 
 1114000   0.80627743    -3.872462     757.3831  0.056656426  0.056687783            3 
 1115000   0.79255321   -3.8398853    759.86759    0.0567913   0.05665817            2 
 1116000   0.83455045   -3.8477752    759.39025  0.056704768  0.056628379            4 
 1117000   0.78970532    -3.843268    760.80063  0.056759223   0.05659886           10 
 1118000   0.79563537   -3.8687628    760.33902  0.056674047  0.056569169            6 
 1119000   0.78312218   -3.8727905    756.56946  0.056342676  0.056539215            5 
 1120000   0.78673591   -3.8645055    759.65393   0.05652187  0.056509333            5 
 1121000   0.79814479    -3.859365    761.54533  0.056612053  0.056479303           11 
 1122000   0.78682082   -3.8612771    760.93689  0.056516406  0.056449745            6 
 1123000   0.78893141   -3.7991635    763.65879  0.056668061  0.056419879            4 
 1124000   0.79945414   -3.8643542    759.95412  0.056342981  0.056390437            7 
 1125000   0.80891037   -3.8548203     763.5629  0.056560215   0.05636105            5 
 1126000   0.80445413   -3.8418317      763.101  0.056475799  0.056331898            4 
 1127000   0.80038347   -3.8851547     764.1913  0.056506307  0.056302293            4 
 1128000   0.80997455   -3.8639342    762.23984  0.056312045  0.056272856            6 
 1129000   0.80031774    -3.857018    763.61294  0.056363518  0.056243427            5 
 1130000   0.79475832   -3.8680436    763.45463  0.056301964  0.056213727            4 
 1131000   0.80774505   -3.8627944     762.3872  0.056173534  0.056184066            6 
 1132000   0.81498776     -3.86638    765.06848  0.056321296  0.056154652            4 
 1133000   0.81031928   -3.8904226    761.53054  0.056011367  0.056125199            5 
 1134000   0.79687922   -3.8675633    764.01562  0.056144593  0.056095731           23 
 1135000   0.81364631   -3.8744079    765.08849  0.056173898  0.056065839            5 
 1136000   0.80868631   -3.8695396     761.8122  0.055884111  0.056036032            4 
 1137000   0.80140078   -3.8981546    762.77188  0.055905298  0.056006474            3 
 1138000   0.80548509   -3.8632101    766.26161  0.056111717  0.055976485            4 
 1139000   0.80916671   -3.8587033    766.51879  0.056081269  0.055946753            3 
 1140000   0.80226186   -3.8620307    765.89292  0.055986324  0.055916998            4 
 1141000   0.80792958   -3.8732632    767.86284   0.05608113  0.055887456            3 
 1142000    0.8094485   -3.8620546    766.29051  0.055917288   0.05585795            6 
 1143000    0.8047994   -3.8702369    767.20859  0.055935301  0.055828077            2 
 1144000   0.79653425   -3.8539448    772.44229  0.056267649  0.055798688            4 
 1145000   0.80158854   -3.8627014    769.22667  0.055984474  0.055769603            7 
 1146000   0.78602344   -3.8792083    767.30738  0.055796057  0.055740246            9 
 1147000   0.79642886   -3.8967451    766.61752  0.055697292  0.055710612            5 
 1148000   0.78709124   -3.8976508    766.27496  0.055623908  0.055681098            8 
 1149000   0.79702399   -3.8804684    767.72514  0.055680674  0.055651651            7 
 1150000   0.80577358    -3.859225    769.74496   0.05577862  0.055622128            5 
 1151000   0.79221892   -3.8746223    770.68604  0.055798294   0.05559275            3 
 1152000    0.7827553   -3.8801209    772.69799  0.055895398  0.055563508            4 
 1153000   0.78977527   -3.8792287    767.91166  0.055500987  0.055534093            3 
 1154000   0.79617434   -3.9058554    771.39606  0.055704511  0.055505029            8 
 1155000   0.80325761   -3.8721878    766.53511  0.055305563  0.055475538            4 
 1156000   0.79635866   -3.8746958    772.19037  0.055665395  0.055446281            5 
 1157000   0.78257298   -3.9007495    770.68101  0.055508572  0.055417042            4 
 1158000   0.78839436   -3.8963091    771.67415  0.055532106  0.055387382            3 
 1159000   0.79135185   -3.8733498    768.47034  0.055253835  0.055358093            5 
 1160000   0.78213392   -3.8860262    772.33168  0.055483597  0.055328679            6 
 1161000    0.7986368   -3.9127494    770.37186  0.055295138  0.055299259            1 
 1162000    0.7799868   -3.9000681    772.59083  0.055406686   0.05526955            3 
 1163000   0.79991643   -3.8812779    771.47728  0.055279255  0.055240087            6 
 1164000   0.78904141   -3.9026423    769.22456  0.055070487  0.055210676            6 
 1165000   0.77181215   -3.8582299    775.87862  0.055499186  0.055181679            6 
 1166000   0.79058129   -3.8911226    772.22579  0.055190522  0.055152411            5 
 1167000    0.7935923   -3.9127399    774.34654  0.055294669  0.055123302            4 
 1168000   0.78551936   -3.8905801    775.76196  0.055348314  0.055094651            9 
 1169000   0.78824489   -3.8830416    773.92138  0.055169759  0.055065619            3 
 1170000   0.77307976   -3.9010441    775.13488  0.055209037  0.055036273            4 
 1171000   0.80036319   -3.8867221    775.88911  0.055215565  0.055006718            6 
 1172000   0.78511847    -3.889796    776.36133  0.055202029   0.05497771            4 
 1173000   0.78187186   -3.8839323    776.76684  0.055183777  0.054948569            8 
 1174000   0.78290447   -3.8946465    776.89253  0.055145693  0.054919297            4 
 1175000   0.79684586   -3.9028145    776.59359   0.05507756  0.054890433            3 
 1176000   0.77049609   -3.9153691    776.79636  0.055045093  0.054861444            6 
 1177000   0.78672704   -3.8781493    775.83106  0.054929982  0.054832637            2 
 1178000    0.7893933   -3.8869815    777.54384  0.055004516  0.054803412            3 
 1179000    0.7867571   -3.8883059    777.98638  0.054989142  0.054774449            9 
 1180000   0.77964628    -3.891629    780.15866  0.055095951  0.054745481            6 
 1181000   0.79501228   -3.8704516     777.6443  0.054871881  0.054716609            9 
 1182000   0.78409733   -3.9051127    780.79432  0.055047541  0.054687448            3 
 1183000   0.78209863    -3.908158    779.07454  0.054879863  0.054658108            5 
 1184000   0.75413468   -3.9102688    780.20241  0.054912895  0.054628934           10 
 1185000   0.78042549   -3.9036695    779.62752  0.054826126  0.054599734            3 
 1186000    0.7772105   -3.8982018    781.25932  0.054894556   0.05457081            5 
 1187000   0.79756568   -3.8959291    779.16741  0.054701447  0.054542057            6 
 1188000   0.78056785   -3.9218909    779.36009  0.054668918  0.054513245            5 
 1189000    0.7952899   -3.8975689    782.00177  0.054808086  0.054484471            4 
 1190000   0.78044688   -3.9236267    780.09642  0.054628601  0.054455232            7 
 1191000   0.75874139   -3.9120909     783.4885  0.054820074  0.054426247            4 
 1192000   0.78364343   -3.9034107    780.88347  0.054591965  0.054397487            4 
 1193000   0.76736545   -3.9048614    780.69028   0.05453271  0.054368475            5 
 1194000   0.77075067   -3.9095897    778.91991  0.054363478  0.054339461            6 
 1195000   0.76480378   -3.9055683    781.85716  0.054522815  0.054310279            3 
 1196000   0.79599706   -3.9122128    779.92061  0.054342295  0.054281197           13 
 1197000   0.78212561   -3.8933163    781.41599  0.054401002  0.054252314            8 
 1198000    0.7844358   -3.9186965    780.53387  0.054294231  0.054223513            4 
 1199000   0.76231917   -3.8901918    785.92004    0.0546233  0.054194702            5 
 1200000   0.76428958   -3.9182747    783.90917  0.054438137  0.054165946            3 
 1201000   0.77041931   -3.9297881    783.96341  0.054396573  0.054136947            4 
 1202000   0.78398451   -3.9280369     783.4683  0.054316992  0.054107646            8 
 1203000     0.764911   -3.9119353    782.65513  0.054215512  0.054078171            4 
 1204000   0.77436947   -3.9002034    783.55352  0.054232663  0.054048628            8 
 1205000   0.74739728   -3.9061922    784.46128  0.054250435  0.054019347            4 
 1206000   0.77027115   -3.9195597    780.87868  0.053957896  0.053989996            5 
 1207000   0.76916112   -3.9199517    785.96393  0.054264287  0.053961001            6 
 1208000   0.77137811   -3.9179477    781.30596  0.053898038  0.053932013            2 
 1209000    0.7538691   -3.9359239    785.88487   0.05416907  0.053902745            9 
 1210000   0.76662969   -3.9262562    784.63038  0.054037905  0.053873783            4 
 1211000   0.76986483   -3.9118156    786.11587  0.054095504  0.053844988            4 
 1212000   0.75637857   -3.8901876    783.52671  0.053872849  0.053815958            7 
 1213000   0.78520828   -3.9059203    785.79917  0.053984554  0.053787194           15 
 1214000   0.77938574   -3.9371181    786.16637  0.053965291  0.053758311            3 
 1215000   0.76557935   -3.9142856    787.90094  0.054039845  0.053729272            4 
 1216000   0.76665884   -3.9283623    786.33115  0.053887826  0.053700554           10 
 1217000   0.78168076   -3.9358587    788.70533  0.054006117  0.053671934            5 
 1218000   0.76954452   -3.9083747    788.82797  0.053970168  0.053643364            3 
 1219000   0.75030325   -3.8796498    791.23487  0.054090434  0.053614894            3 
 1220000   0.76173292   -3.9404443    789.08601  0.053899318  0.053586648            4 
 1221000   0.75041559   -3.8948339    789.30635  0.053870212  0.053558136            5 
 1222000   0.79796265   -3.9295479    790.68741  0.053920309  0.053529581            5 
 1223000   0.75617872   -3.9184159    790.39916  0.053856579  0.053500898            9 
 1224000   0.76998277   -3.8987363     789.6792  0.053763562  0.053472219            5 
 1225000   0.75934855   -3.9365169     787.2064  0.053551456  0.053443535            8 
 1226000   0.76100477    -3.927288    788.70491  0.053609632  0.053414854            6 
 1227000    0.7700436   -3.9099875     789.9972  0.053653708  0.053386487            4 
 1228000   0.78796064    -3.929729    789.68095  0.053588555  0.053358199            7 
 1229000   0.76501061   -3.9095878    793.09283  0.053776297  0.053329689            5 
 1230000   0.75837985   -3.9261363    790.41803  0.053551357   0.05330117            4 
 1231000   0.76191151   -3.9427451    790.96402  0.053544816  0.053272824            5 
 1232000   0.76698134   -3.9625819    790.84214   0.05349311  0.053244475            9 
 1233000   0.78924848   -3.9033264    791.94319  0.053524141  0.053216038            8 
 1234000   0.77424209   -3.9703136     791.7533  0.053467943  0.053187769            7 
 1235000   0.75837084   -3.9204207    794.25629  0.053593542  0.053159412            7 
 1236000   0.76958465   -3.9333939    794.24455   0.05354939  0.053131507            3 
 1237000   0.74257854   -3.9217417    791.76208  0.053338863   0.05310318            3 
 1238000   0.76128825     -3.93889    793.65954  0.053423502  0.053074653            5 
 1239000   0.76487488   -3.9289871    791.91088  0.053262771   0.05304618            3 
 1240000   0.75571186   -3.9279694    793.94176  0.053356301  0.053017807            4 
 1241000   0.75247833   -3.9244672    796.48464  0.053484061  0.052989736            7 
 1242000   0.75236587   -3.9691648     793.5527  0.053244277  0.052961195            6 
 1243000   0.77614871   -3.9350404    793.93381  0.053226992  0.052932655            6 
 1244000   0.76670433   -3.9601639     793.5922  0.053161321  0.052904438            5 
 1245000   0.75336805   -3.9350313    794.49702  0.053179185  0.052876157            5 
 1246000    0.7763496    -3.937306    795.36567  0.053194601   0.05284809            4 
 1247000   0.75280931   -3.9410646    795.55701  0.053164729  0.052820061            3 
 1248000   0.76220073   -3.9491875    796.85813   0.05320901  0.052792087           10 
 1249000   0.74031491   -3.9579091    796.71969  0.053157172   0.05276433           10 
 1250000   0.75716813   -3.9158967    798.65669   0.05324378   0.05273646            6 
 1251000   0.74592176   -3.9399947    797.05266  0.053094369  0.052708247            5 
 1252000     0.737304   -3.9505621    797.38094  0.053073811  0.052679937            4 
 1253000   0.76040992   -3.9346738    796.23364   0.05295515  0.052651455            8 
 1254000   0.75667373   -3.9499354     795.5326  0.052866334  0.052623186            9 
 1255000   0.75633855   -3.9489322    797.35501   0.05294522  0.052594875            6 
 1256000   0.75906428   -3.9380567    797.74902  0.052929208   0.05256654            5 
 1257000   0.74197008    -3.964855    797.12135  0.052845488  0.052538222           12 
 1258000   0.76078347   -3.9600652    796.94261  0.052791641  0.052509731            7 
 1259000   0.73329273   -3.9720575    797.09795  0.052759991  0.052481616            4 
 1260000   0.73378456   -3.9556609    798.08871  0.052783645  0.052453274            6 
 1261000   0.74250531   -3.9391556    799.33171   0.05282393  0.052425035            5 
 1262000   0.74981786   -3.9526039    797.83828  0.052683457  0.052396619            5 
 1263000   0.73558634   -3.9516564    797.48911  0.052618706  0.052368548            6 
 1264000   0.73793533   -3.9539238    798.09648   0.05261712  0.052340232            5 
 1265000    0.7522044   -3.9618081    798.15878   0.05257963  0.052311865            5 
 1266000   0.75241094   -3.9693324    800.08459  0.052664862  0.052283524            6 
 1267000   0.74128553   -3.9575428    799.56219  0.052588936  0.052255732            7 
 1268000   0.73738634   -3.9585585    802.96348  0.052770996  0.052227789            9 
 1269000   0.73171803   -3.9652523     799.4255  0.052497078  0.052199791           13 
 1270000     0.759922   -3.9630221    802.25673  0.052641518  0.052171281            4 
 1271000   0.72824291   -3.9576246    802.14209  0.052592584  0.052142891            3 
 1272000    0.7402187   -3.9863565     799.4026  0.052371764  0.052114442            4 
 1273000   0.76506346   -3.9692189    797.90041  0.052232287  0.052086176            4 
 1274000   0.73377098   -3.9601206    800.38145  0.052353575   0.05205789            5 
 1275000   0.75295186   -3.9757513      799.276  0.052240261  0.052029551           16 
 1276000   0.71943778   -3.9533421    802.35267  0.052400252  0.052001256           10 
 1277000   0.73936673   -3.9532455    804.28726  0.052485465  0.051972897            6 
 1278000   0.74591157   -3.9888614    802.81041  0.052348097  0.051944361            7 
 1279000   0.75103073   -3.9753349    802.03492  0.052256641    0.0519161           10 
 1280000   0.73139093   -3.9750653    803.36843  0.052302632  0.051887975            3 
 1281000   0.73942544   -3.9678277    802.88143  0.052230122  0.051859557            8 
 1282000   0.73049235   -3.9752473    803.25647  0.052213759    0.0518312            7 
 1283000   0.74012694   -3.9736945    804.21235  0.052235148  0.051802826            4 
 1284000   0.72906366   -3.9666714    803.97282  0.052178921  0.051774926            3 
 1285000    0.7403754   -3.9744126    802.09086  0.052016269  0.051746547           13 
 1286000   0.73560021   -3.9701584     804.2964   0.05211874  0.051718258            3 
 1287000     0.735403   -3.9565165    802.23319  0.051944651  0.051690252            6 
 1288000   0.73713002   -4.0000244    803.98152  0.052017438  0.051661784           13 
 1289000   0.73214536   -3.9865392    803.33115  0.051935037  0.051633798            9 
 1290000   0.73098636    -3.964595    805.31004  0.052022612  0.051605593            8 
 1291000   0.73353872   -3.9769435     805.8083  0.052014479  0.051577506            8 
 1292000   0.74443643   -3.9746659    803.59829  0.051831675  0.051549325           10 
 1293000   0.75200747   -3.9827148    807.78322  0.052061306  0.051521128            4 
 1294000   0.73290008   -3.9898756    808.56368  0.052071334  0.051493027           12 
 1295000   0.74889886   -3.9803411    808.44848  0.052023711   0.05146504            5 
 1296000   0.73496013   -3.9448261    808.35593  0.051977619  0.051437564            7 
 1297000   0.73878174   -3.9649907    806.31778  0.051806591  0.051409875            5 
 1298000   0.74652343   -3.9846983    806.65758  0.051788494  0.051382146            4 
 1299000     0.745815   -3.9715356    805.40531   0.05166829  0.051354423            4 
 1300000   0.73643261   -3.9545559    807.94193  0.051791149  0.051326605            4 
 1301000    0.7304924   -3.9962321    804.78484  0.051549119  0.051298751            6 
 1302000    0.7289906   -3.9795188    810.20021  0.051856132  0.051270816           10 
 1303000   0.72911566   -3.9842818    810.47294  0.051833777  0.051242958            7 
 1304000   0.73596034   -3.9606125    808.88292  0.051692416  0.051215301           10 
 1305000   0.72987419   -3.9786852    809.16718  0.051670957  0.051187834            8 
 1306000   0.73893665   -3.9855333    810.78028  0.051734321  0.051160075            6 
 1307000   0.73407049   -3.9872943    806.73201  0.051436624  0.051132284            5 
 1308000   0.72581629   -3.9979824    807.75099  0.051462219  0.051104528            5 
 1309000   0.73583263   -3.9907428    808.27711  0.051456398  0.051076953            3 
 1310000   0.74630278   -3.9872452    812.93809  0.051713619  0.051049544            9 
 1311000   0.74599533   -3.9786593    808.66346  0.051402457  0.051022026            3 
 1312000   0.73553424   -3.9924972    810.49855  0.051479837  0.050994681            7 
 1313000   0.72482992   -3.9685736    813.44771  0.051627806  0.050967042            6 
 1314000   0.72382901   -3.9971874    809.11859  0.051313965  0.050939356            3 
 1315000   0.74212132   -3.9843201    812.16228  0.051467825  0.050911667            7 
 1316000   0.71023713   -3.9933482    809.71983  0.051274052   0.05088393            7 
 1317000   0.69885767   -4.0021567    811.37961  0.051340142  0.050856544            8 
 1318000   0.72709684   -3.9877506    813.11209  0.051410729  0.050828815            4 
 1319000   0.72367396   -4.0088922    810.44565  0.051203288  0.050800856           11 
 1320000   0.73403664   -4.0043599    811.54998  0.051234216   0.05077295            4 
 1321000   0.70549647   -4.0008028    811.87647  0.051216027  0.050745026            7 
 1322000   0.71535438   -3.9895521    812.46777  0.051214559  0.050717094            4 
 1323000   0.71817556   -3.9969821    811.90918  0.051140664  0.050689475            4 
 1324000   0.72645401   -3.9881147    811.80589  0.051095537  0.050661877            4 
 1325000   0.72927719   -4.0010016    812.39288  0.051093892   0.05063402            4 
 1326000    0.7280562   -4.0103871    812.72464  0.051076209  0.050606193            5 
 1327000   0.71486597   -4.0045151    811.56476  0.050964881   0.05057828            7 
 1328000   0.72242529   -4.0001333    812.74077  0.051000299   0.05055038            5 
 1329000    0.7125141   -3.9933168    813.16369  0.050988443  0.050522542            9 
 1330000   0.73054206   -3.9914895    812.31682  0.050897044  0.050494632            3 
 1331000   0.73378473   -3.9960025    813.09164  0.050907316  0.050466621            3 
 1332000   0.71950268    -4.022484    809.65232  0.050653924  0.050438686            5 
 1333000   0.72200099   -4.0094823    813.15497  0.050834894  0.050410572            6 
 1334000   0.71322572   -3.9909729    813.49156  0.050817814  0.050382584           15 
 1335000   0.69712922   -4.0023465    814.09566  0.050817457   0.05035469            6 
 1336000   0.71845636   -4.0067296     814.4417  0.050801004  0.050326792            6 
 1337000    0.7209501   -3.9933717    813.58355   0.05070952  0.050299074            3 
 1338000   0.71754581   -4.0080805    814.36677  0.050720402  0.050271383            8 
 1339000    0.7218103   -4.0024991    814.95728  0.050719273  0.050243347            5 
 1340000   0.71310247    -4.028074    812.70665  0.050541458  0.050215481            7 
 1341000   0.72634507   -3.9957672    814.05527  0.050587576   0.05018752            3 
 1342000   0.71953636   -4.0157026    814.34937  0.050568142  0.050159475           10 
 1343000    0.7191234   -4.0054161    811.22625    0.0503367  0.050131502            7 
 1344000   0.71459317   -3.9982919     815.8413  0.050585398  0.050103556            4 
 1345000   0.72730286   -4.0255547    813.76463  0.050419122  0.050075593            6 
 1346000   0.71848375   -4.0298613    815.13232   0.05046634  0.050047333            4 
 1347000   0.71581942   -4.0234289     814.6504   0.05039906  0.050019301            9 
 1348000   0.72105857   -4.0174904    813.37342  0.050282729  0.049991153            5 
 1349000   0.72680177   -4.0067626    815.02787  0.050347657  0.049963227            3 
 1350000     0.702475   -4.0244052    816.35814  0.050392478  0.049935404            8 
 1351000   0.70166619   -4.0197715    817.02453  0.050396282  0.049907185            7 
 1352000   0.72987287   -4.0237265    814.93654  0.050230309  0.049879165           12 
 1353000   0.72197398   -4.0053379    817.90668   0.05037612   0.04985127            6 
 1354000   0.71550176    -4.014222    816.97845  0.050281785   0.04982359            7 
 1355000   0.71101047   -4.0050533    818.13061  0.050315536  0.049795596            5 
 1356000   0.70910456   -4.0083771    818.63684   0.05030954  0.049767716           11 
 1357000    0.6897976   -4.0141745    815.36164  0.050071336  0.049739828            5 
 1358000   0.71747872   -4.0163656    817.79938  0.050184056  0.049711958            6 
 1359000   0.71382998   -4.0357242    817.59952  0.050134874  0.049683831            8 
 1360000    0.7123231   -4.0459808    814.74453  0.049923071  0.049656053            9 
 1361000   0.71198838   -4.0245256    819.54351   0.05018023  0.049628149            5 
 1362000    0.7161955   -4.0256663    817.70636  0.050030981  0.049600168           11 
 1363000   0.71512874   -4.0631457    815.62745  0.049867171  0.049572454            6 
 1364000   0.70837289   -4.0237976    819.75654  0.050082878  0.049544601            4 
 1365000   0.70728747   -4.0117441    816.56668  0.049851446  0.049516707            6 
 1366000    0.7193551   -4.0079563    818.33395  0.049922764  0.049488646            4 
 1367000   0.70604676   -4.0405698    818.08469  0.049871049  0.049460623            5 
 1368000   0.72147972   -4.0512615    818.88586  0.049883398  0.049432664            5 
 1369000   0.72126118   -4.0196037    820.31704  0.049934079  0.049404748            6 
 1370000   0.70117331   -4.0265186    819.27115  0.049834012  0.049377113            5 
 1371000   0.72018789   -4.0295355    819.40794  0.049805977  0.049349435            8 
 1372000   0.70044404   -4.0144362    819.62518  0.049782871  0.049321652            6 
 1373000   0.72123569   -4.0468757    817.57262  0.049622033  0.049293672            5 
 1374000   0.71005547   -4.0407717    819.28175  0.049689577  0.049265637           10 
 1375000   0.70591114   -4.0200186    821.19463  0.049769371  0.049237734           11 
 1376000   0.70115376   -4.0169802    821.01924   0.04972258  0.049209907            4 
 1377000   0.70350378    -4.035005    823.20169  0.049818548  0.049181965            8 
 1378000   0.70754412   -4.0515549    819.96632  0.049586739  0.049153941            8 
 1379000   0.70785052    -4.041809    819.86636   0.04954474  0.049126127            5 
 1380000    0.7040954   -4.0300563    821.70807  0.049620053  0.049098424            6 
 1381000   0.69932113   -4.0562112    821.79907  0.049589613  0.049070725           11 
 1382000   0.70408465   -4.0554433    820.33975  0.049465735  0.049042966            6 
 1383000   0.70139387    -4.074193    818.03924  0.049291349  0.049014901            6 
 1384000   0.70828066   -4.0424881    820.49603  0.049403663  0.048986958            3 
 1385000    0.7081222   -4.0535427    821.17456  0.049408818  0.048959223           11 
 1386000   0.69766466   -4.0370745     820.3146  0.049321464  0.048931383            6 
 1387000   0.71587273   -4.0616656    820.11323  0.049273806  0.048903454            8 
 1388000    0.6990566    -4.033588    820.38186  0.049254434  0.048875638            4 
 1389000   0.69126603    -4.061265     821.5644  0.049289921  0.048847746            6 
 1390000   0.68679192   -4.0419803    820.37523  0.049183167  0.048819771            6 
 1391000   0.70567117   -4.0522128    819.78945  0.049112716  0.048791742            7 
 1392000   0.70577591   -4.0444854    822.76044  0.049255294   0.04876391            7 
 1393000   0.69283482   -4.0507571    821.77309  0.049160869  0.048735999            8 
 1394000   0.70567202   -4.0459443    820.40067   0.04904356  0.048708107           16 
 1395000   0.69982428   -4.0375152    821.58563  0.049079189  0.048680319            4 
 1396000   0.68898196   -4.0410727    822.12839  0.049076432  0.048652372            3 
 1397000   0.70292308   -4.0343776     820.6898  0.048955488  0.048624507            5 
 1398000   0.69921082   -4.0536709    824.14454  0.049126403  0.048596632            8 
 1399000    0.7036785   -4.0569172    822.52438  0.048994781  0.048568725            5 
 1400000   0.69634388   -4.0444522    821.59814  0.048904651  0.048540994            7 
 1401000   0.69066034   -4.0496841    822.29131  0.048910975   0.04851319            6 
 1402000   0.69885354   -4.0742095    823.70908  0.048960359  0.048485228            4 
 1403000   0.67204222    -4.061702    822.34276  0.048844308   0.04845717            6 
 1404000   0.69936749   -4.0634879     822.6596  0.048828324   0.04842934            6 
 1405000   0.68313965   -4.0671231     822.0116  0.048755136  0.048401315            7 
 1406000   0.69528083   -4.0289598    826.28597  0.048973801  0.048373076            5 
 1407000   0.70153725   -4.0412782    826.43158  0.048947618  0.048345003            3 
 1408000   0.70559369   -4.0515591    822.12056  0.048657704  0.048317276            6 
 1409000   0.70761229   -4.0536268    822.85319    0.0486665  0.048289459            6 
 1410000   0.70156765   -4.0642485    823.13675  0.048648744  0.048261383            4 
 1411000   0.69452037   -4.0603143    824.99221  0.048723849  0.048233483            7 
 1412000   0.69871848   -4.0689478    824.94259  0.048686413  0.048205614            6 
 1413000   0.69068533   -4.0737277    821.51084  0.048449566  0.048177759            7 
 1414000   0.69042946   -4.0757561    821.85194  0.048435405  0.048149815            5 
 1415000   0.68208426   -4.0512032    821.94771  0.048406814  0.048121867            6 
 1416000   0.69481447   -4.0389068    824.60114  0.048528787  0.048094031            7 
 1417000   0.69465459    -4.048802    825.66283  0.048556977  0.048066102            9 
 1418000   0.68354652   -4.0698918    825.83516  0.048532861  0.048038167            5 
 1419000   0.69109458   -4.0954529    823.74723  0.048376041  0.048010196           12 
 1420000    0.6983178   -4.0805788    826.33159  0.048493638  0.047982303            6 
 1421000   0.70214705   -4.0842765    824.42511  0.048347707  0.047954691            8 
 1422000   0.69529428   -4.0734041    825.26502  0.048362929  0.047926893           11 
 1423000     0.689299   -4.0669694     825.6035  0.048348764  0.047898938            3 
 1424000   0.68517191   -4.0679643    823.58751  0.048196835  0.047870954           12 
 1425000    0.6735059    -4.049818     825.9997  0.048304076  0.047842943            4 
 1426000   0.67759812   -4.0713942    823.60769  0.048130417  0.047815184            3 
 1427000   0.69512812   -4.0609508    822.86381  0.048053248  0.047787128            4 
 1428000   0.69335251   -4.0883261    824.65356   0.04812404  0.047759122            7 
 1429000   0.68978328   -4.0768975    824.67809  0.048091794  0.047731272            7 
 1430000   0.68016079     -4.07102    826.73359  0.048177948  0.047703379           10 
 1431000   0.69516618   -4.0748953      826.852  0.048151176  0.047675664            4 
 1432000   0.69119326   -4.0778022    825.10069  0.048015636  0.047647943           11 
 1433000   0.68824233   -4.0623593    827.92367  0.048146294  0.047620488            4 
 1434000   0.67945295   -4.0830564    828.68668  0.048157059  0.047592901            6 
 1435000   0.68161546   -4.0935891    826.85449  0.048017101  0.047565363            4 
 1436000   0.67752415   -4.0883498    828.65644  0.048088234  0.047537637           11 
 1437000   0.68206937   -4.0924251    828.55747   0.04804903   0.04751025            6 
 1438000   0.67650153   -4.0896808    827.77864  0.047970482   0.04748265           16 
 1439000   0.67869586   -4.0638988    829.87286  0.048058424  0.047455237            9 
 1440000   0.67589116   -4.0796766    825.26191  0.047758213  0.047427904           12 
 1441000   0.69754941   -4.0788177     829.7903  0.047986948  0.047400361            6 
 1442000   0.68776773   -4.0752058    831.38881  0.048046048   0.04737305            5 
 1443000   0.66095924   -4.0631127    827.40442  0.047782653  0.047345507            5 
 1444000   0.67130787    -4.091086    828.04951  0.047786791  0.047317954            5 
 1445000   0.68195295   -4.0762397     832.7971  0.048027515  0.047290572            7 
 1446000   0.69426933   -4.1065456    830.17851   0.04784339   0.04726348            4 
 1447000   0.68288496   -4.0878442    831.85073  0.047906631  0.047236063            4 
 1448000   0.66341442   -4.0768799    829.86837  0.047759459   0.04720874            4 
 1449000   0.68602968   -4.1080317    830.32657  0.047752851  0.047181303            4 
 1450000   0.67637709   -4.0895975     830.1214  0.047708126  0.047154097            7 
 1451000   0.67071791     -4.08476    832.72324  0.047824675  0.047127213           10 
 1452000   0.68065417   -4.0820813    831.45944  0.047719206  0.047100379            4 
 1453000   0.66733408   -4.0939107    832.78474  0.047762373  0.047073511           10 
 1454000   0.66646271   -4.0847139    834.04275  0.047801625  0.047046623            5 
 1455000   0.67835794   -4.1082415    828.44384  0.047448101  0.047019434            5 
 1456000   0.66171293   -4.1009722    829.57889  0.047480476  0.046992403            3 
 1457000   0.67178683    -4.085585    831.61378  0.047564275  0.046965227            5 
 1458000   0.66897533   -4.1011434    830.94443  0.047493395  0.046937972            5 
 1459000   0.68082743   -4.0668199    831.86913  0.047513658   0.04691083            9 
 1460000    0.6683009   -4.0897252    829.53025  0.047347617  0.046883702            5 
 1461000   0.66817927   -4.0995492    832.28287  0.047472215  0.046856237           15 
 1462000   0.67058818   -4.1054209    832.91406  0.047475721  0.046828892            4 
 1463000   0.67937895   -4.1062221    833.87074  0.047497764  0.046801673            9 
 1464000   0.66554107   -4.0770487    830.75924  0.047288208  0.046774411           15 
 1465000   0.66626697   -4.0850635    832.68602   0.04736553  0.046747216            7 
 1466000   0.67041957   -4.0988904    831.40398  0.047260345  0.046720108            8 
 1467000   0.65591681    -4.096604    833.94054  0.047372219  0.046693066           12 
 1468000   0.67236792   -4.1132634    833.46425  0.047312911  0.046665955           11 
 1469000   0.65584448   -4.0855846    833.51509  0.047283588  0.046638756            9 
 1470000   0.65512667   -4.0860326    830.39491  0.047074541  0.046611641           10 
 1471000   0.67133752   -4.1048427    834.56562  0.047278814  0.046584421           17 
 1472000   0.65915837   -4.1080708    832.89493  0.047152113  0.046557505           17 
 1473000   0.65299304   -4.1053787    832.03261  0.047071318  0.046530367            4 
 1474000   0.66108878   -4.1077159    833.91996  0.047146085  0.046503324           10 
 1475000   0.67842226   -4.1215569    831.61004  0.046983618  0.046476405            7 
 1476000   0.66872951   -4.1348193    834.46143  0.047112772  0.046449472            7 
 1477000   0.66471332   -4.1007458    834.70295  0.047094502  0.046422333            8 
 1478000   0.66201223   -4.1141444    834.19881  0.047034213  0.046395564           12 
 1479000   0.65481194    -4.109575    835.65486  0.047084453  0.046368757            7 
 1480000   0.66857058   -4.0885957    836.74104  0.047113797  0.046342086            5 
 1481000   0.66849466    -4.097887    837.33533  0.047115425   0.04631561            8 
 1482000   0.65536916   -4.1201566     835.8528   0.04700027  0.046289022            8 
 1483000   0.64136501   -4.1357032    835.78792  0.046964931  0.046262309           20 
 1484000   0.65264678   -4.1049315    836.55977  0.046976627  0.046235617           11 
 1485000   0.65665096   -4.1270848     833.1293  0.046752486  0.046209094            9 
 1486000   0.65701163   -4.1068371    834.37345  0.046790795  0.046182334           10 
 1487000   0.65725471   -4.1005536    836.02135  0.046851678  0.046155587            5 
 1488000   0.68779762   -4.1203278    836.86974  0.046867705  0.046128948            6 
 1489000   0.65994716   -4.1217506    835.68031  0.046769661  0.046102232            5 
 1490000   0.64279538    -4.126883    838.06975   0.04687191  0.046075622            8 
 1491000   0.66757823   -4.0938854     837.8318  0.046827174  0.046049114            7 
 1492000   0.65756715   -4.1019841    837.11578  0.046755796  0.046022585            8 
 1493000   0.66419812   -4.1310981    837.62937  0.046753146  0.045996103            7 
 1494000    0.6597202   -4.1334448    837.89458  0.046736645   0.04596958            7 
 1495000   0.66438252   -4.0948929    837.97938   0.04671011  0.045943234           12 
 1496000   0.66458171   -4.1305408    837.49499  0.046651904  0.045916817           14 
 1497000   0.65050035   -4.1091271    840.35934   0.04678019  0.045890429            9 
 1498000   0.65957721   -4.1416068    837.35884  0.046582045  0.045864145            5 
 1499000   0.64576705    -4.123816    838.34322  0.046605694  0.045837775           11 
 1500000   0.66513198    -4.145755    838.98217  0.046610121  0.045811461            4 
 1501000   0.65110961   -4.1464655    838.24517  0.046538151  0.045785152           15 
 1502000   0.66085836   -4.1258613    839.10219  0.046554716  0.045759028            4 
 1503000   0.64130198     -4.13434    837.61915  0.046441514  0.045732742            8 
 1504000   0.64893421   -4.1284007    838.01337  0.046432478  0.045706547            5 
 1505000   0.64551736   -4.1383659    839.14722  0.046464409  0.045680269            7 
 1506000   0.63975215   -4.1185971    842.12937  0.046598571  0.045654222            9 
 1507000   0.65806532   -4.1490519    840.91456  0.046500473  0.045628364            7 
 1508000   0.64711162   -4.1468235    841.00866  0.046474838  0.045602241           18 
 1509000   0.65273707   -4.1490217    841.90225  0.046493387   0.04557621            6 
 1510000   0.66122369   -4.1344439    843.09829  0.046528603  0.045550261            7 
 1511000   0.65555291   -4.1485643    841.70573  0.046421009  0.045524509           16 
 1512000   0.64086583   -4.1090997    839.50861  0.046269213  0.045498655            9 
 1513000   0.65233154   -4.1303009    841.43743  0.046344868  0.045472896            6 
 1514000    0.6529246   -4.1431156    841.85553  0.046337271  0.045446766           11 
 1515000   0.65340498   -4.1568285    840.46237  0.046230053  0.045420816            4 
 1516000   0.64743447   -4.1575942    841.97614  0.046282769  0.045394847            7 
 1517000   0.64493269   -4.1388625    842.77792  0.046296304  0.045369006            5 
 1518000   0.66862829   -4.1262931    842.41796  0.046246045  0.045343165           10 
 1519000   0.64216196   -4.1441786    843.46426  0.046273001  0.045317437            9 
 1520000    0.6459987   -4.1373453    844.53698   0.04630137  0.045291864            5 
 1521000   0.63600486   -4.1685071    844.45407  0.046266385  0.045266164            7 
 1522000   0.63662583   -4.1550731    842.23809  0.046114657  0.045240446            9 
 1523000   0.64878836   -4.1431265    841.07626  0.046020807  0.045214701            5 
 1524000   0.65312505   -4.1330052    843.07531  0.046099918   0.04518883            7 
 1525000   0.64599084   -4.1556246    844.37539  0.046140731  0.045162998            6 
 1526000   0.61869147   -4.1409532    844.41787  0.046112815  0.045137381            5 
 1527000   0.64288168   -4.1651449    841.30662  0.045912826  0.045111536            8 
 1528000   0.63634471   -4.1537756    844.29408  0.046045707  0.045085605           14 
 1529000   0.66349526   -4.1212349    843.13248  0.045952282  0.045059882            7 
 1530000   0.65211168   -4.1690729    842.75492  0.045901684   0.04503407            6 
 1531000   0.64309145   -4.1601664    844.92064  0.045989584  0.045008227            7 
 1532000   0.63525983   -4.1303713    843.70619  0.045893505  0.044982565            5 
 1533000   0.64169281   -4.1493878    846.06984  0.045992055  0.044956955            9 
 1534000   0.64743056   -4.1621604    842.96212  0.045793249  0.044931219            7 
 1535000   0.66466616   -4.1437408    844.39222  0.045841054  0.044905359            8 
 1536000   0.63607886   -4.1558363    843.85189  0.045781895  0.044879499           19 
 1537000   0.63826086   -4.1561622    843.82823  0.045750826  0.044853808           13 
 1538000   0.62585835   -4.1674716    846.38922  0.045859841   0.04482816           12 
 1539000   0.63315617   -4.1758586    845.35018  0.045773781  0.044802519            8 
 1540000    0.6518524   -4.1733683     846.2766  0.045794188  0.044776931            3 
 1541000   0.65778644   -4.1602458     846.5069  0.045776925  0.044751545           14 
 1542000   0.62120571   -4.1513433    847.50169  0.045800999  0.044726197            6 
 1543000   0.63489009   -4.1410029    846.38704  0.045711117  0.044700973            5 
 1544000   0.63902632   -4.1535228     846.5164  0.045688493   0.04467581            6 
 1545000   0.64913199   -4.1280559    846.77708  0.045672982  0.044650508            8 
 1546000   0.62541451   -4.1799361    845.38962  0.045568651  0.044625249            4 
 1547000   0.63791083   -4.1755256    845.04389  0.045520571  0.044599905            8 
 1548000   0.64343058   -4.1922074    844.63463  0.045469134  0.044574547            7 
 1549000   0.63432379   -4.1665345    846.93554  0.045563565  0.044549197            6 
 1550000   0.63174106   -4.1707194    844.10414  0.045381943  0.044523828            8 
 1551000    0.6227802    -4.165254    847.51693  0.045536048  0.044498494           11 
 1552000   0.64094878   -4.1659646    848.12798  0.045539518    0.0444731           10 
 1553000    0.6335768   -4.1872504    846.56036  0.045426077  0.044447639           11 
 1554000   0.62439926   -4.1403445     847.5585   0.04545037  0.044422248           12 
 1555000   0.62111347   -4.1567928    847.62771  0.045424851  0.044397084            6 
 1556000   0.62562124   -4.1773169    847.77226  0.045403399  0.044371854           17 
 1557000   0.64232286   -4.1635866    847.94442  0.045383452  0.044346529            7 
 1558000   0.62542322   -4.1521358      847.305  0.045320122   0.04432109            5 
 1559000   0.62924205    -4.139091    849.03929  0.045383755  0.044295748            5 
 1560000   0.61648157    -4.183787    846.43792  0.045215701  0.044270292           10 
 1561000   0.62116007   -4.1765295     846.8161  0.045206924  0.044244777            9 
 1562000   0.63375087   -4.1577776    848.52197  0.045268991  0.044219237           11 
 1563000   0.63034163   -4.1708694    847.99901  0.045212146  0.044193776            8 
 1564000   0.61867893   -4.1987468    847.97733  0.045182083  0.044168215            5 
 1565000   0.63530227   -4.1603897    847.67996  0.045137378  0.044142827            6 
 1566000   0.61892352   -4.1868585    846.11442  0.045025246  0.044117435           12 
 1567000   0.63209214   -4.1728434    847.16059  0.045052148   0.04409207            9 
 1568000   0.62035696   -4.1733051    848.41799  0.045090242  0.044066764            9 
 1569000   0.61372183   -4.1714188     847.7521  0.045026137  0.044041259           21 
 1570000   0.62783058   -4.1866475    849.25349  0.045077149  0.044015815            5 
 1571000   0.61142003     -4.18516     846.6082  0.044908137  0.043990209            8 
 1572000   0.61055492   -4.2204602    845.85113  0.044839436  0.043964562            5 
 1573000   0.61693415     -4.19762    846.85763  0.044864252  0.043938856            6 
 1574000   0.62310574    -4.191368    849.64323  0.044983229  0.043913267           10 
 1575000   0.61984072   -4.1859418     846.6613  0.044796894  0.043887608            8 
 1576000   0.63448036   -4.1782397    848.26424  0.044853227  0.043862209            7 
 1577000   0.63119836   -4.1720959    848.43772  0.044833953   0.04383673            7 
 1578000   0.64199254   -4.1782298    847.29176  0.044745023  0.043811295            9 
 1579000    0.6307257   -4.1919423    848.96253  0.044804862  0.043785773            9 
 1580000   0.61623196   -4.1800816    847.65601  0.044707596  0.043760249            4 
 1581000   0.62010429   -4.2046662    847.46009  0.044668991  0.043734636            7 
 1582000   0.61173139   -4.1898607    848.47541  0.044694238  0.043709063           12 
 1583000   0.62527085   -4.1776319    849.61007  0.044725736  0.043683559           29 
 1584000   0.63324761   -4.1913038    852.65914  0.044857909  0.043658369            7 
 1585000   0.61923188   -4.1791049    849.07528  0.044641182   0.04363318           35 
 1586000   0.62884331   -4.2073651    849.81464  0.044651883  0.043607851           15 
 1587000   0.63014081   -4.2009906    849.32913  0.044598253  0.043582596           18 
 1588000   0.61187449   -4.2122001    849.69124  0.044589171  0.043557174           13 
 1589000    0.6233422   -4.1830376    850.93891  0.044626542  0.043531792           14 
 1590000   0.61044879   -4.2329585    847.07605  0.044396019  0.043506357            7 
 1591000   0.60410575   -4.1905808    848.79682  0.044458245  0.043480897            7 
 1592000   0.62984367   -4.1691165    849.93387  0.044489838  0.043455582           11 
 1593000   0.62970208   -4.1740393    848.07467  0.044364651   0.04343029           10 
 1594000   0.60929706    -4.197957    848.64881  0.044366834  0.043404843           12 
 1595000   0.62664031   -4.2039902    849.45791  0.044381291  0.043379268            9 
 1596000   0.61507735   -4.2019266    848.01428  0.044278106  0.043353818            7 
 1597000   0.60498293   -4.1978301    849.90294  0.044348932  0.043328385            7 
 1598000   0.60649969   -4.2292767    848.96066  0.044272041  0.043303039            8 
 1599000   0.60999437   -4.2019373    849.31244  0.044262687  0.043277674            8 
 1600000   0.62047707   -4.1987984    847.96782   0.04416499  0.043252476           13 
 1601000   0.61625374   -4.2082441    849.07046  0.044194798  0.043227104            9 
 1602000   0.61710544   -4.2020575    848.62181  0.044143873  0.043201709            9 
 1603000   0.62616694   -4.2071858    851.60136  0.044271229  0.043176303            7 
 1604000   0.60796413   -4.2085741    850.45075   0.04418385  0.043151086            5 
 1605000   0.62028463   -4.2150684    848.26778  0.044042979  0.043125751            5 
 1606000   0.60473781   -4.2148428     849.2959  0.044068903  0.043100303            6 
 1607000   0.61185712   -4.2184474    849.30515   0.04404196  0.043074988           12 
 1608000   0.60963488   -4.2009144     850.3066  0.044066469  0.043049795           11 
 1609000   0.62177328   -4.2074338    849.02212  0.043972557  0.043024461            7 
 1610000   0.61417505   -4.1913011      848.937  0.043940839  0.042999045            7 
 1611000   0.61798955   -4.2058113    849.70414  0.043953245  0.042973835           12 
 1612000    0.6132217   -4.2197698    847.56209  0.043815244  0.042948567            7 
 1613000   0.61078534   -4.1982789    851.99153  0.044016921   0.04292336            6 
 1614000   0.60600772   -4.2186002    850.38797  0.043906855  0.042898144           11 
 1615000    0.6031997   -4.1986911    850.55207  0.043888135  0.042872987            7 
 1616000   0.62433564    -4.203751    851.41989  0.043905729  0.042847812           13 
 1617000   0.60412456   -4.2241529    849.80008  0.043795098   0.04282265           12 
 1618000   0.60227311   -4.2208861     851.8505  0.043873635  0.042797281           15 
 1619000   0.60455536    -4.221202    850.28756  0.043766088  0.042772069            8 
 1620000   0.60075434   -4.2129137    850.22359  0.043735782  0.042746847           10 
 1621000    0.6114797   -4.1995262    850.55127  0.043725646  0.042721688           18 
 1622000   0.59893691   -4.2336219     847.9182  0.043563409  0.042696404            7 
 1623000   0.60903403    -4.224476    851.79486  0.043735616   0.04267122            9 
 1624000   0.60196471   -4.2134703    851.53072  0.043695131  0.042646155           11 
 1625000   0.60533846   -4.2042625    853.07185  0.043747274  0.042621114            6 
 1626000   0.60593092   -4.2049897    852.24575  0.043678031  0.042595954           11 
 1627000   0.61470582   -4.2287515    848.89165  0.043479392  0.042570743            5 
 1628000   0.60032808   -4.2051386    851.81255  0.043602198  0.042545577            8 
 1629000   0.60356295   -4.2259282    851.38752  0.043553689  0.042520462           13 
 1630000   0.59256408   -4.2318065    850.92145  0.043503142   0.04249538           16 
 1631000   0.60731206    -4.196521    853.62279  0.043614489  0.042470348           13 
 1632000   0.60278507   -4.2264152    851.11364  0.043459642  0.042445278            9 
 1633000   0.59859478   -4.2103178    852.25272  0.043491157  0.042420093            7 
 1634000    0.6111434   -4.2110278    849.60115  0.043329312  0.042394896            8 
 1635000    0.5986636   -4.2298159    851.64317  0.043406889  0.042369799           10 
 1636000   0.59873262   -4.2241039    849.91985  0.043292576   0.04234469            9 
 1637000   0.60045246   -4.2532798    851.53099  0.043348146  0.042319524            8 
 1638000   0.60830472   -4.2405951    855.14245  0.043505416  0.042294372            7 
 1639000    0.5935504   -4.2264927    852.09645  0.043324001  0.042269164           20 
 1640000   0.59848487   -4.2402703    852.05651  0.043295554  0.042244119           17 
 1641000   0.60288164   -4.2386288    853.09829  0.043322074  0.042219172            9 
 1642000    0.6092326    -4.218882    849.53356  0.043114777  0.042194119            5 
 1643000   0.59231482   -4.2291003    851.73536  0.043200211   0.04216902           10 
 1644000   0.59401267   -4.2291048    852.13564  0.043194223  0.042144066           10 
 1645000    0.6103463   -4.2379094    855.17299  0.043321833  0.042119104           12 
 1646000   0.59302336   -4.2389738    850.67886  0.043067986  0.042093965           12 
 1647000   0.60829747   -4.2442693    852.77775  0.043148034  0.042068884           14 
 1648000     0.602771   -4.2354151    852.94071  0.043130093  0.042043892            5 
 1649000   0.59799135   -4.2400315    850.72391   0.04299191  0.042018919            5 
 1650000   0.61049765   -4.2543393    850.67909   0.04296359  0.041993885           16 
 1651000   0.60572889   -4.2364749    852.73556  0.043041367  0.041968967            9 
 1652000   0.58683127   -4.2536132    850.42645  0.042898832  0.041943795           10 
 1653000   0.59336732   -4.2398445    851.57797  0.042930932  0.041918677            8 
 1654000   0.58081402   -4.2597952    851.60408  0.042906292  0.041893616            7 
 1655000   0.59409416    -4.272207    851.46013  0.042873118  0.041868449           16 
 1656000   0.59583732   -4.2280972    849.87615  0.042767519  0.041843339            9 
 1657000   0.59425477   -4.2267483    852.95128  0.042896363  0.041818145           14 
 1658000   0.58996904   -4.2683256    849.05909  0.042674864   0.04179293           12 
 1659000   0.59459231   -4.2329642     852.5065  0.042822307  0.041767715            7 
 1660000   0.59599456   -4.2419875    855.41532  0.042942536  0.041742754           10 
 1661000   0.58214719    -4.230226    851.24819  0.042707615  0.041717763           12 
 1662000   0.59256538   -4.2271783     852.1654  0.042727908  0.041692809           12 
 1663000   0.58775829   -4.2477502    853.86313  0.042787289  0.041667761           11 
 1664000     0.573573   -4.2438473    851.90512  0.042663518  0.041642705           17 
 1665000   0.58400408   -4.2644531    855.03186  0.042794387  0.041617639            8 
 1666000     0.587101   -4.2522481    854.52679  0.042743437  0.041592617           11 
 1667000   0.58270637   -4.2368541    852.68995  0.042625972   0.04156761           22 
 1668000    0.5847548   -4.2612522    853.13089  0.042622447  0.041542636           12 
 1669000   0.57802512   -4.2455351    855.50785  0.042715591   0.04151769           11 
 1670000   0.59680098   -4.2630494    852.72339  0.042551068  0.041492779           10 
 1671000   0.57112518   -4.2458295    852.61373  0.042520134  0.041467845           13 
 1672000      0.60227    -4.239307    854.06106  0.042566839  0.041442994           10 
 1673000   0.59280879   -4.2598259    853.27428  0.042502206  0.041418163           17 
 1674000   0.57932582   -4.2608964    852.35261  0.042430934  0.041393263            8 
 1675000   0.59226837    -4.253425    854.65381   0.04252009  0.041368399           13 
 1676000   0.58298405   -4.2682821    855.56148  0.042539851  0.041343687           17 
 1677000   0.57575593   -4.2787833    853.51423  0.042412752  0.041318963            8 
 1678000   0.57901368   -4.2675142    853.40142  0.042381874  0.041294225           12 
 1679000   0.58476938    -4.262061    853.78908  0.042375872  0.041269515           19 
 1680000   0.57333849   -4.2443687    853.27028  0.042324915  0.041244738           14 
 1681000   0.56526187   -4.2803346    853.41091  0.042306708  0.041220081           15 
 1682000   0.58337892   -4.2776959    852.34751   0.04222887   0.04119536           15 
 1683000    0.5668515   -4.2650857    851.33553  0.042153671  0.041170423            9 
 1684000   0.58098707    -4.254912    854.36658  0.042278631  0.041145693            6 
 1685000   0.59231866   -4.3005096    853.06861  0.042189348     0.041121            5 
 1686000   0.58263595   -4.2821984    853.40778  0.042181088  0.041096185           12 
 1687000   0.58601162   -4.2817758    853.19278  0.042145464  0.041071432           12 
 1688000   0.58120098   -4.2551378     854.4091  0.042180544  0.041046704           17 
 1689000   0.58283068    -4.283048    852.37874  0.042055395  0.041021985           33 
 1690000   0.57587693   -4.2662953     856.4449  0.042231011  0.040997311            6 
 1691000   0.58574619   -4.2826827    855.86583    0.0421775  0.040972803            8 
 1692000   0.58293609   -4.2755344     855.8833  0.042153433  0.040948166           27 
 1693000   0.57696504   -4.2779657    854.65781  0.042068213   0.04092352           13 
 1694000   0.58526934   -4.2820248    857.73035  0.042194527  0.040898972            9 
 1695000   0.58404035   -4.2756394    855.46637  0.042058327  0.040874382            9 
 1696000   0.58010393   -4.2789119    854.48545  0.041985331  0.040849813            9 
 1697000   0.58549581   -4.2819544    854.38652  0.041955732  0.040825249           15 
 1698000   0.58596041   -4.2836684    854.71289   0.04194704  0.040800632           18 
 1699000   0.57555529   -4.2646701    852.93451  0.041835124  0.040776086           10 
 1700000   0.57823629   -4.2760963     855.0474  0.041914088    0.0407515            9 
 1701000   0.57209017   -4.2671478    854.69195  0.041872033  0.040727037           18 
 1702000   0.57636181   -4.2878335    854.92015  0.041858605  0.040702682           12 
 1703000   0.55720284   -4.2829397    855.36014  0.041855556  0.040678172           11 
 1704000    0.5662562   -4.2884671    856.09733  0.041867045  0.040653687           12 
 1705000   0.56842036   -4.2788489    856.15802  0.041845456  0.040629273           17 
 1706000   0.56491919   -4.2785419    855.88082  0.041807387    0.0406048            8 
 1707000   0.56738959    -4.282215     855.7748  0.041777719  0.040580416           16 
 1708000   0.56589704   -4.2705502     855.2445  0.041727386  0.040555976            8 
 1709000   0.57313785   -4.2888065    856.21362  0.041750225  0.040531468           17 
 1710000   0.56575175   -4.2920534    855.92035  0.041711518  0.040507043           11 
 1711000   0.56827756   -4.2848577    854.74282  0.041629789  0.040482543           25 
 1712000     0.572192   -4.2967946     853.4474  0.041542416  0.040458072            5 
 1713000   0.57303984   -4.2876934    856.44279  0.041663884  0.040433721           13 
 1714000   0.56095595   -4.2945386    855.81473   0.04160904  0.040409304            8 
 1715000   0.56638745    -4.280859    854.28108  0.041510257  0.040384938           15 
 1716000   0.58107288   -4.2874887    856.34435  0.041586264  0.040360599           17 
 1717000   0.57917842   -4.2848158    856.87395  0.041587748  0.040336196           10 
 1718000   0.57039852   -4.2919187    854.75227  0.041460626  0.040311793            9 
 1719000    0.5710693   -4.3140249    855.56425   0.04147587  0.040287315            7 
 1720000   0.55689379   -4.2828569    854.78905  0.041414198  0.040262749           25 
 1721000   0.56615475   -4.3148678    856.17009  0.041457006  0.040238254           13 
 1722000   0.55917219   -4.2969978    856.39066  0.041443605  0.040213896            8 
 1723000   0.57025651   -4.3067034    855.81888  0.041391898   0.04018953           13 
 1724000   0.56578865   -4.2986524    857.21768  0.041435503  0.040165205            7 
 1725000   0.55209266   -4.3102412    854.36168  0.041273511  0.040140764           10 
 1726000    0.5748088   -4.2993331    853.88462  0.041226565  0.040116343            9 
 1727000    0.5714619   -4.2845337    857.64422  0.041384106  0.040092096           10 
 1728000   0.57392592   -4.2956867    856.19834  0.041290429  0.040067908           14 
 1729000   0.56100614   -4.3077497    855.60976   0.04123818  0.040043605           16 
 1730000   0.56300863   -4.3034287    855.18344  0.041193808  0.040019401            8 
 1731000   0.55712635   -4.2902878    856.53582  0.041235115   0.03999517            9 
 1732000   0.55201687   -4.2982887    855.39598  0.041156466  0.039970788           12 
 1733000   0.56749846   -4.3061769    856.81543  0.041200973  0.039946396            5 
 1734000   0.56297712   -4.3068918    855.11744   0.04109561  0.039922114           15 
 1735000   0.56071623   -4.3057045    856.90309  0.041157689  0.039897803           12 
 1736000   0.55523757    -4.294209    856.41043  0.041110332  0.039873578           13 
 1737000   0.56721156    -4.324639    853.70545  0.040956892  0.039849361            7 
 1738000   0.55781234   -4.3097978    854.87962  0.040989625  0.039825087           16 
 1739000   0.56735386   -4.3141168    857.01827  0.041068539  0.039800899           10 
 1740000   0.55338915   -4.3262841     854.3713  0.040918166    0.0397767           17 
 1741000   0.54187012   -4.2830273    858.79825   0.04110656  0.039752529           11 
 1742000   0.56138539   -4.3098472    855.92956  0.040945731  0.039728396           36 
 1743000   0.55579635   -4.3288166    854.91801  0.040873877    0.0397041           14 
 1744000   0.55728603   -4.3236155    856.07991  0.040905959  0.039679838           13 
 1745000   0.56096725   -4.3152962    856.00204  0.040878798  0.039655699           10 
 1746000   0.56232027   -4.3167666    858.82515  0.040990128  0.039631573           14 
 1747000   0.56424727   -4.3239671    855.38503  0.040802568  0.039607508           14 
 1748000   0.56731536   -4.3162046    858.54099  0.040929681  0.039583538           11 
 1749000   0.55380163   -4.3128969    858.10974  0.040885732  0.039559528           10 
 1750000   0.55100048   -4.3184616    855.65774  0.040745607  0.039535457           15 
 1751000   0.55406395   -4.3158934     856.5078  0.040762793  0.039511426           17 
 1752000   0.55324949   -4.3174097    858.43147  0.040831025  0.039487561            8 
 1753000   0.55714714   -4.3189461    857.46742  0.040761905  0.039463638           10 
 1754000   0.55116855   -4.3410717    857.68257  0.040748887  0.039439653           15 
 1755000   0.54550835   -4.3465042    857.93996   0.04073789  0.039415629           11 
 1756000   0.55062029   -4.3254413    857.75389  0.040705861  0.039391678            8 
 1757000   0.55806728   -4.3131672    856.62641  0.040629217  0.039367797           11 
 1758000   0.54574083   -4.3331955    858.66582  0.040702779  0.039343898           11 
 1759000   0.53926119   -4.3284113    856.15284  0.040560586  0.039319986            5 
 1760000   0.55161605    -4.331651    856.94534  0.040575064   0.03929606           16 
 1761000   0.54228026   -4.3138299    857.95987  0.040600032  0.039272205            8 
 1762000   0.55647094   -4.3188551    858.08479  0.040582898  0.039248391           10 
 1763000   0.54591308   -4.3154464    857.82845  0.040547762  0.039224569           12 
 1764000   0.54295253    -4.350636    857.26771  0.040498286  0.039200666           17 
 1765000   0.53499901    -4.330273    859.15197  0.040564305  0.039176756           20 
 1766000   0.54628276   -4.3340171    856.44895  0.040413786  0.039152786           21 
 1767000   0.54018831   -4.3239119    855.68351  0.040354816  0.039128866           11 
 1768000    0.5384838   -4.3439822     858.6651  0.040472525  0.039104918            7 
 1769000   0.54594251   -4.3305775    858.67883  0.040450294  0.039081054            6 
 1770000   0.54401952   -4.3225665    857.25673  0.040360486  0.039057289           10 
 1771000   0.54628411   -4.3111253    859.53407  0.040444855  0.039033363           17 
 1772000   0.54706373   -4.3442277      858.086  0.040353931  0.039009566           12 
 1773000   0.54417533   -4.3249126    855.79048  0.040223279  0.038985531           21 
 1774000   0.53432115   -4.3216542    857.26216  0.040269737  0.038961605           14 
 1775000   0.54387588    -4.341724    856.73181   0.04022215  0.038937742           15 
 1776000   0.54537933   -4.3469586     855.5915  0.040145998  0.038913797           57 
 1777000   0.55644664    -4.336368      856.922    0.0401858  0.038889983           45 
 1778000   0.53251669   -4.3360098    858.06585  0.040216809  0.038866171            8 
 1779000   0.53266155   -4.3463779    856.82032  0.040135859   0.03884238           11 
 1780000   0.54795886   -4.3360731    858.98502  0.040214654  0.038818562           29 
 1781000   0.53386732   -4.3340866    858.77499  0.040182247  0.038794876           16 
 1782000   0.52759263   -4.3594328    858.51981  0.040147765  0.038771147           25 
 1783000   0.53857137    -4.323172    857.82173  0.040092621  0.038747513           18 
 1784000   0.52128612   -4.3429971    858.16794   0.04008632  0.038723986           13 
 1785000   0.54048573   -4.3422267    859.35308  0.040119192  0.038700351           43 
 1786000   0.54543908   -4.3551171    859.50405  0.040103772  0.038676715           59 
 1787000   0.53404496    -4.338688    858.85969  0.040051282   0.03865312           35 
 1788000   0.53625981   -4.3467939    856.65941  0.039926333  0.038629476           20 
 1789000   0.53247708   -4.3576838    858.07338   0.03996988  0.038605811           11 
 1790000   0.52784508   -4.3569402    858.66426  0.039975059  0.038582196           18 
 1791000   0.54388667   -4.3586173      859.269  0.039980877  0.038558616           17 
 1792000   0.53203166   -4.3485578    857.76118  0.039888448  0.038534959           14 
 1793000   0.53191025   -4.3611387    859.77524  0.039959809  0.038511297           13 
 1794000   0.51597933   -4.3409897     859.4876  0.039924173  0.038487769            9 
 1795000   0.53244368   -4.3459057    858.89147  0.039874256  0.038464264           16 
 1796000   0.53794547   -4.3396454     859.8292  0.039895564  0.038440767           36 
 1797000   0.53913082   -4.3452795    858.16834  0.039796343  0.038417184           17 
 1798000   0.54011673   -4.3536705    859.58608  0.039839918  0.038393675           19 
 1799000   0.53184788   -4.3381379    857.44203  0.039718456   0.03837022            9 
 1800000   0.54043481   -4.3505057    858.86999    0.0397625  0.038346845           12 
 1801000   0.53248777    -4.370308    859.93943  0.039789905  0.038323374           13 
 1802000   0.52999878   -4.3599595     858.6326   0.03970739  0.038300014           35 
 1803000   0.54232957   -4.3641677    858.33929   0.03967181  0.038276648           14 
 1804000   0.52976619   -4.3612684    858.09736  0.039638644  0.038253318           13 
 1805000   0.53413391   -4.3738839     860.0831  0.039708361   0.03822992           18 
 1806000   0.52022058   -4.3448681    860.08805  0.039686603  0.038206566           19 
 1807000   0.53886149   -4.3472068    860.15458  0.039667708  0.038183167            6 
 1808000     0.528846    -4.376086     859.5186  0.039616455  0.038159858           10 
 1809000   0.53714387   -4.3642131    857.96501  0.039522987  0.038136415            6 
 1810000   0.53422204   -4.3445974    859.56096   0.03957463  0.038113051           15 
 1811000   0.53229891   -4.3861953    858.36428  0.039497712  0.038089653           14 
 1812000   0.52341561   -4.3738041     859.5283  0.039529447  0.038066167           16 
 1813000    0.5207979   -4.3626658    857.67866  0.039422626  0.038042773           41 
 1814000   0.53423474   -4.3813025     856.0808   0.03932749  0.038019355           12 
 1815000   0.53251164   -4.3665734     860.2705  0.039498186  0.037995921           16 
 1816000   0.52428364   -4.3668417    859.49333  0.039440773   0.03797244           20 
 1817000   0.53000872   -4.3916711    858.05023  0.039352881  0.037949114           13 
 1818000    0.5328319   -4.3744057      858.807  0.039365924  0.037925749           20 
 1819000   0.53513329   -4.3848394     858.7763  0.039342876  0.037902379           13 
 1820000   0.52753349    -4.379501    855.66937     0.039179  0.037879054           15 
 1821000   0.52163168   -4.3817578    860.04375  0.039357667  0.037855655           16 
 1822000   0.52533865   -4.3997007     858.5419  0.039267375  0.037832322            8 
 1823000   0.51347532   -4.3851203    860.34044  0.039328051  0.037808948            8 
 1824000   0.52586962   -4.3927991    859.29897  0.039258908  0.037785643            7 
 1825000   0.53042689   -4.3982001     860.4176  0.039288475   0.03776227           15 
 1826000   0.53509808   -4.3728576     857.7238  0.039144022  0.037738882            8 
 1827000   0.52378169   -4.3942265    858.14777  0.039141934  0.037715563           20 
 1828000   0.52024289   -4.3875231    859.05111  0.039161703  0.037692242            9 
 1829000   0.52096073   -4.3650001     858.5297  0.039116534  0.037668952           12 
 1830000   0.51871281   -4.3958487    857.32405  0.039040257  0.037645657           12 
 1831000   0.52604412    -4.386756    860.63507  0.039169628  0.037622354            6 
 1832000   0.51642834   -4.3838816    860.09458  0.039123662  0.037599152           10 
 1833000   0.52894077   -4.3616703    859.95068  0.039095776  0.037575979            7 
 1834000   0.52586039    -4.398665    858.25882  0.038997584   0.03755289           16 
 1835000   0.50885046    -4.384597    857.61145  0.038946932  0.037529671           19 
 1836000   0.51648613   -4.3904492    858.07058  0.038946559  0.037506379           13 
 1837000   0.50832987   -4.3891845    858.16108  0.038929463  0.037483189           27 
 1838000   0.51860062   -4.3857562     859.8643  0.038985505  0.037460073           16 
 1839000   0.51986193   -4.3921204    859.35944  0.038941429  0.037437005           22 
 1840000   0.51336338   -4.3869522    859.10616  0.038908793  0.037413913           35 
 1841000    0.5248086   -4.3989701    857.89882  0.038833008  0.037390718           32 
 1842000   0.51017919   -4.4015411    857.43789  0.038791073  0.037367603           12 
 1843000   0.51304091   -4.3990886    858.33639  0.038810653  0.037344368           16 
 1844000   0.50426701   -4.3874096    858.72629  0.038807226  0.037321182           27 
 1845000   0.51745187   -4.3900368    858.42883  0.038772757  0.037298133           12 
 1846000   0.52141106   -4.3973442    856.29294  0.038655333  0.037274949           15 
 1847000   0.51153731   -4.3935711    859.81624   0.03879337  0.037251834           14 
 1848000   0.51347739   -4.4035215    858.37156  0.038707231  0.037228728           14 
 1849000   0.51981643   -4.4060315    858.29664   0.03868292  0.037205708            9 
 1850000   0.52772708   -4.4157109    857.73694  0.038636799  0.037182667           24 
 1851000   0.51730514   -4.4084236    857.14212  0.038589147  0.037159558           20 
 1852000   0.51203097   -4.3950211    857.93366  0.038603926  0.037136486           24 
 1853000   0.52410542   -4.3933902    858.79151  0.038621673  0.037113446           47 
 1854000   0.50561834   -4.3977104    859.47616  0.038631615  0.037090402           24 
 1855000    0.5127598   -4.4099495    859.14387  0.038595861  0.037067384           20 
 1856000   0.51643534   -4.4090068    859.98822  0.038612977   0.03704439           16 
 1857000   0.52246914   -4.4093158    857.99256  0.038502628  0.037021399           18 
 1858000   0.51871738   -4.3860194    860.37302  0.038588672   0.03699847           18 
 1859000   0.50989357   -4.4151727     861.8367  0.038633526  0.036975499           34 
 1860000   0.51353973   -4.3909832    859.55951  0.038510731  0.036952532           13 
 1861000   0.51588991   -4.4124287    859.14547  0.038471497  0.036929533           26 
 1862000   0.50731221   -4.3865225     858.9434  0.038441792  0.036906595           12 
 1863000   0.50157141   -4.4261185    856.75949   0.03832347    0.0368836           36 
 1864000   0.50138756   -4.3958071    860.21406  0.038457352  0.036860553           12 
 1865000   0.50352424    -4.392942    858.92579  0.038379168  0.036837563           12 
 1866000    0.5101184    -4.398293    858.83087  0.038354362   0.03681467           22 
 1867000   0.50822454   -4.4069479    858.30163  0.038310196  0.036791741           12 
 1868000   0.51023606   -4.4179847    859.30373  0.038334392  0.036768831           12 
 1869000   0.50268952   -4.4185657    856.49114  0.038188476  0.036745808           10 
 1870000   0.51108728   -4.4163414    858.80826  0.038271313  0.036722835           19 
 1871000   0.51064661    -4.416017    858.07111  0.038218026  0.036699943           23 
 1872000   0.49996991   -4.4191066    857.61926  0.038177495  0.036677073           10 
 1873000   0.51975617   -4.4250502    859.88286  0.038257824  0.036654171           16 
 1874000   0.52120611   -4.4083645    859.27718  0.038210476   0.03663134           22 
 1875000   0.50182904   -4.4170132    857.34084  0.038104037  0.036608632            7 
 1876000   0.49931597   -4.4080523    860.22107  0.038211668  0.036585806           29 
 1877000    0.5030682   -4.4187213    858.38484  0.038109787  0.036563052           45 
 1878000   0.50430453    -4.413398    858.90449  0.038112553  0.036540258           12 
 1879000   0.50036282   -4.4235593    860.17476  0.038148606  0.036517538           10 
 1880000   0.49571492   -4.4106254     861.9976  0.038209113  0.036494861           21 
 1881000   0.50809496   -4.4003647    858.83658  0.038048759  0.036472224           18 
 1882000   0.50733849   -4.4071667    860.89428  0.038119654  0.036449565           24 
 1883000   0.49333666    -4.417653    857.87437  0.037965763  0.036426853           18 
 1884000   0.50719408    -4.433134     859.0137  0.037996006  0.036404014           20 
 1885000   0.50280836   -4.4444374    859.04748  0.037977342  0.036381161           19 
 1886000   0.50152659   -4.4502789    858.59505  0.037937215  0.036358389           30 
 1887000    0.5026677   -4.4441773    858.25859  0.037902252  0.036335619           19 
 1888000   0.49083584   -4.4384585    857.52206  0.037849667  0.036312819           20 
 1889000    0.5040546   -4.4340287    860.28662  0.037951589   0.03629009           15 
 1890000   0.49596911   -4.4368262    858.66804  0.037860143  0.036267375           12 
 1891000   0.49156021   -4.4405658    858.55638  0.037835201  0.036244679           19 
 1892000   0.48476375   -4.4095307    859.48955  0.037856305  0.036221954           12 
 1893000   0.50330268   -4.4258626    859.33552  0.037829526  0.036199302           41 
 1894000   0.49724376   -4.4308208    858.40769   0.03776873  0.036176624           26 
 1895000   0.50517493   -4.4276014    857.66274  0.037716039  0.036154068           12 
 1896000   0.48966482   -4.4287559    860.37873  0.037815521   0.03613154           17 
 1897000   0.49895609   -4.4376812    858.28601  0.037703656   0.03610887           15 
 1898000    0.4964599   -4.4319362    857.08287  0.037630965  0.036086213           13 
 1899000   0.49809479   -4.4409396    858.63974  0.037679469  0.036063553           14 
 1900000   0.49094012   -4.4467194     857.7135  0.037619013  0.036040841           19 
 1901000   0.50683343   -4.4335835    856.59247  0.037550082  0.036018204           18 
 1902000   0.49341716   -4.4372921     857.1176  0.037553347  0.035995527           52 
 1903000   0.49439726   -4.4462947    856.88842  0.037523578  0.035972883           37 
 1904000   0.49310644   -4.4408158    856.67352  0.037494464  0.035950194           54 
 1905000   0.48668387   -4.4361464    859.04995  0.037578738  0.035927534           48 
 1906000   0.49346106   -4.4359616    857.84871  0.037506502   0.03590483           43 
 1907000   0.49552449   -4.4636999    855.82463  0.037398384  0.035882183           48 
 1908000   0.50222881   -4.4385653     859.7284  0.037549284  0.035859611           11 
 1909000   0.48725971   -4.4565534    858.06605  0.037457048   0.03583706           15 
 1910000   0.48689113   -4.4353892    857.88635  0.037429597  0.035814491           41 
 1911000   0.48878917   -4.4596449    856.64813  0.037356015  0.035791933           18 
 1912000   0.49205915   -4.4428757    856.09627  0.037312424  0.035769267           15 
 1913000   0.48057756   -4.4463481    858.39535  0.037393072  0.035746708           26 
 1914000   0.49385429   -4.4574729    856.69375  0.037299449  0.035724119           21 
 1915000   0.49018715   -4.4598762     855.4447  0.037225618  0.035701495           18 
 1916000   0.49512027   -4.4603771    857.80345  0.037308779  0.035678872           24 
 1917000    0.4940446   -4.4552704     856.8249  0.037246779  0.035656283           15 
 1918000   0.49583783   -4.4576239    857.25754  0.037246156  0.035633683           31 
 1919000   0.48025141   -4.4586706    856.51063  0.037194312  0.035611129           60 
 1920000   0.48967294   -4.4762625    857.31396  0.037209807  0.035588468           57 
 1921000   0.49528424   -4.4523215    857.31116  0.037190316  0.035565908           78 
 1922000   0.47749503   -4.4690416      855.941  0.037111559  0.035543252           86 
 1923000   0.49514985   -4.4719183    855.75331  0.037084127  0.035520536           36 
 1924000   0.49456843   -4.4701114    855.55157  0.037056114  0.035497873           91 
 1925000   0.48683395   -4.4717802    856.37847  0.037072661  0.035475201          105 
 1926000   0.48098444   -4.4770389    855.64757  0.037021788  0.035452613          103 
 1927000   0.48015417   -4.4803747     857.5494  0.037084821   0.03543003           80 
 1928000    0.4861933   -4.4470728    859.12975  0.037133893  0.035407543           30 
 1929000   0.48178856   -4.4483069    857.40265  0.037040032  0.035385113           30 
 1930000   0.47822478    -4.466663    856.26015  0.036971509  0.035362634           42 
 1931000   0.48342153   -4.4664061    855.82565  0.036933612  0.035340135           92 
 1932000   0.47805551    -4.466741    855.67242  0.036907886  0.035317592           54 
 1933000   0.47882222   -4.4708791      857.484  0.036966891  0.035295112          100 
 1934000   0.47967292   -4.4749416    857.40446   0.03694435  0.035272603           29 
 1935000   0.46893136   -4.4723374    856.07206  0.036867875  0.035250105           44 
 1936000   0.47767217   -4.4829946    854.25491  0.036770614  0.035227608           19 
 1937000   0.47241072   -4.4639855    854.85526  0.036777459  0.035205108           19 
 1938000   0.47957635   -4.4642042    856.78726  0.036841557  0.035182707           33 
 1939000   0.48431438   -4.4483718    856.17792  0.036796369  0.035160313           31 
 1940000   0.47620816   -4.4713735      855.327  0.036740851  0.035137983           27 
 1941000   0.47891436    -4.466738    856.92489  0.036790524  0.035115701           18 
 1942000    0.4783885   -4.4661781    856.60888  0.036758019  0.035093475           61 
 1943000   0.48063401   -4.4603259    856.97176  0.036754665  0.035071222           37 
 1944000   0.47683122   -4.4547861    859.03426  0.036824171  0.035048961           19 
 1945000   0.47417073   -4.4865462    855.75776  0.036664857   0.03502673           23 
 1946000   0.47524208   -4.4727233    857.54718  0.036722644  0.035004447           17 
 1947000   0.47331067   -4.4742348    858.27276  0.036734838  0.034982254           11 
 1948000   0.46342967   -4.4770898    856.25455  0.036629644  0.034959973           13 
 1949000   0.46445943   -4.4801305    857.96701  0.036684069  0.034937713           15 
 1950000   0.47394402   -4.4791047    856.97203  0.036622736  0.034915555           52 
 1951000   0.47437091   -4.4923937    858.15502  0.036654494  0.034893388           26 
 1952000   0.47026694   -4.4773409    858.18756  0.036637106  0.034871282           17 
 1953000   0.47599067   -4.4776605    858.09444  0.036614373  0.034849163           23 
 1954000   0.48262752   -4.4741914    857.17889  0.036556589  0.034827078           21 
 1955000   0.47446417    -4.477897     857.3614  0.036545669  0.034805001            9 
 1956000   0.46678266   -4.4738384    856.62128  0.036495453  0.034783006           20 
 1957000   0.47534156   -4.5005329    856.43847   0.03646902  0.034760982           43 
 1958000   0.46341981   -4.4880661    857.54583  0.036497524  0.034738915           12 
 1959000   0.46917321   -4.4860079    858.10711   0.03650277  0.034716813           33 
 1960000   0.47160868   -4.4866432    858.89203  0.036517518  0.034694807           32 
 1961000   0.47324721   -4.4783188    859.09621  0.036507573  0.034672844           40 
 1962000   0.46769159   -4.4854317     857.5894  0.036424966   0.03465086           18 
 1963000   0.46841986   -4.4817371    856.44698  0.036357912  0.034628847           24 
 1964000   0.46413444   -4.5046703    855.67581  0.036306679  0.034606894           18 
 1965000   0.46689638   -4.4954903    857.36122  0.036359678  0.034584895           17 
 1966000   0.47394673   -4.5004101    858.31534  0.036381627  0.034562952           10 
 1967000   0.47786231   -4.4962356    856.41246  0.036282514  0.034540973           24 
 1968000   0.46614496   -4.4835926    857.46688  0.036308726  0.034519045           68 
 1969000   0.46475188   -4.4956894    858.14208  0.036318862  0.034497089           46 
 1970000   0.47068563   -4.5005922    855.82469  0.036202398  0.034475206           35 
 1971000   0.47907104   -4.5038702    856.98268   0.03623299  0.034453287           46 
 1972000   0.46335035   -4.4914753    856.95049  0.036213256  0.034431386           44 
 1973000   0.46028099   -4.4936836    856.72029  0.036185179  0.034409453           73 
 1974000   0.46544742   -4.5049055    856.03221    0.0361378  0.034387511           67 
 1975000   0.47251445    -4.494133    857.52629  0.036182544  0.034365554           59 
 1976000   0.45630151   -4.4953514    855.38583  0.036073964  0.034343596           53 
 1977000    0.4572567   -4.5066425     856.2322  0.036091393  0.034321631           32 
 1978000   0.47392716   -4.5312211    856.66291  0.036091292  0.034299701           45 
 1979000    0.4614033   -4.5132542    857.78727    0.0361204  0.034277735           69 
 1980000   0.45462603   -4.5184384    857.55649  0.036092445  0.034255812          127 
 1981000   0.46374918   -4.5240419    854.64999   0.03595196  0.034233813           55 
 1982000   0.47398137   -4.5092315    854.79146  0.035939769  0.034211872          303 
 1983000     0.467287   -4.5150617     855.7538  0.035962086  0.034189944           79 
 1984000   0.45477044   -4.5154089    855.62117  0.035938389  0.034167986          100 
 1985000    0.4635185   -4.5109439    853.88458  0.035847379  0.034146021           68 
 1986000     0.459084   -4.5096956    856.06734  0.035920919  0.034124091          149 
 1987000   0.45904578    -4.524539    854.28774  0.035828206  0.034102129           93 
 1988000   0.45689701    -4.511624    856.16565  0.035888902  0.034080162           76 
 1989000   0.46499468    -4.525561    855.25058  0.035832519  0.034058236          103 
 1990000   0.46329787   -4.4934974    853.90484  0.035758159  0.034036373           98 
 1991000   0.45803352   -4.5041717    853.59803  0.035727358  0.034014501          125 
 1992000   0.45032147   -4.5152287     855.7278  0.035798519  0.033992664           96 
 1993000   0.46396661   -4.5294598     855.0871  0.035753768    0.0339708          156 
 1994000   0.45885863   -4.5236277    854.89487  0.035727803   0.03394896          109 
 1995000   0.45540791   -4.5252881    855.61146  0.035739827  0.033927115          162 
 1996000   0.45514193   -4.5355422    854.33485  0.035668623  0.033905293          110 
 1997000   0.45367702   -4.5339455    855.21213   0.03568737  0.033883501          140 
 1998000   0.46223567   -4.5310993    854.47257  0.035638662  0.033861788          136 
 1999000   0.45654656   -4.5256214    855.80939  0.035676563  0.033840016          176 
 2000000    0.4575912   -4.5199763    854.66881    0.0356112  0.033818262          127 
 2001000   0.46104528    -4.528625    855.37499  0.035622813  0.033796511          178 
 2002000   0.45215978   -4.5220274    854.63715  0.035574307  0.033774736          178 
 2003000   0.45508175   -4.5281433     855.1768  0.035578998  0.033752987          103 
 2004000   0.44983055   -4.5332512    854.80968  0.035545978  0.033731215          189 
 2005000   0.46217326    -4.531608    854.98017  0.035535335  0.033709497          142 
 2006000   0.44826814   -4.5398356     855.4318  0.035536383  0.033687763          137 
 2007000   0.45829962   -4.5238434    855.19964  0.035509037  0.033666032          109 
 2008000   0.45325894   -4.5317467    854.22486  0.035450899  0.033644324           81 
 2009000   0.44939876   -4.5264632    855.35432  0.035480103  0.033622607           78 
 2010000   0.45372738   -4.5232093    852.90411  0.035360867  0.033600937           93 
 2011000    0.4413814   -4.5365485    855.33771  0.035444128  0.033579341          103 
 2012000   0.44985877   -4.5314185    853.79546  0.035362635   0.03355771          178 
Loop time of 4928.44 on 48 procs for 2000000 steps with 4000 atoms

Performance: 70123.620 tau/day, 405.808 timesteps/s
99.4% CPU use with 48 MPI tasks x no OpenMP threads

MPI task timing breakdown:
Section |  min time  |  avg time  |  max time  |%varavg| %total
---------------------------------------------------------------
Pair    | 320.57     | 345.89     | 361.81     |  51.3 |  7.02
Neigh   | 33.18      | 34.605     | 35.925     |  12.2 |  0.70
Comm    | 320.85     | 339        | 366.73     |  58.3 |  6.88
Output  | 4.2331     | 4.2347     | 4.2685     |   0.2 |  0.09
Modify  | 4152.3     | 4159.4     | 4166.5     |   5.0 | 84.40
Other   |            | 45.29      |            |       |  0.92

Nlocal:        83.3333 ave          90 max          77 min
Histogram: 3 1 7 7 6 7 10 3 1 3
Nghost:        2258.48 ave        2282 max        2244 min
Histogram: 4 9 7 7 5 7 5 2 0 2
Neighs:        15153.6 ave       17228 max       13427 min
Histogram: 2 5 3 10 9 7 7 2 1 2
FullNghs:      30306.8 ave       33035 max       27750 min
Histogram: 2 5 7 4 7 8 7 1 4 3

Total # of neighbors = 1454724
Ave neighs/atom = 363.68100
Neighbor list builds = 108230
Dangerous builds = 0

#clear
#
#next RN
#
#jump SELF
Total wall time: 1:22:12
