
units lj                  # Use reduced LJ style units
atom_style atomic         # Uncharged point particles
atom_modify map hash      # Needed for indexing of clusters etc
                          # Used to be able to find where atoms are in relation to each other.

lattice fcc 1.0 spacing 1 1 1
Lattice spacing in x,y,z = 1.5874011 1.5874011 1.5874011
region box block 0 10 0 10 0 10 units lattice
create_box 2 box
Created orthogonal box = (0.0000000 0.0000000 0.0000000) to (15.874011 15.874011 15.874011)
  3 by 4 by 4 MPI processor grid
create_atoms 1 box
Created 4000 atoms
  using lattice units in orthogonal box = (0.0000000 0.0000000 0.0000000) to (15.874011 15.874011 15.874011)
  create_atoms CPU = 0.002 seconds
set type 1 type/fraction 2 0.28 78393
Setting atom values ...
  1153 settings made for type/fraction
mass 1 1.0
mass 2 1.0
pair_style lj/cut  3.5
pair_modify tail  yes
pair_coeff 1  1  1.0  1.0   # Intearaction between 1 and 1 set with epsilon = 1 and sigma = 1
pair_coeff 1  2  1.5  0.8
pair_coeff 2  2  0.5  0.88

write_data data.0
System init for write_data ...
Neighbor list info ...
  update every 1 steps, delay 10 steps, check yes
  max neighbors/atom: 2000, page size: 100000
  master list distance cutoff = 3.8
  ghost atom cutoff = 3.8
  binsize = 1.9, bins = 9 9 9
  1 neighbor lists, perpetual/occasional/extra = 1 0 0
  (1) pair lj/cut, perpetual
      attributes: half, newton on
      pair build: half/bin/atomonly/newton
      stencil: half/bin/3d
      bin: standard
WARNING: Not all mixed pair coeffs generated from mixing. Use write_data with 'pair ij' option to store all pair coeffs. (../write_data.cpp:312)


#############################
#   M E L T   S Y S T E M   #
#############################

velocity all create 2.4 9580093 mom yes dist gaussian # Assign velocities
                                                    # Temperature 2.4, random number seed, zero linear momentum
                                                                                # Gaussian distribution

timestep 0.002   # simulation timestep
thermo 1000       # output thermodynamic data every 1000 steps bf 100

# Define a fix  in this case with index 1 applied to all
# particles in the simulation. This fix is for simulations
# in the anisotropic NPT ensemble. Note that we use the MTK
# correction.
fix 1 all npt temp 2.4 2.4 0.1 iso 5.68 5.68 0.5 mtk yes tchain 5 pchain 5 # Use NPT ensemble
                                                                         # Set temperature and pressure and damping
                                                                         # Numbers of thermostats in chain and in barostat
run 10000          # run for 10000 steps
Per MPI rank memory allocation (min/avg/max) = 3.642 | 3.644 | 3.648 Mbytes
Step Temp E_pair E_mol TotEng Press Volume 
       0          2.4   -6.5468678            0   -2.9477678   -3.9245899         4000 
    1000    2.3932363   -4.9158114            0   -1.3268545    5.9591553    4215.0792 
    2000     2.409981   -4.9565187            0   -1.3424509    5.7484347    4198.1614 
    3000    2.5033817   -4.9547082            0   -1.2005744    5.6578379    4233.6313 
    4000    2.4150411   -4.9896704            0   -1.3680144     5.700349    4195.2868 
    5000    2.4358994   -4.9324781            0   -1.2795425    5.4766755    4246.6562 
    6000    2.3834607    -4.965921            0   -1.3916237    5.6180903    4208.6282 
    7000    2.4386372   -4.9413954            0   -1.2843541    6.0137498    4196.6062 
    8000     2.341006   -4.9400706            0   -1.4294395    5.7898483    4207.5845 
    9000    2.3611598   -5.0047312            0    -1.463877    5.6715213    4184.9846 
   10000    2.4880232   -4.9179985            0   -1.1868967     5.788957    4237.0247 
Loop time of 2.38661 on 48 procs for 10000 steps with 4000 atoms

Performance: 724040.588 tau/day, 4190.050 timesteps/s
99.6% CPU use with 48 MPI tasks x no OpenMP threads

MPI task timing breakdown:
Section |  min time  |  avg time  |  max time  |%varavg| %total
---------------------------------------------------------------
Pair    | 1.0173     | 1.0928     | 1.1611     |   3.0 | 45.79
Neigh   | 0.20157    | 0.20834    | 0.21935    |   0.9 |  8.73
Comm    | 0.75048    | 0.81867    | 0.92148    |   4.0 | 34.30
Output  | 0.0002402  | 0.00024547 | 0.00031577 |   0.0 |  0.01
Modify  | 0.22047    | 0.25161    | 0.2684     |   2.8 | 10.54
Other   |            | 0.01499    |            |       |  0.63

Nlocal:        83.3333 ave          94 max          71 min
Histogram: 1 0 4 6 10 7 14 2 3 1
Nghost:        1577.23 ave        1601 max        1545 min
Histogram: 1 1 1 8 5 10 7 7 6 2
Neighs:        8993.04 ave       10397 max        7293 min
Histogram: 1 0 0 7 10 14 7 5 3 1

Total # of neighbors = 431666
Ave neighs/atom = 107.91650
Neighbor list builds = 902
Dangerous builds = 169

# Equilibrate just above the melting temperature to avoid step fn in T

fix 1 all npt temp 1.25 1.25 0.1 iso 5.68 5.68 0.5 mtk yes tchain 5 pchain 5
run 2000
Per MPI rank memory allocation (min/avg/max) = 3.643 | 3.645 | 3.649 Mbytes
Step Temp E_pair E_mol TotEng Press Volume 
   10000    2.4880232   -4.9179985            0   -1.1868967     5.788957    4237.0247 
   11000    1.2309479   -6.7714413            0    -4.925481    5.9650403    3394.0576 
   12000    1.2553227   -6.8276277            0   -4.9451145    5.9018263    3379.7367 
Loop time of 0.565051 on 48 procs for 2000 steps with 4000 atoms

Performance: 611626.547 tau/day, 3539.505 timesteps/s
99.6% CPU use with 48 MPI tasks x no OpenMP threads

MPI task timing breakdown:
Section |  min time  |  avg time  |  max time  |%varavg| %total
---------------------------------------------------------------
Pair    | 0.24557    | 0.26651    | 0.30511    |   2.2 | 47.17
Neigh   | 0.036859   | 0.039139   | 0.044781   |   0.7 |  6.93
Comm    | 0.16888    | 0.20943    | 0.2323     |   2.7 | 37.06
Output  | 5.0081e-05 | 5.1326e-05 | 6.6056e-05 |   0.0 |  0.01
Modify  | 0.039687   | 0.045362   | 0.051331   |   1.6 |  8.03
Other   |            | 0.004561   |            |       |  0.81

Nlocal:        83.3333 ave          90 max          69 min
Histogram: 1 0 2 0 4 6 8 14 7 6
Nghost:        1835.42 ave        1856 max        1808 min
Histogram: 1 2 3 5 9 6 6 7 6 3
Neighs:        11293.8 ave       12190 max        9486 min
Histogram: 3 0 0 3 2 8 11 3 9 9

Total # of neighbors = 542104
Ave neighs/atom = 135.52600
Neighbor list builds = 143
Dangerous builds = 9

#############################
# L I N E A R  Q U E N C H  #
#############################

# Define solid atoms. This closely follows ten Wolde  Ruiz-Montero and Frenkel  Faraday Discuss  1996  104  93-110
# Compute components of the per-atom q6 vector
compute q6 all orientorder/atom degrees 1 6 components 6 nnn NULL cutoff 1.3 # compute the Q6 parameter.
                                                                             # Use all neighbours within 1.3 unit cell.

# get number of connections
compute coord_number all coord/atom orientorder q6 0.5

# An atom is solid if it has 8 or more connections (of a possible 14)
variable is_solid atom c_coord_number>=8
group solid dynamic all var is_solid    # Must be dynamic to update
dynamic group solid defined

# do clustering
compute cluster solid cluster/atom 1.3 # Create a cluster where all atoms within are solid and max 1.3 units from another member

# define chunks one chunk per cluster
compute clus_chunks solid chunk/atom c_cluster nchunk every compress yes  # Says which atoms are in which chunk

# count the size of each chunk
compute size_chunks solid property/chunk clus_chunks count


# Find the maximum entry in the vector of chunk sizes
variable max_n equal max(c_size_chunks)


# Thermo style which includes this variable
# thermo_style custom step temp pe vol v_max_n

thermo ${N}  # Print the thermo information every 100 steps
thermo 1000  

# Reset the npt fix at a lower temperature (below freezing)
fix 1  all npt temp  ${temp} ${temp}  0.1  iso  5.68  5.68  0.5  mtk yes tchain  5  pchain  5
fix 1  all npt temp  0.45 ${temp}  0.1  iso  5.68  5.68  0.5  mtk yes tchain  5  pchain  5
fix 1  all npt temp  0.45 0.45  0.1  iso  5.68  5.68  0.5  mtk yes tchain  5  pchain  5

dump dmp2 all dcd ${N} traj.dcd
dump dmp2 all dcd 1000 traj.dcd


compute msd all msd com yes
variable twopoint equal c_msd[4]/6/(step*dt+1.0e-6)
fix 9 all vector 10 c_msd[4]
variable fit equal slope(f_9)/6/(10*dt)
thermo_style custom step temp pe c_msd[4] v_twopoint v_fit v_max_n

fix 1 all npt temp 1.25 ${temp} 0.1 iso 5.68 5.68 0.5 mtk yes tchain 5 pchain 5
fix 1 all npt temp 1.25 0.45 0.1 iso 5.68 5.68 0.5 mtk yes tchain 5 pchain 5
run 500000 # 5000000  # Run for this many steps
Neighbor list info ...
  update every 1 steps, delay 10 steps, check yes
  max neighbors/atom: 2000, page size: 100000
  master list distance cutoff = 3.8
  ghost atom cutoff = 3.8
  binsize = 1.9, bins = 8 8 8
  4 neighbor lists, perpetual/occasional/extra = 1 3 0
  (1) pair lj/cut, perpetual
      attributes: half, newton on
      pair build: half/bin/atomonly/newton
      stencil: half/bin/3d
      bin: standard
  (2) compute orientorder/atom, occasional
      attributes: full, newton on
      pair build: full/bin/atomonly
      stencil: full/bin/3d
      bin: standard
  (3) compute coord/atom, occasional
      attributes: full, newton on
      pair build: full/bin/atomonly
      stencil: full/bin/3d
      bin: standard
  (4) compute cluster/atom, occasional
      attributes: full, newton on
      pair build: full/bin/atomonly
      stencil: full/bin/3d
      bin: standard
Per MPI rank memory allocation (min/avg/max) = 9.808 | 9.813 | 9.817 Mbytes
Step Temp PotEng c_msd[4] v_twopoint v_fit v_max_n 
   12000    1.2553227   -6.8276277 9.8548449e-31 6.843642e-33 8.3333333e+20            1 
   13000    1.2744198   -6.8011509   0.50903811 0.0032630647   0.04126347            2 
   14000     1.203654   -6.7803079   0.99299455 0.0059106816  0.040622205            1 
   15000    1.2555477   -6.8203932    1.4271584 0.0079286574  0.039256864       -1e+20 
   16000    1.2248221   -6.8676615    1.9210662  0.010005553  0.039227807            2 
   17000    1.2548474   -6.8066703    2.3934041  0.011732373  0.039365356            5 
   18000    1.2294165   -6.8390953    2.9033907  0.013441623  0.039515004            2 
   19000    1.2498049   -6.8582816    3.3925366  0.014879546  0.039979851            1 
   20000    1.2423788   -6.8358195    3.7939312  0.015808046  0.039845383            1 
   21000    1.2284413   -6.8656383    4.2477781  0.016856262  0.039473375            1 
   22000    1.2235328   -6.8313092    4.6611011  0.017655686  0.039042231            2 
   23000    1.2289168   -6.8849465    5.2471903  0.019011559  0.039081643            2 
   24000    1.2303896   -6.8674655    5.8005384  0.020140758  0.039286993            2 
   25000    1.2245942    -6.878821    6.3153135  0.021051045  0.039651901            2 
   26000    1.2226973   -6.8816996    6.7881606  0.021756925  0.039958981            2 
   27000    1.2515408   -6.8609438    7.2646348  0.022421712  0.040155537            2 
   28000    1.2435013   -6.8374842    7.7282807  0.023000835  0.040297835            2 
   29000    1.2710449   -6.8841654    8.1735457    0.0234872  0.040295896            1 
   30000     1.233856   -6.8872966    8.4483849  0.023467735  0.040075644            3 
   31000    1.2357603   -6.8439121     8.896905  0.023916411   0.03975866            1 
   32000    1.2121788   -6.8824706    9.3569391  0.024367029   0.03953763            2 
   33000      1.20629   -6.8972933    9.8209677  0.024800423  0.039330087            4 
   34000     1.227657   -6.9029444    10.315284  0.025282558  0.039200448            1 
   35000    1.2154144   -6.9413922    10.683859  0.025437758  0.039105489            1 
   36000    1.2201723   -6.9016392    11.142103  0.025791905  0.038960288            2 
   37000    1.2296522   -6.9221406    11.690792  0.026330613  0.038879591            2 
   38000    1.2335289   -6.8895437    12.159319  0.026665172  0.038815077            1 
   39000    1.1755773   -6.8902921    12.515265  0.026742018  0.038727036            1 
   40000    1.2237428    -6.934832    13.056168  0.027200351  0.038666464            2 
   41000    1.1945017   -6.9201387    13.330018  0.027093532  0.038595156            3 
   42000    1.1959558   -6.8927923    13.720388  0.027222991  0.038491353            2 
   43000    1.2043982   -6.9327618    14.079747  0.027286331  0.038358067            1 
   44000    1.1824005   -6.9271897    14.577321  0.027608562   0.03822267            3 
   45000    1.1933768   -6.9063267    15.094472  0.027952725   0.03813012            1 
   46000    1.1940871   -6.9083492    15.609921  0.028278842  0.038046312            1 
   47000    1.1909115   -6.9617758    15.935105  0.028253733  0.037983264            1 
   48000     1.171901   -6.9572073    16.373137  0.028425586   0.03792057            1 
   49000    1.1774409   -6.9458802    16.782778  0.028542139   0.03781634            1 
   50000    1.2047313    -6.915879    17.261957  0.028769927  0.037729589            5 
   51000    1.1844481   -6.9378516    17.643406  0.028829094  0.037643996            2 
   52000     1.165342   -6.9843443    18.099852  0.029006173   0.03758667            1 
   53000    1.2010542    -6.948637    18.431113  0.028979737  0.037536524            2 
   54000    1.2120234   -6.9229727    18.832979  0.029063239  0.037456164            1 
   55000    1.1759683   -7.0018881    19.148117  0.029012298  0.037351603            1 
   56000    1.1713364    -6.975269    19.712024  0.029333369  0.037256233            3 
   57000    1.1443168   -6.9834421    20.008799   0.02925263  0.037170284            1 
   58000    1.1710988   -7.0009784    20.537335  0.029507665  0.037085633            1 
   59000    1.1890145   -6.9575837    21.006237  0.029669825  0.037021698            2 
   60000    1.2008888   -6.9907667    21.306498  0.029592358  0.036960257            2 
   61000    1.1477501    -6.970716    21.678472  0.029615398  0.036875119            3 
   62000    1.1690064   -6.9840538    22.139487  0.029757375  0.036813812            2 
   63000    1.1594899   -6.9755176    22.472428  0.029725434  0.036748255            4 
   64000    1.1724156   -7.0109996     22.70454  0.029563202  0.036652492            2 
   65000    1.1759281    -7.030118    23.096855  0.029611353  0.036543374            2 
   66000    1.1530024   -7.0245344    23.456739  0.029617095  0.036433674            2 
   67000    1.1562913   -7.0202026    23.903477  0.029730692  0.036323623            2 
   68000    1.1617663   -7.0324245    24.208692  0.029667514  0.036218961            3 
   69000    1.1511591   -7.0184383    24.668489  0.029792861  0.036129065            3 
   70000    1.1080624   -6.9959823    24.892135  0.029633494   0.03603019            2 
   71000     1.134229   -7.0426256    25.163799  0.029534975  0.035909301            1 
   72000    1.1475012   -7.0074574    25.644225  0.029680816  0.035795073            1 
   73000    1.1339822   -7.0628302    26.000618   0.02968107  0.035694913            4 
   74000    1.1379404   -7.0357881    26.188078  0.029491079  0.035581747            1 
   75000    1.1498576   -6.9909687    26.529325  0.029477028  0.035457456            1 
   76000    1.1496871   -7.0351893    27.032996  0.029641443  0.035342518            2 
   77000    1.1705161    -7.041363     27.23694  0.029477208  0.035232784            2 
   78000    1.1307724   -6.9935487    27.735642  0.029632096  0.035124836            6 
   79000    1.1474058   -7.0330644    28.127488  0.029670346  0.035026671            1 
   80000    1.1423598   -7.0220729    28.548154   0.02973766  0.034931201            2 
   81000    1.1173413   -7.1006599    28.754135  0.029582443  0.034837885            2 
   82000    1.1139353    -7.044823    29.184742  0.029659291  0.034733349            2 
   83000    1.1016303   -7.0579494    29.387558   0.02950558  0.034634436            1 
   84000    1.1433363   -7.0577078    29.477822  0.029243871  0.034518298            1 
   85000    1.1317982   -7.0636765    29.817767  0.029233105  0.034396617            1 
   86000    1.1265995   -7.0708149    30.259814  0.029321525  0.034281759            1 
   87000    1.1430103   -7.0606908     30.58185  0.029292959  0.034169293            2 
   88000    1.1368138   -7.0936308    30.923379  0.029283503  0.034061045            2 
   89000    1.1225832   -7.0518381    31.385122  0.029386819   0.03396141            2 
   90000    1.1547213   -7.0828165    31.996619  0.029626499   0.03388009            1 
   91000    1.1419436   -7.0954343    32.401788  0.029671967  0.033808385            1 
   92000    1.1329225   -7.0781666    32.657966  0.029581491  0.033736541            1 
   93000     1.132789   -7.0751715    33.022568  0.029590115    0.0336662            3 
   94000    1.1116823   -7.0639219    33.478183   0.02967924   0.03359789            2 
   95000    1.1030237    -7.082752    33.834039  0.029678982  0.033540234            2 
   96000     1.126709   -7.1577785    34.072221   0.02957658  0.033474602            2 
   97000    1.1153588   -7.1187024    34.539032  0.029672708   0.03341266            1 
   98000    1.1123072     -7.08175    35.011238   0.02977146  0.033358152            2 
   99000    1.0993181   -7.0720413    35.314984  0.029726417  0.033302432            1 
  100000    1.0976742   -7.0742271     35.82981  0.029858175  0.033250712            4 
  101000    1.0699769   -7.1304059    35.897223   0.02961817   0.03319753            2 
  102000    1.1158974   -7.1057311    36.111547  0.029502898  0.033133647            2 
  103000    1.1064935    -7.146338    36.352146  0.029411121  0.033066532            2 
  104000     1.112998   -7.1226192    36.771766  0.029464556  0.032997348            2 
  105000    1.1050137   -7.1529251    36.984134  0.029352487  0.032932969            2 
  106000    1.0822691   -7.1294052    37.418184  0.029416811  0.032869716            2 
  107000    1.1000924   -7.1409651     37.76799  0.029414322  0.032809408            3 
  108000    1.1111414   -7.1882939    37.949524   0.02928204  0.032742833            1 
  109000    1.1117893   -7.1625792    38.521274  0.029450515  0.032679753            1 
  110000    1.0820481   -7.1251273    38.886587  0.029459535  0.032623479            1 
  111000    1.0800871   -7.1127474    39.098046  0.029352887   0.03256629            2 
  112000    1.0757857   -7.1373083    39.475275  0.029371484  0.032505623            1 
  113000     1.092459    -7.174811    39.630612  0.029226115  0.032445676            1 
  114000    1.0842273   -7.1853166    40.095026  0.029309229  0.032385265            1 
  115000     1.099419   -7.1356967    40.479567  0.029333019  0.032323307            1 
  116000     1.107666   -7.1550232    40.717272  0.029250914  0.032261215            2 
  117000    1.0875334   -7.1879736    40.886617  0.029121522  0.032195645            3 
  118000    1.0612155   -7.1567154    40.901077  0.028884941  0.032118734            2 
  119000    1.0722931   -7.1792365    41.045257  0.028743177  0.032040842            1 
  120000    1.0596531   -7.1825904    41.635419  0.028913486  0.031961903            1 
  121000    1.0749349   -7.2063012    41.742259  0.028748112  0.031885328            4 
  122000    1.0547667    -7.185916    42.159561  0.028797515   0.03180993            2 
  123000    1.0680216   -7.2181899    42.435564  0.028750382  0.031737161            1 
  124000    1.0823011   -7.2086622    42.697804  0.028694761  0.031661908            3 
  125000    1.0543729   -7.1650429    43.052806   0.02870187   0.03158762            1 
  126000     1.078155   -7.2364351    43.232921  0.028593202  0.031514479            2 
  127000    1.0604808   -7.2076101    43.502872  0.028545191  0.031440294            1 
  128000       1.0819   -7.1967822    43.667701  0.028429493  0.031364248            1 
  129000    1.0641877   -7.2181056    43.766132  0.028272695  0.031283056            4 
  130000    1.0535189   -7.1601618    44.223657  0.028348498  0.031202374            1 
  131000    1.0676006   -7.2231803    44.518781  0.028319835  0.031123592            4 
  132000    1.0506887   -7.1994632    44.737842  0.028243587  0.031044286            2 
  133000    1.0446392   -7.2207373    44.969212  0.028176198  0.030964438            2 
  134000    1.0663536   -7.2499348    45.245325   0.02813764  0.030884987            3 
  135000    1.0272897    -7.264903    45.290561  0.027957136  0.030803634            2 
  136000    1.0232904   -7.2174622    45.597599  0.027939705  0.030720559            1 
  137000    1.0311468   -7.2291145    45.998589  0.027979677  0.030638456            1 
  138000    1.0585802   -7.2253975    46.117364   0.02784865  0.030558371            2 
  139000    1.0192069   -7.2796446     46.28526  0.027748957  0.030473945            1 
  140000    1.0419612   -7.2733089    46.689384    0.0277913  0.030389834            1 
  141000    1.0618958   -7.2984396    46.895998  0.027716311  0.030308457            3 
  142000    1.0462366   -7.2881252      47.2428  0.027724648  0.030230008            1 
  143000     1.059778   -7.2501432    47.444387  0.027648244  0.030152188            1 
  144000    1.0588358   -7.2824247     47.51138  0.027495011  0.030072418            1 
  145000    1.0405456   -7.2611746    47.943883  0.027553956  0.029990546            1 
  146000    1.0461192     -7.25028    48.216794  0.027521001  0.029910499            1 
  147000    1.0196662   -7.2723721    48.502013  0.027495472  0.029833837            2 
  148000    1.0376638   -7.2480246     48.72274  0.027433975   0.02975845            2 
  149000    1.0271991   -7.2694466    49.036134  0.027425131  0.029682279            2 
  150000    1.0295678   -7.2832125    49.136486  0.027298048   0.02960517            1 
  151000    1.0138398   -7.2597308    49.070541  0.027080872  0.029526222            2 
  152000    1.0211813   -7.3198124    49.543974  0.027162266  0.029447516            1 
  153000    1.0049455    -7.300204    50.012333  0.027239833  0.029369929            1 
  154000    1.0272862   -7.3207655    49.862875  0.026982075  0.029292238            2 
  155000   0.99006541   -7.3327662    50.041212  0.026903877  0.029213809            1 
  156000    1.0404507   -7.2923517    50.203155  0.026817925  0.029133577            1 
  157000    1.0098709   -7.2906263    50.783936   0.02695538  0.029055884            2 
  158000     1.010072   -7.2513974    51.113259   0.02695847  0.028979257            2 
  159000    1.0067145   -7.3257926    51.175248  0.026821409  0.028906318            1 
  160000   0.99741302    -7.387176    51.290307  0.026713702  0.028834114            4 
  161000    1.0230333   -7.3509413    51.606192  0.026711279  0.028759267            1 
  162000   0.98872397   -7.3433789    51.985095  0.026741304  0.028686039            1 
  163000   0.97098125   -7.3363794     52.34442  0.026760951  0.028615457            2 
  164000   0.99221058   -7.3153868    52.344453  0.026597791  0.028544664            3 
  165000   0.98833225   -7.3362208    52.514009  0.026522227  0.028471866            1 
  166000    1.0199329    -7.310221     52.84816    0.0265302  0.028398993            1 
  167000    1.0061577   -7.3407528    52.909307   0.02640185  0.028324348            1 
  168000   0.95995278   -7.3490593    53.240254  0.026408856  0.028251377            3 
  169000    1.0175388    -7.345802    53.509556  0.026385382  0.028179318            1 
  170000    1.0109101    -7.355422    53.455461  0.026203657  0.028105272            2 
  171000    1.0080659   -7.3689449    53.730807  0.026184604  0.028030914            3 
  172000   0.97711492   -7.3255732    53.955458   0.02614121   0.02795863            2 
  173000    1.0070416   -7.3921728    53.951389  0.025988145  0.027885566            2 
  174000   0.99632962   -7.3600006    54.280374  0.025996348  0.027812805            2 
  175000   0.99725033    -7.359245    54.575132  0.025988158  0.027740462            1 
  176000    1.0055938   -7.4121171    54.651586  0.025876698  0.027667446            2 
  177000     1.002639   -7.3872081     54.60657  0.025709308   0.02759326            1 
  178000   0.97824612   -7.3957384    54.954372  0.025727702  0.027519197            4 
  179000     1.016827   -7.4065406    55.119782  0.025660979   0.02744401            2 
  180000   0.97214095   -7.3940813     55.36196  0.025630537  0.027369438            2 
  181000   0.95322349   -7.4128116    55.449677  0.025529317  0.027296064            1 
  182000   0.97167886   -7.4123708    55.667361  0.025488718  0.027220029            1 
  183000   0.96337653   -7.3949345    55.846796  0.025431146  0.027145063            3 
  184000   0.97014804   -7.3881271    56.217039  0.025460616  0.027072298            3 
  185000   0.96384759   -7.4018079    56.648137  0.025517179  0.027001173            3 
  186000   0.97386328   -7.4036239    56.653492  0.025382389   0.02693053            2 
  187000   0.99513856   -7.4460344    56.873598  0.025344741  0.026861317            1 
  188000   0.96535307   -7.4071559    57.111448  0.025315358  0.026792764            3 
  189000   0.96244185   -7.4106528    57.489936  0.025348296  0.026724899            1 
  190000   0.96579855   -7.4556398    57.307722  0.025134966  0.026655701            2 
  191000   0.97081515   -7.4719587    57.285589  0.024993712  0.026585122            1 
  192000   0.93941927   -7.4192496     57.66012  0.025026094  0.026513159            1 
  193000   0.94708463   -7.4726153    57.709161    0.0249176  0.026441026            2 
  194000   0.95015118   -7.4615879     57.84465  0.024847358  0.026368241            2 
  195000   0.95874191   -7.4453082    58.080819  0.024820863  0.026296309            2 
  196000   0.94325063   -7.4470942    58.565573  0.024900328  0.026225867            1 
  197000   0.95189508   -7.4608386    58.666408  0.024816585  0.026156475            3 
  198000   0.95453695   -7.4543757    58.769523  0.024734648  0.026088049            3 
  199000   0.96878717    -7.475524     58.89494  0.024662873   0.02602067            2 
  200000   0.96927372   -7.4485894    59.023837  0.024593265  0.025953721            1 
  201000   0.94865325   -7.4890182    59.040828  0.024477955  0.025883515            3 
  202000   0.94944655   -7.4829432    59.247901  0.024442204  0.025810867            1 
  203000   0.94061631   -7.4792168    59.358575  0.024367231  0.025740111            3 
  204000   0.95984299   -7.4671546    59.601745  0.024347118  0.025670607            2 
  205000   0.92818702   -7.4762715    59.987318  0.024385089  0.025602232            1 
  206000     0.937091   -7.4869641    60.036965  0.024286798  0.025533887            1 
  207000   0.95455462   -7.4861533    60.268968   0.02426287   0.02546525       -1e+20 
  208000   0.95233115   -7.4959881    60.310742  0.024162957  0.025396582            3 
  209000   0.93818513   -7.5013674    60.305109  0.024045099  0.025327116            3 
  210000    0.9503727   -7.5108391    60.487119  0.024002825  0.025256829            3 
  211000   0.93060755   -7.5102498    60.581997  0.023926539  0.025187448            1 
  212000   0.90726873   -7.5065332     60.55461  0.023802913  0.025117264            1 
  213000   0.93814387   -7.5075046    60.953992  0.023847415  0.025047254            2 
  214000   0.92277124   -7.5100208    60.953092  0.023735628   0.02497699            3 
  215000    0.9166261    -7.515753    60.874491  0.023594764  0.024904994            2 
  216000      0.92561    -7.549256    61.051876  0.023553964  0.024832751            2 
  217000   0.93836806   -7.5120457    61.251374  0.023522033  0.024761535            2 
  218000   0.91255061   -7.5240143    61.368692   0.02345898  0.024689742            3 
  219000   0.92373392   -7.5506504    61.459142  0.023386279  0.024617917            3 
  220000   0.91255454   -7.5594102    61.430248  0.023269033  0.024546193            1 
  221000   0.91612426   -7.5471657    61.894256  0.023338709  0.024475785            2 
  222000   0.91006751   -7.5655767    62.190308   0.02334471  0.024406994            3 
  223000   0.91238504   -7.5642233    62.300567  0.023281228  0.024338759            3 
  224000   0.90727805    -7.544207    62.489179  0.023247462  0.024270063            2 
  225000   0.92608141   -7.5567951    62.466807  0.023135854  0.024201271            1 
  226000   0.92046197   -7.5468694    62.559568  0.023067687  0.024132687            2 
  227000   0.92434287   -7.5782036    62.571956  0.022970615  0.024063674            1 
  228000   0.90997956   -7.5837549    62.734954  0.022929442  0.023993727            4 
  229000   0.89777589   -7.5700347    62.721763  0.022824513  0.023923848            4 
  230000   0.91359756    -7.572966    63.021679  0.022833942  0.023854459            1 
  231000   0.89314296   -7.5911727    62.945375  0.022707567  0.023786427            4 
  232000   0.89868741   -7.5824284    63.130373   0.02267614  0.023717494            2 
  233000   0.93370217   -7.6113968     63.39408  0.022673133    0.0236482            2 
  234000   0.89541552   -7.5827782    63.446527  0.022594917  0.023580097            3 
  235000   0.90951638   -7.6029622    63.314309  0.022451882  0.023511893            1 
  236000   0.89910358   -7.5827836    63.817242  0.022534337  0.023444625            2 
  237000   0.87861083   -7.6097503    63.855851  0.022452831   0.02337791            6 
  238000   0.90200372     -7.62001    64.276401  0.022505743  0.023311146            4 
  239000   0.88454109   -7.5969473    64.306878  0.022422203  0.023245123            3 
  240000    0.9042252   -7.6465353    64.182423  0.022285563  0.023178474            2 
  241000   0.88956562   -7.6250706    64.190302  0.022195817  0.023112009            2 
  242000   0.87304372   -7.6248565    64.320983  0.022149099  0.023045966            2 
  243000   0.87823798   -7.6568085    64.461023  0.022105975  0.022979208            2 
  244000   0.87530308   -7.6058666    64.709915  0.022100381  0.022913332            2 
  245000   0.88951888   -7.6332943    64.659364  0.021992981  0.022848357            1 
  246000   0.89109491   -7.6368537    64.850877  0.021968454  0.022782906            3 
  247000   0.89688518   -7.6545737    64.837292   0.02187493  0.022716541            4 
  248000   0.88469714   -7.6918089    64.791542  0.021771351  0.022649986            2 
  249000   0.86442615   -7.6539343    65.119921  0.021793816  0.022584305            3 
  250000    0.8622007   -7.6364608    65.379758  0.021793253  0.022519526            4 
  251000   0.88048581   -7.6714647    65.240538  0.021660205  0.022454236            1 
  252000   0.87295469   -7.6301645    65.463867  0.021648104  0.022388307            1 
  253000   0.88603872   -7.6311173    65.579892  0.021600755  0.022323196            1 
  254000   0.85964668   -7.6727979    65.578305  0.021515192  0.022257723            2 
  255000   0.85963484   -7.6950372    65.570124  0.021428145  0.022191414            3 
  256000   0.87071523   -7.6856463    65.773116   0.02141052  0.022125571            2 
  257000   0.83988275   -7.6981328    65.716174  0.021308746  0.022060109            2 
  258000   0.85935388   -7.7267705     65.86626  0.021274632  0.021994605            2 
  259000   0.87642273   -7.6951986    65.853207   0.02118829  0.021929014            1 
  260000   0.86668882   -7.7137356    65.945006   0.02113622  0.021863305            1 
  261000   0.85249207   -7.7086594     66.06986  0.021095102  0.021797655            2 
  262000   0.83806849   -7.7091797     66.05373  0.021009456  0.021731491            1 
  263000   0.86559302     -7.72946    66.069137  0.020934454  0.021665328            2 
  264000   0.82597933   -7.6776097    66.362717  0.020947827  0.021599529            3 
  265000   0.83831498   -7.7440735    66.175251  0.020809827  0.021534154            2 
  266000   0.84296112   -7.7156404    66.458533  0.020820342   0.02146891            1 
  267000   0.83635814   -7.7360097    66.585511  0.020781995  0.021403885            1 
  268000   0.84327571   -7.7288331    66.570787  0.020699871  0.021339274            2 
  269000   0.83801718   -7.7450043    66.550336  0.020616585  0.021274107            4 
  270000   0.84530944   -7.7367034    66.744274  0.020600085  0.021209585            2 
  271000   0.85079683    -7.768704    66.882681   0.02056663  0.021145553            2 
  272000   0.84460049    -7.738906    66.941632  0.020509078  0.021081702            4 
  273000   0.84984441   -7.7536418    67.138993  0.020494198  0.021018698            2 
  274000   0.84144813   -7.7529875    67.250336  0.020453265  0.020956509            2 
  275000   0.83016183    -7.783643    67.083273  0.020328265  0.020893935            3 
  276000   0.85555285   -7.7549102    67.409768  0.020353191  0.020831395            4 
  277000   0.81563033   -7.7849667    67.405024  0.020278286  0.020769001            3 
  278000   0.82881556   -7.7663827    67.144069  0.020127119  0.020705658            4 
  279000   0.83758228   -7.7781456    67.246195  0.020085482  0.020642241            2 
  280000   0.81937956   -7.7802906    67.488974  0.020086004  0.020579245            5 
  281000    0.8282245   -7.8030901    67.304015  0.019959672   0.02051632            2 
  282000     0.812245   -7.8303817    67.739476  0.020017576  0.020453755            3 
  283000    0.8152279   -7.8042253    67.702357  0.019935912  0.020392036            3 
  284000   0.80176703   -7.7747139    67.872335  0.019915591  0.020330043            2 
  285000   0.82563676   -7.7791219    67.975656  0.019875923  0.020268947            3 
  286000   0.80729466   -7.8085783    68.107534  0.019844853  0.020208286            3 
  287000   0.80474919   -7.8358733    67.922126  0.019721872  0.020147211            9 
  288000   0.78541964   -7.7970363    68.259039  0.019750879  0.020086567            7 
  289000   0.80010024   -7.8223574    68.191185  0.019662971  0.020026335           10 
  290000   0.79751695   -7.8021246    68.222627  0.019604203  0.019966258            4 
  291000   0.81598538   -7.8013955    68.179875  0.019524592  0.019905707            3 
  292000   0.79814944   -7.8423219    68.150097  0.019449229  0.019844979            2 
  293000   0.80038089   -7.8053765     68.29623  0.019424411  0.019784115            1 
  294000   0.79554214    -7.852423    68.398892  0.019387441    0.0197236            4 
  295000   0.79427913   -7.8572182     68.30646   0.01929561  0.019662853            3 
  296000   0.78138975   -7.8359054    68.318245   0.01923374   0.01960214            2 
  297000   0.81095277   -7.8306049    68.497432  0.019219257  0.019541294            2 
  298000   0.80518601   -7.8999893    68.344925  0.019112116  0.019480685            3 
  299000   0.77891201    -7.846066    68.452911  0.019078292  0.019420339            3 
  300000   0.78794776   -7.8751588    68.476871  0.019021353  0.019359977            2 
  301000   0.78925314   -7.9085635    68.450356  0.018950818  0.019299399            2 
  302000   0.80203571   -7.8657021    68.634776  0.018938956  0.019238816            1 
  303000   0.77572555   -7.8655059    68.749211  0.018907924  0.019178918            2 
  304000    0.7831604   -7.8468779    68.898482  0.018886645  0.019119278            2 
  305000   0.77221331   -7.9088416     68.82084  0.018803508  0.019059585            3 
  306000   0.77167107   -7.8537014    68.895735  0.018762455  0.019000183            1 
  307000   0.78012299   -7.8850331    68.896026  0.018701419  0.018940781            1 
  308000   0.78509596   -7.9109977     69.09167  0.018693634  0.018881765            2 
  309000   0.77749079   -7.8979037    68.927688  0.018588913   0.01882281            2 
  310000   0.77171777    -7.907534    68.976284  0.018542012  0.018764198            2 
  311000   0.75994513   -7.8941642    69.138891  0.018525962   0.01870619            2 
  312000    0.7668168   -7.8876196    69.311158  0.018512596  0.018648396            3 
  313000   0.76167008   -7.8922113     69.16166  0.018413648  0.018590778            1 
  314000    0.7508731   -7.9108307    69.209174  0.018367615  0.018532672            2 
  315000   0.77717673   -7.9226479    69.216775  0.018311316  0.018474653            3 
  316000   0.76022534   -7.9239142    69.477763  0.018322195  0.018416772            7 
  317000    0.7892353   -7.9327683    69.181853  0.018186607  0.018358903            2 
  318000   0.76273812   -7.9235546    69.417426  0.018191149  0.018301262            3 
  319000   0.76372673   -7.9501156     69.45636  0.018144295   0.01824358            3 
  320000   0.75875702   -7.9538013    69.453218  0.018086775  0.018186262            4 
  321000   0.75247516   -7.9421828    69.525752   0.01804926  0.018129475            2 
  322000   0.76551409   -7.9808164    69.519535  0.017991598  0.018072634            5 
  323000   0.73664968   -7.9533334    69.225462  0.017860026  0.018015467            2 
  324000   0.73751587   -7.9424883    69.372113  0.017842622  0.017957684            2 
  325000   0.73723553   -7.9431002    69.289919  0.017766646  0.017900209            2 
  326000   0.74253725   -7.9321422    69.435269  0.017749302  0.017843078            2 
  327000   0.75279931   -7.9629435    69.559146  0.017726592   0.01778604            2 
  328000    0.7314576   -7.9646389    69.377782  0.017626469  0.017728744            3 
  329000   0.73655178   -7.9691824    69.283099  0.017548911  0.017671554            3 
  330000   0.72945776   -7.9764227    69.425543  0.017531703  0.017614206            1 
  331000   0.73771421   -7.9749894    69.528401  0.017504633  0.017556963            6 
  332000   0.73173118   -7.9756889    69.457373   0.01743408  0.017500029            2 
  333000    0.7443603   -7.9932427    69.489196  0.017389689  0.017443124            1 
  334000    0.7377372   -7.9905594    69.636415  0.017374355   0.01738637            3 
  335000   0.73061449    -7.994062    69.374243  0.017257274  0.017329963            2 
  336000   0.72467854   -7.9498384    69.624565  0.017267997  0.017273668            2 
  337000   0.73335645   -8.0086986    69.510419  0.017188531  0.017217329            2 
  338000   0.72349839   -7.9836945     69.49897  0.017134854  0.017160896            2 
  339000   0.71745762   -8.0095178    69.505414  0.017085893  0.017104684            1 
  340000   0.72374419   -8.0128873    69.539681  0.017044039  0.017048222            2 
  341000   0.73208645   -8.0214793    69.568686  0.017001145  0.016991936            2 
  342000   0.71947885   -8.0169961    69.431098  0.016917909  0.016935614            3 
  343000   0.70884124   -8.0326297    69.408153  0.016863011  0.016879378            2 
  344000   0.73130595   -8.0202721    69.423719  0.016817761  0.016823308            2 
  345000     0.730869   -8.0324894    69.409254   0.01676552  0.016767295            1 
  346000   0.72169578   -8.0524196    69.524338  0.016744783  0.016711583            2 
  347000   0.71946855    -8.046823    69.466298  0.016682588  0.016655998            2 
  348000   0.71097612   -8.0183502    69.583733  0.016662771  0.016600746            3 
  349000   0.72275726   -8.0580856    69.713769  0.016646077  0.016545712            4 
  350000   0.71173655   -8.0668758    69.468799   0.01654019   0.01649097            2 
  351000   0.70063194   -8.0636609    69.629557  0.016531234  0.016436008            2 
  352000   0.68356863   -8.0694179    69.560216  0.016467854  0.016381185            2 
  353000   0.70799802   -8.0622267    69.690929  0.016452061  0.016326564            2 
  354000   0.70195836   -8.0814161    69.448904  0.016348612   0.01627188            2 
  355000   0.70653866   -8.0856303    69.405983  0.016292484  0.016217179            3 
  356000   0.70353221   -8.0974581    69.508323  0.016270675  0.016162643            1 
  357000   0.70528853   -8.1121857    69.621607  0.016251542  0.016108289            1 
  358000   0.68949543   -8.0950268      69.7331    0.0162321  0.016054337            2 
  359000   0.69099038   -8.0697767     69.64188   0.01616571  0.016000892            3 
  360000   0.68837642   -8.0705173    69.628331  0.016117669  0.015947366            5 
  361000   0.69647245   -8.0790312    69.758751  0.016103128  0.015893995            1 
  362000    0.7092507   -8.0707936    69.788886  0.016065581  0.015840793            1 
  363000   0.68751179   -8.0988877    69.479187  0.015950227  0.015787878            2 
  364000   0.67105234   -8.1067783    69.695617  0.015955956   0.01573464            4 
  365000   0.68716321   -8.1071756    69.572028  0.015884025  0.015681832            2 
  366000   0.66679427   -8.1181126    69.490726  0.015822114  0.015629109            1 
  367000   0.68625905   -8.1476701    69.574599  0.015798047  0.015576481            1 
  368000   0.68019272   -8.1475362    69.505893  0.015739559  0.015523807            3 
  369000   0.68054115   -8.1469326    69.545972  0.015705956  0.015471429            6 
  370000   0.67858478   -8.1459423    69.405585  0.015631888  0.015418909            2 
  371000   0.68037292   -8.1401741    69.551196  0.015622461  0.015366578            2 
  372000    0.6849852   -8.1494156    69.493233  0.015567481  0.015314563            3 
  373000   0.66611033   -8.1423166    69.510636  0.015529633  0.015262722            3 
  374000   0.66198182   -8.1373169    69.545631  0.015495907  0.015210818            3 
  375000   0.68109898   -8.1409753    69.568032  0.015459563  0.015159192            4 
  376000   0.66646808    -8.145391      69.5248  0.015408865  0.015107668            1 
  377000   0.66451822   -8.1637455    69.516834  0.015366232  0.015056354            4 
  378000   0.67216025   -8.1490322    69.677607  0.015361024   0.01500503            4 
  379000   0.65544259   -8.1801984    69.516904  0.015285159   0.01495393            2 
  380000   0.67474335   -8.1619296    69.592627  0.015261541  0.014902847            4 
  381000   0.66272534   -8.1460391    69.450406  0.015190378  0.014852034            6 
  382000   0.63786411   -8.1716638    69.669456  0.015198398  0.014801409            3 
  383000    0.6588285    -8.144551     69.60114  0.015143851  0.014751055            2 
  384000   0.66833214    -8.162606    69.651824  0.015115413  0.014700913            4 
  385000   0.66210156    -8.173288    69.653211  0.015076453  0.014651019            2 
  386000   0.65622883   -8.1799357    69.596593  0.015025171    0.0146012            3 
  387000   0.66116177   -8.2119202    69.235349  0.014908559  0.014551376            2 
  388000   0.64400613   -8.1944455    69.452378  0.014916748  0.014501583            2 
  389000   0.63955023   -8.2194095    69.383051   0.01486355  0.014452046            4 
  390000   0.63900551   -8.1963442    69.521641  0.014855051  0.014402595            3 
  391000   0.63514207   -8.2032906    69.503585  0.014813211  0.014353251            3 
  392000   0.62955953   -8.2198758    69.366473  0.014746274  0.014304037            3 
  393000   0.63610228   -8.2183805    69.327929  0.014700579  0.014255161            2 
  394000    0.6420932   -8.2423925    69.372722  0.014672741  0.014206509            2 
  395000   0.63559308   -8.2058146    69.437543  0.014649271  0.014157993            1 
  396000   0.63304666   -8.2318325    69.443886  0.014613612  0.014109613            2 
  397000   0.64008218   -8.2279465    69.404756  0.014568589  0.014061313            2 
  398000   0.64127242   -8.2402953    69.449273  0.014541305  0.014013039            3 
  399000   0.61245727   -8.2513101     69.30438  0.014474599  0.013964901            2 
  400000   0.62663927   -8.2421126    69.344051  0.014446677  0.013917029            1 
  401000   0.62632322   -8.2437134    69.278213  0.014396969    0.0138693            2 
  402000   0.62161295   -8.2451963    69.409909  0.014388455  0.013821587            5 
  403000   0.62763089   -8.2687718    69.324439  0.014335078  0.013774159            3 
  404000   0.63565253    -8.263756    69.369809  0.014308954  0.013726958            4 
  405000   0.62517606   -8.2531949    69.260076  0.014251044  0.013679998            3 
  406000   0.60955254   -8.2831416    69.227155  0.014209186  0.013633173            2 
  407000   0.62598249   -8.2782911     69.29919  0.014189023  0.013586333            3 
  408000   0.60167564   -8.2978041    69.284959   0.01415134  0.013539672            3 
  409000   0.60337277   -8.2846117    69.322461  0.014124381  0.013493353            2 
  410000   0.62332527   -8.2647272    69.436713  0.014113153  0.013447154            2 
  411000   0.61289385   -8.2949967    69.285269  0.014048108  0.013401257            2 
  412000   0.62579527   -8.2805881    69.320484  0.014021133   0.01335532            3 
  413000   0.60075907   -8.3012787    69.356091  0.013994369  0.013309629            2 
  414000   0.61399777   -8.2967339    69.252711  0.013939757  0.013264104            2 
  415000   0.61294648   -8.3118804     69.23818  0.013903249  0.013218887            3 
  416000   0.58857807   -8.2931567      69.2671  0.013875621  0.013173697            5 
  417000   0.59442717   -8.2971721    69.264007  0.013841728   0.01312896            4 
  418000   0.58849124   -8.2992371    69.365482  0.013828844  0.013084279            2 
  419000   0.59044451   -8.3103159    69.327205  0.013788227  0.013039883            3 
  420000   0.59621167   -8.3036881     69.41282  0.013772385  0.012995612            2 
  421000   0.60780537    -8.286817    69.334455   0.01372416  0.012951471            2 
  422000   0.59907539   -8.3088188     69.15364  0.013655932  0.012907536            2 
  423000   0.59046348   -8.3199867    69.291035  0.013650716  0.012863691            3 
  424000   0.57766041   -8.3178852    69.333898  0.013626945  0.012819984            3 
  425000   0.59040533   -8.3218159    69.357673  0.013599544  0.012776541            3 
  426000   0.59139749   -8.3303722    69.153579  0.013527695  0.012733238            3 
  427000   0.59876498   -8.3254769    69.255838  0.013515972  0.012689926            3 
  428000   0.59396865   -8.3453802    69.355873  0.013503869  0.012646908            3 
  429000   0.59854463   -8.3355497    69.125474  0.013427637  0.012603898            4 
  430000   0.57768111   -8.3541435    69.146953  0.013400572  0.012561045            2 
  431000   0.57579389   -8.3390914    69.154354  0.013370911  0.012518356            2 
  432000   0.58631012   -8.3632024    69.148069  0.013338748  0.012475859            4 
  433000   0.56499768   -8.3315945    69.284849  0.013334267  0.012433567            3 
  434000   0.57255432   -8.3706922    69.320522  0.013310392  0.012391414            3 
  435000   0.56878723   -8.3533887    69.082017  0.013234103  0.012349408            2 
  436000   0.56788006   -8.3613862     69.00118  0.013188299  0.012307534            2 
  437000   0.57545356   -8.3646331    69.202306  0.013196473  0.012265803            2 
  438000    0.5817844   -8.3742716    69.125641  0.013151758  0.012224252            3 
  439000   0.57197273    -8.352882    69.199881  0.013135892  0.012182869            3 
  440000   0.57789147   -8.3807045    69.193753  0.013104877  0.012141632            3 
  441000   0.54981203   -8.3738124    69.147248  0.013066373  0.012100527            3 
  442000    0.5587396   -8.3755594    69.052955  0.013019034  0.012059508            3 
  443000    0.5483087   -8.3801386    69.095952  0.012997734  0.012018628            3 
  444000   0.55340578   -8.3643621    69.251042  0.012997568  0.011978057            3 
  445000   0.55937852   -8.3816865    69.016687  0.012924473  0.011937648            3 
  446000   0.54654487   -8.3816984    69.102133   0.01291146  0.011897336            3 
  447000   0.54296356   -8.3838862    69.114376  0.012884858  0.011857162            2 
  448000   0.56778841   -8.3780152    69.140183  0.012860897  0.011817218            6 
  449000    0.5554518   -8.3814853    69.026389  0.012811134  0.011777425            4 
  450000   0.56059756   -8.3899068    69.027474  0.012782865  0.011737881            3 
  451000   0.54872458   -8.3829099    69.008942  0.012751098  0.011698402            2 
  452000   0.54958986   -8.4124637    69.070661  0.012734266  0.011659045            3 
  453000   0.54290402   -8.4188014    68.970793  0.012687784  0.011619807            3 
  454000     0.552906   -8.4044891      69.0435  0.012673183  0.011580804            2 
  455000   0.54154123   -8.4124967    69.122865  0.012659865  0.011541937            3 
  456000   0.55160853   -8.4189237    69.003799  0.012610343  0.011503236            2 
  457000   0.53651546   -8.4130636    69.049917  0.012591159  0.011464662            4 
  458000    0.5423816   -8.4359177    69.033497   0.01256068  0.011426233            3 
  459000   0.52382551   -8.4131861     68.94604  0.012517436   0.01138794            5 
  460000   0.52773588   -8.4331842    68.931267  0.012487548  0.011349728            4 
  461000   0.54132508   -8.4280987    68.853908  0.012446477  0.011311605            6 
  462000   0.53362017   -8.4306176    68.972364  0.012440903  0.011273675            6 
  463000    0.5249689   -8.4465508    69.044508  0.012427017  0.011235932            4 
  464000   0.52200903   -8.4397918    68.896842  0.012373714  0.011198379            4 
  465000   0.52656066   -8.4416271    68.938785  0.012354621  0.011161013            4 
  466000   0.53097005   -8.4434871    68.895498  0.012320368  0.011123809            2 
  467000   0.51233895   -8.4392077    68.878606  0.012290972   0.01108669            2 
  468000   0.51945051   -8.4446176    69.028655  0.012291427  0.011049781            1 
  469000   0.51829376    -8.457551    68.928926  0.012247499  0.011013033            1 
  470000   0.50352689   -8.4394962    68.896357  0.012215666  0.010976518            2 
  471000   0.50981951   -8.4391835    68.922942  0.012194434  0.010940075            4 
  472000   0.51136061   -8.4588275    68.813293   0.01214924  0.010903766            3 
  473000    0.5108899   -8.4541148    68.851202  0.012130233  0.010867611            3 
  474000   0.50234282   -8.4544427    68.849516  0.012104345  0.010831571            3 
  475000     0.509751   -8.4607023    68.847538  0.012078515  0.010795711            2 
  476000   0.50488872   -8.4474775    68.810911  0.012046728  0.010759932            2 
  477000   0.50102265   -8.4766494     68.93237  0.012042692  0.010724384            1 
  478000    0.4991324    -8.499624    68.909804  0.012013564   0.01068895            2 
  479000   0.49682475   -8.4721697    68.860011  0.011979821  0.010653658            4 
  480000   0.50416674   -8.4783426    68.839635  0.011951326  0.010618463            2 
  481000   0.49519698   -8.4798782     68.86593  0.011931034   0.01058335            2 
  482000   0.49386312   -8.4764864    68.894848  0.011911281  0.010548403            2 
  483000   0.49493197   -8.4896327     68.83003  0.011875436  0.010513639            4 
  484000   0.49038286    -8.485255     68.79693  0.011845201  0.010479036            1 
  485000    0.4970738   -8.4932193    68.753429  0.011813304  0.010444551            3 
  486000   0.49403621   -8.4860558    68.813438  0.011799286  0.010410223            3 
  487000    0.4865037   -8.4928392    68.748315  0.011763914   0.01037597            4 
  488000   0.48707206   -8.5038363    68.779746  0.011745175  0.010341888            4 
  489000   0.48605465   -8.5147487    68.789324  0.011722789  0.010307901            3 
  490000   0.49294459   -8.4981866    68.759046  0.011693715   0.01027403            2 
  491000   0.48314464   -8.4936066    68.737904  0.011666311  0.010240289            4 
  492000   0.48071804   -8.5070007    68.695875   0.01163548  0.010206724            4 
  493000   0.49084556   -8.5070806    68.699482  0.011612488  0.010173295            2 
  494000   0.47541866   -8.5199325    68.820623  0.011609417  0.010139963            4 
  495000   0.47592371   -8.5140338    68.732446  0.011571119  0.010106752            3 
  496000   0.47721449    -8.522759    68.593448  0.011524437  0.010073699            3 
  497000   0.47297612   -8.5330616    68.706636  0.011520227  0.010040778            3 
  498000    0.4699046   -8.5137066    68.703222  0.011496523  0.010008041            2 
  499000   0.46903437   -8.5251802    68.523432  0.011443459 0.0099754641            3 
  500000   0.46737125   -8.5302438    68.666174  0.011444362 0.0099429847            2 
  501000   0.46630624   -8.5360265    68.641889   0.01141748 0.0099106837            2 
  502000   0.46146231   -8.5305476    68.610352  0.011389501 0.0098784771            3 
  503000   0.46159232   -8.5365363    68.584533   0.01136258 0.0098464296            2 
  504000   0.46506758   -8.5320433    68.618148  0.011345593 0.0098144658            3 
  505000   0.45638507   -8.5363274    68.513487  0.011305856 0.0097826525            3 
  506000   0.46412931   -8.5673444    68.635643   0.01130363 0.0097509427            4 
  507000   0.45884135    -8.538256    68.503487  0.011259613 0.0097193822            3 
  508000   0.45335429   -8.5487967    68.595965  0.011252619 0.0096879367            4 
  509000   0.45664355   -8.5263554    68.632977  0.011236571 0.0096566521            3 
  510000   0.44969181   -8.5537626    68.429982   0.01118137  0.009625446            2 
  511000   0.44420994   -8.5546575    68.527675   0.01117542 0.0095943988            5 
  512000   0.45017667   -8.5622595    68.592914  0.011164211 0.0095634724            2 
Loop time of 1182.78 on 48 procs for 500000 steps with 4000 atoms

Performance: 73048.504 tau/day, 422.734 timesteps/s
99.4% CPU use with 48 MPI tasks x no OpenMP threads

MPI task timing breakdown:
Section |  min time  |  avg time  |  max time  |%varavg| %total
---------------------------------------------------------------
Pair    | 72.246     | 78.235     | 84.642     |  33.9 |  6.61
Neigh   | 7.6701     | 8.1027     | 8.4306     |   6.3 |  0.69
Comm    | 72.382     | 80.259     | 87.068     |  38.5 |  6.79
Output  | 0.83647    | 0.83701    | 0.84538    |   0.1 |  0.07
Modify  | 1001.6     | 1004.6     | 1008.1     |   5.1 | 84.94
Other   |            | 10.72      |            |       |  0.91

Nlocal:        83.3333 ave          90 max          75 min
Histogram: 2 1 6 4 6 4 9 6 6 4
Nghost:        2027.60 ave        2048 max        2004 min
Histogram: 1 6 7 5 3 2 5 8 5 6
Neighs:        13110.7 ave       14659 max       11073 min
Histogram: 1 2 3 6 6 7 8 7 3 5
FullNghs:      26221.0 ave       28879 max       23593 min
Histogram: 5 3 4 5 5 7 9 4 4 2

Total # of neighbors = 1258608
Ave neighs/atom = 314.65200
Neighbor list builds = 26809
Dangerous builds = 0

#clear
#
#next RN
#
#jump SELF
Total wall time: 0:19:45
