
units lj                  # Use reduced LJ style units
atom_style atomic         # Uncharged point particles
atom_modify map hash      # Needed for indexing of clusters etc
                          # Used to be able to find where atoms are in relation to each other.

lattice fcc 1.0 spacing 1 1 1
Lattice spacing in x,y,z = 1.5874011 1.5874011 1.5874011
region box block 0 10 0 10 0 10 units lattice
create_box 2 box
Created orthogonal box = (0.0000000 0.0000000 0.0000000) to (15.874011 15.874011 15.874011)
  3 by 4 by 4 MPI processor grid
create_atoms 1 box
Created 4000 atoms
  using lattice units in orthogonal box = (0.0000000 0.0000000 0.0000000) to (15.874011 15.874011 15.874011)
  create_atoms CPU = 0.016 seconds
set type 1 type/fraction 2 0.3 78393
Setting atom values ...
  1229 settings made for type/fraction
mass 1 1.0
mass 2 1.0
pair_style lj/cut  3.5
pair_modify tail  yes
pair_coeff 1  1  1.0  1.0   # Intearaction between 1 and 1 set with epsilon = 1 and sigma = 1
pair_coeff 1  2  1.5  0.8
pair_coeff 2  2  0.5  0.88

write_data data.0
System init for write_data ...
Neighbor list info ...
  update every 1 steps, delay 10 steps, check yes
  max neighbors/atom: 2000, page size: 100000
  master list distance cutoff = 3.8
  ghost atom cutoff = 3.8
  binsize = 1.9, bins = 9 9 9
  1 neighbor lists, perpetual/occasional/extra = 1 0 0
  (1) pair lj/cut, perpetual
      attributes: half, newton on
      pair build: half/bin/atomonly/newton
      stencil: half/bin/3d
      bin: standard
WARNING: Not all mixed pair coeffs generated from mixing. Use write_data with 'pair ij' option to store all pair coeffs. (../write_data.cpp:312)


#############################
#   M E L T   S Y S T E M   #
#############################

velocity all create 2.4 5300450 mom yes dist gaussian # Assign velocities
                                                    # Temperature 2.4, random number seed, zero linear momentum
                                                                                # Gaussian distribution

timestep 0.002   # simulation timestep
thermo 1000       # output thermodynamic data every 1000 steps bf 100

# Define a fix  in this case with index 1 applied to all
# particles in the simulation. This fix is for simulations
# in the anisotropic NPT ensemble. Note that we use the MTK
# correction.
fix 1 all npt temp 2.4 2.4 0.1 iso 5.68 5.68 0.5 mtk yes tchain 5 pchain 5 # Use NPT ensemble
                                                                         # Set temperature and pressure and damping
                                                                         # Numbers of thermostats in chain and in barostat
run 10000          # run for 10000 steps
Per MPI rank memory allocation (min/avg/max) = 3.642 | 3.644 | 3.648 Mbytes
Step Temp E_pair E_mol TotEng Press Volume 
       0          2.4   -6.4318281            0   -2.8327281   -3.9834666         4000 
    1000    2.4680981   -4.9615051            0   -1.2602835    5.6991108    4164.7377 
    2000     2.339425   -5.0887257            0   -1.5804655    5.4518584    4121.4434 
    3000    2.4164927    -4.938385            0   -1.3145521    5.6945364    4182.2522 
    4000    2.3870229   -5.0567139            0   -1.4770748    5.7063061     4116.878 
    5000    2.3970469    -5.014079            0   -1.4194076    5.7404465    4131.8018 
    6000     2.434338   -4.9763346            0   -1.3257405    5.4367569    4190.2074 
    7000    2.4350537   -5.0076195            0   -1.3559521    5.2823774    4184.8879 
    8000    2.3736231    -4.983131            0   -1.4235865    5.6210798    4157.1384 
    9000    2.4075253   -4.9305246            0   -1.3201394    5.7465214    4166.2562 
   10000    2.4034309   -4.9850262            0   -1.3807812    6.0713211    4120.8954 
Loop time of 2.40559 on 48 procs for 10000 steps with 4000 atoms

Performance: 718326.378 tau/day, 4156.981 timesteps/s
99.7% CPU use with 48 MPI tasks x no OpenMP threads

MPI task timing breakdown:
Section |  min time  |  avg time  |  max time  |%varavg| %total
---------------------------------------------------------------
Pair    | 1.0357     | 1.1126     | 1.2018     |   3.2 | 46.25
Neigh   | 0.20182    | 0.21019    | 0.22201    |   0.9 |  8.74
Comm    | 0.73771    | 0.82611    | 0.9187     |   4.2 | 34.34
Output  | 0.00024553 | 0.00025032 | 0.00030946 |   0.0 |  0.01
Modify  | 0.20535    | 0.24124    | 0.26561    |   3.3 | 10.03
Other   |            | 0.01517    |            |       |  0.63

Nlocal:        83.3333 ave          93 max          74 min
Histogram: 2 4 3 4 9 14 5 4 1 2
Nghost:        1602.42 ave        1634 max        1575 min
Histogram: 7 3 5 5 5 8 7 1 2 5
Neighs:        9253.56 ave       10555 max        7754 min
Histogram: 3 1 3 6 7 8 9 6 1 4

Total # of neighbors = 444171
Ave neighs/atom = 111.04275
Neighbor list builds = 903
Dangerous builds = 181

# Equilibrate just above the melting temperature to avoid step fn in T

fix 1 all npt temp 1.25 1.25 0.1 iso 5.68 5.68 0.5 mtk yes tchain 5 pchain 5
run 2000
Per MPI rank memory allocation (min/avg/max) = 3.643 | 3.645 | 3.649 Mbytes
Step Temp E_pair E_mol TotEng Press Volume 
   10000    2.4034309   -4.9850262            0   -1.3807812    6.0713211    4120.8954 
   11000    1.2662734   -6.8518179            0   -4.9528827    5.8303619    3337.7115 
   12000    1.2541039   -6.8623555            0   -4.9816699    5.5806454    3345.4896 
Loop time of 0.570023 on 48 procs for 2000 steps with 4000 atoms

Performance: 606291.312 tau/day, 3508.630 timesteps/s
99.7% CPU use with 48 MPI tasks x no OpenMP threads

MPI task timing breakdown:
Section |  min time  |  avg time  |  max time  |%varavg| %total
---------------------------------------------------------------
Pair    | 0.25081    | 0.27327    | 0.29835    |   2.1 | 47.94
Neigh   | 0.036928   | 0.039739   | 0.041921   |   0.5 |  6.97
Comm    | 0.17993    | 0.20724    | 0.23194    |   2.7 | 36.36
Output  | 5.5419e-05 | 5.7039e-05 | 7.0202e-05 |   0.0 |  0.01
Modify  | 0.042338   | 0.044982   | 0.048003   |   0.8 |  7.89
Other   |            | 0.004733   |            |       |  0.83

Nlocal:        83.3333 ave          95 max          74 min
Histogram: 5 3 6 7 5 10 8 1 1 2
Nghost:        1851.79 ave        1875 max        1829 min
Histogram: 4 1 5 4 8 10 8 3 4 1
Neighs:        11410.2 ave       13539 max        9980 min
Histogram: 6 4 7 3 15 5 4 2 0 2

Total # of neighbors = 547689
Ave neighs/atom = 136.92225
Neighbor list builds = 143
Dangerous builds = 5

#############################
# L I N E A R  Q U E N C H  #
#############################

# Define solid atoms. This closely follows ten Wolde  Ruiz-Montero and Frenkel  Faraday Discuss  1996  104  93-110
# Compute components of the per-atom q6 vector
compute q6 all orientorder/atom degrees 1 6 components 6 nnn NULL cutoff 1.3 # compute the Q6 parameter.
                                                                             # Use all neighbours within 1.3 unit cell.

# get number of connections
compute coord_number all coord/atom orientorder q6 0.5

# An atom is solid if it has 8 or more connections (of a possible 14)
variable is_solid atom c_coord_number>=8
group solid dynamic all var is_solid    # Must be dynamic to update
dynamic group solid defined

# do clustering
compute cluster solid cluster/atom 1.3 # Create a cluster where all atoms within are solid and max 1.3 units from another member

# define chunks one chunk per cluster
compute clus_chunks solid chunk/atom c_cluster nchunk every compress yes  # Says which atoms are in which chunk

# count the size of each chunk
compute size_chunks solid property/chunk clus_chunks count


# Find the maximum entry in the vector of chunk sizes
variable max_n equal max(c_size_chunks)


# Thermo style which includes this variable
# thermo_style custom step temp pe vol v_max_n

thermo ${N}  # Print the thermo information every 100 steps
thermo 1000  

# Reset the npt fix at a lower temperature (below freezing)
fix 1  all npt temp  ${temp} ${temp}  0.1  iso  5.68  5.68  0.5  mtk yes tchain  5  pchain  5
fix 1  all npt temp  0.45 ${temp}  0.1  iso  5.68  5.68  0.5  mtk yes tchain  5  pchain  5
fix 1  all npt temp  0.45 0.45  0.1  iso  5.68  5.68  0.5  mtk yes tchain  5  pchain  5

dump dmp2 all dcd ${N} traj.dcd
dump dmp2 all dcd 1000 traj.dcd


compute msd all msd com yes
variable twopoint equal c_msd[4]/6/(step*dt+1.0e-6)
fix 9 all vector 10 c_msd[4]
variable fit equal slope(f_9)/6/(10*dt)
thermo_style custom step temp pe c_msd[4] v_twopoint v_fit v_max_n

fix 1 all npt temp 1.25 ${temp} 0.1 iso 5.68 5.68 0.5 mtk yes tchain 5 pchain 5
fix 1 all npt temp 1.25 0.45 0.1 iso 5.68 5.68 0.5 mtk yes tchain 5 pchain 5
run 5000000 # 5000000  # Run for this many steps
Neighbor list info ...
  update every 1 steps, delay 10 steps, check yes
  max neighbors/atom: 2000, page size: 100000
  master list distance cutoff = 3.8
  ghost atom cutoff = 3.8
  binsize = 1.9, bins = 8 8 8
  4 neighbor lists, perpetual/occasional/extra = 1 3 0
  (1) pair lj/cut, perpetual
      attributes: half, newton on
      pair build: half/bin/atomonly/newton
      stencil: half/bin/3d
      bin: standard
  (2) compute orientorder/atom, occasional
      attributes: full, newton on
      pair build: full/bin/atomonly
      stencil: full/bin/3d
      bin: standard
  (3) compute coord/atom, occasional
      attributes: full, newton on
      pair build: full/bin/atomonly
      stencil: full/bin/3d
      bin: standard
  (4) compute cluster/atom, occasional
      attributes: full, newton on
      pair build: full/bin/atomonly
      stencil: full/bin/3d
      bin: standard
Per MPI rank memory allocation (min/avg/max) = 9.809 | 9.815 | 9.819 Mbytes
Step Temp PotEng c_msd[4] v_twopoint v_fit v_max_n 
   12000    1.2541039   -6.8623555 1.0616096e-30 7.3722883e-33 8.3333333e+20            1 
   13000    1.2417002   -6.8764407   0.49964201 0.0032028333  0.040650766            1 
   14000    1.2936432   -6.8362168   0.96151488 0.0057233027  0.039771912            1 
   15000    1.2473099   -6.8440679    1.4747076 0.0081928198  0.039942647            3 
   16000    1.2770104   -6.8812612    1.9888554  0.010358622   0.04077948            1 
   17000    1.2380573     -6.84938    2.4764682   0.01213955  0.041493609            2 
   18000    1.2466708   -6.8639187    2.9423752  0.013622107  0.041069486            3 
   19000    1.2388389    -6.871642     3.412684  0.014967912  0.040892838            2 
   20000    1.2337097   -6.9082941    3.9331402  0.016388084  0.040743483            2 
   21000    1.2493869   -6.8902423    4.3895535  0.017418863  0.040705311            2 
   22000    1.2638574   -6.8605069    4.8488743  0.018366948  0.040574779            2 
   23000    1.2198743   -6.9064568    5.2687625  0.019089719  0.040295135            2 
   24000    1.2547456   -6.8883343    5.7575507  0.019991495  0.040020313            1 
   25000    1.2442678   -6.9159726    6.1644761  0.020548253  0.039793668            2 
   26000    1.2360164    -6.875749    6.6325084  0.021258039  0.039518513            1 
   27000      1.20778   -6.8738744    7.0988451  0.021910015  0.039340011            1 
   28000    1.2681748    -6.919445    7.5454299  0.022456636  0.039238538            2 
   29000    1.2533596   -6.8976496    8.0750886  0.023204277  0.039091139            1 
   30000    1.2913779   -6.8541087    8.5348619  0.023707949  0.039098859            3 
   31000     1.236487   -6.9049956     9.039321   0.02429925  0.039101578            2 
   32000    1.2415937   -6.8948844    9.4822723  0.024693417  0.039117672            4 
   33000    1.2565062   -6.8792274    10.005164  0.025265566  0.039114076            2 
   34000    1.2466511    -6.874822    10.509716  0.025759107  0.039172579            4 
   35000    1.2591476   -6.9021011    11.102141  0.026433668  0.039290638            1 
   36000    1.2466706   -6.8829761    11.599344  0.026850333  0.039453975            2 
   37000    1.2431149    -6.862887    12.067855  0.027179854   0.03959504            1 
   38000    1.2457289    -6.866509    12.486667   0.02738304   0.03968808            4 
   39000    1.2429263   -6.9143425    12.886857  0.027536019  0.039729709            1 
   40000     1.236338   -6.9314031    13.312053  0.027733443  0.039704207            1 
   41000    1.2367867   -6.8893655    13.908048  0.028268389  0.039710911            1 
   42000    1.2504202    -6.864863    14.349961  0.028472144  0.039710132            2 
   43000     1.251409   -6.8496655    14.724762  0.028536359  0.039712963            1 
   44000    1.2398883     -6.90158    15.245134  0.028873359  0.039680111            2 
   45000    1.2360647   -6.8693195    15.698199  0.029070739  0.039678594            2 
   46000     1.244773   -6.8321106    16.190491  0.029330598  0.039653903            2 
   47000    1.2817981   -6.8505565    16.530868   0.02931005  0.039583562            1 
   48000    1.2790868     -6.87016    17.029487   0.02956508  0.039517569            2 
   49000    1.2375738   -6.9036809    17.519757  0.029795505   0.03948175            1 
   50000    1.2536099   -6.8970087    17.909767  0.029849611  0.039446719            6 
   51000    1.2644368   -6.9090126    18.381277  0.030034765  0.039403809            2 
   52000    1.2367979   -6.8712867    18.574739  0.029767209  0.039318887            1 
   53000    1.2291093   -6.8635534    19.052797  0.029957228  0.039211246            2 
   54000    1.2571811   -6.8581772    19.455943  0.030024603  0.039106857            1 
   55000    1.2655856    -6.863802    19.787419  0.029980938  0.038977894            3 
   56000    1.2416843   -6.9362703    20.252037  0.030136959  0.038852595            1 
   57000    1.2312691   -6.9028189     20.61076   0.03013269  0.038728189            1 
   58000    1.2420988   -6.8983191    21.021991   0.03020401  0.038605029            1 
   59000    1.2331797   -6.8795963     21.43255  0.030271962  0.038488122            1 
   60000    1.2009189    -6.878181     22.04224  0.030614223  0.038387137            1 
   61000    1.2395707   -6.9018262     22.54815  0.030803483  0.038330101            1 
   62000    1.2366283   -6.8185134    23.170024  0.031142505  0.038290162            3 
   63000    1.2817218   -6.9273013    23.406762  0.030961325  0.038244637            2 
   64000    1.2383057    -6.865023    23.936429  0.031167225  0.038197504            2 
   65000    1.2297237   -6.8599789    24.309837  0.031166458  0.038145521            1 
   66000    1.2307385   -6.9039217    24.924559  0.031470403  0.038103763            1 
   67000      1.22253   -6.8942161    25.468254  0.031676932  0.038095288            1 
   68000    1.2419092   -6.8858291    26.132162  0.032024708  0.038108988            1 
   69000    1.2357121   -6.8666619    26.799816  0.032366928  0.038146956            1 
   70000    1.2358834   -6.8625515    27.349825  0.032559316  0.038217327            1 
   71000     1.258934   -6.8828591    27.772948  0.032597356  0.038279823            1 
   72000    1.2311058   -6.8994163     28.34757  0.032809688  0.038343199            2 
   73000    1.2369121   -6.9359716    28.676572  0.032735812  0.038398742            3 
   74000    1.2564106   -6.9295401    29.212874   0.03289738  0.038446786            2 
   75000     1.256453    -6.921361    29.890981  0.033212201  0.038496693            1 
   76000    1.2483363   -6.8682466     30.30591  0.033230164  0.038557127            2 
   77000    1.2380634   -6.9473576    30.660788   0.03318267   0.03860811            3 
   78000    1.2593976   -6.9027595    31.083083  0.033208422  0.038648538            1 
   79000    1.2318748   -6.8998886    31.494118  0.033221643  0.038671053            3 
   80000    1.2182287   -6.9079682    31.987426  0.033320235  0.038697577            1 
   81000    1.1962616   -6.8967605    32.479482  0.033415105  0.038724172            1 
   82000    1.2259189   -6.8861042    32.954526  0.033490372  0.038749688            1 
   83000    1.2262458   -6.8797082     33.22096  0.033354377  0.038758037            1 
   84000    1.2131584   -6.8574933    33.516723  0.033250717  0.038755845            4 
   85000    1.2573473   -6.8713642    34.008585   0.03334175  0.038747051            1 
   86000    1.2252234   -6.8992188    34.486873  0.033417512  0.038740904            1 
   87000    1.2591925   -6.8992796    34.700568  0.033238092  0.038717597            2 
   88000    1.2520634   -6.9190835    34.836043  0.032988676  0.038683985            1 
   89000    1.2214363   -6.8781913    35.490948  0.033231224  0.038647397            2 
   90000    1.2240868   -6.8906304    35.931772  0.033270159  0.038608331            3 
   91000    1.2393198   -6.9125331     36.37212  0.033307802  0.038577246            1 
   92000    1.2456694   -6.8476021    37.048147  0.033558104  0.038556418            1 
   93000    1.2389027   -6.8801969     37.65179  0.033738163  0.038545685            2 
   94000    1.2057616   -6.8785416    37.983983  0.033673743  0.038534403            1 
   95000    1.2265752   -6.8863291     38.37522  0.033662473  0.038522227            2 
   96000    1.2382087   -6.8777269    38.871292   0.03374244  0.038507799            1 
   97000    1.2395689    -6.892593    39.325479  0.033784775  0.038498072            1 
   98000    1.2509378   -6.8999791    39.642002  0.033709185  0.038478897            1 
   99000    1.2484049   -6.9199634    40.175348  0.033817633  0.038463861            2 
  100000    1.2484456   -6.8862112    40.559225  0.033799354  0.038445703            1 
  101000    1.2088155   -6.8590454     41.06977  0.033885949  0.038422952            3 
  102000    1.2350545   -6.8963388    41.326988  0.033763879  0.038400275            1 
  103000    1.2317737   -6.8989009     41.91606   0.03391267  0.038381941            2 
  104000    1.2284602   -6.9438714    42.342197  0.033928043  0.038365463            1 
  105000    1.2227488   -6.8361188    43.088727  0.034197403  0.038351156            2 
  106000    1.2375529   -6.9566245    43.324576  0.034060201  0.038340147            2 
  107000    1.2334912   -6.9407726     43.89055  0.034182671  0.038331432            1 
  108000    1.2447377   -6.9227644    44.584118  0.034401325  0.038331774            2 
  109000    1.2445725   -6.9258409    45.158321   0.03452471   0.03833793            1 
  110000    1.2220555   -6.9625359    45.351172  0.034356948  0.038343195            3 
  111000    1.2244314   -6.9023629    45.977977     0.034518  0.038347845            1 
  112000    1.2244354   -6.8877275    46.198307   0.03437374  0.038347991            1 
  113000    1.2230339   -6.9050153    46.594088  0.034361422  0.038342208            2 
  114000    1.2586011   -6.9015884     47.08322  0.034417559  0.038332033            1 
  115000    1.2507737   -6.9001046    47.462999  0.034393477  0.038325226            2 
  116000    1.2099605   -6.9124761    47.834689  0.034364001    0.0383114            1 
  117000    1.2251256   -6.9301914    48.312852  0.034410863  0.038300271            3 
  118000    1.2212078   -6.9204312    48.587058  0.034312894  0.038284681            1 
  119000    1.2191842   -6.9078191    49.274984  0.034506291  0.038272015            1 
  120000    1.2352579   -6.8803475    50.040602  0.034750418  0.038269465            4 
  121000     1.241616   -6.9021791    50.500253  0.034779788  0.038270407            1 
  122000    1.2333664   -6.9329343     50.91786  0.034779959  0.038271789            1 
  123000    1.2323994   -6.9333297    51.142457  0.034649361  0.038268323            1 
  124000    1.2217921   -6.9192503    51.365777  0.034520011  0.038263206       -1e+20 
  125000    1.2290435   -6.9371279    52.239023  0.034826015  0.038257782            2 
  126000    1.2330471   -6.9190573     52.70884  0.034860344  0.038252911            1 
  127000    1.2414964   -6.9257217    53.032046   0.03479793  0.038253565            3 
  128000    1.2128022   -6.9016231    53.745486  0.034990551   0.03825425            1 
  129000    1.2126357   -6.9176036     54.17943  0.034999632  0.038254524            1 
  130000    1.2190778   -6.8869142    54.621765  0.035013952  0.038255089            2 
  131000    1.2255763   -6.9239052    55.021837  0.035001168  0.038258384            2 
  132000    1.2197666   -6.9744031    55.285939  0.034902739  0.038259216            2 
  133000    1.2212749   -6.9312083    55.835623  0.034984726  0.038258555            3 
  134000    1.1944533   -6.9185239    56.484363  0.035127091  0.038262267            4 
  135000    1.2372839   -6.9079783    57.052298  0.035217468  0.038269529            1 
  136000    1.2189467   -6.9505246    57.475952  0.035218108   0.03828109            1 
  137000    1.2867876   -6.8947385    58.345737  0.035490107  0.038295716            2 
  138000    1.2233057   -6.9079305    58.919742  0.035579554  0.038316567            1 
  139000    1.2218787   -6.9038971    59.030839  0.035390191  0.038332958            1 
  140000    1.2736762   -6.9357242    59.424698  0.035371844  0.038345048            2 
  141000    1.2504231   -6.8994771    60.193425   0.03557531  0.038355089            2 
  142000    1.2421348   -6.9252221    60.394715  0.035442908  0.038364641            1 
  143000    1.2222156   -6.9291961    60.583052  0.035304809  0.038368772            1 
  144000    1.2192583   -6.9079073    60.952809  0.035273616  0.038371888            1 
  145000    1.2146968   -6.8942205    61.717884  0.035470048  0.038375838            1 
  146000    1.2363323   -6.9032405    62.132101  0.035463528  0.038379441            1 
  147000    1.2210871   -6.9306573    62.459801   0.03540805  0.038378167            3 
  148000    1.2100438   -6.9456074    62.808673  0.035365244  0.038377621            1 
  149000    1.2290037    -6.914445    63.158504  0.035323548  0.038375511            3 
  150000    1.2306926   -6.9013418    63.671195  0.035372886  0.038372553            1 
  151000    1.2528198   -6.9076462    64.117118  0.035384723  0.038368919            2 
  152000    1.2301197   -6.9338606      64.5798  0.035405592  0.038364445            1 
  153000    1.2220914   -6.9039152    64.994632  0.035400126  0.038363848            2 
  154000     1.204981   -6.9434031    65.596423    0.0354959  0.038364395            1 
  155000    1.2373931   -6.9261018    66.059689  0.035515962  0.038363346            3 
  156000    1.2476411   -6.9842552    66.279222  0.035405567  0.038359781            1 
  157000    1.2297921   -6.9317306     67.01715  0.035571736  0.038356358            2 
  158000    1.2103852   -6.9605455    66.974977  0.035324355    0.0383505            2 
  159000    1.2503064   -6.9012163    67.878546  0.035575758  0.038344895            2 
  160000    1.2336484   -6.9010888    68.146483   0.03549296  0.038343325            1 
  161000     1.220155    -6.878609    68.930267  0.035678192  0.038341031            1 
  162000     1.232529    -6.951739    69.103196  0.035546912  0.038337546            1 
  163000    1.2415341   -6.9234601    69.660981  0.035613998  0.038331426            2 
  164000    1.2332804    -6.896046    69.933591  0.035535361  0.038323456            2 
  165000    1.2328947   -6.9724551    70.289168   0.03549958   0.03831916            2 
  166000    1.2149136   -6.9115925    70.896266  0.035590495  0.038312189            1 
  167000    1.2050737   -6.8877883    71.249434   0.03555361  0.038305922            2 
  168000    1.2501508   -6.9823554    71.830883  0.035630398  0.038301195            1 
  169000    1.2363165   -6.9662246    72.191321  0.035597298  0.038297466            1 
  170000    1.2289706     -6.91251    72.552939  0.035565166  0.038292842            2 
  171000    1.2138456   -6.9422541    72.774073  0.035464948  0.038283619            2 
  172000    1.2292809   -6.9195515     73.54731  0.035633387  0.038277497            1 
  173000    1.2100373   -6.9495426    73.724347  0.035512691   0.03827259            1 
  174000    1.2277233   -6.9459007      74.4909  0.035675718   0.03826627            3 
  175000    1.2088364   -6.9632054    74.687937  0.035565684  0.038260131            2 
  176000    1.2075465   -6.9230032    75.408191  0.035704636  0.038253226            2 
  177000    1.2411503   -6.9548602     75.30186  0.035452853  0.038245656            3 
  178000    1.2330008   -6.9054112    76.156129  0.035653618  0.038235536            2 
  179000    1.2123824   -6.9027137    76.205869  0.035477592  0.038222269            1 
  180000    1.2192078   -6.9417086    76.598321  0.035462186   0.03821156            3 
  181000    1.2397823   -6.9484471    77.287753   0.03558368  0.038201676            2 
  182000    1.2044665   -6.9803319    77.891947  0.035664811  0.038192359            1 
  183000    1.2476639   -6.9266134    78.681562  0.035829491  0.038185633            1 
  184000     1.213501   -6.9723888    78.742137    0.0356622  0.038181414            1 
  185000    1.1976512    -6.947299    79.057369  0.035611427  0.038175547            1 
  186000    1.2322787   -6.9261061    80.054644  0.035866776  0.038170943            1 
  187000    1.2314766   -6.9378305    80.508557  0.035877253  0.038169976            1 
  188000    1.2337653   -6.9531216    80.813707  0.035821679  0.038167493            1 
  189000      1.23121   -6.8998791    81.309126  0.035850584  0.038163046            1 
  190000    1.2291405   -6.9129327    81.807477  0.035880472  0.038161107            1 
  191000    1.2182751   -6.9376481    82.175285  0.035853091  0.038156808            1 
  192000    1.2375308   -6.9478452    82.683858  0.035887091  0.038153471            1 
  193000    1.2409445   -6.9240982    83.106285  0.035883543  0.038149981            1 
  194000    1.2371924    -6.938454    83.419138  0.035832963  0.038148201            1 
  195000    1.2272165   -6.9457396    83.963194  0.035881707  0.038146348            2 
  196000    1.2168517   -6.9267481    84.466468  0.035912614  0.038143924            1 
  197000    1.2076722   -6.9534305    84.585085  0.035780493  0.038139037            1 
  198000    1.2297947   -6.9281371    85.211968  0.035863623  0.038133751            2 
  199000    1.1995404   -6.9120506    85.943183  0.035989608  0.038131427            2 
  200000    1.2533179    -6.948072    86.353496  0.035980623  0.038129485            1 
  201000     1.206636   -6.9721484    86.682457     0.035938  0.038126104            2 
  202000    1.1972408   -6.9480656    87.094759  0.035930181  0.038124242            4 
  203000    1.2305439   -6.9952388    87.559568  0.035943993   0.03812422            1 
  204000    1.2411378    -6.964869    87.995106  0.035945713  0.038121162            1 
  205000    1.2254508   -6.9181673    88.491943  0.035972335  0.038116503            1 
  206000    1.2034781   -6.9640314    88.707674  0.035884981  0.038111556            1 
  207000    1.2232663   -6.9275126    88.935826  0.035803473  0.038104225            2 
  208000    1.2036584   -6.9225117    89.222938  0.035746369  0.038097644            1 
  209000    1.2215984   -6.9216775    90.171188  0.035953424  0.038091233            1 
  210000    1.2435942   -6.9054027    90.634534  0.035966085  0.038085595            2 
  211000    1.2194533   -6.9527349     90.96252  0.035925166  0.038080834            1 
  212000    1.2152704   -6.9714447    91.232357  0.035861775  0.038073765            2 
  213000    1.1972249   -6.9120349    92.017973  0.036000772  0.038068462            2 
  214000     1.233014   -6.9248643    92.200982  0.035903809    0.0380631            3 
  215000    1.1930467   -6.9965136    92.569209  0.035879538  0.038056082            2 
  216000    1.2388265   -6.9146623    93.425123  0.036043643  0.038048806            1 
  217000    1.2224262   -6.9108758    93.572775  0.035934245  0.038040389            3 
  218000    1.2187432   -6.9481215    93.680065  0.035810422  0.038031862            2 
  219000    1.2436646   -6.9447769    93.652248  0.035636319  0.038022432            1 
  220000     1.208493   -6.9417179    94.123184  0.035652721  0.038009828            2 
  221000    1.1996247    -6.971088    94.551913  0.035653059  0.037996237            1 
  222000    1.2260671   -6.9632881    95.060448  0.035683351  0.037984928            1 
  223000    1.2110568   -6.9265116    95.769059  0.035788138  0.037973808            1 
  224000    1.2229126    -6.865961    96.068321  0.035739703  0.037961964            1 
  225000    1.2285603   -6.9235811    96.077689  0.035584329  0.037947386            1 
  226000    1.2091214     -6.97637    96.178674  0.035464113  0.037934171            3 
  227000    1.1889587   -6.9782951    97.220023   0.03569017  0.037921291            1 
  228000    1.1974213   -6.9496808    97.252804  0.035545616  0.037906166            3 
  229000    1.2112509   -6.8996291    98.236367  0.035748314  0.037891884            1 
  230000    1.2282395   -6.9469054     98.35406  0.035635529  0.037877611            1 
  231000    1.2201465   -6.9889569    98.211023  0.035429662  0.037861696            1 
  232000    1.2105429   -6.9845361    98.717219  0.035458771  0.037845098            1 
  233000    1.2100558   -6.8864103    99.696253  0.035656743  0.037828414            2 
  234000    1.2067463   -6.9291538    99.614913  0.035475396  0.037812033            2 
  235000    1.2253069   -6.9794178    99.745549  0.035370762  0.037792446            3 
  236000    1.2218582   -6.9882552    100.42497  0.035460794  0.037773788            2 
  237000    1.2084455   -6.9589091    100.75028  0.035425555  0.037753399            1 
  238000    1.2164183   -6.9654217    101.26256  0.035456079  0.037733099            1 
  239000    1.1935549   -6.9391643    101.38413  0.035350115  0.037713621            4 
  240000    1.2421831    -6.912949    102.01723  0.035422649  0.037694115            1 
  241000    1.2193989   -6.9213424    102.35818  0.035393561  0.037674732            2 
  242000    1.2420026   -6.9900806      102.796  0.035398072  0.037655292            1 
  243000    1.2330852   -6.9703481    103.05638  0.035341695  0.037634351            3 
  244000    1.2084025   -6.9731827    103.47355  0.035339327  0.037613348            2 
  245000    1.2190355   -6.9752614    103.74623  0.035287833  0.037592884            1 
  246000    1.2070805   -6.9429177    104.16013  0.035284598  0.037572388            1 
  247000    1.2402689   -7.0154585    104.11559  0.035126716   0.03755124            1 
  248000     1.182006   -6.9716475     104.6683    0.0351708  0.037529831            3 
  249000    1.2080921   -6.9788734    105.29686  0.035239913  0.037508682            2 
  250000    1.2084533   -6.9291567    105.81852   0.03527284  0.037488173            3 
  251000     1.239916   -6.9789568    106.11542  0.035230884  0.037468832            2 
  252000     1.214688   -7.0031107    106.58935  0.035247801  0.037450244            1 
  253000     1.192592   -6.9575306    107.05271  0.035261104  0.037430729            1 
  254000    1.2000314   -6.9381976    107.92405  0.035408153  0.037412735            1 
  255000    1.2045303   -6.9627144    108.05196  0.035311098  0.037394047            3 
  256000    1.2272736   -6.9786377    108.13631  0.035200622  0.037375148            2 
  257000    1.2075202   -6.9684056    108.65949  0.035233299  0.037356428            2 
  258000    1.2227049   -6.9730352    109.16255  0.035259222  0.037337195            1 
  259000    1.2129149   -6.9606195    109.44788  0.035214892  0.037317387            1 
  260000     1.197927   -6.9744728    109.58518  0.035123455  0.037298273            2 
  261000     1.221198   -6.9726592    109.82263  0.035064696  0.037278739            1 
  262000    1.2065366   -6.9640667    111.03291  0.035315812  0.037258995            1 
  263000    1.1929762   -6.9302928    111.29045  0.035263132  0.037241177            1 
  264000    1.2167713   -7.0050892    111.12214  0.035076434   0.03722322            2 
  265000    1.2133076    -6.988569    111.91602  0.035193718  0.037204934            3 
  266000    1.2147835   -6.9460949    112.50362  0.035245496  0.037187539            1 
  267000    1.2106115   -6.9715746    112.59683  0.035142581  0.037169207            2 
  268000    1.2101782   -7.0149004    112.43011   0.03495961  0.037148738            3 
  269000    1.2105717   -6.9409771     113.4334  0.035140458  0.037129434       -1e+20 
  270000    1.2132353   -7.0076421    113.80264  0.035124272  0.037110361            3 
  271000    1.2257606   -6.9537206    114.52818  0.035217768  0.037092383            1 
  272000    1.1909553   -6.9602842    114.68568  0.035136545  0.037074979            1 
  273000    1.2255339    -6.995282     114.8405  0.035055097  0.037057282            2 
  274000    1.1997753   -7.0178621    115.45565  0.035114248  0.037040087            2 
  275000    1.2101018   -6.9081612    116.60128  0.035333722  0.037025311            1 
  276000    1.1787518   -6.9686521    117.16952   0.03537727  0.037010048            2 
  277000    1.2008663   -7.0055328    116.89533  0.035167068  0.036996101            2 
  278000    1.2182519   -6.9506541    117.54503  0.035235321  0.036981376            1 
  279000    1.2017553   -6.9992164    117.47813  0.035089047  0.036966587            1 
  280000    1.2005555   -6.9402229    118.64011  0.035309558  0.036952404            2 
  281000    1.2000251   -6.9747133    118.44268   0.03512535  0.036937982            1 
  282000    1.1757046   -6.9754185    119.26793  0.035244659  0.036924804            2 
  283000    1.2057588   -6.9861634    119.78431  0.035272176  0.036913122            2 
  284000     1.217559   -6.9913046    120.13276  0.035250222  0.036900985            1 
  285000    1.1918281   -6.9867765    120.86517  0.035340694  0.036890594            1 
  286000     1.193183   -6.9866183    121.48998  0.035399179  0.036881665            1 
  287000    1.2099737   -6.9345421    122.58381  0.035593439  0.036874968            1 
  288000    1.1992174   -7.0067379    123.12307   0.03562589  0.036869094            2 
  289000    1.1994829   -6.9558518    123.76782  0.035688529  0.036865157            2 
  290000    1.2043486   -6.9443917    124.04016  0.035643723  0.036861483            1 
  291000    1.2109338    -7.009334    124.21153  0.035570313  0.036857457            2 
  292000    1.2067838   -6.9843638     124.5601  0.035547975  0.036852041            1 
  293000    1.1980358    -6.956993    125.10286  0.035581018   0.03684735            2 
  294000    1.2137882   -7.0017237     125.3138  0.035519785   0.03684048            2 
  295000     1.186344   -6.9622054    125.49593  0.035450827  0.036834202            1 
  296000    1.2045578   -7.0229303    126.26327  0.035547092   0.03682875            4 
  297000    1.2034009   -7.0070298    126.62305  0.035528352  0.036823591            1 
  298000    1.1971804   -6.9759746    127.81984  0.035743804  0.036820411            2 
  299000    1.2186172   -6.9836891    128.42588  0.035793166  0.036818231            1 
  300000    1.1853098   -6.9568064    128.90829  0.035807858  0.036816764            1 
  301000    1.1802093   -6.9730773    129.07718  0.035735654  0.036815253            2 
  302000    1.2111558   -6.9678134    129.47912  0.035728234  0.036813263            2 
  303000    1.2252813   -6.9391084     129.9271  0.035733526  0.036810583            1 
  304000    1.1781479   -6.9813126    129.98314  0.035631343  0.036807754            1 
  305000      1.21178   -6.9402885    130.24755  0.035586762  0.036803222            1 
  306000       1.2198   -6.9705066     131.2418  0.035741232  0.036799429            2 
  307000    1.2082826   -7.0052662     131.4463  0.035680321  0.036796686            1 
  308000    1.2063736   -6.9767896    131.44664  0.035564566  0.036793352            3 
  309000    1.2360547   -6.9979301    132.00902  0.035601137  0.036790109            1 
  310000    1.2331136   -6.9921882    132.91956  0.035731065  0.036788116            3 
  311000    1.2111802   -6.9438928    133.53358  0.035780703  0.036786257            1 
  312000    1.1861138   -7.0237723    133.67234  0.035703082  0.036784924            2 
  313000    1.1887999   -6.9794688    134.06482   0.03569351  0.036783492            2 
  314000    1.1894892   -6.9603027    135.11053  0.035857361  0.036782962            1 
  315000     1.189904   -6.9433168    135.67591  0.035893098  0.036784409            2 
  316000    1.1880769   -6.9457225    135.94394  0.035850195   0.03678549            2 
  317000    1.1990234   -6.9679246    136.64384  0.035921094  0.036786088            2 
  318000     1.192831   -6.9907961     136.8138  0.035852674  0.036786617            1 
  319000      1.22393   -6.9814747    137.10038  0.035815146  0.036787987            1 
  320000    1.2222915    -6.992227    138.57124  0.036086259  0.036789963            2 
  321000    1.1828372   -6.9733059    138.98055  0.036080101  0.036791581            2 
  322000     1.204637   -6.9843749    138.48768  0.035840497  0.036793005            1 
  323000    1.1887812   -7.0050981    138.78203  0.035805477  0.036793062            1 
  324000    1.1733702   -6.9602664    139.54693    0.0358917  0.036793091            2 
  325000    1.1948785    -7.006488     139.6226  0.035800667  0.036792974            1 
  326000    1.2132389   -6.9907401    140.31897  0.035868858  0.036792917            1 
  327000     1.220238   -6.9622528    141.12974  0.035965784  0.036793858            2 
  328000    1.2285458   -7.0332163    141.10281  0.035849292  0.036793808            2 
  329000    1.1719661   -6.9654275    141.90613  0.035943802  0.036793482            1 
  330000    1.2039535   -6.9867467    141.93419  0.035841968  0.036792626            2 
  331000     1.197383   -6.9781058    142.30541  0.035827142  0.036792221            2 
  332000     1.196501   -6.9193692    143.70069  0.036069449  0.036791544            1 
  333000    1.1969186   -6.9722317    143.24003  0.035845854  0.036790875            1 
  334000    1.1886338   -7.0029771    143.32744  0.035760338  0.036788922            2 
  335000    1.1863565   -6.9431957     144.5828  0.035965871  0.036788084            1 
  336000    1.1998462   -6.9215895     144.7414  0.035898165  0.036787867            1 
  337000    1.2008821   -6.9906603    145.25322  0.035918204  0.036788107            1 
  338000    1.1819356   -7.0369894    145.91972  0.035976262  0.036789253            2 
  339000    1.1830704   -6.9714667    146.54252  0.036023235   0.03678984            1 
  340000     1.213205   -6.9833414     146.4293  0.035889535  0.036790853            1 
  341000    1.1975182   -7.0219671    146.78722  0.035871754  0.036790835            2 
  342000    1.2031881   -6.9625524    147.12374  0.035848865  0.036791414            3 
  343000    1.2164655   -7.0186124    147.95745  0.035946901  0.036791255            1 
  344000    1.1948474   -7.0035433    148.52004  0.035978691  0.036791631            2 
  345000    1.1889554   -6.9692373    149.14206  0.036024653  0.036792631            2 
  346000    1.2010909   -6.9695036    149.10407  0.035911384  0.036792182            1 
  347000    1.1981197   -7.0175898    149.31458   0.03585845  0.036791281            1 
  348000    1.2021864   -6.9846127     149.7972  0.035870978  0.036789499            1 
  349000    1.1998777   -6.9980697    150.13075  0.035847839  0.036786815            2 
  350000    1.1941708   -6.9880318    150.52236  0.035838656  0.036783889            1 
  351000    1.2124787   -6.9796225    150.37441  0.035701427   0.03678084            1 
  352000    1.1989692   -6.9773074    150.99046  0.035745846  0.036777301            1 
  353000    1.1747444   -6.9620284    151.59172  0.035786525  0.036774225            3 
  354000    1.2056289   -6.9896661    151.34407  0.035627135  0.036770629            2 
  355000    1.2214175    -6.973076    151.85961  0.035647796  0.036766268            1 
  356000    1.1907906   -6.9646543    152.44437  0.035684542  0.036762254            1 
  357000    1.1848383   -6.9708787    153.62626  0.035860473  0.036758398            1 
  358000     1.197146   -6.9821986    152.99721  0.035613875  0.036753735            1 
  359000    1.1932833   -6.9803623    153.39161  0.035606222  0.036747899            2 
  360000     1.200497   -6.9880054    154.12362  0.035676765  0.036741288            2 
  361000    1.2202241   -6.9968024    154.11486  0.035575913   0.03673532            2 
  362000    1.2130327   -6.9760409    155.71999  0.035847144  0.036731347            2 
  363000    1.1965962   -7.0184361    155.96113   0.03580375  0.036727431            2 
  364000     1.205699   -7.0142257    155.85328  0.035680696   0.03672462            1 
  365000     1.191142   -6.9604216      157.134  0.035875342  0.036722141            1 
  366000    1.1735557   -7.0367072    157.22081  0.035797088  0.036720659            1 
  367000    1.1861798   -6.9854618     157.3862  0.035737103  0.036718454            3 
  368000    1.2141957   -6.9991679    157.86815  0.035749128  0.036715506            3 
  369000    1.1479916    -7.037969     158.2508  0.035738664  0.036713101            2 
  370000    1.2049648   -7.0232083     158.8844  0.035784774  0.036710771            2 
  371000    1.1914736   -7.0044662    159.34589  0.035791979   0.03670801            1 
  372000    1.1700447   -7.0463636    159.78359  0.035793815  0.036704887            2 
  373000    1.1908657   -7.0227928    159.82993  0.035708206  0.036701387            1 
  374000     1.223366    -6.985697    160.82419  0.035834266  0.036699183            1 
  375000    1.1794916   -7.0212482    161.25296  0.035833992  0.036697004            2 
  376000    1.2012006   -6.9541937    161.33095  0.035755972  0.036693865            1 
  377000    1.1864774   -7.0093174     161.1842  0.035628691  0.036689687            1 
  378000    1.2083637   -6.9954285    161.73792  0.035656508  0.036684426            1 
  379000    1.1931253   -7.0050873    162.09535  0.035641018  0.036679255            1 
  380000    1.1702487   -7.0112372    162.24726   0.03558054  0.036673966            3 
  381000    1.1914293   -7.0198828    162.84353   0.03561757     0.036669            2 
  382000    1.1810869   -6.9921407    163.86247  0.035746613   0.03666484            2 
  383000    1.2027014   -7.0175416    164.06893  0.035698201  0.036660747            3 
  384000    1.1878219   -7.0045048    164.09474  0.035610837   0.03665645            1 
  385000    1.1736812   -6.9874897    165.20322  0.035758273  0.036652084            1 
  386000    1.1796015   -7.0016543    164.71757  0.035560788  0.036646828            1 
  387000    1.1705417   -6.9877129    165.40168   0.03561621   0.03664024            1 
  388000    1.2074288   -7.0616353    164.75241  0.035384967  0.036633432            2 
  389000    1.2122104   -7.0312808    165.76059  0.035509981  0.036626205            4 
  390000    1.1874059    -6.980526    166.26516  0.035526743  0.036619035            1 
  391000    1.2155583   -6.9882036    166.24058  0.035430643  0.036611302            1 
  392000    1.2076807   -7.0405138    166.19162  0.035329852   0.03660288            1 
  393000     1.170377   -7.0016117    166.54389   0.03531465  0.036593547            2 
  394000    1.1777729   -7.0384063    166.45493  0.035206204  0.036583787            4 
  395000    1.1581083   -7.0084285     167.5208  0.035341941  0.036573458            2 
  396000    1.1937121   -7.0043875    167.26943  0.035199795  0.036563793            2 
  397000    1.1560612   -7.0382977    168.04355  0.035273625  0.036554238            2 
  398000    1.2040286   -7.0205089    168.18223  0.035214035  0.036544778            2 
  399000    1.1681034   -7.0112856    168.90561   0.03527686  0.036535408            3 
  400000    1.1988515   -7.0082625    169.22493  0.035255193  0.036525252            2 
  401000    1.2171755   -7.0298335    169.88337  0.035304109  0.036516233            2 
  402000    1.1713876   -7.0277417    170.39063  0.035321441  0.036507797            3 
  403000    1.2073815   -7.0176273    170.67339  0.035292263   0.03649904            2 
  404000    1.1733753   -7.0346663    170.90471  0.035252623  0.036489583            1 
  405000    1.1744436    -7.007649    171.80034  0.035349863   0.03648145            1 
  406000    1.1845537   -7.0217051    172.04154  0.035312304   0.03647352            4 
  407000     1.177551   -6.9828765    172.39415  0.035297738  0.036464875            3 
  408000    1.1831382   -6.9815485    173.22881    0.0353817  0.036456919            2 
  409000    1.1888694    -7.021776    172.87141  0.035222374  0.036448665            2 
  410000    1.1854881   -6.9691654    174.35296  0.035437594  0.036440266            1 
  411000    1.1780702   -7.0354773    174.20212  0.035320786  0.036432372            2 
  412000    1.1728766   -6.9541735    174.91858  0.035379971  0.036424708            1 
  413000    1.1577231   -7.0116481    175.02934  0.035316654  0.036417096            4 
  414000    1.1575618    -7.007888    175.95885  0.035418448  0.036409392            2 
  415000    1.1514243   -7.0108254    175.45827  0.035232584  0.036401591            1 
  416000    1.1855659   -7.0261713    175.79004  0.035214351  0.036393854            1 
  417000    1.1681284   -6.9943076    176.87713  0.035347148  0.036385546            2 
  418000    1.1614877   -7.0427206    176.72874  0.035233003  0.036376791            2 
  419000    1.2158999   -7.0337792    177.26221  0.035255013  0.036369417            3 
  420000    1.2085733   -7.0473697    177.83598  0.035284916  0.036361834            2 
  421000    1.2129487   -7.0098617    178.25938  0.035284913  0.036353803            1 
  422000    1.1762561    -7.017242    178.52005  0.035252775  0.036346104            3 
  423000    1.1832997   -6.9962203    179.31536  0.035326115  0.036338549            1 
  424000    1.2043612   -7.0547906    179.01229  0.035183233  0.036330827            2 
  425000    1.1812425   -7.0290244    179.30638  0.035158113  0.036323331            1 
  426000    1.2324109   -7.0123416    180.04088  0.035219265  0.036316686            2 
  427000      1.17057   -6.9952682     181.2979  0.035382104  0.036309418            2 
  428000     1.192038   -6.9951903    181.20305  0.035280969  0.036302629            1 
  429000    1.1506233   -7.0231371    181.55235   0.03526658  0.036295041            2 
  430000    1.1942737   -7.0100908    181.59207  0.035192261  0.036287913            2 
  431000    1.1721299   -7.0339505    181.86552   0.03516348  0.036280397            1 
  432000    1.1912977   -6.9805787    182.25378  0.035156979  0.036272299            1 
  433000    1.1989588   -7.0308718    182.29965  0.035084613   0.03626351            3 
  434000    1.1836057   -7.0382155    182.29464   0.03500281  0.036254987            2 
  435000    1.1811369    -7.013436    183.05698  0.035068388  0.036245639            3 
  436000    1.1808193   -7.0242746    183.30828  0.035035986  0.036235821            2 
  437000    1.1897071   -7.0332246    183.33277  0.034960482   0.03622607            1 
  438000      1.19609   -7.0329174    183.54975  0.034921947  0.036216206            2 
  439000    1.1939589   -7.0216742    184.56662  0.035035426  0.036205746            3 
  440000    1.1800016    -7.026614     184.4372  0.034931287  0.036194762            2 
  441000    1.1585307   -7.0394505    185.47221  0.035047659  0.036183796            1 
  442000    1.1663573   -7.0437885    185.42978  0.034960365  0.036172731            1 
  443000    1.1541123   -7.0264682     186.1125  0.035009875  0.036161982            4 
  444000      1.17963    -7.081196    185.83157  0.034878298   0.03615121            2 
  445000    1.1912471   -7.0507431    186.52754  0.034930251  0.036140233            1 
  446000    1.1792205   -7.0163995    186.79705   0.03490229  0.036129458            1 
  447000    1.1737436   -7.0426358    187.41727  0.034939835  0.036119206            2 
  448000    1.1842175   -7.0172187      187.905  0.034952568  0.036109376            2 
  449000    1.1955731   -7.0010665    189.12004   0.03510023  0.036100186            2 
  450000    1.1712657   -6.9940588    189.09207  0.035017049   0.03609178            3 
  451000    1.1778793   -7.0580144    189.23014  0.034964918  0.036082346            1 
  452000     1.164943   -7.0243785    189.36004  0.034911511  0.036072347            1 
  453000    1.1541887   -7.0214997    189.95592  0.034944062  0.036062259       -1e+20 
  454000    1.1641828   -6.9998629    190.01541  0.034878012   0.03605247            1 
  455000    1.2026492   -7.0691109    190.28912  0.034851488   0.03604261            1 
  456000    1.1707068   -7.0310783    191.68282  0.035029755   0.03603292            2 
  457000    1.1706449   -7.0589706    191.32777   0.03488836  0.036023643            1 
  458000    1.1946121    -7.029177    191.92542  0.034920929  0.036014616            2 
  459000    1.1787974   -7.0151272    193.18593  0.035073698  0.036006531            5 
  460000    1.1575626   -7.0001158    193.24676  0.035008472  0.035998148            1 
  461000    1.1657143   -7.0554359    192.57772  0.034811591  0.035988941            2 
  462000    1.1561299   -6.9941811    193.23978   0.03485566  0.035979725            2 
  463000    1.1821336    -6.991214    194.20964  0.034954938  0.035970246            1 
  464000    1.1667493   -6.9915312    194.57956  0.034946041  0.035960381            1 
  465000     1.193984   -7.0132223     194.3345  0.034826972  0.035950475            2 
  466000    1.1719712   -7.0179641    194.71134  0.034819624  0.035940757            1 
  467000    1.1725366   -7.0015865    195.48617  0.034883328  0.035931358            1 
  468000    1.1741804   -7.0012147    195.79478  0.034863744  0.035922217            2 
  469000    1.2015955   -7.0709823     195.8223  0.034794296  0.035913684            4 
  470000    1.1725305   -7.0156121     196.8839  0.034908493  0.035904307            1 
  471000     1.184042   -7.0116795    197.34906  0.034916677  0.035894627            1 
  472000    1.1547054   -7.0194914    197.52447   0.03487367  0.035884942            3 
  473000    1.1596032   -7.0561212    197.19967  0.034742719  0.035875541            1 
  474000    1.1588709   -7.0127671    197.85986  0.034785489  0.035865922            1 
  475000    1.1859146    -7.045504    198.36073  0.034800128  0.035856749            3 
  476000    1.1614752   -7.0307772     198.6411  0.034776102  0.035847594            2 
  477000    1.1853575   -7.0765217    198.64884  0.034704549  0.035838173            2 
  478000    1.1832282    -7.048264    198.61127  0.034625396  0.035828017            4 
  479000    1.1613424   -7.0403611    199.65051  0.034733909  0.035818222            3 
  480000    1.1431927   -7.0377173    200.38614  0.034789261  0.035808525            2 
  481000    1.1613655   -7.0302223     201.5177  0.034912976  0.035799058            1 
  482000     1.156018   -7.0589721    200.85314  0.034725646   0.03578989            1 
  483000    1.1717803    -7.020535    201.73899  0.034806588  0.035781188            1 
  484000    1.1760644   -7.0302495    202.09745  0.034796392  0.035772738            1 
  485000    1.1757026   -7.0539367    201.83667   0.03467984  0.035763736            2 
  486000    1.1707809   -7.0111181    202.94356  0.034798278   0.03575522            1 
  487000    1.1587576   -7.0341488    204.18383  0.034939054  0.035747003            2 
  488000    1.1665444   -7.0455978    203.80742  0.034803179  0.035739276            1 
  489000    1.1529665   -7.0372966     204.1877  0.034796813  0.035730543            2 
  490000    1.1392723    -7.107743    203.58909  0.034623995  0.035721299            1 
  491000    1.1824835   -7.0918773    204.78362  0.034756215  0.035712241            1 
  492000    1.1624091   -7.0151359    205.87508  0.034870441  0.035703916            2 
  493000      1.15057   -7.0416415    206.29104  0.034870021  0.035695985            1 
  494000    1.1644559   -7.0535723    206.03195  0.034755727  0.035688328            2 
  495000    1.1982564   -6.9906853    207.32487  0.034903176  0.035680681            1 
  496000    1.1786709   -7.0546959    206.49693  0.034693704  0.035673021            2 
  497000    1.1658528   -7.0351628    207.90881  0.034860632  0.035665115            2 
  498000    1.1647891   -7.0180346    208.54243  0.034896658   0.03565727            2 
  499000    1.1569659   -7.0568204    207.41859  0.034639042  0.035649062            3 
  500000    1.1749449   -7.0758528    208.62636   0.03477106  0.035640941            7 
  501000    1.1856478    -7.072681    209.23315  0.034802586  0.035633046            1 
  502000    1.1407158   -7.0564139      209.808  0.034828685  0.035626337            4 
  503000    1.1619602   -7.0593294    209.92691  0.034779144   0.03561889            1 
  504000    1.1719398   -7.0269235    210.54063  0.034811612  0.035611651            2 
  505000    1.1850371   -7.0142125    211.01224  0.034820502  0.035604914            2 
  506000    1.1594753   -7.0723346    210.33492  0.034640138  0.035596788            1 
  507000    1.1592038   -7.0389286    211.13968  0.034704089  0.035588866            3 
  508000    1.1607504   -7.0469643    211.85221  0.034752659  0.035580955            1 
  509000    1.1947352   -7.0500015    212.35861  0.034767291  0.035573072            1 
  510000    1.1635349   -7.0386371    212.27647  0.034685697   0.03556551            2 
  511000      1.18733   -7.0085907    212.99163  0.034734446  0.035557811            1 
  512000    1.1708363   -7.0588856    213.03141  0.034673081  0.035549928            1 
  513000    1.1994007   -7.0471747     213.8691  0.034741569   0.03554157            1 
  514000    1.1753755    -7.043641    214.02264  0.034698871  0.035534063            2 
  515000     1.171381   -7.0551555    214.84096   0.03476391  0.035526587            1 
  516000    1.1552354   -7.0383762    214.93315  0.034711426  0.035518734            2 
  517000    1.1699488   -7.0342589     215.7908  0.034782528   0.03551114            2 
  518000    1.1662674   -7.0466575    215.32158  0.034639895  0.035503735            4 
  519000    1.1677669   -7.0657769    215.51882  0.034604821  0.035496321            2 
  520000    1.1895989   -7.0253328    216.63573  0.034717265  0.035487956            1 
  521000     1.154382   -7.0095164     217.2115  0.034742722  0.035480221            3 
  522000    1.1507659   -7.0406838    216.58726  0.034576511  0.035472102            1 
  523000    1.1578158   -7.0534339    217.86785  0.034714443  0.035464521            2 
  524000    1.1636215   -7.0048524    218.66112  0.034774351  0.035457774            1 
  525000     1.174184   -7.0633817    219.05492  0.034770622  0.035451055            1 
  526000    1.1337789   -7.0514334    218.38397  0.034598221   0.03544421            2 
  527000    1.1836672   -7.0529467    219.34192  0.034684048  0.035437454            1 
  528000    1.1620882   -7.0283772    220.42834  0.034789826  0.035430302            1 
  529000    1.1650729   -7.0725048    220.10342  0.034672876  0.035423263            2 
  530000     1.170115   -7.0704827    219.67481  0.034540065  0.035415763            3 
  531000     1.186589   -7.0654522    220.57976  0.034617038  0.035408121            1 
  532000     1.168681   -7.0838166    220.52431  0.034543282  0.035400058            2 
  533000    1.1702566   -7.0934388    220.90325  0.034537719   0.03539218            1 
  534000    1.1483716   -7.0491075    221.80304  0.034613458  0.035384008            2 
  535000    1.1747243   -7.0249023    221.85543   0.03455692  0.035376142            1 
  536000    1.1563842   -7.0622324    222.83058  0.034644058  0.035368457            1 
  537000    1.1444436    -7.070724    222.69881  0.034559096  0.035360339            1 
  538000     1.165753   -7.0094997    224.43497  0.034763782  0.035353126            2 
  539000    1.1854139   -7.0662714     223.0876   0.03449097  0.035345789            4 
  540000    1.1838126   -7.0461788    223.97375   0.03456385   0.03533815            1 
  541000    1.1566389   -7.0481184    223.77366   0.03446914  0.035330521            1 
  542000    1.1630827    -7.062291    224.71047   0.03454958  0.035322219            1 
  543000    1.1760678   -7.0799603    224.78697  0.034497693  0.035314605            2 
  544000    1.1712317   -7.0680567    225.69228  0.034572959  0.035307344            1 
  545000    1.1729793     -7.04745    226.54401  0.034639758   0.03530046            1 
  546000    1.1861035   -7.0200852    226.37013  0.034549776  0.035293397            2 
  547000    1.1684413   -7.0583174    226.52465  0.034510155  0.035286584            2 
  548000    1.1742677   -7.0728568     226.5078  0.034444616  0.035279244            2 
  549000    1.1767229     -7.05393    227.24205  0.034493329  0.035271568            1 
  550000    1.1615596   -7.0522957    227.41785   0.03445725  0.035263518            1 
  551000      1.17466   -7.0948104    228.00196  0.034483055  0.035255967            3 
  552000    1.1668917   -7.0441658    228.84289  0.034547538  0.035248485            2 
  553000    1.1846897    -7.098002     228.2787  0.034400045  0.035240893            3 
  554000    1.1662405   -7.0839034    227.75578  0.034259292  0.035232397            6 
  555000    1.1760097   -7.0277451    229.27718  0.034426003  0.035223609            2 
  556000     1.149382   -7.0581609    229.11787  0.034340209  0.035214566            2 
  557000    1.1505533   -7.0566932    229.37464  0.034316971  0.035205921            1 
  558000    1.1738062   -7.0381254    229.60155  0.034289359   0.03519662            2 
  559000    1.1617901   -7.1191894    229.32577  0.034186907  0.035186708            3 
  560000    1.1350291   -7.0233843    230.00297  0.034226633  0.035177154            2 
  561000    1.1535091   -7.0645116    230.34092  0.034215822  0.035167734            1 
  562000    1.1719487   -7.1032919     230.7095  0.034209594  0.035158194            2 
  563000    1.1800829   -7.0133965    232.02793   0.03434398  0.035149606            2 
  564000    1.1599111   -7.0276782    231.29639  0.034174999   0.03514061            2 
  565000    1.1259882   -7.0684629    232.37243   0.03427322  0.035131789            1 
  566000    1.1957263    -7.114118    232.46542  0.034226357  0.035122748            1 
  567000    1.1798816    -7.078631    232.60908  0.034187108  0.035113366            1 
  568000    1.1984348   -7.0328795    234.48428  0.034402036   0.03510476            4 
  569000    1.1755178   -7.0601472    233.90441  0.034256651  0.035095785            1 
  570000    1.1754049   -7.0484664    234.92935  0.034346397   0.03508683            1 
  571000    1.1683575   -7.0640931    234.85669  0.034275641  0.035078106            2 
  572000    1.1469523   -7.0610384    234.48858   0.03416209  0.035069182            1 
  573000    1.1587556   -7.1067034    235.07904  0.034188342  0.035059888            3 
  574000    1.1468632   -7.0627053    236.48656  0.034333125  0.035051152            2 
  575000    1.1817808   -7.0874998     236.1197  0.034220246  0.035043061       -1e+20 
  576000    1.1656364   -7.0117161    237.55543  0.034368552  0.035035742            2 
  577000    1.1942768   -7.0966666    236.67288  0.034181525  0.035028089            2 
  578000    1.1599618   -7.0665574    238.41117  0.034373007  0.035019946            1 
  579000    1.1504353   -7.0336974      238.165   0.03427821  0.035012071            2 
  580000    1.1689575    -7.089524    238.04129  0.034201335  0.035004305            2 
  581000    1.1618253   -7.0573992    238.33213  0.034184184  0.034996273            1 
  582000    1.1726479   -7.0585844    239.14775  0.034242233   0.03498785            1 
  583000    1.1549095   -7.0305804     239.6805  0.034259648  0.034979622            2 
  584000     1.163508   -7.0758066    239.28721  0.034144865  0.034971891            2 
  585000    1.1370311   -7.0807519    240.48234  0.034256743  0.034963971            1 
  586000    1.1127826   -7.0155137    241.58645  0.034355298  0.034956386            3 
  587000    1.1451937   -7.0296071    242.47269  0.034422585  0.034948763            1 
  588000    1.1541665   -7.0828214    241.72874  0.034258608  0.034941279            1 
  589000    1.1659774   -7.0349088     241.9928  0.034237804  0.034934269            1 
  590000    1.1467454    -7.113693    242.51818   0.03425398  0.034926941            3 
  591000    1.1814959   -7.0796189    242.89685  0.034249415  0.034919435            3 
  592000    1.1519718   -7.0801753    243.58303  0.034288151  0.034912101            1 
  593000    1.1349255     -7.06986    243.23668  0.034181659  0.034905226            2 
  594000    1.1513157   -7.0746717    244.76936  0.034339136  0.034898709            2 
  595000    1.1541891    -7.089392    244.65463  0.034265354  0.034891763            2 
  596000    1.1519997   -7.0415743    245.55059  0.034333136  0.034884708            4 
  597000    1.1628208    -7.093108    245.70353  0.034296975  0.034877852            1 
  598000     1.150468   -7.0695256    245.51722  0.034213659  0.034870995            1 
  599000    1.1517921   -7.0693863    246.36851  0.034274974  0.034864034            1 
  600000    1.1721565    -7.107028    245.55343  0.034104643  0.034856355            3 
  601000    1.1624588   -7.0659505    246.60229  0.034193329  0.034848484            1 
  602000     1.186987   -7.1017831    246.62224  0.034139291   0.03484148            1 
  603000    1.1353899   -7.0588438    246.41036  0.034053393  0.034834059            1 
  604000    1.1301845   -7.0990894     247.5775  0.034158044  0.034827126            1 
  605000     1.165864   -7.0831053    248.13342  0.034178156  0.034820162            1 
  606000     1.164193   -7.0805476    248.27006  0.034140547  0.034812769            1 
  607000    1.1647789   -7.0433113    249.51502   0.03425522  0.034805709            1 
  608000    1.1415298   -7.0916702    248.53804  0.034064972  0.034798682            2 
  609000    1.1515837   -7.1033678    249.66535  0.034163294  0.034791277            2 
  610000    1.1695642   -7.0673852    250.43614  0.034212587  0.034783626            1 
  611000    1.1631638    -7.060034    250.67829  0.034189619  0.034776483            2 
  612000    1.1337591   -7.1221615    249.99324  0.034040474  0.034768558            1 
  613000    1.1609647   -7.1106749    250.17076  0.034009075  0.034760721            1 
  614000    1.1540485   -7.1057497    250.54193  0.034004062  0.034752799            3 
  615000    1.1545305   -7.0628267    251.62095   0.03409498  0.034745211            3 
  616000    1.1722174   -7.1131075    251.23063  0.033986828  0.034737437            1 
  617000      1.14566   -7.0664509    252.14052  0.034054635  0.034729731            4 
  618000    1.1401891   -7.0649381     252.9086  0.034103101  0.034721382            2 
  619000    1.1506749   -7.1048712    252.37925  0.033976744  0.034713315            3 
  620000    1.1404858   -7.0754303     253.4536  0.034066344  0.034705166            3 
  621000     1.145686    -7.074244    254.47391  0.034148404  0.034697599            1 
  622000    1.1702852   -7.0689424    254.41392  0.034085467  0.034690127            2 
  623000    1.1405794    -7.068966    254.49119   0.03404109  0.034682805            1 
  624000    1.1530919   -7.1054482    254.92661  0.034044686  0.034675486            2 
  625000    1.1510562     -7.05163    255.69253  0.034092337  0.034667828            5 
  626000    1.1395355   -7.1288156    254.98073  0.033943122  0.034660202            2 
  627000    1.1481326    -7.037183    255.33142  0.033935596  0.034652413            1 
  628000     1.145483    -7.060223    255.95427  0.033964208  0.034645007            1 
  629000    1.1884917   -7.1118329    256.15846  0.033937263  0.034637423            2 
  630000    1.1492788   -7.0701366    256.85748  0.033975857  0.034630035            1 
  631000    1.1559412   -7.1252722    257.35312  0.033987469  0.034622669            4 
  632000      1.12087   -7.0649753    258.58296  0.034095854  0.034615498            1 
  633000    1.1595785   -7.1049487    258.12567  0.033981789   0.03460818            2 
  634000      1.14846   -7.1175082    258.33977  0.033956331  0.034600773            4 
  635000    1.1663829   -7.1290021    258.20738  0.033885482  0.034592973            1 
  636000    1.1628672   -7.0774255    258.73347  0.033901136  0.034585046            1 
  637000    1.1578709   -7.0778068     259.0347  0.033887324  0.034577093            2 
  638000    1.1445078   -7.0850887    260.20161  0.033986626  0.034568971            1 
  639000    1.1447546   -7.1493209    259.12028   0.03379242   0.03456108            4 
  640000    1.1476143   -7.0980853    261.02697  0.033987886  0.034553303            2 
  641000    1.1391463   -7.0779266    260.94007  0.033923566   0.03454597            1 
  642000    1.1457766   -7.0845219    261.68289  0.033967146  0.034538962            1 
  643000     1.153504   -7.0804159    262.41294  0.034008935  0.034532298            2 
  644000    1.1528034   -7.0871838    263.27366  0.034067502  0.034525828            1 
  645000     1.162382   -7.0802919    262.68081   0.03393809   0.03451922            2 
  646000    1.1517843   -7.1023555    263.70553  0.034017741  0.034512609            1 
  647000    1.1395276    -7.068904    264.43927  0.034059669   0.03450585            1 
  648000    1.1463152   -7.0733971    263.76841  0.033920835  0.034499102            1 
  649000    1.1484154   -7.1115184    264.01197  0.033899842  0.034491681            3 
  650000    1.1699273    -7.073484     264.3449  0.033890372  0.034484609            3 
  651000    1.1628958   -7.1132398    265.16585  0.033943401  0.034478226            2 
  652000    1.1501197   -7.1081452    264.59638  0.033818555  0.034471433            1 
  653000    1.1303391   -7.1228715    265.20286  0.033844163    0.0344648            2 
  654000    1.1407268   -7.0822548    266.55481   0.03396468  0.034457905            1 
  655000    1.1216465   -7.0760209    266.43452  0.033897522  0.034450728            2 
  656000    1.1762736   -7.1176903    266.87702  0.033902061  0.034443281            2 
  657000    1.1496703   -7.1113524    266.99919  0.033865956  0.034435905            1 
  658000    1.1691901   -7.0728986    267.97248  0.033937751  0.034429108            2 
  659000    1.1669638   -7.0635051    267.68944  0.033850461  0.034422481            2 
  660000    1.1463244   -7.1010081    268.13808  0.033855819  0.034416345            2 
  661000    1.1579305    -7.116119    268.09875  0.033799641  0.034409469            2 
  662000     1.175735   -7.0975044    268.07831  0.033746011  0.034401949            1 
  663000    1.1664921   -7.1341502    269.10109  0.033823667  0.034394429            3 
  664000    1.1525657   -7.1057731    268.77734  0.033732096  0.034386774            2 
  665000    1.1661655   -7.1246848    268.44939  0.033640274  0.034378873            1 
  666000    1.1505088   -7.0750932    270.26333  0.033816733  0.034371064            1 
  667000     1.144317   -7.1257197    269.89534  0.033720057  0.034363323            4 
  668000    1.1662712   -7.0956221    270.08825  0.033693644  0.034355064            1 
  669000    1.1452194   -7.0700984    270.52575  0.033697776   0.03434739            2 
  670000     1.154573    -7.066084    271.59033  0.033779892  0.034339435            4 
  671000    1.1647486   -7.0989063    271.50516  0.033718971  0.034331598            2 
  672000    1.1652895    -7.092793    271.33192  0.033647312  0.034323366            2 
  673000     1.161024   -7.0765196    272.32271  0.033719999  0.034315133            1 
  674000    1.1418304   -7.1121881    271.78722  0.033603762   0.03430672            2 
  675000    1.1199198   -7.0703835    273.07037  0.033712392  0.034298618            2 
  676000    1.1468783    -7.129585    272.09248  0.033541973  0.034290311            2 
  677000    1.1407207   -7.1174068    272.69538   0.03356664   0.03428203            2 
  678000     1.151099   -7.1087158    272.80262  0.033530312  0.034273498            3 
  679000    1.1532542   -7.1543253    272.66639  0.033464211  0.034264585            3 
  680000    1.1431024   -7.1174701    273.46891  0.033513347  0.034255319            1 
  681000    1.1454178   -7.0974244    274.30218  0.033566102  0.034246617            1 
  682000    1.1244373   -7.0782085    274.64372  0.033558617   0.03423824            2 
  683000    1.1418804   -7.1112949    274.20584  0.033456056  0.034229546            2 
  684000    1.1472728   -7.0512722    275.22168  0.033530906   0.03422027            5 
  685000    1.1376962   -7.1080456    274.49145  0.033393121  0.034211054            3 
  686000    1.1323726    -7.094617     275.3348   0.03344689  0.034201571            1 
  687000    1.1275404   -7.1484981    274.94094   0.03335043  0.034192381            3 
  688000    1.1292721   -7.0892159    275.55543  0.033376384  0.034182815            3 
  689000    1.1376052   -7.1681974    275.48912  0.033319922   0.03417336            2 
  690000    1.1320778    -7.111177    276.23898  0.033362195   0.03416401            2 
  691000    1.1373609   -7.0594106    276.97249  0.033402375  0.034155035            1 
  692000    1.1334836   -7.1092809    277.19141  0.033380468   0.03414616            4 
  693000    1.1420922   -7.1298901    277.12867  0.033324756  0.034136711            4 
  694000    1.1285098   -7.1093298     277.4204  0.033311767  0.034127111            1 
  695000    1.1415867   -7.0758481    278.53038  0.033396928   0.03411784            2 
  696000    1.1126809   -7.1161475    278.61046  0.033358532  0.034108385            1 
  697000    1.1431892   -7.1255693     279.4669  0.033413068  0.034099061            2 
  698000    1.1317892   -7.1041565    279.13635  0.033325735   0.03409002            2 
  699000    1.1366662   -7.0972722    281.30962   0.03353715  0.034080854            2 
  700000    1.1337223   -7.0951949    279.71959  0.033299952  0.034071924            2 
  701000    1.1348997   -7.1111478    280.61913  0.033359383  0.034062535            4 
  702000    1.1219989   -7.1376265    280.32472  0.033276913  0.034053418            1 
  703000    1.1250678   -7.0936695    281.41276  0.033358553  0.034044761            1 
  704000    1.1280561   -7.1087928    281.91949  0.033371152  0.034036448            1 
  705000    1.1320382   -7.0951571    282.56425  0.033400029  0.034027874            2 
  706000    1.1609897   -7.1158315    282.92496  0.033395297  0.034019203            1 
  707000    1.1414843   -7.1432376    282.01234  0.033240493  0.034010248            1 
  708000    1.1127273   -7.1155258    282.67556  0.033271605  0.034001263            2 
  709000    1.1293744   -7.1208588    283.35337  0.033304346  0.033992542            2 
  710000    1.1277883   -7.1468225    283.88534  0.033319875   0.03398373            1 
  711000    1.1543629   -7.1449336    283.78341  0.033261065  0.033975161            1 
  712000    1.1359444   -7.1279844     285.2104  0.033381367  0.033966447            2 
  713000    1.1574324   -7.1329965    285.06558  0.033317622   0.03395783            1 
  714000    1.1425969   -7.0860055     286.6959   0.03346124  0.033949573            1 
  715000    1.1403304   -7.1131032    285.80529   0.03331064  0.033941621            3 
  716000    1.1334315   -7.1377305    284.96025  0.033165765  0.033933044            3 
  717000    1.1343506   -7.0895839    286.81328  0.033334877   0.03392451            1 
  718000    1.1471946   -7.1270671    286.09238   0.03320478  0.033916656            3 
  719000    1.1521885   -7.0995334    287.78238  0.033354472  0.033908484            3 
  720000    1.1419472   -7.1033588    287.83238  0.033313933  0.033900556            2 
  721000    1.1424279   -7.1165691    288.69545  0.033367482  0.033892605            2 
  722000    1.1298227   -7.0973954    288.13475   0.03325655  0.033884655            1 
  723000    1.1454051   -7.1447332    288.55564  0.033259064   0.03387673            3 
  724000    1.1412806   -7.1344848    289.09911  0.033275681  0.033868396            1 
  725000    1.1312351   -7.0940009    289.06066  0.033225363  0.033860113            2 
  726000    1.1464885   -7.1003058    289.46335  0.033225821  0.033851729            2 
  727000    1.1612333   -7.1674845    289.36047  0.033168325  0.033843382            2 
  728000    1.1501797   -7.1014133    290.25827  0.033225535   0.03383499            5 
  729000    1.1369921   -7.1161647    291.18901  0.033286352   0.03382694            2 
  730000    1.1540049   -7.0939729    290.85567  0.033202702  0.033818998            2 
  731000    1.1382117   -7.1269123     291.7524  0.033259508  0.033811062            1 
  732000     1.137758   -7.1428391    291.87454  0.033227976  0.033802643            1 
  733000    1.1357395   -7.1127823    292.04072  0.033201537  0.033794438            1 
  734000    1.1194691   -7.0755507    292.26125  0.033181341  0.033786785            1 
  735000    1.1449101   -7.1226537    293.18391  0.033240806   0.03377911            2 
  736000    1.1506177   -7.1278762    293.36831   0.03321652  0.033770919            2 
  737000    1.1457166    -7.114796    293.69306   0.03320817  0.033762957            2 
  738000    1.1529211   -7.1059394    294.71005   0.03327801   0.03375555            4 
  739000    1.1489441   -7.0915838    295.15503  0.033283157  0.033748314            3 
  740000    1.1100516   -7.1401641    294.77158  0.033194998  0.033740824            2 
  741000     1.144723     -7.09194    296.21766  0.033312827  0.033733599            1 
  742000    1.1536489   -7.1252064    295.82212  0.033223509  0.033726389            3 
  743000    1.1206655   -7.1187983    296.44062  0.033248163   0.03371857            2 
  744000    1.1451497   -7.1555526    296.17729  0.033173979  0.033710915            2 
  745000    1.1498081   -7.1202763    295.64399  0.033069797  0.033702974            1 
  746000    1.1063926   -7.1439292    295.95746  0.033060484  0.033695079            3 
  747000    1.1412697   -7.1110538    297.60415  0.033199927   0.03368678            2 
  748000    1.1233151    -7.136953    298.38838  0.033242912  0.033678992            2 
  749000    1.1364717   -7.0894968    298.85246  0.033250162  0.033671667            2 
  750000    1.1429854   -7.1077501    299.63456  0.033292728  0.033664656            2 
  751000    1.1581364   -7.1511624    298.41896  0.033113511  0.033657461            1 
  752000     1.128679   -7.1120828    300.53551  0.033304023  0.033650416            3 
  753000    1.1392701   -7.1327394    299.73436  0.033171133  0.033643312            1 
  754000    1.1198598   -7.1508669     300.3379  0.033193844  0.033636455            1 
  755000    1.1371016   -7.1572154    299.94887   0.03310694  0.033629563            1 
  756000    1.1151015   -7.1555685    300.93244  0.033171565  0.033622894            2 
  757000    1.1361963   -7.1061951    301.86284  0.033230167  0.033616417            1 
  758000    1.1344491   -7.1470109    301.21077  0.033114641  0.033610016            2 
  759000     1.117921   -7.1435429    301.88229   0.03314474  0.033603324            3 
  760000    1.1220481   -7.1316439    303.02881  0.033226843  0.033596621            1 
  761000    1.1224279   -7.1080017    303.32695  0.033215829  0.033590101            3 
  762000    1.1495913   -7.1259499    304.61018  0.033312574  0.033584357            2 
  763000    1.1432618   -7.1335692    304.01753  0.033204186  0.033578026            4 
  764000    1.1469682   -7.2026137    303.45776  0.033099668  0.033571653            2 
  765000    1.1214175   -7.1472663    304.90181  0.033213704   0.03356508            1 
  766000    1.1333512   -7.1611222    303.95327  0.033067153  0.033558462            1 
  767000    1.1487486   -7.1460384    304.41916  0.033074658  0.033551531            1 
  768000    1.1246264   -7.1613611    305.20791  0.033117177  0.033544869            1 
  769000    1.1395459   -7.1356493    305.60611  0.033117264  0.033538352            1 
  770000    1.1452349   -7.1305537    306.76083  0.033199224  0.033531762            1 
  771000    1.1101338   -7.1651105    306.23138  0.033098938  0.033524846            2 
  772000    1.1118113   -7.1383245    306.26633  0.033059837   0.03351775            1 
  773000    1.1540473   -7.1202522    307.39792   0.03313906   0.03351097            1 
  774000    1.1135792   -7.1108201    308.28439  0.033191687  0.033504529            1 
  775000    1.1231677   -7.1104555    308.78797  0.033203008  0.033498281            3 
  776000    1.1177046   -7.1634025    306.59664  0.032924896  0.033491704            4 
  777000    1.1161954   -7.1302108    309.00615  0.033140943   0.03348483            1 
  778000     1.149378   -7.0976172    309.19438  0.033118507  0.033478471            2 
  779000    1.1114571   -7.1424096    309.51997  0.033110823  0.033472121            1 
  780000    1.1023717   -7.1194122    310.23535  0.033144802  0.033465606            2 
  781000    1.1211491    -7.121711    310.00584  0.033077875  0.033459314            1 
  782000    1.1164223   -7.1450981    311.17807  0.033160494  0.033453122            4 
  783000    1.1019237   -7.1763927      310.898  0.033088335  0.033446788            1 
  784000    1.1462772   -7.1045788    311.80362  0.033142391  0.033440398            3 
  785000    1.1073242   -7.1472761    311.78878  0.033098596    0.0334342            1 
  786000    1.1272156   -7.1458162    312.41433  0.033122809  0.033428025            2 
  787000    1.1257975   -7.0991602    313.62143  0.033208537  0.033421547            1 
  788000    1.1235647   -7.1661898    313.10959  0.033112267  0.033414999            1 
  789000    1.1361127   -7.1361064    312.43982  0.032999558    0.0334085            1 
  790000    1.1255195   -7.1434764     312.7557  0.032991107  0.033402011            1 
  791000    1.1133587    -7.172753     312.2079  0.032891688  0.033395224            1 
  792000    1.1387122   -7.1370417    313.74248  0.033011625   0.03338822            1 
  793000    1.1248158   -7.1821267     313.4732  0.032941699  0.033381622            2 
  794000    1.1126171   -7.1557246    313.89707  0.032944696  0.033374748            2 
  795000    1.1035292   -7.1247637    315.14464   0.03303403  0.033367891            2 
  796000    1.1540405   -7.1469331    315.67012  0.033047542  0.033361334            2 
  797000    1.1272017   -7.1560416    314.95199   0.03293099  0.033354927            1 
  798000    1.1472881   -7.1222557    316.12025  0.033011722  0.033348428            3 
  799000    1.1388982   -7.1733228    316.17535  0.032976153  0.033341842            2 
  800000    1.1282219   -7.1565109    316.35334  0.032953473  0.033334881            2 
  801000    1.1388592   -7.1219359    316.56575  0.032934431  0.033327782            2 
  802000    1.1207397   -7.1804568    316.49684  0.032886206  0.033320862            1 
  803000    1.1331055   -7.1215502     318.1023  0.033011862  0.033314061            5 
  804000    1.1348641   -7.1486846    318.30251  0.032991553  0.033307326            1 
  805000     1.125044   -7.1141032    318.01421  0.032920726  0.033300625            1 
  806000    1.1321173   -7.1447935    318.15129  0.032894054  0.033293796            2 
  807000    1.1350838   -7.1500659    318.18557  0.032856833  0.033287049            1 
  808000    1.1186128   -7.1384311    318.26261  0.032824115  0.033280159            1 
  809000    1.1182733   -7.1521111    319.74362  0.032936096  0.033273283            1 
  810000    1.1321682   -7.1336334    319.56133   0.03287668  0.033266797            2 
  811000    1.1302281   -7.1693354    318.42165  0.032719035  0.033259946            4 
  812000    1.1335359   -7.1120492    320.21352  0.032862635  0.033253021            2 
  813000    1.0984412   -7.1377864    320.80171  0.032882504  0.033246414            1 
  814000    1.1265577   -7.1552354     321.1056  0.032873219  0.033240231            3 
  815000    1.1073603   -7.1531443    322.01595  0.032925966  0.033233653            3 
  816000    1.1209156   -7.1298133    321.88544  0.032872287  0.033227008            3 
  817000     1.135468   -7.1211334    321.49371  0.032792096  0.033220093            1 
  818000    1.1358677   -7.1561196    322.44802  0.032849227  0.033213291            2 
  819000    1.1222394   -7.1657249    321.83905  0.032747156  0.033205799            1 
  820000    1.1111788   -7.1385164    323.13096  0.032838512   0.03319846            4 
  821000    1.1227291   -7.1726224    321.75134   0.03265848  0.033191118            2 
  822000    1.0996372    -7.158339    321.14302  0.032557078  0.033183594            2 
  823000    1.1224582   -7.1517637    323.31241  0.032737182  0.033176183            2 
  824000    1.1295501   -7.1678823    323.25331  0.032691475  0.033168583            3 
  825000    1.0966454   -7.1642634    324.43911  0.032771628  0.033161305            2 
  826000    1.1100136   -7.1670263    323.83708  0.032671214  0.033154035            2 
  827000    1.1328096   -7.1369368    324.93578   0.03274242  0.033147046            2 
  828000    1.1201151   -7.1403767    325.53656  0.032763341  0.033139978            2 
  829000    1.1267619    -7.200665    324.95209  0.032665067  0.033132934            2 
  830000    1.1075767   -7.1709369     325.1433   0.03264491  0.033125632            2 
  831000    1.1358606   -7.1346161    327.37499  0.032829421  0.033118733            3 
  832000    1.1151673   -7.1812842    326.92079   0.03274447  0.033111458            3 
  833000    1.0989473   -7.1353923    327.36362  0.032749462  0.033104232            2 
  834000    1.1207339   -7.1492005    327.33733  0.032707567  0.033097321            2 
  835000    1.1106415   -7.1453018    327.62968  0.032697573  0.033090398            3 
  836000    1.1362047   -7.1410652    328.45173  0.032740404  0.033083417            2 
  837000    1.1162329   -7.1899888    327.89164  0.032645524  0.033076386            1 
  838000    1.1100387   -7.1684656    328.56664  0.032673691  0.033069109            2 
  839000    1.1160862   -7.1588187    329.48838  0.032726299  0.033062151            3 
  840000    1.1026836   -7.1099345     329.7638  0.032714662  0.033055305            2 
  841000     1.120101   -7.1581604    330.73294  0.032771793  0.033048705            2 
  842000    1.1306514   -7.1750729    330.26176   0.03268624  0.033042083            2 
  843000    1.1160968   -7.1749209    331.13111  0.032733404  0.033035396            1 
  844000    1.1350863   -7.1392561    330.68772  0.032650841  0.033028855            3 
  845000    1.1152569   -7.1629943    330.55422  0.032599035  0.033022211            1 
  846000    1.1386535   -7.1742939    330.74687  0.032579479  0.033015228            2 
  847000    1.1117343   -7.1702827    330.92373  0.032558415  0.033008633            2 
  848000    1.1166932   -7.1731548    330.88861  0.032516569  0.033001913            1 
  849000    1.1297116   -7.1439361    333.24684  0.032709741  0.032995142            1 
  850000    1.1041611   -7.1349725    332.58168  0.032606047  0.032988332            2 
  851000    1.1163743   -7.1789876     332.8428  0.032593302  0.032981399            2 
  852000    1.1105511   -7.1548436    334.42425  0.032709727  0.032974985            2 
  853000    1.1176179   -7.1619028    333.55733  0.032586687  0.032968193            1 
  854000    1.1365053   -7.2044096    333.57503  0.032550257  0.032961029            1 
  855000    1.1342455   -7.1246422    334.69889  0.032621725  0.032954002            2 
  856000    1.1045723   -7.1580854    335.07252  0.032619988  0.032947578            2 
  857000     1.115381    -7.154569    335.80473  0.032653124  0.032940932            2 
  858000     1.083662   -7.1913536    335.43424  0.032579083  0.032933952            2 
  859000    1.0922826   -7.1681772    335.77099  0.032573825  0.032927072            4 
  860000    1.1218596   -7.1692654       336.41  0.032597868  0.032920253            2 
  861000    1.0936254   -7.1833175    335.59815  0.032481431  0.032913324            1 
  862000    1.1115869   -7.1787884    337.41367  0.032619264  0.032906413            3 
  863000    1.1399054   -7.1656402    337.52657  0.032592369  0.032899875            1 
  864000    1.0957833   -7.1512273    337.84558  0.032585414   0.03289379            2 
  865000    1.0992766   -7.1644054    337.93791  0.032556639  0.032887647            1 
  866000    1.1014477   -7.1702841    339.07237  0.032628211  0.032881462            1 
  867000    1.1057236   -7.1703505    339.25151  0.032607796  0.032875254            2 
  868000    1.1276672   -7.1442873    339.38873  0.032583404  0.032869141            1 
  869000     1.129845   -7.1750687    339.94952  0.032599685   0.03286273            2 
  870000    1.1079816   -7.2097884    339.88652   0.03255618  0.032856415            2 
  871000    1.1154622   -7.1521325    341.06403  0.032631461  0.032850348            2 
  872000     1.116698   -7.1873851    340.22899  0.032514238  0.032844352            2 
  873000    1.1056288    -7.193391    342.04864  0.032650691  0.032838537            2 
  874000    1.0905547   -7.1817779    341.95762  0.032604654  0.032832657            1 
  875000    1.0999151   -7.1242109    342.93791  0.032660753  0.032826797            2 
  876000    1.1119104   -7.1110005    343.62398  0.032688734   0.03282133            1 
  877000    1.1285144   -7.1738204    342.83504  0.032576495  0.032815611            1 
  878000    1.1422297   -7.1411944    344.20825  0.032669727  0.032809371            2 
  879000    1.1203147   -7.1687061    342.77092  0.032496295  0.032803366            3 
  880000    1.0641428   -7.2000026    343.27824  0.032507409  0.032797068            1 
  881000    1.1312161   -7.1506119    344.23836  0.032561328  0.032790983            1 
  882000    1.1186886    -7.205798    343.60025   0.03246412  0.032784664            2 
  883000    1.0994638   -7.1714744    343.95657  0.032460982  0.032778105            2 
  884000    1.1170022   -7.1556241    345.10672  0.032532685  0.032771975            2 
  885000    1.1210018   -7.1824714    345.17082  0.032501961  0.032765843            5 
  886000    1.0891664   -7.1769015    344.62017  0.032413485   0.03275952            1 
  887000    1.0910602    -7.183866    344.89912  0.032403149  0.032752989            1 
  888000    1.0770324   -7.1920524    345.12386   0.03238775  0.032746359            2 
  889000    1.0668008   -7.1699585    346.88707  0.032516599  0.032739754            1 
  890000    1.0976664   -7.1634868    346.70505  0.032463019  0.032733561            1 
  891000     1.092045   -7.1900953    348.08398  0.032555554  0.032727432            2 
  892000    1.0927103   -7.1746438    348.43623  0.032551964  0.032721526            2 
  893000    1.0922137   -7.1800826    348.44584  0.032516409  0.032715563            2 
  894000    1.1216174   -7.2054306    347.90393  0.032429524  0.032709472            2 
  895000    1.1184557   -7.1329253    348.08194  0.032409864  0.032703607            2 
  896000    1.1211492   -7.1516206     349.6474  0.032519289  0.032697755            2 
  897000    1.1094121   -7.1824741    349.91033  0.032507463  0.032692023            2 
  898000    1.1101264   -7.1898829    350.10469  0.032489299  0.032686124            2 
  899000    1.0992847   -7.1666994    351.90292  0.032619848  0.032680728            2 
  900000    1.1128459   -7.1412779    351.47327  0.032543821  0.032675368            3 
  901000    1.0794917   -7.1917617    351.14641   0.03247747  0.032669983            1 
  902000    1.0822597   -7.1759273    351.85021  0.032506486  0.032664524            1 
  903000    1.0979666   -7.1935809    352.09143  0.032492749  0.032658545            3 
  904000    1.1101902   -7.1612132    352.16734  0.032463804  0.032652982            1 
  905000     1.113376   -7.1693627    351.70045   0.03238494  0.032647305            3 
  906000    1.0895368   -7.1761422    352.51611  0.032424219  0.032641351            2 
  907000    1.1259343   -7.1731618    351.35204  0.032281517  0.032635164            2 
  908000    1.1142571   -7.2033529    352.64919  0.032365013  0.032628776            1 
  909000    1.0894983   -7.1537599    353.06128  0.032367187  0.032622743            1 
  910000    1.1080976   -7.1797632    354.26611  0.032441951  0.032616788            2 
  911000     1.123805   -7.1590912    354.95555  0.032469406  0.032610644            2 
  912000    1.0922802   -7.1729635    353.61618   0.03231142  0.032604609            2 
  913000    1.0915341   -7.1694183    355.45753  0.032444097  0.032598558            1 
  914000    1.1017235   -7.1686994    355.11592  0.032377455  0.032592449            2 
  915000      1.10365   -7.1970176    355.49334  0.032376442  0.032586483            4 
  916000    1.1096121   -7.1841191    355.51529  0.032343094  0.032580223            1 
  917000    1.1034554   -7.1829617    356.10713  0.032361608  0.032574043       -1e+20 
  918000    1.1085612   -7.1994481    355.36158  0.032258677  0.032567665            2 
  919000    1.1170322   -7.1300955    357.30208  0.032399536  0.032561535            1 
  920000    1.1025227    -7.159845    358.23701  0.032449004  0.032555677            4 
  921000      1.13446   -7.1597283    357.76143  0.032370741  0.032549503            1 
  922000    1.0989616   -7.1983124    356.70883  0.032240494  0.032543224            1 
  923000    1.1020122   -7.1654287    357.02681  0.032234273  0.032536995            2 
  924000     1.120799   -7.1924198    357.89589  0.032277768  0.032530831            2 
  925000    1.1047202   -7.2245064    357.87029  0.032240567  0.032524615            2 
  926000    1.0942373   -7.2308781     357.1006  0.032136483  0.032518117            1 
  927000    1.1022212   -7.2027659    358.09472  0.032191183  0.032511746            1 
  928000    1.0780264   -7.1945913    357.97598  0.032145831  0.032505212            1 
  929000    1.0870523    -7.173413    359.11675  0.032213558  0.032498675            1 
  930000    1.0942703   -7.2200384    359.22349  0.032188485  0.032491885            2 
  931000    1.0827641   -7.1601099    359.72233  0.032198562  0.032485243            1 
  932000    1.0831402   -7.1877375    359.93419  0.032182956  0.032478617            2 
  933000    1.0970359   -7.2445477    358.83501  0.032050287  0.032471754            2 
  934000    1.0890344   -7.2442244    359.03221  0.032033567  0.032464705            1 
  935000    1.1033454   -7.2071811    359.67917  0.032056967  0.032457533            2 
  936000    1.1027165    -7.174997    359.87789   0.03204041  0.032450169            3 
  937000    1.0965056   -7.1846279    360.25062  0.032039365  0.032442984            1 
  938000    1.1099855   -7.1853589    360.56984  0.032033568  0.032435868            1 
  939000    1.0763933   -7.2072122    361.05469  0.032042482  0.032428614            3 
  940000    1.0912665   -7.1867082     361.8616  0.032079929  0.032421377            2 
  941000    1.0932115   -7.1655809    361.52641  0.032016154  0.032414325            2 
  942000     1.089679   -7.2035712    361.00227  0.031935798  0.032406911            2 
  943000    1.1067486   -7.1835497     362.7449  0.032055929  0.032399744            1 
  944000    1.1145235   -7.1799367    362.20353  0.031974182  0.032392633            1 
  945000    1.1100611   -7.1238814    363.61473  0.032064791   0.03238535            2 
  946000    1.0996458   -7.1753909    363.09934  0.031985495  0.032377968            2 
  947000    1.0923498   -7.1588155    363.03831  0.031946349  0.032370727            1 
  948000    1.1135413   -7.2072594    361.99494  0.031820934  0.032363384            2 
  949000    1.1131207    -7.178623    364.47269  0.032004978  0.032356087            1 
  950000    1.0903897   -7.1864823    364.03262  0.031932686   0.03234876            1 
  951000    1.0829806    -7.200364    364.38154  0.031929682  0.032341462            2 
  952000    1.1124757   -7.1472309     365.0701  0.031956416  0.032334107            1 
  953000    1.1122325   -7.1972005    364.65646  0.031886714  0.032326847            2 
  954000     1.093923   -7.2100283      364.376  0.031828791  0.032319541            1 
  955000    1.0893649   -7.1943379    365.62551  0.031904495  0.032312028            1 
  956000     1.110494   -7.2352345    364.78902  0.031798206  0.032304561            1 
  957000    1.0874139   -7.1772255    365.95007   0.03186608  0.032297198            1 
  958000    1.1113084   -7.2042769    366.27593  0.031861163  0.032289894            1 
  959000    1.0396085   -7.2023334    367.04474  0.031894747  0.032282869            2 
  960000    1.0998919   -7.2039397    367.52981  0.031903629  0.032275782            2 
  961000    1.0743724   -7.2389843    366.75655  0.031803378  0.032268431            3 
  962000    1.0980005   -7.2012568    367.35519  0.031822175  0.032260957            2 
  963000    1.0970192   -7.2297516    368.11138  0.031854568  0.032253717            1 
  964000    1.1028279   -7.2360844     367.8133  0.031795756   0.03224631            1 
  965000    1.1001713   -7.1993595    368.74752  0.031843482  0.032238988            1 
  966000    1.0817596   -7.1708497    368.70864  0.031807164  0.032231575            1 
  967000    1.0938717   -7.1884071    369.70681  0.031860291  0.032224359            1 
  968000    1.1163614   -7.1848095    369.93683  0.031847179  0.032217126            2 
  969000    1.1081637   -7.2165126    370.48029   0.03186105  0.032209849            3 
  970000    1.0963331   -7.1797609    371.04614  0.031876816  0.032202593            2 
  971000    1.1099753   -7.2248642    370.35248  0.031784456  0.032195524            2 
  972000    1.0983059   -7.1802168    371.87666   0.03188243  0.032188405            1 
  973000     1.103372   -7.2176415    371.41922  0.031810485  0.032181361       -1e+20 
  974000    1.0837915   -7.1798832    372.82885   0.03189843  0.032174501            1 
  975000    1.0838254   -7.2053036     372.6292   0.03184865  0.032167687            3 
  976000    1.0912829     -7.18643    371.69141  0.031735947  0.032160838            1 
  977000    1.0644146   -7.2093364    372.96833  0.031812379  0.032154037            1 
  978000    1.0910549   -7.2128118    374.07386  0.031874051  0.032147181            3 
  979000    1.1084308   -7.2135045    372.94652  0.031745533  0.032140258            2 
  980000    1.0749627   -7.1917039    373.69044  0.031776398   0.03213309            1 
  981000    1.1139714   -7.1843052    373.49369  0.031727293  0.032126142            3 
  982000    1.1150827   -7.2052103    373.74529  0.031716335  0.032119086            2 
  983000    1.0817009   -7.2002819    374.49965   0.03174802  0.032111814            1 
  984000    1.0961522   -7.2013159    374.86764  0.031746921  0.032104638            1 
  985000    1.0958243   -7.2004795    375.79748  0.031793357  0.032097518            2 
  986000    1.0963613   -7.2065953    374.04175  0.031612724  0.032090277            1 
  987000     1.120223   -7.2173063    375.70526  0.031721146   0.03208286            2 
  988000    1.0806438   -7.2043638    376.43787  0.031750832  0.032075693            1 
  989000     1.086731   -7.1837468    376.45207  0.031719925  0.032068943            2 
  990000    1.0786988   -7.2045817    376.57429  0.031698172  0.032061846            1 
  991000    1.0846882   -7.2396705    376.62174  0.031670176  0.032054794            2 
  992000    1.0674283   -7.1902634    376.66783  0.031642123  0.032047678            2 
  993000    1.0849062   -7.2241764    376.03388  0.031557056  0.032040321            1 
  994000    1.1170474   -7.2012518    378.99415  0.031773487  0.032033175            3 
  995000    1.0732159   -7.2181501    377.68695  0.031632073   0.03202615            2 
  996000    1.0928022   -7.2032861    377.03739  0.031545967  0.032019125            2 
  997000    1.0954365   -7.1911435     380.7517  0.031824783   0.03201229            2 
  998000    1.0718663   -7.2064671    379.38926   0.03167913  0.032005402            2 
  999000    1.1078464   -7.2296571    378.99853  0.031614826  0.031998657            3 
 1000000    1.1042378   -7.2180791    380.73466  0.031727889  0.031992071            1 
 1001000    1.0917655   -7.2481221    380.86208    0.0317068  0.031985548            2 
 1002000     1.108192   -7.1780625    381.94548   0.03176526  0.031979105            1 
 1003000    1.0728611   -7.2166365    381.94838   0.03173383  0.031972684            1 
 1004000    1.1016891   -7.2221451    382.24433  0.031726787  0.031965932            2 
 1005000    1.0938178   -7.1999498    381.85954  0.031663312  0.031959125            2 
 1006000    1.1085966   -7.2119032     381.9857  0.031642288  0.031952482            2 
 1007000    1.0936788   -7.2256468    382.20175  0.031628744  0.031945727            2 
 1008000    1.1158523   -7.2187312    383.53079  0.031707242  0.031939081            2 
 1009000    1.0936115   -7.2010091    382.85235  0.031619784  0.031932661            2 
 1010000    1.0721409   -7.2200069    383.84856  0.031670673  0.031926348            2 
 1011000    1.0910061    -7.212262    384.01059  0.031652703  0.031919745            1 
 1012000     1.106622   -7.2398513    384.72334  0.031680117  0.031913224            4 
 1013000    1.0885804   -7.2098481    383.82581  0.031575009  0.031906395            1 
 1014000    1.0778629   -7.2242001    385.76145  0.031702946   0.03189961            2 
 1015000    1.0894067    -7.209814     384.8331  0.031595493  0.031892685            3 
 1016000    1.0844574   -7.2361712    385.58243  0.031625856  0.031886054            1 
 1017000    1.1005944    -7.207298    386.24667  0.031649186  0.031879884            3 
 1018000    1.0560151   -7.2165095     386.6776  0.031653372  0.031873414            1 
 1019000    1.0902071   -7.2446888    386.41989  0.031601234  0.031866645            1 
 1020000    1.0768856   -7.2066276    387.58495  0.031665437  0.031860039            2 
 1021000     1.097254   -7.2126801    387.33925  0.031614369  0.031853524            2 
 1022000    1.0746218   -7.2301454     386.5915  0.031522464     0.031847            4 
 1023000    1.1062286   -7.2082834    388.14897  0.031618521  0.031840316            2 
 1024000     1.079255   -7.2454715    387.54962  0.031538869  0.031833516            1 
 1025000    1.0441781   -7.2337675    387.92598  0.031538697   0.03182688            2 
 1026000    1.0901202   -7.1922888    388.29661  0.031538061  0.031820164            1 
 1027000    1.0725063   -7.2115083    389.29706  0.031588532  0.031813249            1 
 1028000     1.100019   -7.2100757    389.14893  0.031545795  0.031806546            3 
 1029000    1.0639504   -7.2113154    388.87184  0.031492698  0.031799566            1 
 1030000    1.1002537    -7.195034    390.22134  0.031571306  0.031792737            2 
 1031000    1.0864253   -7.2222754    389.96142  0.031519675  0.031785978            2 
 1032000     1.070669   -7.2271482    390.01133  0.031493163  0.031779258            2 
 1033000    1.0712653   -7.2041525    390.30136  0.031486073  0.031772238            1 
 1034000    1.0889926   -7.2519797    390.53689  0.031474604  0.031765291            1 
 1035000    1.0824779   -7.2655436     390.2879  0.031424147  0.031758432            1 
 1036000     1.074024   -7.2140063     392.0307  0.031534001  0.031751618            2 
 1037000    1.1106745   -7.2191636    390.99417  0.031420296  0.031744759            1 
 1038000    1.1020497   -7.2165759    391.72124  0.031448397  0.031737733            2 
 1039000    1.0800389   -7.2121282    391.27709  0.031382506  0.031730697            1 
 1040000    1.1150301   -7.2263736    392.01904  0.031411782  0.031723868            1 
 1041000       1.0996   -7.2206122    392.58158   0.03142664  0.031717042            2 
 1042000    1.0643719   -7.1998273    392.91169   0.03142288  0.031710195            1 
 1043000    1.0744939   -7.2151416    391.79515  0.031303544  0.031703193            1 
 1044000    1.0872553   -7.2575995    392.78094  0.031352246  0.031696087            2 
 1045000    1.0819977   -7.2570267    393.84363  0.031406988  0.031689128            3 
 1046000     1.064115   -7.2285579    393.97743  0.031387622  0.031682296            1 
 1047000    1.1009615   -7.2544688    393.98574  0.031358305   0.03167542            2 
 1048000    1.1029265   -7.2628569    394.75201  0.031389314  0.031668516            1 
 1049000    1.0945304   -7.2087648    395.53294  0.031421429  0.031661705            3 
 1050000    1.0815783   -7.2719185    395.19633  0.031364788  0.031654764            2 
 1051000    1.0882714   -7.2507323    395.47745  0.031357235  0.031647808            2 
 1052000    1.0735461   -7.2238334    396.10945  0.031377491   0.03164068            3 
 1053000    1.0529554   -7.2157576    395.18776  0.031274752  0.031633602            3 
 1054000    1.0586921   -7.2437565    395.31675  0.031255277  0.031626455            1 
 1055000    1.0786359    -7.257902    395.78299  0.031262479   0.03161925            1 
 1056000    1.0815064   -7.2122773      396.879  0.031319365  0.031612182            2 
 1057000    1.0958376   -7.2803378     396.1265  0.031230409  0.031605196            1 
 1058000    1.0757888      -7.2389    397.66509  0.031322077  0.031598314            1 
 1059000    1.0659802    -7.217516     399.4226  0.031430799  0.031591466            2 
 1060000    1.0700677   -7.2397124    398.23211  0.031307556  0.031584697            1 
 1061000    1.1028734   -7.2192202    398.94411  0.031333971  0.031578309            2 
 1062000    1.0933366   -7.2310209    399.90724  0.031380041  0.031571476            2 
 1063000    1.0926212   -7.2118226     398.5094  0.031240938  0.031564781            1 
 1064000    1.0914691   -7.2148231    400.99666   0.03140638  0.031558309            2 
 1065000    1.0980663   -7.2696936    400.00747  0.031299489  0.031551639            2 
 1066000    1.0941039   -7.2439135    401.58566  0.031393501  0.031545053            4 
 1067000    1.0906175   -7.2554628    400.04677   0.03124389  0.031538227            3 
 1068000    1.0725176   -7.2435061     400.3649  0.031239458  0.031531242            1 
 1069000    1.0961301   -7.2535256    400.89453  0.031251522  0.031524147            1 
 1070000    1.0891474   -7.2459745    400.87836  0.031221056  0.031517003            3 
 1071000    1.0659724   -7.2879522    400.22426   0.03114101  0.031509963            3 
 1072000    1.0838472    -7.237143    400.90315  0.031164735    0.0315029            1 
 1073000    1.1174636   -7.2371814    401.44212  0.031177549   0.03149563            2 
 1074000    1.0827199   -7.2109703    401.05337  0.031118356  0.031488387            1 
 1075000    1.0792512   -7.2448558    400.89506  0.031077137   0.03148112            2 
 1076000     1.099266    -7.248081    401.59769  0.031102671  0.031473676            1 
 1077000     1.052017   -7.2620825    401.56952  0.031071612  0.031466264            2 
 1078000    1.0717101    -7.251009    400.86699  0.030988481  0.031458603            2 
 1079000    1.0916582   -7.2613672    401.23279  0.030988013  0.031450869            1 
 1080000    1.0666941   -7.2706719    401.02366  0.030943183  0.031442984            4 
 1081000    1.0713422   -7.2327764    401.71037  0.030967497    0.0314353            2 
 1082000    1.0920439   -7.2475027    402.14167  0.030972094  0.031427681            3 
 1083000    1.0846406   -7.2506773    402.42048  0.030964949  0.031420028            3 
 1084000     1.093334   -7.2070054    403.54354   0.03102272  0.031412245            2 
 1085000    1.0800619   -7.2386544    402.94589  0.030948225  0.031404384            1 
 1086000    1.0702172   -7.2666532    402.92329  0.030917993  0.031396539            2 
 1087000     1.079338   -7.2188784     404.9794  0.031047179   0.03138857            2 
 1088000    1.0760539   -7.2688643    403.28761  0.030889063  0.031380754            1 
 1089000    1.0633007   -7.2394092    405.13462  0.031002037  0.031373027            2 
 1090000    1.1231806    -7.216069    404.88865  0.030954789   0.03136521            2 
 1091000    1.0720245   -7.2393501    405.12373  0.030944373  0.031357541            1 
 1092000    1.0794656   -7.2356151    405.35843  0.030933946  0.031349867            3 
 1093000    1.0588844   -7.2383788    406.76407  0.031012814   0.03134232            2 
 1094000    1.0957262   -7.2157783    406.56816  0.030969543  0.031334517            1 
 1095000    1.0698567   -7.2514039    405.51278  0.030860942   0.03132661            2 
 1096000    1.0829838    -7.257511    404.60041  0.030763414  0.031318648            2 
 1097000    1.0779225   -7.2141402    405.10461  0.030773671  0.031310423            2 
 1098000    1.0847866   -7.2641718    405.95262  0.030810005  0.031302259            2 
 1099000    1.0489818   -7.2392017    406.82344  0.030848001  0.031294077            2 
 1100000     1.058109   -7.2108765     407.1181   0.03084228  0.031285932            1 
 1101000    1.0715346    -7.221566    406.12811  0.030739336  0.031277757            1 
 1102000    1.0898919    -7.252874    407.80133  0.030837971  0.031269536            1 
 1103000    1.0520914   -7.2579799    408.27137  0.030845525  0.031261693            1 
 1104000    1.0858938   -7.2601452    408.13777  0.030807501  0.031253486            1 
 1105000    1.0804936   -7.2457769    408.18064  0.030782854  0.031245663            4 
 1106000    1.0990427   -7.2481238    408.49281  0.030778542  0.031237679            2 
 1107000    1.0628867   -7.2936878    408.53291  0.030753757   0.03122939            3 
 1108000    1.0868341   -7.2763666    408.99839   0.03076101  0.031221412            2 
 1109000     1.079697   -7.2216162    410.80352  0.030868915  0.031213697            2 
 1110000    1.0950741   -7.2439256    410.67722  0.030831623  0.031206064            1 
 1111000    1.0656097   -7.2520363     410.1582  0.030764941  0.031198354            2 
 1112000    1.0659634   -7.2430087    410.84383  0.030788656  0.031190454            1 
 1113000    1.0843141   -7.2556888    410.36393  0.030725062  0.031182534            2 
 1114000    1.0674574   -7.2555872    410.80966  0.030730824  0.031174605            1 
 1115000    1.1119682   -7.2522161    411.33503  0.030742528  0.031166762            2 
 1116000    1.0979792   -7.2212691    411.64127  0.030737849  0.031159024            2 
 1117000    1.1067975    -7.265185    412.45604  0.030771116   0.03115144            5 
 1118000    1.0747846   -7.2687277    411.84279  0.030697882  0.031143762            2 
 1119000    1.0791942   -7.2793234    411.93042  0.030676975   0.03113607            1 
 1120000    1.0684494   -7.2655794    412.45628  0.030688711  0.031127943            3 
 1121000    1.0516661    -7.236079    411.91914  0.030621405  0.031119929            1 
 1122000    1.0617332   -7.2473055    412.38842  0.030628968  0.031111948            2 
 1123000    1.0697734   -7.2468345    412.45747  0.030606817   0.03110415            1 
 1124000    1.0887556   -7.2724727    412.44969   0.03057901  0.031096124            1 
 1125000     1.074814   -7.2911697     412.5995  0.030562926  0.031088133            3 
 1126000    1.0745435   -7.2421614    413.73531  0.030619842  0.031080115            2 
 1127000    1.0639365   -7.2407751    414.12465  0.030621462  0.031072122            1 
 1128000    1.0704674   -7.2567479    414.19988  0.030599873  0.031064043            1 
 1129000    1.1054229   -7.2223021    416.72227  0.030758951  0.031056118            4 
 1130000    1.0724539   -7.2622007    413.77103  0.030514088  0.031048283            3 
 1131000    1.0600975   -7.2665298    414.61318  0.030549158    0.0310403            2 
 1132000    1.0848171   -7.3050487    413.98441  0.030475884  0.031032198            1 
 1133000    1.0667901   -7.2501386    416.26785  0.030616935  0.031024064            1 
 1134000    1.0649637   -7.2804021    415.45252   0.03053002  0.031016152            1 
 1135000    1.0747886   -7.2790046    415.28012  0.030490464  0.031008154            1 
 1136000    1.0753936    -7.250631    415.38982  0.030471671  0.031000096            4 
 1137000    1.0582021   -7.2896517    416.26195  0.030508791   0.03099188            2 
 1138000    1.0556336   -7.2817351    416.30916  0.030485439  0.030983668            4 
 1139000    1.0873338    -7.224459    417.38595  0.030537456  0.030975703            2 
 1140000    1.0902402   -7.2229996    418.09659  0.030562616  0.030967712            2 
 1141000    1.0896271   -7.2986654     416.3838  0.030410736  0.030959648            1 
 1142000    1.0601967   -7.2720857    417.45753  0.030462459    0.0309515            2 
 1143000    1.0593829    -7.282623    416.72072  0.030382088  0.030943244            3 
 1144000    1.1042623   -7.2523653    417.78045  0.030432725  0.030934923            1 
 1145000    1.0845912    -7.244439    418.47733  0.030456865  0.030926753            2 
 1146000    1.0742864   -7.2453738    419.01107    0.0304691  0.030918359            1 
 1147000    1.0893489   -7.2891684    416.90008  0.030289166  0.030909835            1 
 1148000    1.0601648   -7.2620314    417.33153    0.0302941  0.030901216            2 
 1149000    1.0660053   -7.2917493    417.41032   0.03027345  0.030892793            2 
 1150000    1.0719743   -7.2529784    419.30448  0.030384383  0.030884241            1 
 1151000    1.0646395   -7.2731009    418.60091  0.030307046  0.030875661            3 
 1152000    1.0649785   -7.2724204    420.07751  0.030387551  0.030867039            1 
 1153000    1.0457889   -7.2545532    419.71962   0.03033533  0.030858588            2 
 1154000    1.0738273   -7.2808634    421.08143  0.030407382  0.030850104            2 
 1155000    1.0734121   -7.2704664    419.50337  0.030267199  0.030841544            2 
 1156000    1.0799823   -7.2635871    421.58487  0.030391066  0.030833131            1 
 1157000     1.066007   -7.3007136    421.70299  0.030373307  0.030824811            1 
 1158000    1.0687598   -7.2713377     422.3024  0.030390213  0.030816476            3 
 1159000    1.0738514   -7.2427418    422.28706  0.030362889  0.030808089            3 
 1160000    1.0680916   -7.2368534     422.3038  0.030337916  0.030799909            2 
 1161000    1.0790523   -7.2569649    422.92385  0.030356291  0.030791643            2 
 1162000    1.0802085   -7.2979299     422.9351  0.030330974  0.030783627            1 
 1163000    1.0549508   -7.2694878    422.94094  0.030305313  0.030775398            1 
 1164000     1.017888   -7.2474342    423.77346  0.030338879  0.030767159            5 
 1165000    1.0582823   -7.2594717    422.88519  0.030249298  0.030759019            1 
 1166000    1.0612237   -7.2666479    424.02481  0.030304803  0.030750748            4 
 1167000    1.0617659   -7.2592333    424.59543  0.030319582  0.030742505            4 
 1168000    1.0630309   -7.2769907    423.93195  0.030246287  0.030734251            3 
 1169000     1.068329   -7.3299349    422.36915  0.030109007  0.030725764            1 
 1170000    1.0647555   -7.2710589    424.63818  0.030244884  0.030717172            2 
 1171000    1.0533676   -7.2711246    423.11968  0.030110993   0.03070864            1 
 1172000    1.0644327   -7.2454843    424.30655  0.030169692  0.030700088            2 
 1173000    1.0754662   -7.2590523     425.6717  0.030240957  0.030691616            1 
 1174000    1.0513454   -7.2541247    424.78275  0.030152097  0.030683208            1 
 1175000    1.0577261   -7.2282257    426.86375  0.030274025  0.030674879            3 
 1176000    1.0687678   -7.3114935    425.50491  0.030151992  0.030666458            1 
 1177000    1.0569228   -7.3061853    425.86164  0.030151631  0.030658038            1 
 1178000    1.0689614    -7.291185    425.59697  0.030107312  0.030649597            2 
 1179000    1.0501798   -7.2916484    426.77087  0.030164749  0.030641017            2 
 1180000    1.0507593    -7.270811    426.86949   0.03014615  0.030632551            2 
 1181000    1.0645659   -7.2500861    427.15423  0.030140716   0.03062422            6 
 1182000    1.0525589   -7.2481374    426.91253  0.030098176  0.030616091            1 
 1183000    1.0480312   -7.2619582    428.68854   0.03019784  0.030607826            2 
 1184000    1.0261928   -7.2757806    427.75655  0.030106739  0.030599599            2 
 1185000    1.0559465   -7.2739237     427.7762  0.030082715  0.030591406       -1e+20 
 1186000    1.0769374   -7.2633692    429.47243  0.030176534  0.030583312            1 
 1187000    1.0603853   -7.3093197     429.1824   0.03013075  0.030575181            2 
 1188000    1.0568344   -7.2849354    429.05877  0.030096715  0.030566896            2 
 1189000    1.0812762    -7.312912    429.00784  0.030067833    0.0305585            3 
 1190000    1.0697236   -7.2943577    429.54169   0.03007995  0.030550159            1 
 1191000    1.0724357   -7.2851664    429.32567  0.030039579  0.030541937            2 
 1192000    1.0589213   -7.2870715    429.79959   0.03004751  0.030533659            4 
 1193000      1.06775   -7.3115076     431.2299  0.030122234   0.03052548            7 
 1194000    1.0544986   -7.2540524    429.52554  0.029978052  0.030517215            2 
 1195000    1.0808553   -7.2868008    430.09212  0.029992477  0.030508882            2 
 1196000    1.0375283   -7.2815445     430.3369  0.029984455  0.030500655            3 
 1197000    1.0413351    -7.264246    431.50611  0.030040804  0.030492228            2 
 1198000    1.0593004   -7.2733451    430.99304  0.029980039  0.030483848            2 
 1199000    1.0585363   -7.2746633    431.82046  0.030012542  0.030475586            2 
 1200000    1.0744106   -7.2703462    431.59874  0.029972135  0.030467146            2 
 1201000     1.045454   -7.3219938    431.42065  0.029934822  0.030458616            4 
 1202000    1.0807693   -7.2882332    432.00287  0.029950282  0.030449964            2 
 1203000    1.0710127   -7.3077272      431.836  0.029913826  0.030441647            4 
 1204000    1.0590798   -7.3377106    431.09429  0.029837645  0.030433113            2 
 1205000    1.0725189   -7.3567974    431.31825  0.029828372  0.030424711            1 
 1206000    1.0498859   -7.2770026    433.93163   0.02998422  0.030416131            3 
 1207000    1.0432955   -7.2785187     434.0851  0.029969974  0.030407793            2 
 1208000    1.0636035   -7.2730938    434.21485  0.029954115  0.030399648            2 
 1209000    1.0336042   -7.3078476    434.20996  0.029929002  0.030391295            3 
 1210000    1.0543788   -7.2973019       434.69  0.029937328  0.030383144            1 
 1211000    1.0852421   -7.3083924    435.00645  0.029934383  0.030374907            1 
 1212000    1.0573063   -7.2665963    435.05984  0.029913355   0.03036657            1 
 1213000    1.0907002   -7.3199423    434.52401  0.029851883  0.030358159            1 
 1214000    1.0565356   -7.3185657    433.71994  0.029772099  0.030349651            2 
 1215000    1.0558268   -7.2804819    434.26963  0.029785297  0.030341065            2 
 1216000    1.0355483   -7.2800193    435.19683  0.029824344  0.030332595            1 
 1217000    1.0452622   -7.2768184    435.16765   0.02979784  0.030324243            3 
 1218000    1.0512211   -7.2858357    435.67101  0.029807814  0.030315833            2 
 1219000    1.0546964   -7.2868372    436.72009  0.029855079  0.030307435            2 
 1220000     1.053012   -7.2725615    435.76537  0.029765394  0.030299064            2 
 1221000    1.0480518   -7.2622402    437.64651  0.029869404   0.03029085            2 
 1222000    1.0910305   -7.3256814    436.58591  0.029772634  0.030282355            2 
 1223000    1.0697983   -7.3017887    436.41677  0.029736766  0.030273944            2 
 1224000    1.0492608   -7.2775494    436.87859  0.029743913  0.030265596            2 
 1225000    1.0454664   -7.3141151    435.48289  0.029624686  0.030256989            3 
 1226000    1.0686493    -7.285135    437.83272  0.029760245  0.030248427            1 
 1227000    1.0400591   -7.2917513    438.05797  0.029751288  0.030239919            2 
 1228000    1.0878761   -7.2947695    438.55002  0.029760452  0.030231343            2 
 1229000    1.0537911   -7.2514863    438.60846  0.029740199  0.030222897            2 
 1230000    1.0581129   -7.2331191    440.00836  0.029810865  0.030214631            2 
 1231000    1.0761829   -7.2896528    439.69401  0.029765368  0.030206289            2 
 1232000    1.0642622   -7.2899954    439.93811  0.029757719  0.030197923            3 
 1233000    1.0692438   -7.3043294    440.85771  0.029795736  0.030189579            1 
 1234000    1.0631807   -7.3514114    438.52289  0.029613917  0.030181067            2 
 1235000    1.0737467   -7.2794756    441.47116  0.029788877  0.030172678            1 
 1236000    1.0882522   -7.2995191    441.11069  0.029740472  0.030164349            2 
 1237000    1.0320227   -7.2291477    441.81164  0.029763651  0.030155976            1 
 1238000    1.0512594   -7.2812968    441.02661  0.029686767  0.030147574            4 
 1239000    1.0236861   -7.2963211    441.04073  0.029663756  0.030139053            3 
 1240000    1.0636984   -7.3112402    441.08808  0.029643016  0.030130521            2 
 1241000    1.0488996   -7.2831558    441.27603   0.02963175  0.030121908            2 
 1242000    1.0544598   -7.3003483    440.62774  0.029564395  0.030113438            3 
 1243000    1.0572954   -7.2919447    440.90938  0.029559492  0.030104825            4 
 1244000    1.0589345    -7.306861    441.94882   0.02960536  0.030096337            2 
 1245000    1.0322167   -7.2938934    442.73898   0.02963447  0.030087728            2 
 1246000    1.0659828   -7.3278647    442.74194  0.029610884   0.03007906            1 
 1247000    1.0688018    -7.270316    444.76856  0.029722571  0.030070647            1 
 1248000    1.0595103   -7.3057601    442.75387  0.029564227   0.03006225            1 
 1249000    1.0450681   -7.2770222    442.99279  0.029556498  0.030053926            5 
 1250000    1.0499357   -7.2885576    444.02449  0.029601633  0.030045526            1 
 1251000    1.0293221   -7.3274615    443.82279  0.029564534  0.030037158            1 
 1252000    1.0482489   -7.3156014    444.32868  0.029574592  0.030028699            2 
 1253000    1.0765369   -7.3234056    443.97069   0.02952718  0.030020314            3 
 1254000    1.0455163   -7.3073819    445.60685  0.029612364  0.030012061            2 
 1255000    1.0481447    -7.338279    444.77942  0.029533826  0.030003693            1 
 1256000    1.0561482   -7.3409018    444.91762  0.029519481  0.029995248            2 
 1257000    1.0669711   -7.3339701    445.84018  0.029557158  0.029986966            2 
 1258000     1.037398    -7.276292     445.7802   0.02952969  0.029978688            3 
 1259000    1.0658835   -7.3229471    444.75509  0.029438383  0.029970309            2 
 1260000    1.0434762   -7.3639583    444.97125  0.029429315  0.029961869            3 
 1261000    1.0449275   -7.3393376    445.25714   0.02942487  0.029953416            2 
 1262000    1.0448892   -7.3439704    445.93102  0.029446053  0.029945144            1 
 1263000    1.0564078   -7.3335419     448.0175  0.029560405  0.029936945            2 
 1264000    1.0415368   -7.2763006    448.20181   0.02954917  0.029928791            2 
 1265000    1.0480261   -7.2844507    449.17036  0.029589615  0.029920767            1 
 1266000    1.0507384   -7.3162508    447.01251  0.029424204  0.029912793            1 
 1267000    1.0693172    -7.322107    447.72171  0.029447627  0.029904538            1 
 1268000    1.0510618   -7.3064017    448.83481  0.029497556  0.029896274            1 
 1269000    1.0530283   -7.3014349    447.70174  0.029399904    0.0298882            1 
 1270000    1.0381127    -7.306247     449.4583  0.029492015  0.029879871            2 
 1271000    1.0332574    -7.281512    449.26848  0.029456365  0.029871749            3 
 1272000    1.0635271   -7.3132211    447.81224  0.029337804  0.029863654            2 
 1273000    1.0386585   -7.3203601    448.74169  0.029375602  0.029855407            3 
 1274000    1.0321669   -7.3229136    450.15433  0.029444946  0.029847199            1 
 1275000    1.0823406   -7.2979917    449.66304  0.029389741  0.029838921            1 
 1276000    1.0622927    -7.262573    450.67018  0.029432483  0.029830907            1 
 1277000    1.0418178   -7.3339627    449.12182  0.029308393  0.029822822            1 
 1278000    1.0360987   -7.3123032    452.32463  0.029494303   0.02981469            2 
 1279000    1.0482855   -7.3024283    451.63473  0.029426292  0.029806498            1 
 1280000    1.0363449   -7.3652425    450.23793  0.029312365  0.029798198            2 
 1281000    1.0443137    -7.297082    452.63706  0.029445554  0.029789985            1 
 1282000    1.0654373   -7.3141354     452.1505  0.029390958  0.029781845            3 
 1283000    1.0695735   -7.3172947    451.57472  0.029330652  0.029773536            1 
 1284000     1.034797   -7.2761489    452.82591  0.029389013  0.029765465            2 
 1285000    1.0056593   -7.3169358    453.63712   0.02941875  0.029757329            4 
 1286000    1.0392255   -7.3110822    453.29179  0.029373496  0.029749256            2 
 1287000    1.0601267   -7.3249424    453.15939    0.0293421  0.029741319            2 
 1288000    1.0514428   -7.2954416    453.77379   0.02935907   0.02973342            1 
 1289000    1.0439507   -7.3031871    455.43183  0.029443485   0.02972552            1 
 1290000    1.0463605   -7.2960861    454.50025  0.029360481  0.029717673            2 
 1291000    1.0407805   -7.3348023     453.6636  0.029283734  0.029709728            1 
 1292000    1.0671484   -7.3208106    455.06284  0.029351319  0.029701659            1 
 1293000    1.0564502   -7.3470466    453.86574  0.029251465  0.029693519            2 
 1294000    1.0550753   -7.3222891    454.38064   0.02926202  0.029685296            1 
 1295000    1.0647037     -7.32588    456.31108  0.029363647  0.029677095            1 
 1296000    1.0236536   -7.3192335     455.2603  0.029273424  0.029668955            1 
 1297000    1.0459678     -7.31707    455.03478  0.029236365  0.029660851            2 
 1298000    1.0650947   -7.2986029    456.35671   0.02929871   0.02965275            2 
 1299000    1.0364514    -7.353676    454.65066  0.029166709  0.029644633            1 
 1300000    1.0497922   -7.3351818    456.21684  0.029244669  0.029636338            3 
 1301000    1.0311494   -7.2913752    456.97935  0.029271032  0.029628205            2 
 1302000    1.0000968   -7.3223078    457.71927  0.029295908  0.029620067            3 
 1303000    1.0372311   -7.3592319    454.99688  0.029099314  0.029612006            2 
 1304000    1.0551468   -7.3171199    457.06699  0.029209292   0.02960373            2 
 1305000    1.0584206   -7.3593298    456.18044  0.029130297  0.029595457            2 
 1306000    1.0374891    -7.350906    457.10798  0.029167176  0.029587199            3 
 1307000    1.0592575   -7.3405676    457.47828   0.02916847  0.029578779            2 
 1308000    1.0355383   -7.3166063    457.57924  0.029152602  0.029570558            3 
 1309000    1.0410517   -7.3408533    456.90974  0.029087709  0.029562338            1 
 1310000    1.0543995   -7.3176358    457.33563  0.029092597  0.029553789            2 
 1311000    1.0542314   -7.3366721    457.61108  0.029087915  0.029545402            1 
 1312000    1.0417688   -7.3200108    458.08259  0.029095693  0.029537032            1 
 1313000    1.0491833   -7.3530135    458.53823  0.029102452  0.029528692            1 
 1314000    1.0465246   -7.2956915    459.27175  0.029126823  0.029520418            1 
 1315000    1.0614746   -7.3431336    457.80786  0.029011905  0.029512142            3 
 1316000    1.0367523   -7.3585306    459.21278  0.029078824  0.029503728            2 
 1317000    1.0440858   -7.3659821    459.77621  0.029092395  0.029495317            1 
 1318000    1.0415681   -7.3154371    460.33139  0.029105424  0.029486996            5 
 1319000    1.0458532   -7.3166065    460.25259  0.029078379  0.029478609            2 
 1320000    1.0538982   -7.3479615    459.03138  0.028979254  0.029470214            2 
 1321000    1.0208836   -7.3062491     460.3711  0.029041831  0.029461858            3 
 1322000    1.0691289   -7.3170239    461.39474  0.029084389  0.029453476            3 
 1323000    1.0471492   -7.3334564    460.02409   0.02897607  0.029445111            1 
 1324000    1.0463353   -7.3408271    461.18366  0.029027169  0.029436659            1 
 1325000    1.0504275   -7.3392606    460.37535  0.028954424  0.029428138            4 
 1326000    1.0663153   -7.3056319    461.59384  0.029009165  0.029419885            1 
 1327000    1.0281687   -7.3228218    462.30003  0.029031652  0.029411635            2 
 1328000    1.0441813   -7.2953947    462.83076  0.029043095  0.029403466            2 
 1329000    1.0314057   -7.3135822    462.75085  0.029016231  0.029395299            1 
 1330000    1.0205378    -7.304913    462.30898  0.028966728   0.02938682            2 
 1331000    1.0276802   -7.3437961    461.50662  0.028894729  0.029378229            2 
 1332000    1.0376615   -7.3527569    461.34061  0.028862651  0.029369638            2 
 1333000    1.0382081    -7.354795     463.4569    0.0289733  0.029361101            3 
 1334000    1.0331381   -7.3432809    461.02764  0.028799828  0.029352646            7 
 1335000    1.0468974   -7.3430193    463.76058   0.02894885  0.029344044            1 
 1336000    1.0390632   -7.3197345    462.60217  0.028854926  0.029335441            2 
 1337000    1.0116307   -7.3186691    462.86171  0.028849521  0.029326819            4 
 1338000    1.0291333   -7.3430018     463.0539  0.028839929  0.029318267            2 
 1339000      1.02247   -7.3523519     463.7046  0.028858888  0.029309866            1 
 1340000    1.0392863   -7.3017047    464.61899  0.028894216  0.029301488            2 
 1341000    1.0089255   -7.3360185    464.70316  0.028877899  0.029293105            1 
 1342000    1.0325941    -7.351591    463.45033  0.028778585  0.029284531            1 
 1343000    1.0312247   -7.3140503    463.47269  0.028758543  0.029275906            2 
 1344000     1.049733     -7.34293    464.15564  0.028779492   0.02926718            2 
 1345000    1.0266543   -7.3257109     465.3699  0.028833327  0.029258438            1 
 1346000    1.0406049   -7.2969133    464.50881  0.028758594  0.029249736            1 
 1347000    1.0345337   -7.4033428    462.64989   0.02862224     0.029241            3 
 1348000     1.048928   -7.3434253    464.74365  0.028730443  0.029232122            4 
 1349000     1.034981   -7.3449477    465.58542  0.028761145  0.029223451            3 
 1350000    1.0563131   -7.3256503    465.11405  0.028710744  0.029214923            2 
 1351000    1.0587165   -7.3422079      464.982  0.028681347   0.02920628            2 
 1352000    1.0329071    -7.385604    465.40726  0.028686345   0.02919756            5 
 1353000    1.0541032    -7.317952    465.71111  0.028683858  0.029188731            1 
 1354000    1.0366899    -7.350769    465.86241  0.028671985  0.029180008            2 
 1355000    1.0335481   -7.3177162    468.54551  0.028815837   0.02917138            1 
 1356000    1.0492031   -7.3253954    467.45584   0.02872762  0.029162941            2 
 1357000    1.0608665   -7.3976344    466.08162   0.02862206  0.029154256            2 
 1358000    1.0368509   -7.3238619    467.46579  0.028685922  0.029145561            2 
 1359000    1.0242265   -7.3303452    467.19151  0.028647995  0.029136879            3 
 1360000    1.0495965   -7.3190443    467.82156  0.028665537  0.029128334            3 
 1361000    1.0261372   -7.3404922     469.4032  0.028741318  0.029119855            1 
 1362000    1.0234098   -7.3300975     469.9375  0.028752906  0.029111441            2 
 1363000    1.0489041   -7.4033257    468.06564  0.028617366  0.029103035            1 
 1364000    1.0272387   -7.3513948    469.41991  0.028679124   0.02909442            2 
 1365000     1.033154    -7.322033    470.33064  0.028713714  0.029085945            1 
 1366000     0.993831   -7.3293822    469.49448  0.028641684  0.029077474            1 
 1367000     1.036549   -7.3435631    468.34399  0.028550597  0.029068864            1 
 1368000    1.0374033   -7.3611723    469.54032  0.028602602  0.029060275            4 
 1369000     1.012525   -7.2996296    470.06319  0.028613537  0.029051584            2 
 1370000    1.0657396    -7.339393    468.37388  0.028489895  0.029042982            2 
 1371000    1.0303211   -7.3797219    470.37228  0.028590584  0.029034366            1 
 1372000    1.0264176    -7.374106    469.11002  0.028493077  0.029025642            3 
 1373000    1.0374013   -7.3661234    470.48546  0.028555806  0.029016814            1 
 1374000    1.0340185   -7.3375738     471.0655  0.028570203  0.029008144            2 
 1375000    1.0177858   -7.3719181    469.40034  0.028448505  0.028999371            2 
 1376000    1.0338052    -7.338555    470.52514  0.028495951  0.028990407            4 
 1377000    1.0266522    -7.382895    470.02508  0.028444994  0.028981624            2 
 1378000    1.0210031   -7.3666114    471.78463  0.028530759  0.028972935            3 
 1379000    1.0360172   -7.3678873    471.32438  0.028482256  0.028964227            5 
 1380000    1.0267079   -7.3598116    471.12565  0.028449617  0.028955422            1 
 1381000     1.046017   -7.3396537    470.87983  0.028414182  0.028946454            1 
 1382000    1.0168124   -7.3539345    470.89069  0.028394277  0.028937696            2 
 1383000    1.0273123   -7.3123671    471.64127  0.028418973  0.028928872            2 
 1384000    1.0376793   -7.3747521    472.40816  0.028444615  0.028920051            2 
 1385000    1.0181288   -7.3569362    473.12023  0.028466921  0.028911331            2 
 1386000    1.0533554   -7.3756859    471.64028    0.0283574  0.028902378            1 
 1387000     1.023236   -7.3651821    472.88484  0.028411731  0.028893471            1 
 1388000    1.0477964   -7.3996269    472.49783  0.028368025  0.028884625            5 
 1389000    1.0278095   -7.3587421    472.78953  0.028365103  0.028875629            2 
 1390000    1.0419732   -7.3515057    472.90627  0.028351695  0.028866625            1 
 1391000    1.0354942   -7.3406957    472.32296  0.028296367  0.028857644            2 
 1392000     1.033045   -7.3457807    472.38637  0.028279835  0.028848601            1 
 1393000     1.010739   -7.3854316     472.0104  0.028237042   0.02883961            2 
 1394000    1.0329644   -7.3687852    473.34172  0.028296372  0.028830642            1 
 1395000    1.0290148   -7.3473366    472.86069  0.028247353  0.028821548            2 
 1396000    1.0364575   -7.3424698    473.74315  0.028279796  0.028812343            2 
 1397000    1.0278317   -7.3431136    474.07451  0.028279319  0.028803221            1 
 1398000    1.0584324   -7.3713963    472.09998  0.028141391  0.028793979            1 
 1399000    1.0561618   -7.3764841    472.50643  0.028145487  0.028784571            2 
 1400000    1.0252298   -7.3432828      474.056  0.028217619  0.028775222            2 
 1401000    1.0347739   -7.3464489    473.61071  0.028170991  0.028766009            2 
 1402000    1.0278379   -7.3856729    473.74105  0.028158645  0.028756736            1 
 1403000    1.0202888   -7.3443096    473.93519  0.028150107  0.028747579            1 
 1404000     1.035289   -7.3677193    474.65003  0.028172485  0.028738452            1 
 1405000    1.0304202   -7.3272684    474.98063  0.028172042  0.028729329            2 
 1406000    1.0306198   -7.3300003    474.24908  0.028108646  0.028720268            2 
 1407000    1.0459384   -7.3499852    475.44387  0.028159433  0.028711169            1 
 1408000    1.0346072   -7.3923288    475.47351  0.028141188  0.028701954            1 
 1409000    1.0356515   -7.3798111     474.2479  0.028048729  0.028692769            2 
 1410000    1.0299943   -7.4006503    475.09587  0.028078952   0.02868356            2 
 1411000    1.0387531   -7.3799473     474.2563  0.028009467  0.028674256            1 
 1412000    1.0526131   -7.3745568    475.98764  0.028091811  0.028664992            2 
 1413000    1.0205323   -7.3709475    475.66987  0.028053189  0.028655724            2 
 1414000   0.99902156   -7.3659272    476.88141  0.028104751  0.028646536            1 
 1415000    1.0304789   -7.3286087    475.85061  0.028024182  0.028637316            2 
 1416000     1.006901    -7.331619    475.54646  0.027986491  0.028628019            3 
 1417000    1.0559717   -7.4070177    474.87009  0.027926964  0.028618569            2 
 1418000    1.0438472   -7.3860467      477.568   0.02806582  0.028609274            3 
 1419000    1.0186691   -7.3429566    478.04158  0.028073854  0.028600069            6 
 1420000    1.0274794   -7.3510464    477.58418  0.028027241  0.028590813            2 
 1421000    1.0264647   -7.3291234    477.96925  0.028030099  0.028581511            2 
 1422000    1.0424413   -7.3487325    477.88616  0.028005518  0.028572258            1 
 1423000    1.0354625   -7.3393686    477.43663  0.027959512  0.028563071            1 
 1424000    1.0161905    -7.351792    477.74631  0.027958001   0.02855391            1 
 1425000    1.0080468   -7.3880108    477.11694  0.027901576  0.028544554            2 
 1426000    1.0232156   -7.4019035    477.39099  0.027898024  0.028535259            2 
 1427000    1.0254159    -7.344563    479.05267  0.027975512   0.02852597            1 
 1428000     1.013712   -7.3627366    479.38424  0.027975271   0.02851676            1 
 1429000      1.01004   -7.3412895    478.90584  0.027927796   0.02850747            3 
 1430000     1.028881   -7.3860227    479.34137  0.027933646  0.028498252            1 
 1431000    1.0017262   -7.3924281    479.70509  0.027935307  0.028488992            1 
 1432000    1.0113742   -7.3702714    478.80946  0.027863679  0.028479787            2 
 1433000    1.0097352   -7.3588047    481.58024  0.028005364  0.028470779            2 
 1434000    1.0150733   -7.3784409    481.32768  0.027971157   0.02846192            1 
 1435000    1.0256537   -7.3939547    479.39501  0.027839431  0.028453048            2 
 1436000    1.0320464   -7.3933868    481.01248  0.027913909  0.028444066            2 
 1437000    1.0558202   -7.3711721    481.48675  0.027921988  0.028435072            2 
 1438000    1.0320995   -7.3694751    482.14487  0.027940709  0.028426161            3 
 1439000    1.0153279   -7.4025026    481.18585  0.027865755  0.028417126            1 
 1440000     1.022062   -7.3520401    480.94462  0.027832444  0.028408174            2 
 1441000    1.0321035   -7.4011406     480.9816  0.027815267  0.028399266            2 
 1442000   0.98517239   -7.4006015    482.73716  0.027897432  0.028390314            2 
 1443000    1.0278978   -7.3883688    482.14286  0.027843778  0.028381327            1 
 1444000    1.0082511   -7.3941673    482.61565  0.027851781  0.028372347            3 
 1445000    1.0453437   -7.4211188    481.34793  0.027759396  0.028363271            2 
 1446000    1.0478603   -7.4000399    483.00014  0.027835416  0.028354281            4 
 1447000   0.99633884   -7.3748811    484.44535   0.02789941  0.028345479            2 
 1448000    1.0206141   -7.4050837    484.68321  0.027893831  0.028336699            3 
 1449000    1.0289876   -7.3507717    483.90316  0.027829719  0.028327908            4 
 1450000    1.0129318   -7.3965437     484.6818  0.027855276  0.028319108            2 
 1451000    1.0047312   -7.3784297    484.70312  0.027837303  0.028310205            1 
 1452000     1.011335   -7.4097955     483.6597  0.027758247  0.028301263            1 
 1453000    1.0136852   -7.3726403    483.46197  0.027727803   0.02829233            1 
 1454000    1.0281036   -7.4066742    483.79558  0.027727853   0.02828341            2 
 1455000     1.025567   -7.3847018    486.90152  0.027886685  0.028274586            2 
 1456000    1.0184604   -7.4086764    483.90757  0.027696175  0.028265722            2 
 1457000    1.0153375   -7.3737684    485.20642  0.027751454  0.028256957            2 
 1458000    1.0117374   -7.4145077    485.01453  0.027721452  0.028247998            1 
 1459000    1.0387908   -7.3550028    487.14705  0.027824255  0.028239207            2 
 1460000   0.99677595   -7.3804287    484.71823  0.027666565  0.028230335            1 
 1461000   0.99855301   -7.3331354    485.50113  0.027692284  0.028221358            1 
 1462000    1.0053801   -7.3697349    485.63138  0.027680767  0.028212394            1 
 1463000    1.0274272   -7.3509319    487.77598  0.027784005  0.028203517            1 
 1464000    1.0267265   -7.3797687     485.6864  0.027646084   0.02819446            2 
 1465000    1.0254249   -7.3794169    487.85921  0.027750808  0.028185371            1 
 1466000    1.0114575   -7.3610167    488.24299  0.027753694  0.028176485            1 
 1467000    1.0310929   -7.3953986    486.66166  0.027644948  0.028167594            1 
 1468000    1.0036784   -7.3835766    487.07321  0.027649479  0.028158639            2 
 1469000   0.99441584   -7.3548801    488.28569  0.027699438  0.028149643            2 
 1470000    1.0034014   -7.3627277    487.01805  0.027608733  0.028140547            3 
 1471000    1.0309687   -7.3902279    488.50049  0.027673946  0.028131561            3 
 1472000    1.0157501   -7.4145213    487.33389  0.027589102  0.028122434            2 
 1473000    1.0293641   -7.3767904    486.94327  0.027548273   0.02811321            1 
 1474000    1.0100252   -7.3604195    486.87346  0.027525636  0.028103933            3 
 1475000    1.0025886   -7.3561771    488.41052  0.027593815  0.028094943            2 
 1476000    1.0157299   -7.4066777    487.05163  0.027498398  0.028085882            2 
 1477000    1.0172262   -7.4129831    487.32102   0.02749498  0.028076685            1 
 1478000    1.0380366   -7.4073651    487.37923  0.027479659  0.028067531            4 
 1479000    1.0321253   -7.3687474    488.38223  0.027517592  0.028058354            2 
 1480000   0.99154181   -7.4221608    487.97367  0.027475995  0.028049131            3 
 1481000    1.0289606   -7.4008034    488.56101  0.027490491  0.028039873            2 
 1482000    1.0150282   -7.3594694    489.07137  0.027500639  0.028030639            1 
 1483000    1.0204528   -7.3782823    488.93449  0.027474404  0.028021382            1 
 1484000   0.99386926   -7.3810839    488.25157  0.027417541  0.028012026            1 
 1485000    1.0184347    -7.401198    488.86221  0.027433345  0.028002654            5 
 1486000    1.0082615   -7.3767297    488.97389  0.027421147  0.027993378            1 
 1487000    1.0148008   -7.3726278      489.181  0.027414313  0.027984185            2 
 1488000    1.0280646   -7.3891031    489.81511  0.027431402  0.027974925            1 
 1489000    1.0315348   -7.3620177    490.30737  0.027440529  0.027965759            2 
 1490000    1.0088922   -7.3820587    489.18229  0.027359189  0.027956544            2 
 1491000    1.0453211   -7.3912837     489.8788  0.027379767  0.027947224            2 
 1492000   0.98037788   -7.3716635     491.3288  0.027442404  0.027938086            1 
 1493000    1.0036197   -7.3955273    491.01229  0.027406357   0.02792885            4 
 1494000   0.99321596   -7.3818903    490.53378  0.027361322  0.027919587            2 
 1495000    1.0181989   -7.4073324    491.05439   0.02737204  0.027910336            4 
 1496000    1.0411073   -7.3894887    491.11162  0.027356931  0.027901163            2 
 1497000    1.0196804   -7.3744631    491.44109  0.027356997  0.027892112            2 
 1498000    1.0111697   -7.4313262    490.97103  0.027312585  0.027882973            2 
 1499000    1.0209326   -7.3973351    492.76581  0.027394141  0.027873839            3 
 1500000    1.0011774   -7.4304936    492.26305  0.027347947  0.027864768            4 
 1501000    1.0107366    -7.398838    493.03798   0.02737275  0.027855761            1 
 1502000    0.9864041   -7.3873275    493.33265  0.027370875  0.027846774            2 
 1503000     1.020732   -7.4050622    492.76282   0.02732107  0.027837745            2 
 1504000    1.0082952   -7.4050164    493.16937   0.02732543  0.027828755            1 
 1505000   0.99798693   -7.3832366    494.06142  0.027356668  0.027819804            1 
 1506000    0.9956985   -7.4073576    494.44179   0.02735955  0.027810851            1 
 1507000    1.0007701    -7.421607    494.23011   0.02732969  0.027801879            2 
 1508000    1.0151584   -7.3933074    493.82216  0.027289023  0.027792948            3 
 1509000     1.009679   -7.3732095     494.2326  0.027293605   0.02778424            1 
 1510000    1.0117158   -7.4136928    494.02722  0.027264195    0.0277755            1 
 1511000    1.0127092   -7.3913264    494.48614  0.027271461  0.027766667            1 
 1512000    1.0070928   -7.3772006    496.45714  0.027362056   0.02775785            2 
 1513000    1.0081579   -7.4010358    495.22987  0.027276375  0.027749096            1 
 1514000   0.99893015    -7.401223    496.18278  0.027310809  0.027740448            2 
 1515000    1.0139592   -7.4068533    496.12752  0.027289742  0.027731746            2 
 1516000   0.99284572   -7.4251569    496.41726  0.027287668  0.027723102            1 
 1517000    1.0173605   -7.3972579    496.58285  0.027278776  0.027714368            1 
 1518000    1.0117935   -7.3760156    499.66319  0.027429907  0.027705822            2 
 1519000    1.0048113   -7.4473134     495.4029  0.027178127  0.027697141            5 
 1520000    1.0344277   -7.4148243    497.14853   0.02725595  0.027688372            4 
 1521000   0.98706394   -7.3920351    496.72801   0.02721499  0.027679675            2 
 1522000   0.98862454   -7.4153677    496.17037  0.027166577  0.027670962            2 
 1523000    1.0123805   -7.4143173    498.78546  0.027291829  0.027662184            2 
 1524000    1.0102202   -7.4051956     497.2089  0.027187713  0.027653523            1 
 1525000   0.98833675   -7.3873423    498.15864  0.027221784  0.027644914            2 
 1526000    1.0001381   -7.3991333    497.77317  0.027182895  0.027636182            2 
 1527000   0.99011245   -7.4213552    499.03544  0.027233979  0.027627364            2 
 1528000    1.0022291   -7.4110476    498.20837   0.02717105  0.027618733            1 
 1529000   0.98293353    -7.387492    499.37049  0.027216617  0.027610033            2 
 1530000    1.0019784   -7.3513226    499.48495  0.027205063  0.027601409            2 
 1531000    1.0133172   -7.3887613    499.66297  0.027196983  0.027592786            1 
 1532000    1.0074204     -7.40342     497.8765  0.027082055  0.027584111            4 
 1533000   0.99968383   -7.4187065    499.09319  0.027130528   0.02757546            3 
 1534000    1.0052899   -7.4225959    501.30499  0.027232996  0.027566787            2 
 1535000   0.97802691   -7.4311792    499.74962  0.027130815  0.027558096            3 
 1536000    1.0165794   -7.4288656    500.07203  0.027130644  0.027549369            2 
 1537000    1.0214007   -7.3892086    499.71965  0.027093887  0.027540597            2 
 1538000   0.99641797   -7.4185278    501.57666  0.027176889  0.027532005            1 
 1539000    1.0142875   -7.4334382    499.84953   0.02706571  0.027523367            2 
 1540000    1.0128491     -7.43123    500.59059  0.027088235  0.027514734            2 
 1541000    1.0032153   -7.4069549     501.8364  0.027138027  0.027506124            1 
 1542000    0.9885345    -7.386235    501.58725  0.027106963  0.027497468            3 
 1543000   0.97819508     -7.44541    501.06377  0.027061124  0.027488745            1 
 1544000    1.0091291    -7.379083    502.15879  0.027102698  0.027480136            2 
 1545000   0.99369522   -7.4315576    501.96721  0.027074822  0.027471532            2 
 1546000    1.0054544   -7.3926845    503.61474  0.027146116  0.027462926            2 
 1547000    1.0205946   -7.3948872    503.25708  0.027109302   0.02745437            4 
 1548000   0.98438457   -7.4199998    502.95367  0.027075456   0.02744585            1 
 1549000    1.0436085   -7.3818724    505.14259  0.027175737  0.027437419            2 
 1550000    1.0316267     -7.41244    503.83308    0.0270878   0.02742901            6 
 1551000    1.0111107   -7.4179666    504.63039  0.027113173   0.02742061            3 
 1552000    0.9784353   -7.4335624    505.02556  0.027116922   0.02741223            2 
 1553000    1.0015893   -7.4093221    504.48788   0.02707061  0.027403827            2 
 1554000    1.0087094   -7.4440687    505.68154    0.0271172  0.027395521            2 
 1555000   0.99551204   -7.4002545    506.18822  0.027126914  0.027387184            2 
 1556000    1.0105488   -7.4239686    506.01002  0.027099937   0.02737872            1 
 1557000    1.0082878   -7.4481338    504.59812  0.027006964    0.0273701            2 
 1558000    1.0001033   -7.4362722    506.20052  0.027075338  0.027361634            2 
 1559000    1.0000401   -7.4437117    506.71811  0.027085637  0.027353167            1 
 1560000     1.010852   -7.3963558     505.3377  0.026994535  0.027344783            2 
 1561000   0.98433218   -7.3801147    504.75162  0.026945955  0.027336352            1 
 1562000    1.0082308   -7.4556823    505.70123  0.026979366  0.027327834            2 
 1563000    1.0019023   -7.4107105    505.22366  0.026936642  0.027319299            2 
 1564000   0.99783976   -7.4132738    506.78272  0.027002489  0.027310956            1 
 1565000    1.0327793    -7.436971      505.692  0.026927156  0.027302387            1 
 1566000   0.98937152   -7.4133671     506.8603  0.026972132  0.027293888            2 
 1567000    1.0076183   -7.4006182    506.30139  0.026925196  0.027285413            2 
 1568000    1.0017195   -7.4186984     505.4771  0.026864217  0.027276999            1 
 1569000    0.9940789   -7.4264762     507.9117  0.026976402  0.027268583            3 
 1570000    1.0017617   -7.4107509     507.9562  0.026961582  0.027260224            1 
 1571000    1.0072155   -7.4383755    508.72807  0.026985364  0.027251864            1 
 1572000    0.9980809   -7.4039876    508.85383  0.026974864   0.02724356            1 
 1573000    1.0018615   -7.4596967    508.60758  0.026944669  0.027235218            1 
 1574000    1.0129939   -7.4480221    507.63923  0.026876283  0.027226791            2 
 1575000    1.0067505   -7.4547156     508.7374  0.026917322  0.027218457            1 
 1576000   0.99377691   -7.4104774    510.69595  0.027003804  0.027210246            2 
 1577000    1.0034297   -7.4039838     508.1614  0.026852748  0.027201928            4 
 1578000   0.99521188   -7.4103874     509.5009  0.026906469  0.027193594            4 
 1579000   0.99508299   -7.4406826    508.60238  0.026842009  0.027185232            2 
 1580000   0.99347932   -7.4023717    510.07142  0.026902501  0.027177015            4 
 1581000    1.0145677    -7.436302    511.01969  0.026935467  0.027168773            1 
 1582000   0.99331277   -7.4227162     509.6427  0.026845907  0.027160538            2 
 1583000    1.0031145   -7.4437123    509.80024  0.026837241  0.027152202            2 
 1584000   0.98255032   -7.4121148    511.15694  0.026891674   0.02714393            2 
 1585000    1.0140148   -7.3874445    510.92222  0.026862367  0.027135782            2 
 1586000   0.98881185   -7.4076459    510.40642  0.026818328   0.02712753            1 
 1587000     1.004931   -7.4311704    511.31865   0.02684933  0.027119328            1 
 1588000   0.99938898   -7.4680655    510.70872  0.026800416  0.027111179            1 
 1589000   0.98847322   -7.4212758    511.16938  0.026807708  0.027102942            2 
 1590000   0.97732977   -7.4794317    512.72974  0.026872628  0.027094729            3 
 1591000    1.0014968   -7.3993464    512.10126  0.026822819  0.027086538            2 
 1592000    1.0067379   -7.4361989    512.32508  0.026817686  0.027078387            3 
 1593000   0.98159883   -7.4358785    513.12605  0.026842752  0.027070244            1 
 1594000   0.97333184    -7.428487    511.30776  0.026730853  0.027061921            2 
 1595000   0.98758678   -7.4486301    512.71927  0.026787841  0.027053653            4 
 1596000   0.98872274   -7.4383516    512.58463  0.026764026  0.027045381            1 
 1597000    1.0105702   -7.4324654    512.53295  0.026744571  0.027037141            1 
 1598000    1.0268817   -7.4562408    511.29636  0.026663348  0.027028929            2 
 1599000   0.99432655   -7.4228756    513.56027  0.026764659  0.027020587            5 
 1600000   0.98133571   -7.4118672    511.94403  0.026663751  0.027012179            2 
 1601000    1.0077638   -7.4463211    511.98856  0.026649415  0.027003753            7 
 1602000   0.97224222   -7.4436214    511.89063  0.026627686  0.026995254            3 
 1603000    1.0131852   -7.4394292    513.12304  0.026675142   0.02698684            1 
 1604000    1.0401207   -7.4393216    512.89822  0.026646832  0.026978561            2 
 1605000   0.99520216   -7.4595729    513.32487  0.026652382  0.026970209            1 
 1606000    1.0043596   -7.4449059    513.73916  0.026657283    0.0269618            2 
 1607000    1.0039983   -7.4309047    513.63623  0.026635357  0.026953365            4 
 1608000    1.0031622   -7.4234628    513.56178  0.026614934  0.026944926            1 
 1609000    0.9955153   -7.4803432    513.08141  0.026573514  0.026936471            3 
 1610000   0.99030216   -7.4376059    513.58054  0.026582843  0.026927868            2 
 1611000   0.97136007   -7.4357928    512.72947  0.026522319  0.026919381            1 
 1612000   0.98451214   -7.4973764    513.23569  0.026532035  0.026910928            2 
 1613000    1.0081402    -7.427178     514.0585  0.026558096  0.026902396            4 
 1614000    1.0016706   -7.4691568    514.69998  0.026574761  0.026893892            1 
 1615000    0.9854153   -7.4334212    514.52541  0.026549299  0.026885445            2 
 1616000   0.98813185    -7.411922    513.85319  0.026498205  0.026876842            2 
 1617000    1.0006111   -7.4311423     515.1797   0.02655018  0.026868428            5 
 1618000   0.98004194   -7.4183785     514.7877  0.026513582  0.026860052            3 
 1619000   0.97402686   -7.4248899    516.11172  0.026565355  0.026851747            2 
 1620000   0.98500364   -7.4682282      516.664  0.026577366  0.026843286            1 
 1621000   0.97670052   -7.4522705    516.42724  0.026548799  0.026834754            1 
 1622000   0.98343406   -7.4434299     515.0646  0.026462423  0.026826342            2 
 1623000    1.0172693   -7.4493423    515.71397  0.026479461  0.026817873            2 
 1624000    1.0060969   -7.4798119    515.19047  0.026436293  0.026809423            2 
 1625000    1.0079069   -7.4376128     515.1422  0.026417549  0.026800787            1 
 1626000   0.98088884   -7.4654652    518.07956  0.026551843  0.026792294            2 
 1627000    0.9977805   -7.4542768    516.84011   0.02647204  0.026783816            4 
 1628000   0.98276778   -7.4130097    516.28767  0.026427502  0.026775341            4 
 1629000   0.98564665   -7.4243522    517.89403  0.026493454  0.026766809            2 
 1630000   0.98637426   -7.4277361     517.5539  0.026459811  0.026758453            2 
 1631000   0.96357811   -7.4301519    518.01051  0.026466917  0.026750029            2 
 1632000    1.0122976   -7.4265845    516.91531  0.026394777  0.026741546            1 
 1633000    0.9601157     -7.44324    518.17274  0.026442781  0.026733107            1 
 1634000   0.99875473   -7.4263561     517.2307  0.026378554  0.026724704            1 
 1635000   0.97784042   -7.4635164     517.5573  0.026379067  0.026716289            4 
 1636000   0.99697868   -7.4479013    517.84134  0.026377411  0.026707849            2 
 1637000    1.0034333   -7.4428367     519.4431  0.026442837   0.02669957            2 
 1638000   0.96083315   -7.4628925    520.63394  0.026487278  0.026691311            2 
 1639000    1.0128514   -7.4291645    519.92413  0.026435028  0.026683112            1 
 1640000   0.97493605   -7.4599385    518.51609  0.026347363   0.02667494            3 
 1641000   0.98391763   -7.4888032    519.18041  0.026365042  0.026666736            2 
 1642000   0.97826064   -7.4442176    520.93508  0.026438037  0.026658466            3 
 1643000   0.98011823   -7.3999665    523.26774  0.026540258  0.026650507            1 
 1644000   0.98993759   -7.4185964    523.03217  0.026512174  0.026642455            2 
 1645000    0.9676382   -7.4123682    522.31921   0.02645994  0.026634462            1 
 1646000   0.99313706   -7.4260243    520.72796  0.026363303   0.02662647            2 
 1647000   0.97544122   -7.4554452    521.18033  0.026370185  0.026618331            3 
 1648000   0.98409302    -7.462233    520.18958  0.026304085  0.026610093            2 
 1649000   0.99617685   -7.4704692    520.99842  0.026329009  0.026601901            1 
 1650000    1.0152227   -7.4557524    521.37306  0.026331973  0.026593764            3 
 1651000   0.99482267   -7.4148934    522.59059  0.026377478  0.026585709            7 
 1652000   0.98448962   -7.4225423    522.89597  0.026376916  0.026577542            3 
 1653000   0.98644344    -7.493101    521.90097  0.026310797  0.026569437            1 
 1654000   0.98263131   -7.4382998    522.74984  0.026337658  0.026561254            2 
 1655000    1.0084387   -7.4292612    522.31516  0.026299857   0.02655309            2 
 1656000    1.0012206   -7.4286435    523.65102  0.026351199  0.026544939            2 
 1657000   0.98999308   -7.4233763    523.19383  0.026312303  0.026536842            2 
 1658000    1.0157263   -7.4144315    524.92491  0.026383439  0.026528753            1 
 1659000    1.0052624   -7.4269223    522.68547  0.026255047   0.02652077            4 
 1660000    1.0010669   -7.4807891      522.557  0.026232781  0.026512575            2 
 1661000   0.94744797    -7.452688     523.3961  0.026259086   0.02650426            2 
 1662000   0.96090577   -7.4670721    523.67706  0.026257374  0.026496067            1 
 1663000    0.9821441   -7.4496098     524.1363  0.026264597  0.026487865            2 
 1664000    1.0040906    -7.461206    524.19901  0.026251953  0.026479668            1 
 1665000   0.99182141    -7.477148    523.92316   0.02622238  0.026471427            2 
 1666000   0.98023605   -7.4644345    524.17972  0.026219474  0.026463152            3 
 1667000    0.9877914   -7.4779244    523.74597  0.026182062  0.026454824            1 
 1668000    1.0059451   -7.4655302    524.07444  0.026182776  0.026446462            2 
 1669000     1.012657   -7.3805355    524.68147  0.026197397  0.026438223            4 
 1670000   0.99588098    -7.479433     523.9272  0.026144072   0.02643007            2 
 1671000   0.96989258    -7.437434    523.76821  0.026120497  0.026421882            4 
 1672000   0.98024303   -7.4452347     523.8167  0.026107292  0.026413633            2 
 1673000   0.99295609   -7.4177106    525.11514  0.026156363  0.026405461            2 
 1674000   0.96614118     -7.47428    525.58482  0.026164119  0.026397184            2 
 1675000     1.006762   -7.4651914    524.09635  0.026074445  0.026388844            2 
 1676000   0.98188414   -7.4636909    525.13916  0.026110738  0.026380508            3 
 1677000   0.96337006   -7.4425705     526.6058  0.026168048   0.02637225            3 
 1678000   0.96583185   -7.4023045    527.14509  0.026179236  0.026363947            1 
 1679000   0.99210362   -7.4443641    525.51989   0.02608298  0.026355714            3 
 1680000   0.99032752   -7.4803225    524.73784  0.026028663  0.026347354            1 
 1681000   0.98339735   -7.4575925    525.36257  0.026044149  0.026338972            3 
 1682000   0.96921443   -7.4222387    526.69492  0.026094675  0.026330612            2 
 1683000   0.97421846   -7.4193947     526.0062  0.026045068  0.026322185            2 
 1684000   0.98328243   -7.4349286    527.05446  0.026081476  0.026313854            2 
 1685000   0.96996688   -7.4530825    526.04004  0.026015828  0.026305497            1 
 1686000   0.99453848   -7.4483677    525.88358  0.025992664  0.026297163            1 
 1687000   0.95747949   -7.4698168    525.10055  0.025938577   0.02628878            2 
 1688000   0.98819782   -7.4691896    525.40908  0.025938442  0.026280313            2 
 1689000   0.99567412   -7.4928555    526.56295  0.025980015   0.02627181            1 
 1690000   0.97505041    -7.464854      526.412  0.025957199  0.026263297            1 
 1691000   0.97304378   -7.4478551    526.75116  0.025958563  0.026254868            1 
 1692000   0.96270174   -7.4158535    527.12613  0.025961689  0.026246516            2 
 1693000   0.96984314   -7.4428828    527.09232   0.02594469    0.0262381            1 
 1694000   0.98243872   -7.4842857    527.03797  0.025926701   0.02622966            3 
 1695000   0.99888389   -7.4982107    527.18736  0.025918749  0.026221156            2 
 1696000   0.96367383   -7.4333288    527.17305  0.025902764  0.026212712            3 
 1697000   0.97710524   -7.4562616     529.2094  0.025987497  0.026204334            1 
 1698000   0.97775523   -7.4326346     529.0581  0.025964767  0.026196131            2 
 1699000   0.97176115   -7.4635564    528.11194  0.025903077  0.026187847            2 
 1700000   0.97948726   -7.4515072    527.98421  0.025881579  0.026179502            2 
 1701000   0.98305518   -7.4566185    528.58342  0.025895719  0.026171214            2 
 1702000   0.96247278   -7.4926894    528.35429  0.025869286  0.026162842            3 
 1703000   0.95332424   -7.4497502    529.63072  0.025916555  0.026154465            2 
 1704000    1.0156251   -7.4493308    529.69051   0.02590427  0.026146165            2 
 1705000   0.97526171   -7.4523514    528.90376  0.025850624  0.026137907            2 
 1706000    1.0082612    -7.474023    529.90429  0.025884344  0.026129723            2 
 1707000   0.97650737    -7.459915    529.99057  0.025873392  0.026121399            1 
 1708000   0.96492356   -7.4567507    530.31257  0.025873954   0.02611317            3 
 1709000   0.99550278   -7.4899897    530.47006  0.025866494  0.026104947            2 
 1710000   0.97526849   -7.4891785    530.07872  0.025832296  0.026096721            2 
 1711000   0.97403324   -7.4717348    531.11954  0.025867891  0.026088488            2 
 1712000   0.97281604    -7.447437    532.40638   0.02591542  0.026080444            1 
 1713000   0.97894182   -7.5111749    530.68595  0.025816596  0.026072347            2 
 1714000   0.97826138   -7.4945934    530.85323  0.025809667  0.026064108            1 
 1715000   0.99967434   -7.4912377    530.88607  0.025796213   0.02605579            3 
 1716000   0.97542171   -7.4948719    530.75124  0.025774633  0.026047436            2 
 1717000   0.94765903   -7.4414261    532.09204  0.025824696  0.026039195            2 
 1718000   0.96947206   -7.4946378    531.73734  0.025792459  0.026031029            2 
 1719000    0.9976699   -7.5054626    533.02293  0.025839777  0.026022841            1 
 1720000   0.98809313   -7.5093681    531.20252  0.025736556  0.026014677            4 
 1721000   0.99198193   -7.4685758    534.40586  0.025876712  0.026006587            1 
 1722000     1.000434   -7.5027265    533.44533  0.025815202  0.025998577            1 
 1723000   0.96204763   -7.4931914    534.12462  0.025833073  0.025990515            2 
 1724000   0.98682567   -7.4431311    535.65414  0.025892021  0.025982485            1 
 1725000    0.9743473   -7.4945701    533.36156  0.025766259  0.025974422            1 
 1726000   0.97740156   -7.4909691    532.69366  0.025719084  0.025966365            1 
 1727000   0.99488106   -7.4877653    533.35187  0.025735952  0.025958367            2 
 1728000    0.9883646   -7.4842558    532.97778  0.025703018  0.025950294            2 
 1729000   0.98233214   -7.4590407    534.47274  0.025760205  0.025942323            1 
 1730000   0.98240737   -7.5044624    533.79149    0.0257125  0.025934284            1 
 1731000   0.99303523   -7.4985429    533.87032  0.025701441  0.025926277            1 
 1732000   0.99856823   -7.4865687     534.0657  0.025696002  0.025918127            1 
 1733000   0.96239957   -7.5140707    535.52539  0.025751365  0.025910019            1 
 1734000   0.99404362   -7.5230022    534.57314  0.025690751  0.025901982            3 
 1735000   0.99038933   -7.4564748    534.85576  0.025689518  0.025894021            2 
 1736000   0.99639106    -7.478322    535.15356  0.025689015  0.025886022            3 
 1737000   0.96279152   -7.4863019    535.29352   0.02568094  0.025878082            3 
 1738000   0.97560088   -7.4664586    536.34171  0.025716423  0.025870087            3 
 1739000   0.97353968   -7.4697279    536.56255  0.025712217  0.025862072            2 
 1740000    0.9791129   -7.4951686    535.66225  0.025654322  0.025854187            2 
 1741000   0.97176451    -7.446862     538.4747  0.025774205  0.025846334            3 
 1742000   0.97644395   -7.5112116    535.85204  0.025633947  0.025838381            2 
 1743000   0.95592379   -7.4850786    539.36271  0.025787087  0.025830632            3 
 1744000     0.988777   -7.4895914    538.12274  0.025713051  0.025822927            2 
 1745000   0.96968226   -7.5090761    537.25674   0.02565696  0.025815208            1 
 1746000   0.97580388   -7.5049862     538.9676  0.025723921  0.025807459            3 
 1747000   0.95269132   -7.4621418    540.10968  0.025763675   0.02579968            1 
 1748000    1.0031957   -7.4582307    540.82091  0.025782843  0.025792055            2 
 1749000   0.94606216   -7.4949347    539.63752  0.025711717  0.025784384            2 
 1750000   0.98008979   -7.5616097    538.61225  0.025648202  0.025776719            2 
 1751000   0.99041067   -7.4662217    540.33837  0.025715704  0.025769068            3 
 1752000   0.98487273   -7.4700655    540.14339  0.025691752  0.025761432            2 
 1753000   0.97247674   -7.4859635    541.39635  0.025736658  0.025753911            2 
 1754000   0.95454976   -7.4736193    540.11459  0.025661089  0.025746389            3 
 1755000   0.96560841   -7.5115368    539.55471  0.025619882  0.025738719            2 
 1756000    0.9640665   -7.5289115    538.80527  0.025569726  0.025731047            1 
 1757000   0.97395824    -7.501852    540.55449  0.025638137  0.025723491            2 
 1758000   0.95072569   -7.4790811    540.88496  0.025639219  0.025715945            1 
 1759000   0.96891503   -7.5312379    540.23995  0.025594085  0.025708421            2 
 1760000   0.96409531   -7.5367126    540.62508  0.025597778  0.025700818            2 
 1761000   0.96419369   -7.4653533    543.64258  0.025726035    0.0256933            2 
 1762000   0.98066254   -7.4678206    543.27816    0.0256942   0.02568583            2 
 1763000   0.96183088   -7.5281314    542.72061  0.025653271  0.025678287            1 
 1764000   0.95802411    -7.505051     543.0598  0.025654752  0.025670725            1 
 1765000   0.96523563   -7.5549673    541.59495  0.025571055  0.025663182            2 
 1766000   0.98108924   -7.4603661    544.26862   0.02568274  0.025655681            2 
 1767000   0.95941836   -7.4815142    544.58801  0.025683268  0.025648287            1 
 1768000   0.97831865   -7.5033439    544.53283   0.02566614  0.025640814            2 
 1769000   0.95354206   -7.4923413    543.19456  0.025588588  0.025633316            3 
 1770000   0.96282686   -7.5038962    543.48854  0.025587973  0.025625815            2 
 1771000   0.96495203   -7.4873484    544.55972  0.025623928  0.025618246            1 
 1772000   0.96238692   -7.4858655    543.90777  0.025578808  0.025610771            2 
 1773000   0.96275943   -7.5026349    545.36488  0.025632867  0.025603283            3 
 1774000   0.96326855   -7.4806015    544.92417  0.025597715  0.025595874            3 
 1775000   0.96382218   -7.5138318    544.17453    0.0255481  0.025588425            1 
 1776000   0.95312826   -7.5139487    545.42501   0.02559239  0.025580961            3 
 1777000   0.97349293   -7.5024303    546.06344  0.025607927  0.025573525            6 
 1778000    0.9727863   -7.4657659    544.07679  0.025500412  0.025566012            1 
 1779000   0.95714508   -7.5170905    545.41652  0.025548835  0.025558513            2 
 1780000   0.97767813   -7.4933426    544.68306  0.025500143  0.025550994            1 
 1781000   0.95420232   -7.5213768    546.32784  0.025562785  0.025543534            1 
 1782000   0.95107554    -7.524047    544.90871  0.025482076  0.025536024            2 
 1783000   0.96395507    -7.494949    546.67332  0.025550258  0.025528541            1 
 1784000   0.96052292    -7.473426    545.18719  0.025466517   0.02552111            2 
 1785000   0.95173136   -7.4984181    545.91644  0.025486295  0.025513538            1 
 1786000   0.96179987    -7.515248    545.95297  0.025473729  0.025505986            2 
 1787000   0.96874709   -7.4749975    545.26957  0.025427606  0.025498527            2 
 1788000    0.9823964   -7.5088623    547.13929  0.025500526  0.025490987            2 
 1789000   0.97443112   -7.5159607    548.04825  0.025528612   0.02548352            3 
 1790000   0.96431185   -7.4650282    547.51944  0.025489732  0.025476147            1 
 1791000   0.97425705   -7.5189786    547.86177  0.025491428   0.02546876            1 
 1792000   0.97789328    -7.480447    548.55537  0.025509457  0.025461432            2 
 1793000   0.97662462   -7.4879221    547.69668  0.025455321  0.025454113            3 
 1794000   0.98577161   -7.4950472    549.54425  0.025526953  0.025446839            3 
 1795000   0.95599756   -7.5056153    549.61862  0.025516185  0.025439563            2 
 1796000   0.95011379   -7.5370051    548.46443  0.025448424  0.025432237            1 
 1797000   0.96865822   -7.5034298    548.74489  0.025447268   0.02542491            1 
 1798000    0.9578728    -7.471994    550.41685  0.025510607  0.025417669            1 
 1799000   0.97102059   -7.5150238    549.39293  0.025448996  0.025410498            2 
 1800000     0.948579   -7.5046592    549.82773  0.025454987  0.025403284            2 
 1801000   0.95310154   -7.4875241    551.76134  0.025530323  0.025396017            2 
 1802000   0.95976891   -7.4821184    549.85072  0.025427799  0.025388701            3 
 1803000   0.97790363   -7.5149435    549.23379  0.025385182  0.025381376            1 
 1804000    0.9890336   -7.5442873    547.80593  0.025305152  0.025374063            2 
 1805000   0.95956683   -7.5324776    550.72641  0.025425966  0.025366772            2 
 1806000   0.96438503    -7.548345    549.27289  0.025344818  0.025359404            2 
 1807000   0.97377067    -7.546306    550.79633  0.025401048  0.025352044            3 
 1808000    0.9488711   -7.5223063    549.87089  0.025344344  0.025344642            1 
 1809000   0.95059586   -7.5096414    550.97815  0.025381341  0.025337191            2 
 1810000   0.94917742   -7.5431817     549.5067  0.025299572  0.025329855            1 
 1811000    0.9736263   -7.5026493    549.78627  0.025298466  0.025322474            3 
 1812000   0.95704595   -7.5020546    550.94829  0.025337946  0.025315091            2 
 1813000   0.97306942   -7.5340125    550.52505  0.025304516   0.02530766            3 
 1814000   0.94837844    -7.521565     551.1995   0.02532155  0.025300204            2 
 1815000   0.95455684   -7.5295019    551.87573  0.025338647   0.02529288            1 
 1816000   0.96067427   -7.4912125    553.00404   0.02537647  0.025285555            2 
 1817000   0.96367062   -7.4849114    551.95933  0.025314591  0.025278224            2 
 1818000   0.96809002    -7.504805    551.56671  0.025282669  0.025270986            2 
 1819000   0.97904855   -7.4907913    553.51092  0.025357839  0.025263793            2 
 1820000   0.96136407   -7.4798998    552.55357  0.025300072  0.025256627            2 
 1821000   0.93707998   -7.4744874    552.34733  0.025276741  0.025249384            2 
 1822000   0.94853721   -7.5112102    552.03113  0.025248405  0.025242166            1 
 1823000   0.96190269   -7.4893266    552.19241  0.025241928  0.025234892            4 
 1824000   0.96071541   -7.4790052    552.97566  0.025263873  0.025227635            1 
 1825000   0.97034247   -7.5025467    553.79504  0.025287445  0.025220407            3 
 1826000   0.97461682   -7.4816789    554.68789  0.025314343  0.025213154            2 
 1827000   0.95102176    -7.503147    551.87942  0.025172387  0.025205849            1 
 1828000   0.94789422   -7.4968013    554.53389  0.025279627  0.025198548            1 
 1829000   0.96289771    -7.547901    552.30567  0.025164282  0.025191167            2 
 1830000   0.95020454   -7.5539195    551.56858  0.025116966  0.025183681            3 
 1831000   0.91927694   -7.5313816    553.15047  0.025175244  0.025176191            3 
 1832000   0.94079645   -7.5209635    552.85479  0.025148053  0.025168796            2 
 1833000   0.96390377   -7.5137412    554.12332  0.025192004  0.025161453            1 
 1834000   0.94566918   -7.5226923    553.14255  0.025133704  0.025154098            1 
 1835000   0.95720839   -7.5010339    555.22707  0.025214672  0.025146794            2 
 1836000   0.93670189   -7.4837483    555.91282  0.025232063   0.02513949            4 
 1837000   0.95260768   -7.5355485    554.64935  0.025161012  0.025132167            3 
 1838000    0.9610212   -7.5603552    553.83041  0.025110193  0.025124868            2 
 1839000   0.97369711   -7.5450001    555.06595  0.025152526  0.025117514            4 
 1840000   0.93654039   -7.4690718    556.62358  0.025209401   0.02511036            2 
 1841000   0.96735771   -7.5027782    555.97048  0.025166145  0.025103191            2 
 1842000   0.94930538   -7.5169664     555.1835  0.025116879  0.025095966            1 
 1843000   0.94230725   -7.4909287    555.51488  0.025118235  0.025088791            3 
 1844000   0.95896317   -7.5030448    556.31501  0.025140772  0.025081574            1 
 1845000   0.94631529   -7.5036169     556.6155  0.025140718  0.025074396            1 
 1846000    0.9599654   -7.5117468    555.74672   0.02508788  0.025067203            2 
 1847000   0.93880049   -7.5308548    556.35628  0.025101799  0.025059924            1 
 1848000   0.94581178   -7.4900694    558.74317   0.02519585   0.02505271            2 
 1849000   0.97357301   -7.5134386    556.75896  0.025092796  0.025045537            1 
 1850000   0.93493615   -7.5354125    556.19352  0.025053762  0.025038319            2 
 1851000   0.95646298   -7.5293059    557.83353  0.025114061  0.025031081            4 
 1852000   0.95106296   -7.5024985    558.18012  0.025116096  0.025023904            1 
 1853000   0.94636441   -7.5457017    557.81459  0.025086103  0.025016748            1 
 1854000   0.93739227   -7.5548964    557.86554  0.025074863  0.025009548            3 
 1855000   0.95041187   -7.5522414    557.86766   0.02506144  0.025002346            2 
 1856000   0.97843845   -7.5240108    558.77836  0.025088827   0.02499522            2 
 1857000   0.95541962   -7.5253441    557.70925   0.02502734  0.024988033            2 
 1858000   0.96502874   -7.5410004    559.02231  0.025072762   0.02498093            3 
 1859000   0.95952109   -7.5505462    560.36599  0.025119508   0.02497378            1 
 1860000    0.9626347   -7.5910466    558.26872   0.02501204  0.024966538            3 
 1861000   0.93062265   -7.5146911    559.62862  0.025059494  0.024959327            3 
 1862000   0.98280208   -7.5231247    558.21465  0.024982754  0.024952126            3 
 1863000   0.96213743   -7.5318742    559.30319  0.025018035  0.024944987            2 
 1864000   0.97178184   -7.5257344     558.9609  0.024989311  0.024937807            3 
 1865000   0.96640214   -7.4597969    560.56246  0.025047473  0.024930661            2 
 1866000   0.94100056   -7.5454906    559.66579  0.024994006  0.024923584            3 
 1867000   0.95525022   -7.5219366    559.79299  0.024986297   0.02491647            1 
 1868000   0.93722843   -7.5431454     559.6678  0.024967336  0.024909323            2 
 1869000   0.93823966   -7.5642281    559.13861  0.024930382  0.024902147            2 
 1870000   0.95219028   -7.5111462    560.03212  0.024956868  0.024894994            1 
 1871000   0.96059845   -7.5437945    559.60777  0.024924629  0.024887827            2 
 1872000   0.95291378   -7.5555951    559.14536   0.02489073  0.024880624            2 
 1873000   0.93885819   -7.5625958    560.33506  0.024930373  0.024873368            2 
 1874000   0.97392554   -7.5038982    559.61672  0.024885126   0.02486612            2 
 1875000   0.94410188   -7.5659905    559.31652  0.024858512  0.024858796            2 
 1876000   0.96997661   -7.5413548    559.85007  0.024868962  0.024851513            2 
 1877000    0.9513012   -7.5394586    560.46582   0.02488305  0.024844244            2 
 1878000   0.95563541   -7.5478031    559.89874  0.024844637  0.024836956            2 
 1879000   0.97624012   -7.5281681     560.5761  0.024861455  0.024829745            1 
 1880000   0.95296286   -7.5353722    560.82942   0.02485946  0.024822431            2 
 1881000   0.94881617   -7.5340351    561.35661    0.0248696  0.024815227            1 
 1882000   0.95046948   -7.5369119    560.87651  0.024835127   0.02480796            2 
 1883000   0.94737684   -7.5324929    560.67821  0.024813162  0.024800705            2 
 1884000   0.97935148   -7.4950934    560.86296  0.024808164  0.024793471            2 
 1885000   0.95022378   -7.5306621    560.56829  0.024781976  0.024786195            1 
 1886000   0.97048459   -7.5515273    561.88469  0.024827001  0.024778953            2 
 1887000   0.94113842    -7.492234    562.88492  0.024858016  0.024771687            1 
 1888000   0.96884224   -7.5771141    562.21943  0.024815476  0.024764521            1 
 1889000   0.96556538   -7.5153821     563.0271   0.02483797  0.024757265            1 
 1890000   0.97229735   -7.5505467    562.91419   0.02481985  0.024750064            3 
 1891000   0.95331567   -7.4918448    563.53305  0.024833997  0.024742834            1 
 1892000   0.96231759   -7.5287803    562.93821  0.024794671  0.024735643            3 
 1893000   0.95230851   -7.5353649    562.87973  0.024778998  0.024728437            1 
 1894000   0.95466699   -7.5339814    563.27087  0.024783125  0.024721249            3 
 1895000   0.94143507    -7.521939    563.65255  0.024786831  0.024714023            2 
 1896000   0.96022422   -7.5490943    563.05451  0.024747473  0.024706702            2 
 1897000   0.94266571   -7.5648936      562.834  0.024724741   0.02469939            2 
 1898000   0.95776485   -7.5392926    564.19345  0.024771402  0.024692118            1 
 1899000   0.94956078   -7.5473833    563.52627   0.02472908  0.024684854            2 
 1900000   0.96217483   -7.5214187    563.94922  0.024734615  0.024677606            1 
 1901000   0.95087063   -7.5715286    565.08286  0.024771298  0.024670346            1 
 1902000   0.98555268   -7.5742586    562.55691  0.024647604  0.024663093            1 
 1903000   0.98084868   -7.5505624    562.53362  0.024633632  0.024655811            1 
 1904000    0.9237663    -7.517686     566.3302  0.024786861  0.024648601            2 
 1905000   0.92569675   -7.5210799    565.59932  0.024741877  0.024641498            1 
 1906000   0.92606318   -7.5508097    563.48105  0.024636282  0.024634325            3 
 1907000   0.95375094   -7.5632156    564.94212   0.02468721  0.024627113            1 
 1908000   0.96380531   -7.5776177     564.4059  0.024650852  0.024619945            5 
 1909000   0.91469194   -7.5124467    567.35529  0.024766688  0.024612877            2 
 1910000   0.93528759   -7.5134456    566.19256  0.024702991  0.024605822            4 
 1911000   0.94259062   -7.5439292    566.09692  0.024685894  0.024598731            2 
 1912000   0.93400389   -7.5409119    566.66713  0.024697835   0.02459171            2 
 1913000    0.9381564    -7.571294    566.22274  0.024665566  0.024584612            1 
 1914000   0.93936988   -7.5696285     566.6819  0.024672671  0.024577521            1 
 1915000   0.94741253   -7.5278345    567.72979  0.024705387  0.024570502            2 
 1916000   0.94892404   -7.5338418    568.45698  0.024724121  0.024563506            2 
 1917000   0.96155999   -7.5519427     567.5338  0.024671092  0.024556419            3 
 1918000   0.96140304   -7.5545966    567.00206  0.024635126  0.024549335            3 
 1919000    0.9435895   -7.5880235     566.6195  0.024605676  0.024542247            3 
 1920000   0.93839435   -7.5969263    566.90036   0.02460505  0.024535093            2 
 1921000   0.96200837   -7.5391367    567.73077  0.024628265  0.024527993            2 
 1922000   0.93222516   -7.5626983    567.62638  0.024610925  0.024520922            2 
 1923000   0.96091839   -7.5651444     569.5678  0.024682259  0.024513848            2 
 1924000   0.95004653   -7.5135991     567.4622  0.024578231  0.024506769            1 
 1925000   0.95051012   -7.5732062    567.85475  0.024582457  0.024499652            3 
 1926000   0.95985332   -7.5794872    567.57849   0.02455774  0.024492526            1 
 1927000   0.94489342   -7.5306296    570.37767  0.024666047  0.024485409            4 
 1928000   0.95241519   -7.5354647    569.80021  0.024628294  0.024478379            2 
 1929000   0.94505408   -7.5507903     568.7863  0.024571725  0.024471445            3 
 1930000   0.97473217   -7.5487979    567.82026  0.024517282  0.024464375            2 
 1931000   0.92793296   -7.5543453    569.58947  0.024580937  0.024457328            1 
 1932000   0.95496055    -7.582631    568.30562  0.024512837  0.024450285            2 
 1933000   0.93207009   -7.5638256    570.17665  0.024580818  0.024443157            3 
 1934000   0.93830165    -7.545207    570.38154  0.024576936  0.024436163            3 
 1935000   0.94946556   -7.5584143    570.46245  0.024567719  0.024429218            2 
 1936000   0.94150483   -7.5512913    570.72724  0.024566427  0.024422257            1 
 1937000   0.95291489   -7.5413618    572.07077  0.024611546  0.024415351            2 
 1938000   0.93695209   -7.5606354    571.47713   0.02457332  0.024408379            3 
 1939000   0.94770696   -7.5270608    571.43681  0.024558914  0.024401418            2 
 1940000   0.94050125   -7.5470347    570.60781  0.024510645  0.024394472            3 
 1941000   0.94277097   -7.5634534    569.57564  0.024453702  0.024387478            2 
 1942000    0.9391079   -7.5503007    570.37528  0.024475424  0.024380503            1 
 1943000   0.93569342   -7.5747882     570.9536  0.024487631  0.024373456            2 
 1944000   0.94891638   -7.6112227     569.4676  0.024411334  0.024366452            4 
 1945000   0.93248543   -7.5720183     570.9711  0.024463201  0.024359476            3 
 1946000   0.94559727   -7.5754842    570.46229  0.024428841  0.024352484            4 
 1947000   0.95526059   -7.5783577    570.93377  0.024436474  0.024345524            3 
 1948000   0.92405575   -7.5824662    570.96552  0.024425288  0.024338543            4 
 1949000    0.9284268   -7.5496128    573.07062  0.024502763  0.024331515            1 
 1950000   0.95698069   -7.5574189    572.15932  0.024451253  0.024324575            3 
 1951000   0.91883731   -7.5868133    572.06823   0.02443483  0.024317537            2 
 1952000   0.93423705   -7.5716009     571.8743  0.024414033  0.024310502            1 
 1953000     0.947729    -7.570586    573.20466  0.024458297  0.024303477            7 
 1954000   0.92358582   -7.5410895    572.03244  0.024395788  0.024296422            1 
 1955000    0.9580097   -7.5869389    573.93917  0.024464585  0.024289428            1 
 1956000   0.94025577   -7.5769664    572.12257  0.024374683   0.02428243            3 
 1957000    0.9274822   -7.5821333    571.71129  0.024344715  0.024275392            3 
 1958000    0.9451515   -7.5731664    573.35614  0.024402287   0.02426837            3 
 1959000   0.94454452   -7.5900104    573.34723  0.024389452  0.024261326            2 
 1960000    0.9147257   -7.5520696    573.76507  0.024394774  0.024254251            7 
 1961000   0.92781834   -7.5427179    574.62399  0.024418834  0.024247199            2 
 1962000   0.95114374   -7.5394455    574.02171  0.024380807  0.024240205            2 
 1963000   0.91248478   -7.5606013    573.87742  0.024362261  0.024233209            5 
 1964000   0.93192947   -7.5506476    572.48292  0.024290687  0.024226209            3 
 1965000   0.93046176   -7.5642615    573.79374  0.024333916  0.024219211            2 
 1966000   0.93275577   -7.5694838    574.67708  0.024358981  0.024212211            2 
 1967000    0.9431497   -7.5756419    574.68901  0.024347103  0.024205212            1 
 1968000   0.92907623    -7.595352     573.7524  0.024295071  0.024198156            2 
 1969000   0.91367748   -7.5679903    576.17638  0.024385322  0.024191084            1 
 1970000   0.95082938   -7.6128175    572.63722  0.024223232  0.024184028            2 
 1971000   0.95141752   -7.6121654    572.93512  0.024223538  0.024176943            3 
 1972000   0.95181678   -7.5787096    573.00811  0.024214338  0.024169766            3 
 1973000   0.95299579   -7.5624533    575.59689  0.024311408  0.024162704            3 
 1974000   0.96272717   -7.5630545    575.03685   0.02427545   0.02415567            4 
 1975000   0.95224726     -7.58556    574.41276  0.024236825  0.024148656            1 
 1976000   0.93042389   -7.5631845    576.07432  0.024294632  0.024141703            2 
 1977000   0.94010025    -7.585501    576.34306  0.024293671  0.024134721            3 
 1978000   0.91998268   -7.5572005    575.35092  0.024239591   0.02412783            3 
 1979000   0.94405965   -7.5591264    577.17572  0.024304182  0.024120922            2 
 1980000   0.96952404   -7.5557952    576.18407  0.024250171  0.024114045            1 
 1981000   0.93841886   -7.5507062    576.76306  0.024262286  0.024107135            3 
 1982000    0.9151634    -7.564159    577.00363  0.024260159  0.024100223            1 
 1983000   0.92750394   -7.5853967    576.68653    0.0242346   0.02409323            2 
 1984000   0.93694395    -7.585577    575.95998  0.024191868   0.02408619            2 
 1985000   0.92343499    -7.558918    577.10518  0.024227757  0.024079239            3 
 1986000   0.94767577   -7.6268178    575.01898   0.02412802  0.024072203            3 
 1987000   0.93064368   -7.5930233    576.36845  0.024172473  0.024065103            2 
 1988000   0.93218141   -7.5815515    577.17152  0.024193977  0.024058011            3 
 1989000   0.92880777   -7.5990577    576.20734  0.024141417  0.024050959            2 
 1990000   0.93525465   -7.6203598    573.98244  0.024036116  0.024043922            2 
 1991000   0.92783638    -7.581393    578.30433  0.024204936  0.024036865            2 
 1992000   0.94115424   -7.5996446    578.46965  0.024199701  0.024029843            6 
 1993000   0.94446378   -7.5566601    577.53606  0.024148522  0.024022905            2 
 1994000   0.92989049   -7.5661834    579.37485  0.024213258  0.024016034            2 
 1995000   0.93086939   -7.5533593    579.70817  0.024215045  0.024009147            4 
 1996000   0.94289329   -7.5700463    578.58061  0.024155837  0.024002239            2 
 1997000   0.93681573   -7.5673628    577.97515  0.024118475  0.023995242            2 
 1998000   0.94651836   -7.6104084    578.53555  0.024129778  0.023988287            2 
 1999000   0.92487261   -7.5791251    578.56003  0.024118727   0.02398135            5 
 2000000   0.95132904   -7.5838626    579.39042  0.024141268   0.02397445            1 
 2001000    0.9323423   -7.5731409     580.4682  0.024174088  0.023967589            4 
 2002000   0.93662542   -7.5946675    579.04442  0.024102748  0.023960703            4 
 2003000   0.93309426   -7.5914336    580.74963  0.024161659  0.023953876            1 
 2004000   0.91976039   -7.5887669    580.06701  0.024121216  0.023947067            5 
 2005000   0.92158446   -7.5980903    580.08472  0.024109922  0.023940287            2 
 2006000   0.92882834   -7.5673354    580.71262  0.024123987  0.023933507            2 
 2007000   0.89055457   -7.5823121     579.8294  0.024075295  0.023926668            2 
 2008000   0.93667406   -7.5726362     581.7546  0.024143202  0.023919814            2 
 2009000   0.94016372   -7.5743128    580.26012  0.024069193  0.023912953            1 
 2010000   0.93965337   -7.6055769    580.09479  0.024050364  0.023906112            2 
 2011000   0.93417459    -7.592868    580.96547  0.024074485  0.023899217            2 
 2012000   0.93113303   -7.5507408    580.94427  0.024061642  0.023892339            1 
 2013000   0.92650188   -7.5839652    581.50885  0.024073061  0.023885456            2 
 2014000    0.9191327   -7.5904902    578.98741  0.023956778   0.02387849            2 
 2015000    0.9440613   -7.5872321    582.65331  0.024096498  0.023871612            3 
 2016000   0.92750566   -7.5785877    581.60185  0.024041082  0.023864784            1 
 2017000   0.90905198   -7.5755641    581.19833  0.024012491  0.023857872            6 
 2018000   0.92740807   -7.5864802    580.67152  0.023978837  0.023850917            2 
 2019000   0.91472742   -7.5734784    581.89667  0.024017528  0.023844001            1 
 2020000   0.93184299    -7.572126    581.83784  0.024003211  0.023837144            3 
 2021000   0.93569507   -7.5913668     582.3616  0.024012931  0.023830257            2 
 2022000   0.93124527   -7.5936566    582.85344  0.024021326  0.023823395            1 
 2023000   0.91816671   -7.5910981    581.01636  0.023933777  0.023816538            4 
 2024000   0.90644115   -7.6070716    580.78456  0.023912408  0.023809537            2 
 2025000   0.92252141   -7.6205533    580.66628  0.023895732  0.023802578            1 
 2026000   0.92490753   -7.5961981    582.01185  0.023939283  0.023795631            3 
 2027000   0.92135201   -7.5649932    583.52678  0.023989754  0.023788761            2 
 2028000   0.93679439   -7.5633452    581.59955  0.023898732  0.023781891            3 
 2029000    0.9299302   -7.5705382    584.65158  0.024012304  0.023775058            2 
 2030000   0.92976547   -7.5859606    582.85446  0.023926702  0.023768334            2 
 2031000   0.92357617   -7.5623225    585.59364  0.024027312  0.023761534            3 
 2032000   0.92331193    -7.601999    584.11435  0.023954821  0.023754757            1 
 2033000   0.93338548   -7.6288143    583.21115  0.023906015  0.023747961            2 
 2034000   0.92367369   -7.6064378    582.61267  0.023869742  0.023741087            2 
 2035000   0.91866098   -7.6061715    583.78925  0.023906194  0.023734257            5 
 2036000   0.92638224   -7.6252021    583.05645  0.023864459  0.023727394            5 
 2037000   0.93747841   -7.6064292    583.73452  0.023880483  0.023720615            1 
 2038000   0.92266474   -7.6030902    584.16607  0.023886411  0.023713828            2 
 2039000   0.92543721   -7.5727733    585.62637  0.023934378  0.023706981            4 
 2040000    0.9243185   -7.6038268    586.38628  0.023953688  0.023700151            2 
 2041000   0.93588734   -7.5896877    583.99477  0.023844307   0.02369331            1 
 2042000   0.91492352   -7.5880474    583.94167  0.023830463  0.023686417            3 
 2043000   0.94233609   -7.6141348    584.16725     0.023828  0.023679501            1 
 2044000   0.93245171   -7.5785367    584.47198  0.023828766  0.023672607            2 
 2045000   0.91762595   -7.5847257    585.15874  0.023845099  0.023665748            2 
 2046000   0.92973523    -7.582154    585.74244  0.023857219  0.023658834            1 
 2047000   0.91006825   -7.6183178     585.2879   0.02382706  0.023651981            2 
 2048000   0.93330045   -7.5976227    584.67358  0.023790429  0.023645166            2 
 2049000   0.92398044   -7.6334956    585.77572  0.023823642  0.023638311            1 
 2050000    0.9429473   -7.6063311    586.20632  0.023829525  0.023631489            2 
 2051000   0.90791946   -7.5819422    586.89759  0.023845994  0.023624672            1 
 2052000    0.9243672   -7.6193551    585.65589  0.023783946  0.023617871            2 
 2053000   0.94134981   -7.6028172    584.58832  0.023729028  0.023611039            2 
 2054000   0.89034624   -7.6004121    585.33236  0.023747662    0.0236042            5 
 2055000    0.9349007    -7.599824    585.67376   0.02374995  0.023597337            4 
 2056000   0.94881489    -7.635492     585.1801  0.023718389  0.023590454            1 
 2057000    0.9381436   -7.6362214    586.57553   0.02376339  0.023583546            3 
 2058000   0.94471694    -7.640158    586.23584  0.023738089  0.023576672            6 
 2059000   0.91505331   -7.5993775    585.94794  0.023714908  0.023569802            2 
 2060000    0.9295076    -7.591364    587.41343  0.023762679  0.023562937            2 
 2061000   0.92743301   -7.6102443    586.45227  0.023712287  0.023556053            1 
 2062000    0.9222339   -7.5449225    586.86327  0.023717397  0.023549192            2 
 2063000   0.92392673   -7.6331923    586.31264  0.023683658  0.023542294            2 
 2064000   0.92445808   -7.5997959    587.30582  0.023712283   0.02353537            2 
 2065000   0.92404904    -7.569031    588.04805  0.023730752  0.023528398            2 
 2066000   0.92278278   -7.6322734    585.40079  0.023612488  0.023521502            2 
 2067000   0.95285259   -7.6354334    586.84708  0.023659372  0.023514572            2 
 2068000   0.91739854    -7.594711    586.04886  0.023615766  0.023507586            1 
 2069000   0.91739634   -7.6469986    587.43882  0.023660336  0.023500606            4 
 2070000   0.93662784   -7.6363927    586.61915  0.023615908  0.023493621            3 
 2071000   0.91678288   -7.5988588    586.57185  0.023602601   0.02348667            2 
 2072000   0.90982736   -7.6357708    587.93995  0.023646233  0.023479765            2 
 2073000   0.92333902   -7.6007304    587.59772  0.023621069  0.023472809            1 
 2074000    0.9052727   -7.5832516    588.88416  0.023661369  0.023465927            2 
 2075000   0.93071139   -7.5936024    587.95665  0.023612717   0.02345912            3 
 2076000   0.91606092   -7.5952789     588.3703  0.023617947  0.023452209            2 
 2077000   0.91069852   -7.5973591    587.57795  0.023574785  0.023445332            2 
 2078000   0.92428729   -7.6212767    588.94558  0.023618286  0.023438372            2 
 2079000   0.92620145   -7.6579535     586.1162  0.023493515  0.023431417            4 
 2080000   0.91457161   -7.6148244    588.69954  0.023585719  0.023424417            1 
 2081000    0.9187787   -7.6282547    586.97777  0.023505437  0.023417502            3 
 2082000   0.90987885   -7.6177577    588.28862  0.023546615  0.023410605            2 
 2083000   0.91763135   -7.6224722    587.89064  0.023519389  0.023403694            4 
 2084000   0.91673122   -7.6066551    589.97146  0.023591309   0.02339683            2 
 2085000   0.89266229   -7.6106001    589.20217  0.023549248  0.023389986            8 
 2086000    0.9129516   -7.6050283    589.66994  0.023556645  0.023383151            4 
 2087000   0.91922797   -7.5968145    589.16859  0.023525339  0.023376289            2 
 2088000   0.93209972   -7.6061472    589.53287  0.023528611   0.02336947            1 
 2089000   0.91602351   -7.6013755    590.76831  0.023566631  0.023362615            4 
 2090000   0.91103196   -7.6570762    589.56684   0.02350745  0.023355718            2 
 2091000   0.91684159   -7.6124865    589.97622  0.023512523  0.023348845            2 
 2092000    0.9243517   -7.5952336    590.61569  0.023526756  0.023342002            1 
 2093000   0.91446715   -7.6134956    590.30947  0.023503323  0.023335159            2 
 2094000    0.9195495   -7.5950559     589.8786  0.023474952  0.023328318            1 
 2095000   0.91649092    -7.602918    590.83417  0.023501757  0.023321543            2 
 2096000   0.91660263   -7.6413963    589.52709  0.023438577  0.023314656            2 
 2097000   0.90805652   -7.6582533    590.41374  0.023462635  0.023307797            4 
 2098000   0.91473116   -7.6335989    591.00901  0.023475096  0.023300883            3 
 2099000   0.93019155   -7.5963306    592.06559   0.02350586  0.023294018            3 
 2100000   0.91169423   -7.5968488    591.99985  0.023492057  0.023287175            2 
 2101000   0.91537929   -7.6027588    591.80939  0.023473322  0.023280324            1 
 2102000   0.91175729   -7.6574627    591.27038  0.023440786  0.023273485            2 
 2103000   0.93539688   -7.6398784    591.17426   0.02342583  0.023266629            1 
 2104000    0.9161396   -7.6370727    590.62956  0.023393123  0.023259768            1 
 2105000   0.90570769   -7.6249772    591.70525  0.023424594   0.02325289            2 
 2106000   0.92533907    -7.620553    591.94894  0.023423114  0.023246074            2 
 2107000   0.93114362   -7.6422738    592.11507  0.023418568  0.023239218            3 
 2108000   0.91516818   -7.6677819    590.12107  0.023328632  0.023232315            2 
 2109000     0.922523   -7.6173618    592.21114  0.023400156  0.023225409            1 
 2110000   0.90711349   -7.6427276    591.16509  0.023347752  0.023218536            2 
 2111000   0.90626763    -7.659532    591.25514  0.023340247   0.02321163            3 
 2112000    0.8997162   -7.6379438    591.32033  0.023331768  0.023204647            2 
 2113000   0.92414338   -7.6358269    592.63168  0.023372444  0.023197774            2 
 2114000   0.92354901   -7.6107388    591.94099  0.023334161   0.02319097            3 
 2115000   0.91633537   -7.6473577    591.37886   0.02330098  0.023184137            2 
 2116000   0.92457593   -7.6127009    592.27545  0.023325278   0.02317727            4 
 2117000   0.88997152   -7.6328785     592.3288   0.02331636  0.023170436            2 
 2118000   0.90101193   -7.6377134    592.73109  0.023321179  0.023163504            3 
 2119000   0.90893863   -7.6158718    593.29216  0.023332238  0.023156574            2 
 2120000   0.92293296   -7.6456361    593.76962  0.023340001  0.023149694            3 
 2121000   0.92212962   -7.6371024    591.55173  0.023241856  0.023142771            2 
 2122000   0.90993313   -7.5997283    592.91079  0.023284275  0.023135907            2 
 2123000   0.90791606   -7.6618226    593.56841  0.023299121  0.023129015            1 
 2124000   0.93308297   -7.6352121    594.27993  0.023316067  0.023122136            4 
 2125000   0.88919247   -7.6247427    593.24503  0.023264511   0.02311528            4 
 2126000   0.88774604   -7.6391511    591.97293  0.023203705  0.023108402            2 
 2127000   0.93247065   -7.6682904    591.92722  0.023191005  0.023101463            1 
 2128000   0.90405609   -7.6601174    593.04267  0.023223789  0.023094528            4 
 2129000   0.91129767   -7.5970395    594.90968  0.023285959  0.023087628            3 
 2130000   0.91368621   -7.6348861    595.81468  0.023310433  0.023080789            2 
 2131000    0.9129962   -7.6382907    592.76808  0.023180357  0.023073872            4 
 2132000   0.92744586   -7.6475226    593.70728  0.023206195     0.023067            2 
 2133000   0.89951277   -7.6609608    593.91034  0.023203248  0.023060109            2 
 2134000   0.90715844   -7.6438873    594.09068  0.023199418  0.023053205            1 
 2135000   0.92128946    -7.649536    594.08113  0.023188178  0.023046344            1 
 2136000   0.89971026   -7.6440687    594.84762  0.023207226  0.023039472            2 
 2137000   0.90413799   -7.6615425     593.5588  0.023146108  0.023032657            3 
 2138000   0.89826867   -7.6380019     594.9233  0.023188467  0.023025844            3 
 2139000   0.90237517   -7.6293945     596.4396  0.023236699  0.023019031            2 
 2140000   0.89596737   -7.6650777    594.71711  0.023158766  0.023012249            3 
 2141000   0.90068819   -7.6348777    594.90169  0.023155133  0.023005411            4 
 2142000   0.91592472   -7.6634723    595.44932  0.023165629  0.022998596            2 
 2143000   0.89414354   -7.6139149    598.16479  0.023260413  0.022991858            4 
 2144000   0.90896555   -7.6259906    595.82252  0.023158524   0.02298513            2 
 2145000   0.89877691   -7.6419238     597.0679  0.023196111  0.022978389            3 
 2146000    0.9154179   -7.6496433    597.71887  0.023210581  0.022971684            3 
 2147000   0.91706142   -7.6265479    599.06811  0.023252139  0.022964984            4 
 2148000    0.9143692   -7.5950197    599.84028  0.023271271  0.022958295            2 
 2149000   0.90013241   -7.6600534    596.28759  0.023122677  0.022951498            1 
 2150000   0.92634434   -7.6464533    596.92517  0.023136634  0.022944648            3 
 2151000     0.911262   -7.6387309    598.32478  0.023180101  0.022937855            3 
 2152000   0.87638815   -7.6246175    597.50937  0.023137754  0.022931102            3 
 2153000   0.89234798   -7.6203149    596.35875  0.023082472  0.022924319            1 
 2154000   0.89811678   -7.6469063    598.39565  0.023150559  0.022917488            5 
 2155000   0.89253735   -7.6813667    597.06992  0.023088551  0.022910663            2 
 2156000   0.89501769   -7.6313732    597.39054  0.023090234  0.022903858            1 
 2157000   0.92069035    -7.601264    599.17059    0.0231483   0.02289711            1 
 2158000   0.85936825    -7.656107    597.15556  0.023059761  0.022890369            3 
 2159000   0.89940481   -7.6439993    597.57266  0.023065179  0.022883606            2 
 2160000   0.91254038   -7.6650478    598.15848  0.023077102  0.022876867            1 
 2161000   0.91267219   -7.6780758    597.34441   0.02303503  0.022870085            3 
 2162000   0.90880273   -7.6699503    597.79837  0.023041874  0.022863281            4 
 2163000   0.89166367    -7.679154    598.07505   0.02304188   0.02285647            2 
 2164000   0.89255996   -7.6475386    599.37741  0.023081385  0.022849749            3 
 2165000    0.9015689   -7.6193958    599.99351  0.023094438  0.022843106            6 
 2166000   0.91726016   -7.6617845    598.37872   0.02302165  0.022836436            1 
 2167000   0.90082448   -7.6499812     598.6869  0.023022877   0.02282972            2 
 2168000   0.91496442   -7.6464108    599.92085  0.023059688  0.022823017            3 
 2169000   0.89546622   -7.6448095    599.41756   0.02302972  0.022816349            2 
 2170000   0.91093955   -7.6660804    599.46766  0.023021031  0.022809577            2 
 2171000    0.9136201   -7.6701208    600.02583  0.023031853  0.022802866            4 
 2172000   0.91184774   -7.6204936    599.14742  0.022987547  0.022796175            2 
 2173000   0.89294623   -7.6677214    599.56933  0.022993148    0.0227895            3 
 2174000   0.92445996   -7.6502537    601.04435  0.023039112  0.022782782            1 
 2175000   0.90772746   -7.6774718    597.60122  0.022896598  0.022776029            4 
 2176000   0.89321574   -7.6971696    599.33419  0.022952443  0.022769255            3 
 2177000   0.90508512   -7.6642566    599.44738  0.022946233  0.022762469            2 
 2178000   0.90042863   -7.6411754     601.3192  0.023007316   0.02275575            3 
 2179000   0.90785698   -7.6155786    601.52293  0.023004548  0.022749005            2 
 2180000   0.90199302   -7.6488043    600.83709  0.022967779  0.022742288            2 
 2181000   0.89325765     -7.63824    601.66803  0.022988997  0.022735607            4 
 2182000   0.91276839    -7.661559    601.14366  0.022958435  0.022728867            2 
 2183000   0.88707143   -7.6398782    601.26475  0.022952541  0.022722187            1 
 2184000   0.91009832   -7.6228626    602.23622  0.022979099  0.022715545            3 
 2185000   0.90904533   -7.6412568    601.56013  0.022942797  0.022708876            2 
 2186000   0.88667537   -7.6414027    601.94191  0.022946855  0.022702174            3 
 2187000   0.88861415   -7.6273077     602.0411  0.022940143  0.022695486            3 
 2188000   0.90254099   -7.6766735    603.81996  0.022997409  0.022688827            2 
 2189000   0.90043929   -7.6718065    601.74898  0.022908062  0.022682163            2 
 2190000   0.91066016   -7.6546547    602.82801  0.022938661   0.02267552            2 
 2191000    0.9035672   -7.6590518    602.30069  0.022908135  0.022668895            2 
 2192000    0.9190741    -7.642142    603.54785  0.022945098  0.022662328            2 
 2193000   0.90038083   -7.6507401    603.54805  0.022934642  0.022655795            2 
 2194000   0.90506437   -7.6778253    602.85715  0.022897947  0.022649242            1 
 2195000   0.89860469    -7.641459    603.62025  0.022916486  0.022642696            2 
 2196000   0.88546325   -7.6659288    604.31929  0.022932578  0.022636142            3 
 2197000   0.91054166   -7.6170259    604.93992   0.02294568  0.022629623            1 
 2198000   0.88860091   -7.6400444     602.6912  0.022849985  0.022623064            3 
 2199000   0.90580124   -7.6654584    604.32906  0.022901662  0.022616544            2 
 2200000   0.89690537   -7.6644311    603.04001  0.022842425  0.022610059            2 
 2201000   0.90416159    -7.643069    605.41348   0.02292191  0.022603593            1 
 2202000   0.93507383   -7.6398826    606.14386  0.022939141  0.022597147            4 
 2203000   0.86252155   -7.6627334    605.00974  0.022885827  0.022590693            2 
 2204000   0.91874209   -7.7109882     604.4821  0.022855494  0.022584194            5 
 2205000   0.88078373   -7.6754103    606.14054  0.022907806   0.02257773            3 
 2206000   0.87236769   -7.6830105    605.32236  0.022866514   0.02257127            2 
 2207000   0.90200188    -7.635767     606.6995  0.022908152  0.022564813            1 
 2208000   0.89144485    -7.651314    606.41765   0.02288714  0.022558397            4 
 2209000   0.90505608   -7.6532556    606.27748  0.022871491  0.022552019            1 
 2210000   0.90663403   -7.6268013    607.86024  0.022920823  0.022545636            1 
 2211000   0.89685733   -7.6146024     607.8037  0.022908326  0.022539321            2 
 2212000   0.89612945    -7.603719    607.11457  0.022872008  0.022532953            5 
 2213000   0.89883074   -7.6749725    606.01033  0.022820091  0.022526602            1 
 2214000   0.91335244   -7.6394407    608.17691  0.022891332  0.022520246            3 
 2215000   0.89599363   -7.6502242    607.98424  0.022873749  0.022513881            1 
 2216000   0.88352463   -7.6805413    608.21418  0.022872073  0.022507522            2 
 2217000   0.89627468   -7.6948616    608.97573  0.022890382  0.022501086            4 
 2218000   0.90927819   -7.6653497    607.80515  0.022836082  0.022494684            4 
 2219000   0.89413863   -7.6691106    608.37449  0.022847172  0.022488327            3 
 2220000   0.89050813   -7.6706207    607.72519  0.022812507  0.022481998            2 
 2221000   0.91812466    -7.640855    607.93724  0.022810192  0.022475668            2 
 2222000    0.9053409   -7.6501757    609.70447  0.022866204  0.022469347            3 
 2223000   0.91345728   -7.6508585    609.17779  0.022836174   0.02246304            2 
 2224000   0.89733438   -7.6813735    608.02684   0.02278278   0.02245673            4 
 2225000   0.90347375   -7.6644752     608.6633  0.022796378  0.022450365            2 
 2226000   0.88581814   -7.6809733    609.40869  0.022814042  0.022443977            1 
 2227000   0.89750282   -7.6781671    607.27379  0.022723911  0.022437632            2 
 2228000   0.88941756   -7.6379495    610.83773  0.022847012   0.02243129            1 
 2229000   0.88732831   -7.6438125    610.88291  0.022838452  0.022425028            2 
 2230000    0.8976653   -7.6767367    610.68981  0.022820994  0.022418675            3 
 2231000   0.89792496     -7.65818    610.08543   0.02278819  0.022412271            2 
 2232000    0.9112457   -7.6620293    609.74166  0.022765146  0.022405941            2 
 2233000   0.89249649   -7.6912097    609.67682  0.022752531  0.022399584            2 
 2234000   0.89744213   -7.6782412    609.62668  0.022740476  0.022393269            5 
 2235000   0.89440986   -7.6868499    610.91606  0.022778377  0.022386975            2 
 2236000   0.89927753   -7.6904638    610.29958  0.022745214   0.02238071            2 
 2237000   0.87859543   -7.6889121     608.8391   0.02268064  0.022374448            4 
 2238000   0.89901621   -7.6626329    612.60552  0.022810751  0.022368234            1 
 2239000   0.89873001   -7.6887704    610.81176  0.022733801  0.022362022            2 
 2240000   0.89624883   -7.6329459    612.84891  0.022799439  0.022355792            1 
 2241000   0.90346109    -7.693065    610.54039  0.022703421  0.022349524            2 
 2242000   0.90116527   -7.6582227    613.39383  0.022799354   0.02234334            3 
 2243000   0.92053162   -7.6597489    611.43902  0.022716563  0.022337161            1 
 2244000   0.88411305   -7.6724859    610.42132  0.022668647  0.022330878            2 
 2245000   0.89351984   -7.7097537    609.45129  0.022622542  0.022324491            2 
 2246000   0.90261247   -7.6902978    611.06269  0.022672258  0.022318139            2 
 2247000   0.88613948   -7.6811303    610.04801  0.022624537  0.022311813            2 
 2248000   0.89570578   -7.6744667    611.44423  0.022666231    0.0223055            5 
 2249000   0.89978343   -7.6728817    610.73606  0.022629912  0.022299143            4 
 2250000   0.90240493   -7.7001991    610.72212  0.022619338  0.022292812            2 
 2251000   0.89618623   -7.6420304    613.57626  0.022714951  0.022286551            1 
 2252000   0.88614117   -7.7007442    612.16574   0.02265267  0.022280299            1 
 2253000   0.88694522   -7.6932849    612.60153  0.022658734  0.022274021            2 
 2254000   0.88559855   -7.6542763    612.39025   0.02264087  0.022267747            2 
 2255000   0.88993994    -7.656489     612.9009  0.022649701  0.022261507            1 
 2256000   0.88838249   -7.6531081     612.8623  0.022638235  0.022255357            4 
 2257000    0.8704166   -7.7201709    612.96089  0.022631845  0.022249147            3 
 2258000   0.88172027   -7.7176043    613.00007  0.022623268  0.022242903            3 
 2259000   0.89028975   -7.6796279    613.60396   0.02263553  0.022236684            2 
 2260000   0.90693819   -7.6904727    615.11654  0.022681288  0.022230489            6 
 2261000   0.89866981    -7.703402    612.75219  0.022584114  0.022224318            1 
 2262000   0.89831669   -7.6906018    614.85909   0.02265175  0.022218142            2 
 2263000   0.89035488   -7.6668229    614.48516   0.02262797  0.022212037            3 
 2264000   0.88012561   -7.6696641    614.11559  0.022604372  0.022205944            2 
 2265000   0.88851357   -7.6802799    615.63174  0.022650174  0.022199821            2 
 2266000   0.89365245   -7.6925287    614.45333  0.022596842  0.022193711            1 
 2267000   0.89066559   -7.7142781      614.522  0.022589399  0.022187574            3 
 2268000   0.89990066   -7.6869413    614.43704  0.022576317  0.022181458            3 
 2269000   0.90697504   -7.7055573    614.44644  0.022566712  0.022175284            3 
 2270000    0.8740555   -7.7009813    615.55359  0.022597415  0.022169115            3 
 2271000   0.89936951   -7.6918981    614.75841  0.022558286  0.022162955            3 
 2272000    0.8922692   -7.6813812     615.9933  0.022593651  0.022156877            3 
 2273000   0.88890773    -7.692521    615.07132  0.022549909  0.022150771            3 
 2274000   0.89308687   -7.6833479    616.22057  0.022582108  0.022144649            2 
 2275000   0.87158209   -7.6932128    616.62415  0.022586965  0.022138525            5 
 2276000   0.87795017   -7.6830778    616.73666  0.022581161  0.022132514            1 
 2277000   0.90222624   -7.6966092     615.8805   0.02253991  0.022126534            3 
 2278000   0.91469462    -7.686454    617.79001  0.022599869  0.022120548            2 
 2279000   0.91526744   -7.6870202    617.46198  0.022577957  0.022114614            1 
 2280000   0.88784294   -7.6589478     618.6407  0.022611137  0.022108671            1 
 2281000   0.86953365   -7.6558432    619.99656  0.022650759  0.022102685            3 
 2282000   0.89236178   -7.6898701    617.63192  0.022554482  0.022096725            3 
 2283000   0.89578702   -7.6848317    618.55772  0.022578395  0.022090715            2 
 2284000   0.87378048   -7.7025384    618.27563  0.022558218  0.022084727            2 
 2285000    0.8887112   -7.6969887    618.67922  0.022563064   0.02207871            4 
 2286000   0.89192929   -7.6899136    618.69401  0.022553733  0.022072717            3 
 2287000    0.8799587   -7.6966097    618.82403  0.022548609  0.022066734            1 
 2288000   0.87782622   -7.6957135      618.349  0.022521453  0.022060809            1 
 2289000   0.87571968   -7.7004872    618.24433  0.022507803  0.022054874            2 
 2290000   0.87386462   -7.6663368    617.92106   0.02248621  0.022048902            3 
 2291000   0.90612705   -7.6860059    619.32456  0.022527447  0.022042984            1 
 2292000   0.88450988   -7.6860377    619.63088  0.022528755  0.022037057            1 
 2293000   0.88647098   -7.6859571    621.18685  0.022575478   0.02203117            2 
 2294000   0.88494724   -7.7045855    618.80146  0.022478984  0.022025196            2 
 2295000   0.87755348   -7.6807468    619.12425  0.022480909  0.022019226            2 
 2296000   0.88586824   -7.6943393    620.39103  0.022517096  0.022013273            3 
 2297000    0.8848953   -7.6678719    619.38172  0.022470676  0.022007288            2 
 2298000   0.88397493   -7.6742335    619.57742  0.022467995   0.02200135            1 
 2299000   0.89331847   -7.7145646    618.94827  0.022435417  0.021995356            2 
 2300000   0.90153259   -7.6848122    620.17133  0.022469976  0.021989345            3 
 2301000   0.87682335   -7.7096917    618.90418  0.022414319  0.021983348            3 
 2302000   0.89590497   -7.7017593    619.37179   0.02242151  0.021977351            1 
 2303000   0.89259957   -7.7204796    619.58046  0.022419325   0.02197134            4 
 2304000   0.87582767   -7.7093346    620.92274  0.022458143  0.021965338            2 
 2305000   0.88148602   -7.6963831     620.1274  0.022419646  0.021959399            2 
 2306000   0.87822712   -7.7077472     620.1243  0.022409812  0.021953456            2 
 2307000   0.87203247   -7.7232626    619.15638  0.022365134  0.021947435            3 
 2308000   0.87393195   -7.6910402    621.59108  0.022443352  0.021941428            1 
 2309000   0.88065024   -7.6970403    619.26385  0.022349641  0.021935445            1 
 2310000   0.88394859   -7.6633007    621.72454  0.022428735  0.021929471            2 
 2311000   0.87123213   -7.7327125    620.67031  0.022381015  0.021923464            1 
 2312000   0.90336981   -7.7437093    620.13232  0.022351944  0.021917459            2 
 2313000   0.88797512   -7.7124184    620.32788  0.022349325  0.021911444            2 
 2314000   0.86823062   -7.7478867    620.35786  0.022340747  0.021905409            3 
 2315000   0.88399856   -7.7178057    620.77833  0.022346232  0.021899369            3 
 2316000   0.87981974   -7.7421873    620.01679  0.022309182  0.021893296            3 
 2317000   0.87571606   -7.7020467    621.34775  0.022347423  0.021887277            2 
 2318000   0.88083581   -7.6931673    621.20785  0.022332753  0.021881297            2 
 2319000   0.88619492   -7.7067534    622.18877  0.022358372  0.021875312            2 
 2320000   0.88814625     -7.71909     621.6451  0.022329206  0.021869276            1 
 2321000   0.85735594   -7.7075495    621.57095  0.022316923  0.021863257            2 
 2322000   0.87800817   -7.6848453    622.31077  0.022333863  0.021857284            3 
 2323000   0.88580846   -7.7110886    623.75506   0.02237606   0.02185129            2 
 2324000   0.86936013   -7.7138422    621.44466  0.022283586  0.021845273            2 
 2325000   0.87396033   -7.7092917    622.23248  0.022302239  0.021839283            2 
 2326000   0.87712947   -7.7096318    622.76585   0.02231176  0.021833298            4 
 2327000   0.88303685   -7.7028665    622.54543  0.022294278  0.021827327            2 
 2328000   0.89677604   -7.7312835    622.49913  0.022283044  0.021821251            2 
 2329000   0.87740489   -7.7105645    621.91319  0.022252512  0.021815198            1 
 2330000   0.87890843   -7.7257518    621.34101  0.022222497  0.021809099            2 
 2331000   0.88761864   -7.7077889    621.04739  0.022202466  0.021803024            2 
 2332000   0.85157041   -7.7386052    622.41556  0.022241837  0.021796958            2 
 2333000   0.88951941   -7.7079492    621.58194  0.022202527  0.021790888            1 
 2334000   0.89169965    -7.742055    621.68923  0.022196845  0.021784803            2 
 2335000   0.88232252   -7.7430155    621.57066  0.022183107  0.021778722            4 
 2336000   0.86976052   -7.7049066      621.271  0.022162921  0.021772632            2 
 2337000   0.87598077    -7.703991    621.57244  0.022164186  0.021766514            2 
 2338000    0.8883553   -7.7324712    621.10263  0.022137961  0.021760396            2 
 2339000   0.87927188   -7.7404249    621.42804   0.02214009   0.02175424            1 
 2340000   0.86183444   -7.7187444    621.43408  0.022130843  0.021748066            2 
 2341000    0.8724565   -7.7445502    622.45151  0.022157608  0.021741971            1 
 2342000    0.8880854   -7.6877748    623.32242  0.022179135  0.021735845            1 
 2343000   0.88674908   -7.7593203    622.59897  0.022143938  0.021729703            2 
 2344000   0.88613726   -7.7399739     622.0048  0.022113367  0.021723588            2 
 2345000   0.88677469   -7.6972612    623.51486    0.0221576  0.021717491            2 
 2346000    0.8831103   -7.7370999    622.80048  0.022122779  0.021711386            3 
 2347000   0.86405161    -7.702708    620.98416  0.022048862   0.02170533            2 
 2348000   0.87439226   -7.7276983    621.31622  0.022051257   0.02169918            2 
 2349000   0.86072161   -7.7074354    624.42262  0.022152073  0.021693026            2 
 2350000   0.88418457   -7.7047452    623.07828  0.022094975  0.021686914            3 
 2351000    0.8785265   -7.6862047    623.53858  0.022101892  0.021680778            2 
 2352000   0.89864726   -7.7226643    623.22907  0.022081529  0.021674578            4 
 2353000   0.88312864   -7.7234931    622.25123  0.022037514  0.021668389            3 
 2354000   0.88300969   -7.7538739    623.36832  0.022067697  0.021662155            1 
 2355000   0.88100312    -7.715988    622.44281  0.022025577   0.02165597            1 
 2356000   0.86523463   -7.7336941    622.31462  0.022011694   0.02164979            1 
 2357000    0.8892973   -7.7128517    621.80987   0.02198451  0.021643591            3 
 2358000   0.87760343   -7.7701981    623.14446  0.022022351  0.021637411            2 
 2359000   0.88083767   -7.7179813    623.63906  0.022030488  0.021631212            3 
 2360000   0.85281159    -7.755753    623.17197   0.02200466  0.021624984            2 
 2361000    0.8637431   -7.6978575    622.42164  0.021968856  0.021618756            2 
 2362000   0.88383888   -7.7431412    622.39181  0.021958503  0.021612539            1 
 2363000   0.88326108   -7.7583076     623.3404  0.021982663  0.021606317            1 
 2364000   0.87443995    -7.721565      623.918  0.021993725  0.021600139            2 
 2365000   0.87403247   -7.7356896    622.25524  0.021925836  0.021593918            4 
 2366000   0.86762961   -7.7309639    623.12569  0.021947228  0.021587652            2 
 2367000   0.89313521   -7.7563388     623.9015  0.021965269   0.02158137            3 
 2368000   0.88838846    -7.716541    623.45577  0.021940307  0.021575091            2 
 2369000   0.87572319   -7.7129342    622.64134  0.021902397  0.021568826            2 
 2370000   0.88060714   -7.7225004    622.71653  0.021895799   0.02156254            2 
 2371000   0.88251771    -7.725575    622.73698  0.021887283  0.021556252            2 
 2372000    0.9047179   -7.7406453    623.50437  0.021905016  0.021549968            2 
 2373000   0.86669349   -7.7445174    622.98671  0.021877606  0.021543695            1 
 2374000   0.85366175    -7.734705    622.55257  0.021853151  0.021537363            2 
 2375000   0.86732929   -7.7643908    622.74264  0.021850619  0.021531032            4 
 2376000   0.87249159   -7.7707038    621.82578  0.021809266  0.021524685            2 
 2377000   0.87147368   -7.7450417    623.20589  0.021848475   0.02151836            4 
 2378000   0.86644615    -7.741616    623.36597  0.021844896  0.021512047            3 
 2379000   0.88226645   -7.7677767    621.71213  0.021777782  0.021505759            3 
 2380000   0.86810784   -7.7380871    624.76329  0.021875465  0.021499443            4 
 2381000   0.86831531   -7.7559249    622.42266  0.021784358  0.021493148            3 
 2382000   0.86946171    -7.729669    623.86968  0.021825836  0.021486872            1 
 2383000   0.87547609   -7.6877087    624.56351  0.021840939  0.021480599            2 
 2384000   0.85904984   -7.7200806    625.75688  0.021873493  0.021474335            2 
 2385000   0.86641795   -7.7324689    623.76459   0.02179471  0.021468065            1 
 2386000   0.86181329   -7.7596468    623.24801  0.021767533    0.0214618            1 
 2387000   0.87677133   -7.7379526    623.13485  0.021754463  0.021455546            1 
 2388000   0.85628239   -7.7412812    625.46357  0.021826618  0.021449257            2 
 2389000   0.86261139   -7.7284814    626.14654  0.021841305  0.021442982            1 
 2390000   0.87081698   -7.7273642    624.98955  0.021791825  0.021436696            2 
 2391000   0.85977105   -7.7074491    625.42375  0.021797844  0.021430413            1 
 2392000   0.86018295   -7.7405996    623.05012  0.021706038  0.021424099            2 
 2393000   0.87980217   -7.7506613    624.92066  0.021762107  0.021417808            2 
 2394000   0.86750574   -7.7201933    623.60699  0.021707289  0.021411482            4 
 2395000   0.87305015   -7.7270217    623.68656  0.021700994  0.021405195            2 
 2396000   0.86815268   -7.7266423    625.58813  0.021758073  0.021398879            2 
 2397000   0.87353078   -7.7329504    625.68855  0.021752487  0.021392565            3 
 2398000   0.85746334   -7.7158941    625.69638  0.021743688  0.021386279            2 
 2399000    0.8631187   -7.7655135    623.81344  0.021669218  0.021379918            3 
 2400000   0.88652581   -7.7548096    623.86727  0.021662058  0.021373599            2 
 2401000   0.84284968   -7.7676795    624.15931  0.021663172  0.021367296            2 
 2402000   0.86261237   -7.7077847    626.15731   0.02172347  0.021360966            3 
 2403000   0.86114241   -7.7125248    625.04023  0.021675691  0.021354672            1 
 2404000    0.8826643   -7.7507241    625.29992  0.021675677  0.021348351            2 
 2405000   0.86585763   -7.7359173    626.44897  0.021706479  0.021342023            4 
 2406000   0.88400987   -7.7419452    625.20245  0.021654283  0.021335702            3 
 2407000   0.87117893   -7.7413375    625.25583  0.021647134   0.02132936            1 
 2408000   0.86976379   -7.7516923    623.92183  0.021591979  0.021322943            2 
 2409000   0.85258349    -7.771928    623.74202  0.021576796  0.021316542            2 
 2410000   0.87312668   -7.7241499    626.48873  0.021662819  0.021310166            3 
 2411000   0.86501848   -7.7455318    625.67954  0.021625866  0.021303798            4 
 2412000   0.86371252   -7.7676933    625.23025  0.021601377  0.021297414            1 
 2413000   0.86861141   -7.7530205    625.36009  0.021596909  0.021291024            2 
 2414000   0.87221961   -7.7840309    624.56214  0.021560416  0.021284679            4 
 2415000   0.85163919   -7.7761472    626.10033  0.021604566  0.021278332            1 
 2416000   0.86911723   -7.7698334    626.58001  0.021612169  0.021272015            3 
 2417000   0.85240495   -7.7670019    625.25375  0.021557501  0.021265658            3 
 2418000   0.84944065   -7.7065408    628.23714  0.021651404  0.021259373            2 
 2419000   0.85385837   -7.7087458     627.6561  0.021622437  0.021253138            2 
 2420000   0.86711077   -7.7477335    627.16238  0.021596501  0.021246866            2 
 2421000   0.87108464    -7.731392    627.06189  0.021584121  0.021240582            6 
 2422000   0.85133266   -7.7224342    627.70203  0.021597235  0.021234308            2 
 2423000   0.85448465   -7.7041579    628.04392   0.02160008  0.021228078            2 
 2424000   0.82976397   -7.7210858    627.35653  0.021567537   0.02122181            3 
 2425000    0.8568932   -7.7320482    628.05812  0.021582753  0.021215532            2 
 2426000   0.86819196   -7.6942963    627.89491   0.02156825  0.021209268            1 
 2427000   0.84624348   -7.7469901    627.09789  0.021531997  0.021203014            2 
 2428000   0.87707258   -7.7125047    627.89552  0.021550505  0.021196767            3 
 2429000   0.87566012   -7.7237305    626.97147  0.021509931  0.021190535            2 
 2430000   0.86671784    -7.728503    628.05658  0.021538292   0.02118432            2 
 2431000   0.87918617   -7.7701347    627.20394  0.021500204  0.021178077            1 
 2432000   0.85444003    -7.746593    627.09408  0.021487599  0.021171772            2 
 2433000   0.85999861   -7.7634142    626.99797  0.021475475  0.021165489            3 
 2434000   0.87061992   -7.7072152    629.84623  0.021564168  0.021159247            3 
 2435000   0.85786695   -7.7510878    628.91526  0.021523452  0.021153032            1 
 2436000   0.86408613   -7.7531081    628.76065  0.021509327  0.021146807            1 
 2437000   0.89220627   -7.7309442     627.7684  0.021466571   0.02114059            1 
 2438000   0.87898664   -7.7507284     629.2503  0.021508419  0.021134402            3 
 2439000   0.86845108   -7.7576698    627.48653  0.021439338   0.02112815            2 
 2440000   0.88270317   -7.7268726    628.71109  0.021472373  0.021121863            2 
 2441000   0.85429227   -7.7531493    627.16371  0.021410751  0.021115588            2 
 2442000   0.84605089   -7.7446264    628.97775  0.021463887  0.021109308            1 
 2443000   0.86772124   -7.7558998     629.3075   0.02146635  0.021103043            6 
 2444000   0.89219879   -7.7443171    630.82079  0.021509165  0.021096803            4 
 2445000   0.86913175    -7.751156    629.43496  0.021453134  0.021090528            2 
 2446000   0.86070537   -7.7260393    629.55593  0.021448485  0.021084292            3 
 2447000   0.87165972   -7.7204032    628.54217  0.021405196  0.021078023            2 
 2448000   0.85201414   -7.8046201    629.27827   0.02142151  0.021071784            4 
 2449000   0.84549932    -7.742472    630.07348  0.021439822  0.021065503            3 
 2450000   0.85997458   -7.7193699    630.38751  0.021441752  0.021059266            2 
 2451000   0.86206231   -7.7393065    629.05038  0.021387542  0.021053034            2 
 2452000   0.86837413   -7.7570229    629.93286  0.021408811  0.021046789            2 
 2453000   0.85089739   -7.7548394    629.20231  0.021375265  0.021040522            2 
 2454000   0.87240784    -7.768095    629.05348  0.021361501  0.021034292            2 
 2455000   0.84996694   -7.7402234    630.39735  0.021398416  0.021028034            2 
 2456000   0.84431126   -7.7241117    629.82738  0.021370365  0.021021778            2 
 2457000   0.86092224   -7.7832548    628.44745  0.021314864  0.021015567            1 
 2458000    0.8463956   -7.7485645    630.42166  0.021373124  0.021009317            3 
 2459000   0.85821395   -7.8013946    628.46073  0.021297978  0.021003003            7 
 2460000   0.85897899   -7.7372264    629.76844  0.021333619  0.020996719            2 
 2461000   0.86305124   -7.7348492    630.50948  0.021350043  0.020990436            3 
 2462000   0.86219801   -7.7785487    629.03795  0.021291563  0.020984162            4 
 2463000   0.85795118   -7.7692178    628.97829    0.0212809  0.020977896            2 
 2464000   0.84585055   -7.7608209    629.94675  0.021305017  0.020971594            3 
 2465000   0.85728253   -7.7938438    631.22783  0.021339683  0.020965293            2 
 2466000   0.85960145   -7.7814328    628.49912  0.021238819  0.020958979            4 
 2467000    0.8458084   -7.7768574    629.38009  0.021259968   0.02095268            1 
 2468000    0.8703006   -7.8018488    627.06834  0.021173296  0.020946353            4 
 2469000   0.85965266   -7.7790569    630.72517  0.021288145  0.020940002            2 
 2470000   0.85845737   -7.7668289    629.49634  0.021238068  0.020933721            2 
 2471000   0.84390921   -7.7724181    629.99211  0.021246193   0.02092741            2 
 2472000    0.8453416   -7.7851205    631.06689   0.02127383  0.020921111            2 
 2473000   0.84067439   -7.7690732    631.20944  0.021270031  0.020914804            3 
 2474000   0.85690811    -7.723688    630.85434  0.021249472  0.020908527            2 
 2475000   0.84814993   -7.7802423    629.58781  0.021198243  0.020902239            3 
 2476000   0.85382064    -7.784021    630.80722  0.021230722  0.020895945            3 
 2477000   0.84251194   -7.7741787    629.17693  0.021167303  0.020889622            1 
 2478000   0.83965408   -7.7747835     629.9078   0.02118334  0.020883295            4 
 2479000   0.84889664   -7.8146396    629.53761  0.021162351  0.020876932            3 
 2480000   0.85124704   -7.7837932    631.01774  0.021203553  0.020870608            2 
 2481000    0.8655277   -7.7783092    631.05049  0.021196107  0.020864289            3 
 2482000   0.84138335   -7.8061981    631.77164   0.02121178  0.020857984            3 
 2483000   0.86044208    -7.808345    630.73865  0.021168568  0.020851655            3 
 2484000   0.86797635   -7.7625608    630.80327  0.021162214  0.020845327            3 
 2485000   0.88280369   -7.7581954    631.73395  0.021184908  0.020839032            3 
 2486000    0.8586415   -7.7679617    631.74268  0.021176679  0.020832746            2 
 2487000   0.84800188   -7.7653793    631.33459   0.02115449  0.020826442            1 
 2488000   0.84468324   -7.7662237    631.43605  0.021149386  0.020820184            2 
 2489000   0.84517281   -7.7645635     631.7141  0.021150198  0.020813893            1 
 2490000   0.86348527   -7.7793373    632.11522  0.021155128  0.020807621            2 
 2491000   0.85875225   -7.7684646    633.35252  0.021188028  0.020801355            4 
 2492000   0.84651857   -7.7464461    632.69813  0.021157642  0.020795117            6 
 2493000   0.86497193   -7.7594788    631.89705  0.021122378  0.020788885            1 
 2494000   0.87466606   -7.7845507    632.64222  0.021138807  0.020782657            3 
 2495000    0.8613447   -7.7639505    634.99772  0.021209009  0.020776454            2 
 2496000   0.86676997   -7.7617527    634.62392  0.021188032  0.020770255            2 
 2497000   0.86606803   -7.8391169    631.10623  0.021062149  0.020764043            1 
 2498000   0.84268612   -7.7664744     633.0724  0.021119309  0.020757757            2 
 2499000   0.84794678   -7.7782438    632.79447   0.02110159  0.020751525            3 
 2500000    0.8622967   -7.7994863    632.75913  0.021091971  0.020745312            1 
 2501000    0.8465849   -7.7923509    632.60929  0.021078545   0.02073912            5 
 2502000    0.8318508   -7.7615956    633.73958  0.021107766  0.020732932            4 
 2503000   0.83599286   -7.7868888    634.12964   0.02111232  0.020726723            2 
 2504000   0.85384851   -7.8041768    633.60601  0.021086462  0.020720501            2 
 2505000   0.85280025   -7.7929603    632.58157  0.021043964  0.020714267            2 
 2506000   0.85730648   -7.7842793    632.08497  0.021019053  0.020707999            3 
 2507000   0.85160294   -7.8148819    632.64349  0.021029235   0.02070168            5 
 2508000   0.85610306   -7.7987438    632.44262  0.021014175   0.02069543            1 
 2509000   0.87814855   -7.7777192    632.90851  0.021021274  0.020689173            3 
 2510000   0.85592083   -7.7975876    633.04396  0.021017396  0.020682954            1 
 2511000   0.83293304   -7.8011155    632.15126  0.020979399  0.020676668            2 
 2512000   0.86506703   -7.7428143    632.92103  0.020996584  0.020670416            2 
 2513000   0.82974661    -7.761599     634.9984  0.021057116  0.020664208            1 
 2514000   0.85292548   -7.7882073    633.24147  0.020990502  0.020657995            2 
 2515000   0.84874033   -7.7912863    632.89465  0.020970664  0.020651716            2 
 2516000   0.87108445   -7.7476186    635.82495  0.021059385  0.020645494            2 
 2517000   0.84179112   -7.7690815    634.59497  0.021010296  0.020639244            3 
 2518000    0.8655056   -7.7899014    632.97401  0.020948306  0.020632975            2 
 2519000   0.84146279    -7.764252    633.00401  0.020940982  0.020626708            2 
 2520000   0.84388335   -7.7426338    636.63392  0.021052709  0.020620536            5 
 2521000   0.84871113   -7.7475904    634.61643  0.020977669  0.020614386            2 
 2522000   0.85479178    -7.759762    633.40349  0.020929272   0.02060822            2 
 2523000   0.84187347   -7.7990066    633.63005   0.02092846  0.020601971            3 
 2524000   0.84659123   -7.7643436    634.62576  0.020953043  0.020595742            3 
 2525000    0.8561073   -7.8020873    634.29614  0.020933866  0.020589524            6 
 2526000   0.85110123    -7.815809     633.7505  0.020907578   0.02058329            1 
 2527000   0.84308438     -7.78801    635.60209  0.020960364  0.020577013            3 
 2528000   0.83544623   -7.7692495    632.54827  0.020851406  0.020570731            1 
 2529000   0.87934613   -7.8150526    632.86982  0.020853757  0.020564443            3 
 2530000   0.85132495   -7.7723714    636.23732  0.020956433  0.020558201            3 
 2531000   0.84569437   -7.7952835    635.59218  0.020926912  0.020552013            2 
 2532000   0.85426225    -7.787165    634.73163  0.020890325  0.020545837            2 
 2533000   0.85650396   -7.7906843    633.80932  0.020851735  0.020539599            1 
 2534000   0.82569887   -7.7959207    634.87666  0.020878606  0.020533382            3 
 2535000   0.84898702   -7.7923601    636.57769  0.020926288  0.020527182            1 
 2536000   0.86521686   -7.7760095    636.51707  0.020916045   0.02052101            4 
 2537000   0.85137659   -7.7974511    634.39104  0.020837966  0.020514787            2 
 2538000   0.84530854   -7.7967087    634.75587  0.020841734  0.020508572            3 
 2539000    0.8357222   -7.8076629    634.46846  0.020824093  0.020502347            4 
 2540000   0.85434871   -7.7911049    635.94873   0.02086446  0.020496123            2 
 2541000   0.84366517    -7.821215    633.55102  0.020777614  0.020489852            4 
 2542000   0.85951655   -7.8280718    635.05301   0.02081868  0.020483616            3 
 2543000   0.84793722   -7.8169005    634.06372  0.020778074  0.020477404            1 
 2544000   0.84150511    -7.805075    635.85644  0.020828631  0.020471151            1 
 2545000   0.82670933   -7.7977783    635.57495  0.020811229  0.020464928            3 
 2546000   0.84666027   -7.7984615    634.20776  0.020758306   0.02045868            1 
 2547000   0.85773421   -7.7818902    637.34948  0.020852947  0.020452463            4 
 2548000   0.85247114   -7.7883934    637.00915  0.020833632  0.020446326            1 
 2549000   0.83183914   -7.8197228     635.0389  0.020761047  0.020440119            4 
 2550000   0.84228901    -7.798732    635.42251  0.020765442  0.020433905            3 
 2551000   0.83971479   -7.7963141    637.49564  0.020825024  0.020427739            1 
 2552000   0.84417672   -7.7880966    635.95212  0.020766461  0.020421532            1 
 2553000    0.8330411   -7.8102302    637.65654  0.020813962  0.020415313            2 
 2554000   0.83173796   -7.7495662     637.7074  0.020807472  0.020409143            2 
 2555000   0.85117395   -7.8077881    638.70087  0.020831731  0.020403003            3 
 2556000    0.8374355   -7.8206635    638.11767  0.020804567  0.020396843            2 
 2557000   0.86238502   -7.7868071    638.58686  0.020811721  0.020390661            2 
 2558000   0.84989674   -7.8106184    636.24967  0.020727446  0.020384483            1 
 2559000   0.85914531   -7.7872155     637.8164  0.020770366  0.020378331            1 
 2560000   0.83919183   -7.8191349    636.84493  0.020730629  0.020372143            1 
 2561000   0.83684879   -7.8056847    637.77497  0.020752798  0.020366008            1 
 2562000    0.8453945   -7.8277502    638.35931  0.020763704  0.020359847            1 
 2563000   0.83896986   -7.8350584    638.03927  0.020745197  0.020353667            2 
 2564000   0.83707932   -7.7979152    637.48113  0.020718965  0.020347506            1 
 2565000   0.84945881   -7.8092986    639.23823  0.020767974  0.020341344            3 
 2566000   0.84231207   -7.8296916    637.85082  0.020714823  0.020335194            4 
 2567000   0.83714402   -7.7764463    638.39067  0.020724278  0.020329084            2 
 2568000   0.81937361    -7.779572    637.98997  0.020703205  0.020322974            1 
 2569000   0.85226327   -7.7713421    640.07978  0.020762936  0.020316899            2 
 2570000   0.83104972   -7.8129257    637.13908  0.020659503  0.020310815            2 
 2571000   0.82947969   -7.7932887    640.27114  0.020752987  0.020304749            2 
 2572000   0.82956796   -7.8041493    638.66868  0.020692998  0.020298645            1 
 2573000   0.83686249   -7.8053318    638.07483  0.020665722  0.020292535            3 
 2574000   0.86206302   -7.8335638    638.53004  0.020672431  0.020286427            1 
 2575000   0.84193773   -7.7986797    640.21836  0.020719041  0.020280324            3 
 2576000   0.83718628   -7.7997441     640.2993  0.020713616   0.02027426            6 
 2577000   0.83494564   -7.8334023    639.26047  0.020671985  0.020268137            3 
 2578000    0.8479278   -7.8181908    637.96034   0.02062194   0.02026199            3 
 2579000   0.82754096   -7.7800146    639.42687  0.020661331  0.020255833            3 
 2580000   0.85632578   -7.7999145    638.77937  0.020632409  0.020249727            1 
 2581000   0.83869433   -7.8439842    638.29054  0.020608632  0.020243615            2 
 2582000   0.83767684   -7.8389516    638.25958  0.020599651  0.020237469            1 
 2583000   0.83442949   -7.8452018    638.40151  0.020596255  0.020231363            3 
 2584000   0.83760237   -7.8229358     638.7984  0.020601084  0.020225286            1 
 2585000   0.86134922   -7.7920466    640.57802  0.020650484  0.020219223            2 
 2586000   0.83845453    -7.806593    639.43283  0.020605595  0.020213182            3 
 2587000   0.85683878   -7.7598763    642.12037  0.020684202  0.020207184            5 
 2588000   0.83810899   -7.7956016    641.63464  0.020660569  0.020201184            3 
 2589000   0.84815948   -7.8223141    640.76917  0.020624732  0.020195131            2 
 2590000   0.86367924   -7.8356872    640.46573  0.020607006  0.020189011            2 
 2591000   0.84568877   -7.8281479    639.71888  0.020575032  0.020182916            4 
 2592000   0.83154533   -7.7997893    639.49493  0.020559894  0.020176824            3 
 2593000   0.82274254   -7.8638046    640.09241  0.020571166  0.020170736            2 
 2594000   0.83160577   -7.8299727    640.39736  0.020573033  0.020164642            2 
 2595000   0.84119956   -7.8124832    639.04946   0.02052182  0.020158529            2 
 2596000   0.82808667   -7.8412833    640.23903    0.0205521  0.020152408            2 
 2597000   0.84658152    -7.823046    640.44121  0.020550674  0.020146272            3 
 2598000   0.82522623   -7.8103232    639.12655  0.020500595  0.020140154            4 
 2599000    0.8342777   -7.8234833    639.70326  0.020511199   0.02013403            1 
 2600000   0.83899352   -7.8279244    641.10169  0.020548131  0.020127926            4 
 2601000   0.82866537   -7.8224749    639.81764  0.020499092  0.020121821            2 
 2602000    0.8451283   -7.8260831    641.86331  0.020556729  0.020115727            3 
 2603000    0.8494093   -7.8262576    639.59107  0.020476087  0.020109637            2 
 2604000   0.83926155   -7.8204729    639.12282  0.020453239  0.020103516            2 
 2605000   0.84654282   -7.7984531     642.2386  0.020545061  0.020097404            4 
 2606000   0.82953454   -7.8388573    640.85952  0.020493078  0.020091324            2 
 2607000    0.8383255   -7.8095844    639.47494  0.020440958  0.020085247            3 
 2608000   0.84734524   -7.8205575     640.4937  0.020465673   0.02007913            2 
 2609000   0.82689993   -7.8227307    639.36059  0.020421636   0.02007305            1 
 2610000   0.82641501   -7.8545179    639.20133  0.020408727  0.020066947            2 
 2611000    0.8399757   -7.8563507    640.39645  0.020439054  0.020060843            2 
 2612000    0.8143238   -7.8275712    640.31551  0.020428647   0.02005475            3 
 2613000   0.82184896   -7.8550149     640.3615  0.020422295  0.020048651            1 
 2614000   0.82573195   -7.8065987    641.82152  0.020461028  0.020042548            3 
 2615000   0.83461246   -7.8219211    640.21671  0.020402062   0.02003647            3 
 2616000   0.82735677   -7.8055914    642.17686  0.020456704  0.020030382            1 
 2617000   0.82953321   -7.8456091    642.41119  0.020456349  0.020024308            1 
 2618000   0.83367024   -7.8189132    642.52132  0.020452041  0.020018231            1 
 2619000   0.82448987   -7.8580726     640.0225  0.020364722  0.020012121            3 
 2620000   0.85271189    -7.822848    641.82439  0.020414262  0.020006061            3 
 2621000   0.84174796   -7.7935226    643.59932  0.020462906  0.020000009            2 
 2622000   0.82851887   -7.8358955    642.43853  0.020418209  0.019993995            2 
 2623000   0.83879688   -7.7980292    643.10346   0.02043155  0.019987981            2 
 2624000   0.83957666   -7.8343616    642.62877  0.020408688  0.019981956            2 
 2625000   0.84436836   -7.8314755    643.16362  0.020417893  0.019975902            2 
 2626000   0.83929567   -7.8348144    641.62888  0.020361414  0.019969831            1 
 2627000   0.84151466   -7.8546287    641.06461  0.020335764  0.019963737            9 
 2628000   0.83384349   -7.8419392    642.44107  0.020371673  0.019957678            1 
 2629000   0.82341931   -7.8570095    642.84015  0.020376574  0.019951617            3 
 2630000     0.825628   -7.8630022    640.95791  0.020309186  0.019945589            3 
 2631000    0.8388171   -7.8143447    643.40709  0.020379041  0.019939588            1 
 2632000   0.82369707   -7.8166952    643.07968  0.020360932  0.019933605            1 
 2633000   0.85690251   -7.8494066    642.66996  0.020340232  0.019927609            3 
 2634000   0.82786674    -7.832243     642.1815  0.020317056  0.019921627            4 
 2635000   0.82994204    -7.791945    644.22407  0.020373943  0.019915716            1 
 2636000   0.84936048   -7.8297677    644.59855  0.020378052  0.019909762            1 
 2637000   0.83111729   -7.8198617    644.06456   0.02035345  0.019903805            2 
 2638000   0.81567787   -7.8228315    644.26175  0.020351963  0.019897871            3 
 2639000   0.83372314   -7.8000145    643.41615  0.020317549  0.019891922            2 
 2640000   0.82594388   -7.8362203    643.94547  0.020326562  0.019885989            1 
 2641000   0.84425659   -7.8216938    644.26958  0.020329092  0.019880028            1 
 2642000   0.84962775   -7.8193786    645.67643  0.020365772  0.019874078            1 
 2643000   0.83016731   -7.8268643    645.25481  0.020344773  0.019868177            2 
 2644000   0.85088342   -7.7860811    644.98219  0.020328485  0.019862289            3 
 2645000   0.85732363   -7.8277836    646.10499  0.020356175  0.019856348            2 
 2646000   0.83628557   -7.8514867    643.63316  0.020270634  0.019850363            2 
 2647000   0.82379949   -7.8580332    643.99107  0.020274244  0.019844337            1 
 2648000   0.83732825   -7.8623939    645.72974  0.020321303  0.019838351            1 
 2649000    0.8383083   -7.8573802    643.28713  0.020236791   0.01983238            4 
 2650000   0.81475996      -7.8526    644.20397  0.020257987  0.019826428            1 
 2651000   0.83734198   -7.8601964     645.3269  0.020285644  0.019820469            2 
 2652000   0.82287366     -7.84182    644.21711  0.020243122  0.019814514            2 
 2653000   0.81503979   -7.8334028    645.09432  0.020263046   0.01980851            1 
 2654000   0.83239322   -7.8332734    644.86155  0.020248102  0.019802554            2 
 2655000   0.81125248   -7.8435681    645.73517  0.020267896  0.019796614            3 
 2656000   0.82848449   -7.8277372    645.65415  0.020257723   0.01979068            2 
 2657000    0.8206532   -7.8581269    644.80317  0.020223409  0.019784725            1 
 2658000   0.81726469   -7.8669255    645.45103  0.020236112  0.019778746            2 
 2659000   0.82272133   -7.8325595    644.28166  0.020191854  0.019772754            1 
 2660000   0.83833223   -7.8528641    644.36495  0.020186872  0.019766763            2 
 2661000   0.82322858   -7.8436674    646.97218  0.020260935  0.019760787            3 
 2662000   0.82111745   -7.8384287    644.81957  0.020185937  0.019754828            3 
 2663000    0.8331857   -7.8798942    645.63203  0.020203781  0.019748892            1 
 2664000   0.81925487   -7.8699119    644.04971    0.0201467  0.019742904            3 
 2665000   0.83420412   -7.8357292    644.42718  0.020150944  0.019736931            2 
 2666000   0.82680068   -7.8487164    645.29443  0.020170494  0.019730971            2 
 2667000   0.82294323   -7.8510572     643.8636  0.020118223  0.019724962            3 
 2668000    0.8177964   -7.8618026    644.85145  0.020141537  0.019718979            4 
 2669000   0.84246077   -7.8559607    644.88751  0.020135117  0.019712978            2 
 2670000   0.83683085   -7.8408187     645.5449  0.020148093  0.019707036            4 
 2671000   0.82121328   -7.8450782    645.22338  0.020130518  0.019701073            6 
 2672000   0.81465872   -7.8488503    646.17123  0.020152546  0.019695139            2 
 2673000   0.81357481   -7.8589353    645.39224  0.020120721  0.019689185            2 
 2674000   0.80818021   -7.8414588     646.7926  0.020156838  0.019683259            3 
 2675000   0.82713424    -7.849959    646.15578  0.020129464  0.019677318            4 
 2676000   0.81535491   -7.8435828    645.16696  0.020091148  0.019671372            3 
 2677000   0.83353436   -7.8256645    646.95583   0.02013933  0.019665437            3 
 2678000   0.86172925   -7.8715587     644.9808  0.020070351  0.019659524            2 
 2679000   0.84521995   -7.8734671    647.49963   0.02014121  0.019653581            2 
 2680000   0.84530219   -7.8339574    646.81603  0.020112439  0.019647684            4 
 2681000   0.82772043   -7.8521808    646.48136  0.020094534  0.019641771            2 
 2682000   0.81831858   -7.8738991    646.46115  0.020086414   0.01963584            3 
 2683000   0.81900773   -7.8537386    646.63912  0.020084455  0.019629886            2 
 2684000   0.83554971   -7.8747919    646.25326  0.020064992   0.01962394            3 
 2685000   0.82884657   -7.8448295    647.11159  0.020084158  0.019617996            2 
 2686000   0.81518742   -7.8351091    647.26033  0.020081296  0.019612085            2 
 2687000   0.83452423   -7.8707621    648.05672  0.020098521  0.019606169            7 
 2688000   0.84242777   -7.8336868    647.73862  0.020081182  0.019600235            3 
 2689000   0.83035213   -7.8313079    646.60117  0.020038464  0.019594351            3 
 2690000   0.83418163   -7.8514195    646.85279   0.02003881  0.019588452            4 
 2691000   0.82261598   -7.8164158    647.85164  0.020062295   0.01958261            2 
 2692000   0.83451774   -7.8361876    649.01474  0.020090848  0.019576756            1 
 2693000   0.83249864   -7.8197702    648.37832  0.020063694   0.01957091            3 
 2694000   0.80768429   -7.8425571    649.18869  0.020081313   0.01956508            2 
 2695000   0.83036657   -7.8621312    647.38703  0.020018152  0.019559226            4 
 2696000   0.79598446   -7.8132418    648.32841  0.020039825  0.019553347            4 
 2697000    0.8088624   -7.8394499    649.56758  0.020070683  0.019547483            3 
 2698000   0.81800527   -7.8313624    649.34643  0.020056413   0.01954164            2 
 2699000   0.81306746   -7.8427872    647.74487  0.019999533  0.019535804            3 
 2700000   0.82851621   -7.8414972    648.32124  0.020009915  0.019529961            3 
 2701000   0.81601236   -7.8544551    647.64948  0.019981781  0.019524104            2 
 2702000   0.82894117   -7.8676074    647.31041  0.019963928  0.019518235            2 
 2703000   0.79098922   -7.8742157    648.04087  0.019979063  0.019512323            2 
 2704000   0.81571104   -7.8715801    648.20377  0.019976694  0.019506412            2 
 2705000   0.82466346   -7.8382454    647.32798  0.019942328  0.019500542            3 
 2706000   0.81813177   -7.8522154    647.02579  0.019925653   0.01949465            2 
 2707000   0.83073117   -7.8654288    648.90237  0.019976061  0.019488754            2 
 2708000   0.82218565   -7.8753319    648.16766  0.019946075  0.019482869            2 
 2709000   0.80919341   -7.8504409    648.47626  0.019948205   0.01947697            3 
 2710000   0.83199735   -7.8485964    647.08245  0.019897984  0.019471103            3 
 2711000   0.79700272   -7.8310666    647.53481   0.01990455  0.019465186            2 
 2712000   0.81669739   -7.8560459    647.84155  0.019906636  0.019459297            1 
 2713000   0.83209371   -7.8472005    648.66987  0.019924741  0.019453431            2 
 2714000    0.8250598   -7.8372162    647.74554  0.019889018  0.019447564            3 
 2715000   0.81500063    -7.855185    648.92881  0.019918011  0.019441661            2 
 2716000   0.82267558   -7.8834166    647.25562   0.01985934  0.019435765            2 
 2717000   0.83276118    -7.883488    649.35661  0.019916471  0.019429853            3 
 2718000   0.82442101   -7.8609153    649.27089  0.019906515  0.019423948            1 
 2719000   0.81852098   -7.8576116    648.40846  0.019872761  0.019418039            3 
 2720000   0.82183563    -7.891949    648.71914  0.019874974   0.01941212            1 
 2721000   0.81452472   -7.8808519    648.53845  0.019862136  0.019406232            3 
 2722000   0.81577147   -7.8740464    647.69264  0.019828944  0.019400332            5 
 2723000   0.82126701   -7.8370595    649.71206  0.019883464  0.019394471            2 
 2724000   0.81635588   -7.8707914    649.81868  0.019879426  0.019388596            2 
 2725000   0.80265231    -7.844207    649.23854   0.01985439  0.019382712            1 
 2726000   0.80338968   -7.8452006    649.80699  0.019864484  0.019376843            4 
 2727000   0.82200469   -7.8640194    647.95228  0.019800522  0.019370928            2 
 2728000   0.80877491   -7.8626508    649.69696  0.019846559  0.019364999            2 
 2729000   0.79750944   -7.8229545    650.21058  0.019854971   0.01935915            1 
 2730000   0.83015559   -7.8585433    651.27145  0.019880081   0.01935329            1 
 2731000    0.8249834   -7.8830008     648.8253   0.01979816  0.019347412            1 
 2732000   0.79633952   -7.8640594    650.55319  0.019843619  0.019341504            2 
 2733000   0.83337653   -7.8937723    648.45341  0.019772332  0.019335619            2 
 2734000   0.82747344   -7.8766266    649.37012  0.019793042  0.019329704            2 
 2735000   0.82868105   -7.8776332    648.83296  0.019769438  0.019323786            1 
 2736000    0.8237266   -7.8810572    649.12797  0.019771198  0.019317866            5 
 2737000   0.81195845   -7.9070269    647.86891   0.01972564  0.019311935            2 
 2738000   0.80201106   -7.8643518    650.99691  0.019813639  0.019306006            1 
 2739000   0.79491396   -7.8604755    649.86656  0.019772014  0.019300115            3 
 2740000   0.82150829   -7.8842664    649.69525  0.019759588  0.019294203            5 
 2741000   0.82852126   -7.8605932    649.49256  0.019746217  0.019288292            3 
 2742000   0.81311647   -7.8585777    649.84137  0.019749616  0.019282357            2 
 2743000   0.80957219   -7.8747941    650.73288    0.0197695   0.01927646            3 
 2744000   0.82120595   -7.8614311    648.89777  0.019706565  0.019270564            5 
 2745000   0.82793943   -7.8577336    650.78562  0.019756698  0.019264682            2 
 2746000   0.79467352   -7.8709358    649.80418  0.019719719  0.019258805            3 
 2747000   0.79389037   -7.8880719    649.87417  0.019714664  0.019252935            4 
 2748000   0.81240982   -7.8617499    650.63874  0.019730675  0.019247037            1 
 2749000   0.82499817   -7.8573654    650.19678    0.0197101  0.019241167            3 
 2750000   0.81804115   -7.8892126    649.40219  0.019678854  0.019235281            3 
 2751000   0.80319919   -7.8828556    649.29833  0.019668555  0.019229384            3 
 2752000    0.8171854   -7.8948549    650.20068  0.019688732  0.019223468            2 
 2753000   0.82211782   -7.8783605     650.2969  0.019684493  0.019217526            2 
 2754000   0.80372756    -7.888031     649.1575  0.019642868  0.019211599            2 
 2755000   0.79359445   -7.8795697    649.89273  0.019657977  0.019205669            2 
 2756000   0.79841355   -7.8831294    648.52932  0.019609619  0.019199745            3 
 2757000   0.80497848   -7.8704166    648.98481  0.019616274  0.019193835            3 
 2758000   0.81692952   -7.8792633    649.97306  0.019639022  0.019187953            4 
 2759000   0.82497032   -7.9042705    649.93989  0.019630902  0.019182057            1 
 2760000   0.79677803   -7.8813878    650.77301  0.019648944  0.019176155            2 
 2761000   0.80732165   -7.8944469    649.79752  0.019612385  0.019170248            2 
 2762000   0.80917245   -7.8826775    650.61383  0.019629913  0.019164346            1 
 2763000   0.79900376   -7.9176382    649.37556  0.019585461  0.019158422            3 
 2764000   0.79574715   -7.8748842    650.02369  0.019597916  0.019152501            4 
 2765000   0.79750457   -7.8759342    651.32617  0.019630084  0.019146607            3 
 2766000    0.8097622   -7.8648282     650.1847  0.019588597  0.019140743            1 
 2767000    0.8228857   -7.9082519    650.14424  0.019580299  0.019134882            2 
 2768000    0.8108886   -7.8877059    650.39059  0.019580642  0.019129036            3 
 2769000   0.80297903   -7.8845444     650.8954  0.019588762  0.019123175            2 
 2770000   0.81054983   -7.9082736    650.82796  0.019579662  0.019117309            4 
 2771000   0.81540412   -7.8980605    651.43513  0.019590856  0.019111429            5 
 2772000   0.81544922   -7.9022921    651.80914  0.019595032  0.019105551            2 
 2773000   0.80430809   -7.8984908    651.04497  0.019565001  0.019099683            2 
 2774000   0.80657661   -7.8870507    650.09534   0.01952942  0.019093766            2 
 2775000   0.81580768   -7.9262537    650.55252  0.019536112  0.019087876            2 
 2776000   0.80643619   -7.8748806    653.22596  0.019609329  0.019081999            1 
 2777000   0.79408586   -7.9115213    651.45331  0.019549073  0.019076172            2 
 2778000   0.81986289   -7.8950456     652.1797  0.019563826  0.019070367            2 
 2779000   0.81361999   -7.8689652    652.48185  0.019565846  0.019064548            3 
 2780000   0.80766276   -7.8638385    652.69338  0.019565149  0.019058737            1 
 2781000   0.80599165   -7.8792802     651.5635  0.019524257  0.019052909            2 
 2782000   0.78757067   -7.8869016    652.62002  0.019548886   0.01904709            3 
 2783000   0.80014479   -7.8633723    653.01014  0.019553544  0.019041308            1 
 2784000   0.81415879   -7.8579841    653.07564  0.019548481  0.019035547            3 
 2785000   0.80423283   -7.9121153    651.93279  0.019507265  0.019029743            1 
 2786000   0.80392822   -7.8877691    653.94378  0.019560414  0.019023932            4 
 2787000   0.81357906   -7.8885048    652.30465  0.019504385  0.019018137            3 
 2788000   0.81840515   -7.8978811    651.88277  0.019484779  0.019012318            2 
 2789000     0.801088   -7.8786946    653.32304  0.019520827  0.019006527            1 
 2790000   0.81429589   -7.8768209    653.29851  0.019513098  0.019000755            3 
 2791000   0.79449972   -7.8875757    652.81931  0.019491798  0.018994911            4 
 2792000   0.79909693   -7.8744002    653.24097  0.019497402  0.018989107            2 
 2793000   0.82302692   -7.8646142    651.80338  0.019447529  0.018983311            1 
 2794000   0.79450854   -7.8564336    653.21099  0.019482551  0.018977521            4 
 2795000   0.81413105   -7.8850738    653.23557  0.019476314  0.018971688            3 
 2796000   0.80408098   -7.8719554    652.83208  0.019457322  0.018965871            4 
 2797000   0.79211944    -7.898894    652.45628  0.019439169  0.018960031            2 
 2798000   0.79206781    -7.899791    652.93436   0.01944646  0.018954181            1 
 2799000   0.78583964   -7.8897913    653.00275  0.019441549  0.018948302            2 
 2800000   0.80936905   -7.8955845    652.18467  0.019410258  0.018942437            2 
 2801000   0.79980571   -7.8934016    653.06037  0.019429381  0.018936555            1 
 2802000   0.79487979   -7.9455234    651.59449  0.019378851  0.018930684            3 
 2803000    0.7995389   -7.9323988    652.76939  0.019406867  0.018924784            2 
 2804000   0.79641418   -7.9049747     651.2251  0.019354051  0.018918906            2 
 2805000    0.7964151   -7.9000235    653.64162  0.019418943  0.018913057            2 
 2806000   0.78452411   -7.8942592    653.31849  0.019402426   0.01890721            2 
 2807000   0.81438362   -7.9221259    652.98069  0.019385485  0.018901386            3 
 2808000   0.79181121   -7.9059847    652.50485   0.01936446   0.01889554            2 
 2809000   0.80798949   -7.9122016    653.41755  0.019384643  0.018889704            1 
 2810000   0.80165171   -7.9258576    653.13387  0.019369332  0.018883851            1 
 2811000   0.78942525   -7.8983676    653.60402  0.019376379  0.018877994            3 
 2812000    0.8003192   -7.9172798    652.32553    0.0193316  0.018872177            2 
 2813000   0.80172093    -7.902476    653.16951  0.019349731   0.01886634            2 
 2814000   0.79653759   -7.9229304    652.56109  0.019324837  0.018860488            2 
 2815000   0.80432643    -7.914827    652.77483  0.019324299  0.018854616            2 
 2816000   0.80880675   -7.8901697    654.05039  0.019355184  0.018848782            1 
 2817000   0.81116449   -7.8986165    653.96541    0.0193458  0.018842976            3 
 2818000   0.81262496   -7.9114851    651.00984  0.019251533  0.018837142            3 
 2819000   0.80399536   -7.9084994    653.06942  0.019305588  0.018831288            5 
 2820000   0.79414629   -7.8760589    653.69838  0.019317328  0.018825473            2 
 2821000   0.79139755   -7.9232466    653.35449  0.019300322  0.018819652            6 
 2822000   0.81325242   -7.9105719    654.23507  0.019319486  0.018813816            1 
 2823000   0.80953029   -7.9109707    653.08665  0.019278742  0.018807984            2 
 2824000   0.81652147   -7.8833292    653.97852  0.019298233  0.018802177            2 
 2825000   0.79633408   -7.8974039    654.36163  0.019302703  0.018796358            1 
 2826000    0.7824868   -7.8942849    654.19859  0.019291065  0.018790524            2 
 2827000    0.7998723   -7.9354777     653.7674   0.01927153  0.018784673            2 
 2828000   0.80014284   -7.9130624    652.83537  0.019237251  0.018778809            7 
 2829000   0.79583861   -7.9457755    652.51323  0.019220962  0.018772955            2 
 2830000   0.79503939   -7.9222788    655.16365  0.019292216  0.018767103            1 
 2831000   0.79466513   -7.9029542    653.61116  0.019239702  0.018761232            3 
 2832000   0.80326435   -7.9408324    651.65462  0.019175336  0.018755354            3 
 2833000   0.79421642   -7.8813078    653.69706  0.019228646  0.018749509            1 
 2834000   0.80309181    -7.923355    653.08272  0.019203797  0.018743646            3 
 2835000   0.79188481   -7.9436558    652.77019  0.019187836  0.018737799            2 
 2836000   0.80064543   -7.9095511    653.40416  0.019199699  0.018731945            1 
 2837000   0.79300157    -7.927377    652.53386  0.019167368  0.018726089            3 
 2838000    0.8048352   -7.9392194    652.94099  0.019172568  0.018720231            1 
 2839000   0.80600132   -7.9138927    653.35648  0.019178011  0.018714353            2 
 2840000    0.7899111   -7.9115454    651.81424  0.019126005  0.018708488            3 
 2841000   0.78648902   -7.8929629    653.97021  0.019182512   0.01870266            4 
 2842000   0.80490124   -7.8941758    654.72057  0.019197765  0.018696855            3 
 2843000   0.79452299   -7.8600143    656.10277  0.019231527  0.018691031            2 
 2844000   0.81897103   -7.9075259    654.53889  0.019178941  0.018685212            2 
 2845000   0.79980066   -7.9049026    654.38942  0.019167821  0.018679391            2 
 2846000   0.77855746   -7.9195952    654.25608  0.019157182  0.018673553            2 
 2847000   0.78484886    -7.929782    654.45055  0.019156145  0.018667687            2 
 2848000   0.77481671   -7.9263213    653.98709  0.019135858  0.018661843            2 
 2849000   0.80123556   -7.9368765    653.07797   0.01910255  0.018655985            2 
 2850000   0.79055232   -7.9046707    653.21863   0.01909996  0.018650112            1 
 2851000   0.79491643   -7.9353025    653.85256   0.01911179  0.018644225            2 
 2852000   0.79312553   -7.9496232    652.25025  0.019058271  0.018638341            2 
 2853000   0.81512659   -7.9186305    652.47275  0.019058089  0.018632442            2 
 2854000   0.80581464   -7.9298213    653.34045  0.019076747  0.018626548            4 
 2855000   0.81430178   -7.9287862    653.26976  0.019068002  0.018620646            3 
 2856000   0.81420479    -7.938915    651.92132  0.019021981  0.018614732            3 
 2857000   0.82547639   -7.9176835    652.67985  0.019037448   0.01860884            5 
 2858000   0.78929054    -7.914396    654.56375  0.019085717  0.018602948            1 
 2859000   0.80538318    -7.929951    653.89112  0.019059436  0.018597075            2 
 2860000   0.78891044    -7.934467    652.78686  0.019020596  0.018591207            7 
 2861000   0.79194613   -7.9545441    653.83083  0.019044356  0.018585334            5 
 2862000   0.80553704   -7.9254579    654.37333  0.019053498  0.018579456            3 
 2863000    0.8088039   -7.8494658    656.22197  0.019100651  0.018573627            1 
 2864000   0.79870957   -7.9014828    653.92768  0.019027225  0.018567807            2 
 2865000   0.79273907   -7.9094101    654.80827  0.019046198  0.018561947            1 
 2866000   0.79566446   -7.9089867    654.15836  0.019020655  0.018556114            2 
 2867000   0.78054847   -7.8954567    652.79952  0.018974524  0.018550265            2 
 2868000   0.79485889   -7.9025825    653.70014  0.018994077  0.018544388            3 
 2869000   0.78481773   -7.9326702    653.02043  0.018967713  0.018538515            3 
 2870000   0.78776603   -7.8978791    653.48628  0.018974631  0.018532639            2 
 2871000     0.788609   -7.8887487     654.4265  0.018995312  0.018526794            1 
 2872000   0.78173641   -7.8966923    653.78944  0.018970214  0.018520986            1 
 2873000   0.79377878   -7.9325521    654.84143  0.018994124  0.018515164            2 
 2874000    0.7835365   -7.9069463    655.13665  0.018996075  0.018509333            3 
 2875000   0.79095423   -7.9449523    654.57957  0.018973321  0.018503518            2 
 2876000   0.78721961    -7.887531    654.85876  0.018974813  0.018497675            2 
 2877000   0.79949418   -7.9482316    652.11854  0.018888847  0.018491811            3 
 2878000   0.78324038   -7.9322145    653.70059  0.018928092   0.01848595            3 
 2879000   0.79161827   -7.9280809    653.29286  0.018909716  0.018480087            2 
 2880000    0.7974016   -7.9084134    653.03354  0.018895646  0.018474233            2 
 2881000   0.79119109   -7.9206987    654.14826  0.018921331  0.018468398            1 
 2882000   0.79551607   -7.9347763    655.47134  0.018953023   0.01846257            1 
 2883000   0.79976609    -7.957222    654.13124  0.018907713  0.018456696            2 
 2884000    0.7803115   -7.9442316    654.57546  0.018913993  0.018450802            3 
 2885000   0.79923433   -7.9714429    653.79159  0.018884795  0.018444883            1 
 2886000   0.78482217   -7.9667367    654.70863  0.018904731   0.01843898            3 
 2887000     0.797359   -7.9682317    654.07001  0.018879748  0.018433092            4 
 2888000   0.79476278   -7.9317203    655.71048  0.018920547  0.018427198            1 
 2889000   0.78568752   -7.9009755    654.38167  0.018875668  0.018421366            2 
 2890000   0.77684209   -7.9500162    653.76195  0.018851267   0.01841556            2 
 2891000   0.78835892   -7.9016067    655.08289  0.018882823   0.01840972            2 
 2892000   0.80292637   -7.9363102    654.84432  0.018869419  0.018403925            1 
 2893000   0.80741855   -7.9338817    655.65816   0.01888634  0.018398116            3 
 2894000   0.80047878   -7.9223177    655.22802  0.018867428   0.01839232            3 
 2895000   0.79768581   -7.9242623    654.24355  0.018832572  0.018386534            1 
 2896000   0.79181267   -7.9180917    656.22099   0.01888297  0.018380745            2 
 2897000   0.78184173    -7.952298    655.71692  0.018861953  0.018374932            1 
 2898000   0.78587755    -7.966356    654.18361  0.018811353  0.018369111            4 
 2899000   0.79100945   -7.9384075    656.30014  0.018865705  0.018363285            2 
 2900000   0.76953843   -7.9532184    657.15355  0.018883723  0.018357466            3 
 2901000   0.78561456   -7.9143999     656.5528  0.018859956  0.018351661            1 
 2902000   0.78606127    -7.939756    656.54554  0.018853249  0.018345853            2 
 2903000    0.7854863   -7.9161101     656.2201  0.018837412   0.01834007            2 
 2904000   0.77627283   -7.9286391     656.5865   0.01884144  0.018334281            5 
 2905000   0.78729036   -7.9421829    654.61662  0.018778446  0.018328478            1 
 2906000   0.80881739   -7.9575292    654.77049  0.018776396  0.018322654            4 
 2907000   0.77162703   -7.9231239    656.03718  0.018806249  0.018316831            2 
 2908000   0.76904575   -7.9581362    653.31768   0.01872185  0.018310992            1 
 2909000   0.78654952   -7.9369411    655.90327  0.018789483  0.018305151            2 
 2910000   0.79123823   -7.9527011    655.22345  0.018763558  0.018299304            6 
 2911000   0.78758289   -7.9507136    654.52561  0.018737135  0.018293478            3 
 2912000   0.78309982   -7.9547763    656.60445  0.018790192  0.018287675            2 
 2913000   0.78255756   -7.9223263    655.68307  0.018757383  0.018281891            2 
 2914000   0.77157104   -7.9114992    657.45334  0.018801571  0.018276125            2 
 2915000   0.78258443   -7.9255812    655.99724  0.018753495   0.01827036            5 
 2916000   0.78238313   -7.9057945    656.72535  0.018767871  0.018264609            3 
 2917000   0.78265211   -7.9245185    654.51807  0.018698379  0.018258825            4 
 2918000   0.79790839    -7.958252    655.04692  0.018707074  0.018253029            2 
 2919000   0.76348074   -7.9555724    655.55257  0.018715101  0.018247208            3 
 2920000   0.79045805   -7.9660684    656.69847  0.018741395   0.01824142            3 
 2921000   0.78127699   -7.9279653    656.59205  0.018731943  0.018235578            2 
 2922000   0.77948258   -7.9718487    655.49397  0.018694215  0.018229735            2 
 2923000   0.80648207   -7.9795191    655.36425  0.018684122  0.018223886            2 
 2924000   0.76706158   -7.9433979    653.47381  0.018623855  0.018218044            1 
 2925000   0.79518909   -7.9352865    655.73907  0.018682025   0.01821221            4 
 2926000   0.78647995   -7.9415146    655.02458  0.018655291   0.01820637            2 
 2927000   0.77297672   -7.9431604    654.58501  0.018636403  0.018200535            3 
 2928000   0.77694442   -7.9350569    656.75503  0.018691798  0.018194702            5 
 2929000   0.78587226   -7.9198314     657.4272  0.018704541    0.0181889            4 
 2930000   0.79228754    -7.956258    655.73821   0.01865012  0.018183093            2 
 2931000   0.78157532   -7.9252107    656.75504  0.018672667  0.018177279            3 
 2932000    0.7874197   -7.9702042    656.56806  0.018660984  0.018171456            2 
 2933000    0.7716081   -7.9696033    656.14571  0.018642621  0.018165615            1 
 2934000   0.80927316   -7.9817693    654.96488  0.018602729  0.018159747            5 
 2935000   0.78342082   -7.9443249    656.35438  0.018635843  0.018153923            6 
 2936000    0.7700309   -7.9793309    656.43223  0.018631705    0.0181481            2 
 2937000   0.76723997   -7.9564681    656.92258  0.018639274  0.018142265            1 
 2938000   0.76055672   -7.9724348    656.75933    0.0186283   0.01813643            2 
 2939000   0.77966611   -7.9521081    658.29141  0.018665402  0.018130612            3 
 2940000   0.77670428   -7.9434766      658.082  0.018653118  0.018124819            1 
 2941000   0.78070076   -7.9740386    656.23396  0.018594411  0.018118999            3 
 2942000   0.78685873   -7.9543193    656.97495   0.01860908  0.018113194            2 
 2943000    0.7859743    -7.971948    657.06762  0.018605381  0.018107408            3 
 2944000   0.78339128   -7.9487002    655.58841   0.01855719  0.018101585            1 
 2945000   0.77240378   -7.9846857     656.9284  0.018588806  0.018095775            1 
 2946000   0.76232573   -7.9867691    656.66661  0.018575091  0.018089949            1 
 2947000   0.78444343   -7.9745906    657.02531  0.018578931  0.018084119            2 
 2948000   0.78303768   -7.9742456    655.77698  0.018537341  0.018078322            3 
 2949000   0.78841569   -8.0036315    654.93699  0.018507319    0.0180725            4 
 2950000   0.77450025   -7.9871297    655.87441  0.018527526  0.018066656            2 
 2951000   0.77783063   -7.9764172    655.76158  0.018518061  0.018060802            3 
 2952000   0.77684242   -7.9697261    657.67231  0.018565727  0.018054974            1 
 2953000    0.7792772    -7.948954    655.59166  0.018500724  0.018049169            2 
 2954000   0.78458609    -7.961815    655.99378  0.018505805  0.018043387            2 
 2955000   0.78136984   -7.9671453     655.4188  0.018483328  0.018037604            3 
 2956000   0.78008546   -7.9624727    656.61678  0.018510847  0.018031827            4 
 2957000   0.78927676   -7.9703919     655.5363  0.018474138   0.01802603            3 
 2958000   0.78918203    -7.987327    656.85242   0.01850497  0.018020225            1 
 2959000   0.76578541   -7.9656142    656.98761  0.018502524  0.018014438            3 
 2960000   0.77393967   -7.9784138    656.52611   0.01848328  0.018008631            2 
 2961000   0.76815562   -7.9498825     656.1689  0.018466985   0.01800283            3 
 2962000   0.75513578   -7.9403269    657.39797  0.018495329  0.017997036            6 
 2963000   0.78826182   -7.9448021    655.58151  0.018437999  0.017991275            2 
 2964000   0.78208782    -7.928692    657.08545  0.018474062  0.017985497            2 
 2965000   0.77103459   -7.9744659    656.71009  0.018457282  0.017979679            1 
 2966000   0.77111853   -7.9882703    658.19233  0.018492704  0.017973855            3 
 2967000   0.80056431   -7.9784444    656.60237  0.018441815  0.017968018            2 
 2968000   0.80735147   -7.9649038    657.04728  0.018448093  0.017962222            2 
 2969000   0.76640199   -7.9550396    657.69878  0.018460166  0.017956465            2 
 2970000   0.76804955     -7.94062    657.56411  0.018450171  0.017950685            3 
 2971000   0.77122427   -7.9449073    656.88281  0.018424852  0.017944905            2 
 2972000   0.76299665   -7.9611074    656.63367  0.018411666   0.01793912            1 
 2973000   0.78854406   -7.9913113    655.70927  0.018379563  0.017933345            1 
 2974000   0.76881365   -7.9241784    658.84403   0.01846122  0.017927559            2 
 2975000   0.78457295   -7.9498395    657.39353  0.018414384   0.01792181            4 
 2976000   0.78320088   -7.9533028    657.75633  0.018418356  0.017916063            2 
 2977000    0.7835538    -7.976546    657.63449  0.018408759  0.017910296            2 
 2978000   0.77577697   -7.9316868     658.5627  0.018428551  0.017904513            3 
 2979000   0.77323586     -7.97087    657.63691  0.018396467  0.017898757            1 
 2980000   0.77030939   -7.9502986    658.89168  0.018425383  0.017893003            2 
 2981000    0.7820706   -7.9566141    658.03229  0.018395178  0.017887249            1 
 2982000   0.77406006   -7.9570115     659.2557  0.018423197  0.017881495            3 
 2983000   0.77979724   -7.9831887    656.82399  0.018349089  0.017875749            6 
 2984000   0.77524376    -7.955982    658.25122  0.018382798  0.017869995            3 
 2985000   0.77504225    -7.933926    658.20048  0.018375223  0.017864256            4 
 2986000   0.78325004   -7.9690445    657.61325  0.018352681  0.017858533            1 
 2987000   0.77650837   -7.9493498    658.45731  0.018370085  0.017852803            4 
 2988000   0.78622827   -7.9759229    657.77891  0.018345016  0.017847079            2 
 2989000   0.76898771   -7.9667134    658.82833  0.018368137  0.017841342            2 
 2990000   0.77124561    -7.943603    657.31075  0.018319698  0.017835621            1 
 2991000   0.78970136   -7.9897385     658.4844  0.018346272   0.01782989            1 
 2992000   0.78610372   -7.9643934    657.04869  0.018300153  0.017824166            3 
 2993000   0.76767238   -7.9737535    657.99698  0.018320442  0.017818442            2 
 2994000   0.77993952   -7.9866879    658.59382  0.018330935  0.017812709            3 
 2995000   0.75325641   -7.9589338    658.09864  0.018311036   0.01780694            2 
 2996000   0.75747058   -7.9877534    658.31071  0.018310823  0.017801208            2 
 2997000   0.77717081   -7.9493241     658.6185  0.018313272   0.01779546            2 
 2998000   0.76399797   -7.9519606    657.67397  0.018280909  0.017789736            2 
 2999000   0.77961442   -7.9864181    658.36904  0.018294127  0.017784001            3 
 3000000   0.76727009   -7.9742917     660.1005  0.018336125  0.017778279            3 
 3001000    0.7650157   -8.0024388     657.2787  0.018251658  0.017772513            1 
 3002000   0.76387478   -7.9806488    656.68353  0.018229056  0.017766756            1 
 3003000   0.76852788   -7.9803275    659.22486  0.018293508  0.017760996            3 
 3004000   0.76800478   -8.0025943    658.85162  0.018277065  0.017755223            2 
 3005000   0.77444963   -8.0008932    657.99685  0.018247278  0.017749491            2 
 3006000   0.76351612   -7.9914555    658.78587  0.018263081  0.017743737            2 
 3007000   0.77003988   -7.9682493    657.94137  0.018233604  0.017738003            1 
 3008000   0.77446335   -7.9942627    658.07636  0.018231282  0.017732272            2 
 3009000   0.77658898   -7.9693941    657.94067  0.018221465  0.017726527            3 
 3010000   0.77899151   -7.9855089    658.18197  0.018222092  0.017720785            2 
 3011000   0.78034315   -7.9913911    657.88374  0.018207787  0.017715055            1 
 3012000   0.78221144    -7.975139    658.08359  0.018207271  0.017709318            1 
 3013000   0.77266316   -7.9790267    656.79319  0.018165538  0.017703585            2 
 3014000   0.75622599   -7.9937319    657.04298  0.018166417  0.017697853            4 
 3015000   0.75769877   -7.9910734    657.67103  0.018177751  0.017692103            1 
 3016000   0.75698707   -7.9746587    658.64679  0.018198684  0.017686351            2 
 3017000   0.76569162   -7.9778891    657.92535  0.018172725  0.017680626            1 
 3018000   0.75652005   -8.0091612    657.67854  0.018159889  0.017674884            3 
 3019000   0.76351918   -7.9786631    658.80169  0.018184876  0.017669168            4 
 3020000   0.77187526   -7.9723233    658.90701  0.018181761  0.017663454            2 
 3021000    0.7531799   -8.0024499    657.42723  0.018134923  0.017657757            2 
 3022000    0.7707063   -8.0013414    658.92293  0.018170167   0.01765205            1 
 3023000   0.76242169   -8.0026618    658.90657  0.018163705  0.017646363            2 
 3024000   0.74870652   -7.9835773    660.10263  0.018190659  0.017640657            2 
 3025000   0.76159296   -7.9934577    658.31762  0.018135472  0.017634965            2 
 3026000   0.79611695   -7.9932096    659.26443  0.018155553  0.017629261            2 
 3027000   0.77075441   -7.9900844    660.17538  0.018174633   0.01762356            3 
 3028000   0.75850222   -8.0048383    658.09458  0.018111365  0.017617832            3 
 3029000   0.78500126   -8.0007022    658.52514  0.018117232   0.01761212            1 
 3030000   0.76527202   -8.0058847    658.72934  0.018116869  0.017606404            1 
 3031000   0.75805488   -8.0202466    658.34994   0.01810046  0.017600668            2 
 3032000   0.77085729   -7.9950391    658.59394  0.018101197  0.017594944            2 
 3033000   0.76138659     -8.00436    659.03555  0.018107362  0.017589222            3 
 3034000   0.77264406   -8.0344252    657.91837  0.018070709  0.017583483            4 
 3035000   0.75612366   -8.0231939    658.83511  0.018089926  0.017577729            2 
 3036000   0.76770396   -8.0012213    657.81656   0.01805601  0.017571994            3 
 3037000   0.77250237   -8.0043114    658.55589  0.018070351  0.017566282            4 
 3038000   0.76890483   -8.0067455    659.96131  0.018102955  0.017560574            5 
 3039000   0.75902973   -7.9821198    659.37057  0.018080799  0.017554865            3 
 3040000   0.76804384   -7.9986459     658.4936  0.018050811  0.017549165            2 
 3041000   0.74522827   -8.0016716    658.61502  0.018048203  0.017543433            2 
 3042000   0.74557989   -8.0134477    657.18074  0.018002979   0.01753768            3 
 3043000   0.76904648   -8.0024017    659.07745  0.018049005  0.017531935            5 
 3044000   0.76323416    -8.012362    657.75699  0.018006926  0.017526191            2 
 3045000    0.7720121   -7.9721175    659.04667  0.018036307  0.017520493            2 
 3046000   0.74732902   -8.0062334    658.16335   0.01800622  0.017514769            2 
 3047000   0.74779505   -7.9977451    658.38165  0.018006281  0.017509067            2 
 3048000   0.75781582    -7.986734    659.18002  0.018022201  0.017503355            3 
 3049000   0.76522298   -8.0192944    658.64055  0.018001546  0.017497633            3 
 3050000   0.76704653   -8.0022735    660.55411  0.018047926  0.017491921            2 
 3051000    0.7694039     -8.00248    658.50289  0.017985985  0.017486181            3 
 3052000   0.75588626   -8.0211106    658.77977  0.017987652  0.017480431            2 
 3053000   0.74688929   -8.0139831    657.90211  0.017957804  0.017474678            2 
 3054000   0.76669058   -8.0131032    657.90188  0.017951918  0.017468937            2 
 3055000   0.76823228   -8.0185384    658.16371  0.017953184  0.017463197            2 
 3056000   0.75516291   -8.0038377    659.66346  0.017988205  0.017457456            1 
 3057000   0.75146204   -8.0023484    657.80977   0.01793179  0.017451705            2 
 3058000   0.75975591   -7.9979355    657.78631  0.017925286  0.017445961            4 
 3059000   0.75640685   -8.0084939    658.27695  0.017932793  0.017440204            3 
 3060000   0.76639381   -8.0042428    657.09389  0.017894714  0.017434458            3 
 3061000   0.77734906   -8.0325383    657.17023  0.017890946  0.017428695            3 
 3062000   0.74982481   -8.0258783    657.38101  0.017890839  0.017422959            2 
 3063000   0.78141058   -8.0379605     657.9744  0.017901143  0.017417197            3 
 3064000   0.75718816   -8.0435256    658.29891  0.017904126  0.017411457            1 
 3065000   0.75331426   -8.0124464    657.59754  0.017879215   0.01740572            2 
 3066000   0.76482403   -8.0070064    660.04111    0.0179398  0.017400001            1 
 3067000   0.76474216    -8.047087    656.78017  0.017845347  0.017394251            2 
 3068000   0.75983194    -8.012296    657.07003  0.017847404    0.0173885            1 
 3069000   0.76444264    -8.035949    658.45307  0.017879143  0.017382747            3 
 3070000   0.75722372   -8.0349772    657.94882  0.017859631  0.017376974            3 
 3071000    0.7538847   -8.0242897    658.74489  0.017875418  0.017371241            3 
 3072000   0.76341258   -8.0159251    657.87396  0.017845973  0.017365491            3 
 3073000   0.75609739   -8.0147784    657.38507  0.017826908  0.017359746            2 
 3074000    0.7608255   -8.0097487    658.88618  0.017861803  0.017354015            2 
 3075000   0.76777231   -8.0190325    658.35413  0.017841575  0.017348288            3 
 3076000   0.76327958   -8.0240473    659.44771  0.017865402  0.017342567            2 
 3077000   0.77733687   -8.0364958    657.67872  0.017811687  0.017336857            3 
 3078000   0.75297121   -8.0276426    659.15676  0.017845916  0.017331146            2 
 3079000   0.75072484    -8.010699    659.06159  0.017837544  0.017325443            3 
 3080000   0.75417072    -8.011462    658.14498  0.017806953  0.017319724            2 
 3081000   0.75407731   -7.9999882    660.02694  0.017852076   0.01731402            1 
 3082000    0.7527602   -8.0071094    659.46652   0.01783113  0.017308315            1 
 3083000    0.7620468   -8.0343181    659.19752  0.017818075  0.017302635            1 
 3084000   0.75857264   -8.0188015    659.95645  0.017832805  0.017296928            5 
 3085000   0.74271697   -8.0301373    659.15261  0.017805311  0.017291237            3 
 3086000   0.76386652   -8.0396504    660.03967  0.017823495  0.017285556            2 
 3087000    0.7494474    -8.025677    658.75362  0.017783005  0.017279877            2 
 3088000    0.7600848   -8.0106148    659.41036  0.017794969  0.017274209            2 
 3089000   0.77174512   -7.9980653    660.27179  0.017812447  0.017268566            3 
 3090000    0.7492687   -8.0244965    658.86891  0.017768849  0.017262943            3 
 3091000   0.74663821   -8.0140446    660.08888  0.017795991  0.017257303            1 
 3092000    0.7718755   -8.0184931    658.83671  0.017756488  0.017251626            2 
 3093000   0.74293074   -7.9789991    660.67411  0.017800251  0.017245968            2 
 3094000   0.74557075   -7.9888407    659.04989  0.017750751  0.017240336            2 
 3095000   0.76003416   -7.9818856    660.08192  0.017772803  0.017234703            2 
 3096000   0.74703637   -8.0121072    660.37652  0.017774992  0.017229087            3 
 3097000   0.75731282   -8.0164704     660.1025   0.01776188  0.017223453            2 
 3098000    0.7632869   -7.9683356    661.44611  0.017792288  0.017217847            3 
 3099000   0.76735789   -8.0056038    660.13939  0.017751409  0.017212233            2 
 3100000      0.75013   -8.0086971    659.77031  0.017735761  0.017206591            2 
 3101000    0.7607954   -8.0008863    660.98316  0.017762635  0.017200956            4 
 3102000   0.74933797   -8.0117798    660.05035  0.017731849  0.017195316            2 
 3103000    0.7590832   -8.0265559    660.12527  0.017728147  0.017189666            2 
 3104000   0.76727134   -8.0131117    660.96599  0.017745006  0.017184045            3 
 3105000    0.7514729   -8.0364323    660.28727  0.017721076  0.017178402            3 
 3106000   0.75759598   -8.0549831    657.89057  0.017651067  0.017172733            5 
 3107000   0.74432831   -8.0173978    659.94981  0.017700617  0.017167054            2 
 3108000    0.7483513   -8.0558044    660.76896  0.017716885  0.017161388            3 
 3109000   0.74138652   -8.0348679    659.52252  0.017677777  0.017155743            2 
 3110000   0.75562902   -8.0404021    659.61287  0.017674514  0.017150088            3 
 3111000   0.76295471    -8.041186    660.81396  0.017701006  0.017144441            3 
 3112000    0.7495367   -8.0490777     659.5838  0.017662377  0.017138809            3 
 3113000   0.78366615   -8.0204121    660.51535   0.01768164  0.017133181            4 
 3114000   0.76331817    -8.031103    661.31608   0.01769739  0.017127542            2 
 3115000   0.74863233   -8.0363952    660.75184  0.017676614  0.017121919            5 
 3116000   0.75358203   -8.0365479    660.78894  0.017671934  0.017116281            1 
 3117000   0.75549031   -8.0292526    660.81123   0.01766686  0.017110634            3 
 3118000   0.76309786   -8.0108853    660.78177  0.017660407   0.01710499            2 
 3119000    0.7330166   -8.0112092     661.9816  0.017686801  0.017099373            1 
 3120000   0.76051503   -8.0224243    660.13934  0.017631927  0.017093764            2 
 3121000   0.76438853   -8.0311003     660.4981  0.017635857   0.01708813            3 
 3122000   0.77444132   -8.0269374     661.3528  0.017653021  0.017082517            3 
 3123000   0.75621308   -8.0338673    659.16678  0.017589038  0.017076897            3 
 3124000   0.75701642   -8.0427611    660.94259  0.017630778  0.017071258            2 
 3125000   0.76190219   -8.0391496    659.23855  0.017579695  0.017065634            1 
 3126000   0.74548232   -8.0177313     660.7441  0.017614206  0.017060012            6 
 3127000    0.7568537   -8.0166242     660.7848  0.017609658  0.017054394            2 
 3128000   0.75338681   -8.0022884    659.78549  0.017577405  0.017048779            2 
 3129000   0.72728786   -8.0280288    660.91957  0.017601991  0.017043165            3 
 3130000   0.74292898   -8.0518063    660.78869  0.017592883   0.01703757            2 
 3131000   0.75513513   -8.0221748    660.83675  0.017588543  0.017031947            2 
 3132000   0.74774674   -8.0046536    661.77623  0.017607924  0.017026349            2 
 3133000   0.74316141   -8.0182161    661.55307  0.017596369  0.017020754            2 
 3134000   0.76149264   -8.0425617    661.34751  0.017585288  0.017015159            2 
 3135000   0.74961958   -8.0189636    659.74587  0.017537105  0.017009552            3 
 3136000   0.74737552   -8.0410182     661.5193  0.017578638  0.017003958            2 
 3137000   0.76564068   -8.0399681    661.66299  0.017576851  0.016998382            2 
 3138000   0.76435601   -8.0245825    661.37194  0.017563521  0.016992835            1 
 3139000   0.74112762   -8.0138891    661.81351  0.017569648  0.016987268            4 
 3140000     0.736772   -8.0235091    660.81282  0.017537495  0.016981689            1 
 3141000   0.75213984   -8.0346914    661.13514  0.017540463  0.016976126            3 
 3142000   0.74791013   -8.0475896    660.65094  0.017522038  0.016970538            1 
 3143000   0.74524015   -8.0501142    660.63074  0.017515928  0.016964945            5 
 3144000    0.7482625   -8.0435279    662.54731  0.017561156  0.016959355            2 
 3145000   0.73062089   -8.0326539    662.06652  0.017542833  0.016953785            4 
 3146000   0.73816294   -8.0529169    661.34399  0.017518118  0.016948221            3 
 3147000   0.74588961   -8.0409973    662.20879  0.017535452  0.016942661            2 
 3148000   0.74034214   -8.0537979    660.92132  0.017495799   0.01693709            2 
 3149000   0.76476716     -8.04853    659.74175  0.017459028  0.016931535            4 
 3150000   0.74770384   -8.0202319    660.63708  0.017477171  0.016926008            1 
 3151000    0.7310169   -8.0579632    661.05068  0.017482563  0.016920462            4 
 3152000   0.75024073   -8.0508463    662.01766  0.017502582  0.016914909            3 
 3153000   0.74897723   -8.0457249    660.97966  0.017469597  0.016909387            2 
 3154000   0.74187319   -8.0380265    661.72491  0.017483748  0.016903847            4 
 3155000   0.74235093   -8.0425315    661.30405  0.017467091  0.016898309            1 
 3156000   0.75560055    -8.048993    661.89727   0.01747722  0.016892749            2 
 3157000   0.74238928   -8.0340395    660.77818  0.017442144  0.016887196            3 
 3158000   0.75391784   -8.0452959    661.27289  0.017449675  0.016881667            4 
 3159000   0.73603549   -8.0665373    660.24822  0.017417121  0.016876117            4 
 3160000   0.73943857   -8.0573446    660.12393  0.017408331   0.01687058            2 
 3161000   0.73871261   -8.0232371    661.42343  0.017437083  0.016865052            2 
 3162000   0.73900982   -8.0131048    663.42035  0.017484196  0.016859557            1 
 3163000   0.74454847    -8.030877    661.16902  0.017419355  0.016854031            2 
 3164000    0.7425363     -8.06688    662.19582  0.017440893  0.016848487            2 
 3165000   0.73552234   -8.0565237    662.26919  0.017437314  0.016842953            1 
 3166000   0.73594059   -8.0445612    661.54663  0.017412788  0.016837425            1 
 3167000   0.73506227   -8.0346793    662.49682  0.017432292  0.016831925            1 
 3168000   0.74918446   -8.0600849    664.13018  0.017469754  0.016826404            2 
 3169000   0.75247924   -8.0454656    661.77212  0.017402233  0.016820889            4 
 3170000   0.73877436   -8.0844323    660.91065  0.017374097  0.016815362            2 
 3171000   0.73165408   -8.0543548    661.41398  0.017381845  0.016809829            2 
 3172000   0.75366351   -8.0631635    659.53598  0.017327028  0.016804306            2 
 3173000   0.74885258   -8.0674654    661.85127  0.017382374  0.016798775            2 
 3174000   0.74906956   -8.0612164    662.22591  0.017386734  0.016793264            1 
 3175000   0.73243822   -8.0489612    662.74404  0.017394857  0.016787767            1 
 3176000   0.75533849   -8.0525986    661.27061  0.017350719  0.016782246            5 
 3177000   0.74344382   -8.0901615    662.02972  0.017365169  0.016776741            2 
 3178000   0.74922867   -8.0508452    662.21789  0.017364639  0.016771237            4 
 3179000   0.75477702   -8.0668437    662.35773  0.017362843  0.016765727            2 
 3180000   0.73421874   -8.0390022    662.77452  0.017368305  0.016760229            3 
 3181000   0.74634136   -8.0463674    663.54777  0.017383102   0.01675474            4 
 3182000   0.72850745   -8.0529426     662.1521  0.017341088  0.016749266            2 
 3183000   0.74689473   -8.0505094    663.40064  0.017368328  0.016743779            3 
 3184000   0.73408744   -8.0644979    661.06894  0.017301846  0.016738291            2 
 3185000   0.74931172   -8.0455168    660.70264   0.01728683  0.016732809            1 
 3186000   0.75260812   -8.0395037     662.5972  0.017330958  0.016727332            2 
 3187000   0.75353293   -8.0763455    662.21164  0.017315439  0.016721856            2 
 3188000   0.73621992   -8.0684484    662.50493  0.017317674  0.016716345            2 
 3189000   0.75279138   -8.0716212    663.83361  0.017346964  0.016710853            4 
 3190000   0.73279355   -8.0496759    662.14727  0.017297473  0.016705374            3 
 3191000   0.75466595   -8.0467609    662.70036  0.017306496  0.016699902            2 
 3192000   0.73689211   -8.0395075    661.03084  0.017257489  0.016694414            2 
 3193000   0.74009797   -8.0835702    662.91958  0.017301378  0.016688933            4 
 3194000   0.73557972    -8.071905    661.70226    0.0172642  0.016683442            4 
 3195000   0.74448708    -8.086215    662.71954   0.01728533  0.016677972            2 
 3196000   0.74814226   -8.0799147    662.64249  0.017277912  0.016672483            2 
 3197000   0.73692143   -8.0751911    662.88019  0.017278704  0.016666994            2 
 3198000   0.73368369   -8.0526965    663.43186  0.017287676  0.016661507            5 
 3199000   0.73510986   -8.0479287    664.17374  0.017301598  0.016656036            1 
 3200000   0.73760864   -8.0665744    664.26945  0.017298684  0.016650573            2 
 3201000   0.73227321   -8.0399419    663.45983  0.017272202  0.016645113            4 
 3202000   0.73118546   -8.0472847    663.99631   0.01728077  0.016639673            2 
 3203000    0.7547204    -8.015921    662.71394  0.017242011  0.016634235            2 
 3204000   0.73948124   -8.0466037    664.13886  0.017273691  0.016628789            2 
 3205000   0.74568864   -8.0450823     662.5116  0.017225991  0.016623355            5 
 3206000   0.76144367   -8.0686837    663.84353  0.017255238   0.01661793            2 
 3207000   0.73994013   -8.0311762    664.03704  0.017254886  0.016612509            1 
 3208000   0.73688183   -8.0543084     664.3979  0.017258882  0.016607077            2 
 3209000   0.71698903   -8.0563303    664.16597   0.01724748  0.016601639            2 
 3210000   0.73105522   -8.0674994     663.1144  0.017214808  0.016596198            2 
 3211000   0.74361982   -8.0672581    663.60648  0.017222217  0.016590749            2 
 3212000   0.73343289   -8.0501411    664.78702  0.017247484  0.016585324            2 
 3213000   0.76288747   -8.0940546    662.92694  0.017193872  0.016579896            4 
 3214000   0.73129365   -8.0442949    663.96373  0.017215405  0.016574481            2 
 3215000   0.73237013   -8.0601437    664.51487  0.017224336  0.016569064            2 
 3216000   0.74519687   -8.0683954    665.05523  0.017232982  0.016563652            2 
 3217000   0.72869357   -8.0864274    661.48949  0.017135258  0.016558221            3 
 3218000   0.73955192   -8.0856468    663.26032   0.01717579  0.016552766            2 
 3219000    0.7306157   -8.0788087    661.93077  0.017136035  0.016547337            3 
 3220000   0.73824339   -8.0678036    663.77161  0.017178354  0.016541877            2 
 3221000   0.72157908   -8.0752647    662.52609  0.017140797  0.016536413            3 
 3222000   0.73276875    -8.062872    661.92712  0.017119985  0.016530952            3 
 3223000   0.74317512   -8.0781354    662.70459  0.017134776  0.016525488            2 
 3224000   0.72376702   -8.1021458    662.87554   0.01713388   0.01652003            1 
 3225000   0.71392209   -8.0736227    663.27997  0.017139017  0.016514582            1 
 3226000   0.74799232   -8.0629641    663.59515  0.017141846   0.01650914            3 
 3227000   0.73792454   -8.0511642    662.77952  0.017115472  0.016503701            2 
 3228000   0.74374856   -8.0769422    662.39531  0.017100251  0.016498283            2 
 3229000   0.73097893   -8.0867747    662.84043  0.017106442   0.01649285            2 
 3230000    0.7384736   -8.0640757    663.23285  0.017111271  0.016487421            2 
 3231000   0.74075907   -8.0487608     664.3181  0.017133965  0.016482004            3 
 3232000    0.7366936    -8.077209    663.01926  0.017095175  0.016476576            5 
 3233000   0.72143908   -8.0789501    663.31022  0.017097387   0.01647116            2 
 3234000   0.73105081   -8.0549741     662.7991   0.01707893  0.016465731            2 
 3235000   0.73896853   -8.0726954    662.95236  0.017077598  0.016460298            2 
 3236000   0.73176724   -8.1240255    663.79777  0.017094092  0.016454849            1 
 3237000   0.72973897   -8.1057893     662.6849  0.017060161  0.016449414            4 
 3238000   0.73602265    -8.099853    661.90702  0.017034873  0.016443972            8 
 3239000   0.73381601   -8.1021623    662.37967  0.017041774  0.016438526            4 
 3240000   0.71885687   -8.0787936    662.77028  0.017046561  0.016433073            4 
 3241000   0.75095902   -8.0910126    663.62212  0.017063204  0.016427612            5 
 3242000   0.74223483   -8.1299521    661.91195  0.017013982  0.016422154            2 
 3243000   0.72858693   -8.1018463    661.45816  0.016997075   0.01641671            1 
 3244000   0.73116604   -8.1141168    663.58026  0.017046349  0.016411264            4 
 3245000   0.72824266    -8.105373    662.41775  0.017011242  0.016405825            3 
 3246000   0.73091507   -8.0500667    664.97082  0.017071545  0.016400399            1 
 3247000   0.72946866   -8.0784223    663.88076  0.017038311  0.016394995            3 
 3248000   0.74156717   -8.0732778    664.67575  0.017053462  0.016389586            3 
 3249000    0.7089994   -8.0994533    663.18194  0.017009899  0.016384178            4 
 3250000   0.75753725   -8.0897947    664.01517   0.01702603   0.01637876            1 
 3251000   0.72835944   -8.0916474    664.40991  0.017030911  0.016373324            3 
 3252000   0.73929581   -8.0927358    663.83562  0.017010958  0.016367903            1 
 3253000    0.7459147   -8.0862813    664.85821  0.017031925  0.016362485            2 
 3254000   0.72526163   -8.0592088    665.07196  0.017032165  0.016357084            2 
 3255000   0.74277242     -8.10084    663.80552  0.016994509  0.016351673            4 
 3256000   0.71362507   -8.0920203    663.61481  0.016984409  0.016346267            2 
 3257000   0.74320752   -8.0606479    663.90243  0.016986553  0.016340866            1 
 3258000   0.72583494    -8.093056    662.23295  0.016938637  0.016335452            4 
 3259000   0.72734952   -8.0939245    663.17198  0.016957451  0.016330036            4 
 3260000   0.73587785   -8.1031628    662.33576  0.016930873  0.016324626            3 
 3261000   0.71999911    -8.109087      664.175  0.016972682  0.016319214            2 
 3262000   0.72217483    -8.104154    662.21533  0.016917416   0.01631379            1 
 3263000   0.72217249   -8.1156497     663.8149  0.016953082  0.016308365            1 
 3264000   0.73012474   -8.0884095    664.41471  0.016963202  0.016302965            3 
 3265000   0.72617717   -8.0866103    663.19101  0.016926774  0.016297583            2 
 3266000   0.73043756   -8.0825085    665.13963  0.016971311  0.016292209            3 
 3267000   0.72398695   -8.0994063    663.27926  0.016918663  0.016286848            3 
 3268000   0.71286625   -8.0957363    663.67341  0.016923537  0.016281488            1 
 3269000   0.73227024   -8.0851548    664.69643  0.016944438  0.016276142            2 
 3270000   0.71712308   -8.0923337    663.22974  0.016901879  0.016270766            3 
 3271000   0.72486315   -8.1130703    663.90785  0.016913988   0.01626539            2 
 3272000    0.7225693   -8.0842746    664.43572  0.016922263   0.01626002            1 
 3273000   0.71667985    -8.117765    663.30337  0.016888262  0.016254651            2 
 3274000   0.70862864   -8.0948201    663.07494  0.016877289  0.016249286            2 
 3275000   0.71962651   -8.0821373    664.38188  0.016905391    0.0162439            3 
 3276000    0.7201554   -8.1018695    663.81865  0.016885904  0.016238536            2 
 3277000   0.73451444   -8.1283046    663.00882  0.016860157  0.016233174            4 
 3278000   0.74000775   -8.0961303    663.85708  0.016876578  0.016227818            1 
 3279000   0.73414632   -8.0967649    664.23815  0.016881116  0.016222466            2 
 3280000   0.73329969   -8.0879438    664.54246  0.016883701  0.016217113            2 
 3281000   0.72103931   -8.1250651    661.71429  0.016806723  0.016211748            4 
 3282000   0.71650015   -8.1198198    663.53036  0.016847714  0.016206369            2 
 3283000   0.72473525   -8.1110678    665.53852  0.016893556   0.01620102            4 
 3284000   0.73514259   -8.0865341    663.75379  0.016843123  0.016195684            3 
 3285000   0.73286083   -8.0932801    663.66635  0.016835777  0.016190349            2 
 3286000   0.72895247   -8.1034032    664.27641  0.016846125  0.016185012            4 
 3287000   0.71443492   -8.1167662    664.23512  0.016839953  0.016179684            7 
 3288000   0.72875721   -8.0863405    664.84099  0.016850187  0.016174366            2 
 3289000   0.73841784   -8.1174064    664.02175  0.016824307  0.016169032            3 
 3290000   0.71840433   -8.1179735    664.68221  0.016835922  0.016163675            1 
 3291000      0.72816   -8.1002874     665.5653  0.016853168  0.016158331            3 
 3292000   0.72516388   -8.1055913    664.76036  0.016827672  0.016153008            1 
 3293000   0.73987554   -8.1082009    665.70576  0.016846487  0.016147695            2 
 3294000   0.73147398   -8.1225883    664.82087  0.016818986  0.016142373            1 
 3295000    0.7185637   -8.1148168    663.76724  0.016787234  0.016137046            2 
 3296000   0.70698838   -8.1319886    663.31407  0.016770683  0.016131706            2 
 3297000   0.73413611   -8.1049891    663.84218  0.016778945  0.016126385            2 
 3298000   0.72448693   -8.1216495    663.42428  0.016763298  0.016121058            3 
 3299000   0.73227974   -8.1079151    664.38375  0.016782453  0.016115727            2 
 3300000   0.73800639   -8.1252838    664.10605  0.016770355  0.016110405            2 
 3301000   0.73613035   -8.1437378    664.18424  0.016767248  0.016105072            1 
 3302000   0.71301231   -8.1019023     663.6995  0.016749937  0.016099736            2 
 3303000   0.70289678   -8.1235119    663.58985  0.016742099  0.016094407            4 
 3304000   0.72970792   -8.1191487    663.63154  0.016738084   0.01608906            2 
 3305000   0.72943774   -8.0740824    664.17459  0.016746712  0.016083733            5 
 3306000   0.70935966   -8.1080078    664.37074  0.016746591  0.016078406            2 
 3307000   0.71745724   -8.1244815    664.12137  0.016735243  0.016073069            4 
 3308000   0.73238145   -8.1221104     664.9074  0.016749985  0.016067732            2 
 3309000   0.71855894   -8.1218142     664.5117  0.016734958  0.016062412            1 
 3310000   0.69940953   -8.1141767    664.15394  0.016720895  0.016057096            2 
 3311000   0.72338903    -8.078327     665.2771  0.016744113  0.016051776            2 
 3312000    0.7233093      -8.1175     664.1992  0.016711936  0.016046476            2 
 3313000   0.72001117    -8.086292    664.23236  0.016707726  0.016041156            2 
 3314000    0.7376556   -8.1190419    663.78978  0.016691555   0.01603583            4 
 3315000     0.718664   -8.1053152    664.86228  0.016713481  0.016030505            4 
 3316000   0.72706007   -8.1059777    664.39235  0.016696631  0.016025176            2 
 3317000    0.7056866   -8.1319915    664.29388  0.016689124  0.016019849            4 
 3318000   0.72932149    -8.133574    662.46052  0.016638048  0.016014506            6 
 3319000   0.72955932   -8.1106553    663.72845   0.01666487   0.01600916            6 
 3320000   0.72369663    -8.144679    663.69612  0.016659039   0.01600382            1 
 3321000   0.71800865   -8.1249677    665.51223  0.016699594  0.015998498            4 
 3322000   0.70036805   -8.0839209    662.95246  0.016630355  0.015993175            3 
 3323000   0.71562479   -8.1139325    663.83744  0.016647543  0.015987823            1 
 3324000   0.71905711   -8.1228056    664.29415  0.016653985  0.015982486            1 
 3325000   0.71065094   -8.1337785    663.36462   0.01662568  0.015977137            2 
 3326000   0.70373074   -8.1420606    662.26769  0.016593197  0.015971793            3 
 3327000   0.70339585   -8.1195315    664.84658  0.016652805  0.015966472            2 
 3328000   0.71668164   -8.1051906    664.39736  0.016636553  0.015961148            2 
 3329000   0.72457485   -8.1072864    665.28624  0.016653806  0.015955808            2 
 3330000   0.72225742   -8.1181039    664.07134  0.016618402  0.015950476            5 
 3331000   0.72657097    -8.114893    662.73359  0.016579946  0.015945146            3 
 3332000   0.72687846   -8.1126993    663.96574  0.016605786  0.015939825            2 
 3333000   0.72019007   -8.1379026    664.02679   0.01660233  0.015934513            2 
 3334000   0.73041796   -8.1245406    663.31665    0.0165796  0.015929196            1 
 3335000   0.72566167   -8.1329349    663.74788  0.016585404  0.015923894            2 
 3336000   0.70972052   -8.1264517    664.08819  0.016588934  0.015918588            1 
 3337000   0.72325801   -8.1185773    664.12919  0.016584986  0.015913278            2 
 3338000   0.71360256   -8.1316915     665.9115  0.016624513  0.015907983            1 
 3339000   0.71482578   -8.1019052     664.9822  0.016596341   0.01590269            2 
 3340000    0.7129843   -8.1129072    664.93557  0.016590209  0.015897391            6 
 3341000   0.73376574   -8.1233164    664.53002  0.016575128  0.015892103            2 
 3342000    0.7315388   -8.1066727    663.54251  0.016545544  0.015886804            3 
 3343000   0.70712896   -8.1458548    663.99573  0.016551893    0.0158815            2 
 3344000   0.71482633    -8.120561    664.08288  0.016549115  0.015876193            3 
 3345000   0.70416653   -8.1119483    665.66105  0.016583484  0.015870905            2 
 3346000   0.72203482   -8.1220858    665.04488  0.016563182  0.015865642            2 
 3347000   0.73010863   -8.0812313    664.11041  0.016534967  0.015860382            4 
 3348000   0.72518893   -8.1007041    664.70249  0.016544765  0.015855121           10 
 3349000   0.72606632   -8.0878309    665.51258  0.016559983  0.015849847            1 
 3350000   0.72153895   -8.1253492    664.24496  0.016523507  0.015844586            3 
 3351000   0.71045894   -8.1149769    664.93466  0.016535727   0.01583933            2 
 3352000   0.70545085   -8.1237173    665.38968  0.016542106  0.015834065            1 
 3353000   0.71228812   -8.1114775    665.37259  0.016536748  0.015828797            3 
 3354000   0.70483842   -8.1367539    665.18381  0.016527127  0.015823515            4 
 3355000   0.71299476   -8.1559283    665.59567  0.016532431  0.015818238            5 
 3356000   0.72509832   -8.1203426    663.82782  0.016483607  0.015812976            4 
 3357000    0.7137797   -8.1578901    664.11418  0.016485805  0.015807724            3 
 3358000   0.71426574    -8.121057    663.38167  0.016462718  0.015802445            4 
 3359000   0.70595984   -8.1271412    664.93802  0.016496428  0.015797184            2 
 3360000   0.70484816   -8.1188795    664.11279  0.016471051   0.01579192            3 
 3361000   0.72409116   -8.1417992     664.3754  0.016472662  0.015786645            2 
 3362000   0.70150464   -8.1189818    664.00526  0.016458588  0.015781365            1 
 3363000   0.72077403   -8.1218811    665.45099  0.016489518  0.015776096            3 
 3364000   0.72710979   -8.1091615    664.81724  0.016468917  0.015770839            3 
 3365000   0.72050086   -8.1234686    665.52764  0.016481616  0.015765583            2 
 3366000   0.72290805   -8.1394065    664.24165  0.016444881  0.015760344            2 
 3367000   0.70942232   -8.1230077    665.44464  0.016469771  0.015755109            2 
 3368000   0.71193019   -8.1278895    665.45318  0.016465092  0.015749858            1 
 3369000   0.69430826   -8.1122965    666.27878  0.016480627  0.015744614            2 
 3370000   0.70732661   -8.1357711    664.50998  0.016431998  0.015739361            2 
 3371000   0.72612253   -8.1439092    665.14414    0.0164428  0.015734097            2 
 3372000   0.69742203   -8.1247691    665.16789  0.016438511  0.015728834            4 
 3373000   0.72449069   -8.1261369    665.30289  0.016436972  0.015723573            1 
 3374000   0.71375786   -8.1745939    662.04713  0.016351688  0.015718329            1 
 3375000   0.71710279   -8.1601519    664.93367  0.016418115  0.015713072            2 
 3376000   0.70290457   -8.1466291    663.84567  0.016386396  0.015707814            4 
 3377000   0.70919706   -8.1555569    665.82387  0.016430359  0.015702558            3 
 3378000   0.70836381    -8.136003    665.69648  0.016422352  0.015697316            2 
 3379000   0.71057257   -8.1605637    664.42443  0.016386121  0.015692078            2 
 3380000   0.71004415   -8.1699209    663.68338  0.016363002  0.015686825            1 
 3381000    0.6950169   -8.1412778    663.43102  0.016351943  0.015681577            3 
 3382000   0.73501831   -8.1667745    665.00098  0.016385792  0.015676322            2 
 3383000   0.72808291   -8.1496251    664.55133  0.016369872   0.01567106            2 
 3384000   0.70225671   -8.1708349    665.14233  0.016379589  0.015665812            2 
 3385000   0.71720618   -8.1505616    665.31357  0.016378965  0.015660567            2 
 3386000   0.72189066   -8.1622327    665.33207  0.016374583  0.015655313            2 
 3387000   0.71890017   -8.1596654    664.55414  0.016350609  0.015650075            3 
 3388000   0.70839412   -8.1286907    664.39378  0.016341838  0.015644835            5 
 3389000   0.70746398   -8.1608685    664.20963  0.016332488  0.015639622            2 
 3390000   0.70741565   -8.1330259    665.49627  0.016359299   0.01563439            2 
 3391000   0.70665124   -8.1466101    665.64489  0.016358127  0.015629167            2 
 3392000   0.72242134   -8.1400448    665.23533  0.016343242  0.015623953            2 
 3393000   0.72812855   -8.1671077    664.50327  0.016320446  0.015618746            3 
 3394000   0.71353079   -8.1233966     664.8879  0.016325081  0.015613536            3 
 3395000   0.71297282   -8.1407897    665.25156  0.016329199  0.015608319            4 
 3396000   0.70249089   -8.1605485     665.4226  0.016328587  0.015603103            2 
 3397000    0.7014643   -8.1494864    665.31544  0.016321152  0.015597875            3 
 3398000   0.71238108   -8.1782985    664.95716  0.016307562  0.015592633            2 
 3399000   0.70707281   -8.1734121    664.72163   0.01629699  0.015587416            3 
 3400000   0.71277337    -8.127428    665.82831  0.016319321  0.015582216            2 
 3401000   0.70257489   -8.1579391    664.58872   0.01628415  0.015577023            3 
 3402000   0.70560719   -8.1421635    664.96823  0.016288659  0.015571836            3 
 3403000   0.70070542   -8.1575413    665.77634  0.016303662  0.015566652            2 
 3404000   0.71382715   -8.1664413    666.43669  0.016315038  0.015561482            7 
 3405000   0.72139383   -8.1504191    665.85253   0.01629595  0.015556284            2 
 3406000   0.71255738   -8.1548881    664.73075   0.01626372  0.015551084            2 
 3407000   0.71581478   -8.1607669    665.45608  0.016276687   0.01554589            4 
 3408000   0.71157195   -8.1782295    665.22396  0.016266235  0.015540728            4 
 3409000   0.69804427   -8.1305687    666.36557   0.01628937  0.015535566            2 
 3410000    0.7043662    -8.148046    666.14442  0.016279189  0.015530393            4 
 3411000   0.69051647   -8.1463458    665.93637  0.016269334  0.015525223            5 
 3412000   0.70171807   -8.1581312    665.81258  0.016261542  0.015520065            6 
 3413000   0.70251903   -8.1728253    665.30787  0.016244454  0.015514907            2 
 3414000   0.70274635   -8.1773267    666.15328  0.016260332  0.015509731            1 
 3415000    0.6916039   -8.1430092    664.74158  0.016221122  0.015504544            1 
 3416000   0.71369707   -8.1485474    665.57428  0.016236687  0.015499365            1 
 3417000   0.70723452   -8.1471066    665.34715  0.016226396   0.01549421            3 
 3418000   0.71229287   -8.1297365    665.94456  0.016236214  0.015489058            2 
 3419000   0.71380986   -8.1706953     664.8864  0.016205674  0.015483908            1 
 3420000   0.71013949   -8.1515649    667.84253  0.016272966  0.015478757            2 
 3421000   0.70318053   -8.1540655    665.57558  0.016212988  0.015473611            2 
 3422000   0.70033488   -8.1446687    666.51472   0.01623112  0.015468465            1 
 3423000   0.71008409   -8.1306005    665.22134  0.016194891  0.015463321            1 
 3424000   0.72705928   -8.1512449    667.38138  0.016242732  0.015458187            2 
 3425000   0.70777853   -8.1667595    667.32965  0.016236731  0.015453054            3 
 3426000   0.70207639   -8.1481709    666.27131  0.016206249  0.015447909            3 
 3427000   0.70713054   -8.1494644    665.34258  0.016178936  0.015442788            3 
 3428000   0.69583164   -8.1720147    665.64014   0.01618145  0.015437658            2 
 3429000   0.69179879   -8.1287025    667.16664  0.016213829  0.015432535            2 
 3430000    0.6927696   -8.1399033      665.157  0.016160277  0.015427407            2 
 3431000   0.71149809    -8.157902    665.07688  0.016153621  0.015422279            3 
 3432000   0.70182587   -8.1665297    664.94206  0.016145641   0.01541715            6 
 3433000   0.70453667   -8.1552002    666.01126  0.016166891  0.015412029            3 
 3434000   0.70764602   -8.1446192    667.62891  0.016201439  0.015406893            2 
 3435000   0.69593734   -8.1569174    666.09321  0.016159466   0.01540176            2 
 3436000   0.70132316   -8.1459202    665.79273  0.016147476  0.015396635            2 
 3437000   0.68737256   -8.1451914    665.80846  0.016143159  0.015391495            3 
 3438000   0.69697917   -8.1726882    665.17059  0.016123003  0.015386343            3 
 3439000   0.70304306    -8.183807    665.96715  0.016137616   0.01538117            3 
 3440000   0.71200788   -8.1522364    665.25485   0.01611567  0.015376013            2 
 3441000   0.68998852   -8.1453079    664.44485   0.01609137  0.015370854            4 
 3442000   0.71326276   -8.1591975    664.93255  0.016098503  0.015365706            5 
 3443000   0.70767492   -8.1827267     665.2016  0.016100339  0.015360554            1 
 3444000   0.69660907    -8.156868    666.75952   0.01613336  0.015355408            7 
 3445000   0.71142263   -8.1800321    665.58026  0.016100151  0.015350253            3 
 3446000     0.698608    -8.179648    666.62901  0.016120841  0.015345106            4 
 3447000   0.71320798   -8.1755173    665.46282  0.016087971  0.015339949            3 
 3448000   0.69972597   -8.1940365    663.86646  0.016044723  0.015334801            4 
 3449000   0.70935374   -8.1712465    664.97491  0.016066853   0.01532965            5 
 3450000   0.69178687   -8.1930306    663.61024  0.016029233    0.0153245            2 
 3451000   0.69074188   -8.1687559     665.4468  0.016068937  0.015319344            2 
 3452000   0.69459581   -8.1834552    663.86725   0.01602615  0.015314188            2 
 3453000   0.71710279   -8.1642104     665.2178  0.016054103  0.015309048            1 
 3454000   0.68449241   -8.1546203    663.69262  0.016012657  0.015303899            4 
 3455000   0.70207189   -8.1910681    664.52174  0.016028021  0.015298752            4 
 3456000   0.71108546   -8.1709481    666.11187  0.016061725   0.01529362            2 
 3457000   0.71555663   -8.1613961    665.12923  0.016033392  0.015288489            1 
 3458000   0.69620438   -8.1559979    666.60037  0.016064208  0.015283372            3 
 3459000   0.72491898   -8.1636006    666.25792  0.016051313  0.015278257            2 
 3460000   0.71594929   -8.1722036    666.00321   0.01604054  0.015273151            3 
 3461000   0.69714024   -8.1940104    666.10818  0.016038433  0.015268046            1 
 3462000   0.69216325   -8.1579901    666.48749   0.01604293  0.015262944            3 
 3463000   0.67360372    -8.158284    666.00367  0.016026655  0.015257836            2 
 3464000   0.71170905   -8.1678682    665.05934   0.01599931  0.015252723            3 
 3465000   0.69546062   -8.1664071     666.2403  0.016023095  0.015247602            3 
 3466000    0.6932954   -8.1673524    665.29035  0.015995633  0.015242491            1 
 3467000   0.68050714   -8.1657841    666.00011  0.016008079  0.015237388            2 
 3468000   0.68306471   -8.1507235    665.56578  0.015993026  0.015232278            1 
 3469000   0.71738709   -8.1744379    665.47589  0.015986257  0.015227164            4 
 3470000   0.68756315   -8.1585274    666.46981  0.016005519  0.015222066            4 
 3471000     0.698214   -8.1919694    665.70531  0.015982553  0.015216974            1 
 3472000   0.69858519   -8.1873595    665.69806  0.015977776  0.015211889            2 
 3473000   0.71123878   -8.1671607    664.91334  0.015954346  0.015206786            2 
 3474000    0.7082867   -8.1890257    664.16019  0.015931687   0.01520166            1 
 3475000   0.69408303   -8.1625029    666.26322  0.015977535  0.015196545            3 
 3476000    0.6793927   -8.1887605    666.00657  0.015966786  0.015191446            2 
 3477000   0.69862907   -8.1922689     664.6006  0.015928497   0.01518635            2 
 3478000   0.67916105    -8.188618    665.15743  0.015937259  0.015181252            4 
 3479000   0.69966881   -8.1810225    664.24196  0.015910749  0.015176157            1 
 3480000   0.71266127   -8.2096381    665.21371  0.015929447  0.015171045            1 
 3481000   0.68764274   -8.1694705    665.66846  0.015935757  0.015165937            2 
 3482000   0.70554551   -8.1635735    665.00388  0.015915276  0.015160838            2 
 3483000     0.705328   -8.1889009     664.1871  0.015891164  0.015155746            2 
 3484000   0.68200524   -8.1786271    666.16769  0.015933977  0.015150656            1 
 3485000   0.69443148   -8.2001316    666.25982  0.015931607  0.015145552            4 
 3486000   0.69436629   -8.1920228    664.28102  0.015879734  0.015140445            3 
 3487000   0.68075171   -8.2046569    665.29924  0.015899514  0.015135341            7 
 3488000   0.69234083   -8.1768264    666.15013  0.015915284  0.015130261            2 
 3489000   0.68538138   -8.1815731    665.39494  0.015892685  0.015125181            3 
 3490000   0.69308952   -8.1870866    664.73155  0.015872291  0.015120101            4 
 3491000   0.71665244   -8.1990749    664.44239  0.015860842  0.015115013            3 
 3492000   0.69168248   -8.1880497    664.43055  0.015856017  0.015109919            3 
 3493000   0.69085832   -8.1848956    664.61808  0.015855952  0.015104824            2 
 3494000   0.70098614   -8.1806506    666.63844    0.0158996  0.015099739            3 
 3495000   0.70274725   -8.2073255    664.71561  0.015849204  0.015094647            1 
 3496000   0.69082762   -8.1925812    664.28203  0.015834335  0.015089557            3 
 3497000   0.69221533   -8.2027526    665.54366  0.015859872  0.015084461            2 
 3498000   0.67801818   -8.1804675    665.09551  0.015844661  0.015079379            3 
 3499000   0.69941422   -8.2019632    665.43078  0.015848118  0.015074297            2 
 3500000   0.70961264   -8.2093631    665.01097  0.015833594   0.01506921            1 
 3501000   0.68988817   -8.1979906     663.0691   0.01578285  0.015064116            2 
 3502000   0.68597579   -8.1925575      665.072  0.015826004  0.015059016            4 
 3503000    0.6969571   -8.1999121     665.6646  0.015835584  0.015053931            3 
 3504000   0.70219581   -8.1841644    665.83435  0.015835101  0.015048866            3 
 3505000   0.68349401   -8.1851537    664.13406  0.015790158   0.01504381            2 
 3506000   0.68643639   -8.2007515    665.62361  0.015821059  0.015038747            2 
 3507000   0.69802449   -8.1736226    665.45628  0.015812572  0.015033696            1 
 3508000   0.69481487   -8.2027032    665.33834  0.015805263  0.015028639            1 
 3509000   0.67904791   -8.1863964    665.29859  0.015799815  0.015023591            2 
 3510000   0.68141457   -8.1800035    665.85153  0.015808441  0.015018549            2 
 3511000   0.67731554   -8.2006675    666.01346  0.015807782  0.015013499            3 
 3512000    0.6959103    -8.198227    666.66556  0.015818754  0.015008451            2 
 3513000   0.69324331   -8.1800761    665.99478  0.015798339  0.015003405            1 
 3514000   0.68533629   -8.1756666    665.83302  0.015790007  0.014998361            2 
 3515000   0.68659776   -8.1952226    664.42884  0.015752225  0.014993325            2 
 3516000   0.68709488   -8.1968189    664.98482  0.015760922  0.014988269            3 
 3517000   0.69260528   -8.2069504    665.05515  0.015758107  0.014983207            2 
 3518000   0.68471732   -8.1955317    665.66299  0.015768026  0.014978154            3 
 3519000   0.69157729   -8.1963165     665.7305  0.015765144  0.014973089            5 
 3520000   0.69012959   -8.2309081    663.95849  0.015718714  0.014968011            3 
 3521000   0.68568048   -8.2101384    665.65437  0.015754387  0.014962947            2 
 3522000   0.68140283   -8.2065523    665.93768  0.015756618  0.014957895            2 
 3523000   0.68953893   -8.1944725    666.05197  0.015754848  0.014952848            2 
 3524000    0.6743248   -8.2132209    665.81378  0.015744745  0.014947818            2 
 3525000   0.69192409    -8.204896    664.54157  0.015710203  0.014942771            4 
 3526000   0.68983757   -8.2055136    664.71365  0.015709814  0.014937719            2 
 3527000   0.69739931   -8.1946041    665.43846  0.015722485   0.01493267            1 
 3528000   0.68017729   -8.1973617    665.15615   0.01571136  0.014927632            2 
 3529000    0.7068474   -8.2311041    663.86968   0.01567653   0.01492259            6 
 3530000   0.69490822   -8.2184371    666.01938  0.015722837   0.01491755            1 
 3531000   0.69217611   -8.2204925    665.17552  0.015698469  0.014912506            1 
 3532000   0.69170942   -8.1907044    664.54666  0.015679187  0.014907458            2 
 3533000   0.69943138   -8.2215435    665.91726  0.015707078  0.014902406            3 
 3534000   0.68776427   -8.1887707    664.93417  0.015679451  0.014897366            4 
 3535000   0.68362315   -8.1951666    666.05581  0.015701457  0.014892338            2 
 3536000   0.69110945   -8.2003445    665.30188  0.015679249  0.014887298            2 
 3537000   0.69377787   -8.2014124    665.04055  0.015668659   0.01488226            3 
 3538000   0.66765235   -8.2163699    665.58244  0.015676994  0.014877227            5 
 3539000   0.70083697   -8.2272405    665.97864  0.015681893  0.014872182            2 
 3540000   0.67603292   -8.2233307    666.09082  0.015680104  0.014867151            3 
 3541000   0.67879974   -8.2136757    665.63134  0.015664863  0.014862123            4 
 3542000   0.69511203   -8.2249793    664.54897  0.015634975  0.014857091            1 
 3543000   0.68210602   -8.1900876    665.79844   0.01565995  0.014852066            2 
 3544000    0.6803246   -8.2149146     665.6252  0.015651458   0.01484704            2 
 3545000   0.68009321   -8.1876161    666.02222  0.015656376  0.014842019            2 
 3546000   0.69246868    -8.213253    666.05929  0.015652832  0.014837007            3 
 3547000    0.6781253   -8.2032879    665.42937  0.015633619  0.014831992            3 
 3548000   0.67913181   -8.1929855    663.52496  0.015584483  0.014826977            3 
 3549000   0.68954827    -8.218421    664.89588  0.015612282  0.014821964            4 
 3550000   0.66577366   -8.2165915    665.67731  0.015626228  0.014816929            4 
 3551000   0.67914005   -8.2297729    664.54913  0.015595352  0.014811907            2 
 3552000   0.67834409   -8.2233614    664.56465  0.015591325  0.014806884            3 
 3553000   0.68070856   -8.2481489    664.86164  0.015593903  0.014801858            2 
 3554000   0.67602126   -8.2139032    665.01086  0.015593014  0.014796844            2 
 3555000   0.68597575   -8.1988455     665.8656  0.015608664  0.014791841            4 
 3556000   0.67374143   -8.1976008    666.78566  0.015625836   0.01478684            3 
 3557000    0.6822453    -8.212824    664.84142  0.015575893  0.014781845            1 
 3558000   0.66748349   -8.2141382    667.21176  0.015627032  0.014776843            1 
 3559000   0.66959889   -8.2100615    665.50202  0.015582608  0.014771849            2 
 3560000   0.68207874   -8.2195288    664.14092   0.01554637  0.014766854            1 
 3561000   0.67254218   -8.2214771    665.12824  0.015565109  0.014761856            2 
 3562000   0.66232651   -8.2243444    666.21649  0.015586199   0.01475685            1 
 3563000   0.67712028   -8.2196883    666.75454  0.015594409  0.014751857            2 
 3564000   0.67496113    -8.194131    666.80334  0.015591174  0.014746874            2 
 3565000   0.68523961   -8.1867778    666.42595  0.015577979  0.014741898            4 
 3566000   0.68743491   -8.2145108     666.0397  0.015564584   0.01473692            2 
 3567000   0.67195681   -8.1944606    665.90114  0.015556984  0.014731941            2 
 3568000   0.67671046   -8.2212881    665.73283  0.015548693  0.014726964            3 
 3569000   0.68734469   -8.2111405    666.18041  0.015554787  0.014721993            6 
 3570000   0.67192777   -8.2236199    667.22116  0.015574724  0.014717017            2 
 3571000   0.68178759   -8.2079534    665.57071  0.015531847  0.014712053            2 
 3572000   0.67400704   -8.1978272    666.09329   0.01553969  0.014707087            3 
 3573000   0.68499001   -8.2460545    664.46863  0.015497449  0.014702103            3 
 3574000   0.67465287   -8.2234467    666.05276   0.01553005  0.014697127            2 
 3575000   0.66374978   -8.2155202    665.06786  0.015502747  0.014692155            3 
 3576000   0.68344935   -8.2309321    665.75708  0.015514473  0.014687194            2 
 3577000   0.67823768   -8.2185546    664.87554  0.015489599  0.014682233            2 
 3578000   0.69942042   -8.2201345    666.06947  0.015513077  0.014677269            3 
 3579000   0.68648598    -8.213996     665.7146   0.01550048  0.014672313            3 
 3580000   0.67405158   -8.2167359    665.98919  0.015502542  0.014667361            2 
 3581000   0.67341301   -8.1854831    666.51442  0.015510435  0.014662417            3 
 3582000   0.68790704   -8.2145571     665.1975  0.015475468  0.014657473            3 
 3583000   0.67976018   -8.2255151    666.56218  0.015502888  0.014652548            2 
 3584000   0.67839817   -8.2067181     665.6573  0.015477523  0.014647624            2 
 3585000   0.69635505   -8.2143137    665.67118  0.015473528  0.014642697            4 
 3586000   0.67036522   -8.2293025    667.05187  0.015501298  0.014637767            1 
 3587000   0.68172301   -8.2349476    665.46637  0.015460142  0.014632835            2 
 3588000   0.67053387   -8.2081892    666.10016  0.015470554  0.014627885            3 
 3589000    0.6704015   -8.2208053    665.06845  0.015442288  0.014622937            5 
 3590000   0.66980656   -8.2381022    664.75855  0.015430793  0.014617978            1 
 3591000   0.67318054   -8.2195968     665.3031  0.015439132  0.014613025            2 
 3592000   0.68121955   -8.2193536    664.97428  0.015427206  0.014608066            2 
 3593000   0.67514466   -8.2360378    665.25319  0.015429381  0.014603107            2 
 3594000   0.69184974   -8.2455596    664.31688  0.015403378  0.014598145            2 
 3595000   0.67856784   -8.2294405    665.68373  0.015430777  0.014593187            2 
 3596000   0.68120578   -8.2480332    664.07393  0.015389181  0.014588232            2 
 3597000   0.67339533   -8.2171934    665.08963  0.015408434  0.014583271            3 
 3598000   0.67549351   -8.2627214    664.52288  0.015391025  0.014578317            3 
 3599000   0.68313659   -8.2586165    664.73356  0.015391626  0.014573353            2 
 3600000   0.69984191    -8.257869      664.936  0.015392037  0.014568395            3 
 3601000   0.67562055   -8.2349177    666.27966  0.015418857  0.014563448            2 
 3602000   0.67141497   -8.2363973    665.45423   0.01539548  0.014558518            2 
 3603000   0.68480299   -8.2349372    665.42865  0.015390615  0.014553597            2 
 3604000   0.66618769   -8.2724366    665.59117  0.015390103  0.014548667            3 
 3605000    0.6745278   -8.2317725    664.96734  0.015371413  0.014543735            2 
 3606000   0.67683817   -8.2352142     666.2777  0.015397432  0.014538802            4 
 3607000   0.67847753   -8.2331951    666.14127  0.015390012  0.014533877            5 
 3608000   0.68826233    -8.242608    665.00273   0.01535945  0.014528945            2 
 3609000   0.67452056   -8.2199744    665.64732  0.015370078  0.014524022            1 
 3610000    0.6559003   -8.2531872    665.49649  0.015362338  0.014519094            5 
 3611000   0.68673906   -8.2489134    665.29396   0.01535341  0.014514175            2 
 3612000   0.66661697   -8.2480486    663.55537  0.015309048  0.014509251            3 
 3613000   0.66396743   -8.2235888    666.25606  0.015367102  0.014504331            3 
 3614000   0.67558216   -8.2266368    665.77554  0.015351769  0.014499413            3 
 3615000   0.67714187   -8.2602528    665.14838  0.015333065  0.014494486            2 
 3616000   0.66303797   -8.2755269    664.36459  0.015310762   0.01448956            3 
 3617000   0.68625341   -8.2395453    665.54283  0.015333675  0.014484644            2 
 3618000   0.66994627   -8.2456361    665.10846  0.015319432  0.014479746            9 
 3619000   0.67960594   -8.2256849    666.34211  0.015343606   0.01447484            2 
 3620000   0.67847996   -8.2483185    666.22455  0.015336661  0.014469941            3 
 3621000   0.65779863   -8.2436192    663.87765  0.015278414  0.014465036            2 
 3622000   0.67153898   -8.2437316    664.81758  0.015295821  0.014460137            2 
 3623000   0.67181389   -8.2352717    666.72711  0.015335521  0.014455239            3 
 3624000    0.6640922   -8.2536925    665.51503  0.015303418  0.014450349            3 
 3625000   0.67730135   -8.2515119    665.04632  0.015288421  0.014445453            2 
 3626000    0.6727981   -8.2698814    666.14437   0.01530944  0.014440567            2 
 3627000   0.67100445   -8.2449179    666.88212   0.01532217  0.014435685            3 
 3628000   0.67547411   -8.2200085    666.32997  0.015305264  0.014430812            2 
 3629000   0.67830091    -8.235558    664.53822  0.015259902  0.014425928            2 
 3630000   0.67058831   -8.2557124    664.24684  0.015249009   0.01442105            1 
 3631000   0.67702069   -8.2422947    665.78458  0.015280101  0.014416173            4 
 3632000   0.67379526   -8.2369221    665.21789  0.015262892  0.014411287            2 
 3633000    0.6736753   -8.2595945    665.57151  0.015266802  0.014406406            3 
 3634000   0.65939718   -8.2568393    666.50785  0.015284073  0.014401523            1 
 3635000   0.67486435   -8.2360081    665.72406    0.0152619   0.01439664            3 
 3636000   0.67215742   -8.2351553    665.64253  0.015255834  0.014391755            2 
 3637000   0.66452496   -8.2534466     665.6106  0.015250907  0.014386868            3 
 3638000   0.66858013   -8.2481347    665.89731  0.015253283  0.014381994            2 
 3639000   0.66099901   -8.2612827    665.31544  0.015235766   0.01437712            2 
 3640000   0.66231404   -8.2682735    666.65104  0.015262157  0.014372255            2 
 3641000   0.67012509   -8.2417386    666.23318  0.015248402  0.014367395            2 
 3642000   0.66367581   -8.2632595     665.8258  0.015234894  0.014362536            5 
 3643000   0.67405328   -8.2583642    665.39083  0.015220762  0.014357673            2 
 3644000   0.68253484   -8.2743098    665.91146  0.015228491  0.014352807            2 
 3645000   0.68166261   -8.2491331    665.50019  0.015214911  0.014347942            5 
 3646000   0.67493469    -8.243783     667.8324  0.015264043  0.014343101            2 
 3647000   0.66388845   -8.2445436    665.78778  0.015213138  0.014338248            2 
 3648000   0.66500304   -8.2384923    666.09052  0.015215883  0.014333393            4 
 3649000   0.66505068   -8.2418313    667.23531  0.015237858  0.014328543            3 
 3650000    0.6750658   -8.2770159    666.09976  0.015207757  0.014323678            7 
 3651000   0.67425137   -8.2704961    665.47869  0.015189416  0.014318818            4 
 3652000   0.66038661   -8.2462938    664.61709  0.015165596  0.014313953            6 
 3653000    0.6595858   -8.2546421    666.05654  0.015194282   0.01430909            3 
 3654000    0.6566766   -8.2541585    664.67456  0.015158606  0.014304228            4 
 3655000   0.65925126   -8.2390431      666.517  0.015196466  0.014299374            2 
 3656000   0.66699851   -8.2523017     666.4256  0.015190226  0.014294519            2 
 3657000   0.66061054   -8.2436918    666.31792  0.015183619  0.014289669            2 
 3658000   0.66398622   -8.2395057    665.41458  0.015158889  0.014284821            3 
 3659000   0.67565376   -8.2501931    665.58992  0.015158739  0.014279978            2 
 3660000   0.67237587   -8.2492025    665.72313   0.01515763  0.014275122            2 
 3661000   0.65282576     -8.25737    664.43279  0.015124119  0.014270275            3 
 3662000     0.686158   -8.2772245    664.31656  0.015117344  0.014265427            3 
 3663000   0.66955429   -8.2538954    666.07965  0.015153327  0.014260579            2 
 3664000   0.66324142   -8.2734826     666.8327  0.015166319  0.014255742            2 
 3665000   0.66808081   -8.2508391    664.36314  0.015106029  0.014250906            1 
 3666000   0.67558162   -8.2435146    663.94386  0.015092377   0.01424607            2 
 3667000   0.66754012   -8.2524561    664.99098  0.015112058  0.014241227            1 
 3668000   0.66186268     -8.27152    665.35175  0.015116134  0.014236386            3 
 3669000   0.66315875   -8.2706916     665.7621  0.015121334  0.014231546            2 
 3670000   0.65492518   -8.2481756    665.34766  0.015107803  0.014226711            3 
 3671000   0.66607648   -8.2633501    665.29511  0.015102495  0.014221882            3 
 3672000   0.68240349   -8.2649037    664.52494  0.015080904   0.01421705            3 
 3673000   0.65945355   -8.2825762    665.32052  0.015094848   0.01421221            4 
 3674000   0.66569465   -8.2364446    665.89673  0.015103809  0.014207377            3 
 3675000    0.6607579   -8.2755352    664.45862  0.015067089  0.014202539            3 
 3676000   0.65822821   -8.2654698    665.19478  0.015079679  0.014197706            4 
 3677000   0.66171862    -8.277581    665.64873  0.015085866  0.014192874            1 
 3678000   0.64817204   -8.2784676    664.94265  0.015065766  0.014188044            3 
 3679000   0.66690866   -8.2457664    666.02512   0.01508619  0.014183227            3 
 3680000   0.67569467   -8.2686374    664.60197  0.015049864  0.014178404            3 
 3681000      0.65886   -8.2607863    664.40517   0.01504132  0.014173584            6 
 3682000   0.66230924   -8.2722146    664.35677  0.015036139  0.014168767            5 
 3683000   0.67137313   -8.2550541    665.07047  0.015048205  0.014163948            2 
 3684000   0.65755712    -8.255622    665.64594  0.015057138  0.014159138            3 
 3685000   0.64875055   -8.2854878    666.04286  0.015062028  0.014154316            3 
 3686000   0.65064169   -8.2639403    666.81843  0.015075476  0.014149509            2 
 3687000   0.66631838   -8.2679693     665.2951  0.015036956  0.014144692            1 
 3688000   0.65123028   -8.2706435     664.7146  0.015019762  0.014139891            2 
 3689000   0.66063111   -8.2623282    664.87165  0.015019238  0.014135094            2 
 3690000   0.65989735   -8.2729638    665.44892  0.015028205  0.014130296            4 
 3691000   0.66669905   -8.2726504    664.38373  0.015000084  0.014125498            5 
 3692000   0.65609701   -8.2582283    664.78695  0.015005122  0.014120691            2 
 3693000   0.64734616   -8.2894482    665.06907  0.015007426  0.014115888            1 
 3694000   0.66505468   -8.2683608     664.2088  0.014983956  0.014111086            2 
 3695000   0.67770936   -8.2645296     664.6033  0.014988798  0.014106286            3 
 3696000   0.67224218   -8.2628147    665.27203   0.01499982  0.014101498            2 
 3697000   0.65925917   -8.2650555    665.12763  0.014992508  0.014096719            2 
 3698000   0.66058683   -8.2610785     666.2005  0.015012631  0.014091921            5 
 3699000   0.65524742   -8.2748929    664.63096  0.014973213  0.014087129            3 
 3700000   0.66160502   -8.2694921    665.92922  0.014998406  0.014082335            3 
 3701000   0.66621681   -8.2583561    665.16457  0.014977136  0.014077542            3 
 3702000   0.65779802   -8.2711642    664.74521   0.01496365  0.014072739            1 
 3703000   0.66406298   -8.2795944    665.96883  0.014987146  0.014067938            2 
 3704000   0.65914383   -8.2477467    663.58601  0.014929491  0.014063142            2 
 3705000   0.66943367   -8.2636945    665.04112   0.01495819  0.014058354            3 
 3706000   0.64158425   -8.2842935    664.34128  0.014938417  0.014053568            2 
 3707000   0.66911048   -8.2644986    665.59842  0.014962648  0.014048785            2 
 3708000   0.66384123    -8.252139    666.29417  0.014974249  0.014044007            2 
 3709000   0.66183032   -8.2367357    665.92694  0.014961961   0.01403924            5 
 3710000   0.64443818   -8.2675256    665.10389   0.01493944  0.014034474            2 
 3711000    0.6637318    -8.265362    665.54006  0.014945209  0.014029701            2 
 3712000   0.65065657   -8.2897333    665.07274  0.014930692   0.01402492            3 
 3713000   0.65362858   -8.2733105    666.91499  0.014968018  0.014020155            3 
 3714000    0.6362707   -8.2727509    665.80617  0.014939108  0.014015385            3 
 3715000    0.6606742   -8.2770325    665.11863  0.014919664  0.014010615            1 
 3716000   0.65649082   -8.2624544    664.45273  0.014900716  0.014005845            5 
 3717000   0.66944075     -8.27643    665.76282  0.014926079  0.014001081            4 
 3718000   0.65715332    -8.273847    665.34593   0.01491272  0.013996322            3 
 3719000   0.65336328    -8.297155    664.59963  0.014891988  0.013991562            4 
 3720000   0.65545562   -8.2830526    665.66803  0.014911918  0.013986806            3 
 3721000    0.6571133   -8.2779437    665.34901  0.014900766  0.013982061            2 
 3722000   0.64657837   -8.2656076    665.89777  0.014909049  0.013977308            1 
 3723000   0.66472007   -8.2490456    666.09321  0.014909419   0.01397256            3 
 3724000   0.66626345   -8.2651035    664.99933  0.014880937  0.013967804            2 
 3725000   0.65565473   -8.2692863    664.28492   0.01486096  0.013963048            3 
 3726000   0.66038646   -8.2477519    664.27622  0.014856777  0.013958301            1 
 3727000   0.66723906   -8.2806497    664.52173   0.01485828  0.013953546            2 
 3728000   0.65513343   -8.2600329    664.69645    0.0148582  0.013948795            2 
 3729000   0.66302339   -8.2746946    663.62578  0.014830289  0.013944052            4 
 3730000   0.66151421   -8.2527458    665.56382  0.014869612  0.013939308            5 
 3731000   0.64888318   -8.2882749    664.81767  0.014848961  0.013934562            2 
 3732000   0.65863476    -8.271321    665.60697  0.014862606  0.013929806            3 
 3733000    0.6458614   -8.2617377    663.77651  0.014817763   0.01392506            1 
 3734000   0.64959851   -8.2819724    664.75832  0.014835706  0.013920315            1 
 3735000   0.66899971   -8.2950368    664.28292  0.014821127  0.013915564            5 
 3736000   0.65916648   -8.2723891    664.10731  0.014813243  0.013910822            2 
 3737000   0.66301063   -8.3113922    665.05937  0.014830509  0.013906077            2 
 3738000   0.66590431   -8.2992326     664.6357  0.014817097  0.013901332            2 
 3739000   0.65593369    -8.289205    665.00116  0.014821279  0.013896585            2 
 3740000   0.65127421   -8.2851112    665.42469  0.014826753  0.013891847            2 
 3741000   0.64972145   -8.2759148    664.62617  0.014805003  0.013887106            2 
 3742000    0.6492896   -8.3096829    664.96732  0.014808643  0.013882368            2 
 3743000   0.66079782    -8.272174     665.8048  0.014823332  0.013877632            2 
 3744000   0.66101773   -8.2924209    665.12077  0.014804148  0.013872907            1 
 3745000   0.63948754    -8.270583    665.18838    0.0148017  0.013868174            2 
 3746000   0.65579491   -8.2904062    663.91677   0.01476946  0.013863444            4 
 3747000   0.65439765   -8.2997072    664.12329  0.014770111  0.013858717            2 
 3748000   0.64457098   -8.2949305    665.24788  0.014791175  0.013853999            2 
 3749000   0.65453178   -8.2856439    665.82471  0.014800051  0.013849275            3 
 3750000   0.65582418   -8.2914787    665.50985  0.014789108  0.013844553            2 
 3751000   0.64969084    -8.268908    665.18774  0.014778009  0.013839829            1 
 3752000   0.64914143   -8.2971346    664.87717  0.014767172  0.013835117            3 
 3753000   0.65607569   -8.2971669    665.51656  0.014777435  0.013830402            2 
 3754000   0.66925499   -8.2868565    665.27814  0.014768206  0.013825689            4 
 3755000   0.64890258   -8.3020207    664.95512  0.014757104  0.013820977            4 
 3756000   0.64601157   -8.2967047    665.14541  0.014757397  0.013816267            2 
 3757000    0.6687957   -8.3273745    664.32147  0.014735194  0.013811541            1 
 3758000   0.64964839   -8.3001944    665.04968  0.014747421  0.013806823            3 
 3759000   0.64992084   -8.3006565    665.30875  0.014749241   0.01380211            2 
 3760000   0.64786613   -8.3007224    664.60635  0.014729751  0.013797394            1 
 3761000   0.67050614   -8.2784143    665.29037   0.01474099  0.013792681            1 
 3762000    0.6451702    -8.290074    662.97028  0.014685679  0.013787971            2 
 3763000   0.63922262   -8.2853302     664.0027  0.014704639  0.013783264            2 
 3764000   0.65951242   -8.2694989    664.86987  0.014719932  0.013778554            2 
 3765000   0.65273724   -8.3332576    664.78259   0.01471409  0.013773845            1 
 3766000   0.66209933   -8.2848142    664.93381  0.014713529  0.013769129            1 
 3767000   0.64652102   -8.3071651    663.33404  0.014674233   0.01376442            4 
 3768000   0.65411352   -8.2774152    664.55126  0.014697259  0.013759709            2 
 3769000   0.65756084   -8.3069167    664.89875  0.014701043  0.013755003            1 
 3770000   0.65275345   -8.3139487      664.313  0.014684195  0.013750311            2 
 3771000   0.66468078   -8.2938053    663.52366  0.014662858   0.01374561            3 
 3772000   0.63805787   -8.2745127    663.61014  0.014660881  0.013740908            5 
 3773000   0.64174551   -8.2917987    663.96538  0.014664842   0.01373622            1 
 3774000   0.63630409   -8.3010147    664.98066  0.014683374  0.013731531            2 
 3775000   0.64736358   -8.3061347     665.1697  0.014683658  0.013726841            2 
 3776000   0.67579799   -8.2950639    664.32547  0.014661138  0.013722149            3 
 3777000   0.63906243   -8.2890133    664.79211  0.014667552  0.013717463            4 
 3778000   0.63876508   -8.3142723    663.67832  0.014639102  0.013712782            5 
 3779000   0.64714242   -8.3140299    665.36465  0.014672414   0.01370809            2 
 3780000   0.64297031   -8.3041813    664.34571  0.014646069  0.013703405            1 
 3781000   0.64840385   -8.3009364    665.33649  0.014664033  0.013698733            1 
 3782000   0.64638542   -8.3049384    663.71967   0.01462453  0.013694051            2 
 3783000   0.64953225   -8.3214138    664.54489  0.014638842  0.013689376            2 
 3784000    0.6462104    -8.286033    666.51645  0.014678393  0.013684707            2 
 3785000    0.6298886   -8.3056935    664.98811  0.014640865  0.013680046            4 
 3786000   0.64603193   -8.2954166    663.38372  0.014601684  0.013675384            1 
 3787000   0.64195685   -8.3025523    664.46411  0.014621603  0.013670725            1 
 3788000   0.65185209   -8.2861929    664.10546  0.014609853  0.013666064            2 
 3789000   0.63712536   -8.3036299    663.87108  0.014600842  0.013661392            1 
 3790000   0.64083167   -8.3142154    665.55927  0.014634109  0.013656724            2 
 3791000   0.62231339   -8.3168351    665.59682  0.014631074  0.013652051            2 
 3792000   0.64196618   -8.2890581     664.6413  0.014606217  0.013647382            3 
 3793000   0.64070556   -8.3002825    663.84041   0.01458477  0.013642725            4 
 3794000   0.63896697   -8.2736721    663.74917  0.014578922  0.013638077            1 
 3795000   0.64497219   -8.2987831    664.15387  0.014583967  0.013633425            1 
 3796000   0.65220058   -8.3029293    663.62352  0.014568483  0.013628764            2 
 3797000   0.65433679   -8.3032906    664.39354  0.014581546  0.013624102            2 
 3798000   0.65616857    -8.323821    663.82833  0.014565305  0.013619441            5 
 3799000    0.6553826    -8.317336    664.42139   0.01457448  0.013614783            4 
 3800000   0.62680583    -8.329605    663.65307  0.014553795  0.013610127            2 
 3801000   0.63629581   -8.3014452    665.56845  0.014591959  0.013605474            1 
 3802000   0.63949507   -8.3233723    664.31276  0.014560599  0.013600838            1 
 3803000   0.65219756    -8.295949    663.86746  0.014547012  0.013596199            2 
 3804000   0.64796452   -8.2934669    663.99888  0.014546067  0.013591557            1 
 3805000    0.6426358   -8.2912078    664.36809   0.01455033   0.01358692            1 
 3806000   0.63932548   -8.3116328    663.70324  0.014531951  0.013582274            1 
 3807000   0.64753058   -8.3026104    664.43041  0.014544051  0.013577626            4 
 3808000   0.64269444   -8.2958004    665.39374  0.014561313  0.013572978            2 
 3809000   0.64223493   -8.3241555    664.14764  0.014530227  0.013568341            2 
 3810000   0.64505346   -8.3117731    664.72392  0.014539018  0.013563697            2 
 3811000   0.63836582   -8.3107159    664.10408   0.01452165  0.013559058            2 
 3812000   0.62940401   -8.3014312    663.24236  0.014499002  0.013554421            2 
 3813000   0.62894036    -8.328142    665.05096  0.014534727  0.013549788            1 
 3814000   0.63229412   -8.3357524    663.80653  0.014503726   0.01354515            3 
 3815000   0.64852907   -8.3122895    664.44363  0.014513841    0.0135405            3 
 3816000   0.61368442   -8.3160152    663.91544  0.014498503  0.013535863            5 
 3817000    0.6404385   -8.3357595    664.47906  0.014507009  0.013531225            1 
 3818000   0.64322451   -8.3288798    663.58973  0.014483799  0.013526587            3 
 3819000   0.65015914   -8.3319111    664.65099  0.014503164  0.013521955            3 
 3820000   0.63430459   -8.3197155    663.87374  0.014482412  0.013517333            3 
 3821000   0.64063866    -8.320319    664.26232  0.014487096   0.01351271            3 
 3822000    0.6477359   -8.3086324    664.59453  0.014490549  0.013508086            2 
 3823000   0.63691745   -8.3146491    665.17772  0.014499471  0.013503475            2 
 3824000   0.63323137    -8.326148    664.42648  0.014479308  0.013498862            2 
 3825000   0.64690806   -8.3253383    664.13124   0.01446909  0.013494256            3 
 3826000   0.64252684    -8.335483    665.12631  0.014486982  0.013489651            4 
 3827000   0.63242255   -8.3218477    664.12167   0.01446132  0.013485051            1 
 3828000   0.63252352   -8.3178266    664.69427  0.014470008  0.013480449            4 
 3829000   0.63445243   -8.3088216    664.88284  0.014470333  0.013475857            2 
 3830000   0.64094337   -8.3115612    663.71812  0.014441212  0.013471262            4 
 3831000   0.64756326   -8.2942593    665.01057  0.014465557  0.013466674            1 
 3832000   0.64123719   -8.3236624     664.2652  0.014445572   0.01346209            2 
 3833000    0.6354311   -8.3292726    664.29108  0.014442366  0.013457507            2 
 3834000   0.64763802   -8.3117661    664.71933  0.014447908  0.013452917            3 
 3835000   0.63693186   -8.3190845    663.57768  0.014419333  0.013448328            2 
 3836000   0.63428195    -8.345303    663.93148  0.014423259  0.013443737            5 
 3837000   0.63875084   -8.3112179     664.6282  0.014434632  0.013439147            2 
 3838000   0.63687805   -8.3047186     664.5067  0.014428233  0.013434568            1 
 3839000   0.64725195    -8.308319    664.39667  0.014422086  0.013429983            2 
 3840000   0.64435079   -8.3359403    664.21544  0.014414398  0.013425403            2 
 3841000   0.62925903   -8.3269541    666.01222  0.014449627  0.013420828            2 
 3842000   0.62244665   -8.3399244    665.10887  0.014426273  0.013416247            3 
 3843000   0.63093978   -8.3173797    664.86098  0.014417143  0.013411678            2 
 3844000   0.63772851   -8.3186047    664.55045  0.014406661  0.013407103            2 
 3845000   0.63408842   -8.3023497    664.20075  0.014395335  0.013402529            1 
 3846000   0.63790574   -8.3041147    663.98185  0.014386849  0.013397954            4 
 3847000   0.62549555   -8.3143043    664.69747  0.014398611  0.013393379            3 
 3848000   0.62917903   -8.3194731    663.63973  0.014371962  0.013388804            1 
 3849000   0.64755901   -8.3264965    663.81128  0.014371942  0.013384224            2 
 3850000   0.63481305   -8.3421774    663.92848  0.014370746  0.013379654            2 
 3851000    0.6305453   -8.3377345    664.89092  0.014387841  0.013375082            3 
 3852000   0.64301234    -8.340132    663.96308  0.014364033   0.01337051            2 
 3853000   0.64123529   -8.3250913    665.68466   0.01439754   0.01336594            3 
 3854000   0.64008123   -8.3285965    663.37489  0.014343861  0.013361377            1 
 3855000   0.62361585   -8.3374237    664.10014  0.014355818  0.013356807            4 
 3856000   0.63292082   -8.3373672    664.92766  0.014369979  0.013352237            3 
 3857000    0.6285052   -8.3263668    664.67886  0.014360878  0.013347667            2 
 3858000   0.63741275   -8.3357461    663.22496  0.014325751  0.013343096            4 
 3859000   0.64441554    -8.354012    662.61085  0.014308777  0.013338528            2 
 3860000   0.63899676   -8.3114059    664.78872  0.014352088  0.013333963            3 
 3861000   0.64280715   -8.3370564    663.15657  0.014313144  0.013329402            1 
 3862000   0.62518656   -8.3065035    664.63137   0.01434126  0.013324846            2 
 3863000   0.62683273   -8.3280692    663.80555  0.014319733  0.013320302            2 
 3864000   0.62908924   -8.3430249    664.71342  0.014335607  0.013315751            2 
 3865000   0.64132304   -8.3393734    664.40865  0.014325327   0.01331121            1 
 3866000   0.62962895   -8.3281334     663.5807  0.014303774  0.013306669            2 
 3867000    0.6422843   -8.3125389    664.59807     0.014322  0.013302127            2 
 3868000   0.62951254   -8.3222883     664.2936  0.014311737  0.013297583            4 
 3869000   0.62661314   -8.3258503      665.035  0.014324007  0.013293044            1 
 3870000    0.6332493   -8.3430609    664.53897  0.014309625  0.013288512            2 
 3871000   0.61593387   -8.3424807    664.40577  0.014303061  0.013283981            2 
 3872000   0.63147292   -8.3112723    666.38919  0.014342054  0.013279461            3 
 3873000   0.61850305   -8.3453825    663.13977  0.014268435  0.013274926            3 
 3874000   0.63645783   -8.3154676    665.62053  0.014318115  0.013270405            2 
 3875000   0.62353698   -8.3458642    665.23944  0.014306224  0.013265886            2 
 3876000   0.62467796   -8.3296364    663.82303  0.014272081  0.013261367            1 
 3877000   0.64279322   -8.3445999     665.2398  0.014298852  0.013256852            3 
 3878000   0.64333921    -8.355678    663.79253  0.014264065  0.013252331            2 
 3879000   0.62733104   -8.3598204    663.89509  0.014262591  0.013247804            3 
 3880000   0.62688428   -8.3240892    664.79366  0.014278214  0.013243282            1 
 3881000    0.6445128   -8.3391012     663.7441  0.014251999  0.013238771            3 
 3882000   0.63035331     -8.33251    665.35931  0.014283001  0.013234261            3 
 3883000   0.62516649    -8.346168    664.19085  0.014254246  0.013229746            1 
 3884000   0.62959185   -8.3482051    664.13066  0.014249285  0.013225229            1 
 3885000   0.63184733    -8.335304     665.2398  0.014269408  0.013220726            1 
 3886000     0.634271   -8.3325882    665.21468  0.014265197  0.013216214            1 
 3887000    0.6306853   -8.3480419    664.85979  0.014253919  0.013211703            3 
 3888000   0.62287819   -8.3309859    663.87004  0.014229039  0.013207189            3 
 3889000   0.62652625    -8.362382    663.56022  0.014218741  0.013202669            3 
 3890000   0.64071721   -8.3515272    665.56444  0.014258021  0.013198156            3 
 3891000   0.62309708   -8.3460691    662.54324  0.014189652  0.013193639            2 
 3892000    0.6440035   -8.3512248    664.24381  0.014222418  0.013189124            2 
 3893000   0.62930278   -8.3308893    664.69606  0.014228446  0.013184613            4 
 3894000   0.62902885    -8.352612    664.58426  0.014222399  0.013180113            3 
 3895000   0.63792708    -8.358324    663.70052   0.01419984  0.013175604            2 
 3896000   0.63188027   -8.3569074    664.40662  0.014211298  0.013171098            2 
 3897000   0.63106223   -8.3642397    663.79225  0.014194514  0.013166592            4 
 3898000   0.63152095   -8.3403182    664.28943  0.014201501  0.013162094            4 
 3899000   0.64008178   -8.3452552    663.83211  0.014188085  0.013157598            6 
 3900000   0.62479333   -8.3572709     663.6071  0.014179639  0.013153103            2 
 3901000   0.63556839   -8.3595615    663.38532  0.014171266  0.013148598            3 
 3902000   0.64067162   -8.3669226    664.38467  0.014188977  0.013144114            1 
 3903000    0.6228412   -8.3833051    662.94617  0.014154628  0.013139626            4 
 3904000   0.61550628   -8.3530405    664.66739  0.014187743  0.013135132            5 
 3905000   0.63434864   -8.3432946    664.36625  0.014177684  0.013130642            2 
 3906000   0.62257044   -8.3518646    664.83086  0.014183966  0.013126166            4 
 3907000   0.61804075   -8.3547088     663.3917  0.014149639  0.013121688            2 
 3908000   0.63359354   -8.3549988    663.66062  0.014151753  0.013117209            3 
 3909000   0.62457842   -8.3615266    664.26254  0.014160965  0.013112723            6 
 3910000   0.61668153   -8.3646525    663.79971  0.014147479  0.013108242            3 
 3911000   0.62609634   -8.3665391    664.82068  0.014165616  0.013103769            5 
 3912000   0.62364756   -8.3530353    663.59908  0.014135972  0.013099306            2 
 3913000   0.62610482   -8.3644452    664.19133  0.014144972   0.01309483            3 
 3914000   0.62391582   -8.3506337    663.93614  0.014135925  0.013090354            4 
 3915000   0.63018477   -8.3666351    665.73443  0.014170592  0.013085889            2 
 3916000   0.63633372   -8.3694255    664.15767   0.01413342  0.013081421            2 
 3917000   0.61977238   -8.3582679    665.53454  0.014159104  0.013076958            3 
 3918000   0.62468851   -8.3454158     664.1165   0.01412533  0.013072493            1 
 3919000   0.61738002   -8.3519191    664.98972  0.014140293  0.013068032            2 
 3920000   0.63478673   -8.3930702    664.62842  0.014129005  0.013063565            3 
 3921000   0.62011348   -8.3752065    662.77242  0.014085956  0.013059096            2 
 3922000   0.61739899   -8.3796596    663.38846  0.014095454  0.013054632            3 
 3923000   0.62213943      -8.3699    663.65875  0.014097603  0.013050171            1 
 3924000   0.63298912   -8.3711668    664.58604  0.014113703  0.013045713            1 
 3925000   0.63351733   -8.3617117    663.65317  0.014090301  0.013041259            3 
 3926000   0.61181084   -8.3905383    664.13009  0.014096835  0.013036805            2 
 3927000   0.60621592   -8.3888094     663.4977  0.014079826  0.013032338            1 
 3928000   0.60727559   -8.3768531    663.57422  0.014077865  0.013027876            1 
 3929000   0.63432294   -8.3769227    664.18744  0.014087288  0.013023414            3 
 3930000   0.62931343   -8.3568972    663.05504  0.014059691  0.013018954            2 
 3931000   0.61428997   -8.3651984    663.66721  0.014069092    0.0130145            2 
 3932000   0.60975408   -8.3672165    662.74428  0.014045954  0.013010047            2 
 3933000   0.61422917   -8.3879129    663.27817  0.014053695   0.01300559            1 
 3934000    0.6165117   -8.3618355    664.22616  0.014070203  0.013001131            3 
 3935000   0.63065941   -8.3753396    664.18257  0.014065705   0.01299669            2 
 3936000   0.62126838   -8.3622525    663.39577  0.014045473  0.012992248            2 
 3937000   0.61283799   -8.3472935    663.59822   0.01404619  0.012987807            4 
 3938000   0.62348334   -8.3637436    665.09989  0.014074401  0.012983372            3 
 3939000    0.6123136   -8.3827492    664.07308  0.014049105  0.012978941            3 
 3940000   0.63764218   -8.3798547    662.82061  0.014019048  0.012974507            2 
 3941000   0.62440743   -8.3740055    663.94396  0.014039245  0.012970067            2 
 3942000   0.63499164      -8.3763    665.29723  0.014064291  0.012965632            4 
 3943000   0.61837545   -8.3737791    663.68511  0.014026653  0.012961203            2 
 3944000    0.6157647   -8.3571817    664.52625  0.014040869  0.012956772            3 
 3945000   0.61705997   -8.3772348    663.09589  0.014007095  0.012952335            2 
 3946000   0.63033766   -8.3786356    663.59769  0.014014143  0.012947902            2 
 3947000   0.62293424   -8.3709472    663.44816  0.014007435  0.012943472            2 
 3948000   0.61975866   -8.3749161    663.64969  0.014008141  0.012939047            3 
 3949000   0.62150871   -8.3712885    662.18637  0.013973714  0.012934619            2 
 3950000   0.63042985   -8.3559235    663.35122  0.013994751  0.012930199            2 
 3951000   0.61668933    -8.372668    663.92363  0.014003283  0.012925768            2 
 3952000   0.62312268   -8.3803345    663.54935  0.013991847  0.012921351            2 
 3953000   0.62665754   -8.3919506    662.71897  0.013970802  0.012916927            2 
 3954000   0.62350814   -8.4058532    663.64807   0.01398685  0.012912507            2 
 3955000   0.62119196   -8.3807623     664.0285  0.013991329  0.012908089            2 
 3956000   0.61987784   -8.3780037    662.76586  0.013961195  0.012903664            4 
 3957000   0.62141665     -8.37544    663.87768  0.013981082   0.01289924            1 
 3958000   0.62645241   -8.3882855    663.67561  0.013973295  0.012894826            3 
 3959000   0.62400715   -8.3886825    663.61221  0.013968431   0.01289041            3 
 3960000   0.62871079   -8.3781372    664.48144  0.013983195  0.012886012            1 
 3961000   0.60559118   -8.3911663    662.54646  0.013938956  0.012881613            5 
 3962000   0.61376886   -8.3900943    663.58798  0.013957344   0.01287721            2 
 3963000   0.62021337   -8.4080917     664.8293  0.013979925  0.012872801            3 
 3964000   0.59654443   -8.3972879    662.55321  0.013928549  0.012868389            2 
 3965000     0.620534   -8.3804476    663.56484  0.013946298  0.012863983            3 
 3966000   0.62513011   -8.3738156    663.34178  0.013938094  0.012859581            2 
 3967000   0.61590008   -8.3990446     663.4312  0.013936459  0.012855179            4 
 3968000   0.60743297   -8.3890918    663.59329  0.013936351  0.012850785            2 
 3969000   0.62038708    -8.409741    663.10283  0.013922542  0.012846393            7 
 3970000   0.62443577   -8.3802024    664.05647  0.013939053     0.012842            1 
 3971000   0.62532402   -8.3907363    663.77047  0.013929541  0.012837607            1 
 3972000    0.6105948   -8.4056873    665.06563  0.013953206   0.01283321            2 
 3973000   0.61855882   -8.3914835    664.14247  0.013930331  0.012828813            4 
 3974000   0.61521052   -8.4025309    663.93894  0.013922558  0.012824421            1 
 3975000   0.61487292   -8.3942948    663.72914  0.013914657  0.012820026            2 
 3976000   0.60954437   -8.3946601    663.09669  0.013897902  0.012815635            1 
 3977000   0.60005112   -8.3849659    663.51398  0.013903151  0.012811244            1 
 3978000   0.62405545   -8.3996745    663.51561   0.01389969  0.012806853            2 
 3979000   0.61817649   -8.3783048    662.95843  0.013884528  0.012802458            2 
 3980000   0.63598773   -8.3951544    663.50536  0.013892491  0.012798067            2 
 3981000   0.60615724   -8.3785656     662.4233  0.013866351  0.012793682            3 
 3982000   0.60662623     -8.40289    663.13989  0.013877865  0.012789289            3 
 3983000   0.61231653   -8.4036009    662.97873  0.013871009  0.012784902            3 
 3984000   0.62577796   -8.4106123    661.84911  0.013843899  0.012780513            1 
 3985000   0.61502052   -8.4204349    660.90184  0.013820616  0.012776127            2 
 3986000   0.60648567   -8.3829339    663.05783  0.013862223  0.012771741            3 
 3987000    0.6231511   -8.4029993    663.31529  0.013864127  0.012767358            2 
 3988000   0.60887121   -8.3932942    662.86956  0.013851336  0.012762978            2 
 3989000    0.6070529   -8.3959692    664.04962  0.013872516  0.012758607            2 
 3990000   0.62140028   -8.4011999    663.61917  0.013860049  0.012754234            2 
 3991000   0.61158171     -8.41032    662.94089  0.013842414  0.012749863            2 
 3992000   0.59961237   -8.4092481    663.76981   0.01385625  0.012745491            3 
 3993000   0.61534657   -8.4109379    662.52418  0.013826784  0.012741122            2 
 3994000   0.61894588   -8.3999804    662.87487  0.013830639  0.012736764            1 
 3995000    0.6106282   -8.4026427    663.34914   0.01383707  0.012732404            5 
 3996000   0.60141486   -8.3985115    662.55986  0.013817148  0.012728044            2 
 3997000   0.61759497    -8.406583    663.42337  0.013831694  0.012723681            2 
 3998000   0.61567733   -8.4117745    662.79797  0.013815199  0.012719317            2 
 3999000   0.60188626   -8.4172165    663.79025  0.013832422   0.01271496            2 
 4000000   0.61280473   -8.4051606    663.32619  0.013819296    0.0127106            3 
 4001000   0.61805321   -8.3892847    661.16003  0.013770725  0.012706242            2 
 4002000   0.60454736   -8.4040779     662.8178  0.013801803  0.012701887            2 
 4003000   0.61444494   -8.3858506    663.92623   0.01382143  0.012697533            1 
 4004000   0.63042172   -8.4032893    663.34637   0.01380591  0.012693188            2 
 4005000   0.61517677   -8.4126815    662.59679  0.013786866  0.012688842            4 
 4006000     0.593281   -8.4208375    662.16498  0.013774442  0.012684496            3 
 4007000   0.60927585   -8.3999315    663.20214  0.013792574  0.012680153            4 
 4008000   0.60471458   -8.4189035      663.574  0.013796865  0.012675807            1 
 4009000   0.60504525   -8.4220571    663.45215   0.01379089  0.012671466            1 
 4010000   0.61442722   -8.3902165    662.90673  0.013776117  0.012667126            4 
 4011000   0.60661583   -8.4070822    663.08216  0.013776327  0.012662789            1 
 4012000   0.58502927   -8.4145374    662.98763   0.01377093  0.012658448            3 
 4013000   0.62488276   -8.4048691    664.26938  0.013794114  0.012654117            2 
 4014000   0.60322543   -8.4296428    663.58193  0.013776406  0.012649783            3 
 4015000   0.60482635   -8.3976508    662.32089  0.013746801  0.012645449            3 
 4016000   0.61535592   -8.3881415    662.28518  0.013742637  0.012641119            2 
 4017000   0.60797239   -8.4098391    662.36975  0.013740971   0.01263679            5 
 4018000   0.60769475   -8.4020775    663.34449  0.013757767  0.012632465            4 
 4019000   0.61598679    -8.409535    663.51459  0.013757871  0.012628148            2 
 4020000   0.60377485   -8.4125232    662.31142  0.013729507  0.012623827            2 
 4021000   0.61128926   -8.4054521    663.25693  0.013745688  0.012619506            4 
 4022000   0.61261704   -8.4070701    663.78177  0.013753145  0.012615192            5 
 4023000   0.61571406   -8.4000094     662.0736  0.013714342  0.012610875            8 
 4024000   0.60934722   -8.4036342     663.2707  0.013735725  0.012606564            6 
 4025000   0.60168552   -8.4062517    661.43974  0.013694405  0.012602248            2 
 4026000   0.62647782   -8.3860425    663.26286   0.01372874  0.012597944            5 
 4027000   0.61082604   -8.4007188    663.14413  0.013722873  0.012593643            2 
 4028000   0.60214722   -8.3945448    662.92985  0.013715033  0.012589342            2 
 4029000   0.62436081   -8.3995801    662.51519  0.013703053  0.012585044            1 
 4030000   0.60356653   -8.4048848    663.49926  0.013720001  0.012580745            5 
 4031000   0.61413516   -8.3792052    663.80519  0.013722922   0.01257645            3 
 4032000   0.60810372   -8.4082562    663.45609  0.013712304  0.012572165            1 
 4033000   0.60007384   -8.4045462    664.23412   0.01372498  0.012567877            2 
 4034000   0.61299241   -8.4094264    663.32303  0.013702756   0.01256359            2 
 4035000   0.61852143   -8.4029818     663.4054  0.013701062  0.012559299            2 
 4036000   0.61329827    -8.401822    663.54818  0.013700615  0.012555014            3 
 4037000   0.60707914   -8.4066846    663.92381  0.013704975  0.012550724            2 
 4038000   0.60738196   -8.4050748    662.73432  0.013677033  0.012546434            3 
 4039000   0.59025988    -8.387481    662.49847  0.013668781  0.012542145            1 
 4040000   0.61151036   -8.4008757    664.10749  0.013698587  0.012537864            3 
 4041000   0.61053499   -8.4092805    663.74919  0.013687808  0.012533582            3 
 4042000   0.60886215   -8.4029983    664.01677  0.013689938  0.012529298            3 
 4043000   0.59500372   -8.4121239    662.23978  0.013649925  0.012525012            2 
 4044000   0.59646133   -8.4140077    663.05047  0.013663256  0.012520724            3 
 4045000   0.60767304   -8.4117978    661.91278   0.01363644  0.012516443            2 
 4046000   0.60676433   -8.4117572    663.51452   0.01366606  0.012512161            2 
 4047000   0.60231504   -8.3901292    662.69707   0.01364585  0.012507883            1 
 4048000   0.61521922   -8.4043457    663.17272  0.013652271  0.012503607            4 
 4049000   0.60188886   -8.4226807    662.80987  0.013641432  0.012499332            1 
 4050000   0.62123938   -8.4103709    663.41139   0.01365044  0.012495056            2 
 4051000   0.60809765   -8.4176727    662.39376  0.013626137  0.012490785            3 
 4052000   0.60796446   -8.4117155    663.85465  0.013652819  0.012486522            1 
 4053000   0.60162329   -8.4037841    663.28286  0.013637693  0.012482252            2 
 4054000   0.58953649   -8.4096192     662.6024  0.013620342  0.012477985            3 
 4055000   0.60794203   -8.4261368    662.55286  0.013615965  0.012473719            1 
 4056000   0.59078919   -8.4416331    663.53883  0.013632865  0.012469451            2 
 4057000   0.60403306   -8.4115836    662.96896    0.0136178  0.012465192            2 
 4058000   0.60355511   -8.3814857    662.86285  0.013612265  0.012460931            2 
 4059000     0.602288   -8.4275277    662.51731  0.013601817  0.012456666            2 
 4060000   0.61907381   -8.4016422     663.9729  0.013628344   0.01245241            2 
 4061000   0.60048702   -8.4140692    662.39845  0.013592679  0.012448157            1 
 4062000    0.6161824   -8.3889574    662.35836  0.013588511    0.0124439            1 
 4063000   0.60086605   -8.4159534    664.06723  0.013620216  0.012439648            2 
 4064000   0.58868341    -8.424447    662.99427  0.013594863  0.012435399            2 
 4065000   0.60211893   -8.4113407    662.97016  0.013591024  0.012431146            2 
 4066000   0.61847925   -8.4135707     663.4381  0.013597272  0.012426901            3 
 4067000    0.6043403   -8.4369806    660.81505  0.013540182   0.01242265            3 
 4068000     0.593897   -8.4168023    662.36718  0.013568649  0.012418399            2 
 4069000   0.60420314   -8.4296487    661.99965  0.013557787  0.012414144            1 
 4070000    0.6029746   -8.4233184    661.74976   0.01354934  0.012409897            2 
 4071000   0.60502579   -8.4232433    662.42149  0.013559762   0.01240565            3 
 4072000   0.60913062   -8.4219628    662.39706  0.013555932  0.012401406            1 
 4073000   0.59994794   -8.4317188    661.99469  0.013544371  0.012397166            3 
 4074000   0.60177317   -8.4196619    662.65101  0.013554472  0.012392932            4 
 4075000   0.58815014   -8.4035128    663.64969  0.013571568  0.012388706            2 
 4076000   0.60427399   -8.4092858    662.90407  0.013552994  0.012384477            4 
 4077000   0.59020446    -8.428468    661.54443  0.013521879  0.012380246            3 
 4078000   0.61269389   -8.4104789    664.20395   0.01357291  0.012376021            2 
 4079000   0.60366928   -8.4060429    660.72295  0.013498467  0.012371791            3 
 4080000   0.59724445   -8.4133731    662.24494  0.013526245  0.012367564            3 
 4081000   0.59949202   -8.4189171      663.178  0.013541983  0.012363338            2 
 4082000   0.59400941   -8.4092359    663.71976  0.013549726  0.012359118            3 
 4083000   0.59965739   -8.4159448    663.34365  0.013538731  0.012354894            1 
 4084000   0.60189385   -8.4033942    662.96136  0.013527615   0.01235068            3 
 4085000   0.59026918     -8.43329    662.53873  0.013515682  0.012346469            1 
 4086000   0.59960607   -8.4038616    662.18353   0.01350513  0.012342258            1 
 4087000   0.59554753   -8.4253171    662.86298  0.013515679  0.012338044            1 
 4088000   0.58697237   -8.4257584    662.72379  0.013509536   0.01233384            1 
 4089000   0.58808059   -8.3970046    662.57317  0.013503162  0.012329627            2 
 4090000   0.60906589   -8.4305546    662.36777  0.013495676  0.012325419            2 
 4091000   0.58895258   -8.4247306    663.27638  0.013510885  0.012321212            2 
 4092000   0.59404432   -8.4182648    663.44491  0.013511016  0.012317003            3 
 4093000   0.60418197   -8.4085879    662.70693  0.013492689  0.012312792            3 
 4094000   0.59710332   -8.4172282    663.71373  0.013509887  0.012308579            5 
 4095000   0.59353303    -8.415417    662.24631  0.013476726  0.012304379            2 
 4096000   0.60037392   -8.4292208    662.11887  0.013470843  0.012300176            2 
 4097000   0.59567194    -8.411021    662.25146  0.013470252  0.012295973            1 
 4098000   0.59787812   -8.4303258    662.38214  0.013469622  0.012291769            2 
 4099000   0.59659805    -8.420265     662.0713  0.013460017  0.012287569            2 
 4100000   0.60556707   -8.4081251    663.09884  0.013477619  0.012283368            4 
 4101000   0.59755387   -8.4087085    661.27123  0.013437195  0.012279168            2 
 4102000    0.6006304    -8.434302     662.9752  0.013468536  0.012274966            1 
 4103000   0.59325769   -8.4052152    661.93356  0.013444097  0.012270769            3 
 4104000   0.60285215   -8.4395286    663.34494   0.01346948  0.012266574            3 
 4105000   0.61104187   -8.4376473    662.81604  0.013455462  0.012262375            2 
 4106000   0.58156495   -8.4157646    662.38666   0.01344347  0.012258181            3 
 4107000   0.60010733   -8.4264048    661.36091  0.013419384  0.012253987            2 
 4108000   0.58826912   -8.4372372    662.38855  0.013436963  0.012249795            3 
 4109000   0.60154331   -8.4281634    662.29169  0.013431729  0.012245604            3 
 4110000   0.59017097    -8.435889    661.78895  0.013418267  0.012241416            3 
 4111000    0.5985105   -8.4069361    662.05405  0.013420377  0.012237229            4 
 4112000   0.59939795   -8.4272317    661.73155  0.013410578  0.012233043            2 
 4113000   0.58829083   -8.4374111    661.88189  0.013410363  0.012228859            2 
 4114000   0.60100528   -8.4576018    661.97608  0.013409011  0.012224679            5 
 4115000   0.58233016   -8.4236827    663.38883  0.013434363  0.012220497            5 
 4116000   0.60000314    -8.440504    661.76233  0.013398168  0.012216321            3 
 4117000   0.57420922   -8.4140098    662.88765  0.013417692  0.012212148            1 
 4118000   0.59715922   -8.4291435     662.6726  0.013410082  0.012207973            3 
 4119000   0.59228224   -8.4434528    662.02498  0.013393724  0.012203794            3 
 4120000   0.58774999   -8.4451418    661.86727  0.013387283  0.012199618            1 
 4121000   0.60479823   -8.4453889    662.42034  0.013395218  0.012195444            2 
 4122000   0.59083163   -8.4333068    660.83128  0.013359843  0.012191274            1 
 4123000   0.60195912   -8.4399435    662.85604  0.013397527  0.012187104            4 
 4124000   0.59540671   -8.4426346    661.14023  0.013359607  0.012182938            3 
 4125000   0.59476723   -8.4350712    662.67061  0.013387285  0.012178774            2 
 4126000   0.59367087   -8.4212855    662.01036  0.013370705  0.012174611            2 
 4127000   0.58823695   -8.4186228    662.23465  0.013371994   0.01217045            2 
 4128000   0.59315994   -8.4452267    662.57404  0.013375606  0.012166285            1 
 4129000   0.59893236   -8.4423634    661.11945   0.01334301  0.012162123            1 
 4130000   0.59585627   -8.4427975      662.621  0.013370077  0.012157957            2 
 4131000   0.58261236   -8.4773178    661.60505  0.013346346  0.012153795            1 
 4132000   0.59683329   -8.4508978    661.77361  0.013346515   0.01214964            2 
 4133000   0.59717545   -8.4428217    661.71461  0.013342096  0.012145489            2 
 4134000   0.59538946   -8.4320241    661.51096  0.013334764  0.012141333            2 
 4135000   0.58336938   -8.4417263    660.85294  0.013318278  0.012137182            2 
 4136000   0.59111906   -8.4407889    661.83607  0.013334866  0.012133027            4 
 4137000   0.58630149   -8.4372561    661.77032  0.013330318  0.012128877            1 
 4138000    0.5900863   -8.4648085    662.33112   0.01333839  0.012124729            2 
 4139000   0.59621338   -8.4581055    661.78036  0.013324079  0.012120577            2 
 4140000   0.59017891   -8.4674922    661.45393   0.01331429  0.012116426            2 
 4141000   0.59894039   -8.4502455    661.81104  0.013318261  0.012112285            3 
 4142000   0.57350631   -8.4537594    662.37331  0.013326358  0.012108143            3 
 4143000   0.58004461   -8.4543834    662.36724   0.01332302  0.012104008            3 
 4144000   0.57841952   -8.4443415    662.65783  0.013325648  0.012099878            1 
 4145000   0.59030034   -8.4681084     661.4252  0.013297652  0.012095743            1 
 4146000   0.58524017   -8.4459844    661.26523  0.013291229  0.012091611            4 
 4147000   0.58754723   -8.4433647    662.75893   0.01331804  0.012087481            1 
 4148000   0.58816823   -8.4342031    661.97398  0.013299059  0.012083357            1 
 4149000   0.57650557    -8.465159    663.18889  0.013320256  0.012079224            3 
 4150000   0.60094699   -8.4543932    660.80101  0.013269096  0.012075089            3 
 4151000   0.59582661    -8.459823    662.14256  0.013292832  0.012070953            1 
 4152000   0.57486064   -8.4672068    662.69413  0.013300701  0.012066824            3 
 4153000   0.58548651   -8.4412128    661.79072  0.013279371  0.012062697            2 
 4154000   0.59048504    -8.457502    660.31081  0.013246486  0.012058572            4 
 4155000   0.58822131   -8.4734955    660.92592  0.013255634  0.012054449            3 
 4156000    0.6031714   -8.4587435    661.57855  0.013265531  0.012050325            2 
 4157000   0.60261354   -8.4330213    661.42374  0.013259236  0.012046205            3 
 4158000   0.58929343   -8.4645121    660.99243  0.013247403  0.012042082            2 
 4159000   0.58311503   -8.4434928    661.92702  0.013262944  0.012037958            3 
 4160000   0.58865024   -8.4556043     661.8641  0.013258496  0.012033841            4 
 4161000    0.6065079    -8.445113    661.24844  0.013242979   0.01202973            3 
 4162000    0.5831851   -8.4424241    661.85195  0.013251881  0.012025613            1 
 4163000   0.58390553    -8.451363    661.54325  0.013242518  0.012021499            3 
 4164000   0.59165126   -8.4297543    662.01121  0.013248703  0.012017392            2 
 4165000   0.58209528    -8.444243    662.41403  0.013253582  0.012013281            1 
 4166000   0.56916358   -8.4735512    661.65729  0.013235263  0.012009173            3 
 4167000    0.5783994   -8.4541415    661.50542   0.01322905  0.012005063            1 
 4168000   0.57235128   -8.4637651    661.40657    0.0132239  0.012000952            3 
 4169000   0.58070037   -8.4629203     661.9279  0.013231149   0.01199684            4 
 4170000   0.58234079   -8.4601508    660.98958  0.013209224  0.011992736            3 
 4171000   0.59226905   -8.4671015    661.77844  0.013221818  0.011988637            1 
 4172000   0.58575197     -8.46965    661.56375  0.013214361  0.011984541            3 
 4173000   0.60089296    -8.455727    661.48726  0.013209666  0.011980445            2 
 4174000   0.58365867    -8.438331    660.21307  0.013181063  0.011976346            2 
 4175000   0.57693624   -8.4601371     661.7239  0.013208062  0.011972255            2 
 4176000   0.57199131   -8.4510117    661.41299  0.013198695  0.011968161            2 
 4177000   0.59075908    -8.450255      661.202  0.013191326  0.011964066            2 
 4178000   0.57676235   -8.4767408    660.93336   0.01318281  0.011959973            2 
 4179000   0.59769086   -8.4582219    660.31762  0.013167377  0.011955884            2 
 4180000   0.57849442   -8.4580987    662.51278   0.01320799  0.011951798            2 
 4181000   0.58356175   -8.4598582     662.3083  0.013200755  0.011947712            3 
 4182000   0.59092648   -8.4631388    661.70859  0.013185649  0.011943631            2 
 4183000   0.57705313   -8.4645982    661.34741  0.013175301  0.011939548            3 
 4184000   0.58823354   -8.4565186     661.4665  0.013174524  0.011935469            1 
 4185000   0.58428423   -8.4628406    661.19974  0.013166064  0.011931391            1 
 4186000    0.5800306   -8.4724159    661.90402  0.013176939  0.011927311            5 
 4187000   0.58003034   -8.4605549    661.81516  0.013172024  0.011923241            1 
 4188000   0.57960124   -8.4927318     660.3291  0.013139309  0.011919171            2 
 4189000   0.59399981   -8.4383779    661.48069  0.013159081  0.011915103            4 
 4190000   0.56937714   -8.4560039    661.29746  0.013152296   0.01191104            1 
 4191000    0.5833492   -8.4669304    661.59704  0.013155115  0.011906977            1 
 4192000    0.5769667   -8.4636932    661.68313  0.013153688   0.01190291            1 
 4193000   0.58841533    -8.458375    661.56186  0.013148141  0.011898847            2 
 4194000   0.57795378   -8.4610828    662.49637  0.013163574   0.01189479            2 
 4195000   0.58871125   -8.4741903    661.85093  0.013147615  0.011890732            3 
 4196000   0.57771252   -8.4605954      661.597  0.013139438  0.011886677            2 
 4197000   0.57606473   -8.4650534      662.664  0.013157494  0.011882616            2 
 4198000   0.56769214   -8.4786322     660.9265  0.013119869   0.01187856            1 
 4199000   0.57760072   -8.4608051    660.87208  0.013115664  0.011874508            3 
 4200000    0.5861821   -8.4711611    660.81296  0.013111368  0.011870457            1 
 4201000   0.58940165   -8.4636604    662.06352  0.013133054  0.011866411            2 
 4202000   0.58126685   -8.4482836     661.5275  0.013119298   0.01186236            3 
 4203000    0.5765097   -8.4609807    661.78256  0.013121234  0.011858314            2 
 4204000    0.5754099   -8.4745134    660.93028  0.013101219  0.011854265            3 
 4205000   0.57786451   -8.4618558    660.97849  0.013099058   0.01185022            2 
 4206000   0.58630014   -8.4550042    661.97085  0.013115606  0.011846177            2 
 4207000   0.57504091   -8.4587051    661.40857   0.01310135  0.011842135            2 
 4208000    0.5701597   -8.4758033    660.41877  0.013078635  0.011838095            3 
 4209000   0.57159747   -8.4514878    661.93415  0.013105531  0.011834051            2 
 4210000   0.56261498   -8.4797665    661.66485  0.013097087  0.011830013            2 
 4211000   0.56896979   -8.4684131    661.77274  0.013096112  0.011825977            2 
 4212000   0.57808169   -8.4716425    661.06137  0.013078929  0.011821938            3 
 4213000   0.58774273   -8.4628162    660.74929  0.013069651  0.011817902            2 
 4214000   0.57880491   -8.4732916    660.79364  0.013067427   0.01181387            2 
 4215000   0.58535675   -8.4635538    661.52961  0.013078877  0.011809838            4 
 4216000   0.57620349   -8.4429203    660.42261  0.013053894  0.011805807            2 
 4217000   0.58287323   -8.4477854    660.93867  0.013060996  0.011801785            2 
 4218000   0.58329751   -8.4664762    662.53306    0.0130894  0.011797763            3 
 4219000   0.57685936   -8.4598431    660.94031  0.013054838  0.011793733            1 
 4220000   0.56626085     -8.46504    661.13794  0.013055646  0.011789708            1 
 4221000   0.56830039   -8.4761435    659.84025  0.013026934  0.011785686            3 
 4222000   0.58556059   -8.4668084    660.45941  0.013036069  0.011781661            1 
 4223000   0.57308261   -8.4730228    660.73803   0.01303848  0.011777639            3 
 4224000   0.58938377   -8.4456139    660.82483  0.013037106  0.011773624            2 
 4225000   0.56690078   -8.4954572    660.81346  0.013033796  0.011769608            3 
 4226000   0.58313285   -8.4772727    661.72755  0.013048737  0.011765594            2 
 4227000   0.57206853   -8.4742261    661.86083  0.013048278  0.011761579            1 
 4228000     0.570647   -8.4842841    661.26383  0.013033425   0.01175757            1 
 4229000   0.59294552   -8.4715364    660.63988  0.013018048  0.011753563            3 
 4230000   0.56879578   -8.4553028    661.28312  0.013027642  0.011749551            3 
 4231000   0.57084463   -8.4693629    661.86325  0.013035989  0.011745547            5 
 4232000   0.57162886   -8.4759631    661.33246  0.013022457  0.011741541            3 
 4233000   0.57337717   -8.4575833    660.65155  0.013005976  0.011737532            2 
 4234000   0.57204795   -8.4779599     662.7601  0.013044404  0.011733527            1 
 4235000   0.56865048   -8.4443552    661.33537  0.013013289  0.011729523            4 
 4236000   0.56209246    -8.463786    660.48898  0.012993567  0.011725517            2 
 4237000   0.57549422   -8.4659951    661.22603  0.013004996  0.011721517            2 
 4238000   0.58030396   -8.4808423    660.97085   0.01299691   0.01171752            4 
 4239000    0.5709978   -8.4689382      661.704  0.013008257  0.011713529            2 
 4240000   0.57565631   -8.4944597    659.62662   0.01296436  0.011709535            5 
 4241000   0.57584098   -8.4787512    660.62814  0.012980982  0.011705533            4 
 4242000   0.58499686   -8.4784997     661.3633  0.012992364  0.011701538            4 
 4243000   0.59749815   -8.5131368    661.36915  0.012989417  0.011697543            3 
 4244000    0.5708044   -8.4613347    661.56215  0.012990146   0.01169355            4 
 4245000   0.58573361   -8.4915527    661.12085  0.012978423  0.011689562            2 
 4246000   0.57761631   -8.4723175    661.98297  0.012992286  0.011685575            2 
 4247000   0.57033095   -8.4775154    661.23254  0.012974502   0.01168159            2 
 4248000   0.57090079   -8.4808899    661.26444  0.012972074  0.011677605            2 
 4249000   0.56787465   -8.4745376    660.72124  0.012958367  0.011673621            3 
 4250000   0.57606968    -8.472348    660.46288  0.012950253  0.011669632            3 
 4251000   0.58090815   -8.5003477    660.69828  0.012951821  0.011665647            1 
 4252000   0.57880674   -8.4978221    661.42561  0.012963029  0.011661662            3 
 4253000   0.57320414   -8.4863404    659.85873   0.01292928   0.01165768            3 
 4254000   0.54903369   -8.4781307    660.97236  0.012948056  0.011653696            7 
 4255000   0.56587526   -8.4735523    661.22442  0.012949949  0.011649716            3 
 4256000   0.56727799   -8.4813027    660.66593  0.012935971  0.011645735            6 
 4257000   0.57045553   -8.4813818    659.78922   0.01291577  0.011641756            4 
 4258000   0.57145197   -8.4976639    660.79367  0.012932395  0.011637781            1 
 4259000   0.56311556   -8.4958819    661.11615  0.012935669   0.01163381            1 
 4260000   0.57960432   -8.4915554    660.91684  0.012928733  0.011629841            2 
 4261000   0.56257329   -8.4577715    661.62666  0.012939581  0.011625873            4 
 4262000   0.59315471   -8.4849315    661.14656  0.012927158  0.011621907            3 
 4263000   0.57023275   -8.4848011    660.73826  0.012916144  0.011617943            3 
 4264000   0.56889632   -8.4935818    659.57032  0.012890289  0.011613976            2 
 4265000   0.56626029   -8.4637429    660.39087    0.0129033  0.011610012            1 
 4266000   0.58030264   -8.4531476    659.77539  0.012888252  0.011606052            1 
 4267000   0.57232139   -8.4900242     660.1952   0.01289343  0.011602091            3 
 4268000   0.55999122   -8.5017684     661.1375  0.012908808  0.011598135            2 
 4269000     0.563955    -8.485533    660.45227  0.012892408  0.011594176            3 
 4270000   0.55781303   -8.4940446    660.65026  0.012893253  0.011590219            4 
 4271000   0.56679702   -8.4991839    660.21792  0.012881798  0.011586263            2 
 4272000   0.56465281   -8.4769449    660.41915  0.012882708   0.01158231            4 
 4273000   0.55314913   -8.4640351    660.49826  0.012881236   0.01157836            3 
 4274000   0.57300274   -8.4922108    659.83144  0.012865221  0.011574407            3 
 4275000   0.56153027   -8.4947867    660.93558  0.012883735  0.011570465            4 
 4276000   0.58494078   -8.4784956    661.47114  0.012891159  0.011566525            2 
 4277000   0.56378039   -8.4613268    661.02567  0.012879465  0.011562585            2 
 4278000    0.5660925   -8.4818194    660.70733  0.012870253  0.011558645            5 
 4279000   0.55465221   -8.4885263    660.67852  0.012866685  0.011554706            4 
 4280000    0.5554512   -8.5038439     659.9669  0.012849823   0.01155077            3 
 4281000   0.56901907   -8.4945671    659.38792  0.012835551  0.011546831            3 
 4282000   0.55888026   -8.4746601    659.80333  0.012840638  0.011542898            3 
 4283000   0.56815289   -8.5087615    660.73867  0.012855838  0.011538967            3 
 4284000   0.56479542   -8.4864383    660.22537  0.012842853  0.011535037            2 
 4285000   0.56433328   -8.4766364    660.60736  0.012847284  0.011531101            2 
 4286000   0.56319998   -8.4703203    660.83355  0.012848685  0.011527176            4 
 4287000   0.56105936   -8.4660838    660.08296  0.012831097  0.011523251            2 
 4288000   0.57597438   -8.4828242    662.64935   0.01287798  0.011519329            1 
 4289000    0.5669228   -8.4840674    661.03787  0.012843667  0.011515411            1 
 4290000   0.55690112    -8.483763    660.73914  0.012834871  0.011511498            5 
 4291000   0.57161331   -8.4850372    660.47681  0.012826785  0.011507582            1 
 4292000   0.56384937   -8.4833779    661.11413  0.012836171  0.011503671            2 
 4293000   0.56347151   -8.4711959    659.65501  0.012804857  0.011499753            2 
 4294000   0.56999374   -8.4825661    659.58352  0.012800488  0.011495833            2 
 4295000   0.56734027   -8.4957401    659.99709  0.012805531   0.01149192            3 
 4296000   0.56407144   -8.4892912    660.71254  0.012816429  0.011488001            2 
 4297000   0.55895127   -8.5084897    658.67682  0.012773967  0.011484079            2 
 4298000   0.57791747   -8.4986529    660.20813  0.012800685  0.011480163            2 
 4299000   0.56539955   -8.4744651    660.76169  0.012808438  0.011476256            3 
 4300000   0.55074031   -8.4848562    661.01899  0.012810446  0.011472343            2 
 4301000   0.55296483   -8.5233195    660.54065  0.012798199  0.011468431            2 
 4302000   0.55989735   -8.4983224    659.51669  0.012775389  0.011464521            1 
 4303000   0.54959142   -8.4942329      660.641  0.012794194  0.011460611            3 
 4304000   0.57628276   -8.4952819    659.25818  0.012764447  0.011456701            1 
 4305000   0.55248598   -8.4970588    659.65004  0.012769068  0.011452791            3 
 4306000   0.56586878   -8.5143672    660.20824  0.012776905  0.011448887            2 
 4307000    0.5659554    -8.495179    660.48619  0.012779317  0.011444984            2 
 4308000   0.56971278    -8.512045    660.39784  0.012774641  0.011441091            2 
 4309000   0.56581586   -8.5172124     659.6341  0.012756906  0.011437194            2 
 4310000    0.5633931   -8.4979391     659.5511  0.012752342   0.01143329            1 
 4311000   0.55744023   -8.5069008    660.52105  0.012768133  0.011429388            3 
 4312000   0.56539582   -8.4867255    660.15335  0.012758066  0.011425489            2 
 4313000   0.55980575   -8.4989284    660.29185  0.012757784  0.011421593            2 
 4314000   0.56501434   -8.5001719    660.60712  0.012760916  0.011417696            2 
 4315000   0.56480238   -8.5052078    659.95359  0.012745338    0.0114138            4 
 4316000   0.56012975    -8.490492    659.86556  0.012740685  0.011409909            2 
 4317000   0.55933548   -8.4990142    659.51596  0.012730985  0.011406024            3 
 4318000   0.56864899   -8.5079158    659.24029  0.012722717  0.011402138            2 
 4319000   0.56135835   -8.5028192     660.9833  0.012753402  0.011398252            2 
 4320000   0.55874402   -8.5125442    659.82046  0.012728018  0.011394368            2 
 4321000   0.56004594   -8.4859298    659.39301  0.012716829  0.011390491            2 
 4322000   0.54857134   -8.4897808     659.3079  0.012712246  0.011386613            4 
 4323000   0.57121185   -8.5051184    659.66532  0.012716195  0.011382733            2 
 4324000   0.56892018   -8.4930268    659.93986  0.012718545  0.011378856            2 
 4325000    0.5657077   -8.5045624    658.50181  0.012687896  0.011374984            3 
 4326000   0.56831197   -8.4796026    660.02617  0.012714327  0.011371111            2 
 4327000   0.55113067   -8.5151002    659.45123  0.012700316  0.011367235            2 
 4328000    0.5581735   -8.5105955    659.82681  0.012704614  0.011363365            2 
 4329000   0.57354453   -8.5104559    660.70137  0.012718514  0.011359496            1 
 4330000   0.56183881   -8.5130061     660.7179  0.012715895  0.011355631            3 
 4331000   0.55268308   -8.4894815    659.63749  0.012692171  0.011351763            2 
 4332000   0.57064256   -8.5044254    659.83955  0.012693128  0.011347891            1 
 4333000   0.54511869   -8.5094061    660.33568   0.01269974  0.011344024            3 
 4334000   0.56400173   -8.5119665    660.85492  0.012706794  0.011340159            3 
 4335000   0.56240091   -8.5079342    660.21272  0.012691517  0.011336296            3 
 4336000   0.57437793   -8.4877056    660.79509  0.012699783  0.011332438            4 
 4337000   0.54682697   -8.5154543    659.85219  0.012678737  0.011328573            3 
 4338000    0.5536924   -8.4951623    659.79484  0.012674713  0.011324717            2 
 4339000   0.55696028   -8.5190814    659.71896  0.012670334  0.011320858            3 
 4340000   0.56157222   -8.5139669     659.6291  0.012665689  0.011317004            3 
 4341000   0.56725058   -8.4892504    659.79178  0.012665894  0.011313151            3 
 4342000   0.56170261   -8.5140817    659.46683  0.012656741  0.011309302            2 
 4343000    0.5583858   -8.4988406    659.71201  0.012658531  0.011305455            2 
 4344000   0.55223809   -8.5050522    660.81205   0.01267672  0.011301611            1 
 4345000   0.55081066   -8.5039943    660.04212  0.012659036  0.011297761            3 
 4346000    0.5556379   -8.5176666     658.2651  0.012622049  0.011293909            1 
 4347000    0.5567188   -8.5006375    659.95208  0.012651485  0.011290061            2 
 4348000    0.5532467   -8.4956712    660.98373  0.012668348  0.011286219            1 
 4349000   0.56632523   -8.5179159    659.35951  0.012634313  0.011282375            1 
 4350000   0.54903022   -8.5203192    659.77561   0.01263938  0.011278532            2 
 4351000   0.56964184   -8.5108249    658.57016  0.012613387  0.011274691            1 
 4352000   0.55171922   -8.5215687    659.91832  0.012636304  0.011270852            1 
 4353000   0.55443326   -8.5244531     660.0309  0.012635556  0.011267015            2 
 4354000   0.55067515   -8.5007463    660.24135  0.012636682  0.011263179            2 
 4355000   0.54743148   -8.5203077    660.25466  0.012634035  0.011259338            5 
 4356000   0.56190017   -8.5089173    659.89804  0.012624312  0.011255505            4 
 4357000   0.55443327   -8.5137794    659.76627  0.012618894   0.01125167            1 
 4358000   0.55632245    -8.513532    659.48531  0.012610626  0.011247832            3 
 4359000   0.54987504   -8.5123155    659.67003  0.012611265  0.011244001            2 
 4360000   0.55056329   -8.5074972    658.71891  0.012590193  0.011240177            1 
 4361000      0.56311   -8.5143713     659.1883  0.012596276  0.011236346            1 
 4362000   0.54089065   -8.5095128    659.55891  0.012600468  0.011232518            2 
 4363000   0.55462446   -8.5113878    658.95475  0.012586041  0.011228695            2 
 4364000    0.5589597   -8.5344243    658.65716  0.012577474  0.011224869            1 
 4365000   0.55614584   -8.5235566    659.14543  0.012583914  0.011221046            1 
 4366000   0.54963959   -8.5296603    659.74192  0.012592417  0.011217227            1 
 4367000   0.55445085   -8.5097225    659.22518  0.012579673  0.011213408            1 
 4368000   0.54860467   -8.5183891    659.73441  0.012586508  0.011209591            1 
 4369000   0.55722768   -8.5105559    659.67906  0.012582571  0.011205773            1 
 4370000   0.54829878   -8.5222128    658.97838  0.012566331  0.011201959            2 
 4371000   0.55119421   -8.5137711    660.49063  0.012592287  0.011198145            2 
 4372000   0.55127457   -8.4996149    659.58929  0.012572227  0.011194332            2 
 4373000   0.55564098    -8.495421    659.09209  0.012559877  0.011190523            1 
 4374000   0.55912563    -8.508297    659.46922   0.01256419  0.011186715            1 
 4375000   0.53179201   -8.5042027    660.18934  0.012575035  0.011182914            2 
 4376000   0.53857919   -8.5171566    658.69836  0.012543768  0.011179108            2 
 4377000   0.55851163    -8.495909    658.93976  0.012545498  0.011175309            2 
 4378000   0.56154725   -8.4963286    659.89253  0.012560768  0.011171515            2 
 4379000   0.55262173   -8.5276456    659.41707  0.012548852  0.011167714            2 
 4380000   0.55915532   -8.5179756    658.97793  0.012537632   0.01116392            2 
 4381000   0.53813949   -8.5160297    659.47466  0.012544219  0.011160126            1 
 4382000   0.55076752   -8.5213902    659.39304  0.012539804  0.011156332            2 
 4383000   0.55687725   -8.5119502    659.34111  0.012535955  0.011152541            1 
 4384000   0.54085909   -8.5159023    659.19699  0.012530356   0.01114875            3 
 4385000   0.54186308   -8.5289658    659.35545   0.01253051  0.011144964            3 
 4386000   0.54199112   -8.5194691    657.98366   0.01250159  0.011141176            1 
 4387000   0.54009528   -8.5038275    659.80026  0.012533247  0.011137387            2 
 4388000   0.56522877   -8.5148221    659.23411  0.012519639  0.011133599            2 
 4389000   0.56790593   -8.5112788     658.9766  0.012511897  0.011129817            2 
 4390000   0.55077885   -8.5204679    659.10737  0.012511529  0.011126031            2 
 4391000   0.54672636   -8.5140136    659.55621  0.012517198   0.01112225            1 
 4392000   0.54642189   -8.5396867    659.32571  0.012509975  0.011118462            1 
 4393000   0.55643439    -8.525916    659.58896  0.012512121  0.011114684            1 
 4394000   0.54053696   -8.5201312    659.72769  0.012511904  0.011110903            3 
 4395000   0.54685937   -8.5121666    657.92437  0.012474865  0.011107126            1 
 4396000   0.55331313    -8.539903    660.58824  0.012522525  0.011103352            2 
 4397000   0.54617222   -8.5255524    658.24709  0.012475307  0.011099583            2 
 4398000   0.53849174   -8.5160599    658.49571  0.012477181  0.011095814            1 
 4399000   0.54408132   -8.5220266    658.56817  0.012475717  0.011092043            2 
 4400000   0.55809335   -8.5175529     659.5749  0.012491949  0.011088271            1 
 4401000   0.53838113   -8.5193624    659.58933  0.012489384    0.0110845            3 
 4402000   0.54917418     -8.53034    659.05674  0.012476464  0.011080733            1 
 4403000   0.55355287   -8.5299748    658.65772  0.012466078  0.011076967            1 
 4404000   0.55045946   -8.5230818     659.2121  0.012473738  0.011073202            1 
 4405000   0.55850464   -8.5247084    660.19389   0.01248948  0.011069434            1 
 4406000   0.54953238   -8.5233119    659.38195  0.012471288  0.011065665            2 
 4407000   0.56024753   -8.5304373    660.49318  0.012489471  0.011061903            1 
 4408000   0.54884256   -8.5230071    659.14711   0.01246119  0.011058144            3 
 4409000   0.52998467   -8.5050665    658.57859  0.012447618  0.011054384            2 
 4410000   0.53824729   -8.5362175    659.08108  0.012454291  0.011050629            1 
 4411000   0.54418941   -8.5278611    660.01759   0.01246916  0.011046877            2 
 4412000   0.55704582   -8.5193371    658.79708  0.012443281  0.011043128            1 
 4413000   0.55114882   -8.5311712    660.05055  0.012464132  0.011039379            2 
 4414000   0.54985324   -8.5341509    659.22649   0.01244575  0.011035627            1 
 4415000   0.54381517    -8.531059    658.06731  0.012421051  0.011031879            1 
 4416000   0.54692381   -8.5348545    658.27373  0.012422134  0.011028131            2 
 4417000   0.54665361   -8.5448276    658.19698  0.012417874  0.011024389            1 
 4418000   0.53887829   -8.5263771    659.87058  0.012446631  0.011020647            4 
 4419000   0.53243345    -8.534473    658.30934  0.012414372  0.011016906            2 
 4420000   0.55188401   -8.5379349    658.68048  0.012418561  0.011013165            3 
 4421000   0.53568885   -8.5427678    659.07989  0.012423281  0.011009424            2 
 4422000   0.56166506   -8.5375938    659.35589  0.012425673  0.011005689            3 
 4423000   0.53667378   -8.5462208    658.37364  0.012404357  0.011001953            3 
 4424000   0.55137436   -8.5436097    660.69493  0.012445278  0.010998219            3 
 4425000   0.55149251   -8.5363133     659.6688  0.012423141  0.010994489            1 
 4426000   0.55425863    -8.546875    659.58417  0.012418741  0.010990757            2 
 4427000   0.54480998   -8.5400821    658.44572  0.012394506  0.010987027            2 
 4428000   0.54820614   -8.5202769    658.62652  0.012395109    0.0109833            2 
 4429000   0.54724609   -8.5358987    658.57429  0.012391328  0.010979573            2 
 4430000   0.55044236   -8.5181826    658.34059  0.012384134  0.010975847            2 
 4431000   0.55408479   -8.5480401    658.93629  0.012392543  0.010972121            3 
 4432000   0.53949171   -8.5313224    659.49576  0.012400266  0.010968394            3 
 4433000   0.53849553   -8.5311008    658.89544  0.012386184  0.010964669            2 
 4434000   0.52912579   -8.5287652    658.32483  0.012372666  0.010960946            2 
 4435000   0.55350365   -8.5299284    659.01968  0.012382933  0.010957227            1 
 4436000    0.5420264   -8.5241725    659.11254  0.012381886  0.010953509            1 
 4437000   0.53308005    -8.535782    657.93724  0.012357021  0.010949796            2 
 4438000   0.53203348   -8.5431461    658.83885  0.012371167  0.010946079            2 
 4439000   0.54337141   -8.5325102    657.29372  0.012339373  0.010942364            2 
 4440000   0.54543442   -8.5543167    658.51255   0.01235947  0.010938652            1 
 4441000   0.55224136   -8.5315983    658.51038  0.012356646  0.010934941            2 
 4442000   0.53602191   -8.5235184    657.65308  0.012337781   0.01093123            2 
 4443000    0.5302383    -8.520308      658.499   0.01235087  0.010927523            3 
 4444000   0.55239378   -8.5425542    658.36183  0.012345519  0.010923819            3 
 4445000   0.53951053    -8.551697    657.89448   0.01233398  0.010920112            2 
 4446000   0.53616084   -8.5345438    659.02351  0.012352367   0.01091641            2 
 4447000   0.54585531   -8.5487363    658.58071  0.012341292   0.01091271            3 
 4448000   0.54405369   -8.5379326    658.67508  0.012340286  0.010909009            3 
 4449000   0.53576666   -8.5343303     660.2825   0.01236762  0.010905311            2 
 4450000   0.53442093   -8.5418401    659.20664  0.012344694  0.010901612            2 
 4451000   0.54180338   -8.5414521    658.84189  0.012335091  0.010897919            2 
 4452000   0.54906547   -8.5460304    658.99421  0.012335172  0.010894225            2 
 4453000   0.54192067   -8.5213848    660.04244  0.012352018  0.010890533            3 
 4454000   0.53669833   -8.5444799    658.55605  0.012321435  0.010886844            3 
 4455000     0.538213   -8.5516527    658.68603    0.0123211  0.010883156            2 
 4456000   0.52257188   -8.5322276    659.21725   0.01232827  0.010879465            2 
 4457000   0.54339616   -8.5390256     658.7175   0.01231616  0.010875776            3 
 4458000   0.54411455   -8.5473417    659.03024  0.012319243  0.010872091            2 
 4459000   0.55366231    -8.548646    658.04829  0.012298129  0.010868406            2 
 4460000   0.54298496   -8.5407718    659.90159      0.01233  0.010864724            2 
 4461000   0.53623903   -8.5127909    657.68268  0.012285786  0.010861043            2 
 4462000    0.5340039   -8.5420364    657.84808  0.012286121   0.01085736            1 
 4463000   0.52425862   -8.5303324    658.55648  0.012296596  0.010853684            2 
 4464000   0.52621621   -8.5278005    659.20495  0.012305947  0.010850009            4 
 4465000   0.53314442   -8.5464707    658.85691  0.012296695  0.010846335            3 
 4466000   0.52966582   -8.5447455    658.32095  0.012283941  0.010842661            1 
 4467000   0.53580416    -8.558173    659.48874  0.012302976  0.010838986            3 
 4468000   0.53664897   -8.5624835    657.53271  0.012263741  0.010835313            1 
 4469000   0.52824375   -8.5556683    658.33428  0.012275943  0.010831643            2 
 4470000   0.53326016   -8.5517263    659.57661  0.012296357  0.010827974            3 
 4471000   0.53370289   -8.5339278    657.71504   0.01225891  0.010824305            4 
 4472000   0.53878593   -8.5431831    658.46583  0.012270159  0.010820643            1 
 4473000   0.53149781   -8.5455453    658.05567  0.012259775  0.010816982            4 
 4474000   0.53024962   -8.5415398     658.9594  0.012273867  0.010813323            2 
 4475000   0.54614039   -8.5341136    659.64552  0.012283902  0.010809663            1 
 4476000    0.5336612   -8.5480518    657.35242  0.012238465   0.01080601            1 
 4477000   0.53489402   -8.5610594    658.85536  0.012263706  0.010802353            2 
 4478000   0.53977937   -8.5399025    658.63169  0.012256805  0.010798696            2 
 4479000   0.52707801   -8.5407056    657.91906   0.01224081  0.010795041            2 
 4480000   0.54763743   -8.5466572    658.12328  0.012241877  0.010791385            2 
 4481000    0.5379624   -8.5431769    658.62517  0.012248478  0.010787732            2 
 4482000   0.54531674   -8.5444606     658.5692  0.012244705  0.010784084            2 
 4483000   0.54271167   -8.5626869     658.5184  0.012241029  0.010780435            3 
 4484000   0.52979964   -8.5494623    659.01821  0.012247588  0.010776787            3 
 4485000   0.53903825   -8.5543006    659.06983  0.012245816   0.01077314            2 
 4486000   0.53267384   -8.5567064    658.26666  0.012228167   0.01076949            4 
 4487000    0.5348272   -8.5698931    658.61901  0.012231985  0.010765847            3 
 4488000   0.54314117   -8.5533318    657.29038   0.01220459  0.010762205            2 
 4489000   0.53810954   -8.5615829    656.40495  0.012185434  0.010758562            1 
 4490000   0.53008131   -8.5492071    657.81348  0.012208862   0.01075492            1 
 4491000    0.5233036    -8.564283    658.39527  0.012216939  0.010751281            2 
 4492000    0.5307804    -8.560255    658.55373  0.012217159  0.010747646            2 
 4493000    0.5272981   -8.5465567    658.26681  0.012209118  0.010744008            3 
 4494000    0.5294516   -8.5557321    658.03449  0.012202093  0.010740375            3 
 4495000   0.54256629   -8.5514237    658.03329  0.012199357  0.010736746            2 
 4496000   0.53390165   -8.5536771    658.96092  0.012213837  0.010733116            1 
 4497000   0.52897804   -8.5596624    658.01168  0.012193531  0.010729484            2 
 4498000   0.53016342   -8.5420867    658.68763  0.012203343  0.010725858            4 
 4499000    0.5350862   -8.5497995    657.67693  0.012181909  0.010722234            3 
 4500000   0.53552503   -8.5550855     657.9939  0.012185072  0.010718611            1 
 4501000   0.52161244   -8.5629407    658.50529  0.012191833  0.010714989            1 
 4502000   0.53369204   -8.5468788    656.96697   0.01216065  0.010711368            1 
 4503000   0.52317313    -8.562455    658.16101  0.012180047  0.010707747            2 
 4504000   0.52958952    -8.567883    657.33121   0.01216199  0.010704131            1 
 4505000   0.52256394   -8.5456994    658.18645   0.01217511  0.010700516            3 
 4506000   0.51570844   -8.5534735    657.77875  0.012164868  0.010696903            2 
 4507000   0.52257901   -8.5334967    656.98392  0.012147473  0.010693291            4 
 4508000   0.52791466   -8.5533181    658.45814   0.01217203  0.010689682            7 
 4509000   0.53267559   -8.5411181    659.11296  0.012181433  0.010686075            2 
 4510000   0.51744489   -8.5643634    657.55931  0.012150024  0.010682471            1 
 4511000   0.53934351   -8.5529194    658.87103  0.012171563  0.010678869            3 
 4512000    0.5215919   -8.5508175    657.28185  0.012139514  0.010675265            3 
 4513000   0.51553944   -8.5599095    658.33424  0.012156257  0.010671661            4 
 4514000   0.53424173   -8.5515321    658.10254  0.012149286   0.01066806            2 
 4515000   0.52960331   -8.5698782     658.3574  0.012151299  0.010664459            2 
 4516000   0.52516828   -8.5600136    659.13454  0.012162949   0.01066086            3 
 4517000   0.53111922   -8.5705817    657.89063  0.012137308  0.010657263            2 
 4518000   0.52467851   -8.5688095    659.74408  0.012168808  0.010653669            2 
 4519000   0.54206097   -8.5456049    657.99441   0.01213385  0.010650077            2 
 4520000   0.53969463   -8.5488559    656.97549   0.01211238  0.010646488            2 
 4521000   0.53235145   -8.5567026    657.13428  0.012112628  0.010642897            2 
 4522000   0.53680258   -8.5553526    657.52698  0.012117186  0.010639305            2 
 4523000    0.5219639   -8.5544537     658.7573  0.012137175  0.010635709            2 
 4524000   0.51926034   -8.5561078     657.8857  0.012118437  0.010632119            2 
 4525000   0.51963035   -8.5713765    658.24949  0.012122458  0.010628529            1 
 4526000    0.5277371   -8.5591166    658.29676   0.01212065  0.010624944            2 
 4527000   0.51479543     -8.54992    659.33077  0.012137007  0.010621361            2 
 4528000   0.52369077   -8.5528827    657.91331   0.01210824  0.010617778            3 
 4529000   0.52615177   -8.5460637    658.06626   0.01210838  0.010614196            4 
 4530000   0.53321299   -8.5568822    658.67509  0.012116908  0.010610616            1 
 4531000    0.5246097   -8.5526076     657.7219  0.012096702  0.010607041            2 
 4532000   0.52836011   -8.5419067     657.9626  0.012098459  0.010603466            1 
 4533000    0.5261346    -8.551172      657.769  0.012092231  0.010599895            3 
 4534000   0.52701378   -8.5527495    657.60041  0.012086465  0.010596318            2 
 4535000    0.5248826   -8.5488266    657.19067  0.012076271  0.010592745            2 
 4536000   0.53190654   -8.5578794    658.24464  0.012092972  0.010589177            4 
 4537000   0.52718171   -8.5644115    658.10818    0.0120878  0.010585608            1 
 4538000   0.52165656   -8.5618799    658.49789  0.012092293  0.010582039            2 
 4539000   0.53061992    -8.563644    658.52477  0.012090122  0.010578468            1 
 4540000   0.52064856   -8.5550814    657.73578  0.012072977  0.010574904            4 
 4541000   0.52331142   -8.5464981    658.06986  0.012076449  0.010571344            3 
 4542000   0.53347868   -8.5594567    657.75809   0.01206807  0.010567781            4 
 4543000   0.53635355   -8.5533173    658.11968  0.012072046  0.010564219            3 
 4544000   0.52023202   -8.5544442    658.00422  0.012067272   0.01056066            2 
 4545000   0.50935734   -8.5781599    658.06389  0.012065711  0.010557104            2 
 4546000    0.5309535   -8.5756291    658.67976  0.012074347  0.010553546            2 
 4547000   0.51763126   -8.5788633     657.8642  0.012056744  0.010549994            2 
 4548000   0.51918667   -8.5739796    658.06011  0.012057683   0.01054644            4 
 4549000   0.53046627   -8.5677783    658.04584  0.012054771  0.010542886            2 
 4550000   0.53634715   -8.5446454    658.30702  0.012056905  0.010539334            1 
 4551000   0.52243983   -8.5592489    658.19005  0.012052114  0.010535784            3 
 4552000   0.52080835   -8.5893727    659.43678   0.01207229  0.010532236            2 
 4553000   0.52619018   -8.5632827    657.61221  0.012036244   0.01052869            1 
 4554000   0.54186464   -8.5535916    658.14232  0.012043301  0.010525148            3 
 4555000     0.522251   -8.5610615    659.31729  0.012062153  0.010521608            1 
 4556000   0.52673239   -8.5592437    657.41359  0.012024685  0.010518066            1 
 4557000   0.52988233   -8.5749462    658.43951  0.012040807  0.010514526            3 
 4558000   0.53352855   -8.5714422     657.9804  0.012029772  0.010510987            2 
 4559000   0.51497661   -8.5757295    657.30316  0.012014754   0.01050745            1 
 4560000   0.52906293   -8.5717674    657.16295  0.012009557  0.010503913            3 
 4561000   0.52285117   -8.5616543     656.7435   0.01199926  0.010500378            2 
 4562000   0.53160809   -8.5729268    657.46213  0.012009757  0.010496846            2 
 4563000   0.52060624   -8.5522965    657.87435  0.012014653  0.010493314            1 
 4564000   0.52573824   -8.5786943     658.9855  0.012032309  0.010489783            2 
 4565000   0.52992352   -8.5741952    658.01449  0.012011948  0.010486253            2 
 4566000   0.52010954   -8.5523429     657.4866  0.011999682   0.01048273            2 
 4567000   0.51807628   -8.5705657    658.57032  0.012016829  0.010479208            4 
 4568000    0.5166513    -8.551647    658.94329  0.012021003  0.010475685            3 
 4569000    0.5274173   -8.5826557    658.08654  0.012002746  0.010472167            3 
 4570000   0.52045725   -8.5856396    656.51197  0.011971407  0.010468644            3 
 4571000   0.52051292   -8.5728641    656.62146  0.011970784  0.010465121            3 
 4572000   0.52542304   -8.5634926    658.11165  0.011995327  0.010461604            4 
 4573000   0.51987324   -8.5762929    657.29892  0.011977894  0.010458085            1 
 4574000    0.5137071   -8.5689414    658.35943  0.011994597   0.01045457            2 
 4575000   0.52609307    -8.583805    657.16022  0.011970132  0.010451053            2 
 4576000   0.53430359   -8.5666954    657.00834   0.01196475  0.010447539            3 
 4577000   0.51452191   -8.5641473    657.39647  0.011969202  0.010444028            2 
 4578000   0.53279551   -8.5575632     656.8691  0.011956988  0.010440517            6 
 4579000    0.5131704   -8.5754445     657.7454  0.011970325  0.010437011            2 
 4580000   0.51513736   -8.5777344    658.20261   0.01197603  0.010433504            3 
 4581000    0.5118426   -8.5704351    657.46086  0.011959922  0.010429998            3 
 4582000   0.52229497   -8.5874387    657.40623  0.011956319  0.010426496            1 
 4583000   0.51600196   -8.5555817      658.756  0.011978253  0.010422995            3 
 4584000   0.52464542   -8.5636622    659.11841  0.011982228    0.0104195            2 
 4585000   0.51841378   -8.5655272    657.15544  0.011943938  0.010416005            2 
 4586000   0.51739443   -8.5717879    657.15046  0.011941243  0.010412511            2 
 4587000   0.51664122   -8.5615513    657.92326  0.011952679  0.010409016            3 
 4588000   0.52659462   -8.5855302     657.0815  0.011934785   0.01040552            2 
 4589000   0.50822622    -8.576155        656.9  0.011928888  0.010402026            2 
 4590000   0.51151809   -8.5736537    657.69987  0.011940811  0.010398532            3 
 4591000   0.52047608   -8.5703205    658.08112   0.01194513  0.010395043            1 
 4592000   0.51418126    -8.579682    657.58761  0.011933573  0.010391553            1 
 4593000   0.51129801    -8.583713    657.37823  0.011927176  0.010388068            3 
 4594000   0.51902352   -8.5710277    658.34872  0.011942184  0.010384584            7 
 4595000   0.51737059   -8.5596585    658.82687  0.011948257  0.010381102            2 
 4596000   0.52055591   -8.5775268    658.38595  0.011937662  0.010377621            3 
 4597000   0.51303591   -8.5721646    657.90534  0.011926353  0.010374138            3 
 4598000   0.51990995   -8.5827006    656.61752  0.011900419  0.010370658            2 
 4599000   0.50506346   -8.5818903    657.31022  0.011910383  0.010367183            3 
 4600000   0.51256991     -8.59637     658.2658  0.011925105  0.010363708            2 
 4601000   0.50755499   -8.5917167    656.92672   0.01189826  0.010360232            4 
 4602000   0.51864642   -8.5842634    657.69391  0.011909567  0.010356757            3 
 4603000   0.51141112   -8.5876826    657.10454  0.011896309  0.010353281            2 
 4604000   0.52427849   -8.5781726    657.55244  0.011901832  0.010349806            1 
 4605000   0.51963556   -8.5752491    657.28944  0.011894489  0.010346334            2 
 4606000   0.51374138   -8.5770331    656.87307  0.011884373  0.010342864            2 
 4607000   0.50696442   -8.5782259    656.96627  0.011883479  0.010339397            3 
 4608000   0.51351235   -8.5698059    657.94832   0.01189866  0.010335936            3 
 4609000   0.52255875   -8.5796771    658.64542  0.011908683  0.010332468            3 
 4610000    0.5225696   -8.5773655    658.23223   0.01189863  0.010329004            3 
 4611000   0.51241749   -8.5963668    657.40926  0.011881176  0.010325538            2 
 4612000   0.51170892    -8.579954    656.51927  0.011862519  0.010322077            3 
 4613000   0.50743655   -8.5973533    657.95868  0.011885951  0.010318615            2 
 4614000   0.51711456    -8.574786     657.7779  0.011880109  0.010315154            2 
 4615000   0.51823763   -8.5786628    657.78795  0.011877717  0.010311697            3 
 4616000   0.51352001   -8.5801343    658.12698  0.011881264  0.010308238            1 
 4617000   0.52560784   -8.5750261    657.43845  0.011866263  0.010304781            2 
 4618000   0.51958181   -8.5876954    657.16346  0.011858731  0.010301324            2 
 4619000   0.51086563   -8.6025921    656.58112  0.011845658  0.010297868            2 
 4620000   0.50929662   -8.5789304     657.9295  0.011867415  0.010294415            2 
 4621000   0.49986733   -8.5892235    658.47712  0.011874723  0.010290961            4 
 4622000   0.52094894   -8.5799022    657.63104  0.011856899   0.01028751            5 
 4623000    0.5096618   -8.5995668    657.51255  0.011852198  0.010284059            2 
 4624000   0.52397478   -8.5733017     657.6702  0.011852476  0.010280611            3 
 4625000    0.5008266    -8.581161      657.776   0.01185182  0.010277164            3 
 4626000   0.51512507   -8.5708349    656.60129  0.011828097  0.010273722            2 
 4627000   0.50637148   -8.5962935    656.78064   0.01182877  0.010270278            4 
 4628000   0.51704838   -8.6041168      657.828  0.011845073  0.010266833            2 
 4629000   0.50069291   -8.5666894    657.63293  0.011839003  0.010263391            2 
 4630000   0.51208986   -8.5857166    658.05163  0.011843982  0.010259952            2 
 4631000   0.51374145   -8.5803438    657.47677   0.01183108  0.010256512            2 
 4632000   0.50903529   -8.5908637    657.17363  0.011823072  0.010253074            1 
 4633000   0.51588364    -8.581886    656.92697  0.011816083   0.01024964            2 
 4634000   0.51503725   -8.5982647    657.14232  0.011817406  0.010246202            1 
 4635000   0.51882017   -8.5763609    657.24554  0.011816712   0.01024277            2 
 4636000   0.50886604   -8.5704197    657.85963  0.011825202  0.010239343            1 
 4637000   0.51107913   -8.5774876    657.34326  0.011813372  0.010235915            1 
 4638000   0.51298597   -8.5809912    656.97866  0.011804274  0.010232484            2 
 4639000   0.51096954   -8.5834726    657.93604  0.011818927  0.010229058            4 
 4640000   0.50446423   -8.5811076    656.99796  0.011799532  0.010225633            4 
 4641000   0.49859835   -8.6002509    657.93391  0.011813796  0.010222216            1 
 4642000   0.49895689   -8.5923088    656.73976  0.011789813  0.010218797            2 
 4643000   0.51338178   -8.6044186     656.9188  0.011790487  0.010215373            2 
 4644000    0.5029294     -8.58764    656.49421   0.01178033  0.010211955            2 
 4645000   0.50657301   -8.5954094    656.85417  0.011784251  0.010208537            2 
 4646000   0.50023968    -8.584419     656.5759  0.011776724  0.010205122            2 
 4647000   0.49669676   -8.6152904     657.2038  0.011785449  0.010201705            2 
 4648000   0.52125989   -8.5879783    657.14536  0.011781866  0.010198291            2 
 4649000   0.50509353   -8.5887856    657.92513  0.011793309  0.010194877            1 
 4650000   0.50921092   -8.6150445    657.20421  0.011777853  0.010191465            4 
 4651000   0.50264426   -8.5824921    658.05537  0.011790571  0.010188053            2 
 4652000   0.50162026   -8.5946313    656.89287  0.011767212  0.010184641            3 
 4653000   0.51525036   -8.5936571    655.97287  0.011748207  0.010181236            3 
 4654000    0.5108354   -8.5944516    656.94395   0.01176307  0.010177832            1 
 4655000   0.50673151   -8.5814044    657.27221   0.01176642  0.010174424            2 
 4656000   0.50257503   -8.5842647    656.48056  0.011749724  0.010171023            2 
 4657000   0.51877687   -8.5900197    657.84336  0.011771587  0.010167622            1 
 4658000   0.51303949   -8.5926627    657.78728  0.011768056  0.010164222            2 
 4659000   0.50952293   -8.5983142    656.45179  0.011741643  0.010160821            2 
 4660000   0.51817179   -8.5867838    657.50367  0.011757934  0.010157425            1 
 4661000   0.50269466   -8.5897393    656.90935  0.011744786  0.010154029            2 
 4662000   0.50353408   -8.5873616    656.78849  0.011740106  0.010150633            1 
 4663000   0.50810279   -8.6033517    657.08739   0.01174293  0.010147241            1 
 4664000   0.50197496   -8.5852165    656.36286  0.011727467   0.01014385            1 
 4665000   0.50314611   -8.5997881    656.47618  0.011726977  0.010140457            3 
 4666000   0.50609091   -8.6012494    657.01691  0.011734121  0.010137068            3 
 4667000   0.50460742   -8.5955671    657.30938  0.011736829  0.010133683            2 
 4668000   0.49767438   -8.5932214    657.42047  0.011736298  0.010130296            3 
 4669000   0.50881603   -8.6011275    657.37368  0.011732949   0.01012691            2 
 4670000   0.49631307   -8.6038962    656.51192  0.011715059  0.010123525            4 
 4671000   0.49902834   -8.5879171     657.4174  0.011728706  0.010120142            3 
 4672000   0.49914332   -8.6143531    656.45642  0.011709054   0.01011676            2 
 4673000   0.50128529   -8.5994907    656.85258  0.011713613  0.010113378            1 
 4674000   0.50164776     -8.57712    656.23357  0.011700071  0.010110001            1 
 4675000   0.49236501   -8.6065998     656.9469  0.011710283   0.01010662            1 
 4676000   0.49799258   -8.6017909    657.01504  0.011708993  0.010103244            2 
 4677000    0.5005288   -8.5909366    656.05288  0.011689346  0.010099866            1 
 4678000   0.49885535   -8.5896262    656.41181  0.011693242  0.010096489            1 
 4679000   0.50635769   -8.6111414    656.46172  0.011691631  0.010093115            1 
 4680000   0.49722627   -8.5988124    657.08288  0.011700194  0.010089746            4 
 4681000   0.50908734   -8.6128508    655.95734  0.011677657  0.010086378            2 
 4682000   0.51218647   -8.6150237    657.27678  0.011698647  0.010083009            6 
 4683000   0.49992542   -8.6013486    655.75278   0.01166903  0.010079639            2 
 4684000   0.49160323   -8.6077034    655.43068  0.011660808  0.010076271            2 
 4685000   0.50525034   -8.6156311     656.6547  0.011680091  0.010072906            1 
 4686000    0.5059001   -8.6056472    656.67345  0.011677932  0.010069544            3 
 4687000   0.49265177   -8.5944266    657.42397  0.011688784  0.010066182            2 
 4688000   0.49824108    -8.605848     655.7421  0.011656394  0.010062823            2 
 4689000   0.49699072   -8.5979583    656.48985  0.011667197  0.010059464            5 
 4690000   0.49378069    -8.611226     655.6484  0.011649758  0.010056109            2 
 4691000   0.50251006   -8.6116955    657.48741  0.011679944  0.010052754            4 
 4692000    0.4934188   -8.6008532    656.04789  0.011651888  0.010049399            2 
 4693000   0.49837804    -8.586586    656.62318   0.01165962  0.010046047            3 
 4694000   0.50466737   -8.5923997    656.06802  0.011647281  0.010042697            2 
 4695000   0.50141276    -8.608096    656.91078  0.011659758  0.010039347            1 
 4696000   0.49714206   -8.5999012    657.54027  0.011668446  0.010035997            1 
 4697000    0.5002067   -8.6195259     657.4545   0.01166444  0.010032652            1 
 4698000   0.49968883   -8.5979229    657.12044  0.011656032  0.010029303            2 
 4699000   0.50990447   -8.6122881    657.12434   0.01165362  0.010025957            5 
 4700000   0.49940526   -8.5871428    656.65494  0.011642818  0.010022611            5 
 4701000   0.50486369   -8.5993792    656.77369  0.011642446  0.010019264            2 
 4702000   0.50131962   -8.6098335    655.62406  0.011619596  0.010015918            3 
 4703000   0.49610322   -8.6206346    657.16736  0.011644471  0.010012579            1 
 4704000   0.49862425   -8.6149108    657.01384  0.011639276  0.010009238            2 
 4705000   0.50743683   -8.6043403     656.4619  0.011627026  0.010005896            2 
 4706000   0.51150991   -8.5998551    656.95413  0.011633272   0.01000256            2 
 4707000     0.503414   -8.5966692    655.25909  0.011600791 0.0099992232            1 
 4708000   0.49022532    -8.579196    656.31287  0.011616979 0.0099958904            1 
 4709000   0.49901922   -8.6115416    656.36322  0.011615403 0.0099925578            2 
 4710000   0.48875436   -8.6039906    656.84716    0.0116215 0.0099892259            2 
 4711000   0.50148483   -8.6075476    656.47576  0.011612463 0.0099858964            3 
 4712000   0.49822382   -8.6000573    656.02251  0.011601983  0.009982566            2 
 4713000   0.50210854   -8.6057908      656.918  0.011615355  0.009979238            3 
 4714000   0.50179415   -8.6081896    656.09013  0.011598256 0.0099759149            3 
 4715000   0.50588073   -8.6182863    656.19229  0.011597601 0.0099725863            2 
 4716000   0.50484027   -8.6327053    656.46031  0.011599878 0.0099692613            4 
 4717000   0.50506295    -8.614302    656.59675   0.01159983 0.0099659368            3 
 4718000   0.50294119   -8.6118944     656.7964  0.011600897 0.0099626169            4 
 4719000   0.50353723   -8.5947956    656.56881   0.01159442 0.0099592982            2 
 4720000   0.48998309   -8.6108634    656.18693  0.011585221 0.0099559825            3 
 4721000   0.49706197   -8.6265396    656.32647   0.01158523 0.0099526709            2 
 4722000   0.51970949   -8.6053112    656.84984  0.011592013 0.0099493607            5 
 4723000   0.51489539   -8.6096616    655.72376   0.01156969 0.0099460475            2 
 4724000   0.49681398   -8.6049333      655.803  0.011568639  0.009942732            1 
 4725000   0.51101168   -8.6309206    656.79206  0.011583634 0.0099394184            2 
 4726000   0.49281303   -8.6252717    655.73457  0.011562537 0.0099361072            1 
 4727000   0.50539428    -8.620119    655.65679  0.011558719  0.009932801            2 
 4728000   0.49891193    -8.608642    655.65698  0.011556278  0.009929496            1 
 4729000   0.49210277   -8.5996058    654.84895  0.011539595  0.009926191            2 
 4730000   0.49740439   -8.5899971    656.55317  0.011567181 0.0099228905            2 
 4731000   0.48722268   -8.6053747    657.31153  0.011578094  0.009919593            2 
 4732000   0.48543695    -8.622698    655.71746  0.011547574 0.0099162922            2 
 4733000   0.50398135   -8.5959104    656.78404  0.011563914 0.0099129935            3 
 4734000   0.48827547   -8.5999801    656.03055  0.011548207 0.0099096963            4 
 4735000   0.49619353   -8.6072765    657.32482  0.011568547 0.0099063983            2 
 4736000   0.49033608   -8.6199165    656.21153  0.011546515 0.0099031035            2 
 4737000    0.4955217   -8.6187817    655.94753  0.011539433 0.0098998115            2 
 4738000   0.49846111    -8.617751    655.43203  0.011527931 0.0098965183            4 
 4739000   0.49809114   -8.6136307    656.31421  0.011541011 0.0098932259            2 
 4740000   0.49203212   -8.6238851    656.69436   0.01154526 0.0098899366            1 
 4741000   0.49997433   -8.6102217    656.03503  0.011531235 0.0098866452            3 
 4742000   0.49642726    -8.601281    656.29236  0.011533326 0.0098833574            2 
 4743000   0.49204925   -8.6208504    656.15858  0.011528544 0.0098800721            5 
 4744000   0.49382221   -8.6242502    656.42219  0.011530744 0.0098767882            2 
 4745000    0.4844573   -8.6199751    655.55118  0.011513017 0.0098735035            1 
 4746000   0.47985061   -8.6307987    656.16351  0.011521343 0.0098702206            2 
 4747000   0.49808095   -8.6038613    656.27391  0.011520854 0.0098669402            2 
 4748000   0.48674269   -8.6071723    656.84271   0.01152841 0.0098636585            1 
 4749000   0.49281103   -8.6118886    656.87397  0.011526531 0.0098603813            2 
 4750000   0.49592711   -8.6222833    656.38652  0.011515553 0.0098571026            2 
 4751000   0.49468297   -8.6169224    656.70229  0.011518668 0.0098538288            2 
 4752000    0.4936751   -8.6008531     656.9368  0.011520356 0.0098505533            2 
 4753000   0.49133232   -8.6148953    656.07535  0.011502829 0.0098472806            2 
 4754000    0.4791125   -8.6058114    656.04178  0.011499821 0.0098440107            1 
 4755000   0.49562375   -8.6242129     655.5667  0.011489076 0.0098407408            4 
 4756000   0.49417204   -8.6197202    656.81167  0.011508475 0.0098374699            2 
 4757000   0.49345155   -8.6167973    655.84542  0.011489129 0.0098342017            1 
 4758000   0.47966038    -8.621853    655.36533  0.011478305 0.0098309372            2 
 4759000   0.48239905   -8.6284419    655.80529  0.011483598 0.0098276702            1 
 4760000   0.48590736   -8.6232855     655.9734  0.011484128 0.0098244043            3 
 4761000   0.50320956   -8.6082238    655.52116    0.0114738 0.0098211401            4 
 4762000    0.5016917   -8.6076497    655.19172  0.011465626 0.0098178791            2 
 4763000    0.4814146    -8.617824     656.5487   0.01148696  0.009814619            2 
 4764000   0.49192088   -8.6177342    656.35518  0.011481164 0.0098113603            1 
 4765000   0.49606944   -8.6310706    656.65852   0.01148406  0.009808101            3 
 4766000   0.48311057   -8.6125846    656.46525  0.011478271 0.0098048444            6 
 4767000   0.48713998   -8.6165935    656.34429  0.011473748 0.0098015904            6 
 4768000   0.49093697     -8.62877    655.80842  0.011461976 0.0097983388            3 
 4769000   0.50013923   -8.6278157    656.00088  0.011462936 0.0097950855            2 
 4770000   0.49587264   -8.6178418    656.68395  0.011472466  0.009791833            1 
 4771000   0.48236048   -8.6097315    655.71602  0.011453155 0.0097885848            2 
 4772000   0.49522805   -8.6202734    656.13351  0.011458045 0.0097853387            2 
 4773000     0.494491   -8.6217782    656.50764  0.011462177 0.0097820925            2 
 4774000   0.49322059   -8.6243905    655.59421  0.011443831  0.009778848            2 
 4775000   0.48011505   -8.6041099    655.34367  0.011437062 0.0097756008            1 
 4776000   0.49696616    -8.618274    656.84591  0.011460879 0.0097723584            3 
 4777000   0.49236019   -8.6247652    655.60165  0.011436774 0.0097691168            3 
 4778000   0.48935508   -8.6388514    655.74769  0.011436928 0.0097658758            2 
 4779000   0.48615295   -8.6266238    657.32516  0.011462042 0.0097626375            2 
 4780000    0.4915357   -8.6324291    654.93523  0.011417978 0.0097594009            1 
 4781000   0.48589782   -8.6117088    656.28181  0.011439061  0.009756162            2 
 4782000   0.48650911   -8.6343725    656.42108  0.011439096 0.0097529248            2 
 4783000    0.4850838   -8.6291569    656.74503  0.011442348 0.0097496896            1 
 4784000   0.48677302   -8.6353502     654.7184  0.011404654 0.0097464547            3 
 4785000   0.49231938   -8.6384957    655.04139  0.011407896 0.0097432218            2 
 4786000   0.48520787   -8.6208726    656.98786  0.011439404 0.0097399876            2 
 4787000   0.49684347   -8.6226134     656.9022  0.011435523 0.0097367572            3 
 4788000   0.49692483   -8.6300099     655.2558   0.01140448 0.0097335331            2 
 4789000    0.4857396   -8.6393786    655.56383  0.011407459 0.0097303058            2 
 4790000   0.48005489    -8.608161    656.01837  0.011412985 0.0097270815            2 
 4791000    0.4841274   -8.6332686     654.9463  0.011391955 0.0097238578            4 
 4792000   0.48143099   -8.6338671    656.14771  0.011410471 0.0097206359            4 
 4793000   0.48454494    -8.621935    656.49476  0.011414124 0.0097174152            2 
 4794000   0.48453734   -8.6307112    655.16874  0.011388693 0.0097141945            1 
 4795000   0.47376469   -8.6217764    656.00471  0.011400846 0.0097109745            1 
 4796000   0.48002343   -8.6400428    655.60992   0.01139161 0.0097077592            3 
 4797000   0.48139944   -8.6419519    655.12839   0.01138087  0.009704543            3 
 4798000   0.48801242   -8.6353362    655.80572  0.011390262 0.0097013285            3 
 4799000   0.48352533   -8.6249613      656.013  0.011391488 0.0096981141            4 
 4800000   0.47680556   -8.6391385    656.12881  0.011391125 0.0096949029            4 
 4801000   0.47660063   -8.6341137    656.17405  0.011389538 0.0096916926            3 
 4802000   0.47934189   -8.6103277    655.80076  0.011380688 0.0096884831            3 
 4803000   0.49001077   -8.6204158    655.53236  0.011373662 0.0096852763            4 
 4804000   0.48532097   -8.6317696    656.06096  0.011380463 0.0096820705            3 
 4805000   0.48716769   -8.6235673    655.85858  0.011374585 0.0096788652            3 
 4806000   0.48630568   -8.6243016    656.16238  0.011377486 0.0096756616            1 
 4807000   0.48883882   -8.6330943    655.81301  0.011369063  0.009672463            1 
 4808000   0.48924856   -8.6353193    655.97251  0.011369463  0.009669264            4 
 4809000   0.48262034   -8.6441971    655.93842  0.011366508 0.0096660625            1 
 4810000   0.48512698   -8.6181093    655.41239  0.011355031 0.0096628662            1 
 4811000   0.47510722   -8.6337441    655.56201  0.011355262  0.009659673            3 
 4812000   0.47535374   -8.6222518    656.16553  0.011363354 0.0096564766            1 
 4813000   0.47715286   -8.6384895    655.73835  0.011353597 0.0096532816            3 
 4814000   0.47925201   -8.6469488    656.64213  0.011366884 0.0096500867            2 
 4815000   0.47851742    -8.620014    654.92765   0.01133485 0.0096468951            1 
 4816000   0.48082032   -8.6186969    657.14206  0.011370814 0.0096437074            7 
 4817000   0.48226115   -8.6273094    656.04802  0.011349526 0.0096405212            4 
 4818000   0.48180311   -8.6279306    655.80219  0.011342919 0.0096373359            3 
 4819000   0.48306234   -8.6332265    655.57743  0.011336678  0.009634151            2 
 4820000   0.48014932   -8.6384688    655.80207   0.01133821 0.0096309689            4 
 4821000   0.47713342   -8.6422672    655.02666  0.011322455 0.0096277847            3 
 4822000   0.47605207   -8.6464105    655.89486  0.011335111 0.0096246036            1 
 4823000   0.48678117   -8.6202752    655.47409   0.01132549 0.0096214227            6 
 4824000    0.4730439   -8.6284911    655.76017  0.011328085 0.0096182437            3 
 4825000   0.47638622   -8.6485773    656.51032  0.011338693 0.0096150636            3 
 4826000   0.48180633   -8.6405432    656.05608    0.0113285 0.0096118878            3 
 4827000   0.46700749   -8.6420139    655.52782  0.011317033 0.0096087086            1 
 4828000   0.48987709   -8.6246576    655.87031    0.0113206 0.0096055348            3 
 4829000    0.4884641   -8.6521687    654.77633  0.011299378 0.0096023595            2 
 4830000   0.47219407     -8.65919     655.5896   0.01131107 0.0095991841            1 
 4831000   0.48077919   -8.6443205    656.07815  0.011317156 0.0095960086            2 
 4832000   0.47510887   -8.6340976      655.541   0.01130555 0.0095928384            2 
 4833000   0.47524815   -8.6401744     656.5816  0.011321153 0.0095896714            5 
 4834000   0.47306565   -8.6440606    655.75032  0.011304481 0.0095865028            4 
 4835000   0.46873052   -8.6199952    655.81895  0.011303326   0.00958334            3 
 4836000   0.48340982   -8.6519029    654.52003  0.011278605 0.0095801717            6 
 4837000   0.47913055   -8.6413431     655.9353  0.011300656 0.0095770069            2 
 4838000   0.47175835   -8.6338671     655.1654  0.011285059 0.0095738433            5 
 4839000   0.45821108   -8.6299207    655.67921  0.011291576 0.0095706837            1 
 4840000   0.47720346   -8.6264209    655.62953  0.011288387 0.0095675236            3 
 4841000   0.47024932   -8.6380765    655.98444  0.011292165 0.0095643636            5 
 4842000   0.48800989   -8.6416386    655.61947  0.011283551 0.0095612046            2 
 4843000   0.48864754    -8.645146    655.91651  0.011286333 0.0095580491            2 
 4844000   0.47678754   -8.6279809    654.81602   0.01126507 0.0095548928            1 
 4845000   0.47871192   -8.6409827    654.58653  0.011258798 0.0095517395            1 
 4846000   0.46938264   -8.6441257     655.2022  0.011267062 0.0095485874            4 
 4847000   0.46397349   -8.6467552    655.26942  0.011265893 0.0095454352            2 
 4848000   0.48586424   -8.6469845    654.57913  0.011251704 0.0095422854            3 
 4849000   0.48061033   -8.6353825    654.91388  0.011255137 0.0095391359            6 
 4850000   0.46753749   -8.6389392    654.89308  0.011252459 0.0095359873            1 
 4851000   0.46891811    -8.642557    656.06279  0.011270233 0.0095328382            3 
 4852000   0.46896517   -8.6285448    654.53554  0.011241679 0.0095296936            1 
 4853000   0.48186165   -8.6572477    655.00711   0.01124746 0.0095265504            2 
 4854000   0.48002614   -8.6480943    654.72286  0.011240263  0.009523406            2 
 4855000   0.48000103   -8.6441822    656.36206  0.011266084 0.0095202636            4 
 4856000   0.47706755   -8.6381109    655.15046  0.011242972 0.0095171239            3 
 4857000   0.47110156   -8.6482103    654.31848  0.011226382 0.0095139844            2 
 4858000   0.48290333   -8.6265806    654.59742  0.011228857  0.009510846            5 
 4859000   0.47346145   -8.6540608    654.31459  0.011221695 0.0095077075            5 
 4860000   0.48112591    -8.639899    655.18806  0.011234363 0.0095045712            5 
 4861000   0.47434751   -8.6510376    654.24002    0.0112158 0.0095014395            2 
 4862000   0.47247533   -8.6461652    655.02709  0.011226983 0.0094983074            2 
 4863000   0.48430715   -8.6432033    655.57175  0.011234008 0.0094951761            2 
 4864000   0.47481488   -8.6507467    654.47646  0.011212933 0.0094920457            2 
 4865000   0.47157374   -8.6611584    655.50199  0.011228194 0.0094889161            3 
 4866000   0.46370717   -8.6320924    653.91076  0.011198636 0.0094857873            2 
 4867000   0.46731017   -8.6443719    654.37613  0.011204303 0.0094826611            3 
 4868000   0.47428102   -8.6403116    654.85445   0.01121019 0.0094795363            1 
 4869000   0.47392874   -8.6642008    655.26911  0.011214984 0.0094764121            2 
 4870000   0.47967082   -8.6519922    654.72704  0.011203406 0.0094732895            1 
 4871000   0.47395039   -8.6373019    655.27836  0.011210538 0.0094701672            3 
 4872000   0.47964111   -8.6593963    655.37885  0.011209956 0.0094670477            2 
 4873000   0.46078893   -8.6220254    654.80818  0.011197896 0.0094639304            3 
 4874000   0.46934998   -8.6620969    655.11315  0.011200813 0.0094608155            2 
 4875000   0.47057203   -8.6527384    654.36493  0.011185725 0.0094577003            3 
 4876000   0.47924009   -8.6346511    654.86279   0.01119194 0.0094545867            3 
 4877000    0.4637169   -8.6412383    655.58727  0.011202024 0.0094514748            2 
 4878000   0.46971156   -8.6481048    654.76805  0.011185733 0.0094483613            5 
 4879000   0.47474178   -8.6456085    654.98999  0.011187231 0.0094452508            2 
 4880000   0.46931966   -8.6585981    655.46923  0.011193122 0.0094421391            1 
 4881000   0.46485103   -8.6493343    655.61837  0.011193375 0.0094390343            1 
 4882000   0.47829072    -8.652472    655.04614  0.011181315 0.0094359252            3 
 4883000   0.47351015   -8.6481393    656.13012  0.011197524 0.0094328174            2 
 4884000   0.46785215   -8.6489184    655.33003   0.01118158 0.0094297138            2 
 4885000   0.46543515   -8.6428983    654.97058  0.011173159 0.0094266086            4 
 4886000   0.47010545   -8.6386636     653.7963  0.011150844  0.009423506            5 
 4887000   0.47698996   -8.6440481    654.91634  0.011167661 0.0094204062            5 
 4888000   0.46989022   -8.6461318    654.55327  0.011159187 0.0094173079            2 
 4889000   0.47028496   -8.6602941    654.97804  0.011164145 0.0094142084            2 
 4890000   0.46589746   -8.6399188    655.04212  0.011162954 0.0094111123            2 
 4891000   0.46205313   -8.6523215     655.9237  0.011175692 0.0094080161            2 
 4892000   0.46915351   -8.6311005    654.83882  0.011154927 0.0094049212            3 
 4893000   0.46950961   -8.6454298    655.58638  0.011165379 0.0094018298            3 
 4894000   0.48188228   -8.6656477    654.13868  0.011138446 0.0093987363            3 
 4895000   0.47108791    -8.644361     654.5489  0.011143155 0.0093956454            3 
 4896000   0.45977164   -8.6499044    654.60652  0.011141859 0.0093925562            3 
 4897000   0.46853187   -8.6606587    654.81006  0.011143048 0.0093894676            3 
 4898000   0.46687722   -8.6618521    654.66338  0.011138277 0.0093863798            2 
 4899000     0.465515    -8.651649    655.38684   0.01114831 0.0093832938            4 
 4900000   0.47266477   -8.6577256    654.27041  0.011127048 0.0093802085            6 
 4901000    0.4656464   -8.6589622    655.49596  0.011145616 0.0093771254            3 
 4902000   0.45769643   -8.6531736    654.34909  0.011123846 0.0093740434            2 
 4903000   0.46036884   -8.6565911    655.71504  0.011144793 0.0093709624            3 
 4904000   0.47658064    -8.659168    655.18066   0.01113344 0.0093678836            4 
 4905000    0.4621391    -8.661585    655.59413  0.011138195 0.0093648046            2 
 4906000   0.46070804   -8.6503673    654.72458  0.011121154 0.0093617263            2 
 4907000   0.46835989   -8.6481607    655.55873  0.011133054 0.0093586492            3 
 4908000   0.45827817   -8.6657012    654.21153  0.011107911  0.009355572            2 
 4909000   0.45982165   -8.6565703    654.61005  0.011112413 0.0093524983            3 
 4910000   0.47363878   -8.6437061    654.31535  0.011105148 0.0093494264            2 
 4911000   0.46715015   -8.6446147    655.39067  0.011121134 0.0093463567            3 
 4912000    0.4608019   -8.6520347    654.81942  0.011109179 0.0093432869            2 
 4913000   0.47344211   -8.6641904    654.82715  0.011107048 0.0093402162            3 
 4914000   0.45916298   -8.6604711    655.48339  0.011115917 0.0093371484            3 
 4915000   0.48382177   -8.6462453    654.02507   0.01108893 0.0093340819            1 
 4916000   0.46822164    -8.650632     655.1701  0.011106084 0.0093310145            4 
 4917000   0.46472028   -8.6623675    654.66407  0.011095249 0.0093279524            2 
 4918000   0.47428461   -8.6657926     654.1805  0.011084799 0.0093248903            7 
 4919000   0.46403582   -8.6730354    655.51943  0.011105228 0.0093218311            4 
 4920000   0.45955304   -8.6690177     653.8015  0.011073874 0.0093187722            4 
 4921000   0.46362667    -8.670179    655.37912  0.011098339  0.009315715            2 
 4922000    0.4580247   -8.6631353    654.49673  0.011081145  0.009312658            2 
 4923000   0.46801447   -8.6582482    656.23348  0.011108292 0.0093096052            4 
 4924000   0.46424623   -8.6650155     655.5021  0.011093659 0.0093065522            2 
 4925000   0.45927792   -8.6561205    653.61161  0.011059418 0.0093034992            4 
 4926000   0.46453379    -8.642991    654.83567   0.01107788 0.0093004459            3 
 4927000   0.45796114   -8.6604431    654.87091  0.011076228 0.0092973927            2 
 4928000   0.45765631    -8.660707    654.33013  0.011064836 0.0092943411            3 
 4929000   0.46109094   -8.6735189     654.9696  0.011073402 0.0092912939            1 
 4930000   0.46060771   -8.6527406    653.69726  0.011049649 0.0092882456            5 
 4931000   0.48328604   -8.6723276    655.14117   0.01107181 0.0092852021            5 
 4932000   0.45976159   -8.6625807    654.32567  0.011055787 0.0092821573            3 
 4933000   0.46251529   -8.6592462    655.42635  0.011072139 0.0092791123            5 
 4934000    0.4510342   -8.6681901    655.24184  0.011066779  0.009276072            2 
 4935000   0.46819958   -8.6491254    654.46654  0.011051444 0.0092730304            1 
 4936000   0.45883677   -8.6740181    655.30018   0.01106328 0.0092699915            2 
 4937000   0.46391776   -8.6632665    654.05199   0.01103997 0.0092669519            3 
 4938000   0.45614586   -8.6615461    653.75433  0.011032711 0.0092639146            2 
 4939000   0.44633747   -8.6440778    654.51353  0.011043287 0.0092608781            4 
 4940000   0.47213426    -8.662894     655.0244  0.011049669 0.0092578428            3 
 4941000   0.45799409   -8.6493217     654.3444  0.011035964 0.0092548089            3 
 4942000    0.4588853   -8.6584349    653.86898  0.011025715 0.0092517779            5 
 4943000   0.44943039   -8.6667879    655.57631  0.011052268 0.0092487454            2 
 4944000   0.46476279   -8.6564261    654.97962  0.011039975 0.0092457162            2 
 4945000   0.45347956   -8.6663251    654.92081  0.011036751 0.0092426869            1 
 4946000   0.46819271    -8.664176     654.4827  0.011027138 0.0092396602            4 
 4947000   0.46555195   -8.6645279    654.40814  0.011023653 0.0092366347            2 
 4948000   0.46212496   -8.6893617    655.54373  0.011040551 0.0092336096            1 
 4949000   0.46092751   -8.6504076    654.28027  0.011017045 0.0092305861            2 
 4950000   0.45809178   -8.6654263    655.14446  0.011029368 0.0092275655            2 
 4951000   0.45651853    -8.669574    653.75444  0.011003744 0.0092245427            2 
 4952000   0.45492309   -8.6840018    654.45113  0.011013246 0.0092215196            2 
 4953000   0.45887023   -8.6693887    654.04833  0.011004245 0.0092185002            1 
 4954000   0.45819404    -8.671101    654.17335  0.011004127 0.0092154838            3 
 4955000   0.46000603   -8.6710198    654.63676    0.0110097 0.0092124676            2 
 4956000   0.45827726   -8.6857494     654.7028  0.011008589 0.0092094538            3 
 4957000   0.46150361   -8.6649133    653.91467  0.010993119 0.0092064399            2 
 4958000   0.44870555   -8.6642411    654.68954  0.011003925 0.0092034277            2 
 4959000   0.46416977   -8.6687335    655.06441  0.011008006 0.0092004177            2 
 4960000   0.45336572   -8.6619446    655.43389  0.011011994 0.0091974083            2 
 4961000   0.45233492   -8.6654396    654.59239  0.010995639 0.0091944017            2 
 4962000   0.45890967   -8.6639268    654.29208   0.01098838 0.0091913923            2 
 4963000   0.45591034   -8.6840105    654.95622  0.010997317 0.0091883862            2 
 4964000   0.45534648   -8.6752098    654.47656  0.010987049 0.0091853814            2 
 4965000   0.45939594   -8.6718368    653.51278   0.01096866 0.0091823785            4 
 4966000   0.44440506   -8.6772704     653.7912  0.010971124 0.0091793764            2 
 4967000   0.45711705   -8.6496945    654.72046  0.010984505 0.0091763746            2 
 4968000   0.46202181    -8.681039     653.8495  0.010967685 0.0091733757            2 
 4969000   0.44607713   -8.6740936    654.86152   0.01098245 0.0091703764            4 
 4970000   0.46290727   -8.6567125    654.67382  0.010977093 0.0091673807            3 
 4971000   0.45689783   -8.6752901    654.05683  0.010964542 0.0091643855            5 
 4972000   0.45779475   -8.6525307    653.91677  0.010959989 0.0091613908            6 
 4973000   0.45106645   -8.6640749    654.91919  0.010974583 0.0091583963            2 
 4974000   0.45136796   -8.6628993    653.95119  0.010956159 0.0091554038            3 
 4975000   0.46150132   -8.6802784    653.39786  0.010944688 0.0091524107            2 
 4976000   0.46674936   -8.6723939    653.59387  0.010945771 0.0091494202            3 
 4977000   0.45738142    -8.679661    655.52586   0.01097592  0.009146431            1 
 4978000   0.46288268   -8.6706626    653.85647  0.010945769 0.0091434421            2 
 4979000   0.45648526   -8.6770094    654.89655  0.010960979 0.0091404562            5 
 4980000   0.45323673   -8.6940698    654.38423  0.010950205 0.0091374705            2 
 4981000   0.45076253   -8.6823767      654.129  0.010943736 0.0091344853            4 
 4982000   0.44967444   -8.6634752    654.19311  0.010942612 0.0091315032            4 
 4983000   0.45619771   -8.6686813    654.45161  0.010944739 0.0091285212            2 
 4984000   0.44858521   -8.6701974    653.63331  0.010928861 0.0091255396            1 
 4985000   0.45944492   -8.6748561    654.60914  0.010942981 0.0091225607            1 
 4986000   0.44697223   -8.6728911    654.03952  0.010931266 0.0091195839            2 
 4987000   0.44768059    -8.672414    654.12739  0.010930543 0.0091166057            3 
 4988000   0.45155986   -8.6875877    653.55886  0.010918853   0.00911363            2 
 4989000   0.45258404   -8.6884895    654.82882  0.010937877 0.0091106565            3 
 4990000   0.46129359   -8.6840085    653.97528  0.010921431 0.0091076842            3 
 4991000   0.46039877   -8.6875745     654.1609  0.010922342 0.0091047107            2 
 4992000   0.45751906   -8.6677635    653.77351  0.010913687 0.0091017404            1 
 4993000   0.45664859    -8.666928    654.38286  0.010921671 0.0090987715            2 
 4994000   0.46203653   -8.6752894    653.46352  0.010904144 0.0090958052            1 
 4995000   0.44450179   -8.6788188    654.18203  0.010913948 0.0090928386            2 
 4996000   0.44943284    -8.678487    653.74661    0.0109045 0.0090898749            2 
 4997000   0.45570676   -8.6653961    652.79378  0.010886428 0.0090869112            2 
 4998000   0.44626224   -8.6701976    654.55722  0.010913652 0.0090839475            2 
 4999000    0.4481543    -8.682295    654.02898  0.010902664 0.0090809868            3 
 5000000   0.46726642   -8.6721572    653.72362  0.010895394 0.0090780263            2 
 5001000   0.44299364   -8.6867024    654.39376  0.010904382 0.0090750666            2 
 5002000   0.45406438    -8.677353      654.031  0.010896158 0.0090721061            1 
 5003000   0.45673102    -8.686353    655.40119  0.010916803 0.0090691486            3 
 5004000   0.44980759   -8.6737961    654.61287  0.010901493  0.009066193            2 
 5005000   0.46344821   -8.6974587    654.57357  0.010898661 0.0090632388            3 
 5006000   0.45009816   -8.6526676    653.33151  0.010875808 0.0090602843            2 
 5007000   0.44819092   -8.6881992    654.27985  0.010889419  0.009057332            3 
 5008000     0.456864    -8.692101    654.63025  0.010893075 0.0090543797            2 
 5009000   0.45117723   -8.6834864    654.53263  0.010889277 0.0090514313            5 
 5010000   0.45063011   -8.6803897    654.55422  0.010887462 0.0090484831            2 
 5011000   0.45226942   -8.6725439    654.01972  0.010876401 0.0090455356            3 
 5012000   0.44995105   -8.6737341    653.45262  0.010864801 0.0090425901            2 
Loop time of 11976.9 on 48 procs for 5000000 steps with 4000 atoms

Performance: 72138.621 tau/day, 417.469 timesteps/s
99.4% CPU use with 48 MPI tasks x no OpenMP threads

MPI task timing breakdown:
Section |  min time  |  avg time  |  max time  |%varavg| %total
---------------------------------------------------------------
Pair    | 757.74     | 823.26     | 893.17     | 102.5 |  6.87
Neigh   | 77.795     | 81.367     | 85.216     |  19.4 |  0.68
Comm    | 744.62     | 823.18     | 897.09     | 117.1 |  6.87
Output  | 13.888     | 13.892     | 13.98      |   0.3 |  0.12
Modify  | 10099      | 10129      | 10142      |   9.2 | 84.57
Other   |            | 106.7      |            |       |  0.89

Nlocal:        83.3333 ave          90 max          75 min
Histogram: 1 1 6 2 9 4 12 5 4 4
Nghost:        2069.62 ave        2084 max        2057 min
Histogram: 4 5 4 8 8 6 1 4 5 3
Neighs:        13409.8 ave       15467 max       11556 min
Histogram: 2 2 7 5 12 10 2 3 3 2
FullNghs:      26820.0 ave       29289 max       23829 min
Histogram: 1 3 5 2 8 9 8 5 3 4

Total # of neighbors = 1287362
Ave neighs/atom = 321.84050
Neighbor list builds = 267748
Dangerous builds = 1

#clear
#
#next RN
#
#jump SELF
Total wall time: 3:19:40
