
units lj                  # Use reduced LJ style units
atom_style atomic         # Uncharged point particles
atom_modify map hash      # Needed for indexing of clusters etc
                          # Used to be able to find where atoms are in relation to each other.

lattice fcc 1.0 spacing 1 1 1
Lattice spacing in x,y,z = 1.5874011 1.5874011 1.5874011
region box block 0 10 0 10 0 10 units lattice
create_box 2 box
Created orthogonal box = (0.0000000 0.0000000 0.0000000) to (15.874011 15.874011 15.874011)
  3 by 4 by 4 MPI processor grid
create_atoms 1 box
Created 4000 atoms
  using lattice units in orthogonal box = (0.0000000 0.0000000 0.0000000) to (15.874011 15.874011 15.874011)
  create_atoms CPU = 0.006 seconds
set type 1 type/fraction 2 0.94 78393
Setting atom values ...
  3760 settings made for type/fraction
mass 1 1.0
mass 2 1.0
pair_style lj/cut  3.5
pair_modify tail  yes
pair_coeff 1  1  1.0  1.0   # Intearaction between 1 and 1 set with epsilon = 1 and sigma = 1
pair_coeff 1  2  1.5  0.8
pair_coeff 2  2  0.5  0.88

write_data data.0
System init for write_data ...
Neighbor list info ...
  update every 1 steps, delay 10 steps, check yes
  max neighbors/atom: 2000, page size: 100000
  master list distance cutoff = 3.8
  ghost atom cutoff = 3.8
  binsize = 1.9, bins = 9 9 9
  1 neighbor lists, perpetual/occasional/extra = 1 0 0
  (1) pair lj/cut, perpetual
      attributes: half, newton on
      pair build: half/bin/atomonly/newton
      stencil: half/bin/3d
      bin: standard
WARNING: Not all mixed pair coeffs generated from mixing. Use write_data with 'pair ij' option to store all pair coeffs. (../write_data.cpp:312)


#############################
#   M E L T   S Y S T E M   #
#############################

velocity all create 2.4 6583654 mom yes dist gaussian # Assign velocities
                                                    # Temperature 2.4, random number seed, zero linear momentum
                                                                                # Gaussian distribution

timestep 0.002   # simulation timestep
thermo 1000       # output thermodynamic data every 1000 steps bf 100

# Define a fix  in this case with index 1 applied to all
# particles in the simulation. This fix is for simulations
# in the anisotropic NPT ensemble. Note that we use the MTK
# correction.
fix 1 all npt temp 2.4 2.4 0.1 iso 5.68 5.68 0.5 mtk yes tchain 5 pchain 5 # Use NPT ensemble
                                                                         # Set temperature and pressure and damping
                                                                         # Numbers of thermostats in chain and in barostat
run 10000          # run for 10000 steps
Per MPI rank memory allocation (min/avg/max) = 3.642 | 3.644 | 3.648 Mbytes
Step Temp E_pair E_mol TotEng Press Volume 
       0          2.4   -2.9877486            0    0.6113514   -2.2401145         4000 
    1000    2.3883329    -1.873869            0    1.7077347    5.8473437    4107.8207 
    2000    2.3565114   -1.9099161            0    1.6239673    5.3999885     4125.583 
    3000    2.3681376   -1.8747031            0    1.6766152     5.643916    4134.7805 
    4000    2.3970028   -1.8894441            0    1.7051613    5.7391794    4096.1592 
    5000    2.3738677   -1.9206071            0    1.6393043    5.4510196    4111.3982 
    6000    2.3954608   -1.8998476            0    1.6924453    5.7946224    4079.3549 
    7000     2.355867   -1.8928064            0    1.6401106    5.6666699    4102.2331 
    8000    2.4015254    -1.913209            0    1.6881786    5.6940277    4090.6251 
    9000    2.3806346   -1.9039074            0    1.6661517     5.618593    4115.2769 
   10000    2.4065484    -1.829261            0    1.7796592    5.7973494    4146.9786 
Loop time of 2.69403 on 48 procs for 10000 steps with 4000 atoms

Performance: 641418.256 tau/day, 3711.911 timesteps/s
99.3% CPU use with 48 MPI tasks x no OpenMP threads

MPI task timing breakdown:
Section |  min time  |  avg time  |  max time  |%varavg| %total
---------------------------------------------------------------
Pair    | 1.0757     | 1.1343     | 1.2345     |   2.7 | 42.10
Neigh   | 0.20977    | 0.21631    | 0.2332     |   1.0 |  8.03
Comm    | 0.85729    | 0.9544     | 1.0347     |   4.5 | 35.43
Output  | 0.00025463 | 0.00025903 | 0.00032759 |   0.0 |  0.01
Modify  | 0.30843    | 0.3736     | 0.43766    |   5.3 | 13.87
Other   |            | 0.01519    |            |       |  0.56

Nlocal:        83.3333 ave          90 max          70 min
Histogram: 1 0 0 1 6 6 11 8 8 7
Nghost:        1600.31 ave        1630 max        1579 min
Histogram: 5 6 3 9 8 7 4 3 2 1
Neighs:        9210.98 ave       10110 max        7571 min
Histogram: 1 0 2 3 3 10 6 13 6 4

Total # of neighbors = 442127
Ave neighs/atom = 110.53175
Neighbor list builds = 911
Dangerous builds = 239

# Equilibrate just above the melting temperature to avoid step fn in T

fix 1 all npt temp 1.25 1.25 0.1 iso 5.68 5.68 0.5 mtk yes tchain 5 pchain 5
run 2000
Per MPI rank memory allocation (min/avg/max) = 3.643 | 3.645 | 3.649 Mbytes
Step Temp E_pair E_mol TotEng Press Volume 
   10000    2.4065484    -1.829261            0    1.7796592    5.7973494    4146.9786 
   11000    1.2469144   -2.8597394            0  -0.98983544    5.7765203    3191.1834 
   12000    1.2752796   -2.8426224            0  -0.93018125    5.7002533    3216.9126 
Loop time of 0.597137 on 48 procs for 2000 steps with 4000 atoms

Performance: 578761.530 tau/day, 3349.314 timesteps/s
99.6% CPU use with 48 MPI tasks x no OpenMP threads

MPI task timing breakdown:
Section |  min time  |  avg time  |  max time  |%varavg| %total
---------------------------------------------------------------
Pair    | 0.26343    | 0.28708    | 0.31602    |   2.2 | 48.08
Neigh   | 0.039521   | 0.041687   | 0.045337   |   0.5 |  6.98
Comm    | 0.18553    | 0.21821    | 0.24655    |   2.8 | 36.54
Output  | 5.2249e-05 | 5.3501e-05 | 7.0435e-05 |   0.0 |  0.01
Modify  | 0.041199   | 0.045313   | 0.049369   |   1.0 |  7.59
Other   |            | 0.00479    |            |       |  0.80

Nlocal:        83.3333 ave          91 max          72 min
Histogram: 1 1 1 5 8 7 11 6 4 4
Nghost:        1899.40 ave        1921 max        1871 min
Histogram: 1 2 4 2 5 15 6 4 5 4
Neighs:        11871.4 ave       13637 max        9742 min
Histogram: 1 0 5 6 3 16 8 4 2 3

Total # of neighbors = 569825
Ave neighs/atom = 142.45625
Neighbor list builds = 144
Dangerous builds = 12

#############################
# L I N E A R  Q U E N C H  #
#############################

# Define solid atoms. This closely follows ten Wolde  Ruiz-Montero and Frenkel  Faraday Discuss  1996  104  93-110
# Compute components of the per-atom q6 vector
compute q6 all orientorder/atom degrees 1 6 components 6 nnn NULL cutoff 1.3 # compute the Q6 parameter.
                                                                             # Use all neighbours within 1.3 unit cell.

# get number of connections
compute coord_number all coord/atom orientorder q6 0.5

# An atom is solid if it has 8 or more connections (of a possible 14)
variable is_solid atom c_coord_number>=8
group solid dynamic all var is_solid    # Must be dynamic to update
dynamic group solid defined

# do clustering
compute cluster solid cluster/atom 1.3 # Create a cluster where all atoms within are solid and max 1.3 units from another member

# define chunks one chunk per cluster
compute clus_chunks solid chunk/atom c_cluster nchunk every compress yes  # Says which atoms are in which chunk

# count the size of each chunk
compute size_chunks solid property/chunk clus_chunks count


# Find the maximum entry in the vector of chunk sizes
variable max_n equal max(c_size_chunks)


# Thermo style which includes this variable
# thermo_style custom step temp pe vol v_max_n

thermo ${N}  # Print the thermo information every 100 steps
thermo 1000  

# Reset the npt fix at a lower temperature (below freezing)
fix 1  all npt temp  ${temp} ${temp}  0.1  iso  5.68  5.68  0.5  mtk yes tchain  5  pchain  5
fix 1  all npt temp  0.45 ${temp}  0.1  iso  5.68  5.68  0.5  mtk yes tchain  5  pchain  5
fix 1  all npt temp  0.45 0.45  0.1  iso  5.68  5.68  0.5  mtk yes tchain  5  pchain  5

dump dmp2 all dcd ${N} traj.dcd
dump dmp2 all dcd 1000 traj.dcd


compute msd all msd com yes
variable twopoint equal c_msd[4]/6/(step*dt+1.0e-6)
fix 9 all vector 10 c_msd[4]
variable fit equal slope(f_9)/6/(10*dt)
thermo_style custom step temp pe c_msd[4] v_twopoint v_fit v_max_n

fix 1 all npt temp 1.25 ${temp} 0.1 iso 5.68 5.68 0.5 mtk yes tchain 5 pchain 5
fix 1 all npt temp 1.25 0.45 0.1 iso 5.68 5.68 0.5 mtk yes tchain 5 pchain 5
run 5000000 # 5000000  # Run for this many steps
Neighbor list info ...
  update every 1 steps, delay 10 steps, check yes
  max neighbors/atom: 2000, page size: 100000
  master list distance cutoff = 3.8
  ghost atom cutoff = 3.8
  binsize = 1.9, bins = 8 8 8
  4 neighbor lists, perpetual/occasional/extra = 1 3 0
  (1) pair lj/cut, perpetual
      attributes: half, newton on
      pair build: half/bin/atomonly/newton
      stencil: half/bin/3d
      bin: standard
  (2) compute orientorder/atom, occasional
      attributes: full, newton on
      pair build: full/bin/atomonly
      stencil: full/bin/3d
      bin: standard
  (3) compute coord/atom, occasional
      attributes: full, newton on
      pair build: full/bin/atomonly
      stencil: full/bin/3d
      bin: standard
  (4) compute cluster/atom, occasional
      attributes: full, newton on
      pair build: full/bin/atomonly
      stencil: full/bin/3d
      bin: standard
Per MPI rank memory allocation (min/avg/max) = 9.815 | 9.822 | 9.827 Mbytes
Step Temp PotEng c_msd[4] v_twopoint v_fit v_max_n 
   12000    1.2752796   -2.8426224 3.9949888e-30 2.7742977e-32 8.3333333e+20            1 
   13000    1.2702627   -2.8512539    1.0984579 0.0070413967  0.093840855            1 
   14000    1.2460541   -2.8973442     2.256766   0.01343313  0.096761447            1 
   15000    1.2486343   -2.8545788    3.4204715  0.019002619  0.096190921            1 
   16000    1.2588408    -2.856913    4.6125731  0.024023818  0.096897072            2 
   17000    1.2654672   -2.8484929    5.7186952  0.028032819  0.097090501            3 
   18000    1.2553403   -2.8914813     6.861271  0.031765143  0.096561764            2 
   19000    1.2518548   -2.8919076    8.0397436  0.035262033  0.096287851            2 
   20000    1.2589152   -2.8831444    9.3096919  0.038790382  0.096692392            1 
   21000    1.2628165   -2.8609268    10.545262  0.041846278  0.097295923            1 
   22000    1.2496018   -2.8829568    11.722641  0.044403941   0.09784926            1 
   23000    1.2427986   -2.8313365    12.920492  0.046813376  0.098010044            2 
   24000    1.2525737   -2.8548285    14.189087  0.049267661  0.098408484            1 
   25000    1.2470873   -2.8605181    15.502161  0.051673869  0.098980224            3 
   26000    1.2186497   -2.8969886    16.676962  0.053451799  0.099654717            1 
   27000    1.2676131   -2.8681607    17.877228  0.055176629  0.099964726            1 
   28000    1.2577301   -2.8489278      19.0987  0.056841367   0.10017035            2 
   29000    1.2550045   -2.8902712    20.045788  0.057602838  0.099986629            2 
   30000     1.244523   -2.8815693    21.109366  0.058637126  0.099586229            2 
   31000    1.2380141   -2.8792424    22.273873  0.059876001  0.099158873            1 
   32000    1.2458218   -2.8712119    23.301064  0.060679854  0.098763282            1 
   33000    1.2661272   -2.8574985    24.557409  0.062013659  0.098587123            1 
   34000    1.2221542    -2.884762    25.992235  0.063706456  0.098571608            1 
   35000    1.2367759   -2.8760922    26.926326  0.064110299  0.098477377            1 
   36000    1.2261883   -2.8706147    28.141976  0.065143462  0.098401915            1 
   37000    1.2163694   -2.8851863    29.002448  0.065320829  0.098205091            2 
   38000    1.2446344    -2.850745    30.167776  0.066157404  0.097881634            1 
   39000    1.2625707   -2.8914387    31.411121  0.067117778  0.097683254            1 
   40000     1.253621   -2.8549902    32.663057  0.068048036  0.097531623            1 
   41000     1.263098   -2.9080255     33.85211    0.0688051  0.097471669            1 
   42000    1.2560327   -2.8813314      35.2085  0.069858134   0.09744872            2 
   43000    1.2336245   -2.8740772    36.242334   0.07023708  0.097452629            2 
   44000    1.2291392   -2.8832689    37.247902  0.070545268  0.097436181            2 
   45000    1.2363122   -2.8858803     38.54616  0.071381777  0.097421368            3 
   46000    1.2362008   -2.8505644     40.07474  0.072599166  0.097469776            2 
   47000     1.268094    -2.872069    41.043654  0.072772436  0.097488938            1 
   48000    1.2628117   -2.8862474    42.185681  0.073239028  0.097572601            2 
   49000    1.2224722   -2.8578166    43.550491  0.074065461  0.097617535            2 
   50000    1.2405673   -2.8866238    44.552676  0.074254459  0.097648325            1 
   51000    1.2270256   -2.8811898    45.511855  0.074365776  0.097655348            1 
   52000     1.221168   -2.8564996    46.410282  0.074375452  0.097588674            1 
   53000    1.2676557   -2.8696551    47.795528    0.0751502  0.097464761            1 
   54000    1.2633519   -2.8700556    48.927487   0.07550538  0.097427338            2 
   55000    1.2419591   -2.8635949    50.425231  0.076401865   0.09736058            3 
   56000    1.2557061   -2.8355125    51.422382  0.076521401  0.097339827            2 
   57000    1.2545507   -2.8644318    52.285528   0.07644083  0.097296307            2 
   58000    1.2700396   -2.8787707    53.615374  0.077033582  0.097238391            1 
   59000    1.2116863   -2.8777549    54.828878  0.077441917   0.09720837            1 
   60000    1.2299313   -2.8936361    56.391913  0.078322101  0.097261412            3 
   61000    1.2510988   -2.8593517    57.559327   0.07863296  0.097325731            1 
   62000    1.2429296    -2.884298    58.651172   0.07883222   0.09734697            1 
   63000    1.2207614   -2.8720359    59.749839  0.079034178  0.097375371            1 
   64000    1.2293119   -2.8527982    60.977883  0.079398285  0.097388474            2 
   65000    1.2285937   -2.8648933    62.294034  0.079864145   0.09743776            1 
   66000    1.2669718   -2.8862899    63.739015  0.080478554  0.097483491            3 
   67000     1.234865   -2.8550402    64.880048  0.080696576  0.097538126            1 
   68000    1.2265021    -2.883936    65.753243  0.080579954  0.097574287            2 
   69000    1.2080334   -2.8780655    66.870444  0.080761405  0.097616456            3 
   70000    1.2458778   -2.8583402    68.087954  0.081057087  0.097633121            1 
   71000    1.2414289   -2.8954331    69.338333   0.08138302  0.097640512            2 
   72000    1.1976663   -2.8268271    70.227372   0.08128168  0.097659685            2 
   73000    1.2476233   -2.8738234    71.800833   0.08196442  0.097689727            2 
   74000    1.2522533   -2.8553776    72.669229  0.081834716  0.097704941            2 
   75000    1.2632782   -2.8881579    73.804905   0.08200545  0.097695291            1 
   76000    1.2265831   -2.9099321    74.300417  0.081469755  0.097678401            1 
   77000    1.2071963   -2.8877153    75.709806  0.081937019  0.097638818            2 
   78000    1.2427304    -2.881443    77.080176  0.082350615  0.097632917            1 
   79000     1.220453   -2.8920675    78.729213  0.083047693  0.097640698            3 
   80000    1.2362348   -2.8674836    79.774263   0.08309819  0.097654582            1 
   81000    1.2311182   -2.8858428    81.308169   0.08365038  0.097680349            1 
   82000    1.2560088    -2.889976    82.193973   0.08353046  0.097713437            1 
   83000    1.2465764   -2.8524938    83.344935  0.083679653  0.097728465            2 
   84000    1.2398224   -2.9134404    84.421953  0.083751937  0.097740658            1 
   85000    1.2277272   -2.8937434    85.940932  0.084255815  0.097751208            1 
   86000    1.2546337   -2.8721607    86.970768  0.084273999  0.097775324            1 
   87000    1.2527919   -2.8803839    88.216348  0.084498417  0.097784385            2 
   88000    1.2570148   -2.8943157    88.778584  0.084070628  0.097795644            1 
   89000    1.2223182   -2.9161638    90.311315  0.084561156  0.097812989            3 
   90000    1.2493975   -2.8553499    91.910559  0.085102369  0.097832667            1 
   91000    1.2047887   -2.8949098    92.583746   0.08478365  0.097837632            1 
   92000    1.2544403    -2.912883     93.99127  0.085137019  0.097861466            2 
   93000    1.2341043   -2.8757311    95.061262  0.085180342  0.097870413            2 
   94000     1.252944    -2.862412    96.308201   0.08537961  0.097874305            1 
   95000    1.2129307   -2.9300992    96.944305  0.085038864  0.097860905            1 
   96000    1.2590385   -2.9123002    97.887846  0.084972089  0.097837656            2 
   97000    1.2420281    -2.841817    98.771805  0.084855502  0.097783529            1 
   98000    1.2357386   -2.8580763    100.11758  0.085133996  0.097746548            2 
   99000    1.2616345   -2.8723098    101.35447  0.085315212  0.097694173            1 
  100000    1.2489123   -2.8744466    102.41474   0.08534562  0.097644295            2 
  101000    1.2250976   -2.8942757    103.59915  0.085477846  0.097577244            2 
  102000    1.2551455    -2.876059      104.512  0.085385619  0.097520428            2 
  103000    1.2317409   -2.8700067    105.99108  0.085753304   0.09748788            4 
  104000     1.251155   -2.8819276    106.82867  0.085599899  0.097439722            1 
  105000    1.2774734   -2.8962097    107.72661  0.085497313  0.097385978            2 
  106000    1.2419548   -2.9054686    108.66431  0.085427912  0.097336322            2 
  107000    1.2355523   -2.8660454    110.51525  0.086071069  0.097293382            6 
  108000    1.2326554   -2.8768146    111.63266  0.086136313  0.097244975            1 
  109000    1.2479765   -2.8925204    112.52286  0.086026649  0.097223311            2 
  110000    1.2416905   -2.9148146    114.59692  0.086815845  0.097212907            1 
  111000    1.2449356    -2.882827    115.51058  0.086719656  0.097216341            3 
  112000    1.2145558   -2.8820435     116.5987  0.086754986   0.09721014            2 
  113000    1.2333193   -2.8874926     117.2462  0.086464747  0.097204881            4 
  114000     1.254264   -2.8697789    118.66197  0.086741205  0.097188079            2 
  115000    1.2443956   -2.8904024    119.72049  0.086753978  0.097164671           10 
  116000    1.2357396   -2.8879986    121.40835  0.087218644  0.097145173            2 
  117000    1.2220167   -2.8918587    121.82106  0.086767134   0.09713378            1 
  118000     1.213117   -2.9145604    122.80888  0.086729433  0.097119116            2 
  119000    1.2487513   -2.9087074    124.56491  0.087230332  0.097103043            1 
  120000    1.2684468   -2.8951671    125.64836  0.087255804  0.097103515            1 
  121000    1.2178428   -2.9052447    126.91703   0.08740842  0.097104555            3 
  122000    1.2606096   -2.9006316    128.12652  0.087518115  0.097103847            1 
  123000     1.224765   -2.8843429    129.53818  0.087762994  0.097106888            3 
  124000    1.2444447   -2.8542511    130.46051  0.087675071  0.097116728            2 
  125000    1.2259801   -2.8552192    132.42705  0.088284698  0.097133705            2 
  126000    1.2352482   -2.8956525     133.4379  0.088252582  0.097151527            2 
  127000    1.2212745   -2.9158924    134.58967  0.088313432  0.097177217            1 
  128000    1.2490612   -2.8677438    135.57665  0.088266045  0.097197223            2 
  129000    1.2351185   -2.8941498    137.04364  0.088529483  0.097228472            2 
  130000    1.2333789   -2.9160352    137.66828  0.088248897  0.097246366            1 
  131000    1.2581187   -2.9100687    139.33054  0.088632658  0.097262522            1 
  132000    1.2240827   -2.8919964    140.73523  0.088847997  0.097277011            2 
  133000    1.2643759    -2.887444    142.03529   0.08899454   0.09729542            2 
  134000     1.201077   -2.8815044    143.29221  0.089112073  0.097317245            1 
  135000    1.2301378   -2.8688728    144.09328  0.088946467   0.09733051            1 
  136000    1.2447572   -2.8869869    146.28703   0.08963666   0.09734253            1 
  137000    1.2108071   -2.8622224    146.05809  0.088843123  0.097337616            2 
  138000    1.2555442   -2.8924954    147.20753  0.088893435  0.097334415            1 
  139000    1.2258436   -2.8854439    148.21408  0.088857361  0.097332905            2 
  140000    1.2220479   -2.9051716    149.28524  0.088860262  0.097327931            4 
  141000    1.2291845   -2.8736904    150.93497  0.089205063  0.097332201            1 
  142000    1.2171646   -2.8850696    152.22208  0.089332204  0.097336416            1 
  143000    1.2555356    -2.903923    153.59614  0.089508238  0.097338436            3 
  144000    1.2677524   -2.9018554    154.69003  0.089519695  0.097349625            4 
  145000    1.2281895    -2.889872     155.1857  0.089187181  0.097353613            1 
  146000    1.2300757    -2.907608     156.7495  0.089468895  0.097351926            6 
  147000    1.2363911    -2.891208    157.33994  0.089194975  0.097350213            2 
  148000    1.2506555   -2.9159182    159.82882  0.089993707  0.097349119            1 
  149000    1.2026076   -2.8715042    160.33302   0.08967171  0.097363281            1 
  150000     1.225249    -2.869447    161.86777  0.089926537  0.097367873            1 
  151000    1.2348552   -2.8986713    161.99344  0.089400354  0.097364372            1 
  152000     1.231741   -2.8847312    163.47351  0.089623632  0.097368977            1 
  153000    1.2264569   -2.8902788    164.90025  0.089814949   0.09736092            1 
  154000    1.2338564   -2.9130611    166.23066  0.089951653  0.097368129            2 
  155000    1.2219564   -2.8647516    167.48607  0.090046275  0.097365474            1 
  156000    1.2171153   -2.8752318    168.60031   0.09006427  0.097365769            1 
  157000    1.2296048   -2.8785092     169.2622  0.089841934  0.097370924            3 
  158000    1.2237094    -2.860618    171.81302   0.09061868  0.097377416            3 
  159000    1.2404642   -2.9041437    172.80343  0.090567835  0.097399683            2 
  160000    1.2491305   -2.9024459    174.63683  0.090956682  0.097431958            1 
  161000    1.2408006   -2.8815558    176.28742  0.091246074  0.097465746            1 
  162000    1.2663956   -2.9110158    177.13957  0.091121179  0.097503834            1 
  163000    1.2411824    -2.889538    177.84199  0.090921265  0.097535773            2 
  164000    1.2497588   -2.8799469    179.24212  0.091078314  0.097563422            1 
  165000    1.2352047    -2.892419    181.10994  0.091469664  0.097595975       -1e+20 
  166000    1.2226458   -2.8849912     181.8571  0.091293725  0.097627547            1 
  167000    1.2348987   -2.9104923    182.62393  0.091129705   0.09765458            2 
  168000    1.2258131   -2.8932683    183.59332  0.091068117  0.097675385            1 
  169000    1.2392652   -2.9137929    184.49729  0.090974993  0.097691362            3 
  170000    1.2215701   -2.9117001    185.97829  0.091165827  0.097703257            1 
  171000    1.2209715   -2.9120434    186.44716  0.090861189  0.097725057            3 
  172000    1.2192716   -2.9190832    187.99006  0.091080456  0.097743483            1 
  173000    1.2162063   -2.8651034    190.18446  0.091611011  0.097771587            1 
  174000    1.1835885   -2.9159914    191.35657  0.091645868   0.09779727            1 
  175000    1.2178322   -2.8838732    192.36446  0.091602125   0.09782911            1 
  176000    1.2084683   -2.8955509    194.36703  0.092029844   0.09786074            1 
  177000    1.2105345   -2.8702246    195.54673  0.092065317  0.097895014            1 
  178000    1.2070169   -2.9506216    195.81951  0.091675802  0.097935051            2 
  179000    1.2210631   -2.8988487    198.02142  0.092188741  0.097964891            1 
  180000    1.2540999   -2.8816733    198.50079  0.091898515  0.098000745            1 
  181000    1.2137182   -2.9012002     201.3138  0.092685912  0.098042634            3 
  182000    1.2285708   -2.8952731    203.06086  0.092976584  0.098085776            3 
  183000    1.2513297   -2.9063087    203.08515  0.092479578  0.098124634            1 
  184000    1.2134691    -2.850477    204.50026  0.092617871  0.098156364            2 
  185000    1.2023719   -2.8742326    206.53985  0.093035967  0.098191377            1 
  186000    1.2481059   -2.9176592    206.69358  0.092604652  0.098223898            1 
  187000    1.2156744   -2.9333784    207.13873  0.092307811  0.098256024            1 
  188000    1.2180998   -2.8692722    210.03982  0.093102758  0.098288144            2 
  189000    1.1871524   -2.8859881     210.8139  0.092951453   0.09831916            2 
  190000    1.2055383   -2.8809183     212.6772  0.093279475  0.098350544            1 
  191000    1.2344023   -2.8834646    213.54881  0.093171384  0.098383855            2 
  192000    1.2148874   -2.9298802    214.07689  0.092915315  0.098416959            1 
  193000    1.1885552   -2.9140246    214.77185   0.09273396  0.098450457            2 
  194000    1.2207794   -2.9085398    215.59341  0.092608852  0.098484951            1 
  195000    1.2134935   -2.9084524    216.63218  0.092577854  0.098517752            2 
  196000    1.2311205   -2.9231588    218.26158   0.09279829  0.098539887            2 
  197000    1.1977902   -2.9047537    219.51472  0.092857325  0.098562264            1 
  198000    1.2362183   -2.9039381    219.19203  0.092252539   0.09858269            3 
  199000    1.2604563   -2.8754244    222.24359  0.093066831  0.098600461            2 
  200000    1.2282951   -2.8844947    222.84029  0.092850119  0.098618622            1 
  201000    1.1988744   -2.9174932    223.08131  0.092488105  0.098636016            1 
  202000    1.2076439   -2.9057816    224.91793  0.092787926  0.098653037            1 
  203000    1.2386197   -2.9096996    225.65292  0.092632562  0.098661734            3 
  204000    1.2003282   -2.9201412    226.82407  0.092656889  0.098668492            2 
  205000    1.2335292   -2.9259884    228.11824  0.092730993  0.098673356            1 
  206000    1.1947022   -2.9049723    228.86061  0.092581154  0.098678595            3 
  207000    1.2018331   -2.9165012    229.60943  0.092435356  0.098677749            2 
  208000    1.2480544   -2.8879171    230.15367     0.092209  0.098672171            1 
  209000     1.234983   -2.9045838    232.33203  0.092636374  0.098664751            2 
  210000    1.2255451   -2.8956855    231.27241  0.091774766  0.098650852            1 
  211000    1.2190061   -2.9244963    233.02411  0.092031638  0.098627784            2 
  212000    1.2080607   -2.9082951     233.2328  0.091679561  0.098604463            2 
  213000    1.2041068   -2.9049996    233.44828  0.091333445  0.098573386            1 
  214000    1.2039549   -2.9117162    236.31792  0.092024114   0.09854493            2 
  215000    1.2317462   -2.8796166    238.16103  0.092310476  0.098518238            2 
  216000     1.235529   -2.9088938    238.73603  0.092104949  0.098493777            4 
  217000    1.1935053   -2.8752928    239.19534  0.091856887  0.098471198            1 
  218000    1.2366863   -2.9111508    242.46325   0.09268473  0.098454773            1 
  219000    1.2133414   -2.9021249     242.4992  0.092275188  0.098432757            1 
  220000     1.210031   -2.9174489    242.12254  0.091713082    0.0984113            1 
  221000    1.2172162   -2.9111182    243.62145  0.091863292  0.098384458            2 
  222000    1.2081329   -2.9239736    244.75456  0.091874834  0.098357016            1 
  223000    1.2592318   -2.9301164    245.99035  0.091924645  0.098333685            1 
  224000    1.2145702   -2.8873381    247.93061  0.092236091  0.098310702            1 
  225000    1.2276227   -2.8946634    249.74869  0.092499514  0.098284366            2 
  226000    1.1943683   -2.8953695    248.26412  0.091542815  0.098256965            3 
  227000    1.2124414   -2.8906985    251.37122  0.092280185  0.098230098            1 
  228000    1.2226958    -2.925056    251.56438  0.091946046  0.098211286            2 
  229000    1.2165615   -2.9067022    252.24758  0.091793152  0.098188356            2 
  230000     1.197594   -2.9206154    254.36532  0.092161347  0.098168878            2 
  231000    1.1866117   -2.8989683    256.77104  0.092630246  0.098151738            2 
  232000    1.2120357   -2.9300446    258.12097  0.092715867  0.098140535            1 
  233000    1.2089022   -2.9105266    259.49974  0.092811067  0.098126365            2 
  234000    1.2140374   -2.9453617    258.60206   0.09209475  0.098112732            2 
  235000    1.1942706   -2.9389214    258.94232  0.091823516  0.098094386            3 
  236000    1.2174458   -2.9410161    260.46082  0.091970628  0.098077299            1 
  237000    1.2099481    -2.892036    264.49821  0.093002182  0.098059868            1 
  238000    1.2218061   -2.9219726    263.76651  0.092355221  0.098042333            5 
  239000    1.2245259   -2.8775597    264.87225  0.092354341  0.098024259            1 
  240000    1.2018594   -2.8967636     266.2291  0.092440661  0.098003855            1 
  241000    1.2036571   -2.9006475    265.68294  0.091868236  0.097978861            3 
  242000    1.2102354   -2.9319155    268.56901  0.092482441  0.097955164            1 
  243000    1.2080363   -2.9241141    268.44584  0.092059616  0.097929043            4 
  244000    1.2089322   -2.9156282    269.48167  0.092036088  0.097903435            1 
  245000    1.2081607   -2.8882879    270.50789  0.092009486  0.097874068            2 
  246000    1.2353969   -2.8681514    272.51711  0.092316095  0.097850978            2 
  247000    1.2102919    -2.896296    274.27482  0.092535363  0.097830404            1 
  248000    1.2078297   -2.9043473    273.79056  0.091999517  0.097806504            1 
  249000    1.2137275   -2.9121751    276.51022  0.092540236   0.09778269            2 
  250000    1.2131123   -2.8746587    276.79663  0.092265542  0.097761697            2 
  251000    1.1895517   -2.9290969    277.43485  0.092109845  0.097743677            1 
  252000    1.2501357   -2.9274789     278.3162  0.092035781  0.097720775            1 
  253000    1.2184371   -2.9220701    280.09543  0.092258045  0.097699163            2 
  254000    1.1991489    -2.931781    281.33813  0.092302534  0.097677789            2 
  255000    1.2215445   -2.9113243    282.64824  0.092368707  0.097658669            1 
  256000     1.186222   -2.9200302    283.31672  0.092225493  0.097642219            1 
  257000    1.2109277   -2.9051638    285.75305  0.092656631  0.097623732            1 
  258000    1.2080047   -2.9189553    285.32887  0.092160486  0.097607026            1 
  259000     1.255666   -2.9282452    286.91707  0.092315658  0.097581292            2 
  260000    1.2224244   -2.9349503    286.51351  0.091831253  0.097552868            2 
  261000     1.181948   -2.8962361    289.37161  0.092391956  0.097531933            2 
  262000    1.2026178   -2.9378469    288.88365  0.091884112  0.097507915            2 
  263000    1.2034043    -2.904366    290.26686  0.091973024  0.097478274            2 
  264000    1.2070708   -2.9280133    292.55202  0.092345964  0.097448982            2 
  265000    1.2164965   -2.9128075    291.85269  0.091777574  0.097421155            2 
  266000    1.2188211   -2.9336328    292.86336  0.091749172  0.097392629            2 
  267000    1.2149701   -2.9178598    294.54596  0.091930698  0.097361035            3 
  268000    1.2206238    -2.912207      295.792  0.091975125  0.097328442            2 
  269000    1.2572373    -2.924011    296.81831  0.091951148  0.097299259            2 
  270000    1.2198428   -2.8921093    297.37626  0.091782798  0.097271259            2 
  271000    1.2099185   -2.9263666     298.7675  0.091871924   0.09724419            1 
  272000    1.1869121   -2.9216218    300.00495   0.09191328  0.097215497            1 
  273000    1.1918473   -2.9219744    300.94022  0.091862094  0.097190342            2 
  274000    1.1886972   -2.9343292    301.71096   0.09176124  0.097164552            3 
  275000     1.233628   -2.8877246      303.796  0.092059393  0.097136719            3 
  276000    1.1968859   -2.9363121    304.72246  0.092005574  0.097107204            2 
  277000     1.188098   -2.9253028    304.87915  0.091720562   0.09707835            3 
  278000    1.2090281   -2.9178103    306.35872  0.091834149  0.097048278            1 
  279000    1.2087627   -2.8935166    308.02636  0.092003093  0.097018272            3 
  280000    1.2378534   -2.8821008    309.07529  0.091986693  0.096988554            1 
  281000    1.1684777   -2.9212281     309.9245  0.091911181  0.096959963            1 
  282000    1.1969275   -2.9116323    311.35585  0.092008229  0.096934359            1 
  283000    1.1755984   -2.9147565    312.54588  0.092033534  0.096909786            1 
  284000    1.2256919   -2.9339457    313.84211  0.092089822  0.096884428            1 
  285000    1.1952877   -2.9242016    315.37158  0.092213912  0.096863876            3 
  286000    1.1820943   -2.9081583    318.46122  0.092791731   0.09684654            3 
  287000    1.2044865   -2.9083608    318.30287  0.092422435  0.096826746            2 
  288000    1.2172516   -2.9302238    319.42578   0.09242644    0.0968091            1 
  289000    1.2222895   -2.9602417    321.22982  0.092626823  0.096795258            1 
  290000    1.2273908   -2.9134373     321.6376  0.092424599  0.096781307            1 
  291000    1.2116386   -2.9498471     321.7693  0.092144702  0.096767049       -1e+20 
  292000    1.1962486   -2.9724538    320.73841  0.091534934  0.096747103            1 
  293000    1.2434733   -2.9227901    326.75249  0.092933017  0.096728654            1 
  294000    1.2233416    -2.940477    322.79428  0.091494976  0.096708319            1 
  295000    1.2190725   -2.9245219    326.88924  0.092341592   0.09668363            2 
  296000    1.1831345    -2.912354    325.64064  0.091678107  0.096660416            1 
  297000    1.2011991   -2.9380221    327.22647  0.091814385  0.096635798            1 
  298000    1.2014304   -2.9413391    327.63462   0.09162042  0.096610527            2 
  299000    1.1902785    -2.937136    328.97951  0.091688826  0.096582191            1 
  300000    1.1904139    -2.894061    332.97529  0.092493137   0.09655753            2 
  301000     1.193811   -2.8901213    331.08974  0.091663827  0.096527046            2 
  302000    1.1963216   -2.9177653    332.35668    0.0917099  0.096497565            1 
  303000    1.2071864   -2.9404143    332.39405  0.091417506  0.096466364            1 
  304000    1.2088231    -2.922024    335.14337  0.091870441  0.096433321            3 
  305000    1.2224334   -2.9220845    334.85017  0.091489116  0.096403111            1 
  306000    1.1936754   -2.9339516    335.37098  0.091331965   0.09637182            1 
  307000    1.1956656   -2.8975655    338.82856  0.091973007  0.096343773            3 
  308000    1.1782142   -2.9252082    337.66501  0.091359582  0.096318245            3 
  309000    1.1973125   -2.9403093    341.68942  0.092149249  0.096291758            3 
  310000    1.1914359    -2.914963    341.68516  0.091850851  0.096263568            2 
  311000    1.1985284   -2.9304867    341.47755  0.091499879  0.096234258            2 
  312000    1.1986245   -2.9586737    342.49032  0.091477115  0.096208202            1 
  313000    1.2082185   -2.9003908    343.66216  0.091496848  0.096183884            1 
  314000    1.1826511   -2.9044669    347.52993  0.092231933  0.096158676            2 
  315000    1.2199452   -2.9208884    348.52856  0.092203323  0.096133152            2 
  316000    1.1656401   -2.9221141    348.72649  0.091963736  0.096106878            1 
  317000    1.1895738   -2.9376133     348.4443  0.091599447  0.096079451            1 
  318000    1.2007967   -2.9234909    350.15662  0.091760121  0.096054866            2 
  319000    1.2008487   -2.9072522    350.99406  0.091691237  0.096030405            2 
  320000    1.1879522   -2.9455402    351.84328  0.091625855  0.096003618            1 
  321000    1.1767308   -2.9204881    353.04343  0.091651981    0.0959775            1 
  322000    1.2145159   -2.9322556    354.53708  0.091753903   0.09595181            2 
  323000    1.1925912   -2.9516202    354.93867  0.091573445  0.095925506            2 
  324000    1.2230393   -2.9491936     356.0152  0.091567696  0.095898654            3 
  325000    1.2203076   -2.9296174    357.36595  0.091632294  0.095872576            1 
  326000    1.2078318   -2.9283823    360.32832  0.092108467   0.09585474            3 
  327000    1.2038274   -2.8959702    359.94403  0.091728856  0.095831131            2 
  328000    1.2159714   -2.9290527    360.33649  0.091548905  0.095805305            5 
  329000    1.2355206   -2.9198333     360.6126  0.091340578  0.095779971            1 
  330000    1.1918469   -2.9174372    364.78522   0.09211748  0.095759138            1 
  331000    1.2296236   -2.9327127    364.21829  0.091696447  0.095737215            1 
  332000    1.2008576   -2.9163795    367.08931  0.092140892  0.095714768            2 
  333000    1.1998434   -2.9154151    366.57761  0.091736138  0.095693067            1 
  334000    1.2027889    -2.940202    366.75341  0.091505342  0.095670525            2 
  335000    1.2071826    -2.900444     369.8553  0.092003806  0.095649899            2 
  336000    1.1835218   -2.9373857    369.95568   0.09175488  0.095628352            3 
  337000    1.2171601   -2.9078358    371.59206  0.091887255  0.095605867            1 
  338000    1.1805298   -2.9333662    370.86903  0.091437138  0.095587408            4 
  339000    1.2001161   -2.9492784    373.82321   0.09189361   0.09556695            3 
  340000    1.1971966   -2.9294001     373.9426  0.091652597  0.095549191            1 
  341000    1.2111788   -2.9341133    374.17878  0.091441539  0.095530193            1 
  342000    1.1866127   -2.9396448    375.12387  0.091404451  0.095508834            1 
  343000    1.1753635   -2.9403084     376.6231  0.091502212  0.095487631            2 
  344000    1.2112053   -2.9341074    376.95745  0.091317213  0.095465403            1 
  345000    1.2059559   -2.8816972    381.24437  0.092088011  0.095444805            1 
  346000    1.1918924   -2.9308993    379.71484  0.091453477  0.095423241            1 
  347000    1.2075582   -2.9614023    382.20072  0.091786917  0.095401521            3 
  348000      1.20997    -2.920052    383.18081  0.091757856  0.095379763            1 
  349000    1.2177167   -2.9434565    382.06642  0.091228849  0.095358366            2 
  350000    1.1844702   -2.9154257    385.65996  0.091823801  0.095336489            1 
  351000    1.1664232   -2.9331676    385.97378  0.091636699  0.095315375            1 
  352000    1.1855528   -2.9314919    387.02653  0.091625599  0.095293103            4 
  353000    1.1832099   -2.9270294    386.64905  0.091276924    0.0952686            2 
  354000     1.178693   -2.9346943     388.7673  0.091517725  0.095246536            1 
  355000    1.2129214   -2.9520391    388.55457  0.091209993  0.095224129            1 
  356000    1.1787591   -2.9326041    390.74172  0.091465759  0.095199378            4 
  357000    1.2130335   -2.9083737     389.4165  0.090900209  0.095173738            1 
  358000    1.1963719   -2.9523263    391.90006  0.091224408  0.095149008            2 
  359000    1.1848725   -2.9193827    394.42812   0.09155713  0.095127979            1 
  360000    1.2056175   -2.9505882    394.26159  0.091264257  0.095106905            2 
  361000    1.1863198   -2.9354199     395.8322  0.091374008  0.095083746            2 
  362000    1.2032448   -2.9515108    398.17808   0.09166162  0.095060838            4 
  363000    1.1967638   -2.9466806    399.13871  0.091629638  0.095040815            2 
  364000    1.1887608   -2.8945748    399.08465  0.091365532  0.095021099            1 
  365000     1.196402   -2.9472511    399.30383  0.091165258  0.095001049            2 
  366000    1.2083019   -2.9361111    402.10222   0.09155333  0.094981232            2 
  367000     1.224739   -2.8867478    404.47844  0.091843425  0.094961537            1 
  368000     1.164876    -2.895381    402.14865   0.09106627  0.094939294            4 
  369000    1.1967433   -2.9050383      404.937  0.091449188  0.094915912            3 
  370000    1.2088122   -2.9199944    406.77839  0.091616754  0.094893123            1 
  371000    1.1723785   -2.9318622    407.43102  0.091516402  0.094876757            1 
  372000    1.2113584   -2.9010013    409.77616  0.091795735  0.094859561            2 
  373000    1.1980264   -2.9276556    409.30398  0.091444141  0.094843139            1 
  374000    1.1891512    -2.946429    411.60239  0.091711762  0.094829397            1 
  375000    1.1840889    -2.922469    412.40963  0.091646584  0.094812745            1 
  376000     1.207138   -2.9216576    415.68275  0.092128269   0.09479646            1 
  377000    1.1670089   -2.9221128    413.39245  0.091377641  0.094778309            2 
  378000    1.1838705   -2.9647071    414.19308  0.091312406   0.09476141            1 
  379000    1.1814034   -2.9242362    414.94731  0.091237316   0.09474094            2 
  380000    1.1917486   -2.9535835    417.17777  0.091486353  0.094720717            1 
  381000    1.1941171    -2.924601    416.28105  0.091050098  0.094696914            5 
  382000    1.1863594   -2.8982216    416.21318  0.090796941  0.094673229            2 
  383000     1.196071   -2.9228764    419.09586  0.091187089  0.094646636            1 
  384000    1.2096511   -2.9104465    419.22156  0.090976902  0.094621366            1 
  385000    1.2001353   -2.9443415    422.09463  0.091362475   0.09459845            1 
  386000    1.1928837   -2.9537546    422.85912   0.09129083  0.094577864            1 
  387000    1.1653507   -2.9566071     423.8919  0.091277325  0.094558669            1 
  388000    1.1770846   -2.9212655    424.67279  0.091209791  0.094537317            3 
  389000     1.180979   -2.9479081    426.57317  0.091382427  0.094518316            2 
  390000    1.2106434   -2.9300846    428.38549  0.091535362  0.094499489            1 
  391000    1.1787756   -2.9531639    428.14255  0.091249478  0.094479048            1 
  392000    1.1832723    -2.930542    429.50058  0.091305394  0.094456951            3 
  393000    1.1971741   -2.9319861    429.22072  0.091013724  0.094436763            1 
  394000    1.2236272   -2.9491213    428.84268  0.090702767  0.094417913            3 
  395000     1.152252   -2.9097953    432.59686   0.09126516  0.094397765            1 
  396000    1.2003159   -2.9169421    431.84578  0.090876637  0.094378619            3 
  397000    1.1613496   -2.9368742    432.98576  0.090887019  0.094356439            2 
  398000    1.1925202   -2.9312865    435.33268  0.091150059  0.094334934            1 
  399000    1.1604126   -2.9297862    435.02231  0.090856791  0.094313743            2 
  400000    1.1636925   -2.9480878     435.7892  0.090789416  0.094290493            3 
  401000    1.1936394   -2.9783898    437.34139  0.090885576  0.094267378            2 
  402000    1.1724671   -2.9050426    440.31311  0.091275521  0.094241485            2 
  403000    1.1852394    -2.968964    436.19414  0.090197298   0.09421513            2 
  404000    1.2028395   -2.9504756    438.78923   0.09050933  0.094187195            2 
  405000    1.1371105   -2.9460703    441.09849  0.090761005  0.094159676            1 
  406000    1.1954877   -2.9466432    440.38634  0.090391285   0.09412831            2 
  407000    1.1926094   -2.9405959    441.11729  0.090318856  0.094099174            3 
  408000    1.1794499   -2.9572584    441.12372    0.0900988  0.094066696            2 
  409000    1.1635832   -2.9698935    442.41383  0.090141368   0.09403049            1 
  410000     1.189327   -2.9754915    441.47004  0.089729682  0.093995798            2 
  411000     1.181733   -2.9639886    443.51877  0.089926758  0.093965043            1 
  412000    1.1911974   -2.9451043    443.56219  0.089717271  0.093934998            2 
  413000    1.1886327   -2.9447066     447.2268  0.090239468  0.093906427            2 
  414000    1.2020148   -2.9495295    448.53972  0.090285772   0.09387795            3 
  415000     1.191301   -2.9593536    447.72408  0.089904433  0.093848459            2 
  416000    1.1711336   -2.9303861     449.2666  0.089997315  0.093820508            3 
  417000    1.1615164   -2.9304384    453.02363  0.090532299  0.093795254            3 
  418000    1.1852302   -2.9483632    453.25245  0.090361334  0.093766643            1 
  419000    1.1768356   -2.9822426    454.82125  0.090457687  0.093737864            4 
  420000    1.2164876   -2.9442916    454.22193  0.090123398  0.093710278            2 
  421000    1.2234727   -2.9425643    458.78408  0.090812367  0.093685607            2 
  422000    1.1545169   -2.9350961    458.27983  0.090497597  0.093660661            1 
  423000    1.2161669   -2.9509452    457.78378  0.090185929  0.093636422            4 
  424000     1.181202   -2.9063455     459.9056  0.090390251  0.093614708            2 
  425000    1.1722534   -2.9455539     463.4698  0.090876432  0.093594933            2 
  426000    1.1616352   -2.9288877    462.64072  0.090500924  0.093572561            1 
  427000     1.195655   -2.9481429    462.32156  0.090226691  0.093547997            1 
  428000    1.1558896   -2.9394437     464.3707  0.090414857  0.093525371            2 
  429000    1.1823587   -2.9311975    465.68485  0.090459372  0.093504677            2 
  430000     1.220055   -2.9614172    466.42325  0.090392103  0.093483757            2 
  431000    1.1867118   -2.9544432    468.79632  0.090641206  0.093460314            1 
  432000    1.1647282   -2.9453521    469.61752    0.0905898   0.09343961            2 
  433000    1.2137293   -2.9512655    468.23747  0.090114986  0.093418619            1 
  434000    1.1719147   -2.9370268    471.04023  0.090445513   0.09339763            1 
  435000    1.1750393   -2.9479322     472.6755  0.090550861  0.093376217            2 
  436000    1.1644102   -2.9651045    474.24497  0.090643153  0.093356998            2 
  437000    1.1717754   -2.9308118     473.0265  0.090203375  0.093332653            3 
  438000    1.1655927   -2.9547415    477.45659  0.090840295  0.093312444            1 
  439000    1.1708553   -2.9029471     478.2438  0.090782801  0.093294913            1 
  440000     1.167763   -2.9309403      480.154  0.090938258  0.093274974            2 
  441000    1.1603648   -2.9195966    480.25146  0.090750465  0.093255656            2 
  442000    1.1646531   -2.9357869    480.85909  0.090659707  0.093236396            2 
  443000    1.1789569   -2.9219469     483.1496   0.09088593  0.093220543            2 
  444000    1.1810853   -2.9548853    483.61792  0.090769128  0.093200911            2 
  445000    1.1786188   -2.9557673    481.54533  0.090177028  0.093183023            3 
  446000    1.1512963   -2.9368593    486.61692  0.090922444  0.093165238            3 
  447000    1.1933495   -2.9280891    486.94247   0.09077973  0.093149146            3 
  448000    1.1738769   -2.9667153    486.18852  0.090436852  0.093131535            1 
  449000    1.1732741   -2.9161376    488.15328  0.090600089  0.093114293            1 
  450000     1.166135    -2.916675     492.1956  0.091147333  0.093095681            3 
  451000    1.1960852   -2.9292272    489.58596  0.090463037  0.093080585            2 
  452000    1.1444564   -2.9767152    490.31436  0.090397189  0.093063181            2 
  453000    1.1565581   -2.9442019    495.31037  0.091116698  0.093046098            1 
  454000    1.1777099   -2.9722172    490.54946  0.090042119  0.093029138            3 
  455000     1.170447   -2.9478412    495.44961  0.090741686  0.093012038            1 
  456000     1.211174   -2.9278368     494.7903  0.090422204  0.092994415            1 
  457000    1.1852848   -2.9301021    498.93132  0.090979453  0.092979053            2 
  458000    1.1814546   -2.9071157    497.11351  0.090450057  0.092960633            2 
  459000    1.1960269    -2.962949    499.21239  0.090634057  0.092942316            1 
  460000    1.1700626   -2.9457568    498.99488  0.090397624   0.09292502            4 
  461000    1.1872995   -2.9762858    501.36404  0.090629798  0.092907443            1 
  462000    1.1802078   -2.9555765    499.34025  0.090068587  0.092888294            2 
  463000    1.1693777   -2.9327627    502.09673  0.090370182   0.09287171            2 
  464000    1.1793159    -2.959031    501.08233  0.089993234  0.092854826            1 
  465000     1.163211   -2.9176699    504.44816  0.090402896  0.092835936            2 
  466000    1.1970819   -2.9557846    504.24793  0.090173092  0.092819596            3 
  467000    1.1667409   -2.9414759    507.94607  0.090639912   0.09280276            2 
  468000    1.2006161   -2.9813594    507.87095  0.090432862  0.092789739            3 
  469000    1.1759391   -2.9344911    510.10116  0.090636311   0.09277643            1 
  470000    1.1703956    -2.985621    510.79545  0.090566569  0.092762543            1 
  471000    1.1685417   -2.9449218    511.66585  0.090528282  0.092749924            2 
  472000    1.1735328   -2.9920619    512.59983  0.090501383  0.092739078            2 
  473000    1.1723819   -2.9751481    513.81229  0.090523659  0.092726975            1 
  474000    1.2051562   -2.9613156    517.46844  0.090975464  0.092719298            4 
  475000    1.1718817   -2.9517402     517.2105  0.090738683  0.092710625            2 
  476000    1.1606879   -2.9819933    517.79141  0.090649757  0.092701487            3 
  477000    1.1795238   -2.9530344    520.01462  0.090848117  0.092690629            2 
  478000    1.1938723     -2.94675    522.35182  0.091065519  0.092680762            3 
  479000    1.1891271    -2.969311    521.87342  0.090792175  0.092671016            2 
  480000    1.1648657   -2.9620576    523.78989  0.090935745  0.092662296            1 
  481000    1.1730827   -2.9583434     523.8013  0.090748666  0.092654596            2 
  482000    1.1669009   -2.9680576    526.25339  0.090984335   0.09264582            1 
  483000    1.1735953   -2.9789517    527.05529  0.090934315  0.092637112            3 
  484000    1.1589948   -2.9007918    528.46653  0.090989417  0.092627223            2 
  485000    1.1950511   -2.9459701    528.34701  0.090781274  0.092618831            2 
  486000     1.187011   -2.9514599     529.7846   0.09084098  0.092610246            1 
  487000    1.1632085   -2.9604135    531.86175  0.091009883  0.092602959            1 
  488000    1.1583746   -2.9502248    532.85501     0.090993  0.092594293            2 
  489000    1.1542551   -2.9485011    534.82064  0.091141894   0.09258614            2 
  490000    1.1690064   -2.9541541    535.35678  0.091047072  0.092577033            2 
  491000    1.1948153    -2.939989    534.71914  0.090753417   0.09256951            2 
  492000    1.1638238    -2.985589    537.09239  0.090970933  0.092561773            1 
  493000    1.1914785   -2.9577703    536.48257  0.090683328  0.092551602            2 
  494000    1.1774023   -2.9821848     539.0078  0.090925742  0.092542611            1 
  495000    1.1717767   -2.9756158    537.85044  0.090547213  0.092532912            2 
  496000    1.2024372   -2.9554163    539.25033  0.090599854   0.09252249            1 
  497000    1.1689671   -2.9675172    542.46707   0.09095692  0.092513865            3 
  498000    1.1895509   -2.9554683    543.35648  0.090923105  0.092504829            2 
  499000    1.2116041   -2.9926525    545.24877  0.091056909  0.092496312            2 
  500000    1.1554174   -2.9714434    543.05992  0.090509986  0.092485813            4 
  501000    1.1549607    -2.973001    543.50496  0.090403353  0.092477357            3 
  502000    1.1665716   -2.9504154    546.60618  0.090738078  0.092467238            2 
  503000    1.1574695   -2.9892313    546.86448  0.090600478  0.092456229            6 
  504000    1.1762019   -2.9792254    548.62734  0.090712192  0.092445625            2 
  505000    1.1697112   -2.9706349    548.17283  0.090457563  0.092435542            5 
  506000    1.1725959    -2.960783    549.18816  0.090446007  0.092422768            5 
  507000    1.2061803   -2.9627987    551.27751   0.09061103   0.09241121            2 
  508000    1.1565082   -2.9478487    555.65098  0.091150095  0.092400644            3 
  509000    1.1683918    -2.956049     555.9006  0.091011885  0.092391284            1 
  510000     1.165526   -2.9613368    555.04775  0.090694077  0.092383044            7 
  511000    1.1722005   -2.9654711    558.16673  0.091025233   0.09237378            1 
  512000    1.1519045   -2.9432383     556.8287   0.09062967  0.092365123            3 
  513000     1.190305   -2.9560413    556.93575  0.090470395  0.092354296            7 
  514000    1.1745615   -2.9518563    559.21632  0.090664125  0.092344552            1 
  515000    1.1778153    -2.960428    561.22921  0.090813787  0.092335892            2 
  516000    1.1480878   -2.9322055    563.33735  0.090978254  0.092327481            3 
  517000    1.1602656   -2.9613764     563.9046  0.090893714  0.092319512            3 
  518000    1.1885789   -2.9757128    562.17221  0.090439544  0.092312534            1 
  519000    1.1536679   -2.9879255     566.2673  0.090922817  0.092305483            1 
  520000    1.1560772   -2.9657417    566.31635  0.090755826  0.092296927            2 
  521000    1.1901976   -3.0072123    564.51985  0.090294281  0.092288624            3 
  522000    1.1671722   -2.9672354    566.81151   0.09048715  0.092278715            1 
  523000    1.1605717   -2.9314957    569.41631  0.090729176  0.092269629            1 
  524000    1.1971006   -2.9928353    570.26977  0.090691757  0.092261064            4 
  525000    1.1408496   -2.9745901    569.63505  0.090418262  0.092251228            2 
  526000     1.155569   -2.9441536    572.37588  0.090680588  0.092241739            4 
  527000    1.1945223   -2.9648359    574.55913  0.090853752  0.092233992            2 
  528000    1.1661727   -2.9853804    571.20846   0.09015285  0.092225973            2 
  529000    1.1451589   -2.9866315    575.30323  0.090627477  0.092215493            6 
  530000    1.1748835   -2.9519356    576.96743  0.090718149  0.092206387            3 
  531000    1.1562354    -2.959665    578.65758  0.090812551  0.092197561            2 
  532000    1.1711488    -2.972307    578.12352  0.090558195  0.092187758            6 
  533000    1.1595408    -2.944435    577.94864   0.09036095  0.092177386            1 
  534000    1.1507622   -2.9653646    580.50161  0.090590139  0.092169382            2 
  535000    1.1472047   -2.9608546    581.48483  0.090573961  0.092160436            2 
  536000    1.1513144   -2.9746603    585.76759  0.091070832  0.092154116            1 
  537000    1.1724961   -2.9617637    581.97711  0.090313021  0.092147124            3 
  538000    1.1502042   -2.9584141    584.85683  0.090591206  0.092138914            2 
  539000    1.1863055   -2.9501069    588.76602  0.091027523  0.092133028            2 
  540000    1.1377335   -2.9887295    587.62432  0.090682766  0.092125091            1 
  541000    1.1644504   -2.9764985    587.21177  0.090451597  0.092115913            2 
  542000    1.1793025   -2.9611534    588.42393  0.090471084  0.092108342            1 
  543000    1.1747293   -2.9676347    591.05747  0.090708635   0.09210093            2 
  544000    1.1525857   -2.9920836    588.98276  0.090224075  0.092092716            1 
  545000    1.1681055   -2.9513891    590.82087  0.090339582  0.092085036            1 
  546000    1.1738134    -2.969755    592.86336   0.09048586  0.092077483            1 
  547000    1.1564808   -2.9460824    595.84616  0.090774857  0.092069467            2 
  548000    1.1503806   -2.9613531     598.8628  0.091067944  0.092062943            1 
  549000    1.1575691   -3.0102161    596.53936  0.090549387  0.092055545            3 
  550000    1.1727135   -2.9465741    598.47459  0.090677968   0.09204772            1 
  551000    1.1799361   -2.9857213    597.97094  0.090437226  0.092039874            2 
  552000    1.1603222   -2.9830739    596.83186  0.090101429  0.092029503            1 
  553000    1.1655127   -2.9750367    599.88543  0.090398648  0.092018268            1 
  554000     1.167168   -2.9699024    602.44517  0.090620512  0.092008571            1 
  555000    1.1702339   -2.9975421    599.63445  0.090035203  0.091998702            2 
  556000    1.1889712   -2.9637427    606.11597  0.090844719   0.09198808            2 
  557000    1.1482673   -2.9596424    605.03752  0.090520275  0.091980555            1 
  558000    1.1686893   -2.9867928    607.00265   0.09065153  0.091972414            3 
  559000    1.1480119   -2.9577297    606.82863  0.090463422  0.091962823            2 
  560000    1.1350442   -2.9587603    604.97499  0.090026039  0.091953147            2 
  561000    1.1432639    -2.964154    608.64117  0.090410156  0.091943135            3 
  562000    1.1590091   -2.9909153    608.93071  0.090292217  0.091933163            1 
  563000    1.1897181   -2.9624853    611.08999  0.090451449  0.091921908            1 
  564000    1.1525215   -2.9690732    612.07748  0.090436979   0.09191258            1 
  565000    1.1559971   -2.9747452    612.35139  0.090317314   0.09190233            3 
  566000    1.1771585   -2.9713196    612.91703  0.090241024  0.091892651            3 
  567000    1.1335383   -2.9767839    616.96087  0.090676201  0.091884241            1 
  568000    1.1661204   -2.9935861    615.40183  0.090287827  0.091874779            1 
  569000    1.1557887   -2.9859851    615.93587  0.090207363  0.091865639            1 
  570000    1.1518573    -2.958357    620.75969  0.090754341  0.091857942            2 
  571000     1.151214   -2.9738769    619.91316  0.090471856  0.091850287            3 
  572000    1.1679236    -2.964227    619.90458  0.090312438  0.091843065            4 
  573000    1.1638945   -2.9743011    620.22017  0.090200722  0.091834743            4 
  574000    1.1550231   -2.9743124    619.99047   0.09001023  0.091824549            5 
  575000    1.1687472   -2.9412078    621.90268  0.090130823   0.09181449            2 
  576000    1.1903558   -2.9906795    624.15498    0.0903002  0.091805433            2 
  577000    1.1564205   -2.9763554     625.8256   0.09038498  0.091796924            3 
  578000    1.1717495   -2.9567608      627.153  0.090419982  0.091787477            2 
  579000    1.1383457   -2.9735783    627.44273  0.090305517  0.091779974            1 
  580000    1.1860193   -2.9708812    626.57792  0.090025563  0.091769801            3 
  581000    1.1527375   -2.9852436    627.32107  0.089977205  0.091760265            2 
  582000    1.1483306   -2.9235229    631.66529   0.09044463  0.091750746            1 
  583000    1.1859631   -2.9743344    629.40549  0.089966479    0.0917397            1 
  584000    1.1648561   -2.9728594     632.7128  0.090284361  0.091730666            2 
  585000    1.1267016   -2.9645738    633.97938  0.090310453  0.091722076            2 
  586000    1.1626614   -2.9658607    636.50297  0.090515212  0.091713645            1 
  587000    1.1749985   -2.9884758    637.44689  0.090495015  0.091705955            2 
  588000    1.1574465   -2.9968277    639.04358  0.090567401  0.091697869            3 
  589000    1.1670553   -2.9860284    639.16722  0.090431129  0.091689701            1 
  590000    1.1377773   -2.9685021    639.60104   0.09033913  0.091681137            2 
  591000    1.1529482    -2.978163    641.40293  0.090440346  0.091672142            3 
  592000    1.1615295   -2.9779732    640.54407  0.090166677  0.091662988            2 
  593000    1.1468617   -2.9755852    642.53738  0.090294741  0.091653188            2 
  594000    1.1693434   -2.9723049    643.43859  0.090269163  0.091643944            3 
  595000    1.1662269   -2.9558954    645.03353  0.090340831  0.091635639            1 
  596000      1.14027   -2.9840915    644.42695  0.090104439  0.091627847            1 
  597000    1.1569826   -2.9786769    648.67953  0.090547114  0.091619513            3 
  598000    1.1288099   -2.9578451    647.47493  0.090227833   0.09161019            4 
  599000    1.1579403   -3.0002838    645.92007  0.089860889  0.091600058            4 
  600000    1.1098788   -3.0210494    646.86144  0.089841867  0.091589899            3 
  601000     1.147213   -2.9804646    652.27936  0.090443617  0.091581847            1 
  602000    1.1831954   -3.0001594    654.19104  0.090558007  0.091573236            1 
  603000    1.1465359   -2.9930882    652.12345  0.090122091  0.091563732            3 
  604000    1.1273355   -2.9806404    654.85814  0.090350185  0.091555321            2 
  605000    1.1527366   -2.9784176    656.35717  0.090407324  0.091546996            1 
  606000    1.1775229   -2.9812514    656.03056  0.090213223  0.091538351            1 
  607000    1.1706644   -2.9849091    658.03964  0.090340423  0.091529078            2 
  608000     1.136483   -2.9828707    657.42972   0.09010824  0.091519363            6 
  609000    1.1337728   -2.9870514    660.76571  0.090416764  0.091511231            1 
  610000    1.1763654   -2.9709094     661.0973  0.090313838  0.091501204            2 
  611000    1.1496527   -2.9742771    659.88971  0.090001324  0.091493058            2 
  612000    1.1613532   -2.9812852    661.25949   0.09004078  0.091483699            3 
  613000    1.1647232   -2.9803459    658.56674  0.089527832  0.091471689            1 
  614000    1.1702525   -2.9992307    662.75151  0.089949987  0.091460836            1 
  615000    1.1488342   -3.0043066     662.8014  0.089810488  0.091449612            2 
  616000    1.1525806   -2.9947471    661.88753  0.089541061  0.091438339            3 
  617000    1.1563547   -3.0028965    666.20636  0.089979249  0.091426532            3 
  618000    1.1556113   -2.9614775    665.29884  0.089711279  0.091413674            2 
  619000    1.1500195   -2.9999512    664.32509  0.089435257  0.091399677            1 
  620000    1.1416002   -2.9795857    667.39676  0.089703865  0.091386025            2 
  621000    1.1911522   -2.9536598     671.3337  0.090087722   0.09137318            1 
  622000     1.179047   -2.9838815    669.01694  0.089632494  0.091360885            3 
  623000    1.1636958   -2.9853166    672.93031   0.09001208  0.091349389            2 
  624000    1.1698413   -2.9509291    673.57585   0.08995404  0.091338237            2 
  625000    1.1363885    -2.996494    671.82459  0.089576612  0.091328138            2 
  626000    1.1576944    -2.968146    674.96129  0.089851077  0.091316934            2 
  627000    1.1511363   -2.9695929    676.01982   0.08984846  0.091305275            1 
  628000    1.1109642   -2.9857126    674.99114  0.089568887  0.091293168            1 
  629000    1.1428503   -2.9608448    678.88049  0.089941771  0.091281593            2 
  630000    1.1549325   -2.9550245    677.15844  0.089571223  0.091269288            1 
  631000    1.1534008   -2.9824813    678.83312  0.089650438  0.091255873            3 
  632000    1.1472237   -2.9696553    681.04892  0.089800754  0.091242984            2 
  633000    1.1514975   -2.9621761    677.91731  0.089246618  0.091230346            1 
  634000    1.1444585   -2.9770908    681.17655  0.089534247  0.091217054            3 
  635000    1.1788643   -2.9924112    686.00273  0.090026604  0.091204855            1 
  636000    1.1612331   -3.0276935    685.75743  0.089852913  0.091192732            1 
  637000    1.1529199   -2.9760184     682.4553  0.089279867  0.091179751            1 
  638000    1.1410998   -2.9910197    684.34537  0.089386804  0.091165507            6 
  639000    1.1629104   -2.9770967    684.29061  0.089239777  0.091149578            4 
  640000    1.1559114   -2.9766773    685.42872  0.089248531  0.091133708            4 
  641000     1.161315   -2.9913359    683.08335  0.088804388  0.091118032            3 
  642000    1.1265479   -3.0195136     685.8534  0.089025623  0.091101697            1 
  643000    1.1727841   -2.9998493    685.31935  0.088817956  0.091085204            1 
  644000    1.1348514    -2.995039    689.64045  0.089239188  0.091069336            2 
  645000    1.1505364   -2.9849839    688.40177  0.088940797  0.091053749            3 
  646000    1.1366304   -2.9892348    692.86138  0.089378403  0.091037692            2 
  647000    1.1583259   -2.9669488    694.54647    0.0894573  0.091023935            3 
  648000    1.1539854   -2.9680281     693.1133  0.089134941  0.091010498            2 
  649000    1.1128742   -3.0234811    691.68771   0.08881455  0.090996316            1 
  650000    1.1525978   -2.9626686     696.7284  0.089324154  0.090982469            5 
  651000    1.1638316   -2.9785157    697.10463  0.089235103  0.090967019            5 
  652000    1.1614243   -2.9783341     697.4049  0.089136619  0.090951744            1 
  653000    1.1325453   -2.9888933    696.32369  0.088862135  0.090935622            3 
  654000    1.1529787    -2.984183    698.41658  0.088992939  0.090918955            1 
  655000     1.129845   -3.0212231     697.6212  0.088755878  0.090902532            1 
  656000    1.1517229   -3.0063638    697.95329  0.088662765  0.090886003            2 
  657000    1.1307637   -2.9717876    701.36834  0.088960976  0.090867856            2 
  658000    1.1425558   -2.9765044    699.42384  0.088579513  0.090850428            2 
  659000    1.1236256   -2.9887154    701.18118  0.088667322  0.090831702            3 
  660000     1.157523   -3.0050702    696.90346  0.087992862  0.090812851            6 
  661000    1.1165495   -2.9871987    702.05045  0.088508629  0.090794861            2 
  662000    1.1367066   -2.9926437    705.26335  0.088779374  0.090777159            1 
  663000    1.1458371   -2.9832977    706.51029  0.088802198  0.090760262            1 
  664000    1.1405177   -2.9826001    707.04372  0.088735406  0.090742838            6 
  665000    1.1400445   -3.0136335    704.97187   0.08834234   0.09072332            1 
  666000     1.142093   -2.9928602    710.03309  0.088842979  0.090706689            5 
  667000    1.1743451   -2.9843822    711.74233   0.08892333  0.090689226            3 
  668000    1.1505961   -2.9824897       714.13  0.089088074  0.090672239            2 
  669000    1.1767637   -2.9838017    714.32239  0.088978873  0.090655709            1 
  670000    1.1683245   -2.9868341    714.92152  0.088920587  0.090640077            1 
  671000    1.1378135   -3.0218095    716.83541  0.089025759  0.090624879            2 
  672000    1.1542362   -2.9832996    720.14949  0.089304253  0.090610579            2 
  673000    1.1629277   -3.0000274    719.95509  0.089147486  0.090594162            1 
  674000    1.1251245   -2.9930993    719.22468  0.088924911  0.090579551            1 
  675000    1.1583742   -2.9834171    719.23695  0.088794685  0.090565814            1 
  676000    1.1321334   -3.0072837    719.60233  0.088708374  0.090550564            2 
  677000     1.145981   -2.9841788    722.07978  0.088882297   0.09053462            1 
  678000    1.1538934   -3.0025851     725.7427  0.089201413  0.090519464            1 
  679000    1.1266799   -2.9906449    722.91721  0.088723271  0.090503281            2 
  680000    1.1682132   -3.0168906    723.45882  0.088659169  0.090486921            4 
  681000    1.1423299   -2.9887097     725.6383   0.08879568  0.090471403            1 
  682000    1.1201414    -2.981856    724.57997  0.088536164  0.090454615            2 
  683000    1.1750259   -3.0017751    724.99809  0.088457551  0.090438892            2 
  684000     1.132482   -2.9829407    729.02548  0.088818893  0.090424246            1 
  685000    1.1519146   -3.0159935    725.33744  0.088240565  0.090408545            2 
  686000    1.1333158     -2.98788    732.46513  0.088977785  0.090392899            3 
  687000    1.1177086   -2.9979919    727.65301  0.088264557  0.090376459            4 
  688000    1.1403073   -2.9991353    728.79255  0.088274291  0.090360154            1 
  689000    1.1455116   -3.0475712    727.78574  0.088024401  0.090343306            2 
  690000     1.139496   -3.0074577    733.44993  0.088580909  0.090326046            3 
  691000    1.1695957    -2.992911    735.10351  0.088652136  0.090310021            2 
  692000    1.1367951   -3.0013524    731.44861  0.088083889   0.09029354            2 
  693000    1.1493279   -3.0320884     731.2892  0.087937614  0.090276432            4 
  694000    1.1488968   -2.9954284     733.9932  0.088135591  0.090259732            2 
  695000    1.1422056   -2.9708504    740.23863  0.088757629  0.090243957            2 
  696000    1.1537026    -2.991245    740.03243  0.088605416  0.090229619            2 
  697000    1.1422855   -2.9767257    739.44178  0.088407673  0.090214014            1 
  698000    1.1300314   -3.0359367    737.88536  0.088095195  0.090197891            1 
  699000    1.1076324    -2.991111    744.17258  0.088718715  0.090181573            1 
  700000    1.1294022   -3.0122974    744.14335  0.088588494  0.090166605            4 
  701000    1.1394905   -2.9967882    744.67537  0.088525365  0.090150391            1 
  702000    1.1498661   -2.9999165    744.26272  0.088350275  0.090135514            2 
  703000    1.1510456   -2.9879173    744.07688   0.08820257  0.090121932            3 
  704000    1.1119407   -2.9849616    746.22416  0.088331458   0.09010703            1 
  705000    1.1500662    -3.012403     747.0558  0.088304468  0.090091393            3 
  706000    1.1570084    -3.010828     744.9826  0.087934679  0.090075194            2 
  707000    1.1413174   -3.0096417    753.74393   0.08884299  0.090060074            3 
  708000    1.1359238   -3.0105538    747.79788  0.088017641  0.090043905            3 
  709000    1.1421803   -2.9762595    752.43231  0.088438212  0.090028001            1 
  710000    1.1533125   -3.0182618    748.41902  0.087842608  0.090012136            4 
  711000    1.1464784   -2.9966955    751.58953  0.088090663  0.089995278            2 
  712000    1.1551592    -2.999181    753.64513   0.08820753   0.08997842            2 
  713000    1.1392831   -2.9981757    755.62956  0.088315751  0.089960297            1 
  714000    1.1290221   -2.9792208    755.30527  0.088154209  0.089943074            3 
  715000    1.1446762   -2.9774906    754.87368  0.087980616  0.089925853            2 
  716000    1.1127015   -2.9869309    756.33485  0.088027799  0.089909156            3 
  717000    1.1470667   -2.9887603    756.24227  0.087894266  0.089892753            2 
  718000    1.1403239   -3.0255822    758.69582  0.088056618  0.089876834            1 
  719000    1.1208266   -2.9655437     762.3189  0.088354068  0.089860851            1 
  720000    1.1679849   -3.0061407    758.69974  0.087812469  0.089845991            2 
  721000    1.1258808   -3.0110842    762.60244  0.088141752  0.089830134            4 
  722000    1.1042028   -2.9864093     761.8614  0.087934141  0.089814527            2 
  723000    1.1449854   -3.0134196    767.02027  0.088407131  0.089799114            5 
  724000    1.1328772   -2.9920255    769.57515  0.088579092  0.089783777            3 
  725000    1.1241919   -3.0024619    765.50445  0.087989017  0.089768407            1 
  726000    1.1520001    -2.974338    768.12563  0.088168691  0.089751695            3 
  727000    1.1282924   -3.0027615    768.43002  0.088082304  0.089734841            2 
  728000       1.1367    -2.997449    769.06887   0.08803444  0.089718351            2 
  729000      1.10871   -2.9960217    765.72776  0.087531751   0.08970098            2 
  730000    1.1220631   -3.0002702    768.14365  0.087687632  0.089684157            2 
  731000     1.136537    -3.003696    769.33019   0.08770294  0.089666683            3 
  732000    1.1044755   -3.0006682    770.45852   0.08771158  0.089649221            3 
  733000    1.1259647   -2.9926737    772.99451  0.087880231  0.089630828            5 
  734000    1.1521929   -3.0129873     770.1502   0.08743758  0.089613374            1 
  735000    1.1160257   -3.0098805    776.09949   0.08799314   0.08959618            2 
  736000    1.1266678   -2.9762057    774.62191  0.087706285   0.08957924            1 
  737000    1.1390755   -2.9918676    777.46695  0.087908972  0.089563062            6 
  738000      1.12252   -2.9532222    776.98986  0.087735982  0.089547098       -1e+20 
  739000    1.1412858   -3.0120491    780.35087  0.087996264  0.089530815            1 
  740000    1.1506195   -3.0034408    780.09997  0.087849095  0.089513949            3 
  741000    1.1181606   -3.0142083    780.22462  0.087744559  0.089497821            2 
  742000    1.1171329   -3.0317696     778.2557  0.087405178  0.089480142            2 
  743000    1.1040195   -3.0086246    780.17417  0.087502711   0.08946182            2 
  744000    1.1132336   -3.0312382    781.29117  0.087510212   0.08944391            1 
  745000    1.1460188   -3.0032919    783.07367  0.087592133  0.089425575            2 
  746000    1.1267391   -3.0461104    781.52335  0.087301536  0.089408524            3 
  747000    1.1636541   -3.0182286    781.47765  0.087179569  0.089389465            2 
  748000    1.1565757   -2.9784014    783.77562  0.087319031   0.08937099            2 
  749000    1.1312544   -3.0090232    786.22313  0.087474759  0.089351758            3 
  750000    1.1330407   -2.9877635    786.30482  0.087367202  0.089333148            1 
  751000    1.1484225   -2.9843455    786.14606  0.087233252  0.089315235            1 
  752000     1.157941   -2.9892545    788.67014  0.087396956  0.089296745            1 
  753000     1.145027   -3.0047206    789.16323  0.087335461  0.089277436            1 
  754000    1.1179825   -3.0104168    788.70466   0.08716895  0.089259582            4 
  755000    1.1049678   -3.0114804    794.26742  0.087667485  0.089240152            4 
  756000    1.1360103   -3.0399825    790.13506  0.087096017  0.089220867            2 
  757000    1.1233878   -3.0397923    789.97385  0.086963215   0.08920109            3 
  758000    1.1464696   -3.0107715    792.93748  0.087174305  0.089180773            1 
  759000    1.1335107   -3.0087901    790.51441  0.086793414  0.089159956            1 
  760000    1.1418132   -2.9887036    796.27975  0.087311376   0.08914001            1 
  761000     1.138656   -3.0110157    797.92113  0.087376382  0.089121193            2 
  762000    1.1271972   -3.0303424    796.14059  0.087066994  0.089103304            2 
  763000    1.1288786   -3.0038709    795.47319   0.08687999  0.089085006            4 
  764000    1.1341348    -2.977913    796.80486  0.086911524  0.089066488            2 
  765000    1.1279327   -3.0346689    797.35182  0.086857496  0.089047163            2 
  766000    1.1262271   -3.0107157    797.23736  0.086731654  0.089027489            2 
  767000    1.1188088   -3.0230773    796.06145  0.086490813  0.089007023            1 
  768000    1.1367986   -3.0263766    801.26645  0.086942974  0.088986797            2 
  769000    1.1464976   -3.0088528    803.50222  0.087072195  0.088967198            1 
  770000    1.1138056   -2.9766127    806.21091  0.087252263  0.088947405            2 
  771000    1.1178389   -3.0165944    802.61777  0.086750731  0.088927841            4 
  772000    1.1066127   -3.0124236     800.8907  0.086451932  0.088907474            2 
  773000    1.1268111   -3.0204846    802.45553  0.086508789  0.088886656            3 
  774000     1.124866    -3.049192    801.60421  0.086305363    0.0888647            1 
  775000    1.1055439    -3.030631    806.60285  0.086731489  0.088843291            3 
  776000    1.1275742   -3.0090553    806.23369  0.086580078  0.088822828            3 
  777000    1.1244076   -3.0164145    809.92882  0.086864953  0.088801871            2 
  778000    1.1324701   -2.9880274    812.34118  0.087011694  0.088781871            3 
  779000    1.1158266   -3.0320923    808.28202   0.08646577   0.08876013            1 
  780000    1.1304505   -2.9908378    808.80524  0.086410816  0.088738434            2 
  781000     1.097487   -3.0091249    809.71645  0.086397402  0.088716406            2 
  782000    1.1188791   -3.0337737    812.12354  0.086543429  0.088694987            1 
  783000    1.1283415   -2.9922737    809.74521   0.08617978  0.088672234            1 
  784000    1.1102422   -3.0239809    811.90062   0.08629896  0.088649965            3 
  785000    1.1378033   -2.9807307    813.53738  0.086362779  0.088629615            1 
  786000    1.1471003    -3.034528    813.43743  0.086242306  0.088608576            2 
  787000    1.1361006   -3.0195835    820.58462  0.086889519  0.088587325            3 
  788000    1.1342011   -3.0083866      817.908  0.086496193  0.088567291            3 
  789000    1.1491181    -3.013676    817.33241  0.086325772  0.088547994            2 
  790000     1.125055   -3.0118872    818.40645  0.086329794  0.088528206            2 
  791000    1.1248363   -3.0065212    823.17802  0.086723348  0.088507879            3 
  792000    1.1137309   -2.9954651    823.03882  0.086599203   0.08848845            3 
  793000    1.1328908   -3.0661451    823.72564  0.086562173  0.088469709            2 
  794000    1.1261753   -3.0089576    827.24253  0.086822264  0.088450803            1 
  795000    1.1131789   -3.0237816    826.35534  0.086620057  0.088431708            2 
  796000    1.1265314   -3.0192775    825.84053  0.086457342   0.08841304            1 
  797000    1.1356707   -3.0135763    830.95562  0.086883691  0.088394719            2 
  798000    1.1149139   -3.0382124    829.92003   0.08666667  0.088375744            1 
  799000    1.1236043   -3.0332852    831.33235  0.086705502  0.088357014            3 
  800000    1.1386792   -3.0336927    831.93672  0.086660075  0.088338783            3 
  801000    1.1395081   -3.0136003    832.80649  0.086642373  0.088320677            1 
  802000    1.1302898    -3.028108      836.196  0.086886534  0.088304074            3 
  803000    1.1471393   -3.0057251    833.61434  0.086510413  0.088286323            1 
  804000    1.0963798   -2.9943329    832.93506  0.086332407  0.088269437            2 
  805000    1.1207417   -3.0379128    833.91486   0.08632659  0.088250548            1 
  806000    1.1060092    -3.013013    837.45464  0.086585467   0.08823201            2 
  807000    1.1270114   -2.9990517    837.66264  0.086499653  0.088213881            1 
  808000    1.1044479   -2.9985607    837.57096  0.086383144   0.08819577            2 
  809000    1.1006254   -3.0501501    839.05058  0.086428779  0.088177388            1 
  810000    1.1107894   -3.0182459    835.72035   0.08597946  0.088158489            1 
  811000    1.1175466   -3.0231024    839.20555  0.086231561  0.088139453            1 
  812000    1.1310035    -3.029888    842.35036  0.086448107  0.088120742            2 
  813000    1.1254369   -3.0097317    842.46139  0.086353156  0.088101502            1 
  814000    1.1073009    -3.005927    844.35421  0.086440849     0.088082            2 
  815000    1.1106276   -3.0195085    838.47986  0.085734137  0.088063186            2 
  816000    1.1163438   -3.0310403    845.91928  0.086388815  0.088044147            2 
  817000    1.1060817   -3.0350546    842.18702  0.085902388  0.088024828            2 
  818000    1.1190145   -3.0386547    848.80248  0.086471321  0.088005828            1 
  819000     1.120877   -2.9974457    849.48037  0.086434715  0.087987425            2 
  820000    1.0885542   -3.0242012    847.78375  0.086156885  0.087970196            2 
  821000     1.088919   -3.0273342    851.13977  0.086392587  0.087951706            1 
  822000    1.1324063   -3.0186604    852.18314  0.086393262  0.087934337            2 
  823000    1.0992253   -2.9991732     851.3903  0.086208009  0.087916229            2 
  824000    1.1183857    -3.021004     856.1342  0.086583152  0.087898852            1 
  825000     1.125769   -3.0174984    852.63354  0.086124599  0.087881086            4 
  826000    1.0933586   -3.0372617    851.61147  0.085917219  0.087862368            2 
  827000    1.1203907   -3.0208057    855.09263  0.086164111  0.087843204            1 
  828000    1.1228509   -3.0014205    854.24526  0.085974765  0.087824378            3 
  829000    1.0930383   -2.9910635    858.12579  0.086261137  0.087805355            1 
  830000    1.1296348   -3.0248992    859.56393    0.0863016  0.087785683            2 
  831000    1.1132011   -3.0416132    857.74435  0.086015278  0.087765771            5 
  832000    1.1326441   -3.0216021    857.93947  0.085931437  0.087746945            2 
  833000    1.1155301   -3.0166102    861.58014   0.08619249   0.08772896            3 
  834000    1.1033479   -3.0375487    864.10124  0.086341051  0.087711662            2 
  835000    1.0979759    -3.038943    863.24261  0.086151957  0.087693968            1 
  836000    1.1101333   -3.0266186    865.59466  0.086283359  0.087676952            1 
  837000     1.120159   -3.0352685    861.97193  0.085819587  0.087659085            1 
  838000    1.1358212   -3.0143631    866.07382  0.086125081  0.087641673            2 
  839000    1.0988143   -3.0415364    865.02334  0.085918091  0.087625706            2 
  840000    1.1331366   -3.0243543    867.47109   0.08605864  0.087608184            1 
  841000    1.1214678   -3.0520991    870.38784  0.086245327  0.087590687            3 
  842000    1.1189128   -3.0268862    871.89155  0.086291722  0.087572982            2 
  843000    1.1446137    -3.000958    869.75224   0.08597788  0.087555717            3 
  844000     1.125033   -3.0670238    870.60757  0.085960463  0.087537916            1 
  845000    1.1040198   -3.0280967    868.52594  0.085653446  0.087520337            1 
  846000    1.1277127   -3.0364208    872.32385  0.085926305  0.087501531            2 
  847000    1.1146496   -3.0464712    869.84669  0.085581138  0.087482953            3 
  848000    1.1072713   -3.0109695    872.37117  0.085728299  0.087463921            2 
  849000    1.0995876   -3.0088628     873.0549  0.085694435  0.087445588            1 
  850000    1.0940671   -3.0585153    871.83032  0.085473561  0.087427032            1 
  851000    1.1318943   -3.0343388    873.37596  0.085524477  0.087408413            1 
  852000    1.1303286   -3.0408534    872.22276  0.085311303  0.087389008            2 
  853000    1.1350493   -3.0494215    876.07779  0.085587904  0.087370097            2 
  854000    1.1151972   -3.0300681    878.37571  0.085711915  0.087351142            4 
  855000    1.1228594   -3.0036508    880.73728   0.08584184  0.087332835            1 
  856000    1.1223874   -3.0369495    879.90782  0.085660808  0.087314877            1 
  857000    1.1198527   -3.0038589    880.77422  0.085645101  0.087296928            1 
  858000    1.1193504   -3.0128254    887.03451  0.086153313  0.087280163            5 
  859000    1.0981428   -3.0356555    880.92495  0.085460317  0.087262544            1 
  860000    1.1078688   -3.0460291    882.61963  0.085525158  0.087244652            1 
  861000    1.1162701   -3.0055699       883.34  0.085495548  0.087226157            4 
  862000    1.1103848   -3.0452716    886.26525  0.085679162  0.087208036            1 
  863000    1.1341636    -3.019858    888.54522   0.08580004  0.087189868            2 
  864000    1.1163782   -3.0405764    887.32338  0.085582888  0.087172168            2 
  865000    1.1096496   -3.0437308     882.0413  0.084975077  0.087153393            2 
  866000    1.1268356   -3.0205197    891.51495  0.085788583  0.087135506            2 
  867000    1.1168003   -3.0095296    886.95059  0.085250922  0.087117731            3 
  868000    1.1081133   -3.0518144    890.42848  0.085486605  0.087099994            1 
  869000    1.1196711   -3.0201166    893.92043  0.085723095  0.087082298            1 
  870000    1.0886984   -3.0310378    891.17419  0.085361512  0.087064802            2 
  871000    1.1526928   -3.0465219     893.7082  0.085505951  0.087046043            2 
  872000    1.1024195   -3.0747575    894.00197  0.085435968  0.087027717            2 
  873000    1.0975684   -3.0249115    898.65626  0.085782385  0.087010078            1 
  874000    1.1328223   -3.0523694    895.52837  0.085386001  0.086993887            3 
  875000    1.1228433   -3.0332771    901.26856  0.085835101  0.086977105            3 
  876000    1.1103075   -3.0483507    900.41138  0.085655573  0.086960642            1 
  877000    1.1302926   -3.0215345    901.11131  0.085624412  0.086945118            2 
  878000     1.114506   -3.0400075    901.03883   0.08552001  0.086928422            2 
  879000    1.1094321    -3.038562    901.79421  0.085494332  0.086911843            3 
  880000    1.0991123    -2.997574     906.3994  0.085833276   0.08689517            1 
  881000    1.1138884   -3.0366623     906.1837  0.085715446  0.086878882            2 
  882000    1.1064637    -3.078083    901.98477  0.085221539  0.086862453            2 
  883000     1.089013   -3.0122754    910.25945   0.08590595  0.086846657            3 
  884000    1.1111818   -3.0228183    909.82905  0.085768199  0.086831773            1 
  885000    1.1053214   -3.0509173    907.68914  0.085469787  0.086817293            4 
  886000    1.0725883   -3.0376326    908.19721  0.085421107  0.086801118            3 
  887000    1.1023405   -3.0236562    912.18502  0.085699457  0.086785234            4 
  888000    1.1119014   -3.0212475    909.45508   0.08534676  0.086769089            2 
  889000    1.0956544   -3.0279011    916.85899  0.085944787  0.086753021            3 
  890000    1.1156092   -3.0416729    911.06119  0.085305355  0.086737014            2 
  891000    1.1041359   -3.0301827    914.40187   0.08552206  0.086721263            2 
  892000    1.1405411   -3.0383316     914.6396  0.085448393  0.086705295            1 
  893000    1.1061466   -3.0437963    920.54507  0.085903795  0.086690272            1 
  894000     1.119415   -3.0456045    916.22136  0.085404676  0.086675337            5 
  895000    1.1120266   -3.0581163    921.10409  0.085763882  0.086660702            3 
  896000    1.1158591   -3.0303358    919.39836   0.08550952  0.086645922            2 
  897000    1.1049343   -3.0234959    920.17607  0.085486443  0.086631888            3 
  898000    1.1105168   -3.0332021    919.81214  0.085357474  0.086616831            6 
  899000    1.1107608   -3.0687612    922.43945  0.085506067  0.086602936            3 
  900000    1.0947623   -3.0445572    924.01062  0.085556539  0.086588674            2 
  901000    1.1330773   -3.0645479    928.10777  0.085840526  0.086574617            3 
  902000    1.1112334   -3.0620127    924.08906  0.085374082  0.086561116            1 
  903000    1.0947427   -3.0488036    927.61641  0.085605058  0.086547528            1 
  904000    1.1092472    -3.048713    927.73054  0.085520883  0.086534706            4 
  905000    1.1043435   -3.0384271    932.07213  0.085826163  0.086522144            3 
  906000    1.1183771   -3.0487563    929.93416  0.085534783   0.08650918            2 
  907000    1.1005974     -3.07282    932.96731  0.085719157  0.086495045            3 
  908000    1.1287206   -3.0279722     930.5343  0.085401459  0.086480847            1 
  909000    1.1086707   -3.0185911    936.53925  0.085858017  0.086467508            2 
  910000    1.1128686   -3.0376014    932.02731  0.085350487  0.086453961            1 
  911000    1.1265229   -3.0550692    937.13529  0.085724048  0.086440187            3 
  912000    1.1182339   -3.0487163    933.97575  0.085341352  0.086426468            3 
  913000    1.1204941   -3.0258533    939.18026  0.085722915  0.086412619            1 
  914000    1.0840895    -3.021819    938.44273  0.085561883  0.086399235            3 
  915000    1.0962401   -3.0645446    932.23999   0.08490346  0.086384662            2 
  916000    1.0995553   -3.0593207    937.37303   0.08527775  0.086370159            2 
  917000    1.1255351   -3.0546471     938.0797  0.085248973  0.086356026            2 
  918000    1.0947095   -3.0522617    941.08868  0.085429256  0.086342581            4 
  919000    1.0989401   -3.0339721    943.75668  0.085578226  0.086329224            3 
  920000    1.1046334   -3.0656626     944.4263  0.085545861  0.086316348            2 
  921000    1.1169039   -3.0592961     945.0446  0.085508921  0.086303579            1 
  922000    1.0974221   -3.0670021    945.75302  0.085480208  0.086290044            3 
  923000    1.1172773   -3.0437879    947.41949  0.085538054  0.086276645            1 
  924000    1.0831999   -3.0589029    943.10628  0.085056483  0.086263068            3 
  925000    1.0831497   -3.0391047     946.4426  0.085265099  0.086248525            1 
  926000    1.1239299    -3.034188    949.04399  0.085407126  0.086234446            1 
  927000    1.1007849    -3.036324    953.93041  0.085754261  0.086220773            2 
  928000    1.0977034   -3.0028445    949.73411  0.085285031  0.086206611            2 
  929000    1.1289398   -3.0372638    948.31904  0.085066294  0.086192734            2 
  930000    1.0965071   -3.0553009    951.66457  0.085274603  0.086178762            2 
  931000     1.109847   -3.0210676     954.7776  0.085461654  0.086166152            3 
  932000     1.071286   -3.0509295    956.27144  0.085503527   0.08615343            2 
  933000     1.119024   -3.0566571    958.62226  0.085621852  0.086140994            3 
  934000    1.0777673    -3.049679    952.55584  0.084988922  0.086127505            1 
  935000     1.119265   -3.0556072    952.57475   0.08489971  0.086113416            2 
  936000    1.1122549   -3.0342527    955.15867  0.085039055  0.086099617            4 
  937000    1.1023559   -3.0273662    958.22314  0.085220841   0.08608584            4 
  938000    1.0907479   -3.0601492    959.77987   0.08526829  0.086070473            1 
  939000    1.1137822    -3.074296    956.61272  0.084896408  0.086056334            6 
  940000    1.0920666   -3.0481691    961.34523  0.085225641  0.086042076            2 
  941000    1.1056647    -3.061423    959.26053  0.084950455  0.086028388            2 
  942000    1.0800867   -3.0262424    961.12829  0.085025503  0.086014336            2 
  943000    1.1141448   -3.0547641    960.09184  0.084843747  0.085999655            2 
  944000    1.0782555   -3.0349697    962.96827  0.085007792   0.08598501            3 
  945000    1.1056046    -3.052011    964.02645  0.085011151  0.085970591            2 
  946000    1.1011386    -3.042914    964.77342  0.084987088  0.085955926            3 
  947000    1.1070887   -3.0556237    962.30274  0.084679931  0.085939589            2 
  948000    1.0987013   -3.0499239    965.91543  0.084908177  0.085923974            1 
  949000    1.1115881   -3.0539102    966.71928  0.084889294  0.085909265            2 
  950000    1.1183328   -3.0766462    961.77696    0.0843664  0.085893495            2 
  951000    1.1069834   -3.0530507    965.78488  0.084628889  0.085877948            2 
  952000    1.1115618   -3.0515464    971.99448  0.085083551  0.085862698            2 
  953000    1.1057899   -3.0511562    964.30531  0.084321905  0.085846617            1 
  954000    1.1069651   -3.0305079    969.53056  0.084689951  0.085831017            2 
  955000    1.0772645    -3.051477    967.45109  0.084419816  0.085815453            3 
  956000    1.0858546   -3.0349535    969.53853   0.08451347  0.085800064            2 
  957000    1.1140087   -3.0492698    971.12625  0.084563414  0.085784432            1 
  958000    1.1041939   -3.0455724    977.04045  0.084989601  0.085768818            3 
  959000    1.1031688   -3.0291826     971.5422  0.084423202  0.085753364            2 
  960000    1.1142528   -3.0630912    967.70934  0.084002547  0.085737675            3 
  961000    1.0894157    -3.058284    971.54362  0.084247626  0.085721321            1 
  962000    1.1027753   -3.0627146    975.11219  0.084469178  0.085704725            2 
  963000    1.1252255   -3.0239953      977.222  0.084564036  0.085688022            1 
  964000    1.1031759   -3.0487005    980.89425  0.084793763   0.08567109            2 
  965000    1.0975938   -3.0507149     980.2303  0.084648558  0.085654619            2 
  966000    1.0776339   -3.0429546    977.11603  0.084292273  0.085638096            4 
  967000    1.1285306   -3.0411348    979.36842  0.084399209  0.085621547            2 
  968000     1.080283   -3.0439821    983.30931  0.084651284  0.085604901            1 
  969000    1.0985908   -3.0474948    980.29887  0.084305029  0.085588784            1 
  970000    1.0915402   -3.0378792    985.27826  0.084645899  0.085573301            2 
  971000    1.0729277   -3.0767238    981.91102  0.084269741  0.085558509            3 
  972000    1.0756496   -3.0577304    984.98922  0.084446949  0.085542584            4 
  973000    1.0902616   -3.0565061     990.1056  0.084798356  0.085526885            2 
  974000    1.0793262   -3.0415984    985.33718  0.084303318  0.085511434            3 
  975000     1.096225   -3.0339993    985.85853  0.084261412  0.085496079            3 
  976000    1.0816464   -3.0534629    988.07011  0.084363909  0.085480085            1 
  977000    1.0835639   -3.0711762    990.15941  0.084455767  0.085463523            4 
  978000    1.0856042   -3.0445851    989.64827  0.084325858  0.085447252            1 
  979000     1.096566   -3.0076073     992.3723  0.084471595  0.085431588            2 
  980000    1.0924668   -3.0757446    985.50227  0.083801214  0.085416107            1 
  981000    1.0988486   -3.0288743    992.38987  0.084300872  0.085399927            1 
  982000    1.0989682   -3.0863312    993.06281  0.084272132  0.085383726            4 
  983000    1.1005361   -3.0565592    993.18296  0.084196589  0.085367892            2 
  984000    1.0827951   -3.0809649    995.52058  0.084308992  0.085352691            3 
  985000    1.1081787   -3.0535888    999.15727  0.084531072  0.085337275            2 
  986000    1.0688057    -3.062536    998.29115  0.084372139  0.085322563            2 
  987000    1.0887405   -3.0527101    1000.4236  0.084466701  0.085307613            2 
  988000    1.1096836   -3.0780264    1000.1481   0.08435797  0.085292689            1 
  989000    1.0952343   -3.0645527    999.02284   0.08417786  0.085277256            2 
  990000    1.1074197   -3.0556575    995.49947  0.083796252  0.085262359            4 
  991000    1.0640167   -3.0248178    1003.3996  0.084376016  0.085246924            2 
  992000    1.1072589   -3.0358429    1002.1168    0.0841832  0.085232188            1 
  993000    1.0666387   -3.0365349    1004.5429  0.084302022  0.085216869            4 
  994000    1.1008571   -3.0450576     1002.824  0.084073108  0.085201373            2 
  995000    1.1045759   -3.0695248    1003.6572  0.084058392   0.08518584            3 
  996000    1.1031259   -3.0624127    1004.1998  0.084019398  0.085170089            3 
  997000    1.0978567   -3.0489267    1006.0949  0.084093523  0.085155012            2 
  998000    1.1089238   -3.0592618    1000.3133  0.083526498  0.085139368            2 
  999000     1.085012   -3.0534571     1008.143  0.084096012  0.085123947            1 
 1000000    1.0750509   -3.0645079    1007.4005  0.083950042  0.085108393            1 
 1001000    1.0811097   -3.0550122    1009.8546  0.084070483  0.085092549            1 
 1002000     1.102744   -3.0765635    1007.1132  0.083758582  0.085076354            2 
 1003000    1.1092737   -3.0774395    1008.9495  0.083827642  0.085059784            3 
 1004000    1.1142645   -3.0334306    1010.1737  0.083845756  0.085043267            3 
 1005000     1.088482    -3.048244    1008.3945  0.083614804  0.085027324            2 
 1006000    1.1019788   -3.0575428    1011.9694  0.083827817  0.085011591            4 
 1007000    1.0853928    -3.049083    1018.5627  0.084290194  0.084996242            5 
 1008000    1.0971546   -3.0356388    1019.2069  0.084259826  0.084980754            1 
 1009000    1.0718551   -3.0531644    1013.9946  0.083745841  0.084964593            1 
 1010000     1.086844   -3.0504416    1019.4514  0.084113153  0.084948749            5 
 1011000    1.0947246   -3.0416756     1018.533   0.08395425  0.084933505            1 
 1012000    1.0761659   -3.0417572    1019.5059  0.083951406  0.084918496            2 
 1013000    1.0488323     -3.04425    1020.8392  0.083978214  0.084903227            2 
 1014000    1.1043594   -3.0407566    1021.3909  0.083940735  0.084888362            1 
 1015000    1.1126651   -3.0503255    1022.9995  0.083990108  0.084873497            3 
 1016000    1.0915321   -3.0728515    1025.3215  0.084097888  0.084858773            1 
 1017000    1.0716959    -3.060033    1022.5744  0.083790098  0.084843995            1 
 1018000    1.0877258   -3.0305891    1023.2531  0.083763348  0.084829348            1 
 1019000    1.0671154   -3.0587301    1026.8825  0.083977964   0.08481435            1 
 1020000    1.0803835   -3.0784291    1022.2393  0.083516285  0.084799571            2 
 1021000    1.0927087    -3.080209    1023.9527  0.083574331  0.084784559            2 
 1022000    1.0854425   -3.0421834    1025.2204  0.083595921  0.084769809            4 
 1023000    1.1022286    -3.053832    1028.6357  0.083792415  0.084754273            2 
 1024000    1.0959199   -3.0683592    1029.2945  0.083764198  0.084739326            2 
 1025000    1.0973705   -3.0652179    1029.8611  0.083728547   0.08472434            3 
 1026000    1.0965882   -3.0592086    1029.7553  0.083638346  0.084709181            1 
 1027000    1.0860077   -3.0662605    1031.6197  0.083708185  0.084693588            2 
 1028000    1.1020273   -3.0816619    1034.9832  0.083899415  0.084677497            2 
 1029000    1.1070822   -3.0845021    1033.7176   0.08371539  0.084662461            1 
 1030000    1.1182124   -3.0604441    1033.7706  0.083638397  0.084646677            1 
 1031000    1.0600407   -3.0569115    1036.1288  0.083747883    0.0846313            2 
 1032000    1.0758979   -3.0521253     1037.842   0.08380507  0.084615935            3 
 1033000    1.0918162   -3.0630522    1035.5468  0.083538786  0.084601345            1 
 1034000    1.0836214   -3.0194234    1038.5849  0.083702842  0.084585923            4 
 1035000    1.0841832   -3.0597804     1035.387   0.08336449  0.084570861            2 
 1036000    1.1151952   -3.0625553    1041.7357  0.083794703  0.084556262            1 
 1037000    1.0715228   -3.0911345    1039.0208  0.083495724  0.084540643            2 
 1038000    1.0939563   -3.0561214    1040.9299  0.083568557  0.084526065            1 
 1039000    1.0937074   -3.0823105    1039.7125  0.083390483  0.084510917            4 
 1040000     1.088065   -3.0738786    1039.2675  0.083274638   0.08449565            5 
 1041000    1.0792549   -3.0430953    1046.8992  0.083805572  0.084480812            1 
 1042000    1.0800831   -3.0760026    1041.9069  0.083325891  0.084465023            4 
 1043000    1.0977943   -3.0619757    1045.8275  0.083559244   0.08444885            3 
 1044000    1.0711378    -3.038551    1045.6143  0.083462191  0.084433226            3 
 1045000    1.0809185   -3.0483889     1053.292  0.083994575  0.084418674            4 
 1046000    1.0936029   -3.0672157    1044.5547  0.083218189  0.084403443            3 
 1047000    1.0647475   -3.0609848     1049.999  0.083572032  0.084388709            3 
 1048000    1.0814088   -3.0726499     1053.857  0.083799063  0.084374331            1 
 1049000    1.0739166   -3.0688409    1051.9195  0.083565264  0.084359478            2 
 1050000    1.0931329   -3.0603858    1053.3837  0.083601878   0.08434449            3 
 1051000    1.0956308   -3.0767934    1049.5095  0.083215153  0.084329984            2 
 1052000    1.0565057   -3.0591781    1058.4227  0.083842106  0.084315884            5 
 1053000    1.0842582   -3.0512955    1058.0618   0.08373392  0.084301295            2 
 1054000     1.094795    -3.052481    1057.1806  0.083584804  0.084286456            1 
 1055000    1.0891125   -3.0468632    1058.1229  0.083580011   0.08427195            2 
 1056000    1.0753964   -3.0733626    1059.8776  0.083639332  0.084259052            2 
 1057000    1.0971881   -3.0338173    1061.4207  0.083681857  0.084246084            1 
 1058000    1.0942347   -3.0674084    1055.9791  0.083174158   0.08423222            1 
 1059000    1.0502194   -3.0836413    1064.4476   0.08376201  0.084218527            1 
 1060000    1.0824766   -3.0662385    1065.6223  0.083775337  0.084206065            1 
 1061000    1.0835412   -3.0683827    1066.4014  0.083757572  0.084193078            2 
 1062000    1.0869235   -3.0490116    1068.3577   0.08383221  0.084180361            2 
 1063000    1.0799768   -3.0588748    1066.4009  0.083599945  0.084167698            4 
 1064000    1.0959796    -3.058579    1068.5064  0.083686275  0.084154881            1 
 1065000    1.0703575   -3.0535337    1067.2401  0.083508618  0.084142375            3 
 1066000    1.0590113   -3.0712531     1068.323  0.083514929  0.084129363            4 
 1067000    1.0909616   -3.0632231    1073.8923  0.083871626  0.084116606            3 
 1068000    1.0880048   -3.0558125    1072.2282  0.083663249  0.084103963            2 
 1069000    1.0945855   -3.0842966    1070.1726  0.083424746  0.084090505            3 
 1070000    1.0634576   -3.0836307    1075.5765  0.083767639   0.08407677            4 
 1071000    1.0990244   -3.0741721    1075.7424  0.083702331  0.084064112            3 
 1072000    1.0627371   -3.0641638    1071.8727  0.083323434  0.084050468            2 
 1073000    1.0634349   -3.0685043    1071.9144  0.083249025  0.084036455            3 
 1074000    1.0981896   -3.0758794    1073.5824  0.083300929  0.084022837            4 
 1075000    1.0946254   -3.0522878     1072.856  0.083167128  0.084009406            3 
 1076000    1.0894483   -3.0693959      1076.66  0.083384449  0.083995833            2 
 1077000    1.0940425   -3.0423484    1076.9225  0.083327335  0.083982561            1 
 1078000    1.0736156   -3.0859388    1074.4852  0.083061624  0.083968325            1 
 1079000    1.0927119   -3.1202612    1074.1575  0.082959339  0.083954833            2 
 1080000    1.0682243   -3.0891511    1078.7562   0.08323736  0.083941027            4 
 1081000     1.068428   -3.0544089    1081.4608  0.083368857  0.083928001            1 
 1082000    1.0911213   -3.0545323    1084.1186  0.083496501  0.083914768            1 
 1083000    1.0943938   -3.0754282     1083.068  0.083338569  0.083901885            1 
 1084000    1.0723489   -3.0674038    1079.2907  0.082971301  0.083888301            1 
 1085000    1.0926852   -3.0914725    1082.3721  0.083131499  0.083874597            1 
 1086000    1.0813168   -3.0569867    1086.3282  0.083358519  0.083861196            2 
 1087000    1.0716407   -3.0709919    1084.5157  0.083142876  0.083848097            3 
 1088000    1.0932846   -3.1138007    1082.7702   0.08293277  0.083834428            2 
 1089000    1.0802598   -3.0792953    1089.0989  0.083340901  0.083821195            2 
 1090000    1.0858943   -3.0689317    1084.9432  0.082946728  0.083808111            3 
 1091000     1.092594   -3.0639105    1091.0862  0.083339918  0.083794818            2 
 1092000    1.0624336   -3.0558957    1091.5815  0.083301394  0.083781524            3 
 1093000    1.0569016   -3.0758848    1092.6364  0.083305609  0.083768428            2 
 1094000    1.0933939   -3.0759411    1092.5734  0.083224666  0.083755512            2 
 1095000    1.0760375   -3.0740736    1090.1287  0.082962607  0.083742678            2 
 1096000    1.0828092   -3.0970807    1091.6422  0.083001994  0.083729928            1 
 1097000    1.0697272   -3.0722482    1093.0847  0.083035907  0.083716494            1 
 1098000    1.0766636   -3.0613766    1098.2129  0.083349493  0.083703299            2 
 1099000    1.0850479   -3.0685202    1093.1876    0.0828926  0.083690412            1 
 1100000    1.0747632   -3.0871462     1093.402  0.082833485  0.083677257            1 
 1101000    1.0926209   -3.0872202    1094.5604  0.082845931  0.083663861            1 
 1102000    1.0810288   -3.0566129    1093.9162  0.082722036  0.083649994            2 
 1103000    1.0982581   -3.0497553    1101.7311  0.083237467  0.083636321            3 
 1104000    1.0517413    -3.074449     1097.761  0.082862395  0.083622918            4 
 1105000    1.0477611   -3.0535826    1100.0076  0.082956831  0.083609646            2 
 1106000    1.0797267   -3.0423185    1102.5191  0.083071058  0.083596998            1 
 1107000    1.0806614   -3.0624382    1102.3583  0.082983909  0.083584506            1 
 1108000    1.0755341   -3.0662866    1101.3965  0.082836684  0.083572024            4 
 1109000    1.0794811   -3.0710014    1109.5352  0.083373548  0.083559301            1 
 1110000    1.0646932   -3.0983993    1107.6617  0.083157788  0.083545971            3 
 1111000    1.0938817    -3.057616    1111.9848  0.083407198  0.083533485            3 
 1112000    1.0615019   -3.1176383    1105.9377  0.082879021  0.083520823            1 
 1113000    1.0671445   -3.0685638    1109.0745  0.083039424  0.083507221            6 
 1114000    1.0851667   -3.0979751    1105.2957  0.082682202   0.08349355            2 
 1115000    1.0790574   -3.1049591    1111.2278  0.083051402  0.083480204            1 
 1116000    1.0506337   -3.0651054    1110.4293  0.082917361  0.083467231            2 
 1117000    1.0851132   -3.0843044    1111.6887  0.082937084  0.083455206            3 
 1118000    1.0601837    -3.068156    1110.7831  0.082795404  0.083442372            2 
 1119000    1.0641313   -3.0883888    1114.3188  0.082984718  0.083429315            3 
 1120000     1.102938   -3.0882226    1111.2332  0.082681041  0.083416307            3 
 1121000    1.0626813   -3.0700471    1117.0905  0.083042709  0.083403047            2 
 1122000    1.0691604   -3.0824215    1116.3438  0.082913234  0.083390686            3 
 1123000    1.0564773   -3.0996954    1116.8555  0.082877377  0.083378826            2 
 1124000    1.0741609   -3.0564163    1118.4172  0.082919424  0.083367413            2 
 1125000    1.0645868   -3.0817065    1118.5491   0.08285549  0.083355356            2 
 1126000    1.0423963   -3.0756143    1120.0837  0.082895477  0.083342978            2 
 1127000    1.0855057   -3.0763527     1119.225  0.082758426  0.083330969            3 
 1128000    1.0506359   -3.0835207    1124.2844  0.083058833  0.083318929            8 
 1129000    1.0852021   -3.0947015    1122.3295  0.082840974  0.083306409            3 
 1130000    1.0526611   -3.0838201    1125.0345  0.082967149  0.083294149            2 
 1131000    1.0640093   -3.1021215    1122.3419  0.082695392  0.083282461            3 
 1132000    1.0752065   -3.0664065    1126.5449  0.082931748  0.083270933            2 
 1133000     1.058859   -3.0741078    1127.6943  0.082943093  0.083258987            3 
 1134000    1.0561471   -3.0941929    1130.1746  0.083052216  0.083247216            2 
 1135000     1.076155   -3.0866507    1125.4959  0.082635529  0.083234712            3 
 1136000    1.0572499    -3.062068    1134.5406  0.083226276   0.08322235            5 
 1137000    1.0549205   -3.0729505    1129.5041   0.08278394  0.083210343            3 
 1138000    1.0390181   -3.0383334    1131.9075  0.082887193   0.08319826            1 
 1139000    1.0864345   -3.0914378    1131.8175  0.082807838  0.083185224            2 
 1140000    1.0661473   -3.0802683    1136.2366  0.083058234  0.083172534            2 
 1141000    1.0519723   -3.0770194     1131.661  0.082651254  0.083160283            1 
 1142000      1.04975   -3.0368611    1132.3556   0.08262957  0.083147582            4 
 1143000    1.0744567   -3.0669158    1140.9695  0.083185296  0.083135223            3 
 1144000    1.0460822   -3.0984547    1138.4296  0.082927566  0.083123257            3 
 1145000    1.0631671   -3.0757814     1135.275  0.082625544  0.083111718            4 
 1146000    1.0524134   -3.0612768    1141.4749  0.083004286  0.083100195            4 
 1147000    1.0505982   -3.0856864    1139.7059  0.082803392  0.083088151            2 
 1148000    1.0637259   -3.1112461    1139.3508  0.082705488  0.083076393            2 
 1149000    1.0803029   -3.1164436    1140.8676  0.082743518  0.083065223            3 
 1150000    1.0698248   -3.0882561     1142.982  0.082824784  0.083054014            2 
 1151000    1.0698678   -3.0563103    1143.0377   0.08275686    0.0830419            2 
 1152000    1.0744189   -3.0902714    1143.3381   0.08270675  0.083030521            2 
 1153000    1.0795201   -3.0839335    1147.4034  0.082928841    0.0830189            4 
 1154000    1.0533881   -3.1020862    1144.3332  0.082635271  0.083006522            2 
 1155000    1.0686379   -3.1071634     1145.412   0.08264156   0.08299452            2 
 1156000    1.0882098   -3.1031903    1142.1367   0.08233396   0.08298238            4 
 1157000    1.0820305    -3.098075     1147.461  0.082646281  0.082970992            3 
 1158000    1.0641926   -3.1008478    1147.9709  0.082611608  0.082958944            4 
 1159000    1.0516632    -3.124624    1148.6578  0.082589721  0.082947128            2 
 1160000    1.0533085   -3.0700659    1150.8106  0.082673173  0.082935812            2 
 1161000    1.0705359   -3.0910292    1153.5897  0.082801441  0.082924615            2 
 1162000    1.0773368   -3.1038289    1152.2539  0.082634388    0.0829132            1 
 1163000    1.0690459   -3.1051488    1156.6549  0.082878686  0.082902179            3 
 1164000    1.0551474    -3.100642     1150.134  0.082340639  0.082890168            4 
 1165000    1.0512088   -3.0738582    1157.1794  0.082773923  0.082878253            2 
 1166000    1.0605719   -3.0870798     1156.172  0.082630928  0.082865953            2 
 1167000    1.0691054   -3.0956477    1156.0211  0.082549349  0.082853635            5 
 1168000     1.051452   -3.0738259     1156.883   0.08254017  0.082842423            1 
 1169000     1.066161   -3.0610564    1159.4267  0.082650894    0.0828305            2 
 1170000    1.0520372   -3.0900359    1157.8908  0.082470853  0.082818395            2 
 1171000    1.0727559   -3.0846464    1157.0652  0.082341672  0.082806588            1 
 1172000    1.0455416   -3.0951255    1159.7493  0.082462265  0.082794397            3 
 1173000    1.0370378   -3.0840042     1158.974  0.082336884  0.082782357            2 
 1174000    1.0847052   -3.0986586    1162.2608  0.082500059  0.082770397            3 
 1175000    1.0743167   -3.0844948    1166.7702  0.082749659  0.082758196            3 
 1176000    1.0830115   -3.0784114    1161.6341  0.082315345  0.082746262            2 
 1177000    1.0621042   -3.1069533    1165.4994  0.082519072  0.082734068            3 
 1178000    1.0715496   -3.0955616    1163.1905  0.082285686  0.082722423            1 
 1179000    1.0494548   -3.0859195    1173.1753  0.082921637  0.082710371            2 
 1180000    1.0865823   -3.0840745    1163.8579  0.082193357  0.082698897            1 
 1181000    1.0673681   -3.0831524    1170.9508  0.082624247   0.08268697            2 
 1182000    1.0890258   -3.0869165    1170.5156  0.082523662  0.082674993            2 
 1183000    1.0761253   -3.0832416    1170.5979  0.082459702  0.082663517            3 
 1184000    1.0913654   -3.1066096    1167.6787  0.082184595  0.082651553            1 
 1185000    1.0576912   -3.0946746    1170.6586  0.082324796  0.082639073            3 
 1186000    1.0781239   -3.0840249    1173.6862  0.082468116  0.082627488            1 
 1187000    1.0707231   -3.1252216    1165.2162  0.081804004  0.082615143            2 
 1188000    1.0610592   -3.1027867    1173.7157  0.082331346  0.082602586            2 
 1189000    1.0541182   -3.1051392     1173.193  0.082225471  0.082589947            2 
 1190000    1.0695566   -3.1113724    1166.5529  0.081691383  0.082577184            2 
 1191000    1.0698255    -3.084678    1170.2451  0.081881132  0.082564662            2 
 1192000    1.0486253   -3.0879391    1176.4741   0.08224791  0.082552142            3 
 1193000    1.0740355   -3.0907799    1173.6542  0.081981989   0.08253972            2 
 1194000    1.0641721   -3.1104974     1172.945  0.081863833  0.082527499            4 
 1195000    1.0201556   -3.0911452    1173.6129  0.081841904  0.082514214            4 
 1196000    1.0852345   -3.0930136    1179.4827  0.082182463  0.082501204            7 
 1197000    1.0660279   -3.0955415    1180.1487  0.082160171  0.082487759            3 
 1198000    1.0609826   -3.0953639    1174.4594  0.081695837  0.082474436            2 
 1199000    1.0468275   -3.1188043    1180.1939  0.082026268  0.082461108            5 
 1200000    1.0925688   -3.1165599    1179.3028  0.081896025  0.082448333            2 
 1201000    1.0460258   -3.0798072    1180.5641  0.081915358  0.082434911            2 
 1202000    1.0751314    -3.086776    1184.9599  0.082151962  0.082422233            1 
 1203000    1.0598399   -3.0788278    1184.9813  0.082085158  0.082409911            1 
 1204000    1.0830245    -3.120292    1183.4988   0.08191437  0.082397806            3 
 1205000    1.0743523   -3.1064904    1185.4041  0.081978157  0.082385752            1 
 1206000     1.048713   -3.0895259    1192.3151  0.082387721  0.082373441            4 
 1207000    1.0510275   -3.1111101    1184.2746  0.081764332  0.082361091            2 
 1208000    1.0572067   -3.0793867    1188.7828  0.082007647  0.082349004            1 
 1209000    1.0602244   -3.0883375    1189.3913  0.081981754  0.082336749            2 
 1210000    1.0699014   -3.0863719    1186.8685  0.081740254  0.082324519            2 
 1211000    1.0542358   -3.1052071    1191.1436  0.081966944  0.082312289            1 
 1212000    1.0396359   -3.0990128    1188.9958  0.081751635  0.082300216            5 
 1213000    1.0541323   -3.0914291    1194.4702  0.082060336    0.0822878            3 
 1214000    1.0462419   -3.1078137    1190.3751  0.081711637  0.082275473            3 
 1215000    1.0646885   -3.1219789    1189.1087  0.081557524  0.082262658            6 
 1216000    1.0626225   -3.0910564    1196.3455  0.081986393  0.082251247            2 
 1217000    1.0421775   -3.0849251    1197.3486  0.081987714  0.082239421            1 
 1218000    1.0741038   -3.0656806    1203.7743  0.082360034  0.082227593            2 
 1219000    1.0573586   -3.0990128     1201.552  0.082140556   0.08221603            2 
 1220000     1.047544    -3.109187    1203.1451  0.082182042  0.082204365            2 
 1221000    1.0708588   -3.0906956     1198.683    0.0818102  0.082192886            6 
 1222000      1.05765   -3.1012935    1200.4177  0.081861543  0.082181335            5 
 1223000    1.0735228   -3.1109962    1204.1586   0.08204951  0.082169438            2 
 1224000    1.0635169   -3.0861039    1204.1035  0.081978726  0.082157755            2 
 1225000    1.0613422   -3.0822327    1205.8432   0.08203015  0.082145777            3 
 1226000    1.0608452   -3.0915351    1204.0321  0.081840139  0.082133711            3 
 1227000    1.0431554   -3.1143828    1204.6623   0.08181624  0.082121655            5 
 1228000    1.0672775   -3.1190069    1201.9067  0.081562618  0.082109302            3 
 1229000    1.0468777   -3.0938127    1207.6539  0.081885945  0.082096533            2 
 1230000    1.0481731   -3.1155707    1204.4742   0.08160394  0.082084239            3 
 1231000     1.027627   -3.1007922    1203.9119  0.081499586  0.082071626            4 
 1232000    1.0524844   -3.1033947    1206.8651   0.08163319  0.082059322            1 
 1233000    1.0537648   -3.0965008    1210.2872   0.08179827  0.082046706            4 
 1234000    1.0519504   -3.0955609     1208.707  0.081625268   0.08203405            1 
 1235000     1.062607    -3.115425    1205.7625  0.081360493   0.08202102            4 
 1236000    1.0322719   -3.1141668    1211.3826  0.081673582  0.082007689            1 
 1237000    1.0476852   -3.0809262    1210.5737  0.081553068  0.081994864            2 
 1238000    1.0432783   -3.1102362    1210.7273  0.081497533  0.081981813            3 
 1239000    1.0637208    -3.131366     1209.986  0.081381891  0.081968602            4 
 1240000    1.0463841    -3.092121    1217.5991  0.081827895  0.081956047            2 
 1241000    1.0785864   -3.1274781    1214.9017  0.081580825  0.081943465            2 
 1242000    1.0857817   -3.1276934    1215.8857  0.081581163  0.081931213            2 
 1243000    1.0606404   -3.1032996    1216.9807  0.081588943  0.081918584            2 
 1244000    1.0619974   -3.1184053    1219.7792  0.081710825  0.081906642            2 
 1245000    1.0432397   -3.1203672      1220.77  0.081711513  0.081894625            3 
 1246000    1.0285878   -3.1125089    1216.6181  0.081368253  0.081882346            2 
 1247000    1.0488319   -3.1233922    1219.6491  0.081505556  0.081870093            4 
 1248000    1.0527042   -3.0827508    1221.9717   0.08159533  0.081858008            4 
 1249000    1.0392705   -3.1117357    1217.2261  0.081213377  0.081846033            1 
 1250000    1.0329202   -3.1210093    1220.0264  0.081335094  0.081833954            1 
 1251000    1.0537888   -3.1149057    1222.4939  0.081434443   0.08182176            3 
 1252000    1.0448611   -3.0872733    1228.4789  0.081767764  0.081809913            1 
 1253000    1.0193674   -3.1231332    1230.7972  0.081856692  0.081798198            1 
 1254000    1.0495421   -3.1225956    1223.7496   0.08132307  0.081786392            3 
 1255000    1.0481997   -3.1191968    1226.0533  0.081411243  0.081774576            1 
 1256000     1.051266    -3.107941    1224.8364  0.081265682    0.0817624            2 
 1257000     1.027892   -3.1165284     1228.726  0.081458897  0.081750163            3 
 1258000    1.0602271   -3.1606698    1229.9803  0.081477233   0.08173782            1 
 1259000    1.0384774   -3.1260088    1230.0537  0.081417375  0.081725475            2 
 1260000    1.0509392    -3.098515    1231.7768  0.081466718  0.081713822            1 
 1261000    1.0488794   -3.0909181    1234.2879  0.081568058  0.081702321            3 
 1262000    1.0555034   -3.1190762    1232.7915  0.081404617  0.081690665            3 
 1263000    1.0476417   -3.1116605    1234.9404  0.081481948  0.081679417            1 
 1264000    1.0601802   -3.0857199    1245.6121   0.08212105  0.081667853            2 
 1265000    1.0549779   -3.1352045    1232.3338  0.081181407  0.081656239            2 
 1266000    1.0267292   -3.1093663    1239.7304  0.081604159  0.081644733            3 
 1267000    1.0779996   -3.1054097    1230.9926  0.080965045  0.081633333            5 
 1268000    1.0475635   -3.0990716    1241.3837  0.081584102  0.081621868            3 
 1269000    1.0516355   -3.1207373    1234.3506  0.081057958  0.081610084            4 
 1270000    1.0574833   -3.0992806    1242.0525  0.081499507   0.08159807            1 
 1271000    1.0360787   -3.0622419    1239.3926  0.081260987  0.081586249            2 
 1272000    1.0487623   -3.1336313    1235.1566  0.080919591  0.081573718            5 
 1273000     1.046504   -3.1301055    1242.8656   0.08136067  0.081561519            3 
 1274000    1.0592293   -3.1310256    1240.2616  0.081126477  0.081548703            3 
 1275000    1.0449531   -3.1181025    1243.4611  0.081271969  0.081536735            2 
 1276000    1.0409924   -3.1299158    1249.0424  0.081572778  0.081524535            3 
 1277000    1.0341616   -3.1087788    1245.6534  0.081287741  0.081511742            1 
 1278000    1.0378623   -3.1387392     1244.352   0.08113928  0.081499457            2 
 1279000    1.0594984   -3.1121121    1241.9693  0.080920595  0.081487473            2 
 1280000    1.0311678   -3.0878463    1252.0291  0.081512312  0.081475796            4 
 1281000    1.0342331   -3.1140952    1248.4514  0.081215936  0.081464166            2 
 1282000    1.0326878     -3.13702    1254.9027  0.081571942  0.081452174            3 
 1283000    1.0199561   -3.1246496    1251.1399  0.081263957  0.081440851            2 
 1284000    1.0512669   -3.1292457    1253.0815  0.081326682   0.08142956            1 
 1285000    1.0543096   -3.1449246    1255.2654  0.081405018  0.081418417            1 
 1286000    1.0304874   -3.1329606    1253.0593  0.081198759  0.081407223            3 
 1287000    1.0272898   -3.1205143    1254.0889  0.081202336   0.08139566            2 
 1288000    1.0447174   -3.1088504     1256.201  0.081275943  0.081384453            2 
 1289000    1.0568143    -3.092644    1258.3648  0.081352783  0.081373267            1 
 1290000    1.0484565   -3.1130835    1260.5809  0.081432876  0.081361994            2 
 1291000    1.0273496   -3.1193564    1255.6725  0.081052962  0.081351107            2 
 1292000    1.0214483   -3.1096213    1263.7463  0.081510987  0.081341106            2 
 1293000    1.0384457   -3.1171961    1264.1939   0.08147679  0.081330802            3 
 1294000    1.0375987   -3.1487578     1262.194  0.081285035  0.081319386            2 
 1295000    1.0454092   -3.1300245    1261.8495  0.081200097  0.081308806            5 
 1296000    1.0421863   -3.0864219    1269.1239  0.081605187  0.081298591            1 
 1297000    1.0487761    -3.148141    1261.3636  0.081043666  0.081287953            2 
 1298000    1.0429634   -3.1321442    1260.3869  0.080918524  0.081276563            1 
 1299000    1.0457774   -3.1080015    1268.2994  0.081363829  0.081265462            1 
 1300000    1.0300485   -3.1154808    1271.2679  0.081491535  0.081254532            2 
 1301000    1.0420789   -3.1374837    1266.2285  0.081106105  0.081243425            2 
 1302000    1.0718305   -3.0980247    1272.7178  0.081459154  0.081232499            2 
 1303000     1.053101   -3.1548993    1265.1154  0.080910422  0.081221875            2 
 1304000    1.0288681   -3.1027198    1279.5767  0.081772539  0.081211735            1 
 1305000    1.0438782   -3.1121121    1269.0742  0.081039218  0.081202086            1 
 1306000     1.047803   -3.1451495    1268.9708  0.080970573  0.081191829            2 
 1307000    1.0251152   -3.1222592    1277.5344   0.08145463  0.081181639            1 
 1308000    1.0420756   -3.1383788    1272.5445  0.081074446  0.081171297            2 
 1309000    1.0351009   -3.1279846    1275.3722  0.081192524  0.081161444            2 
 1310000    1.0392069   -3.1270833    1279.1694  0.081372096   0.08115189            1 
 1311000    1.0453256   -3.1185802    1279.4576  0.081328347  0.081142148            4 
 1312000    1.0512592   -3.1413047    1281.3796  0.081388437  0.081132842            3 
 1313000    1.0218295   -3.1251821     1280.414  0.081265171  0.081123595            2 
 1314000     1.044244   -3.1237193    1284.2536  0.081446828  0.081114768            3 
 1315000    1.0681745   -3.1114084    1289.1192  0.081693232  0.081106064            4 
 1316000    1.0511191   -3.1091346    1286.3569   0.08145624  0.081097494            4 
 1317000    1.0454206   -3.1327636    1291.3934   0.08171307  0.081088615            2 
 1318000    1.0328427    -3.124353    1285.3376  0.081268184  0.081079772            4 
 1319000    1.0519497   -3.1102768    1288.3643  0.081397798  0.081071272            2 
 1320000    1.0381505   -3.1291429    1289.2886  0.081394484  0.081062604            1 
 1321000     1.032533   -3.1204053     1290.896  0.081434267  0.081053049            2 
 1322000    1.0510309   -3.1286486     1293.014  0.081506177  0.081043328            2 
 1323000    1.0425918   -3.1337043    1292.3658  0.081403741   0.08103401            2 
 1324000     1.049092   -3.1318533    1293.4317  0.081409349  0.081024935            3 
 1325000    1.0326917    -3.118582    1285.3048  0.080836777  0.081015322            4 
 1326000    1.0469468   -3.1373161    1292.7091  0.081241144  0.081005309            2 
 1327000    1.0393609   -3.1250154    1292.9916  0.081197663   0.08099517            3 
 1328000     1.030757   -3.1365507     1293.759  0.081184677  0.080985314            5 
 1329000    1.0387686   -3.0935237    1295.3853  0.081225564   0.08097557            5 
 1330000     1.049931   -3.1310726    1291.7763  0.080938364  0.080965998            2 
 1331000    1.0316937   -3.1297465    1300.0281  0.081394194  0.080955985            2 
 1332000    1.0464219   -3.1346143     1297.544  0.081177676  0.080946035            3 
 1333000     1.049919   -3.1392208    1296.3123  0.081039778  0.080936065            1 
 1334000     1.026067   -3.1518726    1293.5665  0.080807501  0.080925805            1 
 1335000    1.0285121   -3.1381264    1298.6253  0.081062755  0.080915396            4 
 1336000    1.0523878   -3.1521193     1296.951  0.080897644  0.080904399            2 
 1337000    1.0480774   -3.1185595    1296.2303  0.080792214  0.080893625            2 
 1338000    1.0478157   -3.1167331    1301.5411  0.081062597  0.080883626            2 
 1339000    1.0453095   -3.1078952     1301.825   0.08101973   0.08087297            2 
 1340000      1.05009   -3.1069727    1301.3513  0.080929808   0.08086297            2 
 1341000    1.0351893   -3.1376891    1299.6167  0.080761663  0.080852512            3 
 1342000    1.0094375   -3.1142051    1303.3296  0.080932039  0.080841616            2 
 1343000    1.0508399    -3.117708    1304.9037  0.080969455  0.080830809            2 
 1344000    1.0298857   -3.0964449    1301.7993  0.080716725  0.080820512            3 
 1345000    1.0501922   -3.1432427      1301.05  0.080610282  0.080809785            2 
 1346000    1.0420339   -3.1061498     1304.933  0.080790801  0.080798876            2 
 1347000    1.0396157   -3.1206198    1305.3828  0.080758648  0.080787949            1 
 1348000    1.0776163   -3.1268103    1301.7732  0.080475596  0.080777081            3 
 1349000    1.0290927   -3.1382234    1308.4443  0.080828039  0.080765975            2 
 1350000    1.0443653    -3.164563    1305.9658  0.080615175  0.080754547            2 
 1351000    1.0376903   -3.1560915    1313.7262  0.081034183  0.080743147            3 
 1352000    1.0283596   -3.1079332    1309.2837  0.080700425  0.080732138            1 
 1353000    1.0027473   -3.1239997    1308.0109  0.080562384  0.080721211            3 
 1354000    1.0724356   -3.1193543     1309.227  0.080577732  0.080710351            5 
 1355000    1.0257073   -3.1486689     1307.492  0.080411565  0.080699904            1 
 1356000    1.0210752   -3.1027589    1316.3741  0.080898116  0.080689116            6 
 1357000    1.0418465   -3.1134228    1310.9802  0.080507261   0.08067845            2 
 1358000    1.0384509   -3.1361671    1317.0319  0.080819335  0.080667797            5 
 1359000    1.0270288   -3.1485036    1308.4955  0.080236421  0.080657026            7 
 1360000    1.0378497   -3.1249144    1316.4693   0.08066601   0.08064623            3 
 1361000    1.0165716   -3.0872474    1319.8181  0.080811788  0.080635718            3 
 1362000    1.0349653   -3.1512269    1315.5242  0.080489734  0.080625289            2 
 1363000    1.0310034   -3.1137829    1321.6976  0.080808117   0.08061436            3 
 1364000    1.0309254   -3.1355536    1317.4607  0.080490025  0.080604088            1 
 1365000    1.0198053   -3.1373486    1321.4713  0.080675903   0.08059376            1 
 1366000    1.0332347   -3.1540411    1316.9513  0.080341099  0.080583843            3 
 1367000    1.0124842   -3.1491405     1321.341  0.080549928  0.080573673            2 
 1368000    1.0310751   -3.1338264    1318.9096  0.080342931  0.080563104            1 
 1369000    1.0243414   -3.1039945     1325.364  0.080677136  0.080552137            2 
 1370000    1.0205536   -3.1269348    1327.0936  0.080723452  0.080541549            2 
 1371000    1.0398362   -3.1385095    1324.9749  0.080535795  0.080530698            3 
 1372000    1.0201143   -3.1421197    1326.4433  0.080566281  0.080520439            2 
 1373000     1.044568   -3.1194111      1330.54  0.080756254  0.080510148            2 
 1374000    1.0278432   -3.1411794     1325.931  0.080417942  0.080499948            2 
 1375000    1.0300769    -3.140828    1327.1122  0.080431045  0.080489073            3 
 1376000    1.0393051   -3.1194717    1330.8685  0.080600076  0.080478386            2 
 1377000    1.0385587   -3.1274807    1333.5867  0.080706046  0.080467941            2 
 1378000     1.017762   -3.1070835    1334.5815  0.080707638  0.080457142            3 
 1379000    1.0363661   -3.1252775    1330.6325  0.080410475  0.080446174            2 
 1380000     1.015396   -3.1339707    1335.0002  0.080615953  0.080435326            4 
 1381000    1.0405706   -3.1467901    1330.6927  0.080297652  0.080424621            1 
 1382000    1.0304146   -3.1561926    1331.6882  0.080299578  0.080413465            2 
 1383000    1.0167575   -3.1553369    1326.7301  0.079942764  0.080401703            2 
 1384000    1.0325037   -3.1047501    1333.7101  0.080305283  0.080390065            2 
 1385000    1.0244118   -3.1415863     1330.813  0.080072987  0.080378832            1 
 1386000    1.0076466   -3.1195285    1332.3047  0.080104903  0.080367316            2 
 1387000    1.0253979    -3.125684    1335.1203   0.08021631  0.080355927            3 
 1388000    1.0231362   -3.1539882    1332.7683  0.080017311  0.080344045            3 
 1389000    1.0407617   -3.1537887    1334.2042  0.080045848  0.080332338            3 
 1390000    1.0096366   -3.1387139    1334.8816  0.080028874  0.080320448            3 
 1391000    1.0321855   -3.1545822    1329.8632   0.07967069  0.080308298            5 
 1392000    1.0418212   -3.1238998    1340.4562  0.080247617  0.080296363            2 
 1393000    1.0323713   -3.1295626    1338.4788  0.080071719  0.080284745            2 
 1394000    1.0328761   -3.1277402    1333.9355  0.079742679  0.080273077            1 
 1395000    1.0138182   -3.1264019    1344.2222  0.080300011  0.080261683            1 
 1396000    1.0347878    -3.145175    1336.3797   0.07977434  0.080249729            2 
 1397000    1.0275425   -3.1367755    1340.7158  0.079975891  0.080238098            1 
 1398000    1.0343582   -3.1097604     1340.509  0.079906354  0.080226422            3 
 1399000    1.0463785   -3.1158661    1341.6571  0.079917624  0.080214743            8 
 1400000    1.0307807   -3.1373072    1345.8023   0.08010728  0.080203189            3 
 1401000    1.0017176   -3.1450462    1339.8326  0.079695013  0.080191372            6 
 1402000    1.0462984   -3.1515971     1346.011  0.080005409  0.080179404            2 
 1403000    1.0303454     -3.13961    1345.1636  0.079898052  0.080167496           12 
 1404000    1.0274558   -3.1416949    1344.4031  0.079796006  0.080155478            1 
 1405000    1.0456282   -3.1615528    1348.0191  0.079953681  0.080143238            3 
 1406000    1.0273059   -3.1138428    1349.3819  0.079977592  0.080131373            2 
 1407000    1.0443459   -3.1730287    1340.0746  0.079369497  0.080119494            6 
 1408000    1.0354191    -3.124554    1349.1885  0.079852536  0.080107679            4 
 1409000    1.0216787   -3.1509776    1342.9199   0.07942512  0.080095662           14 
 1410000    1.0257752   -3.1616819    1351.6459  0.079884509  0.080083363            2 
 1411000    1.0182892   -3.1330843    1357.6449  0.080182196  0.080070902            1 
 1412000    1.0122042   -3.1482261    1347.4028  0.079520938    0.0800587            3 
 1413000    1.0166373   -3.1336996    1357.1091  0.080037101   0.08004672            3 
 1414000    1.0191533   -3.1411688    1356.1146  0.079921889  0.080034562            3 
 1415000    1.0176924   -3.1531823    1354.2426  0.079755159  0.080022303            2 
 1416000     1.018372   -3.1180094    1354.6414  0.079722302   0.08000947            3 
 1417000   0.99554166   -3.1447057    1354.1463  0.079636926   0.07999714            1 
 1418000    1.0286216   -3.1379896    1356.3677  0.079711315  0.079984776            2 
 1419000    1.0134092   -3.1661891    1360.9553  0.079924555  0.079972621            2 
 1420000    1.0282423   -3.1547618    1357.1716  0.079646219  0.079960844            2 
 1421000    1.0216721   -3.1301664    1364.3342  0.080010217  0.079949001            3 
 1422000    1.0204457   -3.1457247    1359.0072  0.079641773  0.079937267            2 
 1423000    1.0376146   -3.1457617    1358.4147  0.079551108  0.079925588            4 
 1424000    1.0048109   -3.1352452    1360.8704  0.079638949  0.079913697            1 
 1425000    1.0127074   -3.1348539    1363.3892  0.079730362  0.079902393            3 
 1426000    1.0352365   -3.1678054    1366.7353  0.079869992  0.079891014            5 
 1427000     1.020766   -3.1450249    1365.5411  0.079744281  0.079879397            1 
 1428000    1.0273054   -3.1638753    1367.2647  0.079789022  0.079867875            2 
 1429000    1.0191751   -3.1503279    1369.1354  0.079842279  0.079856158            5 
 1430000    1.0229526   -3.1523131    1363.5686   0.07946204  0.079844733            5 
 1431000    1.0068759   -3.1448182    1362.9145  0.079368422  0.079833342            3 
 1432000    1.0465568   -3.1327273    1366.6594  0.079530924  0.079821659            2 
 1433000     1.029005    -3.144817    1373.9853  0.079901447  0.079810098            2 
 1434000    1.0339367   -3.1478867    1372.3564   0.07975107  0.079798315            2 
 1435000    1.0317451   -3.1467025    1371.5008  0.079645806  0.079786435            4 
 1436000   0.99459453   -3.1532025     1366.842  0.079319984  0.079774499            1 
 1437000    1.0095639   -3.1905801    1373.7293  0.079664191   0.07976218            2 
 1438000    1.0158512   -3.1426398    1366.5599  0.079193321  0.079750055            2 
 1439000    1.0148595   -3.1467151    1374.5793  0.079602691  0.079738273            2 
 1440000    1.0109668   -3.1574981    1374.7181  0.079555447  0.079726657            5 
 1441000    1.0186452   -3.1820383    1371.1379  0.079293193  0.079714634            2 
 1442000    1.0230211   -3.1445136    1375.5248  0.079491722  0.079702472            3 
 1443000    1.0280873   -3.1676038    1373.8909  0.079342279  0.079690775            3 
 1444000    1.0203617   -3.1302862    1378.5064  0.079553691  0.079678795            2 
 1445000    1.0081993   -3.1497456    1379.2176  0.079539655  0.079667102            6 
 1446000   0.98771086   -3.1377507    1377.3328  0.079376027   0.07965542            2 
 1447000    1.0103667   -3.1701062    1375.7254  0.079228598  0.079643973            3 
 1448000    1.0018412   -3.1577302    1375.0385  0.079134354  0.079632689            2 
 1449000    1.0172317    -3.162499    1383.5201  0.079567523  0.079621037            1 
 1450000    1.0336362   -3.1502385    1379.6285  0.079288995  0.079609554            3 
 1451000    1.0234477   -3.1546967    1383.7779  0.079472658  0.079598403            2 
 1452000    1.0147831   -3.1609942    1386.0319  0.079547287  0.079587356            2 
 1453000    1.0014385   -3.1670875    1392.4639  0.079861431  0.079576621            2 
 1454000    1.0006025   -3.1362075    1390.6882  0.079704733  0.079566194            2 
 1455000    1.0344224   -3.1397838    1393.6519  0.079819695  0.079555964            3 
 1456000    1.0252421   -3.1378403    1388.7054  0.079481763  0.079545344            4 
 1457000    1.0386609   -3.1412782    1392.2145  0.079627918  0.079534605            1 
 1458000    1.0331213   -3.1626705     1390.121  0.079453649  0.079524049            3 
 1459000    1.0253653   -3.1701324    1388.8051  0.079324031  0.079513883            2 
 1460000    1.0163079   -3.1607926     1393.542  0.079540066  0.079502993            3 
 1461000    1.0372732   -3.1736707    1390.4806  0.079311007  0.079491442            2 
 1462000    1.0004527    -3.136532    1396.2374  0.079584897  0.079480669            2 
 1463000    1.0100893   -3.1366478    1392.3824  0.079310911  0.079469612            1 
 1464000    1.0276504   -3.1705137    1389.6251  0.079099792  0.079458648            2 
 1465000    1.0252989   -3.1372005    1394.4963  0.079322885  0.079447327            1 
 1466000    1.0162044    -3.131767    1397.5024  0.079439657    0.0794366            2 
 1467000     1.040062   -3.1609429    1395.5453  0.079274327  0.079425965            5 
 1468000   0.98780046   -3.1231401    1404.7262  0.079741497  0.079415178            3 
 1469000    1.0085096   -3.1346671    1398.1862  0.079316214  0.079404522            2 
 1470000     1.032052   -3.1684894    1397.7804  0.079239252  0.079393697            5 
 1471000    1.0329975   -3.1504749    1403.3573  0.079501318  0.079382609            1 
 1472000    1.0253891   -3.1443961    1409.3786  0.079788193  0.079371935            2 
 1473000    1.0263035   -3.1587571    1402.9509  0.079370385  0.079361009            2 
 1474000    1.0083257   -3.1486785    1401.4994  0.079234474  0.079350189            4 
 1475000    1.0060596   -3.1679404    1406.0293  0.079436682   0.07933931            2 
 1476000    1.0252573   -3.1631166    1407.3974  0.079460109  0.079328681            4 
 1477000    1.0121923    -3.173207    1403.8348  0.079205301  0.079317877            3 
 1478000    1.0033969   -3.1533781    1408.1529  0.079395179  0.079306964            5 
 1479000   0.99105712   -3.1404198    1409.2163  0.079401412  0.079296686            1 
 1480000    1.0257484   -3.1421853    1407.1444  0.079231104  0.079286525            5 
 1481000    1.0224284   -3.1308135    1406.1033  0.079119023  0.079276138            3 
 1482000    1.0074362   -3.1217726    1411.2105  0.079352819  0.079265423            1 
 1483000    1.0089692   -3.1661089    1409.3348  0.079193909  0.079254682            5 
 1484000     1.011344   -3.1680657    1404.3542  0.078860861  0.079243224            2 
 1485000    1.0171798   -3.1413467     1409.135  0.079076038  0.079232325            1 
 1486000    1.0349062   -3.1361737    1413.6618  0.079276683  0.079221585            2 
 1487000    1.0334229   -3.1514665    1411.4964  0.079102018  0.079210361            2 
 1488000    1.0246518   -3.1465212    1410.0463  0.078967644  0.079199094            7 
 1489000    1.0042621   -3.1692169    1408.7426  0.078841648  0.079187857            3 
 1490000    1.0278355   -3.1262941    1413.2776  0.079042369   0.07917674            2 
 1491000    1.0178619   -3.1333307     1418.912  0.079304269  0.079165531            1 
 1492000   0.98708845   -3.1815279    1416.4638  0.079114379  0.079154322            3 
 1493000    1.0026938   -3.1691761    1415.5036  0.079007792  0.079143067            1 
 1494000    1.0032124   -3.1417658    1417.5703  0.079070188  0.079132264            3 
 1495000    1.0007639   -3.1742512    1415.0842  0.078878715  0.079121544            5 
 1496000     1.013151   -3.1235585    1420.4468  0.079124713  0.079110856            1 
 1497000    1.0194125   -3.1647714    1425.6018  0.079358818  0.079099896            2 
 1498000    1.0080802   -3.1665069    1422.2237  0.079117919  0.079089132            3 
 1499000    1.0228343   -3.1669506    1424.7702  0.079206703    0.0790781            3 
 1500000    1.0094954   -3.1511613     1412.205  0.078455831  0.079067093            1 
 1501000    1.0166776    -3.141885     1422.684  0.078985341   0.07905608            1 
 1502000    1.0055188   -3.1701459    1427.2096  0.079183846  0.079044929            2 
 1503000     1.034138    -3.147516    1425.5869   0.07904119  0.079033842            5 
 1504000   0.99839824    -3.162366    1421.8219  0.078780027  0.079022652            5 
 1505000    1.0242894    -3.176825     1427.568  0.079045849  0.079011461            2 
 1506000   0.99765831   -3.1600394    1424.9169  0.078846663  0.078999735            1 
 1507000   0.99732035   -3.1708777    1420.3761  0.078543248  0.078988313            2 
 1508000    1.0158192   -3.1565471    1432.2805  0.079149014  0.078976385            4 
 1509000     1.013668    -3.179494    1425.8424  0.078741023   0.07896517            4 
 1510000    1.0235139    -3.169722    1428.5492  0.078838256  0.078954258            5 
 1511000   0.99669766   -3.1480064    1436.7898  0.079240555  0.078943221            2 
 1512000    1.0260197    -3.157455    1425.3245  0.078556244  0.078931828            3 
 1513000    1.0272296   -3.1780361    1422.1962  0.078332022  0.078920253            3 
 1514000    1.0186861   -3.1888651    1428.4672  0.078625453  0.078908751            3 
 1515000   0.99883357   -3.1522806    1431.7149  0.078752196  0.078896939            2 
 1516000    1.0192932   -3.1500313    1430.5459  0.078635987  0.078885271            4 
 1517000    1.0202974   -3.1517095    1428.2406  0.078457516  0.078873399            3 
 1518000   0.99059074   -3.1486414    1434.0887  0.078726873  0.078861589            4 
 1519000   0.98213725   -3.1772769    1437.1866  0.078844996   0.07884986            1 
 1520000    1.0180267   -3.1403237    1438.0509  0.078840508  0.078837979            3 
 1521000    1.0091505   -3.1887784    1429.5314  0.078321902  0.078826152            2 
 1522000    1.0146472   -3.1891387    1428.9395  0.078238034  0.078814733            2 
 1523000   0.99739125   -3.1614147    1442.3199  0.078918797  0.078802971            3 
 1524000   0.99541596   -3.1673582     1436.741  0.078561953   0.07879148            6 
 1525000   0.99806888   -3.1612351    1443.3537  0.078871789  0.078780149            2 
 1526000    1.0256806   -3.1708062    1439.7553  0.078623595  0.078768591            3 
 1527000    1.0108265   -3.1760888    1443.5836  0.078781033  0.078756991            3 
 1528000   0.98501117   -3.1705731    1442.2875  0.078658785  0.078745672            3 
 1529000    1.0049775   -3.1567611    1440.3033  0.078499199  0.078734317            2 
 1530000    1.0041381   -3.1742128    1444.9057  0.078698569  0.078723152            3 
 1531000   0.98447391   -3.1609645    1446.6775  0.078743602  0.078712208            2 
 1532000    1.0123971   -3.1680963    1447.5176  0.078737903  0.078701279            3 
 1533000    0.9882614   -3.1758284    1447.7743  0.078700495  0.078689853            2 
 1534000    1.0009365   -3.1962326    1437.5279  0.078092564  0.078678084            4 
 1535000    1.0024256   -3.1374333    1449.0693  0.078668255  0.078666308            3 
 1536000    1.0007768   -3.1748615    1445.9024  0.078445227  0.078654459            1 
 1537000    1.0089357   -3.1482741    1444.5889  0.078322972  0.078642417            3 
 1538000     1.001089   -3.1578653    1445.7795  0.078336558  0.078630578            2 
 1539000    1.0097598   -3.1705966    1447.9233  0.078401739  0.078618614            2 
 1540000    1.0005059    -3.169962    1451.1083  0.078523179  0.078606613            2 
 1541000    1.0134775   -3.2067627     1450.195  0.078422834  0.078594939            2 
 1542000    1.0136103   -3.1306493    1450.8848  0.078409253  0.078583374            5 
 1543000   0.99772192   -3.1196017    1452.5319  0.078447389  0.078571867            5 
 1544000   0.99587208   -3.1583028    1449.3951  0.078227285  0.078559944            3 
 1545000    1.0033148   -3.2026674    1453.2677  0.078385531     0.078548            3 
 1546000   0.99748451   -3.1798785    1456.9274  0.078532094  0.078536674            2 
 1547000    1.0124536   -3.1869475    1455.2006  0.078388312  0.078525153            1 
 1548000   0.99499291   -3.1768763    1454.6596  0.078308548  0.078513323            3 
 1549000     1.009907   -3.1918464    1457.6502  0.078418886  0.078501924            3 
 1550000    1.0045419   -3.1667342    1453.8794   0.07816556  0.078490338            1 
 1551000   0.99428283   -3.1536714    1452.6774  0.078050579  0.078478975            2 
 1552000    1.0107623   -3.1908877    1453.4896  0.078043903  0.078467115            5 
 1553000    0.9930062   -3.1607095    1461.1464  0.078404505  0.078455234            1 
 1554000    1.0427941   -3.1947964    1458.4934  0.078211785  0.078443727            1 
 1555000    1.0120484   -3.1683215    1464.3114  0.078473279  0.078432453            2 
 1556000   0.99837957   -3.1762527    1462.6499  0.078333864  0.078420974            4 
 1557000    0.9952029   -3.1684339    1466.2073  0.078473952  0.078409442            3 
 1558000    1.0019715   -3.1713396    1464.0017   0.07830561  0.078398183            2 
 1559000   0.99988011   -3.1823827    1462.1771  0.078157854  0.078386888            2 
 1560000   0.99538707   -3.1732427    1464.2983  0.078221061  0.078375548            6 
 1561000   0.99343888   -3.1858537     1465.168  0.078217384  0.078364151            4 
 1562000   0.98164985   -3.1691408    1469.7157  0.078409931  0.078353042            6 
 1563000    1.0150551   -3.1683254    1463.2477  0.078014912  0.078341918            1 
 1564000    1.0002462   -3.1486827    1472.0979  0.078436591  0.078330567            3 
 1565000    1.0149863   -3.1858034    1466.9236  0.078110945  0.078319599            3 
 1566000   0.99544549   -3.1632315    1472.5809  0.078362119   0.07830839            3 
 1567000    1.0139966   -3.1360925    1479.0231  0.078654706  0.078297431            2 
 1568000    1.0125152   -3.1748212    1469.1321  0.078078876  0.078286326            2 
 1569000    1.0109648    -3.175821    1474.7578  0.078327903  0.078274894            2 
 1570000    1.0024554    -3.145179    1475.9771  0.078342735  0.078264118            9 
 1571000   0.99723381   -3.1605068    1473.6718   0.07817058  0.078253176            2 
 1572000    1.0118093   -3.1552863    1475.0449  0.078193645  0.078242255            1 
 1573000     1.030968   -3.1928384    1476.4629  0.078219058  0.078230966            2 
 1574000   0.99814604   -3.1907108    1480.9287  0.078405795  0.078219688            2 
 1575000   0.98912468   -3.1959645    1468.9536  0.077722413  0.078208403            2 
 1576000   0.99928493   -3.1861638    1480.2995  0.078273026  0.078197465            2 
 1577000   0.99150407   -3.1449534     1475.838  0.077987636  0.078186001            1 
 1578000   0.99632496   -3.1736095    1478.3214  0.078069358  0.078174617            2 
 1579000    1.0199652   -3.1771438    1471.7635  0.077673818  0.078163555            3 
 1580000   0.99035548   -3.1964438    1478.5152  0.077980757   0.07815193            3 
 1581000    0.9946049   -3.1979002    1479.5926  0.077988225   0.07814055            1 
 1582000    1.0017254   -3.1870222    1475.8613   0.07774238  0.078129386            2 
 1583000   0.98294665   -3.1807008    1483.3294  0.078086405  0.078117749            3 
 1584000    0.9894187   -3.1628944    1485.6803  0.078160791   0.07810661            2 
 1585000    1.0097722   -3.1594478    1486.2932  0.078143701  0.078095205            2 
 1586000     1.010231   -3.1720918     1488.698  0.078220784  0.078084032            3 
 1587000   0.97510761   -3.2028896    1483.0074  0.077872687  0.078072849            2 
 1588000   0.98273401   -3.2118526    1483.2555  0.077836665  0.078061368            2 
 1589000   0.98036135   -3.1840039    1484.4542  0.077850543  0.078050183            2 
 1590000    1.0090943   -3.2023533    1489.3551  0.078058444  0.078038383            3 
 1591000   0.99208667   -3.1854875    1490.6581  0.078077628  0.078027024            1 
 1592000    1.0139506    -3.196095    1483.2854  0.077642663  0.078015328            2 
 1593000   0.98902456    -3.184579    1481.9513  0.077524132  0.078004333            3 
 1594000    1.0065731   -3.1846021    1489.2178  0.077855387  0.077992943            5 
 1595000   0.99936072   -3.2100016    1486.4004   0.07765937  0.077981511            2 
 1596000   0.98957729   -3.1829972    1488.1296  0.077701001  0.077970273            2 
 1597000    1.0018705   -3.1602315    1492.2415   0.07786691  0.077958832            1 
 1598000   0.98692152   -3.1850745    1488.5852  0.077627512  0.077947297            2 
 1599000   0.99318677   -3.2007036    1486.1557  0.077452348  0.077935641            2 
 1600000    1.0137979    -3.178839    1495.1358  0.077871655  0.077924296            4 
 1601000    1.0016872   -3.1686638     1496.205  0.077878668  0.077912974            2 
 1602000    1.0105145   -3.1549047    1493.7196   0.07770077  0.077901626            6 
 1603000    1.0091647   -3.1937007    1494.2585  0.077680315   0.07789021            3 
 1604000    1.0001607   -3.1878684    1495.0482  0.077672914   0.07787864            1 
 1605000   0.99804681   -3.1832824     1494.737  0.077608361   0.07786713            2 
 1606000    1.0153655   -3.1635496    1500.2426  0.077845715  0.077855441            2 
 1607000    1.0214554   -3.2082308    1496.2638  0.077590948  0.077843757            5 
 1608000   0.98182119   -3.2045157    1496.4278  0.077551194  0.077832515            2 
 1609000   0.99856959   -3.1795864    1507.1915  0.078060466  0.077821148            2 
 1610000   0.97869833   -3.1669554    1503.3876  0.077815093  0.077809934            2 
 1611000   0.98235304   -3.1978146    1499.7215  0.077577154  0.077798653            3 
 1612000   0.95968379   -3.1949348    1497.9059  0.077435169  0.077787214            2 
 1613000   0.97909582   -3.1614709    1505.5718  0.077783209  0.077775446            2 
 1614000   0.97847307   -3.1695659    1505.0701  0.077709111   0.07776407            4 
 1615000    1.0004301   -3.1833239    1503.6465  0.077587538  0.077752015            4 
 1616000   0.99793806   -3.1705914    1505.0236  0.077610541   0.07774084            1 
 1617000    1.0059195   -3.2200871    1504.1919  0.077519682  0.077729088            9 
 1618000    1.0014676   -3.2072741    1511.9156  0.077869573  0.077717631            5 
 1619000   0.98929304   -3.1427533    1511.8573  0.077818475  0.077706254            4 
 1620000   0.97683391   -3.1988876    1515.1581  0.077940232  0.077695092            3 
 1621000   0.98038095   -3.1761402    1502.6582  0.077249546   0.07768367            3 
 1622000   0.99236357   -3.1823426    1512.7096   0.07771833  0.077671946            2 
 1623000   0.99547743   -3.2017413    1509.8825  0.077525286  0.077660397            2 
 1624000   0.99493413   -3.1774613    1503.2266  0.077136012  0.077648664            3 
 1625000   0.98480385   -3.1767374    1511.8717  0.077531881  0.077637079            2 
 1626000   0.99454589   -3.2088193    1506.7649  0.077222473  0.077625573            3 
 1627000   0.99065689   -3.1996214    1516.3246  0.077664651  0.077613941            1 
 1628000   0.98568336   -3.1802127    1517.5779  0.077681097  0.077602631            3 
 1629000   0.98507165   -3.1717666    1517.0145  0.077604587  0.077591532            1 
 1630000    1.0053341   -3.1780126    1515.4589  0.077477447  0.077580726            2 
 1631000    1.0030315   -3.2128584    1514.0367  0.077357281  0.077569721            4 
 1632000    0.9864729   -3.2021228    1517.1022  0.077466411  0.077558405            2 
 1633000   0.97962313   -3.1852301      1514.25  0.077273424    0.0775472            3 
 1634000   0.98225063   -3.1750237    1524.4234  0.077744972  0.077535929            2 
 1635000   0.99708494   -3.1904515    1518.1696  0.077378676  0.077524729            3 
 1636000   0.98991271    -3.196943    1521.3527  0.077493516  0.077512864            2 
 1637000   0.97622875   -3.1796845    1519.8836   0.07737139  0.077501577            3 
 1638000   0.98217906   -3.1890597     1520.043  0.077332265  0.077490198            2 
 1639000   0.98068188   -3.2062331    1522.7143    0.0774209  0.077479007            2 
 1640000   0.98213412   -3.1787363    1528.0129  0.077642934  0.077467937            2 
 1641000     1.000326   -3.1796995    1523.8468  0.077384056  0.077456514            1 
 1642000   0.99560915   -3.1758753    1524.0423  0.077346851  0.077445284            2 
 1643000   0.97922837   -3.1672171    1526.4701  0.077422908  0.077433908            2 
 1644000    1.0028845   -3.2172222    1523.4717  0.077223827  0.077422743            2 
 1645000   0.97673758   -3.1816616    1529.4973  0.077482135  0.077411297            1 
 1646000   0.97790751   -3.1997656    1522.4978  0.077080689  0.077399995            2 
 1647000   0.99392567   -3.1947886    1530.0352   0.07741526  0.077388708            2 
 1648000   0.97417593   -3.1754057    1524.7329  0.077100168  0.077377467            3 
 1649000   0.99656897   -3.2093405    1525.9592  0.077115381   0.07736558            2 
 1650000   0.97025257   -3.1722951    1531.8207  0.077364682  0.077354166            3 
 1651000   0.99443692   -3.1939173    1522.3537  0.076839979  0.077342587            3 
 1652000    1.0036433   -3.1932494    1530.3127  0.077194952  0.077330838            2 
 1653000   0.99531273   -3.2231366    1520.2234  0.076639616  0.077318945            3 
 1654000    1.0037472   -3.2068599    1528.1951  0.076994917  0.077307344            3 
 1655000   0.98880686   -3.1886759    1531.7982  0.077129818  0.077295849            3 
 1656000     1.002339   -3.2315021     1532.871  0.077137226  0.077284102            2 
 1657000   0.98016052   -3.2071389    1530.6881  0.076980893  0.077272156            4 
 1658000   0.98812478   -3.1722612    1536.6666  0.077234953  0.077260946            2 
 1659000    1.0005373   -3.1794406    1531.4085  0.076924279  0.077249591            3 
 1660000   0.96754261   -3.2174187     1533.483   0.07698208  0.077237902            3 
 1661000   0.99450894   -3.1797965    1536.5529   0.07708975  0.077226416            2 
 1662000   0.97796876   -3.2070363    1536.5886  0.077045159  0.077215284            1 
 1663000   0.98657556   -3.2019367    1538.0857  0.077073847  0.077203322            4 
 1664000   0.99053366   -3.2005413    1542.6194  0.077254579  0.077191461            4 
 1665000   0.98714467    -3.166672    1538.5003  0.077002017  0.077179521            1 
 1666000    1.0036095   -3.1847728    1534.3746  0.076749429  0.077167556            1 
 1667000   0.98970743   -3.1784444    1536.9727  0.076833269  0.077155713            1 
 1668000   0.96642116   -3.2063115     1537.296  0.076803355  0.077143356            5 
 1669000   0.97741079   -3.2122323    1537.8869  0.076786842  0.077131275            3 
 1670000   0.98760411   -3.2024554    1535.7452   0.07663399  0.077118588            3 
 1671000    1.0184335     -3.21174    1537.9994  0.076700546  0.077106577            3 
 1672000   0.99507255   -3.1952117     1543.857   0.07694662  0.077094383            3 
 1673000    1.0213388   -3.2032902     1541.053  0.076760958  0.077082172            4 
 1674000   0.97530771   -3.2062155    1542.6375  0.076793982  0.077069887            4 
 1675000    0.9808895   -3.1822377    1541.7496   0.07670396  0.077057972            2 
 1676000   0.97940442   -3.1862191    1547.9981  0.076968877  0.077045769            2 
 1677000   0.99139938    -3.197982    1545.5223  0.076799957  0.077033711            3 
 1678000   0.98555185   -3.1995153    1548.4895  0.076901545  0.077021644            2 
 1679000   0.95045908   -3.1861241    1545.7948  0.076721996  0.077009383            3 
 1680000     0.995932   -3.1967858    1539.5386  0.076366002  0.076997129            2 
 1681000   0.99261829   -3.2135546    1544.5495  0.076568981   0.07698417            1 
 1682000    1.0045584   -3.1854061    1539.9049  0.076293344   0.07697164            1 
 1683000   0.97318993   -3.1958607    1550.3782  0.076766597  0.076958857            1 
 1684000    0.9609721   -3.2096446    1546.0107  0.076504884  0.076946584            3 
 1685000   0.97001279   -3.1912635      1550.72  0.076692382  0.076934121            1 
 1686000   0.98181934   -3.2281842    1542.5362  0.076242396  0.076921536            4 
 1687000    1.0217234    -3.216514    1552.1426  0.076671735  0.076909315            2 
 1688000   0.96288716   -3.2039606    1552.1504  0.076626696  0.076897045            1 
 1689000   0.98324444   -3.2017268    1549.1456  0.076433076  0.076884683            7 
 1690000   0.98518279    -3.214991    1553.6615  0.076610527  0.076872537            5 
 1691000   0.98530824   -3.1941599    1558.0065  0.076779345  0.076860947            1 
 1692000    0.9772201   -3.1730338    1558.3369  0.076750241  0.076849368            3 
 1693000   0.97229138   -3.2119344    1559.7993  0.076776892  0.076837491            2 
 1694000   0.98069126   -3.2163656    1559.9993  0.076741408  0.076826014            1 
 1695000    0.9713645    -3.174131    1569.6604   0.07717111  0.076814817            2 
 1696000   0.96675458   -3.2073362    1562.0212  0.076750257  0.076803621            2 
 1697000   0.98769792   -3.2101596    1564.1888   0.07681147  0.076792056            2 
 1698000   0.99212007   -3.2035645    1565.0848  0.076810206  0.076780907            2 
 1699000    1.0015862   -3.2111857     1559.943  0.076512803  0.076769573            5 
 1700000   0.96464276   -3.2193358    1557.8722  0.076366283  0.076757814            1 
 1701000   0.97855094   -3.2069225    1562.3411  0.076540322  0.076746664            2 
 1702000   0.97554652   -3.1848838    1563.0611  0.076530605  0.076734779            2 
 1703000   0.97607529   -3.1893869    1561.0397  0.076386756  0.076723174            5 
 1704000   0.98451704   -3.1876788    1566.1727   0.07659295  0.076711495            2 
 1705000   0.96597443   -3.2225257    1560.5558  0.076273498  0.076699967            3 
 1706000   0.98421605   -3.2014918    1565.0702  0.076449308  0.076687787            2 
 1707000   0.96028023   -3.2029932    1568.8024  0.076586719  0.076675958            3 
 1708000   0.99098812   -3.2185864    1564.1766  0.076316191  0.076664217            2 
 1709000   0.99277924   -3.1664739     1573.573  0.076729713  0.076652434            2 
 1710000   0.95606535   -3.2047369    1568.9431  0.076459215  0.076640879            1 
 1711000   0.98245339   -3.2032412    1572.4262   0.07658417   0.07662937            6 
 1712000   0.94975528   -3.2095278    1572.8133  0.076558278  0.076618084            5 
 1713000   0.98045264   -3.2153428    1565.9149  0.076177995  0.076606092            2 
 1714000    0.9394756   -3.1813814    1574.7907  0.076565087  0.076594132            3 
 1715000   0.99834067   -3.2180741    1573.4151    0.0764536  0.076582382            3 
 1716000   0.97400922   -3.2157562     1569.026  0.076195904  0.076570408            2 
 1717000    1.0029409   -3.1719957    1574.0373  0.076394743  0.076558561            2 
 1718000   0.97436922   -3.2113762    1573.3956   0.07631915  0.076546625            2 
 1719000   0.96294405   -3.2067754    1569.7461  0.076097832  0.076534449            2 
 1720000   0.97293548   -3.2009903    1580.4164  0.076570564   0.07652226            3 
 1721000   0.97701811   -3.2094569    1577.7968  0.076399225  0.076510482            2 
 1722000   0.99543532    -3.215213    1571.7899  0.076064165  0.076498879            3 
 1723000   0.98039389   -3.1950401     1578.064  0.076323466  0.076486948            4 
 1724000   0.97012542    -3.211402    1575.6407  0.076162062  0.076474718            3 
 1725000   0.97303877   -3.1926072    1572.0219  0.075943089  0.076462847            2 
 1726000   0.99141723   -3.1966676    1578.9116  0.076231729  0.076451013            1 
 1727000   0.95623191   -3.2083777    1578.1056  0.076148699  0.076439261            2 
 1728000   0.97144438   -3.2187015    1577.9463  0.076096947  0.076427189            3 
 1729000   0.97894072   -3.1953022    1583.4503  0.076318215  0.076415051            6 
 1730000   0.98265076     -3.22281    1580.6934    0.0761413  0.076403305            2 
 1731000   0.97654403   -3.1731697    1585.5693  0.076332049  0.076391703            1 
 1732000   0.97945729   -3.2015517    1582.3064  0.076130987   0.07637972            3 
 1733000   0.97045146   -3.2427789    1574.4952  0.075711443  0.076367401            2 
 1734000    0.9704625   -3.2011904    1588.6734  0.076349164  0.076355276            2 
 1735000    0.9749681   -3.2223393    1584.8063   0.07611942  0.076343456            3 
 1736000   0.98682224   -3.2117209    1584.4872  0.076060252    0.0763314            2 
 1737000   0.95885488   -3.2259717     1585.879  0.076083237  0.076319532            5 
 1738000   0.95483654   -3.2180046    1583.3645  0.075918898  0.076307572            3 
 1739000   0.96209647    -3.220617    1589.7561  0.076181526  0.076295429            4 
 1740000   0.97872057   -3.2222828    1587.7814  0.076043169  0.076283466            2 
 1741000   0.96425461   -3.2196538    1587.1375  0.075968673  0.076271372            1 
 1742000   0.96765552   -3.2164448    1589.0831  0.076018134  0.076259374            1 
 1743000   0.98581933   -3.1661923    1595.8753  0.076299259  0.076247728            2 
 1744000    0.9728249    -3.231988    1587.8547   0.07587226  0.076235994            2 
 1745000   0.99197193   -3.2184501    1592.9199  0.076070675  0.076223973            2 
 1746000    0.9691627   -3.2103875    1587.8344  0.075784383  0.076212187            2 
 1747000    0.9683279   -3.2366276    1594.2822  0.076048569  0.076200299            2 
 1748000    0.9777005   -3.2356605     1594.018  0.075992466   0.07618835            6 
 1749000   0.97195527   -3.2258102    1597.1459   0.07609805  0.076176439            3 
 1750000   0.95690269   -3.2043106    1599.0239  0.076143996  0.076164709            2 
 1751000   0.98669305   -3.2234476    1598.4492  0.076073159  0.076152852            2 
 1752000   0.97398866   -3.2115873    1588.1664  0.075540641  0.076141126            3 
 1753000   0.96470143   -3.2104758    1597.2333  0.075928567  0.076129032            4 
 1754000   0.92677458   -3.2178403    1599.6887  0.076001936  0.076117011            2 
 1755000   0.94914852   -3.2366387    1595.1957  0.075745285  0.076105038            4 
 1756000   0.98614694    -3.219423    1600.1838  0.075938865  0.076092705            2 
 1757000   0.98725466   -3.1829961    1600.7894  0.075924369  0.076080944            2 
 1758000   0.97696151   -3.1819339    1603.8814  0.076027751  0.076069094            2 
 1759000   0.94993996   -3.2072347    1603.8084  0.075981069  0.076057188            3 
 1760000   0.97463892   -3.2016598     1603.803  0.075937641  0.076045178            3 
 1761000   0.99042477   -3.2172754    1609.2096  0.076150369  0.076033662            3 
 1762000   0.97605119   -3.2558428    1605.3604  0.075925104  0.076021755            2 
 1763000   0.94938248   -3.2006903    1606.9516  0.075957251  0.076010152            1 
 1764000   0.95222556   -3.2257924    1603.6197  0.075756789   0.07599863            2 
 1765000   0.95734772    -3.194124    1605.7914  0.075816403   0.07598659            2 
 1766000   0.96932554   -3.2232568    1606.3193  0.075798381  0.075974845            2 
 1767000   0.95005512   -3.2249323    1603.6183  0.075628105  0.075963309            2 
 1768000   0.95880197   -3.2214848    1603.1656  0.075563987  0.075951623            5 
 1769000   0.97894915   -3.1687499    1606.9159   0.07569794  0.075940058            3 
 1770000    0.9639573   -3.2024068    1606.2298  0.075622873  0.075928467            2 
 1771000   0.95576629   -3.2281709    1609.6869  0.075742844  0.075916471            3 
 1772000   0.99092191   -3.2096312    1610.1486  0.075721812  0.075904155            4 
 1773000   0.98625063   -3.2088542    1609.3403  0.075641111  0.075892112            3 
 1774000   0.97758908   -3.2249215    1609.4184  0.075602144  0.075880509            3 
 1775000   0.96888972    -3.251132    1607.8515  0.075485985  0.075868385            3 
 1776000   0.96735379   -3.2154082    1614.6954  0.075764612  0.075856348            2 
 1777000   0.95504378   -3.2030663    1615.5813  0.075763519  0.075844077            1 
 1778000   0.95188786   -3.2222207    1610.3356  0.075475046  0.075831993            1 
 1779000   0.95610276   -3.2573494    1614.6896  0.075636575  0.075819933            4 
 1780000   0.98580243   -3.2133299    1613.1572   0.07552234  0.075807881            3 
 1781000   0.98866208   -3.2067901    1616.5441  0.075638411  0.075796078            3 
 1782000   0.93744495   -3.2201738    1615.9547  0.075568404   0.07578403            3 
 1783000   0.97539615   -3.2414573    1613.3415  0.075403885  0.075771985            1 
 1784000   0.96800931   -3.2280648    1613.9976  0.075392263  0.075760123            3 
 1785000   0.96136014   -3.2029003    1618.7637  0.075572535  0.075747956            4 
 1786000   0.97525283   -3.1902168    1616.1377  0.075407692  0.075735842            2 
 1787000   0.96482227   -3.2327349    1619.4178  0.075518456  0.075724033            3 
 1788000   0.96919001   -3.2283221    1623.3122  0.075657729  0.075711716            5 
 1789000   0.97554592    -3.228585      1623.66  0.075631639  0.075699879            2 
 1790000   0.94237592   -3.2209572    1626.0944   0.07570272  0.075687891            2 
 1791000   0.97102439   -3.2289182    1623.6228   0.07554545  0.075675835            2 
 1792000   0.96936424   -3.2180448    1622.2887  0.075441252  0.075664157            6 
 1793000    0.9852575   -3.2010995    1626.2671  0.075584084  0.075652768            2 
 1794000   0.96941988   -3.2224616    1626.2232  0.075539909   0.07564113            2 
 1795000   0.98199605   -3.2056221    1621.0557  0.075257926  0.075629441            1 
 1796000   0.97270156   -3.2444238    1622.6842  0.075291585  0.075617415            8 
 1797000   0.96187456   -3.2519374    1621.5235  0.075195857  0.075605858            4 
 1798000   0.97568709   -3.2196177    1624.9389  0.075312331  0.075594188            3 
 1799000   0.95327158   -3.2150313      1629.28  0.075471557  0.075582703            4 
 1800000   0.96337487   -3.2121825     1631.094   0.07551361  0.075571162            4 
 1801000   0.97369807   -3.1980775    1636.7124   0.07573165  0.075559945            2 
 1802000   0.97895859   -3.2211879    1632.1884  0.075480412  0.075548838            3 
 1803000   0.95034959   -3.2364149    1626.7632  0.075187797  0.075537257            2 
 1804000   0.96549845   -3.2244043    1634.5294  0.075504867  0.075525761            2 
 1805000   0.93581327   -3.2079327    1635.6825  0.075516272  0.075514595            1 
 1806000   0.93827947   -3.2072015    1635.8351    0.0754815  0.075503156            2 
 1807000   0.99489028   -3.2319122    1636.5334  0.075471932  0.075491729            2 
 1808000   0.95504621   -3.2382262    1634.5301  0.075337857  0.075480185            3 
 1809000   0.96554491   -3.2134022    1639.7224  0.075535398  0.075468594            2 
 1810000   0.96563326   -3.2457404     1628.903  0.074995533  0.075456818            2 
 1811000   0.95437222   -3.2064946    1639.9436  0.075462157  0.075445167            2 
 1812000   0.96391489   -3.2215545    1636.1245  0.075244871  0.075433801            5 
 1813000      0.95694   -3.2080743    1645.6844  0.075642784  0.075422634            6 
 1814000   0.98223372   -3.2465883    1637.1498  0.075209014  0.075411191            1 
 1815000   0.96498308    -3.231232    1649.7731  0.075747157  0.075399988            2 
 1816000   0.98072482   -3.2223037    1647.8586  0.075617594   0.07538904            3 
 1817000   0.97624414   -3.2294806    1643.2823  0.075366093  0.075378198            4 
 1818000   0.97400808   -3.2384922    1643.6132  0.075339804  0.075366833            2 
 1819000   0.94995807   -3.2347974    1645.8834   0.07540239   0.07535563            1 
 1820000    0.9642142   -3.2419225    1644.0053  0.075274968  0.075344428            2 
 1821000   0.98068461   -3.2247246    1642.6719  0.075172613  0.075333252            2 
 1822000   0.95851933   -3.2159953    1650.3878  0.075484255  0.075321792            2 
 1823000   0.96485821   -3.2336203    1641.7871  0.075049696  0.075310459            3 
 1824000    0.9368375   -3.2279753    1650.2454  0.075394985  0.075299012            2 
 1825000   0.95097611   -3.2377139    1649.4697  0.075318249  0.075287635            2 
 1826000   0.94516197   -3.2523586    1648.1958  0.075218867  0.075276212            2 
 1827000    0.9469246   -3.2339624    1651.1666  0.075313199  0.075264878            4 
 1828000   0.97592739   -3.2196933    1648.9604  0.075171424  0.075253463            1 
 1829000   0.95100813   -3.2356009     1647.467  0.075062282  0.075242275            2 
 1830000   0.95580887   -3.2523186     1649.371  0.075107971  0.075231115            2 
 1831000   0.97372886    -3.242767    1645.3618  0.074884479  0.075220028            2 
 1832000    0.9515655   -3.2401398    1650.2777  0.075067219   0.07520902            5 
 1833000   0.95002178   -3.2213819    1656.4481  0.075306787  0.075197653            4 
 1834000   0.98290819   -3.2303187     1657.356  0.075306977  0.075186318            4 
 1835000   0.98646782   -3.2515658    1647.2077  0.074805074  0.075175025            8 
 1836000   0.94807619   -3.2327445    1654.6791  0.075103446  0.075163553            3 
 1837000    0.9691585    -3.209161    1654.7819  0.075067223  0.075152035            4 
 1838000   0.96262279   -3.2286479    1659.8443  0.075255907  0.075140791            3 
 1839000   0.95853031   -3.2241749    1660.9648   0.07526576  0.075129509            4 
 1840000    0.9583119   -3.2025113    1663.8905  0.075357361  0.075118271            4 
 1841000    0.9531749   -3.2433854    1652.0102  0.074778663  0.075107081            3 
 1842000   0.92762737    -3.239146    1660.1959  0.075108392  0.075095343            3 
 1843000   0.97290758   -3.2700145    1653.4231  0.074761398  0.075083531            5 
 1844000   0.96004788   -3.2167838    1665.6908  0.075275255  0.075072021            1 
 1845000   0.97172946   -3.2414969    1658.0085  0.074887468  0.075060653            3 
 1846000   0.95649245   -3.2606581    1659.3472   0.07490733  0.075049022            3 
 1847000   0.97584372   -3.2335507    1659.9889  0.074895729  0.075037337            3 
 1848000   0.95323799   -3.2110999    1672.9981  0.075441832  0.075025672            1 
 1849000   0.96716373   -3.2295606    1661.9885  0.074904838  0.075014113            5 
 1850000   0.96672539   -3.2491251    1660.5764  0.074800739  0.075002514            2 
 1851000   0.96167813   -3.2367182    1666.3208  0.075018943  0.074990902            5 
 1852000   0.93760612   -3.2404045    1662.2071  0.074793336  0.074979455            2 
 1853000   0.95443721   -3.2545792    1662.4601  0.074764349  0.074967732            3 
 1854000    1.0007063   -3.2446146    1665.5312  0.074862064  0.074956165            2 
 1855000   0.94917483   -3.2494397    1664.6374  0.074781552  0.074944472            6 
 1856000   0.95988632   -3.2472447    1661.1814   0.07458609  0.074932559            3 
 1857000   0.94977309   -3.2624109    1667.5994  0.074833933  0.074920538            2 
 1858000   0.93845672   -3.2672093    1665.5017  0.074699575   0.07490888            2 
 1859000   0.98078235   -3.2437002    1668.1397  0.074777645  0.074896951            3 
 1860000   0.96117833   -3.2154667    1673.5032  0.074977743  0.074885113            2 
 1861000   0.94831971   -3.2242204    1671.1511  0.074832131  0.074873264            4 
 1862000    0.9406169   -3.2289664    1670.1244   0.07474599  0.074861347            5 
 1863000   0.94204596   -3.2334703    1666.6297   0.07454955  0.074849465            5 
 1864000   0.96223305   -3.2176661    1664.5712  0.074417525  0.074837794            3 
 1865000   0.95871319    -3.243207    1673.2615  0.074765929  0.074825955            2 
 1866000   0.96621934     -3.19857    1674.6253  0.074786769  0.074814384            2 
 1867000   0.94187486   -3.2216254    1674.3297  0.074733517  0.074802739            3 
 1868000   0.94981128   -3.2480783     1668.642  0.074439776  0.074790784            2 
 1869000   0.97637767   -3.2330422    1670.6646  0.074490127  0.074778928            4 
 1870000   0.94388003   -3.2434995    1670.5062  0.074443237  0.074767347            3 
 1871000   0.93545323   -3.2411334    1674.2751  0.074571314  0.074755563            1 
 1872000   0.95356722   -3.2307837    1680.3746  0.074802998  0.074743872            3 
 1873000    0.9576974   -3.2418765    1673.8997  0.074474982   0.07473197            4 
 1874000    0.9436415   -3.2265098    1679.6972  0.074693045  0.074720376            2 
 1875000   0.94277195   -3.2364673    1676.9026  0.074529003  0.074708345            2 
 1876000   0.94007091   -3.2661351    1683.6202  0.074787679   0.07469683            5 
 1877000   0.96649975   -3.1992926    1678.3022   0.07451173  0.074685174            5 
 1878000   0.96732203    -3.278907    1679.5799  0.074528747  0.074673419            3 
 1879000   0.94192741   -3.2614773    1677.3746  0.074391281  0.074661703            4 
 1880000   0.94099922   -3.2356134     1673.878  0.074196721  0.074649896            4 
 1881000   0.95371806   -3.2490208    1679.7173  0.074415971   0.07463803            2 
 1882000   0.94319592   -3.2269116    1682.2613  0.074489078  0.074626372            3 
 1883000   0.95794812   -3.2535927    1684.3406  0.074541539  0.074614806            3 
 1884000    0.9546989   -3.2324854    1686.8496  0.074612952  0.074603125            1 
 1885000   0.93546577   -3.2592808    1679.8639   0.07426454  0.074591475            1 
 1886000   0.96553222   -3.2402213     1685.986  0.074495668  0.074579994            4 
 1887000   0.95213131     -3.22703    1690.9822  0.074676832  0.074568544            1 
 1888000   0.97173376   -3.2345599    1690.8928  0.074633334  0.074556915            2 
 1889000   0.93237249   -3.2557277      1684.42  0.074308277  0.074545099            2 
 1890000   0.95888034   -3.2693286    1680.4847  0.074095444  0.074533271            2 
 1891000   0.94510173   -3.2262048    1693.5013  0.074629883  0.074521723            6 
 1892000   0.95707054   -3.2379571    1688.6158  0.074375255  0.074510044            3 
 1893000   0.92106093   -3.2305762    1686.2289  0.074230889   0.07449838            3 
 1894000   0.92947376   -3.2683591    1684.9247  0.074134317  0.074486727            5 
 1895000    0.9555285     -3.23178    1691.6559    0.0743912   0.07447483            1 
 1896000   0.93602128   -3.2605493    1687.7959  0.074182309  0.074462899            3 
 1897000   0.95587309    -3.220296    1692.4187  0.074346278  0.074450795            2 
 1898000   0.96381297   -3.2362365    1693.7762  0.074366709  0.074439096            5 
 1899000   0.94441688    -3.246432    1693.6137   0.07432042  0.074426858            2 
 1900000   0.96857156   -3.2550662    1692.1581  0.074217461  0.074414541            2 
 1901000    0.9579224   -3.2592821    1697.1603  0.074397696  0.074402638            5 
 1902000   0.95515941   -3.2546461    1692.3513  0.074147884   0.07439076            3 
 1903000   0.96236206   -3.2373491    1690.4043  0.074023659  0.074378599            2 
 1904000   0.95085044   -3.2348716    1695.4584  0.074205988  0.074366516            2 
 1905000   0.94438068   -3.2669857    1696.3116  0.074204355  0.074354443            2 
 1906000   0.95536402    -3.254191    1687.2636  0.073769831  0.074342309            2 
 1907000    0.9471111   -3.2326718    1698.5289  0.074223425  0.074330199            4 
 1908000   0.94405204   -3.2576734    1696.2236  0.074083842  0.074318329            2 
 1909000   0.96062447   -3.2409185    1693.3649  0.073920242  0.074306093            5 
 1910000   0.93933535   -3.2772275    1694.7423  0.073941637  0.074294166            4 
 1911000   0.95286438   -3.2516688    1699.8273  0.074124688  0.074282192            2 
 1912000   0.93494868   -3.2374112     1703.138  0.074230211  0.074270463            5 
 1913000    0.9364511   -3.2350996    1706.2248  0.074325876  0.074258826            4 
 1914000   0.91355642   -3.2866674    1700.6831  0.074045764  0.074247204            3 
 1915000   0.93353211   -3.2834929    1698.0448  0.073892288  0.074235292            2 
 1916000   0.95541131   -3.2751406    1695.6043  0.073747578  0.074223489            2 
 1917000     0.940958   -3.2458894    1704.0311  0.074075424  0.074211543            3 
 1918000   0.92379481   -3.2796257    1701.5962  0.073931011   0.07419983            5 
 1919000   0.91713433   -3.2660351    1707.6697  0.074156231  0.074188086            4 
 1920000   0.93885083   -3.2433437     1702.015   0.07387218  0.074176321            3 
 1921000   0.92870935   -3.2497945    1704.6253  0.073946959  0.074164425            3 
 1922000   0.93504884   -3.2414522    1707.0177  0.074012215  0.074152556            3 
 1923000   0.92575569   -3.2452467    1712.9652  0.074231462  0.074140933            4 
 1924000    0.9416817   -3.2483371    1706.5634  0.073915602  0.074128922            1 
 1925000   0.95265567   -3.2539529     1709.322  0.073996624  0.074116802            2 
 1926000   0.94854982   -3.2629075     1705.337  0.073785783  0.074104711            2 
 1927000   0.94106823   -3.2272939    1708.6693  0.073891599   0.07409245            4 
 1928000   0.94503393   -3.2605157    1708.5074  0.073846275  0.074080048            2 
 1929000   0.95893063   -3.2461922    1708.4611  0.073805991  0.074067919            2 
 1930000   0.94076673   -3.2606662     1705.451  0.073637782  0.074056085            4 
 1931000   0.94403583   -3.2603362    1712.3903  0.073899114  0.074043948            3 
 1932000   0.94485673   -3.2640873     1707.186  0.073636385  0.074032071            4 
 1933000   0.94169504    -3.253143    1711.0176  0.073763476  0.074019867            4 
 1934000   0.93725977   -3.2328489    1714.9061  0.073892884   0.07400791            7 
 1935000   0.95079994   -3.2387962    1711.1377  0.073692407  0.073995889            6 
 1936000   0.93052525   -3.2556397      1711.73  0.073679839  0.073983849            2 
 1937000   0.94373708   -3.2848599    1714.3895  0.073756218   0.07397182            3 
 1938000   0.92313369    -3.232257    1714.7134  0.073732086  0.073960016            5 
 1939000   0.95007748   -3.2695496    1714.2685   0.07367494  0.073947904            3 
 1940000   0.93860985    -3.224868    1723.5105  0.074033957  0.073935738            1 
 1941000   0.93766988   -3.2742429    1716.4302  0.073691835    0.0739238            2 
 1942000   0.93395224   -3.2397208    1714.6673  0.073578238  0.073911378            2 
 1943000   0.96639886   -3.2628385    1711.7143   0.07341372  0.073899115            7 
 1944000   0.93661506   -3.2557178    1716.7639  0.073592416  0.073886873            1 
 1945000   0.94262886   -3.2470866    1715.4462  0.073498125  0.073874623            2 
 1946000   0.95367777   -3.2726338    1708.6812  0.073170657  0.073862089            2 
 1947000   0.94175705   -3.2402689    1716.8049   0.07348078  0.073849681            1 
 1948000   0.94983796   -3.2849043     1713.272  0.073291923  0.073837126            1 
 1949000      0.93597    -3.252825    1717.7116  0.073444142  0.073824552            3 
 1950000   0.95645227   -3.2427727     1721.054  0.073549317  0.073812288            2 
 1951000   0.94209762   -3.2661197    1721.0725   0.07351241  0.073799992            2 
 1952000   0.94052385   -3.2644931     1721.074  0.073474813  0.073787432            2 
 1953000   0.93913955   -3.2744609    1720.8912   0.07342939  0.073775033            3 
 1954000   0.95232619   -3.2800543    1722.0329  0.073440502  0.073762527            3 
 1955000   0.94759954   -3.2630415    1720.7546  0.073348448  0.073750034            3 
 1956000   0.94401394   -3.2423094    1720.5857  0.073303752  0.073737417            2 
 1957000   0.91460265   -3.2627698    1719.8997  0.073237085  0.073724829            2 
 1958000   0.94998818   -3.2524221    1717.7365  0.073107615  0.073711988            4 
 1959000   0.92881234   -3.2814742     1720.302  0.073179428  0.073698976            5 
 1960000   0.92949838   -3.2747968    1717.6729  0.073030311  0.073686075            8 
 1961000   0.94576385    -3.263247    1725.3603  0.073319747  0.073673585            3 
 1962000   0.93296747   -3.2467345    1728.1136  0.073399322  0.073661161            3 
 1963000   0.92826158   -3.2679327    1718.2741  0.072944223  0.073648667            3 
 1964000   0.94033362   -3.2925848    1719.8385  0.072973461  0.073636323            4 
 1965000    0.9375718   -3.2683392    1729.2012  0.073333383  0.073623725            3 
 1966000    0.9230984   -3.2637373    1728.4034  0.073262266  0.073611353            3 
 1967000   0.92431198   -3.2282212    1727.1399  0.073171492  0.073598894            3 
 1968000   0.92828103     -3.24777    1733.5206  0.073404496  0.073586622            2 
 1969000   0.95558841   -3.2739283    1729.9013  0.073214039  0.073574174            2 
 1970000   0.92716617   -3.2570865    1733.0156  0.073308612  0.073561618            3 
 1971000   0.94289665   -3.2393407    1739.3997  0.073541337  0.073549051            3 
 1972000   0.95021813   -3.2350758    1737.4824  0.073423024  0.073536845            4 
 1973000   0.95312818   -3.2382657    1733.7558  0.073228408   0.07352488            1 
 1974000   0.93759551   -3.2725531     1725.698  0.072851148  0.073512285            2 
 1975000   0.94235962     -3.24676    1733.1633  0.073129253  0.073499645            2 
 1976000   0.92752371   -3.2768434    1728.0303   0.07287577  0.073486898            5 
 1977000   0.92693424    -3.262008    1728.9077  0.072875892  0.073473968            2 
 1978000   0.93220062   -3.2847773    1734.1005  0.073057825  0.073461034            3 
 1979000   0.94060591   -3.2564764    1734.2783  0.073028395  0.073448028            4 
 1980000   0.94052602   -3.2656937    1735.4502  0.073040833  0.073435076            2 
 1981000   0.93828383    -3.264723    1734.7472  0.072974389  0.073422248            7 
 1982000   0.94377003   -3.2961317     1726.489  0.072590355  0.073409597            4 
 1983000   0.94078207   -3.2728809    1730.1597  0.072708006  0.073396557            4 
 1984000    0.9500466   -3.2881325    1730.5865  0.072689284  0.073383484            2 
 1985000   0.92612685   -3.2690306    1744.4621  0.073235184    0.0733705            3 
 1986000   0.93880157   -3.2801769    1734.3439  0.072773744  0.073357529            3 
 1987000   0.94213487    -3.256192    1739.8359   0.07296745  0.073344577            2 
 1988000   0.93989321   -3.2436051    1745.6888  0.073176091  0.073331761            6 
 1989000   0.93048922   -3.2460025    1741.3528  0.072957632   0.07331885            4 
 1990000   0.94951755   -3.2648001    1733.9522  0.072611065   0.07330595            2 
 1991000   0.91736289   -3.2461887    1732.6505  0.072520113  0.073293032            3 
 1992000   0.91778792   -3.2499275    1739.9343  0.072788418  0.073280239            5 
 1993000   0.91537782   -3.2740979    1737.3908  0.072645543  0.073267332            1 
 1994000   0.92040134   -3.2701433    1737.7706  0.072624984  0.073254543            3 
 1995000   0.93066363   -3.2915178    1737.3423  0.072570691  0.073241966            3 
 1996000   0.93513596    -3.293261    1744.4118  0.072829485  0.073229453            2 
 1997000   0.93668663   -3.2726704    1743.4885  0.072754485  0.073216718            3 
 1998000   0.93562073   -3.2649352     1750.667  0.073017475  0.073203998            4 
 1999000   0.93812632   -3.2818143    1743.0697  0.072664234  0.073191394            2 
 2000000   0.91822316     -3.27654    1744.7464  0.072697768  0.073178544            4 
 2001000   0.95104532    -3.281434    1745.1802  0.072679501  0.073165876            3 
 2002000   0.90744204   -3.2723073    1744.8419  0.072629116  0.073153073            4 
 2003000   0.92125703   -3.2701892    1746.4404  0.072659362  0.073140374            2 
 2004000   0.90462162   -3.2917175    1743.7708  0.072512093  0.073127465            1 
 2005000   0.91502941   -3.2845376    1747.0493  0.072612189  0.073114462            5 
 2006000   0.94521579   -3.2670942     1752.276  0.072793119  0.073101532            3 
 2007000    0.9340965   -3.2928011    1747.1901  0.072545679  0.073088624            3 
 2008000   0.91724655   -3.2840762    1750.6941  0.072654968   0.07307589            7 
 2009000   0.91768089   -3.2781158    1749.5179  0.072570014  0.073063348            3 
 2010000   0.92107462   -3.2772622    1749.7238  0.072542445  0.073050773            4 
 2011000   0.93175803   -3.2805123    1753.2646  0.072653098   0.07303832            4 
 2012000   0.93030435   -3.2787806    1758.7712  0.072845063  0.073025966            3 
 2013000   0.93113218    -3.251668     1761.594  0.072925732  0.073013632            3 
 2014000    0.9270491   -3.2706781    1760.6912  0.072852167  0.073001383            2 
 2015000   0.92376967   -3.2768346    1758.4956  0.072725212  0.072988899            4 
 2016000   0.94005854   -3.2726937    1758.3261  0.072682131  0.072976591            4 
 2017000    0.9073362    -3.294183    1760.1242  0.072720385  0.072964322            4 
 2018000   0.93185629   -3.2650341    1761.4101   0.07273745  0.072951917            2 
 2019000   0.91876023   -3.2512568    1760.3974  0.072659624  0.072939586            3 
 2020000   0.92537567   -3.2801874    1756.4366  0.072460258  0.072927028            7 
 2021000   0.91842761   -3.2564093    1764.3607  0.072751143   0.07291468            1 
 2022000   0.93700203   -3.2727471     1757.671  0.072439457  0.072902309            2 
 2023000     0.938726   -3.2622935    1759.5881  0.072482621  0.072889886            2 
 2024000   0.91876402   -3.2770106    1755.8576  0.072293213  0.072877332            3 
 2025000   0.95162638   -3.2791473    1767.9356   0.07275455  0.072864741            3 
 2026000   0.94059533   -3.2909336     1758.693  0.072338475  0.072852044            2 
 2027000   0.92005519   -3.2936579    1757.9419  0.072271908  0.072839513            3 
 2028000   0.92218987   -3.2641485    1762.5489   0.07242558  0.072826881            2 
 2029000   0.95262644   -3.2402403     1766.702  0.072560455  0.072814244            2 
 2030000   0.94022498   -3.2752519    1762.2078  0.072340222  0.072801706            3 
 2031000   0.94628141   -3.2696681    1766.4483  0.072478595  0.072789173            8 
 2032000   0.91446105   -3.2847656    1762.8918  0.072297071  0.072776085            2 
 2033000   0.92836229   -3.2665978    1763.9917  0.072306593  0.072763197            3 
 2034000   0.92877954   -3.2652562    1768.9208  0.072472993  0.072750389            2 
 2035000   0.92759473   -3.2906861    1761.3166  0.072125985   0.07273767            2 
 2036000   0.91345478    -3.261058    1768.1781  0.072371404  0.072724985            3 
 2037000    0.9126514   -3.2637662    1769.3194  0.072382566  0.072712387            5 
 2038000   0.95045107   -3.2866068    1764.4584  0.072148282  0.072699455            2 
 2039000   0.92104919   -3.2834017    1767.9175   0.07225427  0.072686443            2 
 2040000   0.94617606   -3.2829065     1765.043  0.072101431  0.072673515            4 
 2041000   0.93969122    -3.253369    1774.2354  0.072441427  0.072660687            4 
 2042000   0.90391243   -3.2536686    1764.3696  0.072003328  0.072647928            4 
 2043000   0.92792074   -3.2765025    1771.3825  0.072254139  0.072635106            3 
 2044000   0.90552116   -3.2871655    1761.3567  0.071810043  0.072622103            4 
 2045000   0.93033407   -3.2856242    1768.0244  0.072046636  0.072609224            3 
 2046000   0.91176517   -3.2836388    1773.1822  0.072221497  0.072596658            6 
 2047000   0.89424009   -3.2796976    1774.7822   0.07225135  0.072583753            1 
 2048000   0.93301068   -3.2611464    1773.1067  0.072147895  0.072571071            2 
 2049000   0.92325426   -3.2939587    1769.9808  0.071985553   0.07255837            2 
 2050000   0.89901293   -3.2852212    1771.6496  0.072018278  0.072545588            3 
 2051000   0.93146033    -3.290578    1779.7013   0.07231031  0.072532567            2 
 2052000   0.92988621   -3.2570335    1775.2383  0.072093823  0.072519878            3 
 2053000   0.91951801   -3.2732516    1776.0814  0.072092929  0.072506881            4 
 2054000   0.92834241   -3.2871736    1774.3944  0.071989387  0.072494006            2 
 2055000    0.9098284   -3.2533767    1778.2933   0.07211246  0.072481467            3 
 2056000   0.92170014   -3.2873348    1780.0698  0.072149393  0.072468671            4 
 2057000   0.91267042   -3.2801684    1783.3694  0.072247992  0.072456052            2 
 2058000   0.93084282   -3.3143349    1775.1933  0.071881816  0.072443467            4 
 2059000   0.93238159   -3.2648915    1777.9059   0.07195669  0.072430658            1 
 2060000   0.93313542   -3.2607862    1776.6926  0.071872676  0.072418028            2 
 2061000   0.92826985   -3.2916091    1779.6288  0.071956525  0.072405213            2 
 2062000   0.93954345   -3.2836356    1788.1253  0.072265006  0.072392566            3 
 2063000   0.90180202   -3.2919959     1783.216  0.072031668  0.072379808            2 
 2064000   0.92068415   -3.2836836    1782.6074  0.071972198  0.072367024            2 
 2065000   0.91376141   -3.2914673    1787.4635  0.072133312  0.072354083            4 
 2066000   0.93778652   -3.2960087    1779.7988   0.07178924  0.072341137            4 
 2067000   0.91722601   -3.2963992    1783.0051  0.071883772  0.072328325            2 
 2068000   0.91037548   -3.2882405    1784.7209  0.071918154   0.07231529            2 
 2069000   0.92197896    -3.299067     1788.143  0.072021228  0.072302557            3 
 2070000   0.91108212   -3.2681596    1792.3692  0.072156569  0.072290113            2 
 2071000   0.91752163    -3.283423    1789.0485   0.07198811   0.07227762            4 
 2072000     0.937663    -3.266031    1779.5867  0.071572823  0.072264872            3 
 2073000   0.92302624   -3.3174346    1790.0269  0.071957989  0.072252366            2 
 2074000   0.92828752   -3.3059825    1783.7753  0.071672104  0.072239649            3 
 2075000   0.90543361   -3.2694092    1789.8435  0.071881267   0.07222696            2 
 2076000   0.92991786   -3.2768745    1789.8302  0.071846107  0.072214337            5 
 2077000   0.91512501   -3.3026309    1780.6127  0.071441691  0.072201842            4 
 2078000   0.91018773   -3.2960166    1794.1671  0.071950877  0.072188951            3 
 2079000   0.92559097   -3.2828643     1793.057  0.071871775  0.072176127            2 
 2080000   0.91630267   -3.2922584    1793.3485  0.071848897  0.072163608            7 
 2081000   0.90197603   -3.2671116    1795.1387  0.071886061  0.072150903            6 
 2082000   0.92372711   -3.2682945    1801.4978  0.072106059  0.072138526            2 
 2083000   0.92797527    -3.300085    1794.9331  0.071808812  0.072126136            4 
 2084000   0.91975706   -3.2818926    1798.4251   0.07191399  0.072113536            9 
 2085000   0.93942162   -3.2655737     1795.512   0.07176307  0.072101261            3 
 2086000   0.91599318   -3.2610203    1797.7882  0.071819597  0.072088597            7 
 2087000   0.90843454   -3.2618968    1800.9711   0.07191228  0.072076258            6 
 2088000    0.9138128    -3.291191    1792.3489  0.071533722  0.072064246            6 
 2089000   0.91197627   -3.2945376     1797.256  0.071695228  0.072051642            7 
 2090000   0.90918537   -3.2682274    1794.2017  0.071539143  0.072039147            4 
 2091000   0.92135684   -3.2883192    1802.8535  0.071849734   0.07202689            5 
 2092000    0.9191439   -3.2906182    1795.1271  0.071507613   0.07201454            5 
 2093000   0.92536615   -3.2883373    1799.1683  0.071634348  0.072002005            2 
 2094000   0.91204907    -3.277397    1804.2494  0.071802347  0.071989388            2 
 2095000   0.92044632   -3.2620099    1796.8193  0.071472525  0.071976773            4 
 2096000   0.90138129    -3.294392    1803.4729  0.071702963  0.071964211            4 
 2097000   0.91702139    -3.297199    1795.5224  0.071352823  0.071951804            1 
 2098000   0.92936885   -3.2892333    1797.4276  0.071394488  0.071939458            4 
 2099000   0.89781533   -3.2815744    1806.3547  0.071714893  0.071927108            5 
 2100000    0.9169941   -3.3142869     1804.355   0.07160139  0.071914718            5 
 2101000   0.91610469   -3.3123437    1809.8241  0.071784236  0.071902367            5 
 2102000   0.90582075   -3.3038162    1803.5382  0.071500881  0.071889702            4 
 2103000   0.90146705   -3.2951958    1809.5547   0.07170529   0.07187734            2 
 2104000   0.93277692   -3.2866083    1813.6884  0.071834933  0.071865001            3 
 2105000     0.908138   -3.3108382    1803.5551  0.071399646  0.071852595            1 
 2106000   0.91675854   -3.3130798    1803.7092  0.071371841  0.071840165            3 
 2107000   0.91526973    -3.300965    1803.5371  0.071331162  0.071827507           10 
 2108000   0.90742034   -3.2702171    1811.2937  0.071603957  0.071815085            4 
 2109000   0.90821953   -3.2786478    1811.0694  0.071561143  0.071802648            2 
 2110000   0.91911859   -3.2929192    1807.2368  0.071375861  0.071790114            5 
 2111000   0.92355859   -3.2938923    1814.9416  0.071646203  0.071777508            1 
 2112000   0.91357869   -3.2920456    1810.2643  0.071427727  0.071765071            4 
 2113000   0.90894428   -3.2765684    1813.8617  0.071535797  0.071752567            3 
 2114000   0.91930878   -3.2748747    1811.4569  0.071407164  0.071740022            4 
 2115000   0.92366798   -3.2830948    1811.0016   0.07135546  0.071727602            1 
 2116000   0.93244459   -3.2915945     1811.179  0.071328726  0.071715291            3 
 2117000    0.9007638   -3.2931301    1810.1589  0.071254878  0.071702697            2 
 2118000   0.91322461   -3.2964448    1813.3579    0.0713471  0.071690227            6 
 2119000   0.91855163   -3.2859035    1812.4221  0.071276627  0.071677986            2 
 2120000   0.91730011   -3.3165435    1815.3597  0.071358477  0.071665556            2 
 2121000   0.91362704    -3.294093    1822.9111  0.071621526  0.071653135            5 
 2122000   0.92768141   -3.3028447     1816.827  0.071348847  0.071640574            3 
 2123000   0.91219706   -3.2743826    1817.3588  0.071336113  0.071628124            4 
 2124000   0.90281498   -3.2922267    1818.4659  0.071345963  0.071615617            1 
 2125000   0.91475406   -3.2885522    1813.8355  0.071130804   0.07160281            2 
 2126000   0.89328571    -3.287832     1815.879  0.071177446  0.071590131            5 
 2127000   0.88449004   -3.2853538    1819.9776  0.071304561  0.071577299            3 
 2128000   0.91793638   -3.3009022    1814.2817  0.071047997  0.071564713            2 
 2129000   0.91627772   -3.2772013    1817.5846  0.071143911  0.071552028            3 
 2130000    0.9138562   -3.2810349    1817.8604    0.0711213  0.071539433            2 
 2131000   0.91686142   -3.2831379    1814.9332  0.070973456  0.071526535            4 
 2132000    0.8998803   -3.2957553    1816.3956  0.070997325  0.071513399            2 
 2133000   0.91661099   -3.3008922    1815.9068  0.070944946  0.071500284            4 
 2134000   0.90295861   -3.3191598    1815.6695  0.070902433  0.071487317            5 
 2135000   0.89102175   -3.2763913     1823.512   0.07117533  0.071474291            3 
 2136000   0.92800222     -3.29575    1813.6912  0.070758865    0.0714613            7 
 2137000    0.9250119   -3.3289696    1810.7527  0.070611165   0.07144826            2 
 2138000   0.90585636   -3.3139909    1819.2157  0.070908003  0.071435186            2 
 2139000   0.91493176   -3.3273858    1820.7901  0.070936188  0.071422042            3 
 2140000   0.93139122   -3.3100079    1820.5324  0.070893005  0.071409019            2 
 2141000   0.89718303   -3.3218573    1815.3033  0.070656362  0.071396069            3 
 2142000     0.908858   -3.2879786    1819.3042  0.070779029  0.071383083            2 
 2143000   0.91422034   -3.2919544    1818.5443  0.070716452  0.071370155            2 
 2144000   0.90520087   -3.2933839    1816.7727  0.070614609  0.071357057            4 
 2145000   0.86976073   -3.2935688    1827.0247  0.070979979   0.07134402            2 
 2146000   0.90900769   -3.3000278     1824.786   0.07085997  0.071330716            4 
 2147000   0.90880444   -3.2942855    1819.5848  0.070625088  0.071317473            5 
 2148000   0.89685541   -3.2897496     1825.874  0.070836203    0.0713042            3 
 2149000   0.92501097   -3.3250836    1820.8559   0.07060865  0.071291176            2 
 2150000   0.90521222   -3.2797458    1832.4931  0.071026863   0.07127782            2 
 2151000   0.92564451   -3.2834388     1827.963  0.070818342  0.071264883            2 
 2152000   0.89405505   -3.3179548    1824.4673  0.070650065  0.071251909            3 
 2153000   0.90755801   -3.3197438    1828.9278  0.070789897  0.071238833            2 
 2154000   0.93117628     -3.28504    1836.3395  0.071043774  0.071226036            3 
 2155000   0.89758878   -3.3297606    1823.8214  0.070526738  0.071213065            4 
 2156000   0.91500646   -3.3125764    1834.9331  0.070923512  0.071200166            5 
 2157000   0.91372916   -3.3137241    1827.9489  0.070620805  0.071187311            3 
 2158000   0.93063115   -3.3310457    1829.5393  0.070649495  0.071174369            3 
 2159000   0.91077305   -3.2965548     1830.306  0.070646364  0.071161471            3 
 2160000    0.9106202   -3.2842254     1825.364  0.070422995  0.071148666            4 
 2161000   0.89091361     -3.33579     1832.281  0.070657143  0.071135559            4 
 2162000   0.90768409   -3.2939859    1833.0057  0.070652393  0.071122384            2 
 2163000   0.90353015   -3.3200498    1837.8119  0.070804895  0.071109599            4 
 2164000   0.92334267   -3.3231464    1835.5141  0.070683691  0.071096776            6 
 2165000   0.90529493    -3.299598    1831.3919  0.070492373  0.071083719            3 
 2166000   0.92175273   -3.2948419    1840.6812  0.070817221  0.071070837            4 
 2167000   0.90790805   -3.2908429     1830.672   0.07039963  0.071057975            4 
 2168000      0.93415   -3.2759937    1847.3551   0.07100842  0.071045157            3 
 2169000   0.88999911   -3.3075212    1836.1368  0.070544674  0.071032544            2 
 2170000   0.89942748   -3.2995524    1842.0215  0.070738154  0.071019638            1 
 2171000   0.89598127   -3.3012978    1832.6919  0.070347456  0.071006892            6 
 2172000   0.90532246   -3.3243191    1843.4727  0.070728694  0.070994038            1 
 2173000   0.89628068   -3.2790327    1841.7413  0.070629746  0.070981049            3 
 2174000   0.90651785   -3.2866891    1837.1713  0.070422082  0.070968252            2 
 2175000   0.88614414   -3.3262321    1836.1329  0.070349918  0.070955455            1 
 2176000   0.89923017   -3.2864602     1838.555  0.070410349  0.070942649            5 
 2177000   0.89946981     -3.30759    1837.6115  0.070341887  0.070929866            2 
 2178000   0.90130883   -3.2904955    1847.3452  0.070682018   0.07091721            2 
 2179000   0.90316418    -3.290011    1844.5305  0.070541932  0.070904736            3 
 2180000   0.89715709   -3.3211126    1840.0756   0.07033928  0.070891838            1 
 2181000   0.90126078    -3.302762     1845.938  0.070531026  0.070879444            2 
 2182000     0.903666   -3.2878394    1846.9358  0.070536808  0.070866689            2 
 2183000   0.89547139   -3.3226873    1843.0137  0.070354774  0.070853746            5 
 2184000   0.88210118   -3.3027708    1851.3138  0.070639262  0.070840869            3 
 2185000   0.91278537   -3.2899812    1848.8176  0.070511733  0.070828156            1 
 2186000   0.89713203   -3.3182352    1840.0915  0.070146824  0.070815426            7 
 2187000   0.90070451   -3.3077997    1843.6287  0.070249531  0.070802562            3 
 2188000   0.89569808   -3.3322131    1844.8875   0.07026537  0.070789867            4 
 2189000   0.91263413   -3.3001195    1847.5314  0.070333921  0.070777351            2 
 2190000   0.90036541   -3.3271338    1849.5668  0.070379255  0.070764477            3 
 2191000   0.87915831   -3.3102711    1848.7174  0.070314828  0.070751895            5 
 2192000   0.89834884    -3.311612    1846.7587  0.070208285  0.070739065            3 
 2193000   0.90408233   -3.2925987     1852.862  0.070408191  0.070726304            3 
 2194000   0.89440765   -3.3197784    1849.0329  0.070230662  0.070713796            3 
 2195000    0.9047015   -3.2809844    1859.8499  0.070609336  0.070701252            4 
 2196000   0.87266359   -3.3168926    1857.9273  0.070504223   0.07068865            1 
 2197000    0.8995643   -3.3142005    1851.6604  0.070234426  0.070675986            3 
 2198000   0.87530194   -3.3433747    1848.6855  0.070089683  0.070663382            5 
 2199000   0.88116688   -3.3129306    1855.5807  0.070319113  0.070650693            3 
 2200000   0.90638967   -3.3158588    1858.4431  0.070395572  0.070638056            3 
 2201000   0.89735185   -3.3296597    1862.2603  0.070508113  0.070625438            2 
 2202000    0.9153912   -3.3025336    1854.5132   0.07018291   0.07061272            3 
 2203000   0.90590835   -3.3003678    1858.9061  0.070317221  0.070600068            3 
 2204000   0.89599544   -3.3117268    1856.6417    0.0701997  0.070587377            5 
 2205000   0.89257453   -3.2856943    1856.0542  0.070145662  0.070574675            2 
 2206000   0.89998765   -3.3173718    1855.2379  0.070083027  0.070561991            3 
 2207000   0.90886058   -3.3011484    1849.3826  0.069830186  0.070549313            3 
 2208000   0.90641586   -3.3285846    1860.3468  0.070212363  0.070536516            2 
 2209000   0.89783676   -3.3365988    1852.3632  0.069879404  0.070523757            3 
 2210000    0.8899091   -3.3161137    1852.9287  0.069869106   0.07051098           10 
 2211000   0.89178924   -3.3175376    1861.1227   0.07014634  0.070498253            2 
 2212000    0.9391276   -3.3184794    1854.7552  0.069874743  0.070485496            2 
 2213000   0.89902475   -3.3250025     1857.919  0.069962307  0.070472655            3 
 2214000   0.88727856   -3.2984188    1858.9281  0.069968687  0.070459951            3 
 2215000    0.8849758   -3.3183901    1862.0311  0.070053841  0.070447072            4 
 2216000    0.8861748   -3.3391175    1863.4687  0.070076291  0.070434433            6 
 2217000   0.89517941   -3.3121166    1865.6922  0.070128259  0.070421682            4 
 2218000   0.88999094   -3.3162655    1868.6422  0.070207475  0.070409179            2 
 2219000    0.8884238   -3.3125834    1870.2502  0.070236226  0.070396582            8 
 2220000   0.91350862     -3.30425    1862.6621  0.069919747  0.070384106            3 
 2221000    0.9183063   -3.3278021    1871.8259  0.070232098  0.070371767            3 
 2222000   0.90682366   -3.3153619    1872.5533  0.070227772  0.070359276            3 
 2223000    0.8905523   -3.3533063    1862.8384  0.069831997    0.0703466            4 
 2224000   0.89706482   -3.3160921    1868.5396  0.070014225  0.070334166            9 
 2225000   0.91242118   -3.2901769     1860.564  0.069684044  0.070321446            5 
 2226000   0.90332224   -3.3394112    1870.4917  0.070024396  0.070308686            2 
 2227000   0.88701458   -3.3590378     1862.882  0.069708204  0.070296103            3 
 2228000   0.90041839      -3.3325    1873.5967  0.070077675  0.070283419            3 
 2229000   0.89145075   -3.3321043    1869.9797  0.069911009  0.070270973            3 
 2230000   0.91559647   -3.3291194    1868.8866  0.069838811   0.07025854            2 
 2231000   0.90781813   -3.2999228    1878.8259  0.070178763  0.070245929            2 
 2232000   0.90212155   -3.3436974    1867.5085   0.06972478  0.070233202            3 
 2233000   0.91833966    -3.325164    1871.7422  0.069851553  0.070220439            5 
 2234000   0.87760587    -3.315705    1868.9785  0.069717194  0.070207846            5 
 2235000   0.87826255   -3.3068236    1868.4296  0.069665532  0.070195078            4 
 2236000   0.91841139   -3.3253658    1869.5132  0.069674761  0.070182403            3 
 2237000   0.89011494   -3.3413488    1875.8563   0.06987991  0.070169753            2 
 2238000   0.87070696   -3.3348833    1876.8122   0.06988428  0.070157085            2 
 2239000     0.903427   -3.3186742    1874.3106   0.06975996   0.07014441            3 
 2240000   0.91958662   -3.3076329    1876.3782  0.069805738  0.070131636            3 
 2241000    0.9017893    -3.310713    1878.7129  0.069861406  0.070118738            5 
 2242000   0.89755371   -3.3205537    1877.9187  0.069800725  0.070106068            6 
 2243000   0.90031624   -3.2972398    1878.3637   0.06978614  0.070093413            6 
 2244000   0.89528801   -3.3389319    1870.5606  0.069465264  0.070080861            8 
 2245000   0.89450451   -3.3148817    1871.3375  0.069463159  0.070067858            3 
 2246000   0.88354488   -3.3109066    1869.6297  0.069368865  0.070055063            4 
 2247000   0.88541943   -3.3263975    1881.0806  0.069762671  0.070042266            3 
 2248000   0.88721117   -3.3401791    1880.2147  0.069699538  0.070029458            4 
 2249000   0.90190009   -3.3355448    1880.6046  0.069682994  0.070016841            2 
 2250000   0.89645522   -3.3128256    1882.6881  0.069729187  0.070004035            2 
 2251000   0.88523089   -3.3142905    1883.8684  0.069741909  0.069990997            4 
 2252000   0.90462989   -3.3430789    1873.8667  0.069340834  0.069977774            3 
 2253000   0.87953295   -3.3317971    1872.7616  0.069269183  0.069964985            3 
 2254000   0.90550405   -3.3197413    1881.8936  0.069576072  0.069952062            4 
 2255000   0.87729255   -3.3055098    1883.6369   0.06960964  0.069939265            6 
 2256000   0.88526481   -3.3298885      1882.43  0.069534204  0.069926323            7 
 2257000   0.88690535   -3.3194448    1883.1308   0.06952927  0.069913274            2 
 2258000   0.87216881   -3.3212052     1875.904  0.069231769   0.06990027            2 
 2259000   0.88587109   -3.3057917     1876.994  0.069241331  0.069887064            2 
 2260000   0.88586805    -3.305417    1882.9593  0.069430653  0.069873677            4 
 2261000   0.88621232   -3.3172516    1884.6241  0.069461304  0.069860644            3 
 2262000   0.90642222   -3.3061504    1889.8684  0.069623799  0.069847337            5 
 2263000   0.87894863     -3.31445    1876.5242  0.069101642  0.069834302            3 
 2264000   0.89020636   -3.3365684    1879.7026  0.069188113  0.069821158            2 
 2265000   0.89152354   -3.3218365    1881.8415  0.069236257  0.069808003            2 
 2266000   0.87548558   -3.3164404    1879.3082  0.069112541  0.069794975            2 
 2267000   0.88314743   -3.3217844    1888.9792  0.069437553  0.069781832            4 
 2268000    0.8845195    -3.307564    1886.0208  0.069298238  0.069768759            5 
 2269000   0.90387863   -3.3397297     1887.784  0.069332453  0.069755494            3 
 2270000   0.89825064   -3.3159827    1890.0483  0.069385034  0.069742487            8 
 2271000   0.88064851   -3.3193982    1883.9545  0.069130872  0.069729311            2 
 2272000   0.90155397   -3.3485018    1886.5828  0.069196846  0.069716458            3 
 2273000   0.89303118   -3.3346059    1887.1776  0.069188211  0.069703268            4 
 2274000   0.90118853   -3.3293658    1887.0897  0.069154562   0.06969005            2 
 2275000   0.88827624   -3.3341903      1882.72  0.068964104  0.069677011            3 
 2276000   0.87677568   -3.3683703    1889.3965  0.069178255  0.069663903            5 
 2277000   0.88878988   -3.3168404    1895.2451  0.069361918  0.069650883            4 
 2278000   0.90438842     -3.34322    1889.2527  0.069112259  0.069637756            2 
 2279000   0.90362581   -3.3624184    1884.6866  0.068914971  0.069624601            3 
 2280000   0.89932963   -3.3111986    1894.4146    0.0692403  0.069611565            2 
 2281000   0.89652954   -3.3342794     1886.895  0.068935228  0.069598382            4 
 2282000    0.9070674   -3.3508699    1890.9818  0.069054259  0.069585373            5 
 2283000    0.8686493   -3.3414184     1890.904  0.069021171  0.069572201            4 
 2284000   0.89321255   -3.3231537    1898.4884  0.069267674   0.06955917            3 
 2285000     0.877063   -3.3234592    1893.6907  0.069062388  0.069545918            3 
 2286000   0.88979608   -3.3369278    1894.7714  0.069071574  0.069532897            3 
 2287000   0.87838274   -3.3398207     1893.234   0.06898535  0.069519878            5 
 2288000   0.87717774   -3.3265216    1899.3682  0.069178622  0.069506884            5 
 2289000   0.87900029    -3.345505    1893.9459  0.068950994  0.069493952            5 
 2290000   0.87366557   -3.3424317    1900.7067   0.06916691  0.069480923            6 
 2291000   0.87703992   -3.3410971    1899.1926  0.069081647  0.069467979            2 
 2292000    0.8685854   -3.3188454    1896.5463  0.068955288  0.069455171            4 
 2293000   0.89886271   -3.3256899       1906.4  0.069283327  0.069442458            5 
 2294000   0.90223702   -3.3203709    1902.0275  0.069094284  0.069429785            4 
 2295000   0.86429884   -3.3653259    1894.5802  0.068793762  0.069417008            4 
 2296000   0.89805697   -3.3508082    1895.9836  0.068814737  0.069403996            4 
 2297000   0.88586281   -3.3153883    1896.9881   0.06882122  0.069391185            3 
 2298000   0.90595256   -3.3294092     1911.417  0.069314514  0.069378321            5 
 2299000   0.88928632   -3.3313224    1902.6487  0.068966533  0.069365614            3 
 2300000   0.88083331   -3.3570657     1903.537  0.068968734  0.069352918            6 
 2301000   0.89258763   -3.3460461    1902.7566  0.068910497  0.069340253            3 
 2302000   0.87561914   -3.3377174    1909.9345  0.069140404  0.069327314            7 
 2303000   0.85885237   -3.3538275    1911.1332  0.069153755  0.069314568            3 
 2304000   0.88525194   -3.3163635     1905.687  0.068926759  0.069301969            2 
 2305000    0.8930606   -3.3401786    1907.3555  0.068957177  0.069289635            4 
 2306000   0.88220088   -3.3419042    1910.9248   0.06905626  0.069277173            2 
 2307000   0.89790346   -3.3664902    1902.3855  0.068717869  0.069264559            2 
 2308000   0.89110342   -3.3479269    1909.1714   0.06893311  0.069252153            3 
 2309000   0.89313557    -3.325426    1912.5278  0.069024389  0.069239635            3 
 2310000    0.8725391   -3.3572591    1912.0442  0.068977064  0.069227392            3 
 2311000   0.90464786   -3.3527453    1917.3255  0.069137656   0.06921507            2 
 2312000   0.88155976   -3.3238719    1912.4202  0.068930948  0.069202808            2 
 2313000   0.89536192   -3.3672434    1909.3951  0.068792156  0.069190472            6 
 2314000   0.89432454   -3.3386077    1913.3152  0.068903603  0.069177974            2 
 2315000    0.8809204    -3.311816     1914.431  0.068914004   0.06916546            3 
 2316000   0.87488064   -3.3298228    1919.0663  0.069051033    0.0691531            3 
 2317000   0.86588354   -3.3485897     1921.779  0.069118794   0.06914069            2 
 2318000   0.88051334   -3.3386262    1916.1676  0.068887244  0.069128393            3 
 2319000   0.87425545   -3.3392703    1920.4156  0.069010191  0.069116022            2 
 2320000   0.86802056   -3.3441313    1920.8353  0.068995522  0.069103803            3 
 2321000   0.87034543   -3.3225672    1917.5747  0.068848726  0.069091437            4 
 2322000   0.88936957   -3.3304449    1921.2676  0.068951609  0.069079114            3 
 2323000   0.88601156   -3.3189452    1924.5305  0.069038976  0.069066687            2 
 2324000   0.89491175   -3.3351649    1918.9191  0.068808058  0.069054264            1 
 2325000   0.88324332   -3.3740713    1919.4892  0.068798895   0.06904171            4 
 2326000   0.88487045   -3.3400203    1917.9055  0.068712581  0.069029166            3 
 2327000   0.87239089   -3.3550743    1924.2838  0.068911468  0.069016653            3 
 2328000   0.87424102   -3.3500488    1918.4027  0.068671347  0.069004212            2 
 2329000   0.87961974   -3.3559768    1919.6695  0.068687186  0.068991588            5 
 2330000   0.86819098   -3.3477231      1915.11  0.068494634  0.068979141            2 
 2331000   0.86778909   -3.3700683     1918.561  0.068588623  0.068966686            2 
 2332000   0.88713375   -3.3334689    1923.3216  0.068729332  0.068954103           10 
 2333000   0.86778696   -3.3414949    1924.3943  0.068738186  0.068941478            2 
 2334000   0.88028564    -3.334403    1930.6879  0.068933445  0.068928916            9 
 2335000   0.88871647   -3.3574325     1916.881  0.068411171  0.068916386            4 
 2336000   0.87851191   -3.3430017    1925.3846  0.068685239  0.068903632            2 
 2337000   0.86362938   -3.3483787    1925.9087  0.068674537  0.068891057            7 
 2338000   0.86428716   -3.3583264    1922.2938  0.068516319  0.068878365            2 
 2339000   0.88265284   -3.3538596    1925.1286  0.068588021  0.068865713            4 
 2340000   0.89745519   -3.3698301    1922.7684  0.068474658  0.068853112            3 
 2341000   0.89249864   -3.3680489    1927.9258  0.068628999  0.068840241            3 
 2342000   0.89094188   -3.3280194    1924.9889  0.068495194  0.068827474            2 
 2343000   0.86111065   -3.3486392    1922.4607   0.06837604  0.068814792            3 
 2344000   0.87366059   -3.3398299    1925.1866  0.068443778    0.0688024            3 
 2345000   0.87352667   -3.3552963    1925.1773  0.068414261  0.068789769            3 
 2346000   0.87436198   -3.3529869     1925.324   0.06839031  0.068777071            4 
 2347000   0.87841999   -3.3663721    1924.3623  0.068327024  0.068764312            7 
 2348000    0.8786612   -3.3559131    1928.0682  0.068429451  0.068751619            9 
 2349000   0.87549231   -3.3469231     1921.128   0.06815411  0.068739011            2 
 2350000    0.8762751   -3.3314298    1925.8026  0.068290874  0.068726099            7 
 2351000   0.89019149   -3.3502365    1927.6525  0.068327395  0.068713345            3 
 2352000   0.86088075   -3.3537357    1921.2661   0.06807207  0.068700477            4 
 2353000   0.87551929   -3.3525803    1924.0652  0.068142273  0.068687521            5 
 2354000   0.88542395   -3.3445764    1927.6343  0.068239674  0.068674717           10 
 2355000   0.88109145   -3.3420088    1934.8564  0.068466255  0.068661756            2 
 2356000   0.88860562   -3.3851695    1919.9789  0.067910968  0.068648813            4 
 2357000   0.86352917   -3.3611224    1925.8643  0.068090239  0.068635693            3 
 2358000   0.87131272   -3.3720605    1928.0429  0.068138354  0.068622738            7 
 2359000   0.89305649   -3.3335275    1934.5602  0.068339698  0.068609848            2 
 2360000   0.88346531   -3.3738574    1925.1076  0.067976962  0.068596864            2 
 2361000   0.88072202   -3.3570455    1927.2711  0.068024535  0.068583976            2 
 2362000   0.86938234   -3.3408172    1935.7569  0.068295121   0.06857115            3 
 2363000   0.86253043   -3.3577976    1931.5049   0.06811627  0.068558306            5 
 2364000   0.88354593   -3.3574321    1937.1315  0.068285797  0.068545581            3 
 2365000   0.87170658    -3.343797    1938.8565  0.068317705  0.068532852            2 
 2366000   0.86116954   -3.3638462    1935.5677  0.068172997  0.068519855            2 
 2367000    0.8919771   -3.3421448    1934.6662  0.068112457  0.068506844            4 
 2368000   0.87164271   -3.3447443    1943.3302  0.068388592  0.068493962            3 
 2369000   0.89241135   -3.3307123    1932.9938  0.067996125  0.068481162            3 
 2370000   0.88020181    -3.341862    1937.9423  0.068141431  0.068468487            3 
 2371000   0.88021967   -3.3451374    1935.8344  0.068038607  0.068455672            2 
 2372000   0.84947572   -3.3508752    1941.2224  0.068199213  0.068442931            3 
 2373000   0.87164385   -3.3478256    1932.4933  0.067863932   0.06843004            4 
 2374000   0.86716708   -3.3427205    1936.6567  0.067981491  0.068417046            7 
 2375000   0.88869436   -3.3811367    1933.6691  0.067848039  0.068403987            7 
 2376000   0.87589455   -3.3445909    1933.9599  0.067829684  0.068390818            2 
 2377000   0.87249797    -3.334396      1943.61  0.068139463  0.068377945            3 
 2378000   0.86542146   -3.3524479    1942.1393   0.06805927  0.068364795            3 
 2379000   0.87553002   -3.3662674    1944.6296  0.068117892  0.068351576            1 
 2380000   0.86292516   -3.3631852    1941.7214  0.067987444  0.068338511            3 
 2381000   0.88924274   -3.3409103    1936.9094  0.067790474   0.06832529            4 
 2382000   0.88318739   -3.3619017    1942.0965  0.067943481  0.068312125            2 
 2383000   0.86049126   -3.3589807    1948.5046  0.068139062  0.068299132            2 
 2384000   0.86594672   -3.3737662     1938.569  0.067763177  0.068286278            3 
 2385000   0.85453889   -3.3489528     1946.461  0.068010518  0.068273374            5 
 2386000    0.8688696    -3.332372    1941.7482  0.067817413  0.068260478            7 
 2387000   0.86547774   -3.3881652    1936.7852  0.067615739  0.068247321            4 
 2388000   0.88588648   -3.3366119    1940.9317  0.067732121  0.068234274            3 
 2389000   0.86313196   -3.3503459    1942.6619  0.067764125  0.068221287            5 
 2390000   0.85670091   -3.3400554    1943.5045  0.067765151  0.068208294            3 
 2391000   0.87117352   -3.3247624    1949.9985  0.067963144   0.06819527            3 
 2392000   0.85490798   -3.3429975     1940.101  0.067589917  0.068182262            7 
 2393000   0.85394037   -3.3517867    1943.6396    0.0676849  0.068169205            3 
 2394000   0.87136439   -3.3426975    1951.3703  0.067925728  0.068156281            5 
 2395000   0.87708193   -3.3508239    1950.0018  0.067849751  0.068143404            5 
 2396000   0.88404139   -3.3796526    1942.5512  0.067562297  0.068130413            2 
 2397000   0.84876039   -3.3754431     1941.191  0.067486825  0.068117332            2 
 2398000   0.87387887   -3.3486946    1948.7572  0.067721616  0.068104297            4 
 2399000   0.86660633   -3.3769178    1951.2072  0.067778491  0.068091287            6 
 2400000     0.876422   -3.3534731    1951.4585  0.067758976  0.068078377            4 
 2401000   0.85587347   -3.3781301    1945.5833   0.06752684  0.068065402            3 
 2402000   0.87583444   -3.3550706    1950.7307  0.067677307  0.068052637            7 
 2403000   0.87818622   -3.3932344    1936.6718  0.067161596  0.068039604            4 
 2404000   0.87481453   -3.3550161    1949.8106   0.06758911  0.068026618           10 
 2405000   0.85759252    -3.386051    1947.3418   0.06747546  0.068013586            1 
 2406000   0.87511549   -3.3783286     1947.344  0.067447493  0.068000528            2 
 2407000   0.87672369   -3.3493914    1949.5989  0.067497538   0.06798753            4 
 2408000   0.85637565   -3.3529658    1955.3945  0.067670076  0.067974344            2 
 2409000   0.85573966   -3.3551706    1952.7766  0.067551426  0.067961337            3 
 2410000    0.8607039   -3.3759112    1951.7906  0.067489301  0.067948365            1 
 2411000   0.87451127   -3.3497014    1956.3049  0.067617341   0.06793568            2 
 2412000   0.85872903    -3.366092    1954.8338  0.067538481  0.067922743            6 
 2413000   0.87174228   -3.3343729    1961.8441  0.067752593  0.067910037            1 
 2414000   0.87408511   -3.3719181    1957.0925  0.067560499  0.067897135            3 
 2415000   0.87235889   -3.3774359    1960.1415  0.067637734  0.067884157            1 
 2416000   0.87182756   -3.3892827    1959.1082  0.067574097  0.067871515            3 
 2417000   0.88293984   -3.3588662    1958.6192  0.067529279  0.067858788            3 
 2418000   0.87738821   -3.3342375    1959.9908  0.067548622  0.067846033            2 
 2419000   0.86051499   -3.3687739    1963.1962  0.067631123  0.067833009            5 
 2420000   0.85929659   -3.3633944    1964.6989   0.06765492  0.067820117            4 
 2421000   0.86336772   -3.3695294    1964.3737  0.067615781  0.067807643            4 
 2422000   0.85176827   -3.3738574    1960.4807  0.067453921  0.067794667            2 
 2423000   0.86253213    -3.348332    1968.6053  0.067705508  0.067781902            3 
 2424000   0.88338863   -3.3855907    1962.9347  0.067482629  0.067769313            4 
 2425000   0.87849764   -3.3867785    1965.9358  0.067557931  0.067756611            6 
 2426000   0.86392622   -3.3502287    1968.5726  0.067620657  0.067744091            3 
 2427000   0.86321677   -3.3570517    1968.3369  0.067584704  0.067731476            3 
 2428000   0.85163581   -3.3470908    1962.5687  0.067358894  0.067718685            4 
 2429000   0.86231433   -3.3581629    1964.5927  0.067400599  0.067705878            3 
 2430000   0.84985092   -3.3708127    1964.4225  0.067367028  0.067692965            9 
 2431000   0.86346266    -3.372137    1957.6619  0.067107566  0.067680118            2 
 2432000   0.84885658   -3.3641427    1964.8397  0.067325923  0.067667385            7 
 2433000   0.85165588   -3.3749405    1970.9994  0.067509226  0.067654689            3 
 2434000   0.84664933   -3.3446371    1968.4353  0.067393705   0.06764202            2 
 2435000   0.85435354   -3.3549789    1966.6314  0.067304293  0.067629287            3 
 2436000   0.84809626   -3.3670651    1965.2338  0.067228853    0.0676166            2 
 2437000   0.85490722   -3.3572852    1967.0998  0.067265072  0.067604148            4 
 2438000   0.84494357   -3.3744794     1965.325  0.067176818  0.067591265            3 
 2439000   0.85238958   -3.3917708    1967.1342   0.06721109  0.067578571            3 
 2440000   0.86534164   -3.3515335    1970.6097  0.067302243  0.067565922            6 
 2441000   0.88372466   -3.3567151    1962.2707  0.066989987  0.067553046            1 
 2442000   0.87750967   -3.3527951    1972.8663  0.067324131  0.067540428            4 
 2443000   0.84795145   -3.3655872    1975.6817  0.067392608  0.067527803            6 
 2444000   0.84771549   -3.3678881    1971.9538  0.067237924  0.067515294            4 
 2445000   0.84961689   -3.3878435    1963.9592  0.066937943  0.067502382            4 
 2446000   0.86116946   -3.3737974    1963.4702  0.066893916   0.06748955            3 
 2447000   0.86613328   -3.3479241    1970.8925  0.067119348  0.067476637            4 
 2448000   0.87075454    -3.389743    1975.4082   0.06724565  0.067463763            5 
 2449000   0.88160888   -3.3656507    1971.3727  0.067080874  0.067450884            3 
 2450000   0.87330131   -3.3700415    1971.1958  0.067047477  0.067438191            4 
 2451000   0.84599423   -3.3694269    1969.3401  0.066957029  0.067425407            8 
 2452000   0.89606205   -3.3602383    1975.1719   0.06712792  0.067412722            1 
 2453000   0.84880532    -3.369791    1982.6595  0.067354923  0.067399817            3 
 2454000     0.853568   -3.3868693     1973.178  0.067005502  0.067387135            4 
 2455000   0.84881205    -3.393207    1974.0001  0.067006112  0.067374347            6 
 2456000   0.87332683   -3.3883082     1975.893  0.067043057  0.067361534            6 
 2457000   0.85097063   -3.3628466    1978.6508  0.067109308  0.067348875            2 
 2458000   0.85037926    -3.364958    1974.9637     0.066957  0.067336128            5 
 2459000   0.84615345      -3.3577    1980.4279  0.067114948  0.067323546            3 
 2460000   0.88044932   -3.3720374    1974.6783  0.066892895  0.067310926            5 
 2461000   0.85540532   -3.3794763    1973.8413  0.066837374  0.067298209            3 
 2462000   0.84750499   -3.3698521    1976.1113  0.066887061   0.06728547            2 
 2463000   0.85700881   -3.3915511    1979.0903  0.066960696  0.067272723            2 
 2464000   0.85842121   -3.3667227    1974.8584  0.066790397  0.067259814            3 
 2465000   0.86743806   -3.3742765    1981.3825  0.066983856  0.067247077            2 
 2466000   0.85968167   -3.3913651    1977.3039  0.066818866  0.067234147            6 
 2467000   0.84919154    -3.396708    1979.2681  0.066858132  0.067221513            3 
 2468000   0.85128809   -3.3663281    1978.8037   0.06681536  0.067208748            4 
 2469000    0.8653023   -3.3529256    1980.3795  0.066841485  0.067195872            7 
 2470000   0.85486689   -3.3937697    1978.0682  0.066736443  0.067183179            2 
 2471000   0.83915276   -3.3759361    1982.5569  0.066860814  0.067170371            3 
 2472000   0.84318181   -3.3736047    1981.7888  0.066807875  0.067157414            2 
 2473000   0.86036036   -3.3724075    1978.3316  0.066664363  0.067144561            5 
 2474000   0.85367903   -3.3671729    1985.8537  0.066890787  0.067131779            2 
 2475000   0.85562175   -3.3707063    1983.6103  0.066788226  0.067118997            3 
 2476000   0.85115064   -3.3812537    1984.0035  0.066774485  0.067106378            3 
 2477000   0.87191252   -3.3919476    1985.1175  0.066785005  0.067093767            5 
 2478000   0.86235396   -3.3837828    1983.4316  0.066701357  0.067081037            4 
 2479000   0.86285886   -3.3565984    1989.5862  0.066881344  0.067068303            1 
 2480000   0.86411087   -3.3739115    1981.0732  0.066568321  0.067055711            2 
 2481000   0.86370337   -3.3715633    1992.4587   0.06692391  0.067043176            4 
 2482000   0.84814232   -3.3773882    1991.5532  0.066866545  0.067030427            5 
 2483000   0.85997474   -3.3452039    1986.7303  0.066677752  0.067017904            4 
 2484000   0.87738841    -3.397388    1983.3542  0.066537647  0.067005252            7 
 2485000   0.84979095   -3.3690337    1991.8591  0.066796081  0.066992626            4 
 2486000   0.85196918   -3.3852159    1991.9137  0.066771042  0.066979965            2 
 2487000   0.86070938   -3.3743173    1992.9871  0.066780162  0.066967376            8 
 2488000    0.8654496   -3.3817276    1989.1531  0.066624904  0.066954804            4 
 2489000   0.85204589   -3.4017862    1992.1094  0.066697113  0.066942252            5 
 2490000   0.87163138   -3.3809322     1993.128  0.066704418  0.066929625           10 
 2491000   0.84955904   -3.3786125    2005.4504  0.067089869  0.066917133            7 
 2492000   0.83641595   -3.4017353    1985.2205  0.066386455  0.066904506            5 
 2493000   0.86189468   -3.3521109    1995.8266  0.066714352  0.066891846            4 
 2494000   0.84613563   -3.3744133    1995.1017  0.066663382  0.066879283            3 
 2495000   0.86424765   -3.3810219    1996.0474   0.06666825  0.066866634            2 
 2496000   0.84220666   -3.3692895    1996.8634  0.066668783  0.066854067           10 
 2497000   0.84809879   -3.4190978    1988.6222  0.066367046  0.066841462            3 
 2498000   0.85207899   -3.3918938    1996.5915  0.066606334  0.066828915            3 
 2499000   0.85705384   -3.3799529      1998.49  0.066642989   0.06681623            3 
 2500000    0.8514738   -3.3677807    1994.9508  0.066498361  0.066803693            7 
 2501000   0.84841857   -3.4064365    1992.5285  0.066391059  0.066790937            7 
 2502000    0.8458905   -3.3889626    1994.0611  0.066415572  0.066778285            4 
 2503000   0.86494031   -3.3813962    1994.3619   0.06639905  0.066765564            7 
 2504000   0.86259944   -3.3840722    1998.4015  0.066506971  0.066752998            2 
 2505000    0.8464022   -3.3631454    1998.3099  0.066477376  0.066740354            4 
 2506000   0.85280599   -3.3802808    1998.5486  0.066458785  0.066727741            3 
 2507000   0.86829072   -3.4113053    1999.5787  0.066466518  0.066714981            5 
 2508000   0.84512775   -3.3847697    1995.3822  0.066300577  0.066702271            4 
 2509000   0.86065288   -3.3865114    1992.0481  0.066163415  0.066689416            3 
 2510000   0.86588443   -3.3662556     1994.664  0.066223904  0.066676568            5 
 2511000   0.83528093   -3.3854102    1993.3023  0.066152339  0.066663671            3 
 2512000   0.84193251   -3.3764725     1993.331  0.066126956  0.066650809            2 
 2513000   0.85220764   -3.3638756    2000.9783  0.066354235  0.066638065            7 
 2514000   0.84627195   -3.3681402    1998.6218  0.066249728   0.06662514            3 
 2515000   0.85701905   -3.3939849    1998.7367  0.066227194  0.066612209            3 
 2516000   0.84797868   -3.3841908    1993.9892  0.066043628  0.066599617            2 
 2517000   0.84754188   -3.3822883    2001.2891  0.066259074  0.066586881            2 
 2518000   0.85414464   -3.3778032    2001.6682  0.066245306  0.066574014            3 
 2519000   0.84148946   -3.3852595    2000.4298  0.066178041  0.066561161            3 
 2520000   0.83655483   -3.3598574    2009.9064  0.066465158  0.066548187            8 
 2521000   0.85068643   -3.3808843    1998.5861  0.066064595  0.066535286            3 
 2522000   0.84154863    -3.389704    2002.0934  0.066154289    0.0665224            2 
 2523000   0.82027259   -3.3850467    2003.5401  0.066175851  0.066509607            2 
 2524000   0.81176012   -3.4054368    1997.1416  0.065938378  0.066496495            7 
 2525000   0.84365811   -3.3967495    1999.2118  0.065980587  0.066483531            4 
 2526000   0.84940512   -3.4009553    2006.3102  0.066188643  0.066470624            4 
 2527000   0.86908835   -3.3751173    2006.6037  0.066172132  0.066457779            3 
 2528000   0.85641484   -3.4192702    1993.6777  0.065719861  0.066444788            6 
 2529000   0.86123086   -3.3686878    1998.4639  0.065851585  0.066431793            4 
 2530000    0.8457503   -3.3986097    2006.7225  0.066097578  0.066418793            7 
 2531000   0.85216453   -3.3926622    2003.8863  0.065978081  0.066405762            5 
 2532000   0.84626639   -3.4024601    2005.8722  0.066017384  0.066392828            3 
 2533000   0.85290397   -3.3972331    2005.2397  0.065970512  0.066379703            3 
 2534000   0.85445528   -3.3945913    2006.3582   0.06598126  0.066366549            3 
 2535000   0.85897942   -3.4094861    1999.4651  0.065728636  0.066353345            9 
 2536000   0.84359469   -3.4102816    2007.0731  0.065952719   0.06634006            3 
 2537000   0.86569061   -3.3940372    2004.8242  0.065852851  0.066326838            5 
 2538000    0.8390975     -3.38139    2011.7015  0.066052716  0.066313879            2 
 2539000   0.84353264   -3.3917597    2012.3116  0.066046724  0.066301067            2 
 2540000   0.83766539   -3.3942849     2013.293   0.06605292  0.066288187            2 
 2541000   0.84879201   -3.3984773    2010.5806  0.065937971  0.066275204            5 
 2542000   0.83885981   -3.3710009    2011.7102  0.065949063  0.066262304            3 
 2543000   0.86589502   -3.3994245    2004.4678  0.065685797  0.066249452            5 
 2544000   0.84034775   -3.4057368    2013.2417  0.065947384  0.066236566            4 
 2545000   0.85306821   -3.3867003    2014.5825  0.065965372  0.066223635            5 
 2546000   0.82773185   -3.4029513    2010.5322  0.065806894  0.066210856            4 
 2547000   0.86865588   -3.4066467    2015.8347  0.065954545  0.066198091            2 
 2548000   0.85181165   -3.4046471    2013.3881  0.065848642  0.066185172            6 
 2549000   0.83214119   -3.3744316    2014.3834  0.065855349  0.066172225            5 
 2550000   0.84184092   -3.3928344    2019.9292  0.066010758  0.066159377            8 
 2551000   0.84560434     -3.39394    2015.2301  0.065831376  0.066146465            4 
 2552000   0.83540412   -3.3965919    2016.2724  0.065839616  0.066133541            8 
 2553000   0.84646622   -3.3696228    2015.4567  0.065787201  0.066120762            4 
 2554000   0.81449137   -3.4049112    2011.9321  0.065646441  0.066107889            3 
 2555000   0.84203254   -3.4192015    2007.3775  0.065472196  0.066094921            6 
 2556000   0.84310254   -3.4008085    2020.7747   0.06588337  0.066082087            5 
 2557000   0.86035218   -3.4162539    2015.8879   0.06569834  0.066069074            3 
 2558000   0.84587076   -3.4128038    2014.0661  0.065613309  0.066056087            6 
 2559000   0.82875247   -3.3999893    2021.8597  0.065841466  0.066043398            5 
 2560000    0.8584422   -3.4091289    2016.4951  0.065641116   0.06603039            3 
 2561000   0.82681306   -3.4011396    2022.8514  0.065822315  0.066017395            3 
 2562000   0.82390342   -3.3899107    2016.3147  0.065584008  0.066004387            1 
 2563000   0.84834482   -3.3828902    2026.5111  0.065889944  0.065991433            3 
 2564000   0.86264945   -3.4009635    2019.1659  0.065625515  0.065978772            4 
 2565000   0.81682088   -3.3778198    2025.1091   0.06579302  0.065965952            3 
 2566000   0.82443833   -3.4020591    2014.0447  0.065408052  0.065953211           10 
 2567000   0.83169936   -3.3975727    2020.9928  0.065608129  0.065940296            7 
 2568000   0.82509347   -3.3888443    2025.8305  0.065739568  0.065927627            2 
 2569000   0.84218529   -3.3978473    2026.2963  0.065729086  0.065914978            3 
 2570000   0.83981528   -3.3838725    2030.6271  0.065843941  0.065902322            4 
 2571000   0.85026889   -3.3856473    2028.6166  0.065753164  0.065889703            3 
 2572000   0.83757847    -3.361067    2029.2538  0.065748245  0.065877299            1 
 2573000   0.82887227   -3.3883456    2024.1946  0.065558835  0.065864688            3 
 2574000    0.8529222   -3.4049258    2028.7053  0.065679399  0.065852161            3 
 2575000   0.84570885   -3.3992671    2023.8531  0.065496864  0.065839587            5 
 2576000   0.86022603   -3.4284136    2019.9267   0.06534442  0.065827115            2 
 2577000   0.85864723   -3.4071389    2024.6902  0.065473103  0.065814476            3 
 2578000   0.84946471   -3.4160579    2027.6852  0.065544519  0.065801855            2 
 2579000   0.83309711   -3.4170007    2018.7072  0.065229002  0.065789208            5 
 2580000   0.82612972   -3.4117746    2030.7551  0.065592864  0.065776588            3 
 2581000    0.8448905    -3.395698    2041.1262  0.065902304  0.065763999            3 
 2582000   0.82489052   -3.4127577    2027.3049  0.065430704  0.065751558            2 
 2583000   0.82108415   -3.4030187    2028.2294  0.065435197  0.065739018            2 
 2584000   0.82225379   -3.4271803    2028.2679  0.065411116  0.065726436            1 
 2585000    0.8419182   -3.4102938    2038.3509  0.065710862  0.065714008            8 
 2586000   0.84442342   -3.3927029    2035.5574   0.06559543  0.065701608            4 
 2587000   0.83804914   -3.4092369    2034.1015  0.065523177  0.065689318            3 
 2588000   0.84016966   -3.4043314    2026.9804   0.06526856  0.065676988            3 
 2589000   0.84039654   -3.4065637    2032.4658  0.065419912  0.065664513            2 
 2590000   0.83587913   -3.4218506     2031.595  0.065366633  0.065651979            2 
 2591000   0.83132847   -3.4061586    2031.5536  0.065340074  0.065639491            3 
 2592000   0.83250823   -3.3912277    2036.4966  0.065473785  0.065627046            4 
 2593000   0.83348113   -3.4228099    2033.1414  0.065340704  0.065614475            6 
 2594000   0.84084201   -3.4113047    2034.8607   0.06537075  0.065601999            5 
 2595000   0.82115836   -3.3889292    2047.2216  0.065742506  0.065589352            4 
 2596000   0.81597146   -3.4295259    2032.0308  0.065229546  0.065576867            6 
 2597000   0.81811519    -3.419978    2033.4152  0.065248853  0.065564159            5 
 2598000    0.8392982   -3.3984556     2037.993  0.065370575  0.065551583            2 
 2599000   0.83647013   -3.3848679    2036.4632   0.06529637  0.065539078            6 
 2600000   0.83342663   -3.4161123    2037.8482  0.065315647  0.065526641            5 
 2601000   0.83456896   -3.4167751     2033.889  0.065163686  0.065514009            6 
 2602000   0.84037279   -3.3903904     2035.101   0.06517746   0.06550131            5 
 2603000   0.83409453   -3.4205578    2044.7577  0.065461573   0.06548872            3 
 2604000   0.81114358   -3.4134596    2034.7687  0.065116765  0.065476017            2 
 2605000   0.83249749   -3.4206508    2040.1011   0.06526235  0.065463333            4 
 2606000   0.81333166   -3.4064233    2038.9609  0.065200847  0.065450636            3 
 2607000     0.839751   -3.4145398    2038.6187    0.0651649  0.065438058            3 
 2608000   0.82370427   -3.4156957    2042.8264  0.065274362  0.065425482           18 
 2609000   0.81458028   -3.4158214    2031.8645   0.06489921  0.065413025            3 
 2610000   0.80316919   -3.4242943    2040.4838  0.065149547  0.065400551            5 
 2611000   0.83745806   -3.4258411    2040.5883  0.065127929  0.065388138            4 
 2612000   0.82836575   -3.3815815    2040.3704  0.065096044  0.065375519            3 
 2613000   0.83090389    -3.417806    2042.2225    0.0651302  0.065363342            3 
 2614000   0.84728032   -3.4208418    2037.6369  0.064959095  0.065350944            3 
 2615000   0.83788176   -3.4046922    2050.5066   0.06534438  0.065338447            3 
 2616000   0.83766903   -3.4196344    2043.7626   0.06510457  0.065325989            4 
 2617000   0.84626307   -3.3812095    2052.7625  0.065366276  0.065313521            2 
 2618000   0.82536554    -3.419499     2043.553  0.065048161  0.065301047            7 
 2619000   0.82956607   -3.4318373    2044.1509  0.065042346  0.065288488            3 
 2620000   0.85467148   -3.4047431    2050.0606  0.065205491  0.065276126            5 
 2621000   0.84511179   -3.3953799    2037.0575  0.064767185  0.065263782            2 
 2622000    0.8547507   -3.3918482    2057.3635  0.065387855  0.065251345            4 
 2623000   0.81874787   -3.4106319    2047.7915  0.065058821  0.065238853            2 
 2624000   0.80614796   -3.4081989    2045.3366  0.064956067  0.065226247            3 
 2625000   0.81778506   -3.4139318    2048.5433  0.065033121  0.065213699            7 
 2626000   0.81614134   -3.4072145    2044.8385  0.064890787   0.06520118            2 
 2627000   0.84392431   -3.4272146    2040.8581  0.064739822  0.065188712            2 
 2628000   0.82925614   -3.4239392    2042.2528  0.064759411  0.065176036            6 
 2629000   0.82579478   -3.4204602    2050.5137  0.064996631  0.065163489            2 
 2630000   0.84420906   -3.4157182    2044.3052  0.064775196  0.065150983            4 
 2631000   0.82359349   -3.4140431    2048.4546  0.064882003  0.065138279            2 
 2632000   0.82582838   -3.4191008    2052.0495  0.064971171  0.065125577            2 
 2633000   0.82068252   -3.4249691    2043.7757  0.064684635  0.065112903            4 
 2634000    0.8286872   -3.3818361     2058.582   0.06512851  0.065100385            8 
 2635000   0.82699113   -3.4239174       2056.6  0.065041114  0.065087912            1 
 2636000   0.84349802   -3.4183326    2049.1087  0.064779613  0.065075229            5 
 2637000   0.84148862   -3.4052903    2050.3673  0.064794822  0.065062482            3 
 2638000   0.83351176   -3.4130107    2057.0266  0.064980622   0.06504982            8 
 2639000   0.81880938    -3.394609    2052.8695  0.064824728  0.065037098            4 
 2640000    0.8496773   -3.4100344    2052.6763  0.064794075  0.065024391            3 
 2641000   0.82264895   -3.4276184     2046.274  0.064567525  0.065011659            4 
 2642000   0.83737391   -3.4441118    2047.0506  0.064567581  0.064998883            5 
 2643000   0.84069033   -3.4181327    2048.7201  0.064595791  0.064986257            8 
 2644000   0.81410737   -3.4170119    2050.5755  0.064629838   0.06497372            4 
 2645000   0.82091715   -3.4100763    2052.0099  0.064650595  0.064961016            7 
 2646000   0.83416176   -3.4250067    2051.7431  0.064617758  0.064948298            4 
 2647000   0.82714822    -3.411518      2056.62  0.064746882  0.064935771           11 
 2648000   0.83059348   -3.4398376    2054.8856   0.06466785  0.064922924            7 
 2649000   0.82906374   -3.4183112     2053.837  0.064610451  0.064910205            5 
 2650000   0.81511233   -3.4072378    2050.2031  0.064471795  0.064897531            2 
 2651000   0.82154611     -3.42326    2062.6953  0.064840164  0.064884893            3 
 2652000   0.81830115    -3.425323    2054.7334  0.064565529  0.064872371            2 
 2653000    0.8470169   -3.4214837    2058.5897  0.064662324  0.064859487            2 
 2654000   0.82625948   -3.4253171    2057.4087  0.064600877  0.064846739            3 
 2655000   0.83197461   -3.4320246    2054.0452  0.064470974  0.064833977            5 
 2656000   0.81278539   -3.4228355    2058.2969    0.0645801  0.064821276            1 
 2657000   0.81591206   -3.4418576    2050.6667  0.064316483  0.064808445            4 
 2658000   0.84210802   -3.4306046    2058.0972  0.064525246  0.064795682            4 
 2659000   0.83740862   -3.4184119    2062.3845  0.064635343  0.064782891            3 
 2660000   0.82277638   -3.4439805    2059.9247  0.064533983  0.064770136            4 
 2661000   0.82179771   -3.4288376    2062.7784  0.064599097  0.064757306            3 
 2662000   0.83552353   -3.4119479    2059.8105  0.064481923  0.064744319            4 
 2663000   0.84175059   -3.4352431    2049.2648  0.064127702  0.064731463           10 
 2664000   0.82755459   -3.4178614    2064.3169  0.064574479  0.064718701            5 
 2665000   0.82081837   -3.4278722    2051.2921  0.064142968  0.064706084            6 
 2666000   0.84502595   -3.4213046    2060.6052  0.064410014  0.064693312            4 
 2667000   0.81932111   -3.4345557    2060.2928  0.064376103   0.06468067            3 
 2668000   0.81366751   -3.4295687    2063.1587  0.064441489  0.064667877            3 
 2669000    0.8222103   -3.4377476    2060.1959  0.064324837  0.064655106            4 
 2670000   0.81974671   -3.4243075    2069.5875  0.064593868  0.064642432            5 
 2671000   0.82841795     -3.43721    2063.4617  0.064378564   0.06462993            3 
 2672000   0.83459416   -3.4393042    2062.9327  0.064337971   0.06461728            1 
 2673000   0.84148385   -3.4357694     2071.307  0.064574979  0.064604947            2 
 2674000   0.82606604   -3.4393268    2068.4824  0.064462802  0.064592515            3 
 2675000   0.83528042   -3.4671799    2066.2138  0.064368033  0.064579953           10 
 2676000   0.82466457    -3.419286    2072.3729  0.064535779  0.064567332            7 
 2677000   0.81841109   -3.4257913    2066.7529  0.064336723  0.064554711            4 
 2678000   0.83312618   -3.4452958    2063.5068  0.064211687  0.064542159            3 
 2679000   0.83051696   -3.4020035    2071.5125  0.064436745  0.064529552            6 
 2680000   0.80699625   -3.4019602    2072.2133  0.064434494  0.064516897            3 
 2681000   0.82119801   -3.4333708    2062.5517   0.06411015  0.064504361            4 
 2682000   0.83625314   -3.4306348    2070.3147  0.064327452  0.064491753            9 
 2683000   0.84294429   -3.4350366    2066.0611  0.064171359  0.064479097            3 
 2684000   0.83536301   -3.4063826    2069.9768  0.064269028  0.064466398            4 
 2685000   0.82016143   -3.4392806    2071.2488  0.064284568  0.064453776            2 
 2686000   0.83092392   -3.4310391     2066.834  0.064123666  0.064441138            4 
 2687000    0.8229972   -3.4375307    2065.6979  0.064064566  0.064428365            5 
 2688000    0.8205587   -3.4202332    2065.1095  0.064022492  0.064415653            2 
 2689000   0.83248896    -3.428476    2066.6653  0.064046897  0.064402881            3 
 2690000   0.83288904   -3.4319109    2070.4629  0.064140734  0.064390307            5 
 2691000   0.81877344   -3.4168199    2064.7365  0.063939567  0.064377403            3 
 2692000   0.79803953   -3.4419509    2069.6245  0.064067129  0.064364643            4 
 2693000    0.8305777   -3.4284653     2065.911  0.063928425  0.064351657            3 
 2694000   0.81296613   -3.4609014    2068.3455  0.063980003   0.06433879            5 
 2695000   0.81782504   -3.4365109    2071.1941  0.064044345  0.064325979            2 
 2696000   0.84084147   -3.4495275    2073.4935  0.064091663  0.064313164            3 
 2697000   0.82954799   -3.4229007    2079.4853  0.064253037  0.064300503            3 
 2698000   0.80859549   -3.4394485    2081.1959  0.064282058  0.064287896            5 
 2699000   0.82063055   -3.4357733    2073.5184  0.064021192  0.064275267            3 
 2700000   0.81044399   -3.4448135    2070.4795  0.063903689  0.064262511            3 
 2701000   0.83145866   -3.4578336    2071.5569  0.063913271  0.064249809            3 
 2702000   0.80705699   -3.4569986    2076.6505  0.064046709  0.064237049            6 
 2703000   0.80573729   -3.4469202    2069.1694  0.063792372  0.064224259           11 
 2704000   0.81352862   -3.4409946    2076.2077  0.063985692  0.064211527            3 
 2705000   0.83854161    -3.432048    2080.5716  0.064096477  0.064198954            2 
 2706000   0.83337375    -3.429009    2072.9603  0.063838394  0.064186189            5 
 2707000   0.80875367   -3.4310531    2078.8807  0.063997066  0.064173539            5 
 2708000    0.8216359   -3.4207402    2079.9474  0.064006258  0.064160875            4 
 2709000   0.80243988   -3.4655854    2070.9085  0.063704581  0.064148187            5 
 2710000   0.82475958   -3.4346238    2077.8391  0.063894193  0.064135285            7 
 2711000   0.80210441   -3.4455101    2079.4992  0.063921652  0.064122526            5 
 2712000   0.82889053   -3.4288905    2078.3536  0.063862881  0.064109893            5 
 2713000   0.81848544   -3.4279585    2075.4289  0.063749505  0.064097004            1 
 2714000   0.82413561   -3.4792619    2077.6323  0.063793673  0.064084199            3 
 2715000   0.84450246   -3.4543734    2073.7487  0.063650972  0.064071357            3 
 2716000   0.80175642   -3.4447832    2080.9937  0.063849831  0.064058544            5 
 2717000   0.82189253   -3.4377254    2077.6577  0.063724014  0.064045732            4 
 2718000   0.80893761   -3.4337535    2076.2619  0.063657771  0.064033016            2 
 2719000   0.80931671   -3.4368847    2079.3781  0.063729867  0.064020378            4 
 2720000   0.81181447   -3.4325097    2082.5015   0.06380213  0.064007642            3 
 2721000    0.8099395   -3.4505223    2077.1736  0.063615509  0.063994821            5 
 2722000   0.81102202   -3.4182428    2072.9894  0.063464039  0.063981949            5 
 2723000   0.82211373   -3.4367604    2081.1201  0.063689562  0.063969325            4 
 2724000   0.82945314   -3.4469278    2077.5024  0.063555507  0.063956519            2 
 2725000   0.79843703    -3.455163    2085.7393  0.063784075  0.063943872            6 
 2726000   0.82581121    -3.433919    2097.5145  0.064120644  0.063931381            2 
 2727000   0.81398626   -3.4178531     2085.381  0.063726348  0.063918877            5 
 2728000   0.79992268   -3.4410267    2087.7605  0.063775674  0.063906283            3 
 2729000   0.80614368   -3.4286918    2085.3999  0.063680221  0.063893601            3 
 2730000   0.82222308   -3.4301066    2082.0227  0.063553806  0.063880896            5 
 2731000   0.82029882   -3.4479795    2080.0524  0.063470413  0.063868298            1 
 2732000   0.81502395   -3.4173068    2083.1361  0.063541243  0.063855506            6 
 2733000   0.81551666   -3.4607208    2079.6354  0.063411251  0.063842787           10 
 2734000   0.84488167   -3.4416314    2091.7875  0.063758458  0.063830023            4 
 2735000   0.80373221   -3.4480279    2084.5009  0.063513129  0.063817334            5 
 2736000   0.82001138   -3.4369065    2085.9794  0.063534948  0.063804776            5 
 2737000     0.813105   -3.4270967    2085.0334  0.063482931  0.063792068            4 
 2738000    0.8245539   -3.4589445     2083.627   0.06341694   0.06377949            5 
 2739000   0.80218579   -3.4507513     2084.718  0.063426982   0.06376687            4 
 2740000   0.82343853   -3.4378945    2078.6634  0.063219689  0.063754095            4 
 2741000    0.8031246   -3.4267976    2085.9028  0.063416723  0.063741537            4 
 2742000   0.81974175   -3.4588506    2079.7828  0.063207598  0.063728863            4 
 2743000   0.82734351   -3.4556343    2080.3753  0.063202555  0.063716309            4 
 2744000   0.82725234   -3.4747151    2079.4903  0.063152645  0.063703519            3 
 2745000   0.83085151   -3.4489088    2083.1656  0.063241213  0.063690636            9 
 2746000   0.82516709   -3.4486299    2083.0979  0.063216129  0.063677923            5 
 2747000   0.84274156   -3.4291876    2088.7011  0.063363096  0.063665015            4 
 2748000   0.81465156   -3.4564843    2088.3965  0.063330801  0.063652165            5 
 2749000   0.81451515   -3.4696889    2080.6337  0.063072441  0.063639207            7 
 2750000   0.81606703   -3.4425549    2085.9192  0.063209671  0.063626236            6 
 2751000   0.81254631   -3.4457376    2089.9747  0.063309546  0.063613371            5 
 2752000   0.81087028   -3.4446582    2094.8354  0.063433726  0.063600517            5 
 2753000   0.81672648   -3.4465352    2090.5864  0.063282067  0.063587717            3 
 2754000   0.82851938   -3.4513911    2091.4772  0.063286045  0.063574709            3 
 2755000   0.80139444   -3.4400954    2087.1628  0.063132572   0.06356189            6 
 2756000   0.80379024   -3.4578111    2087.8698  0.063131041    0.0635489            3 
 2757000   0.81191134   -3.4260013    2093.9011  0.063290445  0.063535989            5 
 2758000   0.82621064   -3.4651739    2089.4333  0.063132504  0.063523117            2 
 2759000   0.78435236   -3.4487317    2094.4475  0.063261071  0.063510198            9 
 2760000   0.80002134   -3.4728516    2087.1323   0.06301728  0.063497203            2 
 2761000   0.81635271   -3.4602832    2091.0183  0.063111744  0.063484134            4 
 2762000   0.83524443   -3.4207859    2089.2533   0.06303564   0.06347135            4 
 2763000   0.82278468   -3.4622712     2098.158  0.063281396  0.063458316            2 
 2764000   0.78918094   -3.4624261    2083.6117  0.062819939  0.063445254            3 
 2765000   0.81863293    -3.458662    2091.5693  0.063037048  0.063432184            3 
 2766000   0.82767292   -3.4357124    2086.0535  0.062848082   0.06341901            5 
 2767000   0.82164328   -3.4273928    2091.1451   0.06297871  0.063405943            2 
 2768000   0.80232197   -3.4346963    2090.6265  0.062940346  0.063392817            3 
 2769000   0.81305539   -3.4345936    2089.8864   0.06289534  0.063379743            8 
 2770000   0.81542907   -3.4454876    2095.6919  0.063047289  0.063366696           11 
 2771000   0.80233455   -3.4730729    2086.9339  0.062761154  0.063353502            8 
 2772000   0.80536635   -3.4545307    2093.3105   0.06293021  0.063340356            6 
 2773000   0.82278986   -3.4543953    2095.9429  0.062986623  0.063327328            3 
 2774000   0.80686268   -3.4484844    2094.3091  0.062914839  0.063314152            6 
 2775000   0.78373488   -3.4770016    2093.4912  0.062867604  0.063301107            3 
 2776000   0.80150131   -3.4585255    2089.2819  0.062718598  0.063287917            3 
 2777000   0.81155056    -3.456685    2100.7308  0.063039575  0.063274729            2 
 2778000   0.80267179   -3.4642569    2096.5144  0.062890401  0.063261656            2 
 2779000   0.81301185   -3.4242318    2100.5876  0.062989913  0.063248763            4 
 2780000   0.79528638   -3.4523038    2091.9649   0.06270878  0.063235732            3 
 2781000   0.79841579   -3.4622219    2086.8873  0.062534079   0.06322266            4 
 2782000   0.80343948   -3.4640761    2102.6689   0.06298433  0.063209746            4 
 2783000    0.8157672   -3.4625245    2098.6935  0.062842661  0.063196876            4 
 2784000   0.81723605   -3.4659302     2103.602  0.062967014  0.063184068            3 
 2785000    0.8035388   -3.4590011    2100.9105   0.06286387  0.063171316            8 
 2786000   0.80909984   -3.4609247    2102.2189  0.062880442  0.063158574            4 
 2787000   0.81386218   -3.4629593    2105.8225  0.062965629  0.063145868            3 
 2788000   0.80980215   -3.4620966    2106.5417   0.06296454  0.063133224            5 
 2789000   0.81938094   -3.4494829    2103.4272  0.062848907  0.063120615            6 
 2790000   0.79762804   -3.4497474    2101.9755  0.062783021  0.063107825            4 
 2791000   0.79522988   -3.4502116    2109.6386  0.062989329  0.063095103            7 
 2792000   0.81970705   -3.4522841    2102.3185  0.062748283  0.063082406            4 
 2793000   0.82606618   -3.4779359    2107.5468  0.062881811  0.063069528            3 
 2794000    0.7928185   -3.4829436    2099.4817  0.062618757  0.063056709            8 
 2795000   0.82957205   -3.4499523    2100.9951  0.062641477  0.063043978            5 
 2796000   0.81131413   -3.4536394    2103.0882  0.062681456  0.063031074            7 
 2797000   0.82072922   -3.4490629    2105.4154  0.062728381  0.063018247            5 
 2798000   0.78520607    -3.461974    2100.4146  0.062557024  0.063005375            9 
 2799000   0.80250328   -3.4670532    2101.3996     0.062564  0.062992447            9 
 2800000   0.81010081   -3.4554233    2104.5765  0.062636206  0.062979492            2 
 2801000   0.81132769   -3.4742232    2111.3192  0.062814447  0.062966753            3 
 2802000   0.80264358   -3.4168997    2115.0998  0.062904468  0.062954084            5 
 2803000   0.78869308    -3.471953     2102.682  0.062512843  0.062941373            7 
 2804000    0.7874435   -3.4422669    2109.6372  0.062697255  0.062928559            6 
 2805000   0.79968687   -3.4351103    2115.3034  0.062843239  0.062915705            6 
 2806000   0.80249488   -3.4697133     2108.083  0.062606409  0.062902845            3 
 2807000   0.78755168   -3.4648095    2111.1108  0.062673994   0.06288987            3 
 2808000   0.79257286   -3.4586612     2105.015  0.062470768  0.062876876            4 
 2809000   0.78466844   -3.4660947    2109.0632  0.062568626  0.062863928            4 
 2810000   0.79876872   -3.4574888    2116.1415  0.062756272   0.06285102            4 
 2811000   0.79562882   -3.4586214    2114.4916  0.062685036  0.062838225            2 
 2812000   0.80807855   -3.4514763     2110.772  0.062552514  0.062825448            7 
 2813000   0.80404345   -3.4461488     2106.522  0.062404373  0.062812719            4 
 2814000   0.80244254   -3.4647545    2107.6522  0.062415666  0.062799932            4 
 2815000   0.78808022   -3.4604253     2107.611  0.062392274  0.062787146            4 
 2816000   0.80927648    -3.464176    2111.7745  0.062493327  0.062774346            8 
 2817000   0.79322478   -3.4452731    2117.5058  0.062640688  0.062761558            7 
 2818000   0.80316717   -3.4486584    2115.2943  0.062553061  0.062748809            5 
 2819000   0.81657845   -3.4552042    2111.0626  0.062405778  0.062736015            8 
 2820000   0.79914501   -3.4549486    2108.8842  0.062319273  0.062723336            6 
 2821000   0.79703473   -3.4672191    2112.7823  0.062412334  0.062710581            5 
 2822000   0.80314798   -3.4460675    2116.4567  0.062498721  0.062697871            5 
 2823000   0.80807895    -3.458555     2110.249  0.062293335  0.062685222            4 
 2824000   0.81759281   -3.4893284    2110.6524  0.062283179  0.062672601            4 
 2825000   0.77661972   -3.4772223      2118.02  0.062478467  0.062659829            3 
 2826000   0.80413449   -3.4530715    2118.9052  0.062482461  0.062647233            6 
 2827000   0.80336264   -3.4896659    2119.9833  0.062492139  0.062634727            5 
 2828000   0.80691557   -3.4879328    2117.7598  0.062404522  0.062622128            5 
 2829000   0.79955303   -3.4623055    2125.1737  0.062600852   0.06260952            3 
 2830000   0.78855263   -3.4602722    2115.7922   0.06230248  0.062596925            4 
 2831000   0.78512893   -3.4777668    2113.5342  0.062214007   0.06258416            3 
 2832000   0.81455804    -3.450132    2113.0606  0.062178103  0.062571703            6 
 2833000   0.79991323   -3.4686556    2116.2138  0.062248906  0.062559006            2 
 2834000   0.80420604   -3.4540982    2116.0641  0.062222538  0.062546418            6 
 2835000   0.79447331    -3.477483    2116.4684  0.062212476  0.062533885            5 
 2836000   0.80449991    -3.459963    2125.7698   0.06246385  0.062521295            3 
 2837000   0.81928697   -3.4886576    2119.7011  0.062263574  0.062508633            5 
 2838000   0.78817455   -3.4908417    2118.5403  0.062207549  0.062495927            4 
 2839000   0.79800059    -3.451786    2128.6042  0.062481044  0.062483171            5 
 2840000   0.80327521   -3.4729888    2118.5018  0.062162613  0.062470598            3 
 2841000   0.79307644   -3.4665356    2126.0406  0.062361862     0.062458            3 
 2842000   0.79202804   -3.4574233    2120.4878    0.0621771  0.062445269            2 
 2843000   0.81465083   -3.4521691    2126.7269   0.06233811   0.06243255            4 
 2844000   0.78981615    -3.428985    2126.7076  0.062315622  0.062419924            3 
 2845000   0.78934902   -3.4635259     2121.843   0.06215123  0.062407343            7 
 2846000   0.80998511   -3.4679703    2124.8777  0.062218252  0.062394638            7 
 2847000   0.82159077     -3.48141    2119.6994  0.062044824  0.062381887            2 
 2848000   0.79705365   -3.4580355     2119.124  0.062006203  0.062369173            4 
 2849000   0.76263708   -3.4819395    2125.9104  0.062182941  0.062356345            5 
 2850000   0.79208158   -3.4800422    2116.6787  0.061891189  0.062343531            9 
 2851000   0.80157735   -3.4864155    2122.2318  0.062031797  0.062330719            4 
 2852000   0.79229768   -3.4687387    2121.8778  0.061999701  0.062318011            9 
 2853000   0.79605668   -3.4645202    2121.6584  0.061971563  0.062305328            4 
 2854000   0.79351272   -3.4802037    2130.5754  0.062210212  0.062292524            6 
 2855000   0.78547437   -3.4516144    2122.4861  0.061952309  0.062279731            3 
 2856000   0.79927664   -3.5036639    2122.1613  0.061921139  0.062267052            8 
 2857000   0.80496699    -3.441095    2127.0385  0.062041725  0.062254243            3 
 2858000   0.78690448   -3.4609826    2127.1467  0.062023172  0.062241648            3 
 2859000   0.77582863   -3.4711162    2127.2318  0.062003959  0.062228982            3 
 2860000   0.79438344   -3.4883391    2116.7249  0.061676134  0.062216215            3 
 2861000    0.8006439   -3.4621779    2122.6525  0.061827232  0.062203471            3 
 2862000   0.79119964   -3.4495615    2120.4151  0.061740483  0.062190603            5 
 2863000    0.7961601   -3.4688332    2125.7463  0.061874091  0.062177887            3 
 2864000   0.79721326   -3.5151994    2122.5404  0.061759205  0.062165194            3 
 2865000   0.80658281   -3.4749261    2125.1945  0.061814848  0.062152421            5 
 2866000   0.79842633   -3.4694308    2129.5586  0.061920175  0.062139802            4 
 2867000   0.78720692    -3.498179    2132.7721   0.06199198  0.062127138            2 
 2868000   0.81026934   -3.4731756    2130.5839  0.061906784  0.062114523            3 
 2869000   0.80753295   -3.4817397    2130.6802  0.061888004  0.062102042            6 
 2870000   0.79296335    -3.454069    2133.0037  0.061933904  0.062089503            3 
 2871000   0.80239459   -3.4903515    2134.2899  0.061949667  0.062077004            2 
 2872000   0.77183868   -3.4795042    2135.5526  0.061964735  0.062064442            6 
 2873000   0.79560505   -3.4706701    2136.2666  0.061963875  0.062051948            2 
 2874000   0.79517803   -3.4960379     2134.493  0.061890889  0.062039328            3 
 2875000   0.79764201   -3.4926062    2137.1769  0.061947158  0.062026741            3 
 2876000   0.79072373   -3.4710204    2140.6386   0.06202592  0.062014253            4 
 2877000   0.80775363   -3.4863931    2130.9971  0.061725092  0.062001731            4 
 2878000   0.78850562   -3.4772323       2137.3  0.061886147  0.061989097            8 
 2879000   0.78042287   -3.4730647    2136.5356  0.061842527  0.061976578            9 
 2880000   0.79125573   -3.4688806    2140.8397  0.061945594  0.061964042           10 
 2881000   0.78852906   -3.4784379    2137.5834  0.061829903  0.061951598            3 
 2882000   0.77604653   -3.4782676    2134.7547  0.061726656   0.06193917            5 
 2883000   0.80028995   -3.4904622    2140.4002   0.06186843  0.061926784            5 
 2884000   0.80374696   -3.5097392    2138.2258   0.06178415  0.061914299            6 
 2885000   0.77696594   -3.4740421    2136.4481  0.061711383  0.061901844            3 
 2886000   0.78602482   -3.5032945    2131.9494    0.0615601  0.061889263            8 
 2887000   0.80126492   -3.4954234     2132.495  0.061554527   0.06187667            6 
 2888000   0.81237959   -3.4854691     2136.916   0.06166078  0.061864006            3 
 2889000   0.78873073   -3.4677724    2143.3262   0.06182434  0.061851511            5 
 2890000   0.78797006   -3.4694098     2140.944  0.061734255  0.061839063            2 
 2891000   0.79820659   -3.4747682    2142.7538  0.061765071  0.061826542            8 
 2892000   0.77949049   -3.4779111    2139.0415  0.061636741   0.06181389            2 
 2893000   0.79416133   -3.4798543    2140.0034  0.061643143  0.061801523            6 
 2894000   0.80080035   -3.4660583    2150.7137  0.061930249  0.061789031            4 
 2895000   0.79882597   -3.4820964    2140.3657  0.061610987  0.061776518            3 
 2896000   0.77908964   -3.4845705    2144.1752  0.061699332  0.061763874            3 
 2897000   0.77494775   -3.4900377    2137.2772   0.06147961  0.061751104            2 
 2898000   0.78878971   -3.4775922    2139.5809  0.061524639  0.061738555            4 
 2899000   0.78585004    -3.468758    2141.7029  0.061564416  0.061726009            9 
 2900000   0.79894674   -3.4804036    2141.2859  0.061531203   0.06171337            5 
 2901000   0.78888913   -3.4913822    2135.3149  0.061338472    0.0617008            5 
 2902000   0.78393167   -3.4860965    2142.2854    0.0615175  0.061688156            7 
 2903000   0.79179806   -3.4665646    2142.4959  0.061502351  0.061675501            4 
 2904000    0.8028275   -3.4925929     2142.548  0.061482667  0.061662947            4 
 2905000   0.76371669   -3.4767196    2141.6542  0.061435863  0.061650376            4 
 2906000   0.79431051   -3.4795418    2146.0379  0.061540429   0.06163777            8 
 2907000   0.77846113   -3.4839941    2151.2888  0.061669786  0.061625208            5 
 2908000   0.77769889   -3.4774188    2147.4026  0.061537214   0.06161269            2 
 2909000   0.77695777   -3.4734417    2144.7861  0.061441104  0.061600054            4 
 2910000   0.78559202   -3.4577098    2150.9193  0.061595627  0.061587484            3 
 2911000   0.77502697   -3.4856224    2146.5604  0.061449685  0.061574976            4 
 2912000   0.77173853   -3.4590495    2150.7599  0.061548761  0.061562454            6 
 2913000    0.7950713   -3.4721283    2148.1516  0.061453016  0.061550051            5 
 2914000   0.77381959   -3.4912097    2148.6033  0.061444843  0.061537572            9 
 2915000   0.79130306   -3.4855071    2142.6173  0.061252638  0.061525018            6 
 2916000   0.80273051   -3.4899271    2146.0691  0.061330278  0.061512437            3 
 2917000   0.77178161   -3.4735988    2148.0719   0.06136647  0.061499777            6 
 2918000   0.79450604   -3.4817233    2148.2835  0.061351483  0.061487081           10 
 2919000   0.77358606   -3.4709892    2140.6805  0.061113409  0.061474475            7 
 2920000   0.78627038   -3.4921885    2147.9207  0.061299106   0.06146179            3 
 2921000   0.78396235   -3.4934982    2143.6119  0.061155195  0.061449094            5 
 2922000   0.77483623    -3.492506    2143.6561  0.061135527   0.06143644            2 
 2923000   0.76993089   -3.5221538    2147.4942  0.061224034  0.061423782            5 
 2924000   0.77639296   -3.4738614    2141.7854  0.061040395  0.061411163            9 
 2925000   0.78866413   -3.4739316    2158.9415  0.061508305    0.0613986            3 
 2926000   0.78619621   -3.4836588    2146.3301  0.061128107  0.061386106            5 
 2927000   0.78375589   -3.4777691    2148.3138    0.0611637  0.061373443            5 
 2928000    0.7727635     -3.51367    2147.3269  0.061114722   0.06136091            5 
 2929000   0.77429077   -3.4801507    2147.7338  0.061105435  0.061348282            3 
 2930000   0.79014242   -3.4909539    2149.6154  0.061138094  0.061335707            3 
 2931000    0.7734158   -3.5122865    2149.1348  0.061103572  0.061323068            5 
 2932000   0.78813081   -3.4954884    2151.8614  0.061160225  0.061310262            3 
 2933000    0.7690246   -3.4885439    2152.1687  0.061148104  0.061297576            9 
 2934000   0.76497441   -3.4964064    2148.8864  0.061034037  0.061284876            6 
 2935000   0.77387593   -3.5097613     2152.422   0.06111363  0.061272303            3 
 2936000   0.77649796   -3.4889428    2158.8757   0.06127599  0.061259694            2 
 2937000   0.77347764   -3.4940765      2154.61  0.061134094  0.061247207            4 
 2938000    0.7823952   -3.5460301    2141.5115   0.06074176  0.061234529           11 
 2939000   0.78633475   -3.4796436    2150.5351  0.060976951  0.061221871            2 
 2940000   0.79416404   -3.5034241      2156.05  0.061112528   0.06120919            3 
 2941000   0.77466807   -3.4959189    2151.6499  0.060967072  0.061196602            3 
 2942000   0.80506853   -3.4563398    2145.4444  0.060770577  0.061183951            8 
 2943000   0.78043933   -3.4809016    2152.1904  0.060940943  0.061171373            3 
 2944000   0.78986131   -3.4694304    2153.1527  0.060947484  0.061158775            5 
 2945000    0.7890504   -3.5218933    2153.6015  0.060939489  0.061146157            3 
 2946000   0.80359312   -3.4886666    2161.1987  0.061133705  0.061133605            4 
 2947000   0.79250899   -3.5141682    2150.1868  0.060801572  0.061121073            5 
 2948000   0.77013283   -3.4668665    2165.8658  0.061224157  0.061108558            4 
 2949000   0.76867751   -3.4822175    2154.7028  0.060887952  0.061096164            2 
 2950000    0.7804497   -3.5139515    2152.4404  0.060803401  0.061083672            8 
 2951000   0.77623997   -3.5101799    2159.9609  0.060995168  0.061070954            3 
 2952000    0.7640779   -3.4830133    2155.9341  0.060860833  0.061058352            6 
 2953000   0.78895292   -3.5173487    2155.2162  0.060819963  0.061045873           15 
 2954000   0.75949229   -3.5220526    2160.4384  0.060946695  0.061033356            3 
 2955000   0.78697995   -3.5065193    2156.6056  0.060817981  0.061020571            2 
 2956000   0.77896893   -3.5026838    2152.3689  0.060677968  0.061007891            6 
 2957000   0.78359636   -3.5058862    2155.1933  0.060737045  0.060995349            2 
 2958000   0.77657246   -3.5225541    2154.5176  0.060697477  0.060982659            6 
 2959000   0.77266091   -3.5145269    2162.0038  0.060887795  0.060969973            2 
 2960000   0.79335911   -3.5051546     2164.561  0.060939216  0.060957479            4 
 2961000    0.7927141   -3.4992242    2161.4059  0.060829841  0.060945082            6 
 2962000   0.77422141   -3.5055303     2157.269  0.060692916   0.06093262            3 
 2963000   0.77950248   -3.4962084    2159.3237  0.060730221  0.060920116            5 
 2964000   0.76127467   -3.4807633    2160.8927  0.060753845  0.060907705            4 
 2965000   0.76163484   -3.5090767    2164.4599  0.060833611  0.060895158            5 
 2966000   0.77848146   -3.4806139    2168.9068  0.060938041  0.060882586            4 
 2967000   0.76453356   -3.5059782    2158.6095  0.060628285  0.060870034            5 
 2968000   0.76070162    -3.487541    2164.0875  0.060761667  0.060857514            3 
 2969000   0.78632147   -3.5021352    2161.4484  0.060667127  0.060844941            7 
 2970000   0.75265944   -3.5265039    2161.2144  0.060640136  0.060832269            8 
 2971000   0.77554243   -3.5220601    2158.6392  0.060547492  0.060819699            7 
 2972000   0.77709503   -3.5222903    2159.8645  0.060561477  0.060807121            1 
 2973000   0.76803388   -3.4976807    2164.0341  0.060657979  0.060794666            4 
 2974000   0.74980768   -3.5113909    2164.6557  0.060655002  0.060782163            6 
 2975000   0.77949404   -3.5282025     2162.763  0.060581597  0.060769574           10 
 2976000   0.77185187   -3.4909544    2169.5414  0.060751048  0.060757155            6 
 2977000   0.78682821   -3.4921693    2156.9261  0.060377508   0.06074465            6 
 2978000   0.77326754   -3.5001912    2167.0785  0.060641329  0.060732134            7 
 2979000   0.76033981   -3.4937091    2164.9828  0.060562347  0.060719581            9 
 2980000    0.7778415   -3.5153967    2165.3609  0.060552597  0.060707015            5 
 2981000   0.76574949   -3.4891729    2164.5842  0.060510572  0.060694469            4 
 2982000   0.78639603     -3.52241    2168.2425  0.060592514  0.060681826           13 
 2983000   0.77405781   -3.5039613      2172.57  0.060693093   0.06066917            5 
 2984000   0.78023302   -3.5093143    2172.2395  0.060663526  0.060656744            3 
 2985000   0.78548168   -3.4965028    2170.6698  0.060599379  0.060644382            3 
 2986000   0.77392639   -3.5216823    2167.9104  0.060502076  0.060632071            4 
 2987000   0.76782071   -3.4957126    2170.5172  0.060554547  0.060619645            7 
 2988000   0.75954579   -3.4998671    2169.9132  0.060517436  0.060607157            3 
 2989000   0.76324649   -3.5193638    2160.4305  0.060232812  0.060594599            3 
 2990000   0.76793538    -3.513864    2169.6148   0.06046864   0.06058202            5 
 2991000   0.78065283   -3.4997903    2166.7564  0.060368784  0.060569596            7 
 2992000   0.76977163   -3.4901633    2171.7289  0.060487101  0.060557141            4 
 2993000   0.77827366   -3.5040918    2169.1513  0.060395124  0.060544699            5 
 2994000   0.75880218   -3.4758605    2172.5107  0.060468455  0.060532188            4 
 2995000    0.7773598   -3.5356258    2172.7864  0.060455936  0.060519758            4 
 2996000   0.75446269   -3.4961831    2172.4092  0.060425268  0.060507147            5 
 2997000   0.77237508   -3.5090961     2168.741   0.06030311  0.060494683            4 
 2998000   0.76471884   -3.5016739    2173.2786  0.060409123  0.060482238            3 
 2999000   0.76202219   -3.5172612    2176.3309  0.060473793  0.060469682            3 
 3000000   0.76206224   -3.5212938    2163.1271  0.060086863  0.060457123            5 
 3001000    0.7695806   -3.4930084    2174.0074  0.060368972  0.060444759            4 
 3002000   0.78692896   -3.5115409    2173.8803  0.060345333  0.060432329            5 
 3003000   0.76287581   -3.4808167    2175.7481   0.06037707  0.060419877            5 
 3004000   0.77265667   -3.5168135    2172.2036  0.060258643  0.060407517            3 
 3005000   0.76866468   -3.5114148    2168.6076  0.060138869  0.060395097            7 
 3006000    0.7659469   -3.5169493    2170.2344  0.060163961  0.060382769            4 
 3007000   0.76693346   -3.5021208    2179.0653  0.060388686  0.060370475            3 
 3008000   0.77172307    -3.521094    2171.9137  0.060170483  0.060358159            6 
 3009000   0.77088643   -3.5180627     2182.565  0.060445469  0.060345807            4 
 3010000   0.78043053   -3.5204375    2176.2665  0.060251011  0.060333545            3 
 3011000    0.7706423   -3.5040558    2189.0517  0.060584848   0.06032134            3 
 3012000   0.76618484   -3.4981958    2184.6334  0.060442492  0.060309071            3 
 3013000    0.7547744   -3.5090011    2180.1802  0.060299264  0.060296889            5 
 3014000   0.74919843   -3.4890002    2181.3388  0.060311291  0.060284699            3 
 3015000   0.77410055   -3.4976636    2182.2771  0.060317222  0.060272483            5 
 3016000   0.76009434   -3.5258646    2181.3342  0.060271171   0.06026021            5 
 3017000    0.7698519   -3.4894025    2179.0834  0.060189024  0.060248004            4 
 3018000   0.76565812   -3.5015783    2181.0081  0.060222224  0.060235814            4 
 3019000   0.78347948   -3.5255459     2171.868  0.059949984  0.060223564            5 
 3020000   0.76280573   -3.5133326    2178.6897  0.060118368   0.06021142            5 
 3021000   0.76051026   -3.5207441    2182.8048  0.060211983  0.060199116            5 
 3022000   0.75674766   -3.5437164    2180.0082  0.060114942  0.060186873            3 
 3023000   0.76144064   -3.5022547    2184.7869  0.060226785  0.060174747            4 
 3024000   0.75269546   -3.5086356    2189.5976   0.06033944   0.06016256            7 
 3025000   0.77333299   -3.5197074    2190.1724  0.060335328  0.060150348            3 
 3026000   0.77338806   -3.4864671    2192.9991  0.060393234  0.060138234           10 
 3027000   0.75751307   -3.5223371    2182.7394  0.060090833  0.060126168            2 
 3028000   0.76743755   -3.5106921       2181.8  0.060045134  0.060114085            6 
 3029000   0.75048192    -3.477862    2185.5879  0.060129524  0.060102088            4 
 3030000   0.79043504   -3.5228302    2191.8466   0.06028181  0.060090114            5 
 3031000   0.78049718   -3.5068001    2186.5112  0.060115232  0.060078087            4 
 3032000   0.76802685   -3.5073526     2192.853  0.060269706  0.060066053            4 
 3033000   0.75227566   -3.5251953    2179.8162  0.059891643  0.060053826            8 
 3034000   0.76912873   -3.5123575    2190.6767  0.060170202  0.060041698            6 
 3035000    0.7543317   -3.4967152    2191.5781  0.060175127  0.060029666            3 
 3036000   0.77820057   -3.5285913    2188.9865  0.060084169  0.060017658            5 
 3037000   0.76442948    -3.526813    2188.3084   0.06004578  0.060005605            5 
 3038000   0.75722238   -3.5140624    2189.6183  0.060061946  0.059993478            2 
 3039000    0.7659896   -3.5509383    2189.6168  0.060042142  0.059981284            8 
 3040000   0.76421258     -3.50818    2192.6109  0.060104465  0.059969095            4 
 3041000   0.77650915   -3.5258063    2188.2608  0.059965495  0.059957183            6 
 3042000   0.77349365   -3.5281435     2191.021  0.060021394   0.05994502            5 
 3043000   0.75845812   -3.5135437     2188.486  0.059932249  0.059933028            3 
 3044000   0.76083645   -3.4950879    2192.0264  0.060009484  0.059921051            5 
 3045000   0.75524963   -3.5104303    2189.0872  0.059909337   0.05990895            4 
 3046000   0.76169395   -3.5127278     2185.624  0.059794923  0.059896865            3 
 3047000   0.76397775   -3.5340987    2188.1026  0.059843087  0.059884833            5 
 3048000   0.77508998   -3.5380088     2198.489   0.06010742  0.059872702            9 
 3049000   0.78048585   -3.5158065    2199.4417  0.060113746  0.059860654           10 
 3050000   0.75170343   -3.5485052    2185.6478  0.059717154  0.059848473            7 
 3051000   0.77156177   -3.5180376    2192.0405  0.059872187  0.059836297            4 
 3052000   0.77905098    -3.514982    2189.8276  0.059792147  0.059824196            3 
 3053000   0.77394348   -3.5007806    2198.7564  0.060016278  0.059812085            3 
 3054000   0.75714243   -3.5174961     2200.352  0.060040167  0.059799904            3 
 3055000   0.76669635   -3.5253358    2192.2325  0.059799031  0.059787634            4 
 3056000   0.76900228   -3.5169975    2194.4351  0.059839527  0.059775524            5 
 3057000   0.76940899   -3.5021179    2196.1336  0.059866252   0.05976338            4 
 3058000   0.76985953    -3.517866    2196.4298  0.059854747  0.059751357            6 
 3059000   0.74661817   -3.5120265    2201.9594  0.059985817  0.059739275            7 
 3060000   0.76702846   -3.5160178    2191.7886  0.059689232  0.059727098            3 
 3061000   0.76090862   -3.5320653    2192.9543  0.059701467  0.059715152            8 
 3062000    0.7608765   -3.5271221    2192.6736  0.059674332  0.059702865            3 
 3063000   0.76725895   -3.5367084    2191.9618  0.059635482  0.059690691            7 
 3064000   0.74876136   -3.5423338    2202.1911  0.059894232  0.059678572            8 
 3065000   0.74452246   -3.5184834    2188.6485  0.059506485  0.059666421            9 
 3066000   0.76487934   -3.5372324    2191.0633  0.059552711  0.059654205            6 
 3067000   0.76450901   -3.4948555    2201.6224  0.059820192  0.059642113            3 
 3068000   0.75785006   -3.5211769    2198.3048  0.059710581  0.059630096            5 
 3069000   0.77257292   -3.5587742    2199.0897   0.05971244   0.05961797            7 
 3070000   0.76506516   -3.5420907    2199.8968  0.059714896  0.059605879            8 
 3071000   0.76646589   -3.5190629    2198.5507  0.059658924  0.059593861            9 
 3072000   0.75098545   -3.5364781     2198.945    0.0596502  0.059581677            4 
 3073000   0.75114328   -3.5187486    2204.1602  0.059772214  0.059569567            8 
 3074000   0.77699573   -3.5301368      2200.62    0.0596568  0.059557355            2 
 3075000   0.77416699   -3.5342906    2189.7724  0.059343425  0.059545218            4 
 3076000     0.760416   -3.5161021    2200.3779  0.059611452   0.05953319            5 
 3077000   0.77194278   -3.5265652    2201.8847  0.059632885  0.059521011            4 
 3078000     0.781611   -3.5109524    2200.1769  0.059567275  0.059508818           15 
 3079000   0.75796798   -3.4907648    2203.5621   0.05963955  0.059496705            5 
 3080000   0.77067747   -3.5204988    2196.5221  0.059429711  0.059484559            4 
 3081000   0.76107384   -3.5420829    2201.3967  0.059542267  0.059472315            7 
 3082000   0.75742716   -3.5359654    2200.0089  0.059485423  0.059460214            4 
 3083000   0.76001968   -3.5228592    2210.6397  0.059753478  0.059448047            6 
 3084000   0.76546894   -3.5191041    2199.5712   0.05943502   0.05943589            4 
 3085000   0.75073147   -3.5314769    2208.2222  0.059649437  0.059423752            5 
 3086000   0.76815087   -3.5284798    2204.5326  0.059530475  0.059411549            6 
 3087000   0.74835738   -3.5347254    2202.8799  0.059466576  0.059399376            3 
 3088000   0.76844537   -3.5228082    2199.4061  0.059353575  0.059387107            6 
 3089000   0.75846316   -3.5314938    2198.7654  0.059317076  0.059375012            3 
 3090000    0.7490381   -3.5243569    2205.1107  0.059469006  0.059362932           12 
 3091000   0.76506052   -3.5454395    2203.9361  0.059418097  0.059350772            8 
 3092000   0.76277619    -3.509634    2207.3837  0.059491798  0.059338677            5 
 3093000   0.76574632   -3.5437635    2199.7163  0.059265985  0.059326641            7 
 3094000   0.75661117   -3.5094662    2205.1543  0.059393295  0.059314535            6 
 3095000   0.76606422   -3.5214063    2204.1079  0.059345932  0.059302385            5 
 3096000   0.73944917   -3.5228529    2206.4463  0.059389705  0.059290297            4 
 3097000   0.76400512   -3.5303983    2202.0319  0.059251747   0.05927808            2 
 3098000   0.75720017   -3.5318905    2208.4003  0.059403925  0.059265929            4 
 3099000   0.75096791   -3.5470903    2207.6169  0.059363689  0.059253744            5 
 3100000   0.77740329   -3.5600002    2199.4247  0.059124319  0.059241627            3 
 3101000   0.75050061   -3.5209011    2205.4656  0.059267591  0.059229483            7 
 3102000   0.74545549   -3.5486638    2208.5016  0.059330046  0.059217333            3 
 3103000   0.75057361   -3.5194765    2206.8743  0.059267223  0.059205118            6 
 3104000   0.76357678   -3.5444297    2202.3971   0.05912793  0.059192928            5 
 3105000   0.77267881   -3.5343793    2210.9858  0.059339392  0.059180758            4 
 3106000   0.75670984   -3.5152665    2210.0886  0.059296218  0.059168705            5 
 3107000   0.75725684   -3.5130886    2211.9771  0.059327785  0.059156576            5 
 3108000   0.74853646   -3.5364422    2204.6757  0.059112926  0.059144385            6 
 3109000   0.75210511    -3.558532    2200.1852  0.058973549  0.059132052            4 
 3110000   0.76658315   -3.5552992    2198.8524  0.058918876  0.059119695            2 
 3111000   0.76661976   -3.5292962     2211.207  0.059230875  0.059107334            7 
 3112000   0.73314194   -3.5550123    2202.3469  0.058974584  0.059095007            4 
 3113000   0.76968577   -3.5298325    2202.6439  0.058963592  0.059082561            4 
 3114000   0.75776115   -3.5407423    2208.1738  0.059092641  0.059070196            4 
 3115000   0.76685138   -3.5691571    2202.9011  0.058932615  0.059057799           11 
 3116000   0.76162279   -3.5363901    2203.6934  0.058934891  0.059045317            4 
 3117000   0.75437616    -3.531051    2202.9339  0.058895678  0.059032921            3 
 3118000    0.7577345   -3.5250016    2200.2423  0.058804851  0.059020532            3 
 3119000   0.74883356   -3.5475681    2204.2975  0.058894345   0.05900811            6 
 3120000   0.76983652   -3.5453884    2209.7921  0.059022226  0.058995643            3 
 3121000   0.76825502   -3.5343677    2210.2777  0.059016279  0.058983175            7 
 3122000   0.76734852   -3.5289582    2210.6037  0.059006078  0.058970855            4 
 3123000   0.73849092   -3.5300346    2210.0754  0.058973087  0.058958664           12 
 3124000   0.75289635   -3.5292133    2202.8486  0.058761433  0.058946286            3 
 3125000    0.7420988   -3.5295247    2210.2317  0.058939513   0.05893383            2 
 3126000   0.74807262    -3.550571    2210.9113  0.058938773  0.058921384           10 
 3127000   0.74636157   -3.5373727    2208.3269  0.058851054  0.058908968            4 
 3128000   0.74341205   -3.5289699      2216.58   0.05905211  0.058896642            3 
 3129000   0.76250495   -3.5635043    2212.2844  0.058918836  0.058884446            4 
 3130000   0.74445986   -3.5286001    2208.1496  0.058789927  0.058872133            3 
 3131000   0.73678877   -3.5423112    2211.2954  0.058854876   0.05885994            5 
 3132000   0.74178344   -3.5572709    2204.8054  0.058663404  0.058847645            5 
 3133000   0.75139711   -3.5393005    2206.3972  0.058687021  0.058835427            7 
 3134000    0.7460178   -3.5513917    2210.6661  0.058781805  0.058823315            4 
 3135000    0.7433558   -3.5314567    2207.5495  0.058680209  0.058811149            5 
 3136000   0.75695867   -3.5467536    2207.0181  0.058647378  0.058798846            5 
 3137000    0.7516434     -3.55241    2205.4264    0.0585864  0.058786657            3 
 3138000   0.76766916   -3.5504832    2209.1539  0.058666716  0.058774362           12 
 3139000   0.74661943   -3.5151097     2220.568  0.058951046  0.058762069            3 
 3140000   0.74988068   -3.5452248    2218.2187  0.058869923   0.05874981           11 
 3141000   0.75454544   -3.5436761    2214.3301  0.058748013  0.058737512            3 
 3142000   0.76269132    -3.562839     2204.507  0.058468782  0.058725161            4 
 3143000   0.73945975   -3.5565644    2216.5589  0.058769724  0.058712816            4 
 3144000   0.73810104   -3.5215615    2210.6614  0.058594716  0.058700441            3 
 3145000   0.75849006   -3.5648608    2217.8198   0.05876576  0.058688105            5 
 3146000   0.75823587   -3.5047829    2221.9299  0.058855953  0.058675905            5 
 3147000   0.78002177   -3.5546795    2217.5763  0.058721965  0.058663705            3 
 3148000   0.74829178   -3.5468502    2213.7005  0.058600711  0.058651372            3 
 3149000   0.74040604   -3.5402315    2213.8261  0.058585428  0.058639039            4 
 3150000   0.76059244    -3.540974     2214.025  0.058572091  0.058626749            4 
 3151000   0.75627537   -3.5596743    2208.5112  0.058407681  0.058614249            6 
 3152000    0.7523849   -3.5511364    2212.7866  0.058502184  0.058601866            3 
 3153000   0.75763316   -3.5372027    2210.9257  0.058434445  0.058589471            8 
 3154000   0.76226641   -3.5639847    2220.1615  0.058659944  0.058577174            6 
 3155000   0.72726945   -3.5607325    2211.5969  0.058415133  0.058564861            6 
 3156000   0.74946026   -3.5633473    2214.2745  0.058467324  0.058552486            5 
 3157000   0.75264371   -3.5659095    2212.2979   0.05839663  0.058540014           16 
 3158000   0.75078619   -3.5501823    2214.5906  0.058438637  0.058527646            5 
 3159000     0.754636   -3.5540941    2213.1905  0.058383204   0.05851535           14 
 3160000   0.71675954   -3.5369068    2213.4664  0.058372005  0.058503049            9 
 3161000   0.73759919   -3.5615166    2221.6362  0.058568918   0.05849061            9 
 3162000    0.7375923   -3.5469019    2220.4052  0.058517952  0.058478226            6 
 3163000   0.73623855   -3.5558699    2216.0158  0.058383807  0.058465961            3 
 3164000   0.73762487   -3.5526237     2224.638  0.058592445  0.058453585            8 
 3165000   0.74853983   -3.5587746    2214.0529  0.058295231  0.058441205            8 
 3166000   0.72901316   -3.5541975    2218.0831  0.058382899  0.058428914            5 
 3167000   0.74710625   -3.5423786    2219.7766  0.058409025  0.058416565            3 
 3168000     0.732155   -3.5376128    2217.0024  0.058317614  0.058404359            3 
 3169000   0.72366791   -3.5403209    2213.5807  0.058209232   0.05839198            3 
 3170000    0.7534457   -3.5430389    2214.9573  0.058227059  0.058379517            4 
 3171000   0.73901731    -3.540412    2220.8926  0.058364674  0.058367173            4 
 3172000   0.73032129   -3.5646065    2216.4662  0.058229988  0.058354781            6 
 3173000   0.73004943   -3.5366627    2223.7768  0.058403634  0.058342338            7 
 3174000    0.7333573   -3.5324104    2222.5181  0.058352187  0.058329945            7 
 3175000   0.74450403    -3.558405    2219.6307  0.058258023  0.058317652            6 
 3176000   0.71869054   -3.5703721    2220.5313   0.05826331  0.058305253            4 
 3177000    0.7440737   -3.5648953     2218.813  0.058199902  0.058292954            7 
 3178000   0.74566945   -3.5486308    2218.7125  0.058178952  0.058280642            4 
 3179000   0.74266956   -3.5377469    2224.8919  0.058322636  0.058268288            9 
 3180000   0.73937988   -3.5437073    2219.8662  0.058172595   0.05825593            3 
 3181000   0.73895447   -3.5624315    2218.9403  0.058130051   0.05824358            7 
 3182000   0.74793809   -3.5340657    2230.1964  0.058406569  0.058231301            6 
 3183000   0.73663509   -3.5475422    2215.6076  0.058006273  0.058219016            5 
 3184000    0.7494754   -3.5654641    2220.0225  0.058103603   0.05820659            3 
 3185000   0.74152121   -3.5539227    2227.1497  0.058271839  0.058194245            3 
 3186000   0.73754486   -3.5406545    2224.2019  0.058176446   0.05818192            4 
 3187000    0.7405476   -3.5564437    2224.0296  0.058153687  0.058169561            4 
 3188000   0.74808639   -3.5667714    2223.4295  0.058119758  0.058157127            4 
 3189000   0.75847518   -3.5620491    2219.5773  0.058000871  0.058144869            6 
 3190000   0.71621371   -3.5583913    2224.6775  0.058115921  0.058132508            9 
 3191000    0.7524583   -3.5408419    2220.5581  0.057990131  0.058120121            4 
 3192000   0.74132912   -3.5725392    2219.0232  0.057931891  0.058107774            5 
 3193000   0.73661271   -3.5424277    2225.5914  0.058085171   0.05809535            4 
 3194000   0.73533845   -3.5677978    2224.4171  0.058036348  0.058083008            4 
 3195000   0.75099451    -3.536417     2223.662  0.057998487  0.058070609            7 
 3196000   0.74700054   -3.5667503     2230.526  0.058159315  0.058058206            3 
 3197000   0.72776639   -3.5811415    2220.5903  0.057882137  0.058045887            3 
 3198000   0.73497996   -3.5495218    2229.9999  0.058109232  0.058033482            2 
 3199000   0.74078094    -3.574655     2220.245  0.057836954  0.058021135            4 
 3200000   0.74881049   -3.5526156    2226.2864  0.057976209   0.05800877            5 
 3201000   0.72956722   -3.5315129    2221.3956  0.057830771  0.057996344            3 
 3202000    0.7507983   -3.5945698    2219.6434   0.05776711  0.057984051            4 
 3203000   0.72981209   -3.5743204    2219.8399  0.057754186  0.057971623            3 
 3204000   0.72225918   -3.5839771     2232.753  0.058072018  0.057959246            3 
 3205000   0.73833639   -3.5605918    2229.7007  0.057974536  0.057946962            5 
 3206000   0.74748428   -3.5790615     2234.357  0.058077484  0.057934668            4 
 3207000   0.75928011    -3.559883    2234.3752  0.058059848  0.057922482            5 
 3208000   0.74532678   -3.5468792    2235.3438  0.058066911  0.057910382            2 
 3209000   0.74787922   -3.5712886    2231.7978  0.057956732  0.057898169            5 
 3210000   0.73958962   -3.5653815    2229.5363  0.057879967  0.057885927            4 
 3211000   0.72647395   -3.5414402    2226.6297  0.057786507  0.057873732            5 
 3212000   0.71523875   -3.5739922    2228.5033  0.057817125  0.057861529            7 
 3213000   0.73624229   -3.5686987    2231.2893  0.057871389  0.057849238            3 
 3214000   0.74651848   -3.5628419    2231.9155  0.057869621  0.057836932            4 
 3215000   0.72993261    -3.569939    2237.2665  0.057990319  0.057824716            4 
 3216000   0.73436186   -3.5598234    2227.6836  0.057723973  0.057812433            6 
 3217000   0.72539853   -3.5821696    2222.8151  0.057579915  0.057800108            3 
 3218000    0.7203003   -3.5671106    2225.7623  0.057638344  0.057787786            9 
 3219000   0.73954153   -3.5608427    2226.4798  0.057639012   0.05777548            5 
 3220000   0.74624946   -3.5834692    2228.4581  0.057672312  0.057763141            2 
 3221000   0.73835306   -3.5764487    2229.7052  0.057686671  0.057750785            5 
 3222000   0.73547255   -3.5838345    2231.8077  0.057723146  0.057738477            3 
 3223000   0.73057897   -3.5547331    2230.2852  0.057665871  0.057726241            4 
 3224000   0.74427582   -3.5566485    2231.4143   0.05767717  0.057714003            3 
 3225000   0.73867125   -3.5713496    2234.5611  0.057740596   0.05770178            8 
 3226000   0.73676613   -3.5594763    2233.1665  0.057686674  0.057689567           10 
 3227000   0.73386781   -3.5676281    2233.0329  0.057665347  0.057677267            6 
 3228000   0.72930439   -3.5879942    2234.9333  0.057696543  0.057664883            3 
 3229000   0.71467133   -3.5596943    2235.5755  0.057695249   0.05765264            9 
 3230000   0.73316719   -3.5522957    2228.7682  0.057501759   0.05764044           10 
 3231000   0.75108237   -3.5684358    2227.0011  0.057438386  0.057628136            7 
 3232000   0.72527927   -3.5678638    2242.2466  0.057813703  0.057615905            5 
 3233000   0.73709286   -3.5754469    2231.2588  0.057512599  0.057603764            4 
 3234000   0.73336359   -3.5802424    2231.2981  0.057495828  0.057591454            6 
 3235000   0.73571404     -3.57682    2237.4333  0.057636096  0.057579181            3 
 3236000    0.7323192   -3.5643908    2236.6586  0.057598337  0.057566918            2 
 3237000   0.73922208   -3.5608882    2242.5768  0.057732901  0.057554658            8 
 3238000   0.73949783   -3.5753453     2236.406  0.057556259  0.057542336            3 
 3239000   0.73760681   -3.5823077     2234.252   0.05748307   0.05753008            5 
 3240000    0.7335301   -3.5909731    2242.1431  0.057668289  0.057517898            5 
 3241000   0.73279053   -3.5660502    2240.1065   0.05759813   0.05750568            8 
 3242000   0.72047746   -3.5725221    2236.2439  0.057481079  0.057493452            4 
 3243000   0.73726983   -3.5552518    2240.2289  0.057565755  0.057481318            5 
 3244000   0.73891298   -3.5933794    2233.0502    0.0573636   0.05746907            5 
 3245000   0.75203708   -3.5851011    2230.7272  0.057286265  0.057456832            7 
 3246000    0.7282295    -3.580717    2234.7724   0.05737247  0.057444608            5 
 3247000   0.72839698   -3.5704171    2239.7076  0.057481461  0.057432458            4 
 3248000   0.74213494   -3.5534655    2245.2791  0.057606708  0.057420206            4 
 3249000   0.74068891   -3.5601927     2233.471  0.057286115  0.057408051            5 
 3250000   0.73230074   -3.5763199    2242.9746  0.057512169  0.057395852            7 
 3251000   0.72911037   -3.5661917    2246.3385  0.057580707  0.057383637            2 
 3252000   0.73001607   -3.5546617    2238.3997  0.057359565  0.057371623            9 
 3253000   0.73734745   -3.5588802    2242.1815  0.057438813  0.057359553            6 
 3254000   0.73121354   -3.5835747    2236.3509  0.057271842  0.057347508            4 
 3255000   0.73090091   -3.5742261    2238.6627  0.057313433   0.05733517            9 
 3256000    0.7214459    -3.574701    2242.1345  0.057384686  0.057322929            5 
 3257000   0.73334351   -3.5785276    2237.6807  0.057253114  0.057310686            5 
 3258000   0.74058704   -3.5588788    2248.3165  0.057507585  0.057298536            4 
 3259000   0.72804738   -3.5730373    2237.7664   0.05722017  0.057286317            5 
 3260000   0.73813755   -3.5828201    2241.9709  0.057310094  0.057274096            4 
 3261000   0.72490457   -3.5915848    2238.1257  0.057194257  0.057261745            7 
 3262000     0.738857   -3.5882211    2238.2984  0.057181135  0.057249514            6 
 3263000    0.7400464   -3.5839924    2250.5384  0.057476207  0.057237255            4 
 3264000   0.74475591   -3.5832067    2246.4258  0.057353599  0.057225023            5 
 3265000   0.72251899     -3.57943    2243.5702   0.05726315  0.057212724            6 
 3266000   0.73611065   -3.5984249    2240.7588  0.057173882  0.057200512            4 
 3267000   0.72089276   -3.5785936    2247.9313  0.057339335    0.0571883            3 
 3268000   0.71296003   -3.5738846    2245.4885  0.057259499  0.057176121            4 
 3269000   0.73142479   -3.5783362    2245.1191  0.057232566  0.057163808            3 
 3270000   0.74096108   -3.5851918    2247.2278  0.057268801   0.05715161            8 
 3271000   0.73815934    -3.589435    2253.8919  0.057421072  0.057139479            4 
 3272000    0.7329288   -3.5627625    2243.3825  0.057135862  0.057127408            5 
 3273000   0.72026035   -3.5480346    2249.4992  0.057274142  0.057115268            6 
 3274000   0.72788962   -3.5761937    2246.5886  0.057182564  0.057103106            8 
 3275000   0.72796134   -3.5769232    2249.6918  0.057244066  0.057090908            4 
 3276000   0.71169013   -3.5717231    2248.3254  0.057191835  0.057078754            3 
 3277000    0.7248501   -3.5770882     2243.436  0.057050046  0.057066625            9 
 3278000   0.74082404   -3.5828001    2243.0342  0.057022428  0.057054386            4 
 3279000   0.72469864   -3.6014971    2243.8306  0.057025278  0.057042121            4 
 3280000   0.72966155   -3.5782822    2253.7685  0.057260379  0.057029941            3 
 3281000   0.71250153   -3.5662016    2245.6599  0.057036979  0.057017831            6 
 3282000   0.73884949   -3.6005007    2246.0324  0.057029059  0.057005661            5 
 3283000   0.73588805    -3.605415    2247.3096  0.057044105  0.056993361            7 
 3284000   0.73606309   -3.6130144    2248.9958  0.057069525  0.056981228            3 
 3285000   0.73783055   -3.5815349    2252.3158  0.057136372  0.056969035            4 
 3286000   0.73166794   -3.5607377    2249.0265  0.057035568  0.056956989            4 
 3287000   0.74661491   -3.6137648     2244.418  0.056901379  0.056944893            7 
 3288000   0.73377625   -3.5985574    2251.5573  0.057065018  0.056932744            3 
 3289000   0.72236547   -3.5675437    2255.0266  0.057135567  0.056920666            4 
 3290000   0.72300423   -3.5816424     2251.043    0.0570173  0.056908668            6 
 3291000   0.72421433   -3.5757138    2253.0203  0.057050043  0.056896564           11 
 3292000   0.73088496    -3.577358    2251.2856  0.056988802  0.056884484            3 
 3293000   0.72256869   -3.5790544    2247.3429  0.056871721  0.056872368           10 
 3294000   0.71622577   -3.5870699    2245.0279   0.05679589  0.056860265            4 
 3295000   0.74145379   -3.5475582    2258.1441  0.057110371  0.056848252            5 
 3296000     0.739923   -3.5463345    2256.2648   0.05704553  0.056836302            4 
 3297000   0.72395186   -3.6059837    2251.8663  0.056917053  0.056824386           11 
 3298000    0.7269011   -3.5828909     2258.537  0.057068351  0.056812431            2 
 3299000   0.73260789   -3.5963843    2248.8955  0.056807505  0.056800582            9 
 3300000    0.7328629    -3.592629     2252.227  0.056874418  0.056788541            3 
 3301000   0.70849017   -3.5742957    2265.2757  0.057186602  0.056776648           13 
 3302000    0.7194815   -3.6052503    2263.3325  0.057120242  0.056764701            5 
 3303000   0.72839561   -3.5881512    2251.3145   0.05679974  0.056752764            4 
 3304000    0.7303318   -3.5999874    2259.8792  0.056998567  0.056740805           12 
 3305000   0.73269176   -3.5751161    2258.9905  0.056958912  0.056728892            4 
 3306000   0.72340397   -3.5894182    2247.9975  0.056664588  0.056717016            4 
 3307000   0.71611542   -3.5868091    2258.2569  0.056905981  0.056705167            9 
 3308000   0.72567073   -3.5808288    2255.4137  0.056817152  0.056693178            4 
 3309000    0.7209679   -3.5708038    2264.3707  0.057025553  0.056681282            2 
 3310000   0.73046268   -3.5796579    2254.9188  0.056770362  0.056669387            7 
 3311000   0.72237759   -3.5854696    2257.6098  0.056820946  0.056657405            4 
 3312000   0.73635756   -3.6023892    2259.5934  0.056853699  0.056645357           10 
 3313000   0.72046429   -3.5962867    2254.1441   0.05669947  0.056633337            8 
 3314000   0.73370507   -3.5860782    2261.9457  0.056878539  0.056621394            6 
 3315000   0.70141913   -3.5867233    2259.6123  0.056802722  0.056609387            5 
 3316000    0.7269379   -3.5894691    2254.0514  0.056645843  0.056597393            8 
 3317000   0.73211388    -3.592159    2250.5176  0.056539986  0.056585267            3 
 3318000   0.71917649   -3.5864374    2251.6024   0.05655019  0.056573252            4 
 3319000   0.72941083   -3.5752435    2260.9343  0.056767457  0.056561312            6 
 3320000   0.72216206   -3.5814422    2265.3559  0.056861343  0.056549374            6 
 3321000   0.70730458   -3.6002951    2253.2923  0.056541511  0.056537236            6 
 3322000   0.72533593   -3.6046753    2259.8982  0.056690202  0.056525157            5 
 3323000   0.71977589    -3.600788    2259.5402  0.056664163  0.056512997            8 
 3324000   0.71778193    -3.592536     2255.701  0.056550867  0.056500891            5 
 3325000   0.71865326   -3.6006788    2258.3141  0.056599351  0.056488728            4 
 3326000    0.7161182   -3.5779885    2261.6934  0.056667002  0.056476646            2 
 3327000   0.72063502   -3.5797781     2253.288  0.056439436  0.056464566            6 
 3328000   0.71376406   -3.5773948    2258.9693  0.056564735   0.05645237            2 
 3329000   0.70972133   -3.5936174      2250.99  0.056348002  0.056440173            4 
 3330000   0.72765605   -3.5785887    2263.2672  0.056638318  0.056428074            5 
 3331000   0.70955448   -3.5922517    2257.1158  0.056467423   0.05641602            2 
 3332000   0.72065488   -3.5941872    2260.7861   0.05654227  0.056403889            3 
 3333000   0.71771069   -3.6024742    2260.7221  0.056523704  0.056391783            6 
 3334000   0.70427236   -3.6008454    2259.0254  0.056464342  0.056379605            4 
 3335000   0.73255958    -3.594938    2257.1716  0.056401088  0.056367527            5 
 3336000   0.72227218   -3.6007836     2261.231  0.056485586  0.056355435            4 
 3337000   0.70872168   -3.5788241    2250.3854  0.056197817  0.056343226            6 
 3338000   0.72523348   -3.5980136    2262.9785  0.056495369  0.056331166            6 
 3339000   0.73233919    -3.612531    2262.9829  0.056478559  0.056318954           12 
 3340000   0.72872562   -3.6207457    2256.6997  0.056304884  0.056306766            5 
 3341000   0.71733637   -3.5842976    2263.1735  0.056449504  0.056294637            5 
 3342000   0.73605234   -3.6007387    2260.3639  0.056362554  0.056282504            5 
 3343000   0.71628703   -3.5891534    2264.8471  0.056457452  0.056270355            8 
 3344000   0.71525435   -3.6020564    2260.7434  0.056338303  0.056258209            5 
 3345000   0.71526479   -3.6024138    2255.9874  0.056202974  0.056246165            3 
 3346000   0.72620055    -3.578152    2258.3147  0.056244141  0.056234004            3 
 3347000    0.7208146   -3.6166949    2254.4462  0.056131018  0.056221864            5 
 3348000   0.71527413   -3.5952497    2258.0833  0.056204782  0.056209686            6 
 3349000   0.72462897   -3.6091928    2254.7021  0.056103863  0.056197479            4 
 3350000   0.71510248   -3.5854772    2263.9164  0.056316328  0.056185315            4 
 3351000   0.71607497   -3.6135016    2258.4494  0.056163569  0.056173182            5 
 3352000   0.71429894   -3.6024201     2263.886   0.05628197  0.056161054            4 
 3353000   0.71973992   -3.6141994     2257.081  0.056096059   0.05614884            4 
 3354000   0.72576654   -3.5932231    2259.0807  0.056129017  0.056136566           13 
 3355000   0.72314309   -3.5816238    2264.4048   0.05624453   0.05612447            7 
 3356000   0.70156721   -3.5686286    2256.1935  0.056023875  0.056112319            3 
 3357000   0.70667253   -3.6345341    2261.3798   0.05613593  0.056100088            5 
 3358000   0.71658084   -3.5894848    2270.7653  0.056352126  0.056087948            3 
 3359000   0.72023145   -3.5875974    2264.1532  0.056171312  0.056075771            3 
 3360000   0.70076719   -3.6169895    2251.7761  0.055847622  0.056063523            4 
 3361000   0.71174433   -3.6245512     2258.985  0.056009745  0.056051217            7 
 3362000   0.72054456    -3.577997    2268.1227   0.05621958  0.056038977            7 
 3363000   0.69303285   -3.5945938    2258.2315  0.055957763  0.056026747            6 
 3364000   0.71020439   -3.5844803    2259.5726  0.055974351  0.056014487            3 
 3365000   0.71982752   -3.5887271      2263.96  0.056066368  0.056002418            4 
 3366000   0.71209774   -3.6130836    2264.5131  0.056063406  0.055990253            5 
 3367000   0.71045508   -3.5945355    2259.7578  0.055929061  0.055978067            6 
 3368000   0.70475113   -3.6119146    2271.0241  0.056191213  0.055965926            6 
 3369000   0.71442851   -3.6059566    2256.6482  0.055818942  0.055953744            4 
 3370000   0.70650219   -3.6310013    2255.0389  0.055762584  0.055941436            6 
 3371000    0.7125191   -3.5909326    2258.4361  0.055830024  0.055929162            7 
 3372000   0.71285362    -3.604722    2267.9229  0.056047918  0.055916989            6 
 3373000   0.71841131   -3.6027405    2264.2113    0.0559396  0.055904755            5 
 3374000   0.70821772   -3.6062766    2261.7912  0.055863249  0.055892519            5 
 3375000   0.72596362   -3.5730231    2268.5711    0.0560141  0.055880375            4 
 3376000   0.72864061   -3.6263458     2262.136  0.055838665  0.055868179           10 
 3377000   0.71058268   -3.5759039    2264.8203   0.05588837  0.055855951            4 
 3378000   0.71204264   -3.6208109    2266.3192  0.055908801  0.055843838            6 
 3379000   0.73065383   -3.6037675    2263.5215  0.055823259   0.05583165            6 
 3380000   0.70210459   -3.6171553    2263.2906   0.05580105  0.055819469            9 
 3381000   0.71138487   -3.6043168    2264.6082  0.055817021   0.05580736           11 
 3382000   0.71759239   -3.5886735    2265.6251  0.055825575  0.055795193           16 
 3383000   0.70709514   -3.6021358    2266.1749  0.055822615  0.055783077           10 
 3384000   0.69968629   -3.6168211    2270.3563   0.05590909  0.055770917            4 
 3385000   0.70064768   -3.6056908    2270.2445  0.055889819  0.055758788            5 
 3386000   0.70140735   -3.6120582    2269.1188  0.055845609  0.055746685            6 
 3387000   0.68916745   -3.5972229    2277.5455  0.056036451  0.055734625            3 
 3388000   0.72748682   -3.6262898    2273.3979  0.055917893   0.05572257            5 
 3389000   0.71257011    -3.593076    2267.5275  0.055757046  0.055710557           10 
 3390000   0.70281538   -3.6299297    2267.6559  0.055743753  0.055698508            5 
 3391000   0.71396252   -3.6307477    2274.7647  0.055902014  0.055686513            4 
 3392000   0.71327543   -3.6015689    2269.9975  0.055768414  0.055674527            4 
 3393000   0.69878625    -3.590712    2272.9156  0.055823647   0.05566258            3 
 3394000   0.70171921   -3.5960016     2276.003  0.055883004  0.055650678            5 
 3395000    0.7048392   -3.6252377    2279.2501  0.055946246  0.055638731            7 
 3396000   0.72222177   -3.6178031    2275.4459  0.055836423  0.055626682           11 
 3397000    0.6949979   -3.5891321    2274.0694  0.055786217  0.055614781            3 
 3398000    0.7038329   -3.6066621    2271.5762  0.055708657  0.055602829            5 
 3399000   0.70979249   -3.6231724    2274.5778  0.055765857   0.05559086            8 
 3400000   0.70702956   -3.6100377    2274.8036  0.055754991  0.055578975            9 
 3401000   0.70793049   -3.6083576    2279.3941  0.055851077  0.055567121            4 
 3402000   0.70209524   -3.6206483    2274.1774  0.055706873  0.055555298            4 
 3403000   0.71737188   -3.6095602    2274.0419  0.055687185  0.055543533            6 
 3404000   0.69764773   -3.6150809    2278.6321  0.055783198  0.055531716            7 
 3405000   0.70658077   -3.6075583    2282.6869  0.055866052  0.055519936            3 
 3406000   0.70304213   -3.6211504    2277.2702  0.055717121  0.055508158            5 
 3407000   0.69892739   -3.6341546    2278.8938  0.055740481  0.055496342            8 
 3408000   0.70577828   -3.6299245    2285.5983  0.055888064    0.0554845            9 
 3409000   0.72217049   -3.5962067    2280.9487  0.055758011  0.055472619            7 
 3410000   0.70836927   -3.6301278    2280.7355  0.055736449  0.055460825            4 
 3411000   0.70263015   -3.6175526    2277.4757  0.055640471  0.055448903            5 
 3412000   0.71300859   -3.6064272    2269.8245  0.055437292  0.055437038            5 
 3413000   0.69494515   -3.6217557    2279.2613  0.055651461  0.055425236            7 
 3414000   0.70345377   -3.6043141    2276.3623  0.055564398  0.055413433            5 
 3415000   0.69508697   -3.5905854    2283.3155  0.055717801  0.055401693            6 
 3416000   0.70466399   -3.6165049    2280.8751  0.055641957  0.055389878            3 
 3417000   0.70125855    -3.599156    2288.9883  0.055823536  0.055378113            5 
 3418000   0.72028234   -3.6172063    2280.5019    0.0556003  0.055366286            5 
 3419000   0.69651466   -3.6111443    2285.4403  0.055704403  0.055354552            4 
 3420000   0.72590469   -3.6123266    2279.4959  0.055543273  0.055342761            6 
 3421000   0.69700742    -3.627247    2274.5323  0.055406126  0.055330918            4 
 3422000   0.70119913   -3.6102673    2284.2602  0.055626831  0.055319109            7 
 3423000   0.70939823   -3.5948514    2274.6346  0.055376243   0.05530734            6 
 3424000   0.68783995   -3.6154803    2281.3119  0.055522583  0.055295635            4 
 3425000    0.7080803   -3.6514916    2278.9363  0.055448573  0.055283691           10 
 3426000   0.69387607   -3.6046077    2281.7462  0.055500736  0.055271965            6 
 3427000   0.70126429   -3.6174493    2289.2558  0.055667149  0.055260134            5 
 3428000   0.70095547   -3.6379052    2282.7672  0.055493173  0.055248398            4 
 3429000   0.71476786   -3.6189904    2280.8525   0.05543046  0.055236478            8 
 3430000   0.71502467   -3.6169706    2278.3587  0.055353711  0.055224641            4 
 3431000   0.72330799   -3.6350127    2285.7658  0.055517482  0.055212906           17 
 3432000   0.70855447     -3.61779    2283.6686  0.055450385  0.055201194            6 
 3433000   0.70149269   -3.6095603    2290.7852  0.055606982  0.055189475           13 
 3434000   0.71048892   -3.6342987    2289.6999   0.05556445  0.055177753            9 
 3435000   0.69942879   -3.6167942    2286.8445  0.055479003  0.055166013            5 
 3436000   0.70697921   -3.6339462    2284.9103  0.055415948  0.055154202            6 
 3437000   0.69854565   -3.6323524    2280.6398  0.055296281  0.055142423            7 
 3438000   0.72016424   -3.6253938    2283.3432  0.055345725  0.055130543            3 
 3439000   0.71794657   -3.6229288    2284.8315  0.055365695  0.055118663            5 
 3440000   0.69189088   -3.5985607    2288.3455  0.055434725  0.055107013            3 
 3441000   0.70144126   -3.6305307    2285.5853  0.055351771  0.055095265            5 
 3442000    0.7082326    -3.629376    2284.1336  0.055300542  0.055083405            4 
 3443000   0.69690458   -3.6342236    2285.1165   0.05530827  0.055071572            6 
 3444000   0.72119006   -3.6207873     2289.321  0.055393946  0.055059793            9 
 3445000   0.69902583   -3.6154116    2286.8341  0.055317708  0.055047994            7 
 3446000   0.70239398     -3.63528    2287.7684  0.055324251  0.055036248            6 
 3447000     0.706545   -3.6077569    2287.3779   0.05529876  0.055024416           11 
 3448000   0.69744423   -3.6215111    2287.2516  0.055279669  0.055012624           14 
 3449000   0.69717979   -3.6271282    2284.1799  0.055189423  0.055000887            7 
 3450000   0.68180773   -3.6233272    2283.3569  0.055153549  0.054989127            7 
 3451000    0.6979872   -3.6176343    2289.6776  0.055290195  0.054977373            3 
 3452000   0.70289649   -3.6226866    2277.8965  0.054989777  0.054965497            4 
 3453000   0.70707371   -3.6283862    2291.7034  0.055307062  0.054953803            5 
 3454000   0.70206762   -3.6199605    2291.9031  0.055295867  0.054942064           22 
 3455000   0.68932037   -3.6199551    2284.6071  0.055103887  0.054930295            4 
 3456000   0.69532196   -3.6311296    2286.4835  0.055133186  0.054918576           10 
 3457000   0.68688866   -3.6285036    2296.5806  0.055360637  0.054906742            5 
 3458000   0.70296394    -3.620955    2291.6444  0.055225671  0.054895069            4 
 3459000   0.69965777   -3.6445882    2294.4219  0.055276619  0.054883465            5 
 3460000   0.70145197   -3.6333722    2289.5361  0.055142971  0.054871805            8 
 3461000   0.70583682   -3.6463506    2286.4274  0.055052187  0.054860131            5 
 3462000   0.69032541   -3.6294117    2290.7196  0.055139602  0.054848499            2 
 3463000   0.68929911   -3.6421637    2293.3473  0.055186911   0.05483683            9 
 3464000   0.70375528   -3.6328485    2298.0415  0.055283908  0.054825139            6 
 3465000   0.69797948   -3.6298396    2294.2988  0.055177941  0.054813313            9 
 3466000   0.70331181   -3.6412151    2292.8984  0.055128352  0.054801717            5 
 3467000   0.70124405   -3.6419606    2290.7718  0.055061334  0.054790005           11 
 3468000   0.70952775   -3.6392591    2288.5237  0.054991438  0.054778306           10 
 3469000   0.70440837   -3.6231632    2292.6454  0.055074598  0.054766649            6 
 3470000   0.69201357   -3.6024202    2293.0953  0.055069533  0.054754968            7 
 3471000   0.70461065   -3.6335045    2292.6904  0.055043944  0.054743272            6 
 3472000   0.68727405   -3.6261465    2296.4277  0.055117792  0.054731566            8 
 3473000   0.69881382   -3.6457899    2295.1884  0.055072185  0.054719841            5 
 3474000   0.70117454   -3.6424744     2294.353  0.055036294  0.054708077            5 
 3475000   0.69048435   -3.6398038    2295.7297  0.055053469  0.054696316            8 
 3476000   0.69948503   -3.6354376    2284.4255  0.054766627  0.054684449            5 
 3477000   0.68973688   -3.6304545    2298.2232  0.055081564  0.054672591            6 
 3478000   0.69862997   -3.6323242    2298.3906  0.055069739  0.054660957            3 
 3479000   0.68811476   -3.6193475    2292.6384  0.054916125  0.054649231            4 
 3480000   0.70615712   -3.6445099    2291.8435  0.054881309  0.054637387            6 
 3481000   0.70232944   -3.6396224    2293.4406  0.054903777  0.054625618            7 
 3482000    0.6925358   -3.6532656      2296.74  0.054966974  0.054613828            5 
 3483000   0.67341815   -3.6321233    2291.7037  0.054830694  0.054601984            3 
 3484000   0.71089887   -3.6305508    2293.0613  0.054847429  0.054590168            5 
 3485000   0.70185104   -3.6475228    2285.8015  0.054658094  0.054578369            4 
 3486000   0.69417155   -3.6469535    2294.6308  0.054853481  0.054566514            4 
 3487000   0.69061107   -3.6187879    2293.4622  0.054809823  0.054554615            8 
 3488000   0.70389627   -3.6351053    2288.6968  0.054680256  0.054542798            6 
 3489000   0.69800481   -3.6416375    2287.3765   0.05463305  0.054530995           10 
 3490000   0.69076615    -3.628154    2297.7376  0.054864795    0.0545192            4 
 3491000   0.68426175   -3.6078593    2286.7433  0.054586635  0.054507348            9 
 3492000   0.68566477   -3.6248893     2292.123  0.054699383  0.054495538           10 
 3493000   0.69708439   -3.6190668    2291.9263  0.054679031   0.05448379            8 
 3494000   0.70087548   -3.6154032    2299.5899  0.054846161  0.054472045            6 
 3495000   0.68839817   -3.6378266    2296.0365  0.054745743  0.054460243            3 
 3496000   0.70056155   -3.6467089    2298.5279  0.054789471  0.054448408            5 
 3497000   0.68159513   -3.6405404    2295.2474   0.05469563  0.054436563            8 
 3498000   0.70387917   -3.6456869    2291.6582  0.054594488  0.054424737            4 
 3499000   0.68510067   -3.6308773    2298.0402  0.054730881  0.054413009            8 
 3500000   0.68964846   -3.6280858    2299.4201  0.054748098  0.054401234           10 
 3501000   0.68427015   -3.6490817    2291.1704  0.054536094  0.054389434            2 
 3502000   0.69045696    -3.643773    2295.5081  0.054623741  0.054377676            4 
 3503000   0.68725805   -3.6260099    2293.3833    0.0545576  0.054365917            7 
 3504000   0.70134246   -3.6448649    2295.9569  0.054603238  0.054354035            9 
 3505000   0.68904226   -3.6285277    2299.9085  0.054681609  0.054342232           10 
 3506000   0.68633686    -3.642861    2288.0986  0.054385307  0.054330323           16 
 3507000    0.6965154   -3.6359826    2298.6242  0.054619908  0.054318514            6 
 3508000   0.69107633   -3.6642644    2297.3735  0.054574628  0.054306731            9 
 3509000   0.70281326   -3.6344397    2302.1737  0.054673072  0.054294996            3 
 3510000   0.70163838   -3.6226225    2297.4184  0.054544595  0.054283267            4 
 3511000   0.69896194   -3.6251114    2299.5074  0.054578644  0.054271567            3 
 3512000   0.68839777   -3.6165269    2296.1005  0.054482262  0.054259816            7 
 3513000   0.69301517   -3.6571349     2297.532  0.054500712   0.05424795            7 
 3514000   0.69084491    -3.638152    2304.1803  0.054642864  0.054236093            3 
 3515000   0.69735677   -3.6393223    2296.3713  0.054442184  0.054224323           10 
 3516000   0.68760868   -3.6395367    2301.4451  0.054546955  0.054212571            3 
 3517000    0.6922906   -3.6432147    2300.0785  0.054499065  0.054200813            4 
 3518000   0.71567351   -3.6234398    2306.3467  0.054632051  0.054189148           12 
 3519000   0.68881108   -3.6209453    2298.5308   0.05443144  0.054177402            5 
 3520000   0.69474654   -3.6618798    2297.8552  0.054399982   0.05416569            5 
 3521000   0.69236839   -3.6542227    2293.5033  0.054281531  0.054153842            5 
 3522000   0.68318713    -3.643712    2296.8455    0.0543452   0.05414199            3 
 3523000   0.68975322   -3.6479699    2301.1373  0.054431291  0.054130117            4 
 3524000   0.69219389    -3.645134    2290.8989  0.054173735   0.05411827            4 
 3525000   0.67374607   -3.6583946    2290.7492  0.054154828  0.054106368           10 
 3526000   0.67790456   -3.6513945    2294.5424  0.054229116  0.054094453            6 
 3527000   0.69604722   -3.6419383    2305.0037  0.054460912  0.054082507            6 
 3528000   0.68657631   -3.6449982    2303.6063   0.05441247  0.054070648            6 
 3529000    0.6839688   -3.6540615     2303.013  0.054383041  0.054058818            5 
 3530000   0.67513096   -3.6334356    2292.7426   0.05412518  0.054047041            6 
 3531000   0.68530971   -3.6399342    2297.0773  0.054212152  0.054035077            7 
 3532000    0.6854669   -3.6505931    2291.6813  0.054069492  0.054023118            5 
 3533000   0.68000048   -3.6452908    2296.0121  0.054156337  0.054011229            5 
 3534000   0.69600813   -3.6355701    2300.0675  0.054236641  0.053999368           14 
 3535000   0.67958683   -3.6387486    2294.5386  0.054090961   0.05398742            4 
 3536000   0.69846581   -3.6747009    2297.3839  0.054142721  0.053975484            5 
 3537000   0.67984746   -3.6398373    2302.4955  0.054247844  0.053963523            4 
 3538000   0.69357701   -3.6571683    2296.1619  0.054083332  0.053951618            9 
 3539000   0.68820076   -3.6223948    2301.4789  0.054193248  0.053939768            5 
 3540000   0.69117192   -3.6298235    2306.6398  0.054299431  0.053927881            7 
 3541000   0.69581841    -3.649375    2303.0524  0.054199669  0.053916014            6 
 3542000   0.70589264   -3.6332686    2298.7246  0.054082548  0.053904116            3 
 3543000   0.67985612   -3.6256657    2307.9513    0.0542843  0.053892343            4 
 3544000   0.65935008   -3.6442323    2295.4795  0.053975721  0.053880484           11 
 3545000   0.67918083   -3.6438214    2303.4266  0.054147311  0.053868657            9 
 3546000   0.68549505   -3.6337888    2301.4694  0.054086045  0.053856881            7 
 3547000   0.68457935   -3.6642855    2296.0254  0.053942896  0.053845067           15 
 3548000   0.68147954   -3.6671521    2302.3662  0.054076621   0.05383312            5 
 3549000   0.69867266   -3.6437446     2299.957  0.054004814  0.053821262            6 
 3550000   0.69859407    -3.640822    2305.1225  0.054110857  0.053809388            8 
 3551000   0.68253058   -3.6504437    2304.2298   0.05407467  0.053797497            4 
 3552000    0.6693887   -3.6514968    2298.4876  0.053924728  0.053785617            8 
 3553000   0.68435336   -3.6466218    2299.0788  0.053923416  0.053773717           12 
 3554000   0.67447773   -3.6597605    2303.7164  0.054016985  0.053761852            4 
 3555000   0.68912313   -3.6716642    2302.7178  0.053978383   0.05375006            4 
 3556000   0.67042873   -3.6332313    2297.6521   0.05384449   0.05373822            8 
 3557000    0.6736802   -3.6589084    2299.8764  0.053881464  0.053726426            7 
 3558000   0.68516692   -3.6676643    2305.3871  0.053995388  0.053714549            5 
 3559000   0.69259265   -3.6814862    2298.2255  0.053812528  0.053702661            3 
 3560000   0.67823044   -3.6210243    2306.3291  0.053987104  0.053690791            5 
 3561000   0.67479243   -3.6666421    2295.0111  0.053707085  0.053678915            4 
 3562000   0.67184278   -3.6607859    2303.7827  0.053897217  0.053667071            3 
 3563000   0.68941847   -3.6671991     2304.459  0.053897909  0.053655249            5 
 3564000   0.67127746   -3.6436421    2306.7053  0.053935309  0.053643561            4 
 3565000   0.67699597   -3.6678357    2311.0812  0.054022468  0.053631948            8 
 3566000   0.67993442   -3.6560966    2308.0826  0.053937246  0.053620137            5 
 3567000   0.68428297   -3.6498565     2308.891  0.053941011  0.053608384            3 
 3568000   0.65373975   -3.6598502    2304.8824  0.053832268  0.053596604            6 
 3569000   0.67755044   -3.6318563    2308.0204  0.053890454    0.0535848           13 
 3570000    0.6892241   -3.6464191    2306.0943  0.053830398  0.053573064           11 
 3571000   0.68113804   -3.6580928    2302.2373  0.053725316  0.053561233            5 
 3572000   0.68513276   -3.6610423    2309.5214  0.053880212  0.053549455            6 
 3573000    0.6883252   -3.6721228    2308.3961  0.053838885  0.053537701            3 
 3574000   0.67204732   -3.6581446    2301.4935  0.053662877    0.0535258            5 
 3575000   0.68849886   -3.6549016    2301.6368  0.053651208   0.05351394            7 
 3576000   0.66694211   -3.6496891    2306.8699  0.053758155  0.053502149            4 
 3577000   0.67679447   -3.6785656    2311.0198  0.053839806   0.05349026            8 
 3578000   0.67550805   -3.6658048     2304.197  0.053665852  0.053478423            9 
 3579000   0.68365685   -3.6720844    2298.9456  0.053528584  0.053466671            6 
 3580000    0.7017338   -3.6559385    2300.2205  0.053543307  0.053454787            5 
 3581000   0.68746965   -3.6377671     2309.081  0.053734549  0.053442893           10 
 3582000    0.6827466   -3.6549618    2302.5663  0.053567987  0.053431066            9 
 3583000   0.68139397   -3.6701706    2309.9721  0.053725279  0.053419223            6 
 3584000   0.68029922   -3.6328751    2304.4375  0.053581602  0.053407483           10 
 3585000   0.68361816   -3.6681101    2306.0743  0.053604703  0.053395769           11 
 3586000   0.66605501   -3.6462029    2312.0839  0.053729408  0.053383998            4 
 3587000   0.68229985   -3.6449072    2309.0396  0.053643705  0.053372192           10 
 3588000   0.66369259   -3.6459841    2302.3341  0.053473015  0.053360343            8 
 3589000   0.68290855   -3.6548489    2306.9748  0.053565869  0.053348478           13 
 3590000   0.68585541    -3.656245    2306.7409  0.053545517  0.053336636            6 
 3591000   0.66978909   -3.6628382    2301.3734  0.053406047  0.053324745            6 
 3592000    0.6703915   -3.6563943    2307.8839  0.053542221  0.053312875           16 
 3593000   0.67451148   -3.6660621    2303.8235  0.053433146  0.053301064            3 
 3594000   0.67180126   -3.6430555    2312.5361  0.053620295  0.053289214            3 
 3595000   0.67058506   -3.6618244    2307.1234  0.053479912  0.053277401            8 
 3596000   0.69024814    -3.668225    2308.9072  0.053506378  0.053265534            8 
 3597000   0.69109376   -3.6325998    2310.7348  0.053533844  0.053253745           12 
 3598000   0.67375438   -3.6666574    2307.6722  0.053448031  0.053241936            5 
 3599000   0.68431755   -3.6654226     2306.436  0.053404557  0.053230112           10 
 3600000   0.67551436   -3.6530457    2306.2283  0.053384914  0.053218289            4 
 3601000   0.67128439   -3.6675136    2311.6197  0.053494855  0.053206417           10 
 3602000   0.65260508   -3.6658447    2307.4408  0.053383324  0.053194645            7 
 3603000   0.67564267   -3.6774895    2304.8872  0.053309447  0.053182759            6 
 3604000   0.68275294   -3.6655963    2310.4766  0.053423895  0.053170986            8 
 3605000   0.67759421   -3.6604292    2311.6818  0.053436934  0.053159132            5 
 3606000   0.67971939   -3.6631867    2310.1171  0.053385956  0.053147366            3 
 3607000   0.67281576   -3.6559526    2314.1786  0.053464989  0.053135636            6 
 3608000    0.6844172   -3.6666743    2314.2873  0.053452682   0.05312384            6 
 3609000   0.68691343   -3.6635247    2302.8391  0.053173527   0.05311202            7 
 3610000   0.67184797   -3.6625157    2309.2066  0.053305784  0.053100231            6 
 3611000   0.67417743   -3.6842815    2308.6276   0.05327766  0.053088391            6 
 3612000   0.67390152   -3.6802461    2312.2884  0.053347369  0.053076605            8 
 3613000   0.67609437    -3.677738    2315.4637  0.053405843  0.053064718            4 
 3614000   0.67937931   -3.6723687    2314.6164  0.053371526  0.053052951           14 
 3615000   0.66425098   -3.6660797    2317.9177  0.053432866  0.053041136            5 
 3616000   0.68963158    -3.674904    2309.3199  0.053219946  0.053029287            7 
 3617000   0.67177679   -3.6730033    2307.5898  0.053165371  0.053017429            6 
 3618000   0.67023156   -3.6917612    2307.4133  0.053146612  0.053005576            6 
 3619000   0.67716923   -3.6731145     2311.001   0.05321454  0.052993758           14 
 3620000    0.6578669   -3.6836384    2316.6779  0.053330522  0.052981924            7 
 3621000   0.67351206   -3.6661924    2317.2409  0.053328751  0.052970127            9 
 3622000   0.67461222   -3.6704472    2316.9975  0.053308429  0.052958347            8 
 3623000   0.67846306   -3.6566789    2310.8107  0.053151409   0.05294654            9 
 3624000   0.67484975   -3.6712057    2314.1031  0.053212452  0.052934748           10 
 3625000   0.66239506   -3.6724974    2313.6723  0.053187869  0.052923006            4 
 3626000   0.67436769   -3.6911085    2309.1253  0.053068701  0.052911225            7 
 3627000   0.67074071   -3.6717793    2309.9873  0.053073874  0.052899462            6 
 3628000   0.68597915    -3.658552    2318.7609   0.05326077   0.05288767            6 
 3629000   0.67286356    -3.655694    2310.8864  0.053065271  0.052875898            8 
 3630000   0.68505174   -3.6647908    2318.4381  0.053224015  0.052864097            4 
 3631000   0.67534074   -3.6560579    2318.9702  0.053221569  0.052852307            7 
 3632000   0.67169565   -3.6622268    2314.5012  0.053104378  0.052840525           13 
 3633000   0.66634463   -3.6984596    2313.8155  0.053074033  0.052828702            4 
 3634000   0.66017334   -3.6657651    2318.9118  0.053176293  0.052816977            7 
 3635000   0.67132804   -3.6771369    2319.6831  0.053179346  0.052805258            5 
 3636000   0.66929395     -3.68651    2314.4423  0.053044606  0.052793436            7 
 3637000   0.65653836   -3.6752546    2317.3767  0.053097258  0.052781663            5 
 3638000   0.64285012   -3.6791198    2313.5087   0.05299406  0.052769913            4 
 3639000   0.66285623   -3.6832173    2315.0035  0.053013728  0.052758177           11 
 3640000   0.66340088   -3.6527484    2317.1016  0.053047197   0.05274645            8 
 3641000   0.67435172   -3.6805281    2313.1978   0.05294328  0.052734714            3 
 3642000   0.65460627   -3.6763231    2313.8093  0.052942735  0.052722967            7 
 3643000   0.66283494   -3.6764339    2317.1428  0.053004455  0.052711195           13 
 3644000   0.66793055   -3.6742872    2314.4092  0.052927396  0.052699511            5 
 3645000   0.66930092   -3.6653058    2315.7001   0.05294239  0.052687824            4 
 3646000    0.6626696   -3.6831768    2315.9731  0.052934109  0.052676145            7 
 3647000   0.67128821   -3.6794495     2314.969  0.052896651  0.052664382            4 
 3648000   0.67422392   -3.6835919    2322.6444  0.053057483  0.052652641           10 
 3649000   0.65855116   -3.6964113    2317.1248  0.052916891  0.052640859            4 
 3650000   0.67434386   -3.6760845    2317.2192  0.052904548  0.052629069            4 
 3651000   0.66442965   -3.6716367    2318.3312  0.052915438  0.052617419            5 
 3652000   0.67283733   -3.7083715    2315.4607  0.052835447  0.052605745            9 
 3653000     0.673123   -3.6830335    2317.0099  0.052856326  0.052594022           11 
 3654000   0.67235843    -3.697289    2322.0641  0.052957128  0.052582263            8 
 3655000   0.66700262   -3.6592256    2324.2227  0.052991853  0.052570576            7 
 3656000   0.66730131   -3.6693122    2323.0064  0.052949636  0.052558912            7 
 3657000   0.67354562   -3.6722015    2322.5203  0.052924079  0.052547219            6 
 3658000   0.66689696   -3.6961853    2320.1844  0.052856398  0.052535606            3 
 3659000   0.66091209   -3.6810192    2319.6689  0.052830212  0.052523998            8 
 3660000   0.68139651   -3.6606824    2320.6945  0.052839128  0.052512379           18 
 3661000   0.67273791   -3.6865291    2319.3062  0.052793094  0.052500742           13 
 3662000   0.66697789   -3.6900152    2322.8352  0.052858983  0.052489178            7 
 3663000   0.65606523   -3.6757657    2323.6986  0.052864196  0.052477582            6 
 3664000   0.66360087   -3.6654044    2320.3616  0.052773871  0.052466013            6 
 3665000   0.66169963   -3.6706914    2324.0354  0.052843006  0.052454408            7 
 3666000   0.67065319   -3.6949534     2316.942  0.052667348  0.052442838            6 
 3667000   0.66415999   -3.7143132    2320.3691  0.052730869  0.052431177            8 
 3668000    0.6617234   -3.6818469    2320.6086  0.052721933  0.052419488            6 
 3669000    0.6531686   -3.6814954    2322.7376  0.052755919  0.052407861            3 
 3670000   0.66441792    -3.695084    2325.1661  0.052796686  0.052396195            7 
 3671000   0.67530605   -3.6938518    2319.8041  0.052660584  0.052384563            4 
 3672000   0.66151084   -3.6823523    2319.1539  0.052631488  0.052372859            9 
 3673000   0.66281841    -3.689206    2330.5761  0.052876307  0.052361276            9 
 3674000   0.66073346    -3.722228    2321.6936  0.052660443  0.052349615            9 
 3675000   0.66982034   -3.6832632    2322.5893  0.052666423  0.052338032            4 
 3676000   0.66925912   -3.6821811     2326.537  0.052741589  0.052326391            3 
 3677000   0.63814499   -3.6841966    2321.2404  0.052607206  0.052314804            6 
 3678000   0.65702369   -3.7011746    2321.6861  0.052603003  0.052303173            4 
 3679000   0.65905499   -3.6574469    2323.5657   0.05263128  0.052291563           17 
 3680000   0.66017466   -3.6852831    2322.6843  0.052597019  0.052280006            8 
 3681000   0.66681513   -3.6630496    2322.9858  0.052589555  0.052268395            9 
 3682000   0.64381793   -3.6780888    2327.5816  0.052679288  0.052256775            5 
 3683000   0.66740303   -3.6724056    2328.5236  0.052686297  0.052245179            6 
 3684000   0.66479052   -3.6972987    2327.3881  0.052646311  0.052233603            4 
 3685000   0.65467827   -3.6932492    2329.0572  0.052669769   0.05222195            6 
 3686000   0.68104604   -3.6880099    2326.9782  0.052608477   0.05221041            6 
 3687000   0.66761396    -3.712835    2324.0399  0.052527799  0.052198757            7 
 3688000   0.63076387   -3.6823538    2330.1881   0.05265248   0.05218714            6 
 3689000   0.67403971   -3.7051168    2330.2478  0.052639554   0.05217557            5 
 3690000   0.65310972   -3.6775016    2320.7953  0.052411819  0.052164013            8 
 3691000   0.65115702   -3.7057548    2325.7509  0.052509503  0.052152402            7 
 3692000   0.65407561   -3.6910597    2331.9499    0.0526352  0.052140819           11 
 3693000   0.65494832   -3.7136726    2327.1263  0.052512101   0.05212935            5 
 3694000   0.66665321   -3.6955356    2327.7722  0.052512456  0.052117862            6 
 3695000    0.6597776   -3.6990318    2336.2765  0.052690042   0.05210636            5 
 3696000   0.68694715   -3.6910897    2327.8234  0.052485196  0.052094908           11 
 3697000   0.66671625   -3.6858998    2326.9541  0.052451405  0.052083466            4 
 3698000   0.66122246   -3.7013493     2325.073   0.05239483  0.052072002            7 
 3699000   0.66274274   -3.6848523    2322.0816  0.052313274  0.052060496            9 
 3700000   0.65584145    -3.666098    2331.7934  0.052517869  0.052048944           16 
 3701000   0.65952219   -3.6895999    2339.4304  0.052675638  0.052037511           14 
 3702000   0.65413215   -3.6773998    2331.4453  0.052481661  0.052026043            8 
 3703000   0.66314135   -3.7093137    2330.9864  0.052457161  0.052014579            7 
 3704000   0.66937984   -3.7036056    2330.7929  0.052438646  0.052003051            4 
 3705000   0.66861498   -3.7011458    2326.3821  0.052325283  0.051991538            6 
 3706000   0.67458437   -3.6760669    2329.7305  0.052386456  0.051980072            7 
 3707000   0.65409292   -3.7100534    2327.3384  0.052318551  0.051968456           16 
 3708000    0.6658896   -3.7035311    2322.4778  0.052195204  0.051956849            5 
 3709000   0.66021275    -3.683317    2332.6041  0.052408647  0.051945459            7 
 3710000   0.64654301   -3.6882796    2335.8069  0.052466461  0.051934079            6 
 3711000   0.67415824   -3.7043539    2335.2251  0.052439259  0.051922601            4 
 3712000   0.66171687   -3.6710047    2331.9006  0.052350498  0.051911275            5 
 3713000   0.65597347   -3.6993329    2336.5766  0.052441346  0.051899867            5 
 3714000   0.67140338   -3.7132861    2331.9038   0.05232238  0.051888371            8 
 3715000   0.65529833   -3.6898726    2334.6957  0.052370921   0.05187701            7 
 3716000   0.66034221     -3.70935     2330.507  0.052262895  0.051865501           14 
 3717000   0.65474056    -3.690936     2335.184  0.052353691  0.051854007            6 
 3718000   0.66218795   -3.7059754    2325.6556  0.052126045  0.051842501            6 
 3719000   0.65855295   -3.7068963    2329.9342  0.052207901  0.051831015           10 
 3720000   0.66676471   -3.6999623    2331.4443  0.052227695  0.051819511            4 
 3721000   0.67209831    -3.690337    2336.7762  0.052333068  0.051808063            3 
 3722000   0.66602311   -3.7122699    2331.5694  0.052202431  0.051796664            9 
 3723000   0.66371981   -3.6915513    2328.8722  0.052128038  0.051785201            8 
 3724000   0.66171171   -3.7038432    2327.2408  0.052077533    0.0517738            7 
 3725000   0.65248753   -3.7034499    2336.3014   0.05226625  0.051762354            5 
 3726000   0.65333392   -3.6867107     2340.913  0.052355363  0.051750856            6 
 3727000   0.66013527   -3.7116995    2335.7601  0.052226101  0.051739403            7 
 3728000   0.65045661   -3.7013714    2335.1211  0.052197808  0.051727881            7 
 3729000   0.66301957   -3.6928058    2332.4661  0.052124478  0.051716441            9 
 3730000   0.66105915   -3.7013178     2337.394  0.052220599  0.051704957            8 
 3731000   0.65476813   -3.6951153    2340.7756  0.052282131  0.051693514            5 
 3732000   0.66242496   -3.7064085    2339.8946   0.05224845   0.05168203            6 
 3733000   0.65451149   -3.7065457    2334.8135  0.052121028  0.051670527            6 
 3734000   0.65546875   -3.6994279    2335.0263  0.052111818  0.051659104            6 
 3735000   0.64455151   -3.6990603    2335.8659  0.052116598  0.051647612            8 
 3736000   0.65236228    -3.715114    2329.2324  0.051954685  0.051636151            6 
 3737000   0.66543189   -3.7043383    2333.4686  0.052035247  0.051624659            7 
 3738000   0.65729817   -3.6808018    2334.6526  0.052047722  0.051613202            8 
 3739000   0.64732235   -3.6947436    2333.0209  0.051997434  0.051601745            7 
 3740000   0.64752863   -3.7020699    2340.6874  0.052154355  0.051590319            8 
 3741000   0.63498207    -3.699605     2337.783  0.052075715   0.05157891            9 
 3742000   0.65336032   -3.6711519    2334.7124  0.051993417  0.051567461            9 
 3743000   0.64539891   -3.6964813    2339.0072  0.052075145  0.051556132            4 
 3744000   0.65175875   -3.6949358    2335.0071  0.051972203  0.051544743            8 
 3745000   0.65024212   -3.6773129    2334.0641  0.051937341  0.051533331           10 
 3746000   0.65542294   -3.6892986    2335.3496  0.051952074  0.051521887            7 
 3747000   0.65196884   -3.7071086     2340.271   0.05204766  0.051510507            8 
 3748000   0.65024052   -3.7114126    2339.1377  0.052008576  0.051499092            6 
 3749000   0.64320411   -3.7038567    2339.8253  0.052009988   0.05148764            8 
 3750000   0.63838697   -3.7100596    2342.0239  0.052044975  0.051476303            4 
 3751000   0.64969141   -3.6791922    2345.4325  0.052106828  0.051465026            5 
 3752000   0.66059342   -3.7069036    2340.1531  0.051975681  0.051453696            7 
 3753000   0.65273454   -3.7151267    2345.0765  0.052071155  0.051442359            4 
 3754000   0.65957689   -3.7088064     2343.547   0.05202333  0.051431101            5 
 3755000   0.65044969   -3.7163033    2339.0836  0.051910422  0.051419842            6 
 3756000   0.63821723   -3.6960512    2343.3483   0.05199122   0.05140853           15 
 3757000   0.65979321   -3.7120333    2341.6784  0.051940342  0.051397202            8 
 3758000   0.65079479   -3.7141889    2340.9963  0.051911397  0.051385934            7 
 3759000    0.6612405   -3.7133238    2347.0267  0.052031274  0.051374633           12 
 3760000    0.6532542   -3.7116389    2337.5535   0.05180748  0.051363323            6 
 3761000   0.66530635   -3.6887841      2339.27  0.051831739  0.051352027            5 
 3762000   0.65678982   -3.7011984    2344.6402  0.051936917  0.051340695            7 
 3763000   0.64668903   -3.7136154     2340.892  0.051840109   0.05132934            5 
 3764000   0.64413963   -3.6961622    2341.2748  0.051834813  0.051318007            7 
 3765000   0.65070047   -3.7029679    2337.3597   0.05173439  0.051306693            5 
 3766000   0.64536627   -3.7160694    2340.6075  0.051792519  0.051295384            4 
 3767000   0.63749112   -3.7060159    2342.1038  0.051811872  0.051284061            9 
 3768000   0.64271018    -3.704124    2330.9539  0.051551529  0.051272706           10 
 3769000   0.64865683   -3.7101405    2343.6714  0.051819036  0.051261353            7 
 3770000   0.65427795   -3.7024739    2343.1131  0.051792951  0.051249988            9 
 3771000   0.65557119   -3.7143048    2345.9967   0.05184294  0.051238664           21 
 3772000   0.63745095   -3.6784193    2349.7723  0.051912608  0.051227352            5 
 3773000   0.63732413   -3.7104323    2343.9643  0.051770568  0.051216125            6 
 3774000   0.66042997   -3.7136804    2348.7859  0.051863317  0.051204827           10 
 3775000   0.65104066   -3.7243961    2343.4409  0.051731586  0.051193649            7 
 3776000   0.64403082   -3.7046456    2348.7624  0.051835329  0.051182326            9 
 3777000   0.63455785   -3.6991886    2345.9389  0.051759308  0.051171035            9 
 3778000   0.65677693   -3.6886855    2344.0995  0.051705036  0.051159829           13 
 3779000   0.64274926   -3.7053669     2342.879   0.05166444  0.051148659            5 
 3780000   0.63151539   -3.7284252    2346.2267  0.051724575  0.051137435            5 
 3781000   0.65506199   -3.7089968     2347.339   0.05173541  0.051126115            3 
 3782000   0.65176327   -3.7199002     2348.095  0.051738388  0.051114832            5 
 3783000   0.64355465   -3.7201432    2345.1309  0.051659417   0.05110353           10 
 3784000   0.63883727   -3.7315395    2339.9581  0.051531847   0.05109221           11 
 3785000   0.64871422   -3.7444567    2341.7201  0.051557025  0.051080797            8 
 3786000   0.63203524   -3.7290006    2342.7546  0.051566178  0.051069374            6 
 3787000   0.64029923   -3.6895984     2344.931  0.051600454  0.051058002            9 
 3788000   0.64632443   -3.7170965    2340.9787  0.051499882  0.051046662            7 
 3789000   0.65140022   -3.7328189    2349.2995  0.051669295  0.051035408            4 
 3790000   0.64008529   -3.7333026    2348.0897  0.051629061  0.051024131           20 
 3791000   0.65773963   -3.7214822    2343.8585  0.051522433  0.051012864           17 
 3792000   0.64431356   -3.7219593     2346.856  0.051574719  0.051001602           21 
 3793000   0.63515355   -3.6933321    2353.2093  0.051700705  0.050990384            4 
 3794000   0.62507904   -3.7174065    2350.3172  0.051623555  0.050979121            7 
 3795000   0.65776846   -3.7086968    2342.3368  0.051434712  0.050967803            8 
 3796000   0.66268957   -3.7152062    2342.5038  0.051424829  0.050956511            8 
 3797000   0.64194187   -3.7143669    2344.3074   0.05145087  0.050945249           19 
 3798000   0.63622177   -3.7156773    2349.5298  0.051551908  0.050934045            9 
 3799000   0.64253928    -3.715013    2346.2053  0.051465414  0.050922799           10 
 3800000   0.65340473   -3.7355259    2338.5198  0.051283329  0.050911521            7 
 3801000   0.63895534   -3.7157567    2349.5138  0.051510871  0.050900306            5 
 3802000   0.63593895   -3.7224538    2344.8706  0.051395552  0.050889086            7 
 3803000   0.64421104    -3.725738    2345.7333   0.05140094  0.050877857            7 
 3804000   0.65580481   -3.7294687    2347.7125  0.051430785  0.050866558            5 
 3805000    0.6432973   -3.7030483    2358.7667  0.051659366  0.050855348            8 
 3806000   0.64143024   -3.7233675    2345.8325  0.051362596  0.050844137            6 
 3807000   0.66035629    -3.708749    2357.8946  0.051613138  0.050832925           12 
 3808000   0.63103135   -3.7247799    2347.8951  0.051380758  0.050821771            8 
 3809000   0.65076703   -3.7290108    2349.7249    0.0514073  0.050810568            5 
 3810000   0.63497824   -3.7150363    2349.6022  0.051391125  0.050799327            5 
 3811000   0.65357001   -3.7158964    2348.2582   0.05134825   0.05078815            7 
 3812000   0.64908182   -3.7114795    2356.5227  0.051515448  0.050776937            5 
 3813000    0.6210959   -3.7331043    2349.9626  0.051358567  0.050765734            8 
 3814000   0.65617626   -3.7250903    2350.7975  0.051363344  0.050754462            9 
 3815000   0.64488246   -3.7115021     2347.096  0.051269025  0.050743139            9 
 3816000   0.64035325    -3.729468    2350.2613  0.051324713  0.050731854            8 
 3817000   0.66241441   -3.7319041     2354.689  0.051407934  0.050720554            8 
 3818000   0.63033532   -3.7270275    2359.9425  0.051509134  0.050709304            7 
 3819000   0.65017297   -3.7352817     2350.195  0.051282949  0.050698019            5 
 3820000   0.64426044   -3.7269539     2347.729  0.051215728  0.050686763            6 
 3821000   0.63674921   -3.7194184    2350.9695  0.051272998  0.050675478            7 
 3822000   0.63157722   -3.7269914    2354.9144  0.051345597  0.050664252           10 
 3823000   0.63114625   -3.7259577    2352.6391  0.051282569   0.05065297            9 
 3824000   0.63396761   -3.7092114    2347.7409  0.051162415  0.050641751           10 
 3825000   0.63374043   -3.7354365    2346.8083   0.05112872  0.050630547           13 
 3826000   0.65390123   -3.6992183    2358.3244  0.051366187  0.050619348            6 
 3827000   0.63625532   -3.7587947    2339.9185  0.050951975  0.050608044            6 
 3828000   0.64077272   -3.7238304    2356.0072  0.051288905  0.050596787            4 
 3829000   0.63067098   -3.7254385    2346.3816  0.051066023  0.050585556            9 
 3830000   0.63038603   -3.7244152    2355.2625  0.051245921  0.050574282           11 
 3831000    0.6289989   -3.7321029    2349.3989  0.051104997  0.050562967            6 
 3832000   0.62744042   -3.7455984      2352.44  0.051157794  0.050551682           15 
 3833000   0.64271428    -3.747637    2343.8581  0.050957868  0.050540304           16 
 3834000    0.6502264   -3.7318577    2354.4134     0.051174  0.050528975            8 
 3835000    0.6461599   -3.7170879    2342.3028  0.050897496  0.050517623           16 
 3836000   0.62649764   -3.7253408    2350.4491  0.051061198  0.050506343           14 
 3837000   0.63964228   -3.7351041    2351.3657  0.051067798  0.050495004           10 
 3838000   0.64651295   -3.7518085    2346.4196    0.0509471  0.050483668            5 
 3839000   0.64542729   -3.7118745    2354.7317  0.051114258  0.050472383            6 
 3840000   0.63462067   -3.7214444     2345.859  0.050908399   0.05046114           11 
 3841000   0.63934308    -3.756509    2348.9777  0.050962807  0.050449846            6 
 3842000   0.63127342   -3.7468681    2347.3304  0.050913813   0.05043847            5 
 3843000   0.64328639   -3.7327658    2348.8605  0.050933743  0.050427153            6 
 3844000   0.64356643   -3.7419559    2349.7347  0.050939446  0.050415803           11 
 3845000   0.63398034   -3.7426729    2348.7193   0.05090419  0.050404409            5 
 3846000   0.63744035   -3.7193897    2353.0008  0.050983723  0.050393041           10 
 3847000   0.64621722   -3.7510153    2353.0959  0.050972531  0.050381629            6 
 3848000   0.63463175   -3.7488347    2351.8125  0.050931491  0.050370299            7 
 3849000   0.62109667   -3.7493073     2344.185  0.050753117  0.050358931           16 
 3850000   0.63639174   -3.7507198    2351.1852  0.050891455  0.050347605            8 
 3851000   0.64285579   -3.7321949    2353.9089  0.050937178  0.050336276            4 
 3852000   0.64353951   -3.7411589    2353.4607   0.05091426  0.050324982            4 
 3853000   0.62171129   -3.7175776    2348.6421  0.050796828  0.050313696            4 
 3854000   0.64385779   -3.7592626    2350.7641  0.050829531  0.050302357            9 
 3855000   0.64400468   -3.7250694    2349.8595   0.05079679  0.050291048            8 
 3856000   0.65542681   -3.7447772    2347.2531  0.050727288  0.050279704            8 
 3857000   0.63480168   -3.7372708    2356.0998  0.050905276  0.050268443           10 
 3858000   0.62785279   -3.7237553    2355.3523  0.050875935   0.05025717            5 
 3859000   0.63700428   -3.7253565    2354.0264  0.050834119  0.050245904            5 
 3860000   0.63787995   -3.7386477    2352.3422  0.050784589  0.050234639           18 
 3861000   0.63663891   -3.7378453    2352.9982  0.050785596  0.050223277            9 
 3862000   0.62872564   -3.7561101      2355.96  0.050836354  0.050211994           10 
 3863000   0.63545527   -3.7484141    2354.5697  0.050793202  0.050200651            4 
 3864000   0.64690418   -3.7358482    2359.4115  0.050884478    0.0501894            7 
 3865000   0.63485944   -3.7454518    2355.8247  0.050793977  0.050178122            4 
 3866000    0.6204242   -3.7455762    2356.0701  0.050786128  0.050166858            8 
 3867000   0.62776652   -3.7339923    2351.2705  0.050669566  0.050155632           12 
 3868000   0.62932949   -3.7388718    2357.6317  0.050793514  0.050144371           20 
 3869000   0.63304321   -3.7309887    2355.6395  0.050737476  0.050133113            7 
 3870000   0.62518058     -3.72482    2355.5959  0.050723425  0.050121849            6 
 3871000   0.63444368   -3.7516009       2356.2  0.050723327  0.050110574            7 
 3872000   0.63946752   -3.7202394    2348.6479  0.050547691  0.050099322            5 
 3873000   0.63204921   -3.7482479    2354.7161  0.050665205   0.05008806           12 
 3874000   0.64342874   -3.7370627    2351.2338  0.050577221  0.050076758            8 
 3875000   0.63589424   -3.7424343    2354.1806   0.05062754  0.050065406            7 
 3876000   0.63171023   -3.7551497     2356.323  0.050660538  0.050054115            5 
 3877000   0.62568825   -3.7281779    2358.8222  0.050701191  0.050042831            4 
 3878000   0.61453148   -3.7385118    2361.3129  0.050741639  0.050031542            6 
 3879000   0.62395344   -3.7313768    2357.0727  0.050637464  0.050020311           11 
 3880000    0.6219943   -3.7285702    2363.6149  0.050764925  0.050009082            7 
 3881000    0.6365302   -3.7369288    2362.5758  0.050729533   0.04999792           10 
 3882000   0.62769047   -3.7508974    2351.1072  0.050470272  0.049986678            6 
 3883000   0.62903871   -3.7393256    2353.5854  0.050510461  0.049975399            5 
 3884000   0.63206666   -3.7460473    2351.0282   0.05044259  0.049964166            3 
 3885000   0.63217258   -3.7663901    2355.5587  0.050526785  0.049952883           13 
 3886000   0.62402862   -3.7487602    2352.4757  0.050447669  0.049941594            7 
 3887000    0.6426491   -3.7397849    2355.2786  0.050494781  0.049930287           10 
 3888000   0.62438056   -3.7535976    2348.5891  0.050338416  0.049918957           13 
 3889000   0.62759059   -3.7563825    2356.8935  0.050503417  0.049907677           10 
 3890000   0.62277675   -3.7437783    2355.7826  0.050466638  0.049896385            8 
 3891000   0.61745004   -3.7369319    2360.9754  0.050564881  0.049885182            4 
 3892000   0.63758377   -3.7376045    2362.2789  0.050579799  0.049873967            4 
 3893000    0.6232613   -3.7459743    2357.1018  0.050455985  0.049862717            5 
 3894000   0.62907186    -3.742138    2360.2993  0.050511455  0.049851493            9 
 3895000   0.62916479   -3.7410217    2359.3211  0.050477559  0.049840286            6 
 3896000   0.63344524   -3.7520128    2357.2575  0.050420464  0.049829128           11 
 3897000   0.62377262   -3.7176137    2356.6794  0.050395163  0.049817879           11 
 3898000   0.63325073   -3.7476572    2354.3856  0.050333196  0.049806708            6 
 3899000   0.64396035   -3.7610543    2357.6392  0.050389826  0.049795511           13 
 3900000   0.62997593   -3.7229699     2362.106  0.050472351  0.049784298           13 
 3901000   0.64466106   -3.7378695    2349.7043  0.050194487  0.049773122            8 
 3902000   0.63313018   -3.7536302    2359.5166   0.05039118   0.04976194            9 
 3903000   0.62913916   -3.7444026    2361.0827  0.050411706    0.0497508            8 
 3904000   0.63561975   -3.7482311    2354.7107   0.05026278  0.049739481            4 
 3905000   0.61567602   -3.7485402    2354.0902  0.050236667  0.049728252            5 
 3906000   0.61740285   -3.7327052    2359.5059  0.050339347  0.049717056            7 
 3907000   0.60488302   -3.7423018    2354.8459  0.050227069  0.049705785            8 
 3908000   0.62006938   -3.7792112    2352.7897  0.050170371  0.049694486           17 
 3909000   0.63161701   -3.7471975    2348.9322  0.050075301  0.049683166            7 
 3910000   0.62438022   -3.7453644    2352.1808   0.05013173  0.049671839            8 
 3911000   0.61165284   -3.7442197    2356.0584  0.050201535  0.049660533            5 
 3912000   0.62708104   -3.7621112    2357.2889  0.050214914  0.049649215            8 
 3913000   0.62774589   -3.7503767    2360.3319  0.050266886  0.049637918            6 
 3914000   0.62292875   -3.7572081    2349.9556  0.050033121  0.049626559            3 
 3915000   0.62619206   -3.7339219    2353.7529  0.050101169  0.049615173           10 
 3916000   0.61549266   -3.7602127    2358.4156  0.050187599  0.049603854            7 
 3917000    0.6267156   -3.7616578    2356.8107  0.050140641  0.049592506            8 
 3918000   0.62726715   -3.7372029    2355.0971  0.050091396  0.049581191            8 
 3919000   0.63291107   -3.7655071    2352.1823  0.050016634  0.049569874            4 
 3920000   0.61060892   -3.7598261    2353.4441  0.050030699   0.04955851            8 
 3921000   0.61495847   -3.7676904    2357.1718  0.050097164  0.049547146           14 
 3922000    0.6251971   -3.7592484    2353.7207  0.050011063  0.049535785            7 
 3923000   0.63053399   -3.7538771    2357.2502  0.050073289  0.049524487            6 
 3924000   0.63228602   -3.7583682    2354.6004  0.050004256  0.049513151           10 
 3925000   0.63004687   -3.7377773    2363.0895  0.050171752  0.049501822            6 
 3926000   0.61539515   -3.7640013    2356.2347  0.050013471  0.049490583            7 
 3927000   0.62285004    -3.771967     2350.271  0.049874183  0.049479164           12 
 3928000    0.6246448   -3.7565002    2354.4095  0.049949285  0.049467741            6 
 3929000   0.63091414   -3.7408636    2363.6638  0.050132855   0.04945642            4 
 3930000   0.62617843   -3.7731076    2357.5795  0.049991083  0.049445083           14 
 3931000   0.62014642   -3.7427432     2354.428  0.049911558  0.049433719           13 
 3932000   0.61974956   -3.7519987    2351.4618  0.049835998  0.049422434           10 
 3933000   0.62287228   -3.7611183    2349.0401  0.049772017  0.049411037            8 
 3934000   0.63267828   -3.7584981    2349.7009  0.049773363  0.049399582           19 
 3935000   0.62403715   -3.7706857    2351.0107  0.049788452  0.049388145            8 
 3936000   0.62696518   -3.7732005    2357.4696   0.04991255   0.04937671            9 
 3937000   0.62364639   -3.7572352    2358.9102  0.049930366  0.049365344           13 
 3938000   0.63357378   -3.7571975     2351.778  0.049766759  0.049354016            8 
 3939000   0.62095474   -3.7633084    2357.4998  0.049875175  0.049342602            6 
 3940000   0.62009975   -3.7588638     2354.086  0.049790313  0.049331286            7 
 3941000   0.61986195   -3.7647385    2355.0317  0.049797677  0.049319947           10 
 3942000   0.62474061   -3.7690731    2354.7275  0.049778613  0.049308622           16 
 3943000   0.62610471   -3.7735754    2354.6882  0.049765158   0.04929726           20 
 3944000   0.62730337   -3.7727662    2355.3669   0.04976688  0.049285932            4 
 3945000   0.62887155   -3.7531035    2365.7469  0.049973531  0.049274633           10 
 3946000   0.62317276   -3.7681588    2353.7722  0.049707979  0.049263293           19 
 3947000   0.62217286   -3.7365096    2359.6401  0.049819273  0.049252013            6 
 3948000   0.61394707   -3.7819855    2354.6882  0.049702132  0.049240757            5 
 3949000   0.60594007   -3.7587235      2359.89  0.049799317  0.049229514            5 
 3950000   0.60496276   -3.7685245    2357.5282  0.049736881  0.049218304            9 
 3951000   0.61607322   -3.7794239    2357.7334  0.049728621  0.049207046           12 
 3952000   0.61701748   -3.7691886    2361.3523  0.049792348    0.0491958           10 
 3953000    0.6248679   -3.7428261     2364.607  0.049848364  0.049184597            9 
 3954000   0.61621209     -3.75003     2359.895  0.049736449  0.049173339           13 
 3955000   0.61860937   -3.7737861    2359.1527  0.049708231  0.049162101            9 
 3956000   0.61881578   -3.7678954    2360.4408  0.049722802  0.049150884            5 
 3957000   0.61394586   -3.7635751     2358.971  0.049679282  0.049139616            4 
 3958000   0.61454318   -3.7579146    2360.7602  0.049704401  0.049128398            9 
 3959000   0.62360406   -3.7569784    2361.2854    0.0497029  0.049117168           11 
 3960000   0.61295517   -3.7649835    2362.3304  0.049712341  0.049105984            4 
 3961000   0.60195335   -3.7637388    2365.0537  0.049757084  0.049094778            3 
 3962000   0.61999353   -3.7541747    2357.4459   0.04958451  0.049083581            9 
 3963000   0.62323904   -3.7934405    2356.9938   0.04956249  0.049072304            5 
 3964000   0.61590448   -3.7573082    2362.3121  0.049661791  0.049061061            8 
 3965000   0.61097352   -3.7657101    2359.8413  0.049597336  0.049049874           16 
 3966000   0.61308549   -3.7719262    2358.8106  0.049563174   0.04903865           11 
 3967000   0.62812839   -3.7878005    2359.4893  0.049564937  0.049027438            6 
 3968000   0.61434905   -3.7467739    2356.8553  0.049497129  0.049016274            8 
 3969000   0.61154076   -3.7535822    2356.8373  0.049484281  0.049005056            8 
 3970000   0.61885808    -3.790058    2359.4485  0.049526626  0.048993827            7 
 3971000   0.61042028   -3.7696033    2364.4823  0.049619791  0.048982615            6 
 3972000   0.60714239   -3.7637308    2362.2202   0.04955984  0.048971473            6 
 3973000   0.61675258   -3.7656191    2360.2958     0.049507  0.048960245            5 
 3974000   0.62443231   -3.7704292    2359.2201  0.049471987  0.048948979            8 
 3975000   0.62034965   -3.7966862    2357.1337  0.049415802  0.048937709           16 
 3976000   0.62447017   -3.7600606    2366.7711  0.049605363  0.048926424            5 
 3977000   0.61037837    -3.754755    2364.7822  0.049551215  0.048915325            5 
 3978000   0.61364818   -3.7648643    2367.3792  0.049593163  0.048904275            8 
 3979000   0.62006705   -3.7734521    2359.3775  0.049413116  0.048893138            5 
 3980000   0.61649681   -3.7736707    2362.3819  0.049463608  0.048881975            6 
 3981000   0.60960962    -3.774766    2370.8478  0.049628397  0.048870808            8 
 3982000   0.60932011   -3.7829001    2362.2713  0.049436449  0.048859618           12 
 3983000   0.62548884   -3.7924307    2365.3455  0.049488357  0.048848448            4 
 3984000    0.6198408   -3.7834982    2366.1665  0.049493107  0.048837268           16 
 3985000   0.59192709   -3.7862285    2359.6099  0.049343577  0.048826081            9 
 3986000   0.61957021   -3.7758813    2363.4578  0.049411646  0.048814826           12 
 3987000   0.62207508   -3.7608866    2361.3986  0.049356212  0.048803655           17 
 3988000   0.61497068   -3.7620625    2363.9405   0.04939695   0.04879244            5 
 3989000   0.61121465   -3.7589213    2368.3191  0.049476041  0.048781379            9 
 3990000   0.61216897   -3.7849826    2370.3757  0.049506593  0.048770266            5 
 3991000    0.6239524   -3.7608433    2360.7032  0.049292225  0.048759188           21 
 3992000   0.61494096   -3.7713841    2363.9691  0.049348052  0.048748002           12 
 3993000   0.60566755   -3.7535637    2364.9822  0.049356838  0.048736906           12 
 3994000    0.6048471   -3.7868192    2360.7554  0.049256288  0.048725797            5 
 3995000   0.60686289   -3.7757783     2362.272  0.049275595  0.048714624            6 
 3996000   0.59749605   -3.7980546    2361.6675  0.049250656  0.048703439           14 
 3997000   0.60060297   -3.7961136    2362.8378  0.049262734  0.048692284           14 
 3998000   0.60474671   -3.7891763    2360.1406  0.049194194  0.048681158            6 
 3999000   0.62133669   -3.7811651    2372.3556  0.049436435   0.04867003           12 
 4000000   0.60877434   -3.7930163    2367.1595  0.049315823  0.048658949           31 
 4001000   0.61467139   -3.7774512    2366.7541  0.049295054  0.048647876            4 
 4002000   0.60760374   -3.7631229     2367.948  0.049307596  0.048636777           10 
 4003000   0.62119702   -3.7657076    2370.9121  0.049356985  0.048625765           13 
 4004000   0.62864969    -3.806512    2364.0315  0.049201454  0.048614667            9 
 4005000   0.60893756   -3.7521609    2367.5787  0.049262977  0.048603632            4 
 4006000     0.624004    -3.736547    2367.2172   0.04924316  0.048592586            7 
 4007000   0.61675584   -3.7743867    2367.2702  0.049231973  0.048581573            7 
 4008000   0.61290069   -3.7811332    2364.7042  0.049166339  0.048570495            7 
 4009000   0.60858625   -3.8070221    2367.6797  0.049215924  0.048559466            7 
 4010000   0.60847422   -3.7539136    2371.9098  0.049291558  0.048548398            7 
 4011000   0.61908221   -3.7781646    2372.7547  0.049296824  0.048537372            7 
 4012000   0.59027952    -3.774638     2366.776  0.049160353   0.04852629           12 
 4013000     0.604202   -3.7956411    2365.6705  0.049125146  0.048515199           15 
 4014000   0.60570705    -3.810202    2373.2032  0.049269291  0.048504147           14 
 4015000   0.60960737    -3.803867      2363.58  0.049057285  0.048493083            8 
 4016000    0.6191452   -3.7708608    2371.7071  0.049213709  0.048482059            9 
 4017000   0.60745908   -3.7731953    2373.0437  0.049229185  0.048471119            5 
 4018000   0.60521269   -3.8087511     2371.498  0.049184876  0.048460092           18 
 4019000   0.60568738   -3.7638316    2374.1504  0.049227636   0.04844899            8 
 4020000   0.61214918   -3.8032869    2362.1129  0.048965855  0.048437977            7 
 4021000   0.60067022   -3.7903535     2368.927  0.049094898  0.048427026            7 
 4022000   0.62638707   -3.7787795    2370.2463  0.049110026  0.048416074           10 
 4023000   0.61401648   -3.7783415    2370.4014  0.049101032  0.048405122           14 
 4024000   0.60781296   -3.7731402    2370.3869  0.049088529  0.048394104            9 
 4025000   0.60872834   -3.7853694    2374.2246  0.049155789  0.048383093            8 
 4026000   0.61894961   -3.7715616    2373.2332  0.049123059  0.048372061            6 
 4027000   0.59659793   -3.7926375    2366.6581  0.048974797  0.048361108           10 
 4028000   0.61072923   -3.7981737    2369.9179  0.049030078  0.048350186            4 
 4029000   0.62519285   -3.7888671    2377.6684  0.049178216  0.048339304            5 
 4030000   0.60242571    -3.803833    2369.3302  0.048993593  0.048328319            9 
 4031000   0.60305432   -3.7631526    2370.6399  0.049008515  0.048317371           12 
 4032000   0.61284413   -3.7908227    2375.1814  0.049090223  0.048306454            7 
 4033000   0.59529173   -3.7898591    2376.6951  0.049109329  0.048295549            5 
 4034000   0.61806175   -3.7997463    2368.6341  0.048930633  0.048284622            5 
 4035000   0.61197098   -3.7726933     2369.954  0.048945767  0.048273707            7 
 4036000    0.5907471   -3.7775587    2377.8789  0.049097268  0.048262797            5 
 4037000   0.61467568   -3.7746483    2374.9553  0.049024757  0.048251862           11 
 4038000   0.62418568   -3.7974445    2377.2202  0.049059357  0.048240972            4 
 4039000   0.60826228   -3.7691378    2368.2815  0.048862786  0.048230012           17 
 4040000   0.60028345   -3.7901357    2371.1389  0.048909631  0.048219036            9 
 4041000   0.60752813   -3.7783196    2372.4099  0.048923738  0.048208045            4 
 4042000    0.6148003   -3.7885347    2363.0798  0.048719276  0.048197109            4 
 4043000   0.59993165   -3.7978778    2374.1005  0.048934383  0.048186123            5 
 4044000   0.61078045   -3.7873067    2373.7979  0.048916047    0.0481752           11 
 4045000   0.60040701    -3.792014    2374.3333  0.048914983  0.048164229           13 
 4046000   0.60310208   -3.7812502    2370.6308  0.048826636  0.048153253            6 
 4047000   0.61436913   -3.7931084    2376.2991  0.048931289  0.048142282            8 
 4048000    0.6041837   -3.7926273    2371.0567   0.04881128  0.048131353            8 
 4049000   0.60430202   -3.7857184    2373.0348  0.048839935  0.048120446            9 
 4050000   0.58879736   -3.8115563    2372.1512  0.048809695  0.048109524           14 
 4051000   0.60389351   -3.7760137    2377.1281  0.048900028  0.048098591            9 
 4052000   0.60294263   -3.8000516    2378.4811  0.048915785  0.048087628            5 
 4053000   0.60335512   -3.8018167    2371.8793  0.048767977   0.04807669            8 
 4054000   0.59145922   -3.8122164    2371.5978  0.048750161  0.048065702           12 
 4055000   0.61092898    -3.784633    2376.5312  0.048839524  0.048054759            6 
 4056000   0.60663057   -3.7786424    2377.5662  0.048848746  0.048043824            6 
 4057000   0.59156387   -3.7875085    2375.1685  0.048787456   0.04803286            5 
 4058000   0.60879705   -3.7843386    2374.1276  0.048754058  0.048021896           15 
 4059000   0.60374033   -3.8194296    2371.9382  0.048697098  0.048010982           20 
 4060000   0.59645096   -3.7885268    2379.3344  0.048836913  0.048000033           11 
 4061000   0.60816573   -3.8039891    2376.4117  0.048764912  0.047989081           13 
 4062000   0.60603824   -3.7953764    2380.6196  0.048839233  0.047978156            7 
 4063000   0.60844646   -3.7960822    2375.5351  0.048722929  0.047967176            6 
 4064000   0.59729883   -3.8195925    2366.0672  0.048516798  0.047956272           13 
 4065000   0.61197085   -3.8002305    2373.1957  0.048650999  0.047945299            7 
 4066000   0.58695291   -3.7894504    2376.3918  0.048704538  0.047934347           15 
 4067000   0.59377804   -3.7952796    2380.5633  0.048778036  0.047923425            4 
 4068000   0.60251355   -3.8071169    2365.1753  0.048450822  0.047912487            4 
 4069000   0.60843823   -3.8026785    2372.4805  0.048588526  0.047901497            9 
 4070000   0.59706531    -3.805179    2379.3991  0.048718245  0.047890619           14 
 4071000   0.58636043   -3.8120736    2379.1252  0.048700672  0.047879705            8 
 4072000   0.59922338   -3.8016096    2374.9006  0.048602255  0.047868746            8 
 4073000   0.61214495   -3.8047407    2371.7009  0.048524857  0.047857795           11 
 4074000   0.59313801   -3.8002516    2374.4672   0.04856953  0.047846882           13 
 4075000   0.59550441   -3.7938155    2374.7295  0.048562976  0.047836031           13 
 4076000   0.60849235   -3.7835581    2383.5845  0.048732101  0.047825204            9 
 4077000   0.60985343   -3.7984084    2381.8575  0.048684848  0.047814404           10 
 4078000   0.60440199   -3.7928246    2377.6783  0.048587509  0.047803541            7 
 4079000   0.58609598    -3.784599    2382.9317  0.048682922  0.047792709            6 
 4080000   0.60194158   -3.7992944    2375.2409  0.048513907   0.04778184           20 
 4081000   0.58770432   -3.7864987    2376.9819  0.048537571  0.047770936           18 
 4082000   0.58249377    -3.796333    2384.2095  0.048673231  0.047760095            8 
 4083000   0.60503694   -3.7966532    2378.0771  0.048536148  0.047749186           12 
 4084000   0.59506947   -3.7901913    2372.3864  0.048408145  0.047738329            6 
 4085000   0.60387348   -3.8049215       2381.9  0.048590371  0.047727474           11 
 4086000   0.60669737   -3.8152057    2375.7867    0.0484538  0.047716574            6 
 4087000   0.60076517    -3.809344     2380.279  0.048533541   0.04770562            9 
 4088000   0.58656581   -3.8132693    2380.8041  0.048532372  0.047694723            8 
 4089000   0.59647774   -3.7898841    2379.5146  0.048494225  0.047683876           14 
 4090000   0.60424894   -3.8018616    2375.7493   0.04840565  0.047673019            4 
 4091000   0.59906879   -3.8034347    2381.5965  0.048512924  0.047662147            9 
 4092000   0.59078938   -3.8088482    2381.9808  0.048508895  0.047651287           10 
 4093000   0.57858019   -3.7959938    2382.1144  0.048499764  0.047640436            4 
 4094000   0.59741764    -3.813212     2379.174  0.048428066  0.047629631           10 
 4095000   0.58913056    -3.805725    2368.0482   0.04818983  0.047618739           12 
 4096000   0.59863642   -3.8087391    2377.4357  0.048369054  0.047607878            6 
 4097000   0.59778945   -3.8237404    2372.6571  0.048260051  0.047596946            6 
 4098000   0.61443839   -3.8106787    2380.1319  0.048400275  0.047586108            6 
 4099000   0.60670111   -3.7928033    2375.0619  0.048285393  0.047575254            4 
 4100000   0.59366225   -3.8083354    2375.7182  0.048286954  0.047564397            8 
 4101000   0.59994148   -3.7969116    2380.4197  0.048370717  0.047553568            4 
 4102000   0.58056824   -3.7929559    2385.5971  0.048464105  0.047542809            4 
 4103000   0.59754188   -3.8265136    2379.7235  0.048332999  0.047531946            8 
 4104000   0.59273603   -3.8086908    2384.1566  0.048411237  0.047521126           11 
 4105000   0.59479223   -3.8046819    2383.3207  0.048382474    0.0475103            4 
 4106000   0.60870689   -3.8143483    2380.7701  0.048318925   0.04749944           16 
 4107000    0.5805564   -3.7895382     2376.047  0.048211325  0.047488515            9 
 4108000   0.61072608   -3.8143816    2371.1576  0.048100407  0.047477565           12 
 4109000   0.58532091   -3.7996863    2379.4139  0.048256144  0.047466675            6 
 4110000   0.59267967   -3.7859779    2387.1156   0.04840056  0.047455855            8 
 4111000   0.60084799   -3.8169611     2376.996  0.048183654  0.047445061            7 
 4112000   0.59100955   -3.8100655    2379.8358  0.048229487  0.047434241            5 
 4113000   0.59000791   -3.8072581    2377.7194   0.04817488  0.047423427            8 
 4114000   0.59457934   -3.8123175    2372.1712  0.048050785  0.047412513           14 
 4115000   0.61220091   -3.8218776    2382.0615  0.048239398  0.047401642           12 
 4116000   0.58597033   -3.8162208    2384.2825  0.048272645  0.047390848            8 
 4117000   0.58299933   -3.8326421    2387.4723  0.048325486  0.047380013           14 
 4118000   0.60929687   -3.8079017    2378.7464   0.04813717  0.047369166            7 
 4119000   0.59551994    -3.802539    2380.3167  0.048157253  0.047358317            5 
 4120000   0.58896765   -3.8121976    2376.6963  0.048072336   0.04734747            5 
 4121000   0.58715099     -3.82055    2378.1079  0.048089216  0.047336602            8 
 4122000   0.57747073   -3.7899845    2384.8352  0.048213553   0.04732576           10 
 4123000   0.58164664   -3.8325273    2384.3418  0.048191887  0.047314926            8 
 4124000   0.58446378   -3.8221993    2383.5018  0.048163227  0.047304053            9 
 4125000   0.59617941   -3.8049884    2379.4649  0.048069997  0.047293205            9 
 4126000   0.59058921   -3.8102336    2382.6783  0.048123248  0.047282375           17 
 4127000   0.58686926   -3.8049205    2381.2071  0.048081882  0.047271603            6 
 4128000   0.58391414    -3.811355    2380.7884   0.04806178  0.047260739            6 
 4129000   0.59170846   -3.8123481    2386.7532  0.048170525  0.047249936            8 
 4130000   0.58489576   -3.8160538    2381.3871  0.048050588  0.047239148            6 
 4131000   0.59368236   -3.8061513    2386.4804  0.048141701  0.047228309            8 
 4132000   0.59878992   -3.8160603    2388.0194  0.048161088  0.047217544           28 
 4133000   0.59610501   -3.8201654    2379.5664  0.047978998   0.04720678           10 
 4134000   0.59921724   -3.8255133    2379.0985   0.04795796  0.047195981            7 
 4135000   0.59655697   -3.8054869    2385.8415  0.048082255  0.047185142           11 
 4136000   0.59782903   -3.8022908    2385.2044  0.048057793  0.047174324            9 
 4137000   0.58327589   -3.8208884    2375.7824  0.047856386  0.047163523            7 
 4138000   0.58025695   -3.8274892    2381.7088   0.04796417  0.047152699            7 
 4139000   0.59162829    -3.823037    2383.0346  0.047979275  0.047141858           12 
 4140000   0.59551728   -3.8259393    2382.7182  0.047961317  0.047131026           12 
 4141000   0.60564282   -3.8250726    2382.6232  0.047947823  0.047120247           15 
 4142000   0.59751267   -3.8316721    2383.0847  0.047945532  0.047109434           15 
 4143000   0.58909171   -3.8264616    2381.4018  0.047900108  0.047098622           15 
 4144000   0.57377237   -3.8094379    2388.4393  0.048030069  0.047087892            4 
 4145000   0.56237951   -3.8233258    2383.6523  0.047922243  0.047077092            6 
 4146000   0.59033388   -3.8398053    2382.9373  0.047896312  0.047066325           13 
 4147000   0.58787172   -3.8317545    2379.3456  0.047812587  0.047055485           14 
 4148000   0.57499542   -3.8203995    2376.7193  0.047748297  0.047044636            8 
 4149000   0.59606325   -3.8198138    2382.3303  0.047849488  0.047033832            6 
 4150000   0.59080103   -3.8150222    2380.1489  0.047794154   0.04702304           25 
 4151000   0.57473971   -3.7963259    2387.1118  0.047922424   0.04701233           10 
 4152000   0.57768709   -3.7827571    2385.9001  0.047886562  0.047001595            6 
 4153000   0.59204718   -3.8237713    2384.7099   0.04785115  0.046990795            8 
 4154000   0.57841829   -3.8222365     2377.839  0.047701794  0.046979993            8 
 4155000   0.57932309   -3.8218415    2386.3768  0.047861548  0.046969168           11 
 4156000   0.59066856   -3.8044127    2385.9422  0.047841318  0.046958377            8 
 4157000   0.59010967   -3.8189597    2379.6056  0.047702782  0.046947507            9 
 4158000   0.58603475   -3.7972513    2389.2949  0.047885499  0.046936705           13 
 4159000   0.60030247   -3.8286364    2382.7706  0.047743261  0.046925877            9 
 4160000   0.59128558   -3.8201998    2382.3886   0.04772413  0.046915024            9 
 4161000   0.57700325   -3.8082256    2377.8654  0.047622075  0.046904232            8 
 4162000   0.59432727   -3.8113096    2381.7397  0.047688204  0.046893426           10 
 4163000   0.58307865   -3.8442171    2383.6437  0.047714862  0.046882652           13 
 4164000   0.59039785   -3.8370182    2382.3165  0.047676842  0.046871875           15 
 4165000   0.59475318   -3.8192182    2390.8055  0.047835244  0.046861117           14 
 4166000   0.58616091   -3.8226259    2385.1545  0.047710723  0.046850425            8 
 4167000   0.58382273   -3.8328981    2382.3391  0.047642971  0.046839654           13 
 4168000   0.57810368   -3.8342987    2390.1966  0.047788639  0.046828912            6 
 4169000   0.58673138   -3.8297607    2387.5774  0.047724822  0.046818192            6 
 4170000   0.58833884   -3.8192583    2386.9048  0.047699936  0.046807491           11 
 4171000   0.56992514   -3.8105238    2390.2749  0.047755832  0.046796815           11 
 4172000   0.58617812   -3.8248674    2387.8344  0.047695638  0.046786095            5 
 4173000   0.58360294    -3.828059    2385.0604  0.047628812  0.046775366            8 
 4174000   0.59388233   -3.8151663    2386.2712  0.047641575   0.04676464            7 
 4175000    0.5665869   -3.8323037    2382.2285  0.047549471  0.046753801           11 
 4176000   0.59314337   -3.8352873    2388.0549  0.047654353  0.046742948           27 
 4177000   0.58527601     -3.83898    2386.6567  0.047615048  0.046732107           16 
 4178000   0.57477438   -3.8261516    2385.4085  0.047578756  0.046721334           18 
 4179000   0.57852362   -3.8282732    2383.8529   0.04753635  0.046710563           12 
 4180000   0.59223456   -3.8251691    2377.8454  0.047405211  0.046699761            8 
 4181000   0.58835067   -3.7997038    2391.3935  0.047663907  0.046688973            5 
 4182000   0.57783826   -3.8334955    2382.6801  0.047478879  0.046678182           14 
 4183000   0.59293143   -3.8422863    2379.3843   0.04740187   0.04666738           10 
 4184000   0.56757813    -3.844948    2381.7937  0.047438529  0.046656596            8 
 4185000   0.57589114     -3.82682    2378.4625  0.047360862  0.046645792           18 
 4186000   0.59363197   -3.8354948    2382.1278  0.047422516  0.046634924            9 
 4187000    0.5878115   -3.8168893     2386.576  0.047499721  0.046624154           15 
 4188000   0.58702022   -3.8256723    2383.5917  0.047428998   0.04661335            8 
 4189000   0.58355306   -3.8215662    2378.1731  0.047309882  0.046602511           14 
 4190000   0.57794318   -3.8469596    2376.7947  0.047271175  0.046591649           12 
 4191000   0.58535018   -3.8441393    2379.9167  0.047321974  0.046580772            6 
 4192000   0.58416194   -3.8139676    2378.7219  0.047286933  0.046569945            6 
 4193000   0.59534306   -3.8415493    2385.4572  0.047409515  0.046559103            7 
 4194000   0.59725688   -3.8221011    2384.5378  0.047379944  0.046548261           10 
 4195000   0.57599679   -3.8451421    2380.9995  0.047298361  0.046537449            4 
 4196000   0.57421087   -3.8196808    2377.6797  0.047221158  0.046526601            6 
 4197000   0.57919076   -3.8293655    2384.9542  0.047354344  0.046515806           12 
 4198000   0.58440715   -3.8192434    2379.6992  0.047238748  0.046505028            8 
 4199000   0.57338459   -3.8321873    2381.5033  0.047263304  0.046494231            6 
 4200000   0.58476217   -3.8350126    2382.9105  0.047279971  0.046483442            9 
 4201000   0.57258627   -3.8326711    2378.3908   0.04717906  0.046472646           11 
 4202000   0.57044387   -3.8512987    2383.7133  0.047273387  0.046461805           28 
 4203000   0.58003861   -3.8427334    2378.3469   0.04715574  0.046450928           12 
 4204000   0.58566714   -3.8457696    2377.5234  0.047128199  0.046440057           15 
 4205000   0.58940888   -3.8444574    2375.4152  0.047075213  0.046429151            6 
 4206000   0.57852428   -3.8415936    2377.8803  0.047112861   0.04641828            8 
 4207000   0.58332697   -3.8395124    2376.4294  0.047072922   0.04640739           17 
 4208000   0.58723469   -3.8401426     2383.975  0.047211165  0.046396513           24 
 4209000   0.57102617   -3.8390544    2376.1552  0.047045126  0.046385638            6 
 4210000   0.57738324   -3.8539417     2382.496  0.047159461  0.046374721            7 
 4211000   0.57262557   -3.8460979    2382.4594  0.047147538  0.046363821           10 
 4212000   0.57529944   -3.8382076    2381.6638  0.047120604  0.046352995           12 
 4213000   0.58721033   -3.8387195    2385.5521   0.04718633  0.046342223           20 
 4214000   0.57888837   -3.8586976    2386.3952  0.047191805  0.046331382           14 
 4215000   0.58207543   -3.8504915    2387.3035  0.047198566  0.046320502           19 
 4216000   0.57415893   -3.8573896    2383.0024  0.047102357  0.046309672            6 
 4217000   0.57485462   -3.8393496    2379.3058  0.047018137  0.046298835           10 
 4218000   0.58005561   -3.8374543    2379.4553  0.047009943   0.04628796           21 
 4219000   0.59042756   -3.8565317    2384.3589  0.047095656  0.046277075           14 
 4220000   0.55379979   -3.8404485    2384.2322  0.047081994  0.046266215           19 
 4221000   0.58647356   -3.8469167    2385.0925  0.047087826  0.046255334           16 
 4222000   0.56160429   -3.8217909     2387.506   0.04712431  0.046244537           16 
 4223000   0.57552082   -3.8350059    2385.7127  0.047077762  0.046233721           13 
 4224000   0.57360778   -3.8379048    2390.0055  0.047151308  0.046222942            9 
 4225000   0.57596005   -3.8561416    2384.7173  0.047035844  0.046212139           13 
 4226000   0.57510218   -3.8312382    2377.3257  0.046878957  0.046201335            8 
 4227000   0.56686393   -3.8345673     2385.398  0.047027009  0.046190552            4 
 4228000   0.58197004   -3.8187698     2384.114  0.046990578  0.046179774            9 
 4229000    0.5685392   -3.8511249     2386.256  0.047021675  0.046168996           21 
 4230000   0.56766878   -3.8285875    2387.0851  0.047026894  0.046158279           15 
 4231000   0.58357474   -3.8198878    2386.2756  0.046999834  0.046147546           10 
 4232000   0.58757495   -3.8626899    2385.7545  0.046978468   0.04613678            8 
 4233000   0.57782447   -3.8542838     2384.309  0.046938912  0.046125978           15 
 4234000   0.57323738   -3.8444033    2379.7486  0.046838068   0.04611517           26 
 4235000   0.56575506   -3.8408477    2382.8002  0.046887056  0.046104387            7 
 4236000   0.57332317   -3.8362231    2380.4307  0.046829373  0.046093637            6 
 4237000   0.57935029    -3.843055    2386.2658  0.046933085  0.046082858            6 
 4238000   0.57328566   -3.8319214    2385.9675  0.046916145  0.046072091           13 
 4239000   0.56460128   -3.8386188    2386.5368   0.04691627  0.046061387           13 
 4240000   0.58088095   -3.8328528    2383.1719   0.04683907   0.04605067           12 
 4241000   0.58081188   -3.8562106    2389.2047  0.046946567  0.046039952            5 
 4242000   0.56680587   -3.8469713    2387.5674  0.046903335  0.046029262            5 
 4243000   0.58285279   -3.8470325    2384.2703  0.046827526   0.04601856           27 
 4244000   0.57506768   -3.8650641    2383.2047  0.046795568  0.046007815           22 
 4245000    0.5820741   -3.8330846    2386.4083  0.046847435  0.045997042            7 
 4246000   0.57647249     -3.85005    2386.8624  0.046845312  0.045986246            8 
 4247000   0.57836706   -3.8494553    2386.6838  0.046830779  0.045975515           10 
 4248000   0.56168697   -3.8599981    2381.9131  0.046726166  0.045964724           16 
 4249000   0.57629418   -3.8585195    2386.1807  0.046798869  0.045953977           19 
 4250000   0.56810608   -3.8600594    2381.6135  0.046698303  0.045943187            5 
 4251000   0.57970891   -3.8535531    2390.0449  0.046852601  0.045932457           12 
 4252000   0.57148667   -3.8228677    2386.7001  0.046776029  0.045921695            4 
 4253000   0.56762659   -3.8477829    2389.5964  0.046821781  0.045910904            9 
 4254000   0.57456819   -3.8708202    2382.6508  0.046674714  0.045900091            6 
 4255000   0.57909406   -3.8507571    2386.6159  0.046741401  0.045889358            4 
 4256000   0.56749604   -3.8488632    2382.8518  0.046656715  0.045878657            7 
 4257000   0.56540854   -3.8621858    2390.2758  0.046791084  0.045867939            7 
 4258000   0.54798348   -3.8605407    2386.5953  0.046708065  0.045857247           10 
 4259000   0.56985679   -3.8536403    2383.2827  0.046632282  0.045846538           11 
 4260000   0.57606078   -3.8297729    2388.4787   0.04672298  0.045835801            8 
 4261000   0.56921712   -3.8529161    2389.0788  0.046723751  0.045825152            7 
 4262000    0.5676967   -3.8572768    2393.0593  0.046790617  0.045814461           18 
 4263000   0.56827297   -3.8715049     2381.896   0.04656142  0.045803775            7 
 4264000   0.57003264   -3.8536769    2384.4504  0.046600423  0.045793013            9 
 4265000   0.57829707   -3.8556384    2386.5552  0.046630621  0.045782333           11 
 4266000   0.56698541   -3.8556351    2389.8747  0.046684535  0.045771588            4 
 4267000    0.5649311   -3.8533482    2386.1059  0.046599991  0.045760786            9 
 4268000   0.56801383   -3.8446489     2390.053   0.04666614  0.045750087           10 
 4269000   0.56826085   -3.8494617    2393.6119   0.04672468  0.045739405            6 
 4270000   0.57572794   -3.8544817    2390.3069  0.046649237  0.045728729           13 
 4271000   0.57781044   -3.8594819    2387.3799  0.046581205  0.045718029            7 
 4272000   0.56668836   -3.8578528    2386.1022  0.046545376  0.045707405            9 
 4273000   0.55843225   -3.8549877    2391.1783  0.046633479  0.045696717            9 
 4274000   0.56857037   -3.8573306    2388.3102  0.046566647   0.04568608            7 
 4275000   0.56956873   -3.8585399    2388.9859  0.046568925   0.04567543           13 
 4276000   0.56846949    -3.867451    2388.5395  0.046549336  0.045664799           16 
 4277000   0.56441595   -3.8474405    2392.0708  0.046607256  0.045654118            8 
 4278000   0.57591285   -3.8395059    2388.8132  0.046532905  0.045643528           21 
 4279000   0.56375287   -3.8558142    2386.3105   0.04647329  0.045632879           12 
 4280000   0.57295056   -3.8564412     2387.902  0.046493418  0.045622254            8 
 4281000   0.56590503   -3.8608522    2388.1669  0.046487714  0.045611655            9 
 4282000   0.56176976    -3.853369    2392.3694  0.046558645  0.045601042           12 
 4283000   0.56926125   -3.8724008      2389.83  0.046498366  0.045590419            9 
 4284000   0.55360903   -3.8581164    2396.3463  0.046614269  0.045579846           13 
 4285000   0.57723522   -3.8552903     2393.639   0.04655074  0.045569293            6 
 4286000   0.56704036   -3.8646018    2388.5916   0.04644174  0.045558715           10 
 4287000   0.55842948   -3.8784655    2392.1586  0.046500246  0.045548076            5 
 4288000   0.57097046   -3.8583478    2396.4683  0.046573156  0.045537513            9 
 4289000   0.56652874   -3.8521262    2390.3986  0.046444365  0.045526953           10 
 4290000   0.56485355   -3.8572875    2394.0469  0.046504408  0.045516426            8 
 4291000   0.57571583   -3.8553872    2397.4762  0.046560168  0.045505847            6 
 4292000   0.56813842   -3.8643012    2394.1731  0.046485187  0.045495259           11 
 4293000   0.56166778    -3.854735    2393.1164  0.046453847  0.045484791            8 
 4294000   0.56689231   -3.8577886    2391.7031  0.046415601  0.045474251            9 
 4295000   0.58111054   -3.8511499    2400.2843   0.04657129  0.045463742            9 
 4296000   0.56161169   -3.8499553    2396.3126  0.046483407   0.04545326           11 
 4297000   0.55881962   -3.8509468    2390.0705  0.046351534  0.045442728            7 
 4298000   0.55852544   -3.8671804    2389.6267  0.046332144  0.045432161            6 
 4299000   0.56929173    -3.859205    2395.9946  0.046444806   0.04542162            6 
 4300000    0.5574318   -3.8680791    2397.0598  0.046454647   0.04541105           15 
 4301000     0.564138   -3.8636662    2397.9403  0.046460907   0.04540049           14 
 4302000   0.56390675   -3.8544914    2399.2682  0.046475829  0.045389945           12 
 4303000   0.55903008    -3.869047     2395.683  0.046395595  0.045379403            8 
 4304000   0.56722025   -3.8588285    2397.3183   0.04641648  0.045368889           17 
 4305000   0.56314375   -3.8636814    2390.4444  0.046272637   0.04535834           10 
 4306000   0.56804835   -3.8570307     2390.468  0.046262346  0.045347837           10 
 4307000   0.56071684   -3.8718898    2390.9978  0.046261856   0.04533733           10 
 4308000   0.55845665   -3.8722188    2397.9744  0.046386072  0.045326807           12 
 4309000   0.57328682   -3.8723668     2397.208  0.046360486  0.045316279            8 
 4310000   0.56095765   -3.8723738    2391.6934  0.046243104  0.045305694           10 
 4311000   0.56703813   -3.8691882    2391.0552  0.046220042  0.045295139           14 
 4312000   0.57036439   -3.8688597    2395.7655  0.046300353  0.045284601           15 
 4313000   0.55478319   -3.8457117     2393.627  0.046248301  0.045274082           11 
 4314000    0.5526471    -3.864958     2389.985  0.046167227  0.045263548           10 
 4315000   0.55980876   -3.8582623    2396.4411  0.046281211  0.045253022           21 
 4316000   0.56652785    -3.847539    2398.6682  0.046313488  0.045242525           13 
 4317000   0.57063884   -3.8647656    2393.2265  0.046197716  0.045232041           21 
 4318000    0.5616642   -3.8916338    2390.7356  0.046138946  0.045221484           22 
 4319000   0.56945367   -3.8620229    2400.7453  0.046321396  0.045210977           10 
 4320000   0.56023169    -3.881422    2392.8187  0.046157768  0.045200453           15 
 4321000    0.5666991   -3.8662982    2391.9851  0.046131009  0.045189899            8 
 4322000   0.56942549   -3.8764071    2392.9305  0.046138565  0.045179361           16 
 4323000   0.55688441   -3.8674936     2394.112  0.046150667  0.045168839           10 
 4324000   0.55965329   -3.8647028    2395.2196   0.04616134  0.045158386           12 
 4325000   0.55729409   -3.8862261    2393.4056  0.046115716  0.045147855           11 
 4326000   0.54927456   -3.8774584    2393.6335  0.046109445    0.0451373            8 
 4327000    0.5685451   -3.8756612    2393.2867  0.046092109  0.045126772           12 
 4328000   0.55365961   -3.8816933    2392.6206  0.046068635  0.045116248           13 
 4329000   0.55333649   -3.8843842    2388.8538  0.045985482  0.045105686           21 
 4330000   0.55809834   -3.8605216    2400.0019  0.046189414  0.045095171            7 
 4331000   0.54534601   -3.8929024    2394.0263  0.046063771  0.045084644            6 
 4332000   0.56489439   -3.8841325    2394.4681  0.046061636  0.045074081           20 
 4333000   0.56969548   -3.8748229    2390.2275   0.04596945  0.045063613            6 
 4334000    0.5605075    -3.871986    2391.5871  0.045984985  0.045053106           11 
 4335000   0.56421011   -3.8798141    2401.3956   0.04616293  0.045042626           10 
 4336000   0.57334247   -3.8736234    2399.7156  0.046119995  0.045032139            4 
 4337000   0.56040152    -3.865973    2399.6434  0.046107974  0.045021691           14 
 4338000   0.57431699   -3.8912513    2393.8906  0.045986834  0.045011235           17 
 4339000   0.54770141   -3.8971206    2392.4173   0.04594794  0.045000756            8 
 4340000    0.5682623   -3.8726489    2397.4493  0.046033973  0.044990277           14 
 4341000   0.56594707   -3.8596089    2397.4358  0.046023109  0.044979813           10 
 4342000   0.56460877    -3.888036    2396.1963   0.04598872  0.044969304           13 
 4343000   0.56807312   -3.8841826    2394.2392  0.045940578  0.044958835            9 
 4344000   0.55662006   -3.8812615    2396.5523  0.045974376  0.044948401            9 
 4345000   0.55334017   -3.8631338    2405.0766  0.046127284  0.044937935            5 
 4346000   0.54943111   -3.8834236    2395.6651  0.045936207  0.044927479            8 
 4347000   0.55464346   -3.8952283    2394.5455  0.045904178  0.044916987           18 
 4348000   0.56035432   -3.8917117    2390.2189  0.045810697  0.044906495           10 
 4349000   0.55820607   -3.8913905    2394.4575  0.045881381  0.044895997            6 
 4350000    0.5422155   -3.8682602    2392.1338  0.045826318  0.044885515           22 
 4351000   0.56532497   -3.8951403    2399.7151  0.045960988  0.044875115            9 
 4352000   0.54805352   -3.8755418     2400.423  0.045963982   0.04486469            7 
 4353000   0.55907409   -3.8916894    2397.1922  0.045891574  0.044854291            9 
 4354000   0.54963188   -3.8768943     2402.189  0.045976669  0.044843853           12 
 4355000   0.55347477   -3.8674345    2396.5709  0.045858609  0.044833433            8 
 4356000   0.55629545   -3.8744057    2396.8773  0.045853943  0.044823049            8 
 4357000   0.56403882   -3.8676632    2405.2087  0.046002767  0.044812673           12 
 4358000   0.54403875   -3.8596468    2396.6022  0.045827638  0.044802273           10 
 4359000   0.55597796   -3.8666665    2399.5917  0.045874278  0.044791897            9 
 4360000   0.54389047   -3.8714009     2404.305  0.045953841  0.044781525           11 
 4361000   0.54197874   -3.8585961    2404.3635  0.045944422  0.044771139            8 
 4362000   0.55258302    -3.861313    2400.2049  0.045854441  0.044760707           21 
 4363000   0.54892084   -3.8657149    2395.4105  0.045752358  0.044750268            6 
 4364000   0.55151805   -3.8819495    2388.8392  0.045616392  0.044739819           10 
 4365000   0.54379063   -3.8768496    2390.2294  0.045632482  0.044729317           23 
 4366000     0.551317   -3.8850682    2398.4204  0.045778371  0.044718853           33 
 4367000   0.55698698   -3.8771722    2396.2756  0.045726959  0.044708333           17 
 4368000   0.54386391   -3.9055187     2391.557  0.045626468  0.044697828           18 
 4369000   0.55657317   -3.8948082    2393.2267  0.045647873  0.044687329           23 
 4370000   0.53598057   -3.8803841    2393.4823  0.045642302  0.044676795            9 
 4371000   0.54393199   -3.8948444    2391.0974  0.045586392  0.044666279           20 
 4372000   0.53829159   -3.8810339    2398.7995  0.045722773  0.044655759            7 
 4373000   0.55377825   -3.9061652    2397.3835  0.045685332  0.044645277           10 
 4374000   0.55632223    -3.899342    2400.6706  0.045737513  0.044634772           12 
 4375000   0.53985897   -3.8856863    2397.0902  0.045658861  0.044624273           15 
 4376000   0.55583448   -3.8698729    2398.5102  0.045675468  0.044613851            8 
 4377000   0.54314219    -3.918541    2402.2692    0.0457366  0.044603378           20 
 4378000   0.55538547   -3.8890922    2396.6669  0.045619516  0.044592898           20 
 4379000   0.54672012   -3.8624947    2403.6511  0.045742009  0.044582449           10 
 4380000   0.53702579   -3.8795852    2400.2865  0.045667551  0.044572046           10 
 4381000    0.5592271   -3.8744769    2397.2453  0.045599279  0.044561622            6 
 4382000   0.54563348   -3.8861838    2397.2314  0.045588609  0.044551224           20 
 4383000    0.5599207   -3.8765626    2397.9905   0.04559264  0.044540824           12 
 4384000   0.54666368   -3.8921928    2393.5274  0.045497404  0.044530407            7 
 4385000   0.56203094   -3.8906209    2401.0515  0.045630017  0.044520034           14 
 4386000   0.54707176   -3.9027132    2399.2023  0.045584479  0.044509671           21 
 4387000   0.55377276   -3.8913582    2400.5179  0.045599079  0.044499295            9 
 4388000   0.55485426   -3.8838704    2396.1421  0.045505585  0.044488895           16 
 4389000   0.55396173   -3.8784402     2400.266  0.045573516  0.044478455            6 
 4390000   0.54313517   -3.8978715     2395.799  0.045478341  0.044468024            9 
 4391000   0.56034208   -3.8969287    2404.7789  0.045638407  0.044457589           11 
 4392000   0.54503018   -3.8847501    2393.8444  0.045420545  0.044447179           12 
 4393000   0.54539653   -3.8875637    2397.2467  0.045474746  0.044436763           11 
 4394000   0.54107178    -3.896873    2396.5498  0.045451179  0.044426264           18 
 4395000   0.54271559   -3.9022052    2397.2481  0.045454078   0.04441582           11 
 4396000    0.5437247   -3.9004397    2400.4214  0.045503894  0.044405389           12 
 4397000   0.56228853   -3.8905465    2396.8106  0.045425113  0.044394988           21 
 4398000   0.53893534   -3.8841249    2390.8838  0.045302482  0.044384604           12 
 4399000   0.54199377   -3.8987765    2402.9895  0.045521511  0.044374187           22 
 4400000   0.54915582   -3.8832111    2400.2125   0.04545857  0.044363764           11 
 4401000   0.53337539   -3.9000242    2393.3371  0.045318055  0.044353343            9 
 4402000   0.54137863   -3.9038433    2395.3366  0.045345612  0.044342892           21 
 4403000   0.55651414    -3.879726    2401.0021  0.045442542   0.04433248           12 
 4404000   0.54470266   -3.8964553    2396.8056  0.045352816  0.044322128           22 
 4405000    0.5595937   -3.8958197    2396.7274  0.045341041  0.044311743           10 
 4406000   0.53515832   -3.8794557     2394.328  0.045285368  0.044301335           14 
 4407000   0.54032726   -3.8920828    2400.1518  0.045385217  0.044290877            7 
 4408000   0.55036882   -3.8773042    2405.2338  0.045470996  0.044280473            6 
 4409000   0.54392366   -3.8942418    2399.0644  0.045344076  0.044270083           19 
 4410000   0.53544095   -3.9053253    2396.7115  0.045289333  0.044259691           38 
 4411000   0.53399379   -3.9007368      2401.11  0.045362162  0.044249304           20 
 4412000   0.54537548   -3.9197962    2396.6173  0.045267024   0.04423888           33 
 4413000   0.54508162   -3.9028684    2399.1648  0.045304872  0.044228488           23 
 4414000   0.54781331   -3.9054449    2404.3388   0.04539229  0.044218098           17 
 4415000   0.53677448   -3.8944569      2406.99  0.045432049  0.044207743           13 
 4416000   0.54652541   -3.8905123    2403.3915  0.045353855  0.044197415            8 
 4417000   0.54289296   -3.8976238    2400.3453  0.045286116  0.044187054            6 
 4418000    0.5584217    -3.902499    2409.7285  0.045452855  0.044176767           19 
 4419000   0.53817848   -3.8824801    2403.2409  0.045320225  0.044166474           11 
 4420000   0.54511902   -3.9117593    2402.4418  0.045294905  0.044156142            8 
 4421000   0.55177823   -3.9075975    2399.1892   0.04522335   0.04414578           14 
 4422000   0.54006703   -3.8945325    2403.4299  0.045293041   0.04413547            7 
 4423000   0.55581501   -3.9009172    2401.4135   0.04524481  0.044125148           11 
 4424000   0.54395171    -3.901551    2405.3374  0.045308496  0.044114863           13 
 4425000   0.55761981   -3.8928721    2401.1048  0.045218547  0.044104536           16 
 4426000   0.55293837     -3.90956    2394.7957  0.045089542  0.044094178           15 
 4427000    0.5462546   -3.9150885    2399.7507  0.045172628  0.044083811           14 
 4428000   0.54525902   -3.8967461    2395.9931   0.04509171  0.044073474           14 
 4429000    0.5420086   -3.8946208    2403.0081  0.045213518  0.044063163           16 
 4430000   0.54278245   -3.9016078    2401.4381  0.045173779  0.044052842           20 
 4431000   0.54833009   -3.9119703    2397.8692  0.045096465   0.04404247           21 
 4432000     0.546909   -3.9038187    2401.0297  0.045145716  0.044032113           10 
 4433000   0.55032776   -3.9052298     2398.069  0.045079875  0.044021754           13 
 4434000   0.53846539   -3.9227324    2394.4087  0.045000916  0.044011381           16 
 4435000   0.53908279   -3.8962252    2401.7801  0.045129277  0.044001027            9 
 4436000   0.54100056   -3.8992368    2400.2209  0.045089812  0.043990675           10 
 4437000   0.55688279   -3.9071557    2404.7972  0.045165601  0.043980366           12 
 4438000   0.54174032   -3.8953847    2406.6641  0.045190479  0.043970032           19 
 4439000    0.5324539   -3.9168485    2403.3091  0.045117315  0.043959722            6 
 4440000   0.55493807   -3.9150032    2402.5717  0.045093312   0.04394941           16 
 4441000   0.53736949   -3.9038032    2402.8862  0.045089061  0.043939102           21 
 4442000   0.53752431   -3.9165678    2404.0651  0.045101026  0.043928804            8 
 4443000   0.54031735   -3.9103857    2405.5654  0.045119015  0.043918504           31 
 4444000   0.53617017    -3.896616    2401.1139  0.045025389  0.043908243            6 
 4445000   0.53841879   -3.9085316    2400.0916  0.044996094  0.043897921            8 
 4446000   0.55787696   -3.8887749     2398.359  0.044953498  0.043887618            9 
 4447000   0.54252283   -3.9041155    2406.1753   0.04508986  0.043877288           14 
 4448000   0.54648754   -3.9017198    2400.1365  0.044966586   0.04386697            8 
 4449000   0.54131639   -3.9193368    2404.6981  0.045041921   0.04385666           26 
 4450000   0.53004624   -3.9020349    2400.2001  0.044947568  0.043846327           11 
 4451000   0.55055726   -3.9200859    2403.3572  0.044996578  0.043836031            8 
 4452000   0.53508731   -3.9371222    2405.5815  0.045028105  0.043825728           17 
 4453000   0.53653011   -3.9196201    2402.2006  0.044954723  0.043815445           31 
 4454000   0.53706623   -3.9267183    2405.7858  0.045011708  0.043805122           23 
 4455000    0.5432241   -3.9112223    2401.4246  0.044920026  0.043794751            8 
 4456000   0.53702007   -3.9210721    2401.3172  0.044907937  0.043784444           20 
 4457000   0.52994507   -3.9274966    2393.9098  0.044759364  0.043774141           24 
 4458000   0.53106773   -3.9168209    2399.9718   0.04486264  0.043763858           13 
 4459000   0.53780366   -3.9166779    2398.5005  0.044825082  0.043753497           15 
 4460000   0.53367245   -3.9163328    2396.7175  0.044781718  0.043743121           13 
 4461000   0.52990282   -3.9068392     2394.496   0.04473018  0.043732749           14 
 4462000   0.53308159   -3.9145497    2396.7086  0.044761478  0.043722442           10 
 4463000   0.54375902   -3.8982293    2405.7165  0.044919645  0.043712115            6 
 4464000   0.54798264   -3.9175836    2396.5653  0.044738748  0.043701776           15 
 4465000   0.54738151   -3.9061182     2400.223  0.044796994  0.043691448           25 
 4466000    0.5311643   -3.9095625    2396.7981  0.044723058  0.043681159           13 
 4467000   0.53336594    -3.915982    2406.2326   0.04488905  0.043670878           10 
 4468000   0.53387568   -3.9281142    2407.3544  0.044899925  0.043660611            8 
 4469000   0.52460685   -3.9232757    2399.8359  0.044749682  0.043650323            6 
 4470000   0.53339058   -3.9173512    2398.8716  0.044721692   0.04364002           17 
 4471000   0.53594714   -3.9214563    2400.3148   0.04473859  0.043629684            8 
 4472000   0.53854432   -3.9130452    2397.7861  0.044681464  0.043619386           11 
 4473000   0.54013093   -3.9256004    2401.2164  0.044735383  0.043609089           10 
 4474000   0.53990689   -3.9105033    2398.5159  0.044675085  0.043598769           23 
 4475000   0.53240747   -3.9045907    2398.3265  0.044661573  0.043588476           11 
 4476000   0.53455179   -3.9017393    2404.5081  0.044766683  0.043578229           11 
 4477000   0.52727195   -3.9096622    2401.2635   0.04469629  0.043567988            7 
 4478000   0.52426781   -3.9047975    2398.1685  0.044628713  0.043557738            4 
 4479000    0.5256145   -3.9065316     2401.844  0.044687133   0.04354745            8 
 4480000    0.5318019   -3.9048253    2404.0669  0.044718505  0.043537227           14 
 4481000   0.53411228   -3.9096149    2409.3003  0.044805853  0.043527022           18 
 4482000   0.54228394   -3.9349262    2398.1348  0.044588257  0.043516733            8 
 4483000   0.53778261   -3.9235468     2399.195  0.044598018  0.043506398           29 
 4484000   0.54919886   -3.9308083    2392.1212  0.044456609  0.043496069           10 
 4485000   0.54582205   -3.9479617    2399.9529  0.044592214  0.043485738           10 
 4486000   0.53996995   -3.9304915    2395.0328  0.044490875  0.043475445           17 
 4487000   0.54067145   -3.9212573    2403.5332   0.04463883  0.043465148            5 
 4488000    0.5393172   -3.9103452    2407.6862  0.044705998  0.043454886            9 
 4489000   0.53181704   -3.9156792    2403.0745  0.044610428  0.043444624           17 
 4490000   0.53121791    -3.935518    2401.1794   0.04456532  0.043434346            8 
 4491000   0.53616734   -3.9229769    2395.2391   0.04444517  0.043424076           10 
 4492000   0.54136796   -3.9419705    2398.3629  0.044493227  0.043413797           11 
 4493000   0.54994623   -3.9188204    2401.4288  0.044540188  0.043403554           10 
 4494000   0.52823947   -3.9286806     2405.005  0.044596592  0.043393338           12 
 4495000   0.53368341   -3.9286667    2403.7792  0.044563945  0.043383132            9 
 4496000   0.53409271   -3.9086347    2401.6002  0.044513646  0.043372947           14 
 4497000   0.54255939   -3.9197239    2407.7211  0.044617172  0.043362741           10 
 4498000   0.53843261   -3.9218383    2399.9265  0.044462845   0.04335251            8 
 4499000   0.53066325   -3.9215486    2396.9866  0.044398506  0.043342278           13 
 4500000    0.5341593   -3.9379271    2403.6134  0.044511359  0.043332004           18 
 4501000   0.52793416   -3.9435843    2401.6981   0.04446601  0.043321767           17 
 4502000    0.5369578   -3.9251002    2397.5204  0.044378802  0.043311485           20 
 4503000   0.53921337   -3.9217525    2407.2108   0.04454828  0.043301247           10 
 4504000   0.53619514     -3.91999    2404.0722  0.044480317  0.043291013           10 
 4505000   0.53078231   -3.9275878    2402.1885  0.044435598  0.043280745           12 
 4506000   0.54201368   -3.9120593    2404.4993  0.044468473  0.043270509            7 
 4507000   0.53553201   -3.9078854    2399.6272  0.044368522  0.043260272           11 
 4508000   0.54647009   -3.9378459    2399.2498  0.044351704      0.04325           23 
 4509000   0.53319775   -3.9250255    2398.4973  0.044327961  0.043239683           30 
 4510000    0.5257853   -3.9315814    2402.7491  0.044396694   0.04322937           12 
 4511000   0.54373028   -3.9140623    2403.8827  0.044407794   0.04321909            9 
 4512000   0.53128897   -3.9366112    2404.1948  0.044403715  0.043208833           15 
 4513000   0.52318874   -3.9333296    2404.0793  0.044391745  0.043198579           25 
 4514000   0.54136389   -3.9250588    2400.3262  0.044312623  0.043188307           15 
 4515000   0.53446903   -3.9222919    2405.9459  0.044406532  0.043178081            9 
 4516000   0.52028105   -3.9269222    2401.8314  0.044320775  0.043167841           18 
 4517000   0.53521696   -3.9279665    2405.6465  0.044381346  0.043157588           12 
 4518000   0.53465883   -3.9264512    2400.2524   0.04427203  0.043147303           17 
 4519000   0.52491082   -3.9141527    2408.6946  0.044417914  0.043137054           20 
 4520000   0.53596087   -3.9294925    2403.4196  0.044310833  0.043126775           37 
 4521000   0.53227453   -3.9378575    2399.3018   0.04422513   0.04311654           17 
 4522000   0.52648038   -3.9366156    2396.9251  0.044171552  0.043106269           22 
 4523000   0.52869923   -3.9223085    2403.9701  0.044291586  0.043096039           26 
 4524000   0.53645837   -3.9268258     2401.944  0.044244475  0.043085794           27 
 4525000   0.52344367   -3.9206756    2399.4637  0.044189018  0.043075554           14 
 4526000   0.53157315   -3.9382838    2397.5642  0.044144282  0.043065372           12 
 4527000   0.53160389    -3.910337    2400.9467  0.044196795  0.043055136            5 
 4528000   0.52852974   -3.9210399     2401.591  0.044198892   0.04304491           13 
 4529000    0.5302792   -3.9351295    2402.9635  0.044214387  0.043034678           10 
 4530000   0.53021068   -3.9350704    2405.3458  0.044248451  0.043024468           16 
 4531000   0.53404311   -3.9341602    2405.9726  0.044250214   0.04301425           11 
 4532000    0.5242105   -3.9350533    2401.1391  0.044151572   0.04300404           11 
 4533000   0.53034942   -3.9114234    2401.7141  0.044152402  0.042993822           18 
 4534000   0.52734587   -3.9282946    2401.8709  0.044145547  0.042983591           33 
 4535000   0.52122739   -3.9140228    2402.1855  0.044141594  0.042973362           10 
 4536000   0.52256377   -3.9263417    2401.5761  0.044120667   0.04296315           12 
 4537000   0.53505023   -3.9484347    2401.3739  0.044107227  0.042952974            9 
 4538000   0.52669539   -3.9361205    2403.0081  0.044127517  0.042942722           16 
 4539000   0.51785341   -3.9372601    2403.1075  0.044119621  0.042932519           15 
 4540000   0.52667786   -3.9536986    2403.7437   0.04412158   0.04292231           10 
 4541000   0.52662406   -3.9339976    2399.8703  0.044040782  0.042912104           10 
 4542000   0.52602789   -3.9443478    2398.0702  0.043998058  0.042901953           20 
 4543000    0.5347182   -3.9489957    2400.3443  0.044030089  0.042891754           13 
 4544000   0.51939952   -3.9478232    2399.7292  0.044009119  0.042881546           16 
 4545000    0.5327291   -3.9374017    2404.8801  0.044093877  0.042871342           11 
 4546000   0.51196745   -3.9382114    2399.3349  0.043982528  0.042861131           14 
 4547000   0.51379466    -3.954487    2396.3511  0.043918171  0.042850914           43 
 4548000   0.52419404   -3.9341653    2403.0315   0.04403092  0.042840702           17 
 4549000   0.52969023   -3.9371852    2404.7938  0.044053524  0.042830517            8 
 4550000     0.522071   -3.9389582     2404.375  0.044036173   0.04282034           11 
 4551000   0.52224358   -3.9262849    2409.6047  0.044122257  0.042810188           11 
 4552000   0.51818005   -3.9439126    2399.9877  0.043936505  0.042800043           24 
 4553000   0.52513678   -3.9445099    2404.2357  0.044004606  0.042789881            6 
 4554000    0.5251072   -3.9501784    2407.5176  0.044054998  0.042779699            9 
 4555000    0.5279612    -3.934576     2404.048  0.043981852   0.04276953           13 
 4556000   0.52385693   -3.9563487    2411.2727  0.044104344   0.04275934           15 
 4557000   0.53021478   -3.9431136    2406.4182  0.044005893  0.042749196           16 
 4558000   0.52666426    -3.947824    2400.8627  0.043894666  0.042738998           10 
 4559000   0.52725188   -3.9287161    2405.2515  0.043965261  0.042728841           12 
 4560000     0.512724   -3.9431557    2405.3513  0.043957443  0.042718717           11 
 4561000   0.52858653   -3.9445952    2403.6412   0.04391656   0.04270856            9 
 4562000   0.52812071   -3.9520419    2401.0192  0.043859038   0.04269837           26 
 4563000   0.52525715    -3.937632    2408.8363   0.04399219  0.042688215           15 
 4564000   0.51658131   -3.9628145     2399.821  0.043817941  0.042678032           14 
 4565000   0.51178618   -3.9277126    2405.1671  0.043905935  0.042667873           12 
 4566000   0.51772427   -3.9348474    2404.7219  0.043888193  0.042657768            8 
 4567000   0.52504095   -3.9404768    2401.5561  0.043820817    0.0426476            9 
 4568000   0.53294878   -3.9358219    2398.0698  0.043747624  0.042637448            9 
 4569000   0.51849314   -3.9125387    2406.9854   0.04390066  0.042627328            5 
 4570000   0.51595847   -3.9222903    2404.5567  0.043846766  0.042617175            9 
 4571000   0.52587724   -3.9506338     2402.303  0.043796087  0.042607032            6 
 4572000    0.5272814   -3.9465865    2401.5148  0.043772142  0.042596914           13 
 4573000   0.52536983   -3.9575812    2397.0224  0.043680706  0.042586735            8 
 4574000   0.51799308   -3.9587628    2402.9788  0.043779675  0.042576568            8 
 4575000   0.51849458   -3.9485457    2406.7601  0.043838982  0.042566416            9 
 4576000   0.52179197   -3.9583638    2403.4337  0.043768824   0.04255625           17 
 4577000   0.50412284   -3.9163625    2404.0628  0.043770715  0.042546124           18 
 4578000    0.5256684   -3.9403796    2398.8227  0.043665769  0.042535964           11 
 4579000   0.52056656   -3.9546189    2403.8347  0.043747446  0.042525788           23 
 4580000   0.51997194       -3.953    2405.1062   0.04376103  0.042515644           13 
 4581000   0.52314309   -3.9607261    2404.3356   0.04373746  0.042505533           21 
 4582000   0.52462565   -3.9612999    2405.7264  0.043753209  0.042495413           14 
 4583000   0.51767461   -3.9491283    2404.6792  0.043724621  0.042485255           23 
 4584000   0.52003885    -3.934662    2394.5992  0.043531836  0.042475111            8 
 4585000   0.50602829   -3.9390953    2402.9472  0.043674067  0.042464966           21 
 4586000   0.51655797   -3.9486821    2400.2685  0.043615868  0.042454806           19 
 4587000   0.50573018   -3.9523291    2410.6374  0.043794735  0.042444683           11 
 4588000   0.51813099   -3.9582326    2405.9194  0.043699495  0.042434557           10 
 4589000    0.5154025   -3.9592189    2401.5237  0.043610149  0.042424423           23 
 4590000   0.52005191     -3.96082    2401.9926  0.043609161  0.042414269           15 
 4591000   0.52841583   -3.9494844    2395.9906  0.043490718   0.04240413           15 
 4592000   0.52492652   -3.9553672    2405.0087  0.043644903  0.042394025           17 
 4593000   0.51453701   -3.9444893    2405.2021  0.043638909   0.04238395           21 
 4594000   0.52524481   -3.9283229    2404.3914  0.043614704  0.042373864            9 
 4595000   0.50836931   -3.9422432    2407.0276  0.043653021  0.042363791           16 
 4596000   0.51570208   -3.9564163    2411.0027  0.043715598  0.042353713           29 
 4597000   0.51162653   -3.9404125     2399.605  0.043499474  0.042343659           14 
 4598000   0.51134454   -3.9604517    2405.0777  0.043589201  0.042333594           14 
 4599000   0.51302185   -3.9398845     2397.861  0.043448955  0.042323517           12 
 4600000   0.50685756   -3.9468805    2409.8606  0.043656895  0.042313429            8 
 4601000   0.50262884   -3.9581598    2404.5325  0.043550903  0.042303363           13 
 4602000   0.51336301   -3.9534743    2404.4733  0.043540367  0.042293256           13 
 4603000   0.52318249   -3.9695273    2406.4453  0.043566611  0.042283213           21 
 4604000   0.51018547   -3.9494635    2410.4661  0.043629926  0.042273158           32 
 4605000   0.51156195   -3.9535613    2404.9637  0.043520878  0.042263061           34 
 4606000    0.5278854   -3.9411597    2407.8311  0.043563307   0.04225293           20 
 4607000   0.52399146   -3.9475277     2404.041  0.043485295   0.04224284           14 
 4608000   0.52722657   -3.9548683    2412.6054  0.043630741   0.04223276           24 
 4609000   0.51472419    -3.966351     2406.432  0.043509655  0.042222712            7 
 4610000   0.51018283   -3.9518684    2407.6737  0.043522663  0.042212641            8 
 4611000   0.50624878   -3.9747678    2405.9355   0.04348181  0.042202547           13 
 4612000   0.51502218   -3.9706769     2406.426  0.043481244  0.042192475           12 
 4613000    0.5096399   -3.9571861    2403.8334  0.043424984  0.042182408           15 
 4614000   0.51397384   -3.9504879    2406.5742  0.043465075  0.042172349           15 
 4615000   0.51416015   -3.9555603    2407.3483  0.043469633  0.042162257           15 
 4616000   0.51865367   -3.9629014    2410.7118  0.043520938  0.042152223           14 
 4617000   0.51718442   -3.9647504    2400.5933  0.043328881  0.042142192           14 
 4618000   0.51282029   -3.9678737    2405.3215  0.043404819  0.042132116           19 
 4619000   0.50808836   -3.9510641    2410.6158  0.043490939  0.042122044           32 
 4620000   0.50435865   -3.9457018    2402.5178  0.043335458  0.042111984            9 
 4621000   0.51350443   -3.9709425    2405.8652  0.043386446  0.042101922           20 
 4622000   0.50557855   -3.9567247    2407.1876  0.043400902  0.042091901           55 
 4623000   0.50594691   -3.9649335     2402.503  0.043307069  0.042081849            8 
 4624000   0.50788089   -3.9707395    2407.5251  0.043388213  0.042071813           14 
 4625000   0.51983055    -3.959483     2405.748  0.043346811  0.042061778           15 
 4626000   0.50314947   -3.9647586    2406.8769  0.043357776  0.042051742           13 
 4627000   0.51233791   -3.9758344     2402.409  0.043267939  0.042041654           10 
 4628000   0.51015813   -3.9519922    2401.6801  0.043245464   0.04203162           16 
 4629000   0.52439693   -3.9831566    2408.2785  0.043354909  0.042021612           13 
 4630000   0.50675039   -3.9745195    2407.9383  0.043339422  0.042011637           11 
 4631000   0.51869758   -3.9674135    2402.8147  0.043237867  0.042001629           27 
 4632000    0.5065562   -3.9667127    2406.7701  0.043299693  0.041991629            7 
 4633000   0.51067686   -3.9454487    2412.1921  0.043387872  0.041981656           22 
 4634000   0.51114502   -3.9331885    2408.9618  0.043320419  0.041971656           17 
 4635000   0.50541909   -3.9626785     2407.454  0.043283962  0.041961722           13 
 4636000   0.51013912   -3.9678094    2407.2123  0.043270281  0.041951761           30 
 4637000   0.52079186     -3.97772    2403.7129   0.04319806  0.041941748           19 
 4638000   0.51705061   -3.9793853    2411.9426  0.043336614  0.041931725           27 
 4639000   0.52094704   -3.9919665    2406.3883  0.043227497  0.041921759           10 
 4640000   0.50468944   -3.9806271    2403.0425  0.043158091   0.04191178           13 
 4641000    0.5142388    -3.962076     2407.248  0.043224306  0.041901799           15 
 4642000    0.5096225   -3.9561561    2411.9218  0.043298898   0.04189184           10 
 4643000   0.50064973   -3.9770438    2408.8304  0.043234088  0.041881865           19 
 4644000   0.50949687   -3.9622606    2403.8831  0.043136002  0.041871883            8 
 4645000   0.50667148   -3.9819948    2412.9538  0.043289447  0.041861921           12 
 4646000   0.51208346   -3.9646189    2410.9229  0.043243702  0.041852004            5 
 4647000   0.51472012   -3.9426069    2405.2365  0.043132424  0.041842028           10 
 4648000    0.5215601   -3.9794713    2409.1677  0.043193627  0.041832042           10 
 4649000    0.5106358   -3.9804999     2405.137  0.043112085  0.041822033            6 
 4650000   0.49797768   -3.9844596    2401.3442  0.043034842  0.041811995           11 
 4651000   0.51337458   -3.9912798    2403.2723  0.043060136  0.041801992            9 
 4652000   0.51293205   -3.9734537     2410.723  0.043184347  0.041792012           23 
 4653000   0.50852428    -3.978854     2405.324  0.043078372  0.041782042           11 
 4654000     0.501665   -3.9692609    2404.4213  0.043052953  0.041772077            9 
 4655000   0.50695508   -3.9676371    2407.0816  0.043091328  0.041762087           10 
 4656000   0.50149661   -3.9772152    2403.0711  0.043010292   0.04175212           11 
 4657000   0.51750762   -3.9734178    2402.8892  0.042997803  0.041742144            8 
 4658000   0.50760999   -3.9690331    2407.5424  0.043071819  0.041732115           16 
 4659000   0.50536262   -3.9897118    2408.1991   0.04307432  0.041722119           21 
 4660000   0.50169508   -3.9825537    2403.8405  0.042987133  0.041712102           25 
 4661000   0.50095584   -3.9702476    2402.0265  0.042945478  0.041702122           13 
 4662000   0.50974063   -3.9691124    2407.3892  0.043032126  0.041692141           10 
 4663000   0.49834965    -3.968925    2412.6241  0.043116451  0.041682234           22 
 4664000   0.50334606     -3.96705     2406.913  0.043005164   0.04167228           22 
 4665000   0.50173625   -3.9823042    2408.4877  0.043024075  0.041662308           20 
 4666000   0.50452596   -3.9852561    2411.4687  0.043068094  0.041652367           15 
 4667000   0.50053366   -3.9791975    2410.8846  0.043048436  0.041642436           26 
 4668000   0.50421591   -3.9734155    2405.2672  0.042938932  0.041632465           14 
 4669000   0.49013186   -3.9769083    2409.1113  0.042998345  0.041622497           16 
 4670000   0.49498119   -3.9632936    2405.9345  0.042932451  0.041612543           19 
 4671000    0.5071986   -3.9674696    2402.7092  0.042865718   0.04160261           20 
 4672000   0.50534611   -4.0087691     2408.302    0.0429563  0.041592633           13 
 4673000   0.50137264   -3.9887626    2407.6435  0.042935365  0.041582639           14 
 4674000   0.50696255   -3.9689146    2407.2372  0.042918934  0.041572666           15 
 4675000   0.50376079   -3.9803233    2403.8132  0.042848721  0.041562727            7 
 4676000    0.5055526   -3.9712905     2401.568  0.042799543  0.041552806            7 
 4677000   0.50148257     -3.96836    2410.3167  0.042946275  0.041542861           12 
 4678000   0.50540982    -3.972004      2406.38  0.042866967  0.041532951           11 
 4679000    0.5022872   -3.9793308    2405.4717  0.042841627  0.041523014           21 
 4680000   0.50663717   -3.9811547    2406.9483  0.042858766  0.041513054           22 
 4681000   0.50840988   -3.9953431    2404.4773   0.04280562  0.041503079            7 
 4682000   0.50386903   -3.9675172    2407.7486  0.042854703   0.04149308           23 
 4683000   0.49937841   -3.9918656    2405.2833  0.042801682  0.041483089           14 
 4684000   0.50484349   -3.9919005    2406.0743  0.042806617  0.041473113           10 
 4685000   0.51010982   -3.9823952    2408.4337  0.042839448  0.041463146           10 
 4686000   0.49639444   -3.9767716    2405.9529  0.042786188  0.041453183           13 
 4687000   0.50974941   -3.9949945    2408.0779  0.042814841  0.041443238           29 
 4688000   0.50421622   -3.9734271    2407.6534  0.042798162  0.041433255           13 
 4689000     0.504692   -3.9787033    2409.0108  0.042813159   0.04142328           15 
 4690000   0.50131886   -3.9983373     2400.946  0.042660733  0.041413292           17 
 4691000   0.50501389   -3.9726918    2409.5707  0.042804852  0.041403309           21 
 4692000   0.49929929   -4.0009042    2402.0047   0.04266135  0.041393316            8 
 4693000   0.50181957   -3.9838252    2405.8646  0.042720801  0.041383397           10 
 4694000   0.49431779   -3.9649661    2402.0935   0.04264475   0.04137346           15 
 4695000   0.51432202   -3.9830202    2406.7132  0.042717665  0.041363495           24 
 4696000   0.51542927   -3.9650632    2404.6692  0.042672296  0.041353537           16 
 4697000   0.49688622    -3.978787     2410.547  0.042767493  0.041343605           11 
 4698000   0.49805817   -3.9873183    2406.3266  0.042683529  0.041333704           12 
 4699000   0.50372925   -3.9762258    2413.7976  0.042806938  0.041323801           10 
 4700000   0.49841119   -3.9891234     2407.808  0.042691632  0.041313882           14 
 4701000   0.50756515   -3.9838261    2406.0674  0.042651694  0.041303942            8 
 4702000   0.50335126   -3.9982566    2402.0504  0.042571431  0.041294004           15 
 4703000   0.49935948   -3.9857269     2398.043  0.042491372  0.041284027           22 
 4704000   0.49334762   -3.9638763    2408.6762  0.042670709  0.041274084           12 
 4705000    0.4941741   -3.9927537    2405.1404  0.042599015  0.041264156           12 
 4706000   0.50652826   -3.9910763    2413.5939  0.042739657  0.041254231           11 
 4707000    0.4930618   -3.9703602    2404.3893  0.042567617  0.041244326           17 
 4708000   0.50623174   -3.9727985    2407.9655  0.042621875  0.041234428           14 
 4709000   0.49245511   -3.9865083    2407.3984  0.042602788  0.041224588           31 
 4710000    0.5071518   -3.9712182    2407.9997  0.042604383  0.041214716           10 
 4711000   0.49756904   -3.9755976    2405.5477  0.042551965  0.041204825           10 
 4712000    0.5014116   -3.9922354    2407.9832  0.042586007  0.041194926           14 
 4713000   0.49640479   -3.9853042    2410.1242  0.042614827  0.041185023           13 
 4714000   0.50082032   -3.9925052    2407.7432  0.042563697  0.041175111           25 
 4715000   0.49758235   -3.9850762      2405.32  0.042511841  0.041165189           21 
 4716000   0.49564882   -3.9787698    2400.0183  0.042409144   0.04115528           28 
 4717000   0.49158858   -3.9830027     2399.832  0.042396863  0.041145364           17 
 4718000   0.49084853   -3.9767208    2409.6218  0.042560793  0.041135471           24 
 4719000    0.4927877   -4.0087162    2405.8031  0.042484339  0.041125556           24 
 4720000   0.49282604   -3.9898735     2418.167  0.042693626   0.04111565           13 
 4721000   0.49414758   -3.9766803    2407.5999  0.042498057  0.041105766           11 
 4722000   0.49840457   -3.9836972    2402.4452  0.042398088  0.041095848           19 
 4723000    0.4890061   -3.9758598    2410.4414  0.042530197  0.041085961            9 
 4724000   0.49498693   -3.9953217    2407.2091  0.042464174   0.04107608           37 
 4725000   0.49946703   -3.9958935    2403.8535  0.042396005  0.041066177           51 
 4726000    0.5027682   -3.9828734    2407.6403  0.042453808  0.041056265           47 
 4727000   0.49062029   -3.9921323    2408.4538  0.042459167  0.041046426           47 
 4728000   0.50398144   -3.9956659     2403.518  0.042363191   0.04103654           33 
 4729000   0.49263951   -3.9746013    2406.6516  0.042409453  0.041026677           21 
 4730000   0.49786981    -3.984602    2406.5663  0.042398983  0.041016792           20 
 4731000   0.50440501   -3.9979716    2408.3782  0.042421937  0.041006895            6 
 4732000   0.49730186   -4.0086463    2400.3754  0.042272037   0.04099699           19 
 4733000   0.48649378   -3.9856256    2407.1195  0.042381849  0.040987111           13 
 4734000   0.49267323   -3.9892666    2412.1788  0.042461956  0.040977212           12 
 4735000   0.49323094   -4.0017722    2408.7016  0.042391792  0.040967349           15 
 4736000   0.49108251   -3.9866866     2402.806  0.042279103  0.040957439           23 
 4737000   0.49917442   -4.0071482    2401.8412  0.042253205  0.040947561           12 
 4738000   0.49077681   -3.9745953    2411.0983  0.042407104  0.040937706           19 
 4739000   0.48291922    -4.000241     2403.409  0.042262941  0.040927876           31 
 4740000   0.48799301   -3.9971489    2408.6026  0.042345335  0.040918065           10 
 4741000   0.49328284   -4.0002348    2405.2138  0.042276837  0.040908198           30 
 4742000   0.49367093   -3.9872199    2402.2467  0.042215778  0.040898339           13 
 4743000   0.50063287   -3.9928195    2403.7639  0.042233535  0.040888451           19 
 4744000   0.47909319   -3.9825781    2412.5805  0.042379506  0.040878601           17 
 4745000   0.49476285   -3.9951311    2405.5355  0.042246848  0.040868757           30 
 4746000   0.49433096   -3.9802834    2408.8383   0.04229594  0.040858895           16 
 4747000   0.49096284    -4.011271    2406.7168  0.042249786  0.040849064           22 
 4748000   0.49664426   -4.0028307    2413.3038  0.042356498  0.040839254           26 
 4749000    0.4988585   -3.9881095    2406.5771  0.042229541  0.040829433           36 
 4750000   0.48847826   -4.0137019    2408.5587  0.042255415  0.040819588           24 
 4751000   0.48662771   -4.0021037    2409.8378  0.042268957  0.040809777           40 
 4752000   0.49899118   -3.9915897    2406.4605  0.042200836  0.040799988           16 
 4753000   0.48274693   -4.0129212    2401.8487  0.042111099  0.040790168           23 
 4754000   0.50358695   -3.9993759     2408.583  0.042220288   0.04078037           31 
 4755000   0.49580823    -3.990754    2414.5091  0.042315266  0.040770578           12 
 4756000   0.49345305   -3.9968032    2400.0686  0.042053346  0.040760762           42 
 4757000   0.49775348   -3.9899909    2402.8434  0.042093115  0.040750917           57 
 4758000    0.4989077   -4.0131623    2402.6609  0.042081073  0.040741094           18 
 4759000   0.48838797   -4.0005855    2407.7685  0.042161667  0.040731251           20 
 4760000   0.49091131   -3.9961081    2406.9551   0.04213857  0.040721415           23 
 4761000   0.49367969   -4.0079731    2414.8926  0.042268651  0.040711572           26 
 4762000   0.48664579   -4.0002858     2403.689  0.042063717  0.040701735           11 
 4763000   0.49186644   -3.9886558    2403.5933  0.042053211  0.040691935           12 
 4764000   0.49037011   -4.0105552    2403.5445  0.042043529  0.040682121           16 
 4765000   0.48659832   -4.0063627    2405.5715  0.042070156  0.040672316           17 
 4766000   0.49672801   -3.9944757    2410.5575  0.042148508  0.040662517            9 
 4767000   0.49023549   -4.0049224    2410.8915  0.042145505  0.040652717           18 
 4768000   0.49170397   -4.0159701    2407.6045  0.042079217  0.040642933           18 
 4769000   0.49631158   -4.0088808    2408.1758  0.042080376   0.04063317           12 
 4770000   0.49344756   -3.9859652    2408.3274  0.042074204  0.040623415            4 
 4771000   0.47916821   -3.9970775    2408.6329  0.042070721  0.040613677            8 
 4772000   0.50362084   -3.9952196    2413.9846  0.042155361  0.040603955           30 
 4773000   0.48805182   -3.9988516    2410.9944  0.042094322  0.040594206           30 
 4774000   0.50078466   -4.0011555    2404.0394  0.041964101  0.040584427           19 
 4775000   0.47314278   -4.0159769    2406.7287  0.042002247  0.040574667           19 
 4776000   0.48407627    -3.986947    2405.6523  0.041974671  0.040564903           18 
 4777000   0.49462431   -3.9987129    2408.8934  0.042022424  0.040555144           14 
 4778000   0.48921691    -3.997811    2411.4743  0.042058641   0.04054542           13 
 4779000   0.49662701   -3.9956497    2408.0513  0.041990154  0.040535687            8 
 4780000   0.47745307   -4.0002207    2408.8333  0.041995002  0.040525931           14 
 4781000   0.47685684   -3.9927102    2406.1994  0.041940309  0.040516158           11 
 4782000   0.48366876   -4.0161648    2402.2332  0.041862422  0.040506401           11 
 4783000    0.4825004   -3.9900987    2403.1786  0.041870141  0.040496624           12 
 4784000   0.48850548   -4.0059855    2405.6638  0.041904679  0.040486833           30 
 4785000   0.49570104   -4.0077538    2407.5876  0.041929426   0.04047708           10 
 4786000   0.48817365    -3.995439    2408.3117  0.041933273    0.0404673           12 
 4787000   0.47445099    -4.006688    2409.7927  0.041950294  0.040457521           30 
 4788000   0.48340457   -4.0000371    2410.9084  0.041960951  0.040447756           12 
 4789000   0.49310093   -4.0065457    2405.8219  0.041863679  0.040437996           37 
 4790000   0.47977565   -4.0064301    2409.6561  0.041921645  0.040428234            8 
 4791000   0.48435572     -4.01211    2406.8917  0.041864811  0.040418469            8 
 4792000   0.47866336   -4.0290431    2401.9684  0.041770458  0.040408676           23 
 4793000   0.48186884   -4.0168517    2407.2558  0.041853672   0.04039889            9 
 4794000   0.47902137   -4.0226338    2411.7284  0.041922688    0.0403891           19 
 4795000   0.48114541   -4.0053237    2409.9798  0.041883557  0.040379305           12 
 4796000   0.47982676   -4.0255878    2407.6789  0.041834843  0.040369538           29 
 4797000   0.48667435   -4.0026335    2411.0295  0.041884329  0.040359819           18 
 4798000   0.48284958   -4.0286056    2405.6681  0.041782481  0.040350054           38 
 4799000   0.48466686   -4.0140805     2413.392  0.041907897  0.040340321           15 
 4800000    0.4765912   -4.0120643    2409.5694  0.041832802  0.040330579           11 
 4801000    0.4742331   -4.0042689    2410.5476  0.041841068  0.040320818           16 
 4802000   0.48477813   -4.0202037    2408.2271  0.041792086  0.040311064           20 
 4803000   0.47591885    -4.003577    2406.6075  0.041755283  0.040301311            8 
 4804000   0.49084043   -4.0040678    2404.3009  0.041706579  0.040291606           10 
 4805000   0.48342657    -4.029118    2404.5383  0.041702017  0.040281842           14 
 4806000    0.4811005   -4.0133275    2403.0464  0.041667471  0.040272054           13 
 4807000   0.48985653   -4.0283294    2403.4431   0.04166568  0.040262274           34 
 4808000   0.49002942   -4.0230137    2401.3077  0.041620003  0.040252459           22 
 4809000   0.48208365   -4.0296911    2402.4899  0.041631835  0.040242665           58 
 4810000    0.4832705   -4.0123567    2401.5073  0.041606156  0.040232873           35 
 4811000   0.47701744   -4.0286024    2407.6108  0.041703228  0.040223094           17 
 4812000    0.4789932    -4.019354     2413.274  0.041792636   0.04021332           12 
 4813000   0.47800952   -4.0193758    2406.6921  0.041669994  0.040203493           39 
 4814000   0.48152936   -4.0295691    2405.1605  0.041634824  0.040193701           21 
 4815000   0.48692392   -4.0213041    2403.8195  0.041602968  0.040183901           17 
 4816000   0.48423225    -3.996175    2403.7871  0.041593769  0.040174124           15 
 4817000   0.47767012   -4.0201629     2406.798  0.041637223   0.04016439           19 
 4818000   0.48067616   -4.0179803    2409.2884  0.041671655  0.040154641           12 
 4819000   0.47737976   -4.0245311    2410.7863  0.041688911    0.0401449           13 
 4820000   0.49087594   -4.0109602    2402.7549  0.041541405  0.040135157           10 
 4821000   0.46354844   -4.0103018    2402.0469   0.04152055  0.040125381           20 
 4822000   0.48428238   -4.0218931    2407.0491  0.041598388  0.040115576           21 
 4823000   0.48235647   -4.0122111    2404.2703   0.04154175  0.040105793           18 
 4824000   0.47158681   -4.0124457    2404.7502  0.041541428   0.04009604           13 
 4825000   0.49725832   -4.0280661    2407.5526  0.041581219   0.04008623           24 
 4826000   0.48388251    -4.020366    2404.5728   0.04152115  0.040076445           29 
 4827000   0.48517166   -4.0328047    2400.9363  0.041449766  0.040066654           12 
 4828000   0.48057363   -4.0258127    2403.7388  0.041489555  0.040056841           17 
 4829000   0.47926301   -4.0174695    2405.3062   0.04150801  0.040047067           26 
 4830000   0.47573318   -4.0154213    2406.0422  0.041512115   0.04003731           20 
 4831000   0.47639558   -4.0195674    2406.6415  0.041513861  0.040027564           12 
 4832000    0.4792941   -4.0356509     2401.283  0.041412855   0.04001779           23 
 4833000   0.48117994    -4.025075    2407.1479  0.041505412   0.04000802            9 
 4834000   0.47921062   -4.0305051    2410.8819  0.041561197  0.039998235           11 
 4835000   0.48387885   -4.0216294    2402.9583  0.041416035  0.039988446           34 
 4836000   0.47694552   -4.0228528    2398.1721  0.041324995  0.039978648           19 
 4837000   0.48210093   -4.0389919    2404.4813  0.041425148  0.039968859           49 
 4838000   0.47568884   -4.0458281    2400.0929  0.041340996  0.039959085           21 
 4839000   0.46360488    -4.026845    2400.5337  0.041340044  0.039949345           19 
 4840000   0.48079673   -4.0262275    2402.3886   0.04136344  0.039939579           23 
 4841000   0.47788305   -4.0239552    2402.4246  0.041355515   0.03992981           28 
 4842000   0.48076789   -4.0359415    2407.1067  0.041427556  0.039920046            7 
 4843000   0.47643826   -4.0268795    2401.2181  0.041317678  0.039910303           30 
 4844000   0.47463124    -4.030368    2402.3458  0.041328547  0.039900527           20 
 4845000   0.48454355   -4.0403765    2401.4641  0.041304852  0.039890755           23 
 4846000   0.48454352   -4.0216978    2404.3417  0.041345812  0.039880968           55 
 4847000   0.46098197   -4.0351277    2404.0875  0.041332912  0.039871201           27 
 4848000   0.48619909   -4.0319999    2405.9383  0.041356199  0.039861441           21 
 4849000   0.46536775   -4.0386857    2400.4105  0.041252672  0.039851672           60 
 4850000    0.4766291   -4.0371201    2403.6285  0.041299459  0.039841897           44 
 4851000   0.47959688   -4.0319395    2405.2165  0.041318225  0.039832147           19 
 4852000   0.48003808   -4.0192321    2402.9993  0.041271629  0.039822393           11 
 4853000   0.47497744   -4.0333562    2402.4131  0.041253058  0.039812638           19 
 4854000   0.47285366   -4.0379835    2400.7146  0.041215399  0.039802912           11 
 4855000   0.47473568   -4.0370688    2404.3786  0.041269801  0.039793196           20 
 4856000   0.46983417    -4.039723    2406.9718  0.041305804  0.039783474           12 
 4857000   0.47752908   -4.0513561    2406.2994  0.041285763  0.039773766           34 
 4858000    0.4711665   -4.0501018    2404.6221  0.041248492  0.039764019           39 
 4859000   0.47904183    -4.015884    2407.2954  0.041285851  0.039754291           41 
 4860000     0.483555   -4.0186069    2405.2516  0.041242311  0.039744591           23 
 4861000   0.48074372   -4.0078881    2405.2007  0.041232955  0.039734906           51 
 4862000    0.4837282   -4.0334953    2406.2553   0.04124255  0.039725234           81 
 4863000   0.47387536   -4.0308551    2407.2867  0.041251743  0.039715504           38 
 4864000   0.47477263   -4.0295513     2403.844   0.04118428  0.039705816           71 
 4865000    0.4727206   -4.0343614    2406.9296  0.041228667  0.039696111          139 
 4866000   0.47382047   -4.0348742    2406.2162  0.041207977  0.039686421          169 
 4867000   0.47969367   -4.0383229    2403.2042  0.041147938  0.039676726          127 
 4868000   0.46794827   -4.0300853    2403.5536  0.041145468  0.039667035          110 
 4869000   0.48131262    -4.037672    2405.6825  0.041173453  0.039657378          116 
 4870000   0.47150244   -4.0453144    2402.1141  0.041103937  0.039647687          103 
 4871000   0.48005238   -4.0346945    2402.8369  0.041107865  0.039638023          142 
 4872000   0.47215082   -4.0308989    2400.7127  0.041063094  0.039628286          164 
 4873000   0.48126139    -4.075939    2399.1576  0.041028074  0.039618545          152 
 4874000   0.47495387   -4.0431472    2400.9313  0.041049981  0.039608781          115 
 4875000   0.47033049   -4.0453427    2406.1059  0.041130016  0.039599096          118 
 4876000   0.46682138    -4.020399    2403.8759  0.041083468  0.039589404          119 
 4877000   0.46264346    -4.047687    2410.6578  0.041190926   0.03957971          107 
 4878000   0.46751059   -4.0238785    2405.2729   0.04109049  0.039570005          166 
 4879000   0.47437408   -4.0330489    2398.9034  0.040973277   0.03956033          112 
 4880000   0.47635672    -4.045221    2395.9032  0.040913647   0.03955064           69 
 4881000   0.47608056   -4.0540708    2397.4963  0.040932464  0.039540908           93 
 4882000   0.46812708   -4.0569398    2401.0087  0.040984036  0.039531206           81 
 4883000   0.47150735   -4.0286097     2400.834  0.040972661  0.039521489          122 
 4884000   0.47201235   -4.0209689     2405.417  0.041042468  0.039511819           94 
 4885000   0.46499163   -4.0359873    2408.4826  0.041086364  0.039502173          130 
 4886000   0.46951631   -4.0378915    2407.1606  0.041055406  0.039492504           52 
 4887000   0.46948771   -4.0301119     2402.959   0.04097536  0.039482825           43 
 4888000   0.47342858    -4.033582    2401.3631  0.040939769  0.039473166           91 
 4889000   0.47486357    -4.060911    2403.1449  0.040961766   0.03946352          101 
 4890000   0.47228089   -4.0443234      2405.21  0.040988581  0.039453876          105 
 4891000   0.46824374   -4.0543012    2404.5341  0.040968686  0.039444244           40 
 4892000    0.4734575   -4.0319747    2402.8633   0.04093185  0.039434617          103 
 4893000   0.47406821   -4.0435757    2401.1127  0.040893669  0.039424973           68 
 4894000   0.47224718    -4.056305    2403.6498  0.040928514    0.0394153           43 
 4895000   0.47486936   -4.0335762    2399.6677  0.040852361  0.039405603           35 
 4896000   0.47371548   -4.0635685    2407.1927  0.040972099  0.039395931           50 
 4897000   0.47050607   -4.0515199    2407.0287  0.040960941  0.039386253           27 
 4898000   0.47370902    -4.042335    2396.6499  0.040775995  0.039376563           38 
 4899000   0.46962037   -4.0413038    2398.6238  0.040801249  0.039366931           20 
 4900000   0.47352802   -4.0358401    2403.5014  0.040875875  0.039357294           22 
 4901000    0.4617838   -4.0540388    2404.1316   0.04087825  0.039347679           39 
 4902000   0.46554779   -4.0565351    2398.0404  0.040766361  0.039338029           31 
 4903000   0.46842018   -4.0627857    2398.1677   0.04076021  0.039328365           31 
 4904000   0.47954008   -4.0575345    2404.9647  0.040867399  0.039318685           44 
 4905000   0.46276318   -4.0380542    2403.6872  0.040837364   0.03930902           35 
 4906000    0.4707341   -4.0669549    2403.6355  0.040828162  0.039299371           25 
 4907000   0.45783231   -4.0513238      2403.02  0.040809388  0.039289749           12 
 4908000   0.45983098   -4.0593197    2400.0338   0.04075037  0.039280117           21 
 4909000   0.46554085   -4.0489453    2401.5276  0.040767427  0.039270475           27 
 4910000   0.46715968   -4.0458885    2398.6793  0.040710783  0.039260838           17 
 4911000   0.46632734   -4.0463361    2403.7917  0.040789244  0.039251216            9 
 4912000   0.46726451   -4.0361889    2406.4741  0.040826447  0.039241629           11 
 4913000   0.46654999   -4.0496624    2401.2285  0.040729162  0.039232026           15 
 4914000    0.4566892    -4.064712    2407.8277  0.040832786  0.039222426           16 
 4915000   0.46115454   -4.0607395    2408.6966   0.04083921  0.039212848           11 
 4916000   0.46314634   -4.0527974    2408.3539  0.040825094  0.039203268           34 
 4917000    0.4654238   -4.0467623    2403.1422  0.040728462  0.039193693           14 
 4918000   0.46579741   -4.0492096    2405.4302  0.040758949  0.039184113           22 
 4919000   0.45503364   -4.0487062     2401.318  0.040680999  0.039174542           15 
 4920000   0.46235637    -4.068918    2403.8366   0.04071539   0.03916492           12 
 4921000    0.4604867   -4.0406037     2410.453  0.040819159  0.039155344           18 
 4922000   0.46167497   -4.0468855    2406.1137  0.040737398  0.039145779           25 
 4923000     0.451968   -4.0567223    2408.4172  0.040768116  0.039136229           62 
 4924000   0.46063425   -4.0483882    2405.8075   0.04071567  0.039126649           22 
 4925000   0.46497102   -4.0464521    2405.3846  0.040700247  0.039117066           26 
 4926000   0.46933348   -4.0412369    2408.5001   0.04074469  0.039107475           31 
 4927000   0.46377931   -4.0452878    2402.2516  0.040630736  0.039097892           26 
 4928000   0.45744478   -4.0641513    2403.2331  0.040639088  0.039088306           35 
 4929000   0.47104307   -4.0595875    2402.7938  0.040623416  0.039078716           19 
 4930000   0.46161655   -4.0732141    2401.9486  0.040600888  0.039069127           15 
 4931000   0.46583703   -4.0545449    2401.9143  0.040592075  0.039059538           19 
 4932000   0.45624227   -4.0483242    2402.6748  0.040596695  0.039049957           26 
 4933000   0.46189051    -4.059986    2406.7852  0.040657903  0.039040361           12 
 4934000   0.46400344   -4.0675633    2398.8437  0.040515534  0.039030742           23 
 4935000   0.45911011    -4.068118    2401.9675  0.040560073  0.039021127           25 
 4936000   0.46039214   -4.0727584    2402.5917  0.040562393  0.039011511           18 
 4937000   0.47699962   -4.0438742    2400.9579    0.0405266  0.039001939            8 
 4938000   0.46622417   -4.0378746    2403.7258  0.040565104  0.038992381           22 
 4939000    0.4670779   -4.0521393    2400.2507  0.040498257  0.038982849           18 
 4940000   0.47688228   -4.0608325    2406.1302   0.04058924  0.038973283           29 
 4941000   0.46336999   -4.0425582    2407.1726  0.040598606  0.038963721           15 
 4942000   0.46408613   -4.0547069     2402.732  0.040515512  0.038954177           36 
 4943000   0.45893594   -4.0559902    2406.3505  0.040568321  0.038944621           15 
 4944000   0.46003083   -4.0653307    2403.7634  0.040516508  0.038935038           41 
 4945000   0.45484978   -4.0663002    2405.3625  0.040535262  0.038925433           18 
 4946000   0.45699747    -4.048117    2398.0051  0.040403105  0.038915855           23 
 4947000   0.45777353   -4.0552893    2400.2202  0.040432251  0.038906288           19 
 4948000   0.46691945   -4.0494951    2404.3798  0.040494136  0.038896713           27 
 4949000   0.46756098   -4.0492928    2402.6513  0.040456848  0.038887164           20 
 4950000   0.46329369   -4.0527523     2407.856  0.040536296  0.038877629           16 
 4951000   0.46637407   -4.0439199    2406.8057  0.040510431  0.038868107           19 
 4952000   0.45789001   -4.0620663    2405.4477  0.040479398  0.038858565           17 
 4953000   0.46341626   -4.0588767    2402.2864  0.040418037  0.038849024           51 
 4954000   0.45747093   -4.0588071    2400.6512  0.040382371  0.038839454           64 
 4955000   0.45529443    -4.056354    2403.9544  0.040429774  0.038829859           52 
 4956000   0.45780319   -4.0843179    2399.2246  0.040342088  0.038820283           10 
 4957000   0.44542122   -4.0688792    2398.4683  0.040321234  0.038810718           27 
 4958000   0.46127418   -4.0635362    2401.4969  0.040364005  0.038801152           23 
 4959000   0.46955619   -4.0574609    2402.7234  0.040376477  0.038791602           31 
 4960000   0.45506575   -4.0777842    2401.2198  0.040343075  0.038782039           21 
 4961000   0.45820341   -4.0679379    2400.3353  0.040320084  0.038772465           16 
 4962000   0.45518378   -4.0648276    2404.6365  0.040384195  0.038762921           29 
 4963000   0.46113599   -4.0725831    2402.1995  0.040335139  0.038753354           26 
 4964000   0.45953018   -4.0750379    2400.6331  0.040300718  0.038743771           18 
 4965000    0.4701768   -4.0667846    2402.1979  0.040318863  0.038734163           31 
 4966000    0.4570617   -4.0630798    2400.8872   0.04028875  0.038724598           22 
 4967000   0.45393083   -4.0637732    2400.8137  0.040279406  0.038715013           25 
 4968000   0.45619323   -4.0737521    2401.4431  0.040281855  0.038705442           41 
 4969000   0.44944694   -4.0761862    2402.8728  0.040297725  0.038695886           59 
 4970000   0.45091924   -4.0685122    2397.0337  0.040191711  0.038686337           62 
 4971000   0.46063983   -4.0638004    2404.9413  0.040316189  0.038676813           27 
 4972000   0.46387434   -4.0757026    2404.2893  0.040297152   0.03866729           21 
 4973000    0.4584335    -4.067685    2406.9843   0.04033421  0.038657777            9 
 4974000    0.4503132   -4.0831545      2400.52  0.040217799  0.038648231           47 
 4975000   0.45304994   -4.0632751    2405.8768  0.040299443  0.038638691           21 
 4976000   0.46573438   -4.0755163    2405.7884  0.040289865  0.038629192           38 
 4977000   0.45927762   -4.0578473    2398.1955  0.040154636  0.038619679           52 
 4978000   0.45910594    -4.076106    2401.8159  0.040207177  0.038610181           23 
 4979000   0.45783697   -4.0529358    2399.0234  0.040152363  0.038600671           19 
 4980000   0.45242711   -4.0826135    2399.1429    0.0401463  0.038591126           14 
 4981000   0.45087314   -4.0735736    2401.9199    0.0401847   0.03858159           42 
 4982000    0.4644422   -4.0942171    2395.6803  0.040072265  0.038572072           30 
 4983000   0.46566126    -4.069222    2405.3377   0.04022573  0.038562529           38 
 4984000   0.45235703   -4.0749437    2401.1316  0.040147331  0.038553011           50 
 4985000   0.44166452   -4.0799959    2398.6649  0.040098042  0.038543485           72 
 4986000   0.45663004   -4.0714303    2400.7634  0.040125073  0.038533981           48 
 4987000   0.45196228   -4.0559032    2399.1055  0.040089325   0.03852446           30 
 4988000   0.45281637   -4.0712775    2401.2825  0.040117657  0.038514949           31 
 4989000   0.45759555   -4.0731209    2404.6393  0.040165686  0.038505459           39 
 4990000   0.44248175   -4.0781342    2400.2384  0.040084141  0.038495931           34 
 4991000   0.46231691   -4.0844305    2400.3357  0.040077735  0.038486392           25 
 4992000   0.45550059   -4.0848398    2396.9335  0.040012912  0.038476865           25 
 4993000   0.45458663    -4.087849    2393.6674  0.039950388  0.038467329           65 
 4994000   0.45001333   -4.0813908    2397.8587  0.040012326  0.038457793           36 
 4995000   0.45476131   -4.0667543    2400.8661   0.04005449  0.038448254           37 
 4996000   0.45390345   -4.0944879     2398.028  0.039999132  0.038438739           91 
 4997000   0.44705647   -4.0827049    2397.2938  0.039978884  0.038429208           86 
 4998000   0.45737515   -4.0736483    2392.0359  0.039883218  0.038419676           76 
 4999000   0.45266025   -4.0722096     2401.457   0.04003229  0.038410164           30 
 5000000   0.45004594   -4.0769853    2400.7155  0.040011925  0.038400646           34 
 5001000   0.44936947   -4.0901746     2406.395  0.040098564  0.038391145           36 
 5002000   0.44888729   -4.0790619    2400.7749  0.039996917  0.038381625           29 
 5003000   0.45094905   -4.0717361    2402.3444  0.040015065  0.038372152           36 
 5004000   0.45095542   -4.0892957    2398.7823  0.039947747  0.038362712           32 
 5005000    0.4555197   -4.0654456    2398.7708  0.039939573  0.038353214           44 
 5006000   0.45580725   -4.0772367     2398.685  0.039930167  0.038343732           38 
 5007000     0.455385   -4.1027799    2397.8714  0.039908651  0.038334231           25 
 5008000   0.45363732   -4.0767762    2397.1832   0.03988923  0.038324719           41 
 5009000   0.45704036   -4.0880008    2397.0899  0.039879714  0.038315244           28 
 5010000   0.45333027   -4.0863214    2395.4354  0.039844234  0.038305753           78 
 5011000   0.44368365   -4.0728835    2403.5925  0.039971936  0.038296265           28 
 5012000    0.4496099   -4.0670829    2399.2466  0.039891704  0.038286788           15 
Loop time of 12240.8 on 48 procs for 5000000 steps with 4000 atoms

Performance: 70583.682 tau/day, 408.470 timesteps/s
99.4% CPU use with 48 MPI tasks x no OpenMP threads

MPI task timing breakdown:
Section |  min time  |  avg time  |  max time  |%varavg| %total
---------------------------------------------------------------
Pair    | 827.48     | 875.52     | 943.01     |  94.6 |  7.15
Neigh   | 82.339     | 85.275     | 88.436     |  17.4 |  0.70
Comm    | 763.56     | 832.28     | 883.48     | 105.7 |  6.80
Output  | 14.139     | 14.143     | 14.225     |   0.3 |  0.12
Modify  | 10314      | 10328      | 10346      |   7.1 | 84.37
Other   |            | 105.8      |            |       |  0.86

Nlocal:        83.3333 ave          90 max          76 min
Histogram: 2 2 5 6 3 11 6 10 2 1
Nghost:        2216.52 ave        2231 max        2199 min
Histogram: 5 1 0 6 8 8 5 5 4 6
Neighs:        14751.5 ave       16396 max       13040 min
Histogram: 5 0 4 3 7 12 9 4 1 3
FullNghs:      29504.1 ave       31864 max       26606 min
Histogram: 2 1 4 5 8 6 7 10 3 2

Total # of neighbors = 1416199
Ave neighs/atom = 354.04975
Neighbor list builds = 270912
Dangerous builds = 0

#clear
#
#next RN
#
#jump SELF
Total wall time: 3:24:04
