
units lj                  # Use reduced LJ style units
atom_style atomic         # Uncharged point particles
atom_modify map hash      # Needed for indexing of clusters etc
                          # Used to be able to find where atoms are in relation to each other.

lattice fcc 1.0 spacing 1 1 1
Lattice spacing in x,y,z = 1.5874011 1.5874011 1.5874011
region box block 0 10 0 10 0 10 units lattice
create_box 2 box
Created orthogonal box = (0.0000000 0.0000000 0.0000000) to (15.874011 15.874011 15.874011)
  3 by 4 by 4 MPI processor grid
create_atoms 1 box
Created 4000 atoms
  using lattice units in orthogonal box = (0.0000000 0.0000000 0.0000000) to (15.874011 15.874011 15.874011)
  create_atoms CPU = 0.002 seconds
set type 1 type/fraction 2 0.49 78393
Setting atom values ...
  1962 settings made for type/fraction
mass 1 1.0
mass 2 1.0
pair_style lj/cut  3.5
pair_modify tail  yes
pair_coeff 1  1  1.0  1.0   # Intearaction between 1 and 1 set with epsilon = 1 and sigma = 1
pair_coeff 1  2  1.5  0.8
pair_coeff 2  2  0.5  0.88

write_data data.0
System init for write_data ...
Neighbor list info ...
  update every 1 steps, delay 10 steps, check yes
  max neighbors/atom: 2000, page size: 100000
  master list distance cutoff = 3.8
  ghost atom cutoff = 3.8
  binsize = 1.9, bins = 9 9 9
  1 neighbor lists, perpetual/occasional/extra = 1 0 0
  (1) pair lj/cut, perpetual
      attributes: half, newton on
      pair build: half/bin/atomonly/newton
      stencil: half/bin/3d
      bin: standard
WARNING: Not all mixed pair coeffs generated from mixing. Use write_data with 'pair ij' option to store all pair coeffs. (../write_data.cpp:312)


#############################
#   M E L T   S Y S T E M   #
#############################

velocity all create 2.4 1741580 mom yes dist gaussian # Assign velocities
                                                    # Temperature 2.4, random number seed, zero linear momentum
                                                                                # Gaussian distribution

timestep 0.002   # simulation timestep
thermo 1000       # output thermodynamic data every 1000 steps bf 100

# Define a fix  in this case with index 1 applied to all
# particles in the simulation. This fix is for simulations
# in the anisotropic NPT ensemble. Note that we use the MTK
# correction.
fix 1 all npt temp 2.4 2.4 0.1 iso 5.68 5.68 0.5 mtk yes tchain 5 pchain 5 # Use NPT ensemble
                                                                         # Set temperature and pressure and damping
                                                                         # Numbers of thermostats in chain and in barostat
run 10000          # run for 10000 steps
Per MPI rank memory allocation (min/avg/max) = 3.642 | 3.644 | 3.648 Mbytes
Step Temp E_pair E_mol TotEng Press Volume 
       0          2.4   -5.3537253            0   -1.7546253   -4.2069924         4000 
    1000    2.4005424   -4.8930223            0   -1.2931089      5.65137    3732.2352 
    2000    2.4504081   -4.8557788            0   -1.1810855    5.7916915    3738.1112 
    3000     2.418493   -4.8634826            0   -1.2366501    6.3255648      3689.76 
    4000    2.4020884    -4.937319            0   -1.3350871      5.55382    3713.1916 
    5000    2.3699286   -4.9338842            0   -1.3798799    5.5292514    3718.7216 
    6000    2.4150105    -4.884642            0   -1.2630319    5.5953735    3736.1624 
    7000     2.427703   -4.9201732            0   -1.2795291    5.5381056    3729.0744 
    8000    2.3747888   -4.9292259            0   -1.3679333    5.4939816    3719.1991 
    9000    2.3986427   -4.8954528            0   -1.2983882    5.8019034    3714.8804 
   10000    2.3457514   -4.8798963            0   -1.3621489    5.4732894    3735.2457 
Loop time of 2.60229 on 48 procs for 10000 steps with 4000 atoms

Performance: 664030.773 tau/day, 3842.771 timesteps/s
99.6% CPU use with 48 MPI tasks x no OpenMP threads

MPI task timing breakdown:
Section |  min time  |  avg time  |  max time  |%varavg| %total
---------------------------------------------------------------
Pair    | 1.1771     | 1.2363     | 1.3312     |   3.0 | 47.51
Neigh   | 0.20908    | 0.21946    | 0.23654    |   1.0 |  8.43
Comm    | 0.78161    | 0.87227    | 0.96391    |   4.3 | 33.52
Output  | 0.00023702 | 0.00024232 | 0.00030673 |   0.0 |  0.01
Modify  | 0.21814    | 0.25846    | 0.29207    |   3.8 |  9.93
Other   |            | 0.01557    |            |       |  0.60

Nlocal:        83.3333 ave          95 max          75 min
Histogram: 3 3 6 10 10 7 2 2 4 1
Nghost:        1724.19 ave        1760 max        1693 min
Histogram: 4 5 3 5 9 10 3 4 3 2
Neighs:        10222.2 ave       12099 max        8768 min
Histogram: 2 3 5 14 9 6 3 4 1 1

Total # of neighbors = 490664
Ave neighs/atom = 122.66600
Neighbor list builds = 902
Dangerous builds = 187

# Equilibrate just above the melting temperature to avoid step fn in T

fix 1 all npt temp 1.25 1.25 0.1 iso 5.68 5.68 0.5 mtk yes tchain 5 pchain 5
run 2000
Per MPI rank memory allocation (min/avg/max) = 3.644 | 3.646 | 3.649 Mbytes
Step Temp E_pair E_mol TotEng Press Volume 
   10000    2.3457514   -4.8798963            0   -1.3621489    5.4732894    3735.2457 
   11000    1.2335609   -7.0012082            0   -5.1513295    5.6172028    2907.8305 
   12000      1.24883   -7.1347093            0   -5.2619326     5.941072    2862.2323 
Loop time of 0.633571 on 48 procs for 2000 steps with 4000 atoms

Performance: 545479.772 tau/day, 3156.712 timesteps/s
99.7% CPU use with 48 MPI tasks x no OpenMP threads

MPI task timing breakdown:
Section |  min time  |  avg time  |  max time  |%varavg| %total
---------------------------------------------------------------
Pair    | 0.29108    | 0.31031    | 0.34879    |   2.2 | 48.98
Neigh   | 0.04038    | 0.042559   | 0.048445   |   0.6 |  6.72
Comm    | 0.19198    | 0.23106    | 0.25421    |   2.8 | 36.47
Output  | 5.0418e-05 | 5.2352e-05 | 8.1955e-05 |   0.0 |  0.01
Modify  | 0.03756    | 0.044748   | 0.049379   |   1.8 |  7.06
Other   |            | 0.004845   |            |       |  0.76

Nlocal:        83.3333 ave          91 max          74 min
Histogram: 4 1 2 1 10 10 5 10 3 2
Nghost:        2059.08 ave        2084 max        2032 min
Histogram: 3 3 4 5 6 9 6 5 2 5
Neighs:        13350.7 ave       14851 max       11309 min
Histogram: 1 2 4 5 4 8 12 4 3 5

Total # of neighbors = 640832
Ave neighs/atom = 160.20800
Neighbor list builds = 143
Dangerous builds = 10

#############################
# L I N E A R  Q U E N C H  #
#############################

# Define solid atoms. This closely follows ten Wolde  Ruiz-Montero and Frenkel  Faraday Discuss  1996  104  93-110
# Compute components of the per-atom q6 vector
compute q6 all orientorder/atom degrees 1 6 components 6 nnn NULL cutoff 1.3 # compute the Q6 parameter.
                                                                             # Use all neighbours within 1.3 unit cell.

# get number of connections
compute coord_number all coord/atom orientorder q6 0.5

# An atom is solid if it has 8 or more connections (of a possible 14)
variable is_solid atom c_coord_number>=8
group solid dynamic all var is_solid    # Must be dynamic to update
dynamic group solid defined

# do clustering
compute cluster solid cluster/atom 1.3 # Create a cluster where all atoms within are solid and max 1.3 units from another member

# define chunks one chunk per cluster
compute clus_chunks solid chunk/atom c_cluster nchunk every compress yes  # Says which atoms are in which chunk

# count the size of each chunk
compute size_chunks solid property/chunk clus_chunks count


# Find the maximum entry in the vector of chunk sizes
variable max_n equal max(c_size_chunks)


# Thermo style which includes this variable
# thermo_style custom step temp pe vol v_max_n

thermo ${N}  # Print the thermo information every 100 steps
thermo 1000  

# Reset the npt fix at a lower temperature (below freezing)
fix 1  all npt temp  ${temp} ${temp}  0.1  iso  5.68  5.68  0.5  mtk yes tchain  5  pchain  5
fix 1  all npt temp  0.45 ${temp}  0.1  iso  5.68  5.68  0.5  mtk yes tchain  5  pchain  5
fix 1  all npt temp  0.45 0.45  0.1  iso  5.68  5.68  0.5  mtk yes tchain  5  pchain  5

dump dmp2 all dcd ${N} traj.dcd
dump dmp2 all dcd 1000 traj.dcd


compute msd all msd com yes
variable twopoint equal c_msd[4]/6/(step*dt+1.0e-6)
fix 9 all vector 10 c_msd[4]
variable fit equal slope(f_9)/6/(10*dt)
thermo_style custom step temp pe c_msd[4] v_twopoint v_fit v_max_n

fix 1 all npt temp 1.25 ${temp} 0.1 iso 5.68 5.68 0.5 mtk yes tchain 5 pchain 5
fix 1 all npt temp 1.25 0.45 0.1 iso 5.68 5.68 0.5 mtk yes tchain 5 pchain 5
run 5000000 # 5000000  # Run for this many steps
Neighbor list info ...
  update every 1 steps, delay 10 steps, check yes
  max neighbors/atom: 2000, page size: 100000
  master list distance cutoff = 3.8
  ghost atom cutoff = 3.8
  binsize = 1.9, bins = 8 8 8
  4 neighbor lists, perpetual/occasional/extra = 1 3 0
  (1) pair lj/cut, perpetual
      attributes: half, newton on
      pair build: half/bin/atomonly/newton
      stencil: half/bin/3d
      bin: standard
  (2) compute orientorder/atom, occasional
      attributes: full, newton on
      pair build: full/bin/atomonly
      stencil: full/bin/3d
      bin: standard
  (3) compute coord/atom, occasional
      attributes: full, newton on
      pair build: full/bin/atomonly
      stencil: full/bin/3d
      bin: standard
  (4) compute cluster/atom, occasional
      attributes: full, newton on
      pair build: full/bin/atomonly
      stencil: full/bin/3d
      bin: standard
Per MPI rank memory allocation (min/avg/max) = 9.836 | 9.844 | 9.848 Mbytes
Step Temp PotEng c_msd[4] v_twopoint v_fit v_max_n 
   12000      1.24883   -7.1347093            0            0 8.3333333e+20            2 
   13000     1.226877   -7.1347344   0.43067272 0.0027607225  0.034822728            2 
   14000    1.2608755   -7.1295651    0.8189011 0.0048744112  0.032338168            5 
   15000    1.2528548   -7.0805665     1.207464 0.0067081331    0.0323456            1 
   16000     1.257995   -7.1239904     1.583096 0.0082452913  0.032156177            1 
   17000     1.231627   -7.1582363    1.9716487 0.0096649443  0.032095632            2 
   18000    1.2272741   -7.1347539    2.3885103  0.011057918  0.032299785            2 
   19000    1.2378164   -7.1490523    2.8135519   0.01234014   0.03271174            1 
   20000    1.2700768   -7.1226911    3.1984494  0.013326872   0.03306414            1 
   21000    1.2593542   -7.1161278    3.6853097  0.014624245   0.03339011            1 
   22000     1.240359   -7.1033957    4.0916127  0.015498533  0.033663079            2 
   23000    1.2360482   -7.1332998    4.4117757  0.015984694  0.033738391            1 
   24000    1.2438535   -7.0845348    4.9025849  0.017022864  0.033786472            2 
   25000    1.2427822   -7.1365689    5.2679753  0.017559917  0.033872278            1 
   26000    1.2844378    -7.163534    5.6091083  0.017977911  0.033790115            2 
   27000    1.2344992     -7.09453    6.1169804  0.018879569  0.033754973            1 
   28000    1.2364065   -7.1641947    6.4574812  0.019218694  0.033821962            1 
   29000    1.2606011   -7.1020568    6.8729434  0.019749837  0.033814156            2 
   30000    1.2371582   -7.1061467    7.3291432  0.020358731  0.033863664            2 
   31000    1.2371735   -7.1208778    7.6589224  0.020588501  0.033878385            1 
   32000    1.2335424   -7.1264602    8.1553638  0.021237926  0.033873906            2 
   33000    1.2658676   -7.1309161     8.499408  0.021463151  0.033890263            2 
   34000     1.234821   -7.0909085    8.9358037  0.021901479   0.03387004            2 
   35000    1.2507216   -7.1158174    9.3266991  0.022206426  0.033872554            1 
   36000    1.2408849   -7.1479274    9.6715601   0.02238787  0.033828501            1 
   37000    1.2560145   -7.0664736    10.080678  0.022704228  0.033764341            3 
   38000    1.2319551   -7.1692418    10.384347   0.02277269  0.033705202            1 
   39000    1.2459734   -7.1461362    10.708073  0.022880497  0.033612284            3 
   40000    1.2613066   -7.1212835    11.178139  0.023287789  0.033515835            1 
   41000    1.2253145   -7.1651724    11.511223  0.023396794  0.033449483            3 
   42000    1.2400648   -7.1202911    11.956876   0.02372396  0.033378714            1 
   43000    1.2583994   -7.1252919    12.433091  0.024095137  0.033360565            2 
   44000    1.2426176   -7.1088665    12.740374  0.024129496  0.033327166            2 
   45000    1.2423089   -7.1417869    13.028759  0.024127331  0.033262714            2 
   46000    1.2385715   -7.1216531    13.576779  0.024595614  0.033205134            2 
   47000    1.2334928   -7.1108201    13.918571  0.024678317  0.033160537            1 
   48000    1.2350855   -7.1405048    14.360186  0.024930879   0.03313995            1 
   49000      1.24192   -7.1170224    14.851188  0.025257122  0.033142376            1 
   50000    1.2227848   -7.1409034    15.212548  0.025354246  0.033159092            2 
   51000    1.2553936   -7.0748758    15.729363  0.025701574  0.033196615            2 
   52000    1.2386916   -7.1468523    16.068729  0.025751168   0.03322263            1 
   53000    1.2411223   -7.1580044    16.390092  0.025770584  0.033242584            1 
   54000    1.2474545   -7.1211651    16.807015  0.025936751  0.033250253            2 
   55000    1.2578497   -7.1499146    17.079672  0.025878291  0.033226671            2 
   56000    1.2284472   -7.1449772     17.59755  0.026186831  0.033205064            2 
   57000    1.2572234   -7.1143365    18.130147  0.026506063  0.033221713            1 
   58000    1.2567332   -7.1774235    18.405949  0.026445329  0.033247562            2 
   59000    1.2440429   -7.1288653    18.842936  0.026614316  0.033255629            3 
   60000    1.2524887   -7.1083105    19.358826  0.026887258  0.033277417            2 
   61000    1.2387694   -7.1074377    19.807925  0.027060006  0.033317541            2 
   62000    1.2276181   -7.1101413    20.171253  0.027111899  0.033355302            2 
   63000    1.2432565   -7.1010157    20.554432  0.027188402  0.033382604            2 
   64000    1.2421564   -7.1223662    20.894094  0.027205852  0.033396105            2 
   65000    1.2157014   -7.1295696    21.351431   0.02737363  0.033402446            4 
   66000    1.2408033   -7.1512957    21.600363  0.027273185  0.033407069            2 
   67000    1.2316623   -7.1694255     22.17788  0.027584428  0.033406284            2 
   68000    1.2124709   -7.1072849     22.65833  0.027767561  0.033419999            2 
   69000    1.2515318   -7.1436006    22.805502  0.027542876  0.033429677            1 
   70000    1.2500523   -7.1831076    23.164954  0.027577326   0.03342126            2 
   71000    1.2678209   -7.1080696    23.640719  0.027747323  0.033421873            2 
   72000    1.2397967   -7.1657404    24.009798  0.027789118  0.033420445            2 
   73000    1.2368037   -7.1681117    24.360287  0.027808547  0.033412788            2 
   74000    1.2323453   -7.0870317    24.905959   0.02804725  0.033412014            1 
   75000    1.2299544   -7.1339043    25.296304  0.028107004   0.03341096            3 
   76000    1.2301618   -7.1044624    25.617616  0.028089491  0.033403779            2 
   77000    1.2572263   -7.1572384    25.980686  0.028117625  0.033391335            1 
   78000    1.2178725   -7.1468039    26.438315  0.028246063  0.033388273            2 
   79000    1.2207557   -7.1202736    26.857496  0.028330692  0.033396574            3 
   80000    1.2165808   -7.1679378    27.146386  0.028277485  0.033399438            2 
   81000    1.2197296   -7.1685825    27.454875  0.028245756  0.033388536            2 
   82000    1.2591554   -7.1303936    27.902088   0.02835578  0.033366168            1 
   83000    1.2381729   -7.1497808    27.989988  0.028102397  0.033339606            4 
   84000    1.2501795   -7.1808294    28.376916  0.028151702  0.033306739            3 
   85000    1.2294087    -7.143826    28.833751  0.028268383  0.033274991            1 
   86000     1.236951   -7.1409494     29.13354  0.028230175  0.033237673            2 
   87000    1.2449104   -7.1126732    29.466153  0.028224285  0.033197698            2 
   88000    1.2165444   -7.1297885    29.811284  0.028230382  0.033151408            2 
   89000     1.238061   -7.1638175    30.044831  0.028131864  0.033102979            2 
   90000    1.2246442    -7.143669    30.561471  0.028297659  0.033057443            2 
   91000    1.2111197   -7.1390133    31.183501  0.028556319  0.033018594            1 
   92000    1.2377007    -7.191286    31.447646  0.028485186  0.032988643            2 
   93000    1.2415817   -7.1538027    31.869333   0.02855675  0.032968505            2 
   94000    1.2287588   -7.1173926    32.327076  0.028658755  0.032950256            1 
   95000    1.2399341   -7.1415015    32.761872  0.028738484  0.032932918            5 
   96000    1.2228051    -7.157851    33.079778  0.028715085  0.032917325            2 
   97000    1.2132956   -7.1723143    33.591509  0.028858684  0.032900977            1 
   98000    1.2608635   -7.1801696    33.878918  0.028808603  0.032885423            3 
   99000     1.243025   -7.1724569    34.427338  0.028979241  0.032876075            1 
  100000    1.2445308   -7.1773838     34.77389  0.028978242  0.032868416            2 
  101000    1.2481299   -7.1107963    35.365667  0.029179593  0.032864676            3 
  102000    1.2399607   -7.0949086     35.63287  0.029111822  0.032861514            2 
  103000    1.2369461   -7.1610889    35.899049  0.029044538  0.032851241            2 
  104000    1.2298299   -7.2013465    36.181598  0.028991665  0.032833174            3 
  105000    1.2174102   -7.1705765    36.525105  0.028988178   0.03281565            1 
  106000    1.2249259     -7.16226    36.836043  0.028959153  0.032799444            3 
  107000    1.2438672   -7.1247908    37.267159  0.029024267  0.032780047            3 
  108000    1.2127236   -7.1400092    37.546285  0.028970899  0.032758136            2 
  109000    1.2208251   -7.1473011     37.91018  0.028983318  0.032736283            1 
  110000    1.2284575   -7.1582692    38.245286  0.028973701   0.03271602            4 
  111000    1.2278962   -7.1435607    38.559126  0.028948293  0.032691713            1 
  112000    1.2466413    -7.139113     39.13403  0.029117582  0.032669332            3 
  113000    1.2643035   -7.1644884    39.557001  0.029171829  0.032649095            2 
  114000    1.2427897    -7.114447    39.884357  0.029155232  0.032630587            3 
  115000    1.2260314   -7.1523932    40.214001   0.02914058   0.03260991            2 
  116000     1.217612    -7.137515    40.626425   0.02918565  0.032591973            1 
  117000    1.2088345   -7.2050194    41.013277  0.029211736  0.032574525            4 
  118000    1.2237643   -7.1622979    41.171551  0.029075954  0.032557147            2 
  119000    1.2373945   -7.1793392    41.547614  0.029094968  0.032533646            1 
  120000    1.2367548   -7.1480492    42.371886   0.02942492  0.032521031            1 
  121000    1.2381494   -7.1619013    42.717924  0.029420058  0.032515029            2 
  122000    1.2493689   -7.1624125    43.037958  0.029397512   0.03250887            1 
  123000    1.2589478   -7.1799467    43.219555  0.029281541  0.032499576            2 
  124000    1.2452037   -7.2010089    43.663013  0.029343422  0.032487553            5 
  125000    1.2239246   -7.1433234    44.193124  0.029462082  0.032478538            2 
  126000     1.238525   -7.1233826    44.624519  0.029513571  0.032473025            3 
  127000    1.2156874   -7.1921121    44.811975  0.029404183  0.032465259            2 
  128000    1.2192679   -7.2087015    45.065636  0.029339607  0.032456692            1 
  129000    1.2470808   -7.1878668     45.66027  0.029496298   0.03244781            1 
  130000    1.2423252   -7.0865251    46.300147  0.029679581  0.032440899            2 
  131000    1.2263331   -7.1429467    46.711368  0.029714611  0.032438263            3 
  132000    1.2262512   -7.1526057    46.914397  0.029617675  0.032431514            1 
  133000    1.2255519    -7.206281    47.051433  0.029480848  0.032421354            1 
  134000    1.2519413   -7.1522722    47.413702  0.029486133  0.032406038            3 
  135000    1.2338368   -7.1740055    47.787991   0.02949876  0.032393954            2 
  136000    1.2308437   -7.1658159    48.383719  0.029646887  0.032380388            2 
  137000    1.2474771   -7.1343154    48.623935  0.029576603  0.032368818            1 
  138000     1.221482   -7.1917741    48.913884   0.02953737  0.032356375            2 
  139000    1.2564923   -7.1648748    49.495262  0.029673418  0.032347184            2 
  140000    1.2137726   -7.1575816    49.753039  0.029614904  0.032336819            1 
  141000    1.2194948   -7.1379794    50.352221  0.029758995  0.032327426            1 
  142000    1.2361657   -7.1335353    50.644732  0.029721087  0.032320749            2 
  143000    1.2138525   -7.1506691    50.654753  0.029519087  0.032311003            3 
  144000    1.2202138   -7.1607279    51.206719  0.029633518  0.032298901            2 
  145000    1.2433173   -7.1384718    51.686551  0.029704914  0.032287942            3 
  146000    1.2380423   -7.1861481     51.93408  0.029642739  0.032278692            3 
  147000    1.2210108   -7.1588075    52.637803  0.029840024  0.032272918            1 
  148000    1.2211812   -7.2098331    52.859079  0.029762995  0.032268528            3 
  149000    1.2135658   -7.2080125    53.042495  0.029665825  0.032261942            1 
  150000    1.2096606   -7.1900751     53.60466  0.029780366  0.032252447            2 
  151000    1.2108138   -7.1745221    54.029885  0.029817817  0.032243936            6 
  152000    1.2590024    -7.166535    54.335415  0.029789153  0.032236517            3 
  153000     1.223148   -7.1582935    54.792249  0.029843273  0.032231807            1 
  154000     1.256444   -7.1891971    55.231067  0.029886941  0.032228837            2 
  155000    1.2384428   -7.1636585    55.595014  0.029889792  0.032225158            1 
  156000    1.2478695   -7.1741985    56.125565  0.029981605  0.032224423            2 
  157000    1.2401088   -7.2269802    56.303376  0.029885019  0.032221866            2 
  158000    1.2342281     -7.18985    57.143855  0.030139164  0.032222021            3 
  159000    1.2057315   -7.2133736    57.278846   0.03002036  0.032223921            2 
  160000    1.2443734   -7.2080157    57.445364   0.02991946  0.032221754            1 
  161000    1.2342248   -7.1808509    57.848675  0.029942379  0.032217219            1 
  162000    1.2270248   -7.2025808    58.092869  0.029883163  0.032210586            6 
  163000    1.2569326   -7.1527168    58.455312  0.029885129  0.032202384            4 
  164000    1.1943678   -7.1701268    58.573147  0.029762778   0.03219058            1 
  165000    1.2003426    -7.167211    58.818471  0.029706298  0.032176725            1 
  166000    1.2152333   -7.1687781    59.270475  0.029754255  0.032159305            1 
  167000    1.2410804   -7.1545335    59.640926  0.029760941  0.032143499            1 
  168000    1.2433524   -7.1930444    59.662042  0.029594267  0.032125323            2 
  169000    1.2165063   -7.1773499    59.996487  0.029584067  0.032104945            2 
  170000    1.2217572   -7.1397808    60.417011  0.029616182  0.032085164            1 
  171000    1.2517474   -7.1895049    60.828661  0.029643597  0.032064144            2 
  172000    1.2252814      -7.1594    60.900175  0.029505899  0.032042305            2 
  173000    1.2274126    -7.204926    61.091833  0.029427665  0.032021399            3 
  174000    1.2118036   -7.1806989    61.763194  0.029580074  0.032001005            2 
  175000    1.2412483   -7.2213216    61.804963  0.029430935  0.031978554            2 
  176000    1.2067324   -7.2204822    62.359541  0.029526298  0.031958089            2 
  177000    1.2166878   -7.2211582    62.995827  0.029659052  0.031940161            1 
  178000     1.229718   -7.1721436    63.389236  0.029676608  0.031925971            1 
  179000    1.2339272   -7.1598572     63.82181  0.029712202  0.031913182            2 
  180000    1.2279574   -7.1825117    64.167572  0.029707209  0.031898555            2 
  181000    1.2251469    -7.188509    64.412561  0.029655875  0.031882944            2 
  182000    1.2221273   -7.1460097    64.857152  0.029696498  0.031865369            1 
  183000    1.2275446   -7.2052979    64.896519  0.029552149  0.031846282            1 
  184000    1.2229003   -7.1752101    65.736932  0.029772161  0.031829118            4 
  185000    1.2372588   -7.1383069    65.925316  0.029696088  0.031811459            1 
  186000    1.2193262   -7.1722886    66.277696  0.029694308   0.03179353            1 
  187000    1.1929036   -7.2312255    66.191679  0.029497183  0.031773163            3 
  188000    1.2255859   -7.2250613    66.581377  0.029513022  0.031755027            3 
  189000     1.238083   -7.1730281    67.075153  0.029574583  0.031739189            3 
  190000     1.219655   -7.1920399    67.570969   0.02963639  0.031724154            1 
  191000    1.1983935   -7.1850143    68.021884   0.02967796  0.031708118            2 
  192000    1.2188758   -7.1790221    68.584416  0.029767541  0.031696088            4 
  193000    1.2204034   -7.2096166    68.721161  0.029672349  0.031683775            2 
  194000    1.2052778   -7.1821442    69.151901  0.029704425  0.031669209            2 
  195000    1.1981995   -7.1813446    69.602943  0.029744848  0.031656398            3 
  196000    1.2265885   -7.1593747    69.961408  0.029745496  0.031645809            2 
  197000    1.2139247   -7.1992918    70.470488  0.029809851  0.031636552            1 
  198000    1.2325535    -7.192183    70.657452  0.029737985  0.031626397            1 
  199000    1.2119757   -7.2052104    71.455844  0.029922883  0.031619427            4 
  200000    1.2180734   -7.2239341    71.514842  0.029797851  0.031613344            2 
  201000    1.1983004   -7.1577232    72.388119  0.030011658  0.031607083            2 
  202000     1.221321   -7.1217315    72.528547  0.029921018  0.031599236            1 
  203000    1.2485284   -7.2099364    72.760509  0.029868846   0.03159097            1 
  204000    1.2139319   -7.1897103    72.949006  0.029799431  0.031581541            4 
  205000     1.257347   -7.1267531    73.592147  0.029915507  0.031572793            3 
  206000    1.2293557    -7.169545    73.690882  0.029810227  0.031564209            2 
  207000    1.2285846   -7.2112068    74.015032  0.029796712   0.03155379            2 
  208000    1.2146036   -7.1417865     74.65131  0.029908377  0.031545757            1 
  209000    1.2311072   -7.1743664    75.005146  0.029906358  0.031537632            1 
  210000    1.2507759   -7.1926315    75.343855  0.029898355   0.03153133            3 
  211000    1.2337459   -7.2014594    75.583648  0.029851362  0.031524913            1 
  212000    1.2304372   -7.2550611    75.667961  0.029743695  0.031515763            4 
  213000    1.1849825   -7.2210788    75.956737  0.029717033   0.03150377            3 
  214000    1.2166364   -7.1817441    76.660042  0.029852041  0.031493037            3 
  215000    1.1971356   -7.2111193    76.947103  0.029824458  0.031485759            3 
  216000     1.250539   -7.2155071    77.158021  0.029767755  0.031478281            3 
  217000    1.2329431   -7.2239589    77.878305  0.029907183   0.03146846            2 
  218000    1.1884838   -7.2000899    78.062854   0.02984054  0.031459474            2 
  219000    1.2260892   -7.1881176    78.422934  0.029841299  0.031453047            2 
  220000    1.2441558   -7.2089304    79.171967  0.029989381  0.031448182            2 
  221000    1.2245477   -7.2358876    79.403619  0.029941033  0.031444165            2 
  222000    1.2241885   -7.2031698    79.958528  0.030014463  0.031438989            2 
  223000    1.2067777   -7.1865559    80.230697  0.029981576  0.031433231            2 
  224000    1.2311895   -7.1608627    80.718086   0.03002905  0.031430163            1 
  225000    1.2037949   -7.2252658    81.044445  0.030016461   0.03142721            4 
  226000    1.2250825   -7.1940446    80.953127  0.029849973  0.031421634            1 
  227000    1.1784767   -7.1518898    81.937807  0.030079958   0.03141726            2 
  228000    1.2248267   -7.1856452    82.059835   0.02999263  0.031413429            4 
  229000    1.2065257   -7.1804297    82.447791  0.030002835  0.031407771            1 
  230000    1.2223787   -7.2503908    82.213488  0.029787496  0.031400099            2 
  231000    1.2186089    -7.237479    82.816983  0.029876256  0.031391444            2 
  232000    1.2182367    -7.212007    83.613586  0.030033616  0.031385623            4 
  233000    1.2254995   -7.2311744    83.637897  0.029913411  0.031379374            3 
  234000    1.2136595   -7.2132243    83.983928  0.029908806  0.031372652            5 
  235000    1.2589321   -7.1995515    84.340555  0.029907998  0.031367216            2 
  236000    1.2219113   -7.2058973    84.864109   0.02996614  0.031361244            4 
  237000    1.2226024   -7.2392279     85.17288   0.02994827  0.031357481            2 
  238000    1.1772933   -7.1656624     85.85606  0.030061646  0.031353545            4 
  239000    1.2303228   -7.2348918    85.688161  0.029877322  0.031350233            3 
  240000    1.2092146   -7.1886158    86.761503  0.030125522    0.0313474            2 
  241000    1.2088065    -7.214531    86.891469   0.03004546  0.031342821            2 
  242000    1.2179756   -7.2363352     86.86049  0.029910637  0.031338225            1 
  243000    1.1915239   -7.2005817    87.440801  0.029986557  0.031331747            2 
  244000    1.2259296   -7.2190213    87.787469  0.029982059   0.03132468            7 
  245000    1.2197541    -7.215014    88.068052   0.02995512  0.031317773            4 
  246000    1.1997443   -7.1974043    88.621811  0.030020938  0.031311759            2 
  247000    1.2023363   -7.1962523    88.734389  0.029937378  0.031306144            2 
  248000    1.2206721   -7.2242351    88.797535  0.029837881  0.031300854            3 
  249000    1.1916071   -7.2177425    89.243731   0.02986738  0.031294031            1 
  250000    1.2450381   -7.1747244    89.431569  0.029810523   0.03128612            1 
  251000    1.1912728   -7.1771529    89.915284  0.029852352  0.031277409            2 
  252000    1.1933769   -7.1948505    90.012607  0.029766074  0.031269089            2 
  253000    1.2042382   -7.2110453    90.430806  0.029786168  0.031260275            2 
  254000    1.2207133    -7.226426    91.087759  0.029884435  0.031251754            4 
  255000    1.2047111   -7.1841649    91.521414  0.029908959  0.031244341            1 
  256000    1.2250531    -7.207534    92.120235  0.029987056  0.031237348            2 
  257000      1.20327   -7.2134781    92.193672  0.029894187  0.031231468            1 
  258000    1.1964643   -7.2205185    92.765194  0.029962918  0.031225938            1 
  259000    1.2052096   -7.2369564    92.698904  0.029825902  0.031218135            1 
  260000    1.2035221   -7.1607685    93.810707  0.030067534  0.031210937            1 
  261000    1.2070284   -7.2616679    93.611486  0.029888725  0.031206347            4 
  262000    1.2073267    -7.196082     94.10837  0.029932687  0.031200338            3 
  263000    1.2235424   -7.2234874    94.432255    0.0299215  0.031194555            1 
  264000    1.2189561   -7.2199468    94.498521  0.029829079  0.031187608            1 
  265000    1.2073137   -7.2074322    95.560904  0.030050599  0.031181419            2 
  266000    1.1942957   -7.1951174    95.463715  0.029907179  0.031175913            1 
  267000    1.2245694   -7.2254672    95.867053  0.029921053  0.031170658            2 
  268000    1.2012742   -7.2310191    96.544447  0.030020039  0.031166652            2 
  269000    1.2185576   -7.2290136    97.234825  0.030122313   0.03116367            1 
  270000    1.2097173    -7.252148    97.181623  0.029994328  0.031160911            2 
  271000    1.1908538   -7.2324521    97.462332  0.029969967  0.031157307            5 
  272000    1.1874189   -7.2480781    97.857505  0.029980853  0.031153182            2 
  273000    1.2460492    -7.211221    98.239017   0.02998749  0.031150222            3 
  274000     1.198633    -7.205775    98.646457  0.030001964   0.03114594            1 
  275000    1.1868864   -7.1990697      98.8629  0.029958455  0.031140737            1 
  276000    1.2030312   -7.1769102    99.402888  0.030012949  0.031134557            1 
  277000    1.1954653   -7.2538615    98.774225  0.029715471  0.031126554            2 
  278000    1.1850229   -7.2343322    99.641316    0.0298685  0.031117732            2 
  279000    1.2068922   -7.2242129    99.998247  0.029868055  0.031109604            1 
  280000    1.1871878   -7.1823836    100.42415  0.029888139   0.03110386            2 
  281000    1.2291629   -7.2026325    100.51913  0.029809944   0.03109667            3 
  282000    1.1963986   -7.2455885    101.14827  0.029890151  0.031087841            2 
  283000    1.1978195   -7.2428939    101.30456  0.029830552  0.031080189            4 
  284000    1.1920427   -7.2410963    101.88376  0.029895469  0.031072547            1 
  285000    1.2054717    -7.247378    102.15982  0.029871293  0.031065792            2 
  286000    1.2334551    -7.243012    102.18373  0.029773815  0.031059516            1 
  287000    1.2199249   -7.2343907    103.00924  0.029909766  0.031052667            7 
  288000    1.1939066   -7.1767559    103.52784  0.029955971   0.03104695            3 
  289000    1.2223418   -7.2497617    103.42811  0.029823561  0.031040455            1 
  290000    1.1937955   -7.2179466    103.58495   0.02976579  0.031034104            2 
  291000    1.2019236   -7.2261315    104.04927  0.029796469  0.031027607            1 
  292000    1.1888426   -7.2152781    104.97085  0.029957433  0.031021294            1 
  293000     1.197948   -7.2530884    105.05345  0.029878682  0.031016044            2 
  294000    1.2198706    -7.218317    105.55119  0.029918137  0.031010561            2 
  295000    1.2061258   -7.2363817    105.84626  0.029900074  0.031007022            1 
  296000    1.1897416   -7.2075217    106.29043  0.029924106  0.031001996            2 
  297000    1.2101128   -7.2349063     106.6723  0.029930499   0.03099742            4 
  298000    1.1940205   -7.2578411    106.69861  0.029837419  0.030991811            2 
  299000    1.2190438   -7.2124748    107.18921  0.029874363  0.030984764            1 
  300000    1.1921525    -7.196262    107.42629  0.029840637  0.030977861            1 
  301000     1.219854   -7.2259422    107.53735  0.029772245  0.030970258            2 
  302000    1.2260034    -7.192173    107.80007  0.029746156  0.030960887            3 
  303000     1.218626   -7.2303456    107.81797  0.029652906  0.030952284            1 
  304000    1.2133805    -7.241291    108.34729  0.029700464  0.030943713            1 
  305000    1.1902492    -7.253125    108.81824  0.029731759  0.030934686            1 
  306000    1.1836019   -7.2353484    109.07555   0.02970467  0.030925205            2 
  307000    1.2030471   -7.2611549    109.73033   0.02978565  0.030917298            3 
  308000    1.1974291   -7.2949089    109.26378   0.02956271  0.030908393            3 
  309000    1.1964687   -7.3135426    109.78028  0.029606332   0.03089961            2 
  310000     1.188961   -7.2830806    110.20787  0.029625771   0.03089064            2 
  311000    1.1892219   -7.2622847    111.04311  0.029754318  0.030882014            8 
  312000    1.1846055   -7.2601618    111.17314  0.029693681  0.030874582            5 
  313000    1.2074196   -7.2215644    112.14401  0.029857298  0.030868412            2 
  314000    1.1918846    -7.223957    112.37853  0.029824451   0.03086299            3 
  315000    1.2002498   -7.2440119     112.6315  0.029796692  0.030856436            3 
  316000    1.2027393   -7.2816149    112.47945  0.029662303  0.030848506            1 
  317000    1.2126559   -7.2289928    112.96286   0.02969581  0.030839922            1 
  318000    1.1952625   -7.2564126    113.72955  0.029803342  0.030832178            3 
  319000    1.2126935   -7.2435744     113.8597  0.029743914  0.030824961            2 
  320000    1.2051171   -7.2356289    114.64927   0.02985658  0.030818313            1 
  321000    1.2373711   -7.2520568    114.20097  0.029647189  0.030811751            5 
  322000    1.2006379   -7.2336956     114.5513  0.029645783  0.030804112            2 
  323000    1.1927347   -7.1995356    115.60198  0.029825073  0.030796612            3 
  324000    1.2032704    -7.265534     115.1291  0.029611395  0.030788919            1 
  325000    1.2156953   -7.2324567    115.77832  0.029686747  0.030780442            2 
  326000    1.2200715   -7.2722369    115.82513  0.029607652  0.030772735            2 
  327000    1.1901579   -7.2575194    116.55083  0.029702046   0.03076433            2 
  328000     1.191532   -7.2544439    116.63144  0.029631971  0.030756199            2 
  329000    1.2114403   -7.2685496    117.16782  0.029677765  0.030747526            3 
  330000      1.19849   -7.2609085    117.55799   0.02968636   0.03073922            3 
  331000    1.1899823   -7.2622246     117.7806   0.02965272   0.03073064            1 
  332000    1.2061114   -7.2410122    118.43994  0.029728899  0.030724135            4 
  333000    1.2118112   -7.2987952    118.77717  0.029724017  0.030717264            1 
  334000    1.1942252   -7.1815531    119.07143  0.029708441  0.030710386            3 
  335000     1.211898   -7.2429098    119.41762  0.029705876  0.030703357            1 
  336000    1.2046105   -7.2434053     119.6979   0.02968698  0.030696525            2 
  337000    1.1917655   -7.2670255    119.36293  0.029516056  0.030688378            1 
  338000    1.2280913   -7.2694928    119.79743  0.029535857  0.030678659            1 
  339000    1.2006396   -7.2990825    120.00312  0.029499291  0.030668669            2 
  340000    1.1777062   -7.2453368    120.43109  0.029517423  0.030660111            1 
  341000    1.1740112   -7.2090201    120.99349  0.029568301  0.030650865            2 
  342000    1.1925951   -7.3228611    121.16537  0.029523726   0.03064037            3 
  343000    1.1799724   -7.2484495    121.88135  0.029611602  0.030630081            2 
  344000    1.1913047    -7.240408    121.62741  0.029464003   0.03061956            1 
  345000    1.2212263   -7.2350626    121.58148  0.029367506  0.030609306            2 
  346000     1.204388   -7.2520761    122.31328  0.029458883  0.030598453            1 
  347000     1.168479   -7.2422735    122.88062  0.029510235  0.030588867            3 
  348000    1.1935501   -7.2139046    123.30064  0.029526016  0.030578589            5 
  349000    1.1892281   -7.2666109    123.44844  0.029476705  0.030569108            3 
  350000    1.1890394   -7.2650106    123.97061  0.029516811   0.03056049            1 
  351000    1.1972225   -7.2755055    124.04265  0.029449821  0.030551852            2 
  352000    1.1888333   -7.2429776    124.70804  0.029523683   0.03054352            1 
  353000    1.1979562   -7.2484649    125.00532  0.029510226  0.030534705            1 
  354000    1.1685208    -7.270067    125.19193  0.029470792  0.030525493            3 
  355000    1.1743299   -7.2533082    125.21276  0.029392668   0.03051549            2 
  356000    1.1882338   -7.3023748    125.60901  0.029402858  0.030506077            6 
  357000    1.2047638   -7.2038816    126.34004   0.02949114  0.030498063            2 
  358000    1.2051358   -7.2718681    126.81003  0.029518163  0.030490695            4 
  359000    1.1937179   -7.2613783    126.92942  0.029463653  0.030482668            2 
  360000    1.1739814   -7.3033692    127.15066  0.029433024  0.030474697            3 
  361000    1.1999489   -7.2976372    127.61549  0.029458792  0.030466416            4 
  362000    1.1929656   -7.2408508     128.1722  0.029505571  0.030459043            2 
  363000    1.2022562   -7.2482192    128.70409  0.029546394  0.030451904            2 
  364000    1.1894104   -7.2496991    129.31796   0.02960576  0.030444091            2 
  365000    1.1895278   -7.2792995     128.8416  0.029415889  0.030437296            2 
  366000    1.1805995   -7.2306935    129.59669  0.029507443  0.030430194            1 
  367000    1.2084474   -7.2610973    129.58806  0.029425082  0.030422395            4 
  368000    1.1974526   -7.2424827    130.13378  0.029468699  0.030415539            1 
  369000    1.1950442   -7.2379597    131.04148   0.02959383  0.030409522            1 
  370000    1.1778605   -7.2683241    131.15572  0.029539577  0.030403983            2 
  371000    1.1890393   -7.2346425    131.48405  0.029533704   0.03039805            3 
  372000    1.1765332   -7.2866148    131.14047  0.029377345  0.030391119            2 
  373000    1.1811951   -7.2479426    131.95875    0.0294814  0.030383403            2 
  374000    1.2248621   -7.2529254    133.07661  0.029651652  0.030377066            3 
  375000    1.1744406    -7.287881    132.97101  0.029549113   0.03037173            1 
  376000    1.1924176     -7.28003    133.51256   0.02959055  0.030366288            5 
  377000    1.1837728    -7.288208    133.90426  0.029598644  0.030360756            3 
  378000    1.2035781   -7.2280868    134.84376   0.02972746  0.030356184            1 
  379000    1.1981058   -7.2799495    134.52404  0.029578726  0.030351015            3 
  380000    1.1769992   -7.2349469    135.07236  0.029621132  0.030346334            2 
  381000    1.1804853   -7.2662824     135.1095   0.02955151  0.030341194            2 
  382000    1.1563058   -7.2613259    135.45089  0.029548622  0.030335709            3 
  383000     1.197727   -7.2618477    136.12737  0.029618662  0.030330269            2 
  384000    1.1850593   -7.2360341    136.53295  0.029629546  0.030324543            4 
  385000    1.1696403   -7.2586173    136.49195  0.029543711  0.030319583            2 
  386000    1.1876296   -7.2896922    137.00896  0.029578791  0.030314807            2 
  387000    1.1949646   -7.3317627    137.37877  0.029581991  0.030310087            1 
  388000    1.1914182   -7.3086729    137.67823  0.029570066  0.030305552            3 
  389000     1.195231   -7.2585569    138.26212  0.029619134  0.030301496            2 
  390000    1.1869737   -7.2167695    138.63025  0.029621849  0.030297032            2 
  391000    1.2013102   -7.2767175     138.2005  0.029454497   0.03029224            3 
  392000    1.1932313   -7.2880106      138.396  0.029420918  0.030287097            3 
  393000    1.1854413   -7.2865364    138.70287  0.029411127  0.030281485            2 
  394000    1.2032939   -7.3299143    138.60389  0.029315543  0.030274286            3 
  395000     1.175251   -7.2608964    140.24409   0.02958736  0.030267768            1 
  396000    1.1905012    -7.302636    139.84938  0.029429584  0.030261869            3 
  397000    1.1748258   -7.2755149    140.18429  0.029425753  0.030254853            2 
  398000     1.176691   -7.2528184    140.81646  0.029484183  0.030248547            1 
  399000    1.1814221   -7.2857796     140.3935  0.029321951  0.030241301            2 
  400000    1.1782246   -7.2916213    140.60188  0.029292058  0.030233318            2 
  401000     1.188402   -7.2762301    141.10807  0.029324204  0.030225146            2 
  402000    1.1915871   -7.2510792    141.44644  0.029321402  0.030216564            2 
  403000      1.15983   -7.3094513     141.1588  0.029189164  0.030207902            2 
  404000    1.1877955   -7.2929811    142.57886  0.029409832  0.030200151            1 
  405000    1.1702734   -7.2613052    142.75506   0.02937347  0.030192439            2 
  406000    1.1645636   -7.2499537    143.52724  0.029459615  0.030184818            2 
  407000    1.2023117   -7.2582444    143.52898  0.029387589   0.03017783            1 
  408000    1.1815412   -7.2727349    144.16109  0.029444668   0.03017088            3 
  409000    1.1513875   -7.2728863    143.52106  0.029242269  0.030163253            1 
  410000    1.1689418   -7.2646932    144.38374  0.029346289  0.030155332            1 
  411000    1.1768517   -7.2414968    144.63299  0.029325424  0.030147045            3 
  412000    1.1878822   -7.3114978    144.96189  0.029320771  0.030139619            2 
  413000    1.1819364   -7.2643884    145.06209  0.029269994  0.030132536            3 
  414000    1.1759716   -7.2543608    145.57245  0.029302022  0.030125424            1 
  415000     1.198321    -7.264626    146.02392  0.029322072  0.030117997            2 
  416000    1.1480038   -7.2586676    146.15152  0.029277148  0.030109992            1 
  417000    1.1706629   -7.2578819    146.37555  0.029251709  0.030101897            2 
  418000    1.1779758   -7.2668516    146.44711  0.029195994  0.030094182            3 
  419000    1.1860048   -7.2764412    146.71491  0.029179577  0.030085893            5 
  420000     1.197924   -7.2853118    147.26723  0.029219689  0.030077752            2 
  421000    1.1575527   -7.2420224    148.04882  0.029304992  0.030070591            1 
  422000    1.2121985   -7.2855514    147.65592  0.029157963   0.03006326            3 
  423000    1.1963003   -7.2754734    148.51292  0.029257864  0.030055373            2 
  424000    1.1807413   -7.2693633     149.1369  0.029311497  0.030047617            1 
  425000    1.1871709   -7.2804294    149.47212  0.029308259  0.030040206            2 
  426000    1.1622323   -7.2898266     149.7511  0.029294034  0.030033267            2 
  427000    1.1868991   -7.2661034     149.8022  0.029235402  0.030025956            1 
  428000    1.1906981   -7.2711767    149.82364  0.029171269  0.030018539            4 
  429000    1.1863856   -7.2675582    150.25351  0.029186773  0.030011695            2 
  430000    1.1886985   -7.2853032    151.22658  0.029307476  0.030005059            3 
  431000    1.2023748   -7.2929614    151.47403  0.029287323  0.029998647            2 
  432000    1.1908065   -7.3052407    151.35565  0.029196692  0.029991161            3 
  433000    1.1859806   -7.2629445    151.94381  0.029242459  0.029984189            2 
  434000    1.1742181   -7.2822059    152.17899  0.029220236  0.029977689            3 
  435000    1.2021005   -7.3142222    152.89444  0.029290123  0.029970885            2 
  436000    1.1833417   -7.2271179    153.13694  0.029269292  0.029964558            2 
  437000    1.1825649   -7.2807582    153.31791  0.029236825  0.029958701            2 
  438000    1.1814285   -7.2966536     153.8293  0.029267371  0.029951863            2 
  439000    1.1791031   -7.2842423    153.70412  0.029176939  0.029945137            2 
  440000    1.1897249   -7.2811453    154.52244  0.029265613  0.029938846            2 
  441000    1.2035344   -7.3106236     154.9195  0.029274281  0.029932592            2 
  442000    1.1538699   -7.3671556    154.86304  0.029197405  0.029926179            2 
  443000     1.173192   -7.3292708    154.96056  0.029149841  0.029919269            1 
  444000    1.1988237   -7.3183177    155.50147  0.029185712   0.02991182            4 
  445000    1.1516751   -7.2814556    156.12687  0.029237241  0.029905455            1 
  446000    1.1757138   -7.2828623    156.41281  0.029225114  0.029899862            1 
  447000     1.175317   -7.2831919    156.74822  0.029222263   0.02989393            2 
  448000    1.2204768   -7.2924694    156.62248  0.029133645  0.029887696            2 
  449000    1.1916675   -7.3042256    157.03183  0.029144735  0.029880577            2 
  450000    1.1714123   -7.2677191    157.71164  0.029205859  0.029873795            2 
  451000    1.1835931   -7.2276971    158.41041  0.029270215  0.029867308            1 
  452000    1.1904699   -7.2632647    157.90809  0.029112849  0.029860433            4 
  453000    1.1817588   -7.3050444    158.45922  0.029149966  0.029853268            2 
  454000    1.1762489   -7.3354515    158.36369  0.029068226  0.029845747            2 
  455000    1.2026739   -7.3010584    158.46059  0.029022086  0.029837675            5 
  456000    1.1851024   -7.3275338    159.19835  0.029093266  0.029830464            3 
  457000    1.1663184   -7.3025234     159.7552  0.029131145  0.029822887            2 
  458000    1.1658795   -7.3136356    159.62595  0.029044022  0.029816074            1 
  459000       1.1678   -7.3339402    159.82633  0.029017127  0.029809004            5 
  460000    1.1762689   -7.3230426    161.21089  0.029204871  0.029802709            2 
  461000    1.1788669   -7.3464902    160.79813  0.029066908  0.029796186            2 
  462000    1.1642317   -7.2768381    161.70354  0.029167306  0.029789281            2 
  463000    1.1590536   -7.2761727    161.79834  0.029121372  0.029782825            1 
  464000    1.1425385    -7.319162    161.94064  0.029084166  0.029776577            1 
  465000    1.1810006   -7.3104207    162.14686  0.029058577  0.029769637            3 
  466000    1.1755915   -7.3196195    162.93057  0.029136369  0.029762745            1 
  467000    1.1674229   -7.2676211    163.45887  0.029168249   0.02975586            2 
  468000    1.1591739   -7.2654645    163.35622  0.029087646  0.029749253            2 
  469000    1.1574579   -7.3597347    162.64227  0.028898769  0.029741897            5 
  470000    1.2052934   -7.3200429    163.38581  0.028969116   0.02973424            1 
  471000     1.144106   -7.2887389    163.41259  0.028912348  0.029726685            1 
  472000    1.1934598   -7.3357428    164.10766  0.028973809  0.029718696            1 
  473000    1.1866563   -7.3040065    164.12886  0.028916289  0.029710568            1 
  474000    1.1490701   -7.2872176    165.30637  0.029062302  0.029703297            3 
  475000    1.1651276   -7.2838703    165.19012  0.028980723  0.029696277            1 
  476000    1.1925554   -7.2952365    165.90253   0.02904456  0.029689749            3 
  477000    1.1931374   -7.2372337    166.62848  0.029110496   0.02968303            1 
  478000    1.1894673   -7.2913819    166.10763  0.028958792  0.029676218            3 
  479000    1.1717542   -7.2922207    165.87279   0.02885748   0.02966856            3 
  480000    1.1596222   -7.2924748    166.46262   0.02889976  0.029660874            1 
  481000    1.1958578   -7.2855893    166.91983   0.02891889  0.029653023            6 
  482000    1.1754913   -7.3158097     167.0552  0.028882295   0.02964529            2 
  483000    1.1631521   -7.2756749    167.49172  0.028897812  0.029637173            3 
  484000     1.170548   -7.3063297    167.65386  0.028866022  0.029628757            3 
  485000    1.1873913    -7.252498    168.80646  0.029004546   0.02962091            5 
  486000    1.1627642   -7.2636766    168.82509  0.028948061  0.029613064            2 
  487000    1.1766579   -7.3016979    167.81999  0.028716631  0.029604386            3 
  488000      1.16039   -7.3231786    168.61382  0.028793344   0.02959519            1 
  489000    1.1589085   -7.2984402    168.55993  0.028725277  0.029586156            3 
  490000    1.1520329   -7.3085551    168.80353  0.028708083  0.029576457            2 
  491000    1.1825553   -7.3002935    169.37002   0.02874576  0.029567245            1 
  492000    1.2010788   -7.2973418    170.11847  0.028814104  0.029558807            5 
  493000    1.1307421   -7.3035423    170.13624  0.028758661  0.029550408            1 
  494000    1.2148194    -7.309041    171.02111  0.028849714  0.029542403            2 
  495000    1.1660063    -7.302595    170.87883   0.02876748  0.029533971            3 
  496000    1.1810289   -7.3541039    171.04625  0.028737609  0.029525461            2 
  497000    1.1417621   -7.3072108    171.29024  0.028720697  0.029516493            2 
  498000    1.1422583   -7.3361113    171.63552  0.028720804  0.029507642            1 
  499000    1.1553304   -7.3077418    172.07756  0.028737068   0.02949907            1 
  500000    1.1748072   -7.3292979    172.33029  0.028721715  0.029490808            1 
  501000    1.1885063   -7.2797274    172.84156  0.028749428  0.029482556            1 
  502000    1.1885866    -7.345096    172.80359  0.028685854  0.029474062            2 
  503000    1.1592696   -7.3156568    173.17772  0.028690809  0.029465457            4 
  504000    1.1580344   -7.3225946    173.60319  0.028704231  0.029457232            1 
  505000    1.1934755   -7.2952279    174.63574   0.02881778  0.029448879            1 
  506000    1.1628221   -7.3407551    174.13571  0.028678477  0.029440991            5 
  507000    1.1843012   -7.3582637    173.90864  0.028584589  0.029433008            8 
  508000    1.1678242    -7.276923    174.85464  0.028683504  0.029425102            1 
  509000    1.1780047   -7.3016836    175.72552  0.028769731  0.029417415            2 
  510000    1.1633115   -7.3237534    175.24455   0.02863473  0.029409046            3 
  511000    1.1581661   -7.3458975    175.76063  0.028662856  0.029400632            5 
  512000    1.1704116   -7.2997954    176.09287   0.02866095  0.029392023            3 
  513000    1.1404099   -7.3184349    176.28702  0.028636618  0.029382956            2 
  514000    1.1555816   -7.3672568    176.22333  0.028570578  0.029373781            1 
  515000    1.1734996   -7.3222643    177.27838  0.028685823  0.029365263            4 
  516000    1.1743853   -7.3277347    177.13615   0.02860726  0.029356612            3 
  517000     1.148382   -7.2565575    178.80865   0.02882151  0.029348741            2 
  518000    1.1913306   -7.3199799    178.11643   0.02865451  0.029341357            2 
  519000    1.1783435   -7.3392941    178.07308  0.028592337  0.029333549            3 
  520000    1.1757157   -7.3363956    178.44012  0.028596174  0.029325503            2 
  521000    1.1837924   -7.3249803    178.87701  0.028611166  0.029318059            4 
  522000    1.1640187   -7.3030123    179.80512  0.028704521  0.029310527            2 
  523000    1.1736995   -7.3080531    179.55917  0.028610447  0.029302916            2 
  524000    1.1744836   -7.3244536    180.44992  0.028697507    0.0292953            2 
  525000    1.1525959   -7.3048575    180.88904  0.028712546  0.029288341            2 
  526000    1.1681027   -7.3260949    180.90677  0.028660769  0.029281528            1 
  527000    1.1536988    -7.309473    181.84747  0.028755134  0.029274552            2 
  528000    1.2110598   -7.3075116    181.45461  0.028638669  0.029267931            2 
  529000    1.1675429   -7.3267563    182.18602  0.028699751  0.029261493            2 
  530000    1.1385368    -7.369183    181.79505  0.028584128  0.029254371            1 
  531000    1.1576604    -7.322762    182.31741  0.028612273  0.029247161            2 
  532000    1.1616406   -7.3214568    182.37824   0.02856802  0.029239858            3 
  533000    1.1726074   -7.3115009    183.66052  0.028714903  0.029232879            1 
  534000    1.1705249   -7.3490194    183.38439  0.028618039  0.029226637            1 
  535000    1.1630593   -7.3425568    183.75562  0.028622371  0.029219994           10 
  536000    1.1450919   -7.3046168    184.70068  0.028715902  0.029213052            2 
  537000    1.1411975     -7.29909    184.95989  0.028702653  0.029206958            3 
  538000    1.1690301   -7.3771151     185.0125   0.02865745  0.029200354            1 
  539000    1.1439469   -7.2916548    186.08707  0.028770418  0.029194154            5 
  540000     1.191395   -7.3161746    185.78049  0.028669829  0.029188188            2 
  541000    1.1847781   -7.3302625    185.90961  0.028636724  0.029181699            3 
  542000    1.1721574   -7.3544345    186.34986  0.028651577   0.02917525            3 
  543000     1.138045   -7.3145835    187.45774  0.028768837  0.029169275            2 
  544000    1.1648916   -7.3065495    188.06412  0.028808842   0.02916345            5 
  545000    1.1586136   -7.3301644    187.59474  0.028684211  0.029157229            2 
  546000    1.1853179   -7.3032403    187.92683   0.02868236  0.029151524            3 
  547000    1.1451526   -7.2925193    188.64675  0.028739603  0.029146063            2 
  548000     1.175081   -7.3118514     188.7233  0.028698798  0.029140391            2 
  549000    1.1611269   -7.3298681    189.42108  0.028752441  0.029135123            3 
  550000    1.1671156   -7.3506282    189.37595  0.028693325  0.029129169            4 
  551000    1.1631369   -7.3456434    189.80866  0.028706694  0.029123217            2 
  552000     1.156607   -7.3232221    189.75101  0.028645986  0.029117462            1 
  553000    1.1529357   -7.3634204    190.15461  0.028655005  0.029111409            4 
  554000    1.1879448   -7.3699929    189.64807  0.028527087  0.029104812            2 
  555000    1.1714792   -7.3359197    190.55307  0.028611572  0.029098835            5 
  556000    1.1577026   -7.3295076     191.3134   0.02867407    0.0290929            1 
  557000     1.184407   -7.3065988    191.57945  0.028662396  0.029087136            3 
  558000    1.1531408    -7.287238    192.15086  0.028696366  0.029081401            3 
  559000    1.1529342   -7.3004802    191.70658  0.028578799  0.029075218            2 
  560000    1.1711861   -7.3661041    191.52573  0.028500852  0.029068254            4 
  561000    1.1741336   -7.3318159    192.10701  0.028536395  0.029060775            2 
  562000    1.1723653   -7.3068046    192.23325  0.028504338  0.029053337            2 
  563000    1.1833678    -7.334412    191.70966  0.028376208  0.029045641            4 
  564000    1.1552966   -7.3626606    191.67025  0.028320072  0.029037861            3 
  565000    1.1629863   -7.3790466    191.66415  0.028269049  0.029029738            1 
  566000    1.1650947   -7.3400818    193.12616  0.028434357  0.029021743            4 
  567000    1.1665215   -7.3401603    192.96764  0.028360911  0.029013381            2 
  568000    1.1774119   -7.2866839    194.16681  0.028486914  0.029005205            3 
  569000    1.1562109   -7.3375339    193.40042  0.028324608   0.02899691            1 
  570000    1.1530263   -7.3151835    193.79479  0.028332571  0.028989393            4 
  571000    1.1889816   -7.3600306    193.96115  0.028307231  0.028981408            2 
  572000    1.1462078   -7.3552638    194.62872     0.028355  0.028973519            3 
  573000    1.1690453   -7.3970511    194.47676  0.028283414  0.028965254            2 
  574000    1.1438983    -7.325525      195.355  0.028361644  0.028957026            2 
  575000    1.1579335   -7.3384278    195.21779  0.028292434  0.028949182            4 
  576000     1.152459   -7.3425431     195.0758  0.028222772  0.028941179            4 
  577000    1.1637825   -7.3671748    195.52405  0.028238597  0.028932848            1 
  578000    1.1550307   -7.3412271    196.00322  0.028258827  0.028924404            3 
  579000     1.156388   -7.3768552    195.88009  0.028192298  0.028916025            4 
  580000    1.1494882   -7.3435198    195.93224  0.028151183  0.028907814            3 
  581000    1.1615536   -7.3162211    197.12576  0.028273919  0.028899644            4 
  582000    1.1543816   -7.3535168    197.04644   0.02821398  0.028891068            2 
  583000    1.1362082   -7.3782967    197.17813  0.028184409  0.028882489            4 
  584000    1.1407992   -7.3635933    197.46645  0.028177291  0.028873526            1 
  585000    1.1458074   -7.3476967    197.88345  0.028188525  0.028864155            2 
  586000    1.1929096   -7.3179176    197.96904  0.028152594  0.028855679            1 
  587000    1.1572854   -7.3188588    198.65251  0.028201663    0.0288472            2 
  588000    1.1784826   -7.3084598    198.92925  0.028192921  0.028838286            3 
  589000    1.1652422     -7.32212    199.13336  0.028173933  0.028829365            3 
  590000    1.1746752   -7.3525039    199.15856   0.02812974  0.028820176            3 
  591000    1.1588656    -7.324929     198.8326  0.028036182  0.028811002            1 
  592000    1.2010562    -7.365874    199.63612  0.028101931   0.02880156            3 
  593000    1.1474953   -7.3448947    199.39236  0.028020287  0.028792146            4 
  594000    1.1831235   -7.3519533       199.92  0.028047138  0.028782816            1 
  595000    1.1093545   -7.3521851    200.61738  0.028097672  0.028773328            2 
  596000    1.1357234   -7.3950852    199.89191  0.027949092  0.028763531            3 
  597000    1.1667636   -7.3749635     200.3551  0.027966932  0.028754498            4 
  598000    1.1503318   -7.3393119    201.83385  0.028126233  0.028745571            2 
  599000     1.168605    -7.305562    202.28654  0.028142257  0.028737123            3 
  600000     1.133019   -7.3793072    202.35191  0.028104432  0.028728266            3 
  601000    1.1665453   -7.3935744    202.56052  0.028086594  0.028719833            4 
  602000    1.1231953   -7.3584218    203.28169  0.028139768   0.02871144            2 
  603000    1.1284264   -7.3403985    203.34505  0.028101858  0.028703155            3 
  604000    1.1825656    -7.368739    203.58621  0.028088605   0.02869484            3 
  605000    1.1435281   -7.3862848    202.38744  0.027877057   0.02868543            1 
  606000    1.1486741   -7.3768296    203.05017  0.027922191  0.028675722            2 
  607000     1.163204   -7.3377745    204.06857  0.028016003  0.028666154            2 
  608000    1.1685877   -7.3549238    204.38467   0.02801325  0.028656539            1 
  609000    1.1465545   -7.3157859    204.36498  0.027964556  0.028647502            3 
  610000    1.1457333   -7.3746358     204.1121  0.027884166  0.028638019            4 
  611000    1.1284357    -7.342769    204.97474  0.027956184  0.028628814            5 
  612000    1.1557456   -7.3897159    204.36051  0.027826867    0.0286198            1 
  613000     1.135473   -7.3934658    204.99954  0.027868345   0.02861021            3 
  614000    1.1354449   -7.3642982    205.09163  0.027835455  0.028600676            2 
  615000    1.1688406    -7.368935    206.06901  0.027922631  0.028591274            1 
  616000    1.1442713   -7.3279537    206.29977  0.027908518  0.028582138            2 
  617000    1.1528743   -7.3501384    206.28129   0.02786079  0.028572745            3 
  618000    1.1610337   -7.3437993    206.90049  0.027899203  0.028563684            2 
  619000    1.1369799   -7.3769941    206.83811  0.027845734  0.028554612            1 
  620000    1.1564967   -7.3170155    208.53808  0.028029312  0.028545717            2 
  621000    1.1807762   -7.4009255    207.45277  0.027838536  0.028537054            2 
  622000    1.1647019   -7.3865336    207.95652  0.027861269   0.02852822            2 
  623000    1.1247498   -7.3731616    208.41229  0.027877514  0.028519598            2 
  624000    1.1305827   -7.3610978    208.33322  0.027822278  0.028510568            2 
  625000    1.1581416   -7.3771715    208.21147  0.027761529  0.028501451            3 
  626000    1.1423993   -7.3367035     208.9699  0.027818144  0.028492653            5 
  627000    1.1836538   -7.3745938    209.56967  0.027853492  0.028483961            2 
  628000    1.1432093   -7.3354575    210.59947   0.02794579  0.028475766            2 
  629000    1.1399801   -7.3878856    209.70466  0.027782812  0.028467277            2 
  630000    1.1632058   -7.3999735    209.58375  0.027722718  0.028458986            2 
  631000    1.1552711   -7.3570103    211.63116  0.027949175  0.028451102            1 
  632000     1.164874   -7.3853447     211.1062  0.027835733  0.028443274            5 
  633000    1.1566763   -7.3199197    211.81308  0.027884818  0.028435472            1 
  634000    1.1650449   -7.3823571    211.89346  0.027851401  0.028427467            5 
  635000    1.1419469   -7.3900884     212.1153  0.027836654  0.028419213            1 
  636000     1.133491   -7.4084843    212.61763  0.027858704  0.028411229            2 
  637000    1.1464478   -7.3645835     213.3403   0.02790951  0.028403173            2 
  638000    1.1360065    -7.404103    213.41161  0.027875079  0.028395252            2 
  639000    1.1209873    -7.338452    213.44692  0.027836062  0.028387315            1 
  640000    1.1426473   -7.3638116     214.4917  0.027928606  0.028379671            6 
  641000    1.1404707   -7.3996596    214.46847  0.027882017  0.028372214            2 
  642000     1.154378   -7.4309613    214.49771  0.027842382  0.028364657            2 
  643000    1.1511983   -7.3946858    215.37972   0.02791339  0.028357466            7 
  644000    1.1531099   -7.3570931     215.8774  0.027934447  0.028350192            4 
  645000    1.1523903   -7.3795893    216.27371  0.027942339  0.028343085            1 
  646000      1.12658   -7.3680654    217.68855  0.028081598  0.028336601            7 
  647000    1.1597345   -7.3696627    217.08913  0.027960991  0.028330177            1 
  648000    1.1495665   -7.4017103    217.25804  0.027939563  0.028323684            4 
  649000    1.1548964   -7.4430793    217.67547  0.027950111  0.028317341            3 
  650000    1.1279872   -7.3978525    217.56905  0.027893468   0.02831052            2 
  651000    1.1438178   -7.3577122     218.0269   0.02790923  0.028303725            3 
  652000    1.1728218   -7.3545439    219.08022   0.02800105  0.028296954            1 
  653000    1.1437639   -7.3765935    218.36204  0.027866518   0.02829025            2 
  654000    1.1295588   -7.3476568    219.38934  0.027954808  0.028283641            3 
  655000    1.1586784   -7.3744357    218.99732  0.027862254  0.028277031            2 
  656000    1.1345357   -7.3648959    219.56443  0.027891823  0.028270234            1 
  657000    1.1306647   -7.3794955    219.53764  0.027845971  0.028263039            5 
  658000    1.1355276   -7.3562874    219.65604  0.027818647  0.028256099            2 
  659000    1.1415437   -7.3707096    220.00109  0.027820068  0.028248543            5 
  660000    1.1513218   -7.4331826    219.11193  0.027665648  0.028240938            1 
  661000     1.119865    -7.378659    220.52799  0.027802319  0.028233212            2 
  662000    1.1600685   -7.3896687    219.32629  0.027609049  0.028225416            2 
  663000    1.1765205   -7.3676694    220.30585  0.027690529  0.028217248            2 
  664000    1.1157988   -7.4083915    219.99919   0.02761034   0.02820853            3 
  665000    1.1385798   -7.3566674    220.25917    0.0276014  0.028200058            2 
  666000    1.1496672   -7.3635987    221.33922  0.027695098  0.028191757            3 
  667000    1.1495614   -7.3648465    222.04366  0.027741586  0.028183606            2 
  668000     1.155715   -7.3899763    221.78662  0.027667991   0.02817536            2 
  669000    1.1622007    -7.438714    221.72403  0.027618838  0.028167136            6 
  670000    1.1355806    -7.372188    222.19328   0.02763598  0.028159183            1 
  671000    1.1559975   -7.3768499     222.2467  0.027601429  0.028151062            2 
  672000    1.1307391   -7.3639552    222.85641  0.027635964  0.028142938            3 
  673000    1.1261234   -7.3811757    223.22575  0.027640633   0.02813438            5 
  674000    1.1371867   -7.3855339    222.88313  0.027557261  0.028125652            2 
  675000    1.1326704   -7.3916948    222.55058   0.02747538  0.028116824            2 
  676000    1.1517591   -7.3817973    223.49533  0.027551199  0.028108135            2 
  677000    1.1292446   -7.3855522    223.72839  0.027539191  0.028099561            2 
  678000    1.1611415   -7.3660301    224.21909  0.027558885  0.028091097            1 
  679000    1.1275504   -7.3978533    224.21473  0.027517763  0.028082746            3 
  680000      1.14757   -7.3638367    225.38917  0.027621221  0.028074843            2 
  681000    1.1546901   -7.3817108    226.06626  0.027663517  0.028066786            2 
  682000    1.1486727   -7.4066957    225.70245  0.027578501  0.028058914            2 
  683000     1.148017   -7.4049688    225.55131  0.027519682  0.028050971            1 
  684000    1.1273763    -7.369402     225.4765  0.027470333  0.028043013            1 
  685000    1.1794394   -7.4067137    225.92466  0.027484752  0.028035149            5 
  686000    1.1361426   -7.4203684    226.19623  0.027477676  0.028026909            1 
  687000    1.1689358   -7.3943751    227.68716   0.02761853  0.028018904            3 
  688000    1.1766383   -7.4025426    227.09032  0.027506094   0.02801123            2 
  689000    1.1422952    -7.406595     227.3042  0.027492041  0.028003208            3 
  690000    1.1376768   -7.3861626    227.29214  0.027450741  0.027994906            2 
  691000    1.1628283   -7.4029211    227.01384  0.027377452  0.027986335            2 
  692000    1.1547208   -7.3855832    226.92786  0.027327536  0.027977881            4 
  693000    1.1365982   -7.4147136    227.53504  0.027361116  0.027969044            2 
  694000    1.1490778   -7.3884378    228.42416  0.027428453  0.027960346            4 
  695000    1.1260875   -7.4106585    228.47665  0.027395282  0.027951503            2 
  696000    1.1399529   -7.4074181    228.35577  0.027341447  0.027942767            2 
  697000    1.1669298   -7.3640433    229.69252  0.027462042  0.027934201            1 
  698000    1.1426535   -7.3510675    229.41316  0.027389345  0.027925397            1 
  699000     1.144555   -7.3979659    229.26585    0.0273326  0.027916433            1 
  700000    1.1443498   -7.4020285    229.32244  0.027300291  0.027907329            2 
  701000    1.1410464   -7.3840724    230.14283  0.027358871  0.027898477            2 
  702000     1.124513   -7.4187794    229.06311  0.027191727  0.027889379            2 
  703000    1.1465861   -7.4075016    230.14293  0.027281049   0.02788035            3 
  704000    1.1244562   -7.3756906    230.75496  0.027314745  0.027871977            2 
  705000    1.1424633   -7.4044722    230.36585  0.027230006   0.02786317            1 
  706000    1.1343627   -7.3592715    231.67356  0.027345793  0.027854629            1 
  707000     1.130599   -7.3900923    231.66327  0.027305902  0.027845752            1 
  708000    1.1243967   -7.4421426    230.89855  0.027177325  0.027836786            3 
  709000    1.0951768   -7.4236059    231.35012  0.027192069  0.027827176            4 
  710000    1.1527294   -7.3824157    231.60561  0.027183757  0.027817759            2 
  711000    1.1599506   -7.3823567    232.49411  0.027249661  0.027808707            7 
  712000     1.135924   -7.3839335    233.29994  0.027305704  0.027799861            4 
  713000    1.1230954   -7.4132039    232.78601  0.027207341  0.027791103            3 
  714000    1.1315873   -7.3682176    234.19095   0.02733321  0.027782214            2 
  715000    1.1244657   -7.4101476    234.05146  0.027278725  0.027773308            3 
  716000    1.1536017   -7.3823165    234.19802  0.027257683  0.027764408            4 
  717000    1.1121883   -7.3817088    233.55938  0.027145442  0.027755471            5 
  718000    1.1399667   -7.3727206     233.9474  0.027152669  0.027746439            4 
  719000    1.1222282   -7.4143723    234.07013   0.02712913  0.027737237            3 
  720000    1.1217724   -7.4091726    234.62891  0.027156124   0.02772795            2 
  721000    1.1282735   -7.4175287    234.31161  0.027081786   0.02771881            3 
  722000    1.1363566    -7.380624    235.83056  0.027219594  0.027709284            6 
  723000     1.165508   -7.3998182    234.89413  0.027074013  0.027699988            1 
  724000    1.1183566   -7.4387723    234.91869  0.027039444  0.027690476            3 
  725000    1.1405402   -7.3981309     234.4282   0.02694577  0.027679963            4 
  726000    1.1410953   -7.3882792    234.44087  0.026910109  0.027669363            3 
  727000    1.1333727   -7.4241429    234.16543  0.026841521  0.027658953            2 
  728000    1.1655587   -7.4253929    234.24355  0.026813593   0.02764825            2 
  729000    1.1386045   -7.4089745    235.22401   0.02688889  0.027637305            3 
  730000    1.1155216   -7.3842685    235.79163  0.026916853   0.02762653            2 
  731000    1.1334999   -7.3813777    235.46178  0.026842428  0.027615729            2 
  732000    1.1411254   -7.4183908    235.59317  0.026820716   0.02760497            1 
  733000    1.1204347   -7.4025612    236.32344  0.026867148  0.027594508            4 
  734000    1.1464324   -7.4347535    236.16973  0.026813094  0.027583922            2 
  735000    1.1360339   -7.3974266     237.3994  0.026916031  0.027573734            2 
  736000    1.1467809    -7.355409    237.36744  0.026875842  0.027563455            3 
  737000    1.1442191   -7.4509642    236.67293  0.026760847  0.027553317            3 
  738000    1.1182449   -7.3956647    237.48594  0.026816389  0.027543019            1 
  739000    1.1171301   -7.4069566    237.44809  0.026775833  0.027532733            2 
  740000    1.1153283   -7.4128522    237.77432  0.026776387  0.027522298            1 
  741000    1.1429637    -7.467878    237.83939   0.02674757  0.027511929            2 
  742000    1.1257972   -7.3799756      240.047  0.026959457  0.027501638            4 
  743000    1.1101281   -7.4033147      239.909  0.026907694  0.027491751            4 
  744000    1.1320568   -7.3832673    240.13477  0.026896816  0.027482076            1 
  745000    1.1390382   -7.4302992    240.02062  0.026847944   0.02747226            6 
  746000    1.1469053    -7.414044    239.99138  0.026808689  0.027462336            1 
  747000    1.1296429   -7.4298846    240.55181   0.02683532   0.02745229            1 
  748000    1.1429946   -7.4281689    240.89176  0.026837318  0.027442459            3 
  749000    1.1565318   -7.3896373    241.18998  0.026834666   0.02743294            2 
  750000    1.1357594   -7.4154404    240.91687  0.026768541  0.027423166            2 
  751000    1.1059275   -7.4341713    241.13772  0.026757403  0.027413379            2 
  752000    1.1127909   -7.4567743    241.22063   0.02673101  0.027403718            2 
  753000    1.1172952    -7.373042    242.45541  0.026832162  0.027393957            2 
  754000    1.1244596   -7.4427203    241.86246  0.026731041  0.027384674            3 
  755000    1.0992657   -7.4131483    242.54797  0.026771299  0.027375264            5 
  756000     1.122572   -7.4285901    243.12142  0.026799099  0.027366062            1 
  757000    1.1421086   -7.4315206    243.41577    0.0267961  0.027356545            5 
  758000    1.1501044    -7.450697    243.94187  0.026818588  0.027346935            4 
  759000    1.1306003   -7.4518253    243.83739  0.026771782   0.02733798            2 
  760000    1.1379415   -7.3947423    244.89393  0.026852405  0.027329257            3 
  761000    1.1275848   -7.4540801    244.86944  0.026814437  0.027320702            3 
  762000    1.1204174   -7.4389524    244.70321  0.026761068  0.027312147            2 
  763000    1.1025174   -7.4751598    245.20094  0.026780356  0.027303337            2 
  764000    1.1461045   -7.3937852    246.26759  0.026861649  0.027294695            1 
  765000    1.1154208   -7.3900197     246.4637  0.026847897  0.027286355            2 
  766000    1.1307705   -7.4276368    246.28338  0.026793231  0.027277713            2 
  767000    1.1160277   -7.3748148    246.74692  0.026808661  0.027269033            3 
  768000    1.1179654   -7.4496623    246.14683   0.02670864  0.027260153            2 
  769000    1.1532059   -7.4093646    246.18055  0.026677563   0.02725131            1 
  770000    1.1159523    -7.398391    247.02555  0.026734367  0.027242591            3 
  771000    1.1280998   -7.4565844    246.74453  0.026669318  0.027233791            3 
  772000    1.1161985   -7.3937879    247.94513  0.026764371  0.027224603            2 
  773000    1.1351926   -7.4259393    247.31438  0.026661749  0.027215476            4 
  774000    1.1423955    -7.419827     247.7948  0.026679026  0.027206635            2 
  775000    1.1198852   -7.3989876    248.63167  0.026734589  0.027197637            2 
  776000    1.1615655   -7.4419566    248.30903  0.026665488   0.02718875            3 
  777000    1.1213345   -7.4104656    248.58166  0.026660409  0.027180018            2 
  778000    1.1458355   -7.4240065    249.46573  0.026720837  0.027171415            1 
  779000    1.1242389   -7.4046372    249.60014  0.026700913  0.027162349            2 
  780000    1.1163137   -7.3764622    250.84723  0.026799918   0.02715367            3 
  781000    1.1403055   -7.4703033    249.15502  0.026585042  0.027145112            2 
  782000    1.1232722   -7.4319176    249.54662  0.026592777  0.027136295            2 
  783000    1.1195016   -7.4490504    250.16955  0.026625112  0.027127729            2 
  784000    1.1203451   -7.4126766    251.33336  0.026714856  0.027119215            3 
  785000    1.1532774   -7.4319688    251.06894  0.026652754  0.027111019            4 
  786000    1.1117421   -7.4055121    252.28999  0.026748302  0.027103055            1 
  787000     1.117153   -7.4176636    252.24612   0.02670967  0.027094925            2 
  788000    1.1259723   -7.3963662    252.97786  0.026753158  0.027086861            1 
  789000    1.1349441   -7.4763127      252.061  0.026622412  0.027078777            2 
  790000      1.12415   -7.4234853    253.06862  0.026695002  0.027070372            3 
  791000    1.1281028   -7.4688937    252.37598  0.026588283  0.027062012            2 
  792000    1.1112167   -7.4436561    253.04177  0.026624766   0.02705352            3 
  793000    1.1125847   -7.4320422    253.98087  0.026689877  0.027045288            3 
  794000    1.1448586   -7.4632391    253.61983   0.02661837  0.027037196            3 
  795000    1.1418111   -7.4250459    253.51026  0.026573403  0.027029104            2 
  796000    1.1088993   -7.3945351    255.15309  0.026712007  0.027021107            1 
  797000    1.1122849   -7.4517288    253.49771  0.026505407  0.027013163            2 
  798000    1.1227445    -7.433436    254.63728  0.026591195  0.027005137            4 
  799000    1.1359115   -7.4470871    254.44694  0.026538062   0.02699704            1 
  800000     1.129587   -7.4398978    255.17561  0.026580793  0.026988873            2 
  801000    1.1300527   -7.4338129    255.18077  0.026548145  0.026980429            4 
  802000    1.1274253   -7.4045997    254.91515  0.026487442  0.026971949            4 
  803000    1.1092334   -7.4410277    254.77941   0.02644037  0.026963515            3 
  804000    1.1153592   -7.4378763    255.56314  0.026488717   0.02695483            1 
  805000    1.1438764     -7.44123    255.55265  0.026454726  0.026946255            3 
  806000    1.1104443   -7.4833626      255.673  0.026434346  0.026937637            4 
  807000     1.150192   -7.4491157    256.65684  0.026503184  0.026929248            1 
  808000    1.1329169   -7.4384465     256.7807  0.026483158  0.026920841            5 
  809000    1.1140937    -7.402891    257.52548  0.026527141  0.026912302            3 
  810000    1.1222132    -7.436357    257.73642  0.026516092  0.026903801            3 
  811000     1.115314   -7.4312022    257.62572  0.026472023   0.02689519            2 
  812000    1.1084861   -7.4042328    258.51241  0.026530419  0.026886749            2 
  813000    1.1020053   -7.4624139    258.00829  0.026446115  0.026878304            2 
  814000    1.1222328   -7.4368517    258.84496  0.026499279  0.026869847            3 
  815000    1.1075761   -7.4869691    258.09606   0.02639019  0.026861383            2 
  816000     1.118153   -7.5035805    258.07507  0.026355705  0.026852438            5 
  817000    1.1099627   -7.3864732    259.16924  0.026435051  0.026843829            3 
  818000    1.1209897   -7.4723355    258.97847    0.0263833  0.026835297            4 
  819000    1.1495721   -7.4571146    258.89498   0.02634259  0.026826654            2 
  820000    1.1251054   -7.4449157    259.63046   0.02638521  0.026817919            3 
  821000    1.1150821   -7.4478037    259.10533   0.02629977  0.026808892            4 
  822000    1.1369983   -7.4273922    259.51891  0.026309703  0.026799929            1 
  823000    1.0794719   -7.4567566    259.68559  0.026294612  0.026790954            1 
  824000    1.1353671   -7.4227638    260.21528   0.02631627  0.026782118            4 
  825000     1.125298   -7.4422138     260.4676  0.026309859  0.026773339            3 
  826000    1.1318009   -7.4489874    260.13458  0.026244408  0.026764583            3 
  827000    1.1203452   -7.4833562    260.45544  0.026245006  0.026755523            7 
  828000    1.1018535   -7.4194603    261.91683  0.026360389  0.026746644            2 
  829000    1.1129187    -7.399771     262.1706  0.026354101  0.026738229            2 
  830000    1.0986082    -7.447389    262.14532  0.026319811  0.026729505            1 
  831000    1.1276301   -7.4475319    262.44997  0.026318689  0.026720839            4 
  832000    1.1452095   -7.4466721    262.33427  0.026275468  0.026711925            2 
  833000    1.1288786   -7.4610017    261.30585  0.026141041  0.026703159            1 
  834000    1.1457858     -7.42399    262.75517  0.026254513  0.026694391            2 
  835000    1.0962069   -7.3801504    263.49114  0.026296521   0.02668576            2 
  836000    1.1153763   -7.4572818    263.84623  0.026300461  0.026677161            3 
  837000      1.12945   -7.4667137    263.44888  0.026229479  0.026668468            5 
  838000    1.1119204   -7.4494673    264.40226  0.026292985  0.026660112            3 
  839000    1.1232037   -7.4741366    264.35293  0.026256748  0.026651804            2 
  840000    1.1280653   -7.4241115    264.84571  0.026274376  0.026643524            2 
  841000    1.1083437   -7.4308715    265.51025  0.026308982   0.02663539            2 
  842000    1.1178762   -7.4847649    264.65677  0.026193267  0.026627184            1 
  843000    1.0881299   -7.4708461    264.97081  0.026193239  0.026618807            4 
  844000    1.1085843   -7.4701869    265.65386  0.026229647  0.026610505            2 
  845000    1.1269429   -7.4470758    266.44208  0.026276339  0.026602515            2 
  846000    1.1127235   -7.4046815    267.17002  0.026316984  0.026594515            2 
  847000    1.1283117   -7.4514676    266.71317  0.026240966    0.0265865            2 
  848000    1.1485701   -7.4758962    266.76521  0.026215134  0.026578348            6 
  849000    1.1427968   -7.4190401    266.75175  0.026182936  0.026570108            2 
  850000    1.1392647   -7.4874389    266.84386  0.026161163  0.026562095            1 
  851000    1.1193199   -7.5245386    267.17127  0.026162482  0.026553693            1 
  852000    1.1134656   -7.4487407    268.64186  0.026275612  0.026545601            3 
  853000    1.1408172    -7.455156    268.00578  0.026182667  0.026537804            2 
  854000    1.1323152    -7.429067    269.15239  0.026263895   0.02653007            3 
  855000    1.1171547    -7.480652    269.17709  0.026235584  0.026522425            2 
  856000    1.1147798   -7.4352219    269.42365  0.026228938  0.026514851            1 
  857000    1.1465477   -7.4598827    269.42295  0.026198265  0.026506831            2 
  858000    1.0878905   -7.4614856      270.217  0.026244852  0.026498947            1 
  859000    1.1333444   -7.4680259    269.39832  0.026134878  0.026491094            2 
  860000    1.1274449   -7.4818761    269.93487  0.026156479  0.026483265            2 
  861000    1.1232932   -7.5149452    269.61132  0.026094785  0.026475596            2 
  862000    1.0936413   -7.4553977    271.72906  0.026269244  0.026468243            2 
  863000    1.1232076   -7.4681711    271.57027  0.026223472  0.026460971            1 
  864000    1.1019881   -7.4469627    271.88495  0.026223471  0.026453779            3 
  865000    1.1099161    -7.443143    272.37828  0.026240682  0.026446781            2 
  866000    1.1015227   -7.4676489    272.38305   0.02621084  0.026439257            1 
  867000    1.1254283   -7.4712348    273.22592  0.026261622  0.026431964            4 
  868000    1.1402745   -7.4618796    273.52807  0.026260375  0.026424787            5 
  869000    1.1190488   -7.4561731    273.67917  0.026244646  0.026417871            1 
  870000    1.1162483   -7.4686449    273.93723  0.026239198   0.02641112            3 
  871000     1.109685   -7.4594204    274.03946  0.026218854  0.026404207            2 
  872000    1.1011403   -7.5175232    274.59849   0.02624221  0.026397104            3 
  873000    1.0957817   -7.4831975    274.41761  0.026194885  0.026390126            3 
  874000    1.0977713   -7.4753667     274.6457  0.026186661  0.026383035            3 
  875000    1.1014058   -7.4765359    275.27427  0.026216597  0.026375832            2 
  876000    1.1208524   -7.4757663    275.97834  0.026253647  0.026368958            7 
  877000    1.0815017   -7.4194162    276.35334  0.026259344  0.026362502            3 
  878000     1.122741   -7.4589563    276.14133  0.026209314  0.026356013            2 
  879000    1.0821785   -7.4713266    276.56773  0.026219921  0.026349322            6 
  880000    1.0853799   -7.4609494    277.08616  0.026239219  0.026342618            3 
  881000    1.1024767   -7.4919067    277.03969  0.026205041   0.02633596            2 
  882000     1.105781   -7.5242591    277.01309  0.026172817  0.026329019            4 
  883000    1.1042549     -7.50225    277.26013   0.02616649  0.026322379            1 
  884000    1.1314633   -7.5313185    277.01474  0.026113758  0.026315695            2 
  885000     1.080576   -7.4906766    277.92797  0.026170242  0.026309128            3 
  886000     1.114119   -7.4835903     279.6192  0.026299775  0.026302932            1 
  887000    1.0975964   -7.4971862     278.6258  0.026176795  0.026296797            3 
  888000    1.1200196   -7.4773322    278.53563  0.026138854  0.026290809            3 
  889000    1.1054713   -7.4594503    279.72266  0.026220722  0.026284677            3 
  890000    1.1206611    -7.483405    279.47112  0.026167708  0.026278693            4 
  891000    1.1199167   -7.4553925    280.27174  0.026213219  0.026272649            1 
  892000      1.12335   -7.4358647    280.43603   0.02619918  0.026266484            3 
  893000    1.1131996   -7.4559088    280.74662  0.026198827  0.026260181            3 
  894000    1.1226309   -7.5002051    280.64526  0.026160073  0.026253594            2 
  895000    1.1154406   -7.4970635    280.58472  0.026125206  0.026247245            5 
  896000    1.1003977   -7.4819058    281.56357  0.026187088  0.026241065            4 
  897000    1.1227382   -7.4995366    280.66644  0.026074549  0.026235043            2 
  898000    1.1368912   -7.4989388    281.10959  0.026086636  0.026228592            3 
  899000    1.1025014   -7.5075571    282.15058  0.026154114  0.026222355            1 
  900000    1.1051969   -7.4724237    282.17029  0.026126878  0.026215899            2 
  901000    1.1035444   -7.4617933    282.29765  0.026109661  0.026209727            2 
  902000    1.0950908   -7.4571755    282.55073  0.026104095  0.026203636            3 
  903000    1.1124555   -7.4751729    282.59569  0.026079336  0.026197325            2 
  904000    1.1167114   -7.4721442    283.55917  0.026139304  0.026191099            1 
  905000    1.1054476   -7.4685229    283.70707   0.02612404  0.026185104            2 
  906000    1.1016451   -7.4982534    283.83421  0.026106899  0.026179025            2 
  907000     1.099563      -7.5196    283.88937  0.026083184  0.026173157            3 
  908000    1.0947389   -7.5111319    284.01374  0.026065872  0.026167153            3 
  909000    1.0975996   -7.4996071    284.90684  0.026119072  0.026160824            4 
  910000    1.1019844   -7.5398432    284.13276  0.026019484  0.026154382            2 
  911000    1.1122455   -7.4773297    285.02481  0.026072522  0.026148066            4 
  912000    1.1000664   -7.4812245    284.32582  0.025980064   0.02614189            5 
  913000    1.1209417   -7.5051659      285.096  0.026021906  0.026135475            4 
  914000     1.095254   -7.5118053      285.236    0.0260062   0.02612887            5 
  915000    1.1298853   -7.5309777    284.80496  0.025938521  0.026122208            1 
  916000    1.1203634   -7.4769892    285.60051  0.025982579  0.026115455            2 
  917000    1.1122041   -7.4815296    285.31742  0.025928519  0.026108535            2 
  918000    1.0780663   -7.5249589    284.94407  0.025866383  0.026101227            2 
  919000    1.1038722   -7.4643269    286.03579  0.025937232  0.026093955            3 
  920000    1.1080915    -7.481336     286.2299  0.025926621  0.026086774            2 
  921000     1.099657   -7.4630452    285.30065  0.025814391  0.026079688            3 
  922000    1.1154067   -7.4737419    286.32426   0.02587891  0.026072284            2 
  923000    1.1052245   -7.5022125    285.78974  0.025802613  0.026064905            2 
  924000    1.0942461   -7.5543516     285.3186  0.025732197  0.026056982            3 
  925000    1.1167464   -7.5208729    286.31004  0.025793697  0.026048979            1 
  926000    1.1080537   -7.5115313    286.20931  0.025756777  0.026041317            1 
  927000    1.1008968    -7.504628    286.93194  0.025793953  0.026034009            5 
  928000    1.1081831   -7.4949897    286.88336  0.025761796  0.026026995            7 
  929000      1.09812   -7.5343206    287.44114  0.025784099  0.026019802            2 
  930000    1.1034856   -7.4948896    288.75885  0.025874449   0.02601266            4 
  931000    1.0818463    -7.476164    288.65674  0.025837517  0.026005581            3 
  932000    1.0904668   -7.4658047    289.92804  0.025923465  0.025998741            3 
  933000    1.0887035   -7.5052127    289.14136  0.025825416  0.025991957            1 
  934000     1.087757   -7.5123196    290.13093  0.025886057  0.025985172            1 
  935000    1.1084345   -7.5365755    289.28382  0.025782872   0.02597827            1 
  936000    1.1239936    -7.532973    288.90819  0.025721883  0.025971112            1 
  937000    1.1112385   -7.4745999    290.51019  0.025836907  0.025964129            4 
  938000    1.0578137   -7.4634033    290.67109  0.025823658  0.025957278            1 
  939000    1.0987192    -7.484276    290.82936  0.025810202  0.025950456            3 
  940000    1.0953842     -7.45779     291.4561  0.025838306  0.025943598            4 
  941000    1.0999467   -7.5030592    290.63133  0.025737809  0.025936534            3 
  942000      1.10088   -7.4990473    291.27347  0.025767292  0.025929471            2 
  943000    1.1161966   -7.5238258    291.19241  0.025732804  0.025922526            1 
  944000     1.107285   -7.4922229    291.61607  0.025742944  0.025915497            1 
  945000    1.1228077   -7.5161049    292.26596  0.025773012  0.025908596            1 
  946000     1.099772   -7.5658217    291.32892  0.025663224  0.025901664            3 
  947000    1.1307691   -7.5353559    291.77085  0.025675014  0.025894654            7 
  948000    1.0845532    -7.492335    292.91338  0.025748363  0.025887771            2 
  949000    1.0956969     -7.44352    293.34475   0.02575911  0.025881216            3 
  950000    1.0986954   -7.5153204    293.14466  0.025714444  0.025874498            4 
  951000    1.1124882   -7.5401431      293.627  0.025729671  0.025867529            1 
  952000    1.0799458   -7.5355484    293.47416  0.025689265  0.025860469            3 
  953000    1.1072644    -7.475301    294.03087  0.025710989   0.02585353            1 
  954000    1.1276947   -7.5234263    293.48283  0.025636166  0.025846628            4 
  955000    1.0781761    -7.534927    295.05568  0.025746569  0.025839359            4 
  956000    1.0862771   -7.5207196    294.11908  0.025637995  0.025832204            3 
  957000     1.120412   -7.5257597    293.82018  0.025585178  0.025825042            2 
  958000    1.0986201   -7.4606261    295.46838  0.025701842  0.025818167            2 
  959000    1.1179774   -7.5007834    294.76566  0.025613978   0.02581112            8 
  960000    1.0947577   -7.4662487    295.68335  0.025666957  0.025803711            1 
  961000    1.1149541   -7.4885348    294.91794  0.025573876  0.025796618            1 
  962000    1.0939535   -7.5260821    295.86681  0.025629488    0.0257898            3 
  963000    1.1153745   -7.5085375    295.73674  0.025591619  0.025782875            2 
  964000    1.0935535   -7.5034494    296.39347  0.025621842  0.025775916            3 
  965000    1.0837234   -7.5616765    295.39664  0.025509209  0.025768612            2 
  966000    1.1068618    -7.515484    295.39414  0.025482586  0.025761464            2 
  967000     1.082471   -7.4543515    296.63063  0.025562791  0.025754219            4 
  968000    1.0831212    -7.488236    296.43263  0.025519338  0.025747111            2 
  969000    1.0939865   -7.4676814    298.24772  0.025649099  0.025739987            3 
  970000    1.0942922   -7.4980347    296.93166  0.025509593  0.025732786            1 
  971000    1.0941339   -7.5120153    297.93899  0.025569772  0.025725491            3 
  972000    1.0918893   -7.5077369    297.56549  0.025511445  0.025718018            1 
  973000    1.0875634    -7.495312    297.05244  0.025441285  0.025710474            4 
  974000    1.1107993   -7.5340307    296.94408  0.025405893  0.025702863            3 
  975000    1.0916509   -7.5222036     298.1189  0.025480247   0.02569533            3 
  976000    1.0753049   -7.5217925    297.81278  0.025428003   0.02568794            5 
  977000    1.0990666    -7.498685     298.4765  0.025458589   0.02568048            5 
  978000    1.0771867   -7.5213666    298.13319  0.025403305   0.02567331            5 
  979000    1.0759538   -7.5265578    298.13808  0.025377773  0.025665795            1 
  980000    1.1230067   -7.5011531    299.55035  0.025471969  0.025658508            6 
  981000    1.0889164   -7.5218064    299.44817  0.025437323  0.025651185            1 
  982000    1.0881833   -7.5349214    299.13858  0.025385147  0.025644085            1 
  983000    1.1023941   -7.5257612    299.99025  0.025431523  0.025636728            1 
  984000    1.0787183   -7.5362753     300.3963  0.025440066  0.025629546            2 
  985000     1.072992   -7.4937738     300.6483  0.025435559  0.025622493            2 
  986000    1.1024721   -7.4780181    301.56609   0.02548733  0.025615481            6 
  987000    1.0770675   -7.4753796    301.06466  0.025419171  0.025608443            2 
  988000    1.1051341   -7.4781079    301.77399  0.025453272   0.02560158            2 
  989000    1.0854423   -7.5127935    302.51138  0.025489668  0.025594769            3 
  990000    1.0894633   -7.5625105      301.183  0.025352104  0.025587825            6 
  991000     1.079258   -7.4862876    303.27412  0.025502364  0.025581193            2 
  992000     1.113434   -7.5645397    302.33293  0.025397591   0.02557428            2 
  993000     1.102321   -7.5361779    302.72131  0.025404608  0.025567452            2 
  994000    1.1151441    -7.529276    302.29267  0.025343114   0.02556041            3 
  995000    1.1081133   -7.5202965    304.10713  0.025469609  0.025553507            2 
  996000    1.0921438   -7.5205342    303.78474  0.025417063  0.025546632            2 
  997000     1.072835   -7.5200718    303.18039  0.025341055  0.025539618            2 
  998000    1.0911137   -7.5071368    303.61222  0.025351722  0.025532872            5 
  999000    1.0912932   -7.5219731     303.8286  0.025344395  0.025526042            3 
 1000000    1.0772134   -7.4765624    305.85325  0.025487771  0.025519299            2 
 1001000    1.0920483   -7.5222837    304.29259  0.025332383  0.025512409            2 
 1002000    1.1082236   -7.4800899    305.26611  0.025388066  0.025505621            2 
 1003000    1.0826647    -7.515522    305.44896  0.025377946  0.025498608            3 
 1004000    1.0815432   -7.5107289    304.87488   0.02530502  0.025491807            6 
 1005000    1.0848651   -7.5131601    306.29473  0.025397573  0.025484806            3 
 1006000    1.0993552   -7.4854012    305.47922  0.025304773  0.025477985            2 
 1007000     1.084259   -7.4598108    306.97925  0.025403778  0.025471367            2 
 1008000    1.1011401   -7.5037218    306.49413   0.02533847  0.025464976            1 
 1009000    1.0564937   -7.4832818    307.54871  0.025400455  0.025458482            3 
 1010000    1.0801648   -7.5339867    307.39445  0.025362578  0.025451956            4 
 1011000    1.0848387   -7.5295008    307.98397  0.025386084  0.025445381            2 
 1012000    1.0877768   -7.5310002    307.96522  0.025359455  0.025439115            1 
 1013000    1.0642361    -7.519061    309.25315  0.025440371  0.025432689            3 
 1014000    1.1121448   -7.5131184    309.63284  0.025446486   0.02542652            2 
 1015000    1.0954462   -7.5233285    309.39889  0.025402207  0.025420502            4 
 1016000    1.0773019   -7.5274251     310.5558  0.025472096  0.025414707            4 
 1017000    1.0865497   -7.5509299    309.65417   0.02537317   0.02540875            4 
 1018000    1.1021521   -7.5039069    310.71797  0.025435329  0.025402757            2 
 1019000     1.087292   -7.5356923    310.43972  0.025387612  0.025396806            1 
 1020000    1.0938468   -7.5254326    310.78079  0.025390587  0.025390943            3 
 1021000    1.0936006   -7.5103599    311.60085  0.025432652  0.025385289            4 
 1022000    1.0570779   -7.5694537    310.07129  0.025283047  0.025379146            2 
 1023000    1.1114874   -7.5308334    311.06058  0.025338919  0.025372944           15 
 1024000    1.1111906   -7.5353025    312.27638  0.025413117  0.025366737            3 
 1025000    1.0963023   -7.5300828    311.67506  0.025339436  0.025360632            2 
 1026000    1.0851245   -7.5077717    312.18455   0.02535612   0.02535457            2 
 1027000    1.0934469   -7.4951267    312.45245  0.025353169  0.025348621            1 
 1028000    1.1110145    -7.521103     313.2398  0.025392332  0.025342601            1 
 1029000    1.0820062   -7.5459282    312.82774  0.025334284  0.025336639            1 
 1030000    1.1022484   -7.5500798    311.86164  0.025231524  0.025330522            6 
 1031000    1.0935973   -7.5068202     312.8761  0.025289048  0.025324496            1 
 1032000    1.0514952   -7.5428068    313.10269   0.02528284  0.025318027            3 
 1033000     1.083332   -7.5317574    312.74312  0.025229358  0.025311569            1 
 1034000    1.1052433   -7.5153863    312.44365  0.025180823  0.025305246            3 
 1035000    1.0802738   -7.5181217     314.1932  0.025297359  0.025298821            1 
 1036000    1.0776093    -7.564412    313.24116  0.025196361  0.025292262            3 
 1037000    1.0761271   -7.5919722    313.20398  0.025169076  0.025285582            7 
 1038000    1.0633101   -7.5582781    314.40018  0.025240862   0.02527913            2 
 1039000     1.108695   -7.5542377    314.68008  0.025239018  0.025272932            2 
 1040000    1.0829373   -7.5834854    314.64811  0.025212189  0.025266847            2 
 1041000    1.0889975   -7.5354043    316.82555  0.025362276  0.025260842            1 
 1042000    1.0877713   -7.5462739    317.14704  0.025363647  0.025254801            5 
 1043000    1.0940446   -7.5275751     316.3561  0.025276134  0.025249116            1 
 1044000    1.0568304   -7.5499621    317.18156  0.025317813  0.025243373            2 
 1045000    1.1094664   -7.5428568    316.82215  0.025264924  0.025237732            3 
 1046000    1.0922225   -7.5368792    318.12371  0.025344464  0.025232084            3 
 1047000    1.0876567   -7.5446844    318.20788  0.025326956  0.025226532            4 
 1048000    1.0697692   -7.5169799    317.73943   0.02526554  0.025220848            3 
 1049000    1.0566382   -7.5030287    318.73543  0.025320578  0.025215153            2 
 1050000    1.0825643    -7.536375    318.62977  0.025288077  0.025209477            2 
 1051000    1.0848744   -7.5570472    317.25803  0.025155251  0.025203696            2 
 1052000    1.0943509    -7.514197    319.35512  0.025297458  0.025197826            3 
 1053000     1.076298   -7.5159506    319.54512  0.025288471  0.025192255            1 
 1054000    1.0709393   -7.5129352    319.09763  0.025229098   0.02518644            4 
 1055000    1.0954389   -7.5154482    320.08425  0.025283116  0.025180633            2 
 1056000    1.0620654   -7.5595793    319.62435  0.025222881  0.025174829            4 
 1057000    1.0842466   -7.5453408    320.96416  0.025304649  0.025168842            2 
 1058000    1.0885269   -7.5639231    319.39817  0.025157385  0.025162872            3 
 1059000    1.0808753   -7.5443268    320.06078  0.025185771  0.025156837            2 
 1060000    1.0926355   -7.5688916    319.92785   0.02515156  0.025150663            4 
 1061000    1.1001662   -7.5035469    320.67701  0.025186696  0.025144472            1 
 1062000    1.0920273   -7.5875076    319.78952  0.025093339   0.02513827            4 
 1063000    1.1054666   -7.5383703       320.03  0.025088586  0.025132005            2 
 1064000    1.0742554   -7.5218633    321.43912  0.025175369  0.025125846            2 
 1065000    1.0555557   -7.5221656    321.11028     0.025126  0.025119829            2 
 1066000    1.0413494   -7.5604623    320.59362  0.025062041  0.025113807            3 
 1067000    1.0694211   -7.5780848    321.24677  0.025089563  0.025107636            4 
 1068000    1.0752536   -7.5379041    320.90419   0.02503934  0.025101504            1 
 1069000     1.075678    -7.556772    322.21431  0.025118047  0.025095063            3 
 1070000    1.0967795   -7.5451343    321.78141  0.025060858  0.025088776            6 
 1071000    1.0910977   -7.5331145    321.57465   0.02502137  0.025082345            1 
 1072000    1.1023341   -7.5289417     321.7483  0.025011528  0.025076056            2 
 1073000    1.0699387   -7.5681548    321.18246  0.024944273  0.025069696            3 
 1074000     1.067278   -7.5739223    322.49866  0.025023173  0.025063457            3 
 1075000    1.0807684   -7.5403293    322.02765  0.024963383  0.025057119            2 
 1076000    1.0958287   -7.5721985    322.53499  0.024979476  0.025050658            1 
 1077000    1.0794882   -7.5243418    322.64593  0.024964866  0.025044327            3 
 1078000    1.0839222   -7.4888082    324.79724  0.025108012  0.025038087            5 
 1079000    1.1090824   -7.5267106    324.21379  0.025039681  0.025032023            1 
 1080000    1.0821994   -7.5567912    323.49674  0.024961168  0.025025971            1 
 1081000    1.0575872   -7.5875253    323.23756  0.024918097  0.025019798            6 
 1082000     1.070203   -7.5806557    324.76201  0.025012478  0.025013566            3 
 1083000    1.0581258   -7.5947132    324.02069   0.02493234  0.025007327            5 
 1084000    1.0809186   -7.5726174    325.08709   0.02499132   0.02500123            1 
 1085000    1.0794327   -7.5727061    324.93302  0.024956453  0.024995069            2 
 1086000     1.096609   -7.5354058    325.64441  0.024988061   0.02498888            1 
 1087000    1.0666251   -7.5782102    324.43034  0.024871997  0.024982675            3 
 1088000    1.0801768   -7.5284195    325.92554   0.02496366  0.024976445            2 
 1089000    1.0616599   -7.5672486    325.37041  0.024898256  0.024970241            4 
 1090000    1.0871822    -7.532969    326.72165  0.024978719  0.024963987            3 
 1091000    1.0679003    -7.596644    326.57065   0.02494429  0.024957659            5 
 1092000    1.0869663   -7.5649576    327.23059  0.024971809  0.024951258            1 
 1093000    1.0637083   -7.5700372    326.11653  0.024864023  0.024945091            5 
 1094000     1.083287   -7.5502992    327.14265  0.024919459  0.024938647            3 
 1095000    1.0737777   -7.5651519     326.8608  0.024875251  0.024932363            3 
 1096000    1.0675975   -7.5116619    327.62387  0.024910574  0.024925974            3 
 1097000    1.0657039   -7.5535955     327.5447  0.024881852  0.024919721            5 
 1098000    1.0723347    -7.604106    327.19865  0.024832927  0.024913135            4 
 1099000    1.0605459   -7.5715668    327.11244  0.024803794  0.024906539            2 
 1100000    1.0688939    -7.547309    327.74093  0.024828858  0.024900015            2 
 1101000    1.0613681   -7.5477361    328.11138  0.024834346   0.02489352            2 
 1102000    1.0798291   -7.5415915    327.63612  0.024775871  0.024886907            3 
 1103000    1.0811143   -7.5853725    327.66515  0.024755602  0.024880221            2 
 1104000    1.0742612   -7.6076272    328.60695  0.024804269  0.024873451            5 
 1105000    1.0647865   -7.5394837    328.47383  0.024771782  0.024866848            3 
 1106000    1.0684568    -7.519062    329.36965  0.024816881   0.02486043            2 
 1107000    1.0676713   -7.5715571     330.2908  0.024863806  0.024853917            4 
 1108000    1.0674099   -7.5438117    329.75437   0.02480102   0.02484744            3 
 1109000    1.0887288   -7.6132852     329.0489  0.024725646  0.024840908            2 
 1110000    1.0570892   -7.5698731    329.75205   0.02475616  0.024834348            2 
 1111000    1.0574442   -7.5796628     329.8787  0.024743377   0.02482777            2 
 1112000    1.0613888   -7.6162089    329.29725  0.024677552  0.024820975            3 
 1113000    1.0846473    -7.525198    331.66048  0.024832321   0.02481434            2 
 1114000    1.0773681    -7.571312    330.83777  0.024748487  0.024807957            3 
 1115000    1.0965663   -7.5224093    332.48374  0.024849308  0.024801493            3 
 1116000    1.0799429   -7.5570569    330.83157  0.024703672  0.024794955            2 
 1117000    1.0969277   -7.5597018     331.0603   0.02469862  0.024788371            3 
 1118000    1.0849819   -7.5475431    331.15005  0.024683217  0.024781808            3 
 1119000    1.0673956   -7.5874941    331.46076  0.024684299  0.024775097            3 
 1120000    1.0650583   -7.6021549    330.54987  0.024594484  0.024768457            4 
 1121000    1.0884744   -7.5717135    331.81988  0.024666955  0.024761685            3 
 1122000    1.0702965   -7.5676905    332.25383  0.024677201  0.024755091            5 
 1123000    1.0934014   -7.5255345     333.0876  0.024717097  0.024748616            2 
 1124000    1.0647832   -7.5878883    333.03666   0.02469133  0.024742003            3 
 1125000    1.0836287   -7.6133788    331.45794   0.02455244  0.024735085            6 
 1126000    1.0672189   -7.6028085    331.34371  0.024522181   0.02472821            4 
 1127000    1.0570851   -7.5634124    331.78303  0.024532907   0.02472128            2 
 1128000    1.0839193   -7.5668233    332.58215  0.024570194  0.024714499            2 
 1129000    1.0633808   -7.5771026    332.88393  0.024570706  0.024707664            4 
 1130000    1.0809858   -7.5670344    333.28958  0.024578878  0.024700675            3 
 1131000    1.0553351   -7.5859555    333.23133  0.024552854  0.024693677            7 
 1132000    1.0785084   -7.6240241    331.95494  0.024437201  0.024686661            2 
 1133000     1.073767    -7.592541    333.67504  0.024542147  0.024679548            3 
 1134000    1.0591073   -7.6389944    332.45758  0.024431039  0.024672522            2 
 1135000    1.0298963   -7.6100863    334.28732  0.024543856  0.024665588            1 
 1136000    1.0690567   -7.5545027    335.56685  0.024616113  0.024658923            4 
 1137000    1.0567644   -7.5909132    334.71456  0.024531997  0.024652047            5 
 1138000    1.0872069   -7.5883921    334.74731  0.024512837  0.024645113            2 
 1139000    1.0800689   -7.6103672    333.70602  0.024415132   0.02463827            3 
 1140000    1.0504361   -7.5674659    334.15539  0.024426563  0.024631472            3 
 1141000    1.0931491   -7.6120744    333.79852  0.024379091  0.024624413            5 
 1142000    1.0717588   -7.6155207    334.42093  0.024403161  0.024617411            6 
 1143000    1.0682958   -7.6378975     335.1244    0.0244331  0.024610504            2 
 1144000    1.0729183   -7.6121432    335.68762   0.02445277   0.02460357            2 
 1145000    1.0586992   -7.5369147    337.26059  0.024545894  0.024596757            3 
 1146000    1.0887761   -7.5684634    336.58779  0.024475552  0.024590117            2 
 1147000     1.093243   -7.5717392    336.62707  0.024457067  0.024583365            6 
 1148000    1.0767869   -7.5706779    336.78242   0.02444704  0.024576398            2 
 1149000    1.0689982   -7.5465002    337.83356  0.024501999  0.024569438            2 
 1150000    1.0959087   -7.5369838     337.7684  0.024475971   0.02456276            1 
 1151000    1.0458285   -7.6336318    336.96259  0.024396365  0.024555835            3 
 1152000    1.0770489   -7.5731889     337.7487  0.024432053  0.024548872            2 
 1153000     1.081892   -7.6004643    337.38451  0.024384541  0.024541778            2 
 1154000    1.0945614   -7.5528977    338.45812  0.024440938  0.024534919            2 
 1155000    1.0580693   -7.5895203    336.95637  0.024311427  0.024528003            5 
 1156000    1.0450791   -7.5694042    338.15825  0.024377036   0.02452113            2 
 1157000    1.0690508   -7.5402583     339.3487   0.02444171  0.024514237            1 
 1158000    1.0466867   -7.5561358    340.09525  0.024474327  0.024507485            3 
 1159000    1.0711484   -7.5834659     338.6794  0.024351409  0.024500752            2 
 1160000    1.0572981   -7.5439959     340.2824  0.024445574  0.024494035            3 
 1161000    1.0831064   -7.6368561    338.21489  0.024276119  0.024487231            7 
 1162000    1.0501433   -7.6271416    338.89481  0.024303988  0.024480289            4 
 1163000    1.0450943   -7.5785617    340.71611  0.024413594  0.024473412            2 
 1164000    1.0849245   -7.6053262    340.37278   0.02436804  0.024466628            2 
 1165000    1.0630112   -7.5932041    340.41609  0.024350221  0.024459642            3 
 1166000    1.0891523   -7.5961241    340.96842  0.024368812  0.024452687            5 
 1167000    1.0781529   -7.6509635    338.37428  0.024162688  0.024445551            6 
 1168000    1.0620703   -7.5762693    341.08933  0.024335712  0.024438483            3 
 1169000    1.0628636   -7.5433322    341.67882  0.024356916  0.024431552            3 
 1170000    1.0744872   -7.6203103    340.83424  0.024275943  0.024424671            2 
 1171000    1.0540892   -7.6077592    341.24256   0.02428427  0.024417789            2 
 1172000    1.0500147   -7.5894275    341.91193  0.024311144  0.024410905            2 
 1173000    1.0964547   -7.5841498    341.85508   0.02428638  0.024404093            2 
 1174000    1.0474295   -7.5268575    342.95067   0.02434346  0.024397345            3 
 1175000    1.0629513    -7.612131    342.54403  0.024293903   0.02439072            2 
 1176000    1.0613534   -7.6592628    341.63677  0.024208955  0.024383796            3 
 1177000    1.0971417   -7.6395534    342.65582  0.024260537  0.024376796            2 
 1178000    1.0529524   -7.6095045    342.67301  0.024241158   0.02436986            2 
 1179000    1.0679889   -7.6064408    342.71656  0.024223675  0.024362948            2 
 1180000    1.0674137   -7.6212883    342.83123  0.024211245   0.02435604            4 
 1181000    1.0586825   -7.5984053    343.15705  0.024213735  0.024349223            1 
 1182000    1.0949944   -7.6237142    343.11674  0.024190407  0.024342413            2 
 1183000    1.0768189   -7.5768643    344.98988  0.024301908  0.024335576            2 
 1184000    1.0764825   -7.5873773    343.63276  0.024185864   0.02432891            3 
 1185000    1.0570167   -7.6054169    343.95113  0.024187843  0.024322131            2 
 1186000    1.0426806   -7.6024602    343.62416  0.024144475  0.024315293            4 
 1187000    1.0716769   -7.5915036    344.26453  0.024169091  0.024308388            2 
 1188000    1.0503622   -7.6161753    344.04268  0.024133184  0.024301412            2 
 1189000    1.0612204   -7.5922337    344.71589   0.02416007  0.024294529            5 
 1190000    1.0766917   -7.6365356    344.43313  0.024119967  0.024287568            4 
 1191000    1.0525687    -7.578502    345.44544  0.024170546  0.024280663            2 
 1192000    1.0592863   -7.5604213    345.07722  0.024124526   0.02427375            1 
 1193000    1.0463136   -7.6156679    344.81235  0.024085803  0.024266835            2 
 1194000    1.0542956   -7.6170631    344.94189  0.024074671  0.024260024            1 
 1195000    1.0790541   -7.6239941    346.08948  0.024134552   0.02425305            2 
 1196000    1.0566104   -7.6174371    346.84628  0.024167104  0.024246202            2 
 1197000    1.0622765   -7.5827657    347.75554  0.024210216  0.024239584            2 
 1198000    1.0757491   -7.6503145    346.43686  0.024098279  0.024232928            5 
 1199000      1.06281   -7.5925125    347.71058  0.024166707  0.024226176            2 
 1200000    1.0715045   -7.5671095     348.8081  0.024222785  0.024219493            1 
 1201000    1.0407726   -7.5788917     348.5155  0.024182313  0.024212856            2 
 1202000    1.0401716   -7.6066871    347.66888  0.024103499  0.024206199            2 
 1203000    1.0420322   -7.6034003    348.38332  0.024132954  0.024199627            1 
 1204000    1.0666136   -7.6036589    348.86064  0.024145947  0.024193161            2 
 1205000    1.0709835    -7.627422    348.88574  0.024127645  0.024186635            6 
 1206000    1.0478798   -7.5768318    349.46993  0.024148005  0.024180096            3 
 1207000     1.036639    -7.556015    349.38306  0.024122001  0.024173618            1 
 1208000    1.0586413   -7.5791285    350.37442  0.024170421  0.024167059            4 
 1209000    1.0570231    -7.597896    349.86363  0.024115222  0.024160314            4 
 1210000    1.0509782   -7.6141063    350.48306  0.024137952  0.024153644            2 
 1211000      1.07028   -7.6082877    349.94032  0.024080672    0.0241469            1 
 1212000    1.0620977   -7.6144961    349.75356  0.024047962  0.024140183            4 
 1213000     1.052811    -7.629274    349.60237   0.02401775  0.024133336            2 
 1214000    1.0392368   -7.5922939    350.60105  0.024066519   0.02412665            7 
 1215000    1.0488907   -7.5897803    350.80002  0.024060358  0.024120051            1 
 1216000    1.0863746   -7.5951089    350.22343  0.024001057  0.024113258            2 
 1217000    1.0596855    -7.602787    350.67805  0.024012466  0.024106363            2 
 1218000    1.0746858   -7.6253557    350.82615  0.024002884  0.024099534            2 
 1219000      1.07787   -7.6123772    351.36789  0.024020228  0.024092656            3 
 1220000    1.0579487   -7.6576644    349.97384  0.023905317  0.024085673            2 
 1221000    1.0267901   -7.5592253    352.52367  0.024059764   0.02407868            5 
 1222000    1.0613131   -7.5690976    352.79696  0.024058713  0.024071772            5 
 1223000    1.0509408   -7.6462766     349.7663  0.023832536  0.024065003            1 
 1224000    1.0628423   -7.6323079    350.70227  0.023876788  0.024057974            2 
 1225000    1.0922979   -7.6151847    351.52663  0.023913376  0.024051011            1 
 1226000     1.064299    -7.608778    351.04901  0.023861407  0.024043962            4 
 1227000    1.0633466   -7.5885611    351.91434   0.02390073  0.024036982            1 
 1228000    1.0651907   -7.5919722    353.14955  0.023965089  0.024030024            3 
 1229000     1.051306   -7.6054123    353.64127  0.023978931  0.024023274            3 
 1230000    1.0399975    -7.638394     351.8191  0.023835983  0.024016242            3 
 1231000     1.033035    -7.647807    352.28556  0.023848196  0.024009132            4 
 1232000    1.0488204   -7.5898154    353.50162  0.023911094  0.024002172            2 
 1233000    1.0560824   -7.6475732    352.29154  0.023809918   0.02399512            4 
 1234000    1.0612712   -7.6060228    353.30084  0.023858782  0.023988073            3 
 1235000      1.05749     -7.63464    353.17951  0.023831276  0.023980925            2 
 1236000    1.0622456   -7.6376569    352.98508  0.023798886  0.023973881            2 
 1237000    1.0582163   -7.6448744    352.42445  0.023741879  0.023966829            3 
 1238000    1.0622721   -7.6485381    353.88067  0.023820723  0.023959744            4 
 1239000    1.0555925   -7.6247681    354.03425  0.023811827  0.023952619            1 
 1240000    1.0547298   -7.5878513    353.69471  0.023769806  0.023945657            4 
 1241000    1.0845036   -7.6473777    353.70275  0.023751192  0.023938519            8 
 1242000    1.0412359   -7.6354823    354.55825   0.02378947  0.023931423            3 
 1243000    1.0723314   -7.6330625    354.76158  0.023783962  0.023924339            7 
 1244000    1.0236312   -7.6728541    354.60014  0.023754029   0.02391731            1 
 1245000    1.0455123   -7.6381074    354.59378  0.023734524  0.023910376            2 
 1246000    1.0369917   -7.6539403     355.3959  0.023769121  0.023903383            2 
 1247000    1.0690466   -7.6003406    354.83637  0.023712668  0.023896372            6 
 1248000    1.0412801   -7.6304382    355.17917  0.023716558   0.02388942            4 
 1249000    1.0432216   -7.6162229    356.30786  0.023772876  0.023882541            5 
 1250000    1.0379672   -7.6095568    355.96176  0.023730784  0.023875618            3 
 1251000    1.0518978   -7.6162742     355.5656  0.023685425  0.023868742            2 
 1252000    1.0490824   -7.6480619    357.49008  0.023794601  0.023861764            5 
 1253000    1.0455254   -7.6582887    356.82819   0.02373159  0.023854664            2 
 1254000    1.0805365    -7.614703    357.43718  0.023753135  0.023847572            3 
 1255000    1.0596637   -7.6019148    356.75426  0.023688862  0.023840673            2 
 1256000    1.0411906   -7.5875969    357.92342  0.023747573  0.023833654            2 
 1257000    1.0646493   -7.6590856    356.64032  0.023643617  0.023826609            3 
 1258000    1.0699095   -7.6153621    358.01898  0.023716148  0.023819581            5 
 1259000    1.0615142   -7.6047317    358.25723  0.023713081  0.023812611            5 
 1260000    1.0323085   -7.6080462    358.29495  0.023696756  0.023805789            4 
 1261000    1.0315292   -7.6519181    357.40213  0.023618962  0.023798899            4 
 1262000    1.0487041   -7.5649705    360.51426  0.023805749  0.023792106            4 
 1263000    1.0664177   -7.6538086    359.21252  0.023701011  0.023785408            3 
 1264000    1.0501893   -7.6524246    358.96112  0.023665685   0.02377859            3 
 1265000    1.0444583   -7.6283217     359.1503   0.02365944    0.0237718            1 
 1266000    1.0414687   -7.6403634    358.68629  0.023610209  0.023765077            1 
 1267000    1.0436796   -7.6248493    359.37307  0.023636745  0.023758078            2 
 1268000    1.0689683    -7.676984    358.56858  0.023565233  0.023750998            4 
 1269000    1.0445239   -7.5983439    360.55787  0.023677296  0.023743941            2 
 1270000    1.0534944   -7.6311542    360.18193  0.023633985  0.023736973            4 
 1271000    1.0414644   -7.6292289    359.82028  0.023591678  0.023730065            4 
 1272000    1.0695769   -7.6628795    359.11599  0.023526991  0.023723168            3 
 1273000    1.0632331   -7.6447041    359.91705  0.023560948  0.023716126            9 
 1274000     1.061935    -7.595365     360.4915   0.02358003  0.023709193            4 
 1275000    1.0699531   -7.6529666    360.63535  0.023570938  0.023702228            5 
 1276000    1.0580872   -7.6435408    360.51314  0.023544484   0.02369528            2 
 1277000    1.0599432   -7.6798037     361.1663   0.02356867  0.023688395            2 
 1278000    1.0418225   -7.6560185    360.69232  0.023519322  0.023681471            3 
 1279000    1.0442227   -7.6062287    361.76438  0.023570783  0.023674435            3 
 1280000     1.046365   -7.6245623    360.96878  0.023500572  0.023667444            3 
 1281000    1.0253132   -7.6631082    362.14694   0.02355887  0.023660555            4 
 1282000    1.0408952   -7.6155289    361.85767  0.023521689  0.023653571            2 
 1283000    1.0545415   -7.6824481    362.04209  0.023515335  0.023646583            4 
 1284000    1.0443569   -7.6824105    362.32566  0.023515424  0.023639632            1 
 1285000    1.0503208   -7.6166119    362.09863  0.023482402  0.023632692            7 
 1286000    1.0578725   -7.6295692    362.52597  0.023491833  0.023625941            3 
 1287000    1.0584331   -7.6481296    362.34048  0.023461569  0.023618889            3 
 1288000    1.0501424   -7.6889941    362.47697  0.023452185  0.023611834            2 
 1289000    1.0420937   -7.6372466    362.94346  0.023464149  0.023604829            4 
 1290000    1.0763938   -7.6413388    362.67806  0.023428815   0.02359772            4 
 1291000    1.0385817   -7.6604132    363.51151  0.023464466  0.023590574            5 
 1292000      1.05532   -7.6371327    363.50509  0.023445891  0.023583653            6 
 1293000     1.057546   -7.6432063    363.75124  0.023443622   0.02357664            2 
 1294000    1.0171377   -7.6843844    363.50842  0.023409867   0.02356961            8 
 1295000    1.0725839   -7.6600516    364.69826  0.023468356  0.023562671            2 
 1296000      1.05786   -7.6353521    365.24333  0.023485297  0.023555667            3 
 1297000     1.025096   -7.6500868    365.39173  0.023476724  0.023548789            2 
 1298000     1.041512   -7.6328875     364.8607  0.023424544  0.023541926            1 
 1299000    1.0676803   -7.6709866    365.06495  0.023419614  0.023535198            4 
 1300000    1.0339242    -7.654128     364.9894  0.023396757  0.023528434            2 
 1301000     1.059483   -7.6621729    365.09481  0.023385525  0.023521675            1 
 1302000    1.0429048   -7.6798698     364.6834  0.023341232  0.023514744            3 
 1303000    1.0532932   -7.6513992    366.24575  0.023423238  0.023507901            5 
 1304000    1.0566944   -7.6248173     366.3327  0.023410832  0.023501157            2 
 1305000    1.0287272   -7.6426781    366.89215  0.023428617   0.02349442            2 
 1306000     1.061882    -7.656783    367.34548  0.023439604  0.023487713            2 
 1307000    1.0376444   -7.6440734    368.26909  0.023480559  0.023481051            4 
 1308000     1.037317   -7.6465615    367.76411  0.023430435  0.023474446            2 
 1309000    1.0162673   -7.6558168    367.56683  0.023399977  0.023467935            2 
 1310000    1.0335385   -7.6530442    367.90599  0.023403689  0.023461254            6 
 1311000    1.0238693   -7.6780441    367.74481  0.023375592  0.023454522            4 
 1312000    1.0283001   -7.6364352    368.71535   0.02341942  0.023447939            1 
 1313000    1.0214348   -7.6564376    367.81851  0.023344663  0.023441277            4 
 1314000    1.0359234   -7.6603839    369.35686  0.023424459  0.023434594            4 
 1315000    1.0451277   -7.6410814    368.50161  0.023352447  0.023428013            5 
 1316000    1.0479358   -7.6395009    369.11215  0.023373363  0.023421441            6 
 1317000     1.041989   -7.6449117    369.68945  0.023392145  0.023414701            3 
 1318000    1.0579286   -7.6451894    368.76957  0.023316235  0.023408092            4 
 1319000    1.0396859   -7.6492195    368.56301  0.023285508  0.023401482            5 
 1320000    1.0580704   -7.6704174    369.41618  0.023321728  0.023394812            4 
 1321000    1.0709685   -7.6767125    369.84474  0.023331109   0.02338824            4 
 1322000    1.0409156   -7.6632398     369.4935   0.02329132  0.023381608            3 
 1323000    1.0447102   -7.6817953    370.70551  0.023350058  0.023374958            3 
 1324000     1.023209   -7.6907661     370.0663  0.023292189  0.023368389            3 
 1325000    1.0439333   -7.6540329    371.29666  0.023351991  0.023361834            4 
 1326000    1.0394377   -7.6811641    371.16333  0.023326001  0.023355273            4 
 1327000    1.0266163   -7.6972981    371.61985  0.023337092  0.023348655            3 
 1328000    1.0268476   -7.6947229    371.13334   0.02328899  0.023341948            3 
 1329000   0.99178869   -7.6511875    371.46173  0.023292058  0.023335283            2 
 1330000    1.0278076   -7.6757533    372.25933   0.02332452  0.023328832            2 
 1331000    1.0374389   -7.6554065    372.62952  0.023330173  0.023322187            3 
 1332000    1.0278616   -7.6886332    371.62468  0.023249792  0.023315625            9 
 1333000    1.0406774   -7.6360431    372.41777  0.023281931  0.023309002            2 
 1334000    1.0373908   -7.6692933    372.14298  0.023247313  0.023302433            3 
 1335000    1.0324912   -7.6335257    373.13376  0.023291745   0.02329599            2 
 1336000    1.0268674   -7.6459518    374.15219  0.023337836  0.023289652            4 
 1337000    1.0469746   -7.6807546    373.29282  0.023266817  0.023283253            4 
 1338000    1.0526311   -7.6720685    373.22351  0.023245112  0.023276734            2 
 1339000    1.0264537   -7.6646326    373.68136  0.023256246  0.023270268            2 
 1340000    1.0413106   -7.6761336    374.80463  0.023308746  0.023263834            4 
 1341000    1.0327178   -7.6722336    374.71689  0.023285912  0.023257428            2 
 1342000     1.017653   -7.6229212    374.47929  0.023253806  0.023251124            2 
 1343000     1.051579   -7.6617423    374.76122  0.023253985  0.023244792            3 
 1344000    1.0413693   -7.6467076    375.63392  0.023290794   0.02323849            7 
 1345000    1.0453191   -7.6524941    376.02889  0.023297949  0.023232096            3 
 1346000    1.0397638   -7.7128807    374.75452  0.023201741  0.023225664            1 
 1347000    1.0188827   -7.6663577    376.31698  0.023281179  0.023219282            3 
 1348000    1.0590416   -7.6237163    376.86017  0.023297488  0.023213058            2 
 1349000    1.0309921   -7.6660165    376.32775  0.023247328  0.023206942            4 
 1350000    1.0285815   -7.6703874    376.35881  0.023232026  0.023200752            3 
 1351000    1.0541768   -7.6754737     376.6163  0.023230712  0.023194491            5 
 1352000    1.0411728   -7.6655312    377.42414  0.023263322  0.023188345            2 
 1353000     1.074101   -7.6350506    377.34495  0.023241251   0.02318217            2 
 1354000    1.0405453   -7.6450241    378.90759  0.023320261  0.023176115            2 
 1355000    1.0575962    -7.678971    377.75186  0.023231971  0.023170021            2 
 1356000    1.0157834   -7.6734313     377.0625  0.023172474  0.023163749            3 
 1357000    1.0416128   -7.7146175     377.8364  0.023202923  0.023157405            4 
 1358000    1.0438641   -7.6851054    378.08009  0.023200791  0.023151161            2 
 1359000    1.0103261   -7.6539055    378.90522  0.023234316  0.023145009            5 
 1360000     1.024953   -7.6985139    377.66028  0.023140948  0.023138793            2 
 1361000    1.0291956   -7.6523571    379.70339  0.023249044  0.023132583            2 
 1362000    1.0576484   -7.6880148    378.18896  0.023139315  0.023126363            5 
 1363000    1.0337425   -7.6648979    379.54325  0.023205138  0.023120164            1 
 1364000    1.0459466   -7.6770183    378.86084  0.023146435   0.02311402            4 
 1365000    1.0309457   -7.6819879    378.88214  0.023130778  0.023107612            4 
 1366000    1.0345299   -7.6749336    379.86257  0.023173656  0.023101287            2 
 1367000    1.0299969   -7.6793031    378.69146  0.023085312  0.023095042            2 
 1368000    1.0441155   -7.6908528    379.97823  0.023146822  0.023088661            2 
 1369000    1.0335533   -7.6610007    379.75232  0.023116163  0.023082337            1 
 1370000    1.0494606   -7.6703398    380.17732  0.023125141  0.023076001            2 
 1371000    1.0272914   -7.7115553    378.48297  0.023005286  0.023069644            2 
 1372000    1.0156708   -7.7027092    381.09244  0.023147014  0.023063344            2 
 1373000    1.0451936   -7.6963262    381.12829  0.023132331  0.023057151            2 
 1374000    1.0212804   -7.6803443     380.8297  0.023097386  0.023050933            2 
 1375000    1.0368943   -7.6524487    382.46705  0.023179821  0.023044806            3 
 1376000    1.0471591   -7.6879174    380.78981  0.023061398  0.023038705            4 
 1377000    1.0471844    -7.665984    382.00058  0.023117924  0.023032458            2 
 1378000     1.014625   -7.6957643    379.93598  0.022976293  0.023026343            2 
 1379000    1.0238834   -7.6895662    380.40457  0.022987948  0.023020095            3 
 1380000    1.0297027   -7.7094963    380.40366  0.022971235  0.023013722            1 
 1381000    1.0191046   -7.6677429    381.74468  0.023035523  0.023007349            2 
 1382000    1.0259318   -7.7020209    381.17468  0.022984484  0.023000948            7 
 1383000    0.9883745   -7.7268707    380.47783  0.022925875  0.022994515            3 
 1384000    1.0196025   -7.6806062    381.65394  0.022980127  0.022988152            1 
 1385000    1.0615823   -7.7113705    381.35786   0.02294572  0.022981697            2 
 1386000    1.0402893   -7.7119886    382.14284  0.022976361  0.022975235            4 
 1387000    1.0582711   -7.7049747    381.65278  0.022930352   0.02296879            2 
 1388000    1.0260053   -7.7264879    381.63681  0.022912873  0.022962257            6 
 1389000    1.0189563    -7.714731    381.17376  0.022868596   0.02295567            6 
 1390000    1.0348482    -7.685911    382.77548   0.02294817  0.022949256            4 
 1391000    1.0271274   -7.6970981    382.78815  0.022932431  0.022942726            9 
 1392000    1.0250504   -7.6979074    382.43585  0.022894867  0.022936166            3 
 1393000    1.0431439   -7.7139444    383.41928  0.022937263   0.02292976            2 
 1394000     1.012204   -7.6909648    382.80627  0.022884163  0.022923499           12 
 1395000    1.0349348   -7.6385113    385.29616  0.023016497  0.022917346            3 
 1396000    1.0382919   -7.6510321     385.2627  0.022998012  0.022911187            1 
 1397000     1.039764   -7.7025843    384.75815  0.022951453  0.022905127            7 
 1398000    1.0438723   -7.6564891    385.45266  0.022976434  0.022898784            4 
 1399000    1.0156595   -7.6910411    384.49369  0.022902888  0.022892464            2 
 1400000    1.0325026   -7.6881209    384.30161  0.022875096  0.022886161            1 
 1401000    1.0461575   -7.7263642    383.75054  0.022825989  0.022879787            4 
 1402000    1.0107167   -7.7461287     384.0903  0.022829904  0.022873348            2 
 1403000     1.007056   -7.6981418    385.50032  0.022897382   0.02286691            2 
 1404000    1.0044491    -7.700327    385.74626  0.022895671  0.022860617            4 
 1405000      1.01681   -7.6642339    386.13473  0.022902416   0.02285418            3 
 1406000    1.0285245   -7.6966177    385.49647  0.022848297  0.022847839            6 
 1407000    1.0369463   -7.6800069     385.4025  0.022826493  0.022841497            2 
 1408000    1.0395855   -7.7082948    384.46016  0.022754508  0.022835013            6 
 1409000     1.011795   -7.7054688    385.60606  0.022806131  0.022828516            8 
 1410000    0.9996189    -7.712195    385.18379  0.022764999  0.022821973            2 
 1411000    1.0350643   -7.7089162    386.84232  0.022846818    0.0228154            2 
 1412000    1.0275299   -7.7353862    385.93219  0.022776923  0.022808791            2 
 1413000    1.0375172   -7.7432372    385.27168   0.02272185  0.022802207            1 
 1414000    1.0414891   -7.7109949    386.22144  0.022761754  0.022795713            3 
 1415000    1.0383639   -7.7182618    387.02649   0.02279308  0.022789215            5 
 1416000    1.0297994   -7.7076486    387.02753  0.022777044  0.022782768            2 
 1417000    1.0259794    -7.712117    386.51927  0.022731079   0.02277629            2 
 1418000    1.0309792   -7.7063926    386.68313  0.022724678  0.022769833            3 
 1419000    1.0217927   -7.6932494    387.38858  0.022750093  0.022763487            4 
 1420000    1.0272256   -7.6834257    387.40837  0.022735233  0.022757151            1 
 1421000    1.0200675    -7.679665    387.33414   0.02271488  0.022750734            3 
 1422000    1.0207268   -7.6526415     387.7451   0.02272299  0.022744274            2 
 1423000    1.0295007   -7.7468928    388.28321  0.022738534  0.022737789            4 
 1424000    1.0162177   -7.6996283    389.01509  0.022765396  0.022731417            6 
 1425000    1.0280451   -7.6850311    389.32789  0.022767713  0.022724969            4 
 1426000    1.0300366   -7.7060671    388.35513    0.0226949  0.022718501            4 
 1427000    1.0367513   -7.7000347    387.68413  0.022639811  0.022711895            2 
 1428000    1.0199959   -7.6876494    389.20515  0.022712719  0.022705369            2 
 1429000    1.0429176   -7.7158675    388.19382  0.022637848  0.022698834            3 
 1430000    1.0338669   -7.6647926    389.02485  0.022670446   0.02269224            2 
 1431000     1.038275   -7.6908287    388.29752  0.022612248  0.022685886            5 
 1432000    1.0089864   -7.7222226    387.53414  0.022552033  0.022679365            2 
 1433000    1.0321439   -7.7375021    390.12907  0.022687199  0.022672775            9 
 1434000    1.0023327    -7.675168    388.88581  0.022599129  0.022666233            3 
 1435000    1.0190451   -7.7430595    387.80259  0.022520476  0.022659646            3 
 1436000    1.0201279   -7.7343356    388.75512   0.02256007  0.022652965            1 
 1437000    1.0304145   -7.6995821    389.13397   0.02256634  0.022646311            2 
 1438000    1.0485943   -7.6730704    390.02091  0.022602046  0.022639678            4 
 1439000    1.0210313   -7.7052099    390.20775  0.022597159  0.022633035            6 
 1440000    1.0292121   -7.7132357    390.00963  0.022570002  0.022626471            4 
 1441000      1.02734   -7.6991707    390.50798  0.022583159  0.022619738            3 
 1442000    1.0282872   -7.7659744    388.81171   0.02246947  0.022612996            1 
 1443000    1.0373771   -7.7478943    389.41256  0.022488598  0.022606182            2 
 1444000    1.0231639   -7.7317694    389.29655  0.022466329  0.022599476            2 
 1445000    1.0135169   -7.7298309    390.52985  0.022521906    0.0225928            4 
 1446000    1.0236683   -7.7412359    390.95306   0.02253072  0.022586049            4 
 1447000    1.0171872   -7.7143581    390.36053  0.022481026  0.022579259            5 
 1448000    1.0331192   -7.7216179     392.3499  0.022579989   0.02257262            2 
 1449000    1.0148644   -7.7178162    391.72968  0.022528737  0.022566016            2 
 1450000     1.025502   -7.6807521    391.12357  0.022478366  0.022559417            3 
 1451000    1.0106231   -7.7414001    392.19258   0.02252427  0.022552777            6 
 1452000    1.0239031   -7.6947283    392.04715  0.022500411   0.02254616            5 
 1453000    1.0000065   -7.7257079    391.33754  0.022444227  0.022539603            6 
 1454000    1.0101393   -7.7106378     393.1061  0.022530153  0.022533021            3 
 1455000    1.0202986    -7.673793     393.2869  0.022525023  0.022526395            9 
 1456000    1.0204071   -7.6823578     393.4759   0.02252037  0.022519924            5 
 1457000    1.0091869   -7.7287179    391.84395  0.022411573  0.022513433            2 
 1458000    1.0184029   -7.7095942    394.14294  0.022527603  0.022506895            3 
 1459000    1.0187147   -7.7007942    392.96638  0.022444961  0.022500301            8 
 1460000    1.0269251   -7.7394491    394.77692  0.022532929  0.022493757            5 
 1461000    1.0086101   -7.7139019     394.3646  0.022493988  0.022487197            3 
 1462000    1.0049559   -7.7109441    392.88559  0.022394299  0.022480701            1 
 1463000   0.99609092   -7.7087068    394.74865  0.022485114  0.022474276            2 
 1464000    1.0087863   -7.6788233    395.46746  0.022510671  0.022467926            4 
 1465000    1.0185492   -7.7152383    394.98446   0.02246783  0.022461483            3 
 1466000   0.99972406   -7.7180948    394.32054  0.022414764  0.022455007            7 
 1467000    1.0153803   -7.6857378    396.54415  0.022525798  0.022448599            3 
 1468000    1.0104114   -7.7104295    395.35484  0.022442941  0.022442263            3 
 1469000    1.0347029   -7.7253495    395.26009  0.022422288  0.022435822            3 
 1470000    1.0091309   -7.6913055     396.6335  0.022484892  0.022429414            5 
 1471000      1.01858   -7.7331902    396.75909  0.022476721   0.02242292            3 
 1472000    1.0009707   -7.7148436    395.53587  0.022392203   0.02241657            2 
 1473000    0.9833436   -7.6698487    398.25234  0.022530682  0.022410222            3 
 1474000    1.0198775    -7.731083    396.93588   0.02244097  0.022403846            3 
 1475000    1.0127058   -7.7095103    397.48087  0.022456547   0.02239754            2 
 1476000   0.98707418   -7.6869565    397.95884  0.022468317  0.022391318            2 
 1477000    1.0186607   -7.6952676    398.67914  0.022493745  0.022385106            4 
 1478000    1.0110226   -7.7156362    397.12625   0.02239097  0.022378855            2 
 1479000     1.021545   -7.6904746     397.4355  0.022393256  0.022372525            5 
 1480000     1.009336   -7.7512486    397.48307  0.022380804  0.022366248            2 
 1481000    1.0075352   -7.7764858    396.49733  0.022310226  0.022359937            5 
 1482000    1.0037173   -7.7538829    396.88177  0.022316789  0.022353584            3 
 1483000    1.0116885   -7.6834766    398.83752  0.022411639  0.022347379            2 
 1484000    1.0146261   -7.7723662    398.48647  0.022376823  0.022341035            5 
 1485000    1.0164541   -7.6797461    399.75995  0.022433219  0.022334822            2 
 1486000    1.0200436   -7.7520329    398.05402  0.022322455   0.02232862            4 
 1487000   0.99127871   -7.7413531     398.2636  0.022319188  0.022322306            2 
 1488000    1.0124065   -7.7582549     398.8922  0.022339393  0.022316079            2 
 1489000    1.0265578   -7.7389627    398.82005  0.022320352  0.022309743            3 
 1490000    1.0059541   -7.7143275     399.3658  0.022335895  0.022303371            2 
 1491000    1.0251486   -7.7636909    398.10513  0.022250454  0.022296971            2 
 1492000    1.0263363   -7.7757758    398.36681  0.022250157  0.022290445            1 
 1493000   0.99950108   -7.7528333    398.43773  0.022239212  0.022283966            1 
 1494000    1.0179233   -7.7125447    399.73084  0.022296454  0.022277669            4 
 1495000    1.0235791   -7.7170937    399.62091  0.022275413  0.022271329            2 
 1496000    1.0437648   -7.7110973    400.76458   0.02232423  0.022264921            3 
 1497000     1.020405   -7.7516002    399.69471  0.022249761  0.022258434            4 
 1498000   0.99139086   -7.7570083    400.95225  0.022304865  0.022251913            3 
 1499000    1.0099056   -7.7431452    400.79299  0.022281132  0.022245427            2 
 1500000    1.0156605   -7.7773372    400.86115  0.022270064  0.022239022            5 
 1501000    1.0286001   -7.7257381    399.76581  0.022194415  0.022232614            4 
 1502000   0.98063227   -7.7242529    400.99314  0.022247733  0.022226224            5 
 1503000    1.0175649   -7.7284817    401.43801  0.022257596  0.022219885            3 
 1504000    1.0196401   -7.7371964    400.52144  0.022192012  0.022213412            2 
 1505000    1.0247935   -7.7217979    401.51029  0.022232021  0.022207074            3 
 1506000    1.0260826   -7.6892199    402.75261  0.022286001  0.022200867            3 
 1507000    1.0140578    -7.699694    402.53887  0.022259394  0.022194654            6 
 1508000    0.9901216   -7.7383346    401.51455  0.022188028  0.022188344            4 
 1509000   0.99416596    -7.732683    403.16816  0.022264643  0.022182001            4 
 1510000    1.0113266   -7.7507429     401.8019  0.022174498  0.022175636            5 
 1511000    1.0108142    -7.751778    401.73913  0.022156361  0.022169284            4 
 1512000    1.0147536   -7.7672401    402.13107  0.022163309  0.022162967            3 
 1513000    1.0128434   -7.7579528    401.35415  0.022105869  0.022156598            4 
 1514000    1.0022543   -7.7659294    402.64182  0.022162143  0.022150197            2 
 1515000    1.0099762   -7.7767974    402.83151  0.022157949  0.022143846            2 
 1516000   0.99689125   -7.7841617    402.10213  0.022103239  0.022137525            3 
 1517000     1.008751   -7.7641857    404.24744  0.022206517  0.022131218            2 
 1518000     1.018404   -7.7587304    403.70173  0.022161931  0.022125036            4 
 1519000    1.0205531   -7.7485111    404.69807  0.022202001  0.022118747            2 
 1520000    1.0084605   -7.7530273    405.15062  0.022212205  0.022112545            4 
 1521000   0.99963214   -7.7100486    405.33464  0.022207683  0.022106381            5 
 1522000    1.0141035   -7.7137154    405.87617  0.022222743  0.022100164            2 
 1523000    1.0161464   -7.7512942    405.80184  0.022204084  0.022093981            7 
 1524000    1.0199344   -7.7697304    404.97041  0.022144051  0.022087711            2 
 1525000    1.0172773   -7.8000439    404.54888  0.022106496  0.022081536            2 
 1526000    1.0155755   -7.7561962     405.8641  0.022163833   0.02207535            2 
 1527000    1.0095464   -7.7736262    404.82001  0.022092338  0.022069208            6 
 1528000    1.0163148   -7.7428782    405.46347  0.022112973  0.022063025            4 
 1529000    1.0083874   -7.7695822     405.5637  0.022103973   0.02205681            3 
 1530000    1.0179405    -7.724927    406.82399  0.022158169  0.022050672            5 
 1531000    0.9827788   -7.7420505    406.26871  0.022113472  0.022044562            3 
 1532000    1.0129435   -7.7406287    407.22075  0.022150824   0.02203841            2 
 1533000    0.9878369   -7.7458084    407.40417  0.022146346  0.022032365            2 
 1534000    1.0250285   -7.7592457    406.97313  0.022108493  0.022026212            9 
 1535000   0.98963339    -7.741024    407.23429  0.022108268  0.022020072            5 
 1536000    1.0203668   -7.7456389    407.50486  0.022108554  0.022014037            4 
 1537000    1.0256175     -7.76308    406.48543  0.022038897  0.022007966            2 
 1538000    1.0134784   -7.7643701    407.24154  0.022065536  0.022001824            4 
 1539000    1.0008527   -7.7585792    407.35784  0.022057496  0.021995685            4 
 1540000   0.99594081   -7.7472938    408.67845  0.022114635  0.021989636            2 
 1541000     0.999395   -7.7636051    408.48658  0.022089908  0.021983523            3 
 1542000   0.99510549   -7.7226126    409.21167  0.022114768  0.021977342            7 
 1543000    1.0128281   -7.7122214    408.47857  0.022060843  0.021971211            5 
 1544000    1.0113192   -7.7339279    409.19928  0.022085453  0.021965258            3 
 1545000    1.0155029   -7.7200768    409.55346  0.022090262  0.021959301            6 
 1546000     1.021525   -7.7738062    408.38767  0.022013134  0.021953257            2 
 1547000    1.0032726   -7.7892014    408.36966  0.021997935  0.021947174            2 
 1548000    1.0049714   -7.7815262    408.13744  0.021971223  0.021941038            3 
 1549000    1.0126936    -7.800218    408.90403   0.02199828  0.021934797            2 
 1550000    1.0303638   -7.7403625    410.28504  0.022058335  0.021928517            4 
 1551000    1.0113395   -7.7340787    409.40505  0.021996832  0.021922318            3 
 1552000   0.99277539   -7.7730078    409.73221  0.022000226  0.021916186            2 
 1553000   0.99477829   -7.7967397    409.33684  0.021964845   0.02190996            9 
 1554000   0.98213062   -7.7460206    410.88841  0.022033913  0.021903758            3 
 1555000    1.0179575   -7.7353338     408.8318  0.021909528   0.02189767            3 
 1556000   0.99046398   -7.8148079    409.21096  0.021915754  0.021891457            5 
 1557000    1.0046288   -7.7988914    409.72948   0.02192943  0.021885162            6 
 1558000     1.007836   -7.7816651    409.41057  0.021898297   0.02187884            1 
 1559000    1.0310883   -7.7703797    408.66757  0.021844536  0.021872536           12 
 1560000    1.0111837   -7.7734755    410.35549  0.021920699  0.021866205            3 
 1561000    1.0198788   -7.7620957     411.3296  0.021958659  0.021859957            2 
 1562000   0.98201985   -7.7770642    410.28378  0.021888806  0.021853757            2 
 1563000    1.0145539   -7.7646249    412.42681   0.02198906  0.021847672            4 
 1564000    1.0123097   -7.7724169    411.44725  0.021922808   0.02184149            3 
 1565000   0.99070717   -7.7924322    411.85393  0.021930454  0.021835429            2 
 1566000    1.0061576   -7.8018705    411.11281  0.021877012  0.021829315            2 
 1567000   0.97007092   -7.7125247    413.54966  0.021992643  0.021823267            2 
 1568000     1.016605   -7.7509042    412.78748   0.02193811  0.021817187            8 
 1569000   0.99605909   -7.7518034     412.2836  0.021897366  0.021811042            5 
 1570000    1.0172677   -7.7916884    411.57795  0.021845963  0.021804849            4 
 1571000   0.98016813   -7.7061209    414.06152  0.021963798  0.021798682            4 
 1572000     1.006694   -7.7265883    414.23304  0.021958918  0.021792573            2 
 1573000    1.0003611   -7.7384785    414.17662   0.02194197  0.021786521           10 
 1574000   0.99100781   -7.8066008    413.55144   0.02189493  0.021780484            5 
 1575000    1.0081103   -7.7630531    412.90705  0.021846934  0.021774357            3 
 1576000   0.99158592   -7.7523865      413.096  0.021843063  0.021768217            3 
 1577000   0.98249678   -7.8012151    412.71016  0.021808823  0.021762034            4 
 1578000   0.98581481   -7.7194315    414.82799  0.021906844  0.021755908            6 
 1579000   0.99546688   -7.8083792    413.94608  0.021846426  0.021749798            3 
 1580000    0.9876051   -7.7940698    412.84405  0.021774475   0.02174362            3 
 1581000   0.97959013   -7.7395833    414.69616  0.021858326  0.021737515            3 
 1582000   0.98303173   -7.7531146    414.66991  0.021843126  0.021731441            3 
 1583000    1.0035836   -7.7852621    413.98605  0.021793328  0.021725248            3 
 1584000   0.98454932   -7.7803566    413.35268  0.021746248  0.021719044            2 
 1585000   0.98488601    -7.759864    415.24925  0.021832242  0.021712741            3 
 1586000    1.0137755   -7.7632033    413.48191  0.021725615  0.021706401           11 
 1587000   0.99658918   -7.7699705    415.44623  0.021815072   0.02170026            3 
 1588000      0.98867   -7.8192869    414.58797  0.021756296  0.021694159            4 
 1589000   0.98656484   -7.7720715    414.83226  0.021755415   0.02168801            3 
 1590000   0.98652515   -7.8197849    414.42067  0.021720161  0.021681853            2 
 1591000   0.97864229   -7.8176329     414.0941  0.021689404  0.021675525            8 
 1592000    1.0069328   -7.7981081     414.4908  0.021696545  0.021669231            4 
 1593000    1.0017326   -7.8035827    414.07063  0.021660945  0.021662889            5 
 1594000    1.0209035   -7.7888181    414.98099  0.021694949  0.021656576            1 
 1595000   0.97449181   -7.7994899    414.55916  0.021659308  0.021650255            7 
 1596000    1.0052383   -7.8257642    415.76154  0.021708518  0.021643979            2 
 1597000   0.98252916   -7.8333394     415.4745  0.021679947  0.021637726            1 
 1598000   0.96198015    -7.801126    415.30198  0.021657383  0.021631442            2 
 1599000    1.0054554   -7.7656516    417.43165  0.021754828  0.021625274            3 
 1600000    1.0079257   -7.8136695    417.10131  0.021724027  0.021619085            5 
 1601000   0.98270914   -7.8239777    415.65182   0.02163501  0.021612831            4 
 1602000   0.99758091   -7.7428963    417.12388   0.02169808  0.021606687            8 
 1603000    1.0153525   -7.7878394    416.39417  0.021646609  0.021600501            2 
 1604000    1.0020734   -7.8034483    415.38006  0.021580427  0.021594239            3 
 1605000    1.0000067   -7.7790347    417.92127  0.021698924  0.021587954            4 
 1606000    1.0181754   -7.8050528    416.72784  0.021623487  0.021581745            3 
 1607000   0.98923244   -7.8123519    416.76116  0.021611759   0.02157551            4 
 1608000   0.98745597   -7.7767454    418.25872  0.021675929  0.021569339            7 
 1609000   0.99017616   -7.7629892     418.3005  0.021664621  0.021563211            7 
 1610000   0.97439224   -7.7380539     419.0256  0.021688696  0.021557181            4 
 1611000   0.97655312   -7.7566318    419.05024  0.021676508   0.02155118            6 
 1612000   0.98654498    -7.749784    419.12079  0.021666708   0.02154528            3 
 1613000   0.98061207   -7.7662582     419.2698  0.021660973  0.021539271            8 
 1614000   0.99745684   -7.7921372    417.96446  0.021580156    0.0215332            4 
 1615000   0.99919284   -7.7849163    418.72245  0.021605905   0.02152705            4 
 1616000   0.99057436   -7.7969176    419.42156  0.021628587  0.021521003            4 
 1617000    1.0197426   -7.7826912    419.75844  0.021632573  0.021515033            4 
 1618000   0.99760538   -7.7925203    419.73503  0.021617997  0.021509093            3 
 1619000    1.0086583    -7.766243    420.67476  0.021653014  0.021503086            1 
 1620000     1.005062    -7.788909    420.26041  0.021618334   0.02149713            3 
 1621000    1.0000362   -7.7964804    420.18965   0.02160136  0.021491089            3 
 1622000   0.98477089   -7.7675422    420.73772    0.0216162  0.021485083            2 
 1623000   0.97674662   -7.7962631    419.86603  0.021558124  0.021479102            2 
 1624000      1.02208   -7.7925897    420.25773  0.021564949  0.021473063            2 
 1625000   0.99664106   -7.7823466     420.8104  0.021580021  0.021467058            5 
 1626000   0.98758293   -7.7925754    420.30205  0.021540695  0.021461079            4 
 1627000    0.9903728   -7.8145296     419.6868  0.021495944   0.02145505            8 
 1628000    1.0030625   -7.8447751    420.00195  0.021498871  0.021448972            3 
 1629000   0.99059378     -7.81447     421.6651  0.021570754  0.021442913            2 
 1630000    1.0017705   -7.8242057    421.47931  0.021548022  0.021436853            2 
 1631000    1.0062777   -7.7970744    421.86993  0.021554768  0.021430854            3 
 1632000   0.98929945   -7.8038558    422.94886  0.021596654  0.021424834            4 
 1633000   0.99470784   -7.7740388    421.27765  0.021498145  0.021418882            3 
 1634000   0.98837354   -7.7972062    421.74369  0.021508756  0.021412793            3 
 1635000   0.99254283   -7.8462055    421.42397  0.021479305  0.021406642            3 
 1636000    0.9762703   -7.8044792    420.62185  0.021425318  0.021400478            2 
 1637000   0.99621078   -7.7749866    422.28075  0.021496678  0.021394326            2 
 1638000    1.0018204   -7.8046094     420.5102  0.021393478  0.021388187            2 
 1639000    0.9952132   -7.8168179    421.98193  0.021455254  0.021382026            4 
 1640000   0.99992825   -7.7828406    422.35853  0.021461307  0.021375813            1 
 1641000    1.0009025    -7.797287    422.68432  0.021464774  0.021369642            2 
 1642000    0.9994425   -7.8237301    421.84728  0.021409221  0.021363524            3 
 1643000   0.99447431   -7.8330977    421.52942  0.021380068  0.021357343            4 
 1644000   0.98758293   -7.7958726    422.08103  0.021395024  0.021351006            4 
 1645000   0.99786131   -7.8083602    422.34997  0.021395642  0.021344815            3 
 1646000   0.98204641   -7.7884512    421.48209  0.021338705  0.021338612            4 
 1647000   0.99033516   -7.8026445    422.91739   0.02139837  0.021332499            5 
 1648000   0.96294428   -7.8347435    422.70777  0.021374786  0.021326242            2 
 1649000   0.99721994   -7.8118857    423.63549  0.021408707  0.021320073            2 
 1650000   0.99819936   -7.8056602     422.2883  0.021327692  0.021313953            2 
 1651000   0.99222592   -7.8462086    422.04643  0.021302565  0.021307817            2 
 1652000    1.0065952   -7.8332248     423.5959  0.021367832  0.021301598            6 
 1653000   0.97709543   -7.8131477    422.99754   0.02132474  0.021295403            3 
 1654000   0.97108954   -7.7997068    424.70043  0.021397644   0.02128917            4 
 1655000   0.99407437   -7.8365611    423.17767   0.02130804  0.021282993            2 
 1656000   0.97732385   -7.8093407    424.59834  0.021366664  0.021276823            4 
 1657000   0.98442686   -7.7692532    424.76605  0.021362204  0.021270771            4 
 1658000   0.99028472   -7.7958396     424.0078  0.021311208  0.021264759            7 
 1659000    0.9750933   -7.7967683    424.83893  0.021340111  0.021258721            3 
 1660000    1.0078428   -7.7882351    425.08271  0.021339494  0.021252614            2 
 1661000   0.97786091    -7.796256    423.90329  0.021267474  0.021246464            3 
 1662000   0.98159786   -7.7914741    424.10281  0.021264681  0.021240235           10 
 1663000    0.9929594   -7.8349859    424.18857  0.021256192  0.021233971            3 
 1664000   0.99829113   -7.8247828    424.35937  0.021251971  0.021227709            4 
 1665000   0.98926522    -7.827574    425.56597  0.021299598  0.021221475            6 
 1666000    0.9869077   -7.8524455     423.8401  0.021200485  0.021215238            4 
 1667000   0.96679658   -7.8384274    425.87545  0.021289515   0.02120902            3 
 1668000   0.97239429   -7.8218116    425.65836  0.021265905   0.02120284            3 
 1669000   0.97714707   -7.7995776    426.78028  0.021309181  0.021196695            5 
 1670000   0.99857403   -7.8138767    426.55545  0.021285202  0.021190564            4 
 1671000   0.98709594   -7.8679929    425.10459  0.021200109  0.021184316            5 
 1672000   0.96769806    -7.832937    426.72825  0.021268354  0.021178165            3 
 1673000   0.99466028   -7.7559206    427.10699  0.021274506  0.021172068            5 
 1674000   0.95883001   -7.7949023    427.52196  0.021282455  0.021165956            1 
 1675000   0.99114979   -7.7994609    426.81829  0.021234741  0.021159819            2 
 1676000   0.98415263   -7.7580996    427.23116    0.0212426   0.02115373            3 
 1677000   0.98906918   -7.8028499    427.21401   0.02122908  0.021147671            4 
 1678000     0.983016   -7.8059949    428.41814  0.021276229  0.021141587            8 
 1679000    0.9718324   -7.7661945    428.47237  0.021266248   0.02113557            4 
 1680000   0.97281491   -7.7840584     428.4261  0.021251295  0.021129563            7 
 1681000   0.99310405   -7.8214811    427.95483   0.02121529  0.021123579            3 
 1682000    1.0067718   -7.8167255    428.21508  0.021215571  0.021117525            3 
 1683000   0.97662798   -7.7832126    429.32194  0.021257771   0.02111161            2 
 1684000   0.97899645   -7.8127942     429.1182  0.021235066  0.021105698            3 
 1685000   0.97678785   -7.7924409    429.72188  0.021252318  0.021099792            5 
 1686000   0.98252963   -7.8160459    428.79009  0.021193658  0.021093897            4 
 1687000   0.98283619   -7.8020948    429.50595  0.021216457  0.021087927            2 
 1688000   0.98691237   -7.7971571    429.17796  0.021187695  0.021081943            7 
 1689000   0.97215063   -7.7858612    430.39814  0.021235353  0.021076032            4 
 1690000    0.9956586     -7.78297    432.59312  0.021331022  0.021070186            2 
 1691000    1.0079845   -7.8331731    429.81541   0.02118152   0.02106432            2 
 1692000   0.95114961   -7.8569374     430.1492  0.021185441  0.021058394            5 
 1693000   0.97805392    -7.846229    430.09954  0.021170483  0.021052479            2 
 1694000   0.98602339   -7.7920903    431.25906  0.021215027  0.021046613            2 
 1695000   0.95799169   -7.8083603    431.45315  0.021212052  0.021040746            3 
 1696000   0.96744702   -7.8204752    430.57132  0.021156217  0.021034874            6 
 1697000    1.0119908   -7.8036059    431.92106   0.02121003  0.021029042            3 
 1698000   0.98675155   -7.7851844    432.86035  0.021243637  0.021023281            4 
 1699000   0.98082956   -7.8445614    430.88377  0.021134185  0.021017356            5 
 1700000   0.98463997   -7.8466479    430.81179  0.021118225  0.021011436            3 
 1701000   0.98096553   -7.8314219     432.8483   0.02120558  0.021005565            4 
 1702000   0.97721579   -7.8070273    431.38462  0.021121456  0.020999743            7 
 1703000   0.98048208    -7.839369    430.47148  0.021064371  0.020993893            2 
 1704000    0.9804886   -7.7721762     432.1055   0.02113192  0.020987999            3 
 1705000    1.0136031   -7.7872297    432.10677  0.021119588  0.020982129            2 
 1706000   0.96518434   -7.7754218    432.90305  0.021146105  0.020976315            3 
 1707000    0.9523813    -7.790997    433.33675  0.021154889  0.020970513            6 
 1708000   0.97833565   -7.7804758    433.55438  0.021153122  0.020964691            3 
 1709000   0.97148191   -7.8213478    433.57734  0.021141864  0.020958858            2 
 1710000   0.96065394    -7.833941    433.00165  0.021101445  0.020953033            3 
 1711000   0.97470212   -7.8572206    432.58115  0.021068632  0.020947179            1 
 1712000   0.98306124   -7.7747795    434.07996  0.021129282  0.020941366            3 
 1713000   0.99377845   -7.7919317    434.35647  0.021130398  0.020935618            1 
 1714000   0.97772985   -7.8251454    433.61599  0.021082069  0.020929791            4 
 1715000   0.97379623   -7.8345434    433.86232  0.021081745  0.020923896            4 
 1716000   0.95930755   -7.8388015     433.0231  0.021028705  0.020917988            3 
 1717000   0.97135584   -7.8495126    433.37526   0.02103355  0.020912074            1 
 1718000   0.99419954   -7.8076356    434.23895  0.021063201  0.020906109            2 
 1719000   0.96811631   -7.8326264    434.83138  0.021079667  0.020900211            9 
 1720000   0.98428825   -7.8405676    432.63529  0.020961012  0.020894278            3 
 1721000   0.98641921   -7.8563768    434.40017   0.02103429  0.020888272            3 
 1722000   0.96207034   -7.8463879    434.02839  0.021004084   0.02088227            3 
 1723000    0.9733312   -7.8701344    433.29567  0.020956455  0.020876271            4 
 1724000   0.99536027   -7.8339894    433.71289  0.020964467  0.020870274            4 
 1725000    0.9645962      -7.8578    434.23143  0.020977364  0.020864295            9 
 1726000   0.97411958   -7.8292401    434.47156  0.020976804  0.020858362            3 
 1727000   0.96239235   -7.8432242    435.22219  0.021000877  0.020852463            6 
 1728000   0.96927148   -7.8213767    435.92452  0.021022594  0.020846509            6 
 1729000   0.97635984   -7.8472902    434.92988  0.020962497   0.02084069           12 
 1730000   0.94892685   -7.8498662    434.98542  0.020953055  0.020834839            3 
 1731000   0.97421194   -7.8431795     434.8427  0.020934079  0.020828951            3 
 1732000   0.94403713    -7.874694    434.93753  0.020926556  0.020822987            8 
 1733000   0.96284205   -7.8660644    435.01709  0.020918306  0.020816917            4 
 1734000   0.99623315   -7.8197167    435.73529  0.020940758  0.020810989            2 
 1735000   0.96476537   -7.8396631    435.85388  0.020934384   0.02080509            1 
 1736000   0.97626597   -7.8456329    436.40872   0.02094896  0.020799233            6 
 1737000   0.97048156   -7.8371993    436.37556  0.020935308  0.020793389            3 
 1738000   0.97286928   -7.8532473    436.24442  0.020916975  0.020787551            2 
 1739000   0.99021981   -7.8105757    435.99244  0.020892871  0.020781713            4 
 1740000   0.98460998   -7.8380183    436.80276  0.020919672  0.020775825            4 
 1741000   0.97200698   -7.8736315    435.83887   0.02086152   0.02076989            3 
 1742000   0.99267581   -7.8162021    437.57231  0.020932468  0.020764017            2 
 1743000   0.96430546   -7.8237354    436.66698  0.020877174  0.020758144            3 
 1744000   0.97369817   -7.8517333    436.27009  0.020846239  0.020752257            2 
 1745000   0.99037492   -7.8796755    436.07536  0.020824993  0.020746279            5 
 1746000    0.9472179   -7.8757068    437.74704  0.020892852  0.020740328            6 
 1747000   0.97098548   -7.8685931    436.38574  0.020815958  0.020734276            6 
 1748000   0.96925577   -7.8835138    435.95673  0.020783597  0.020728252            2 
 1749000   0.96271177   -7.8326858    438.74572  0.020904599  0.020722375            6 
 1750000   0.98469873   -7.8433399    437.97914  0.020856149  0.020716502            9 
 1751000   0.95659758   -7.8503606    437.78262  0.020834886  0.020710591            5 
 1752000   0.97154591   -7.8085858    437.48107  0.020808651  0.020704715            4 
 1753000    0.9690976   -7.8211998    438.87831  0.020863202  0.020698873            2 
 1754000    0.9474967   -7.8319179    437.95842  0.020807602  0.020693048           14 
 1755000   0.96594703     -7.85805    438.47804   0.02082042  0.020687133            3 
 1756000   0.96600025   -7.8722527    438.37529  0.020803687  0.020681126            5 
 1757000    0.9740806   -7.8602008    438.59525  0.020802279  0.020675118            2 
 1758000   0.97592142   -7.8607446    439.24906  0.020821438  0.020669201            4 
 1759000   0.95059263   -7.8666217    438.33444  0.020766271  0.020663275            2 
 1760000   0.99105906   -7.8437809    438.13767  0.020745155  0.020657278            1 
 1761000   0.96177461   -7.8750411    439.14368  0.020780981  0.020651271            3 
 1762000   0.96310819   -7.8878892    439.15392  0.020769671  0.020645272            3 
 1763000   0.98791076   -7.8474082    439.24899  0.020762384   0.02063943            3 
 1764000   0.95352643   -7.8299639    439.83655   0.02077837   0.02063357            3 
 1765000   0.96712573   -7.8511964    439.69021  0.020759689  0.020627705            4 
 1766000   0.98180538   -7.8711839    438.58263   0.02069567  0.020621678            3 
 1767000   0.97452305   -7.8470408    438.99087   0.02070321   0.02061564            4 
 1768000   0.97821645   -7.8750454    439.27881  0.020705072  0.020609651            3 
 1769000   0.96943293   -7.8881467    439.06416  0.020683256    0.0206036            5 
 1770000   0.96179806   -7.8787466    439.39369  0.020687085  0.020597531            3 
 1771000   0.97186633   -7.8759365    439.70976  0.020690276  0.020591459            1 
 1772000   0.96809566   -7.8660806    439.55497  0.020671321  0.020585452            2 
 1773000   0.96063094   -7.8820281    438.83713  0.020625923  0.020579395            5 
 1774000   0.92993892   -7.8885032    439.34116  0.020637972  0.020573226            2 
 1775000   0.95446683   -7.8726893    439.10518  0.020615267  0.020567026            4 
 1776000   0.97929173   -7.8642331    439.47418  0.020620973  0.020560865           11 
 1777000   0.96154854   -7.8504902    439.27287  0.020599928  0.020554694            3 
 1778000    0.9480635   -7.8608266    439.26487  0.020587967  0.020548523            2 
 1779000   0.95395297   -7.8595257    439.03396  0.020565578  0.020542299            8 
 1780000   0.96747837   -7.8202057    440.19001  0.020608147  0.020536091            6 
 1781000   0.97575499   -7.8844804    438.75326   0.02052935  0.020529848            4 
 1782000   0.95759708   -7.9069569    438.93865  0.020526499  0.020523607            2 
 1783000   0.96145355   -7.8703171    439.68061  0.020549664  0.020517378            2 
 1784000   0.97606538   -7.8812857    440.19153  0.020562011  0.020511152            5 
 1785000   0.98202965   -7.8657566    440.65788  0.020572263  0.020504888            3 
 1786000   0.97300356   -7.8470842    440.19261  0.020539036  0.020498631            4 
 1787000   0.96382361   -7.8704609    440.65747   0.02054922  0.020492431            5 
 1788000   0.96512553   -7.8658274    440.77613  0.020543257  0.020486224            3 
 1789000   0.94765645    -7.912936    440.05069  0.020497983  0.020480021            3 
 1790000   0.97348523   -7.8744942    440.28666  0.020497517  0.020473749            3 
 1791000   0.95558683   -7.9033751    441.05855  0.020521987  0.020467568            2 
 1792000   0.96705354    -7.880261    441.88088  0.020548776  0.020461343            3 
 1793000   0.94899992   -7.8510847    441.57463  0.020523082  0.020455272            6 
 1794000   0.97883163   -7.8579512     442.0805   0.02053514  0.020449134            3 
 1795000   0.96655388   -7.8882063    441.53626  0.020498434     0.020443            2 
 1796000   0.99473186   -7.8531056    442.20035  0.020517834  0.020436824            4 
 1797000   0.96848014   -7.8569981    440.71287  0.020437436  0.020430658            3 
 1798000    0.9838146   -7.8655534    442.10218  0.020490461  0.020424541            4 
 1799000   0.97237409   -7.8424618    443.11192  0.020525844  0.020418431            5 
 1800000   0.96454949   -7.8825307    441.59913  0.020444404  0.020412276            3 
 1801000   0.96162979   -7.8479402     443.1096  0.020502943  0.020406051            5 
 1802000   0.95550672   -7.8403457    443.75511  0.020521416  0.020399927            3 
 1803000   0.95172433   -7.8476789    443.88575  0.020516073  0.020393809            3 
 1804000   0.97711757   -7.8581109    443.94199  0.020507298  0.020387682            5 
 1805000   0.95614188   -7.8600365    444.09153  0.020502841   0.02038159            5 
 1806000   0.97184258    -7.896129    442.00684  0.020395295  0.020375481            3 
 1807000   0.96142343   -7.8851857    442.92503  0.020426352  0.020369295            8 
 1808000   0.95055075   -7.9296309    441.80534  0.020363447   0.02036312            4 
 1809000   0.96172594   -7.8996546     444.0241  0.020454399  0.020356968            4 
 1810000   0.99331643   -7.8722831    443.62199  0.020424585  0.020350862            5 
 1811000   0.94593033   -7.9058154     443.8164  0.020422253  0.020344647            3 
 1812000   0.96260398   -7.8346557    444.24125  0.020430521  0.020338432            2 
 1813000   0.97667324   -7.8964776    443.77715   0.02039792  0.020332238            5 
 1814000   0.98510495   -7.8708843    444.50175  0.020419963  0.020326073            4 
 1815000   0.95927547   -7.8836723    445.18275  0.020439979  0.020319991            5 
 1816000   0.94607685   -7.8543941    445.09682  0.020424781   0.02031384            5 
 1817000   0.95782999   -7.8639544    443.96739  0.020361741  0.020307595            6 
 1818000   0.94211264   -7.8869852    444.03861  0.020353805  0.020301415            6 
 1819000   0.94894619   -7.8734028    444.68339  0.020372155  0.020295182            2 
 1820000   0.97612828   -7.8501661    444.44771   0.02035017     0.020289            3 
 1821000   0.94878481   -7.9044328    443.13193  0.020278781  0.020282821            7 
 1822000    0.9262961   -7.9190246    444.06298  0.020310235  0.020276583            6 
 1823000   0.96208746   -7.9042105    443.99704   0.02029608  0.020270313            3 
 1824000   0.97462044   -7.8460944    444.81764  0.020322443  0.020264087            2 
 1825000   0.97451946   -7.9247016    445.71233  0.020352161  0.020257927            4 
 1826000   0.95037551   -7.8799479    445.35742  0.020324818  0.020251824            6 
 1827000   0.95432151   -7.9107688    444.08353  0.020255589  0.020245656            5 
 1828000   0.97153213   -7.8673597     445.7472   0.02032035   0.02023952            9 
 1829000   0.97097757   -7.8690183    444.73723  0.020263223  0.020233432            2 
 1830000   0.97080039   -7.8726559    445.33307  0.020279283  0.020227295            4 
 1831000   0.94924112   -7.8902176    444.96124  0.020251285  0.020221195            2 
 1832000   0.95068047   -7.8619454    446.54516   0.02031228  0.020214993            5 
 1833000   0.96566853   -7.8362299    447.23403  0.020332516  0.020208894           11 
 1834000   0.96526568   -7.9004908    445.58108  0.020246323  0.020202755            8 
 1835000   0.95794855   -7.8896836    446.31626  0.020268677  0.020196616            4 
 1836000   0.93054494   -7.8951559    446.13014  0.020249189  0.020190497            6 
 1837000   0.97241635   -7.9093778    446.55643  0.020257504  0.020184252            5 
 1838000   0.96547493   -7.8781987    446.79386  0.020257248  0.020178003            3 
 1839000   0.96480647   -7.8954562    446.60841  0.020237829  0.020171807            2 
 1840000   0.97798158   -7.8602011    445.23449  0.020164606  0.020165625            2 
 1841000   0.96018637   -7.8933399    447.31445  0.020247803  0.020159532            2 
 1842000   0.97188496   -7.8811856    447.25388   0.02023407  0.020153439            5 
 1843000   0.98138708   -7.8781224     447.0648  0.020214542  0.020147297            2 
 1844000   0.96656336   -7.9003483    447.55954  0.020225937  0.020141167            3 
 1845000   0.95410557   -7.8673792    445.73936  0.020132763  0.020135029            3 
 1846000    0.9285711   -7.9101064    445.92801  0.020130372  0.020128797            8 
 1847000    0.9670418   -7.8863305    446.91377  0.020163949  0.020122628            3 
 1848000   0.95711888   -7.8769791    446.19743  0.020120735  0.020116441            2 
 1849000   0.94945835   -7.8841397    447.03478  0.020147592  0.020110232           10 
 1850000   0.95264513   -7.9006213    447.08874  0.020139132  0.020104067            2 
 1851000   0.93931156   -7.8956524    447.16882  0.020131857  0.020097833           10 
 1852000   0.97630803   -7.8791871    447.74972  0.020147126  0.020091601            4 
 1853000    0.9521503   -7.8973898    447.09731  0.020106913   0.02008538            4 
 1854000   0.95959102   -7.8827994     446.9081  0.020087563  0.020079175            3 
 1855000   0.95118014   -7.8905386    447.40939  0.020099254  0.020072951            3 
 1856000   0.93986436   -7.9014465    447.16778  0.020077576   0.02006672            3 
 1857000   0.98696125   -7.9345486    447.56621  0.020084644   0.02006045            4 
 1858000   0.94648354   -7.9043965    447.81931  0.020085186  0.020054147            4 
 1859000   0.96066721   -7.8953161     447.6296  0.020065878   0.02004781            2 
 1860000   0.94108939   -7.9231173    448.30058  0.020085151    0.0200416            4 
 1861000   0.97363773   -7.9111599    448.59027  0.020087331  0.020035471            5 
 1862000   0.94859915   -7.9111876    448.99118  0.020094485  0.020029287            1 
 1863000    0.9554868   -7.9261202    447.81243  0.020030973  0.020023039            4 
 1864000   0.95923743   -7.8993062    449.64095  0.020101974  0.020016779            1 
 1865000   0.93664994   -7.9323864    448.89914  0.020058049  0.020010535            2 
 1866000    0.9492776   -7.8985199    449.42651  0.020070851  0.020004362            2 
 1867000   0.94399387   -7.9065847    449.64057  0.020069656  0.019998197            8 
 1868000   0.95582061   -7.9480876    446.94723  0.019938759  0.019991973            2 
 1869000   0.93449863   -7.9009925    448.88185   0.02001435  0.019985739            3 
 1870000   0.94943826   -7.8965155    449.28648  0.020021679  0.019979481            4 
 1871000   0.96240386   -7.9349479    448.63846  0.019982116  0.019973189            2 
 1872000    0.9633449   -7.9429497    448.85045  0.019980878   0.01996689           10 
 1873000   0.95753762    -7.918443    448.41077  0.019950648  0.019960619            1 
 1874000   0.96448285   -7.9449503    449.59802  0.019992797   0.01995433            6 
 1875000   0.93138069   -7.9411837    448.84445  0.019948642  0.019948089            6 
 1876000   0.95283624   -7.9368058    450.02786  0.019990577  0.019941857            3 
 1877000   0.94313495   -7.8549755    450.72922  0.020011064  0.019935622            9 
 1878000    0.9351828   -7.9040093    450.58697  0.019994097  0.019929409            4 
 1879000   0.95903855   -7.9289823    449.13222  0.019918938  0.019923196            1 
 1880000   0.96332919   -7.9320744    449.05549  0.019904942  0.019916911           11 
 1881000   0.95132216    -7.921831    450.22527  0.019946184  0.019910626            5 
 1882000   0.94036376   -7.8971941    449.45976   0.01990169  0.019904383            3 
 1883000   0.94742858   -7.9490065    449.60936  0.019897741  0.019898113            3 
 1884000   0.94777489    -7.893467    450.95813  0.019946839  0.019891853            3 
 1885000   0.94428234   -7.8748539    451.19164   0.01994658   0.01988564            3 
 1886000    0.9567526   -7.9145836    451.13647  0.019933566  0.019879453            3 
 1887000   0.96088005    -7.923376    450.63363  0.019900796  0.019873216            5 
 1888000   0.94535211   -7.8938139    450.41179  0.019880464  0.019866928            4 
 1889000   0.92582423   -7.9113567    449.49129  0.019829332   0.01986058            4 
 1890000   0.96002107   -7.9400693    450.35809  0.019857059  0.019854173            3 
 1891000   0.94869943   -7.8856317    450.84451  0.019867993  0.019847874            3 
 1892000   0.94365294   -7.8928748    451.48091  0.019885523  0.019841631            5 
 1893000   0.94843183    -7.912013    450.97769  0.019852865  0.019835324            4 
 1894000   0.95991258   -7.9052465    450.54233  0.019823228  0.019829006            3 
 1895000   0.94428761   -7.8657991    451.28254  0.019845318  0.019822723            3 
 1896000   0.95728653   -7.9049659    451.19338  0.019830933  0.019816383            6 
 1897000   0.94610037   -7.9567499    451.01542  0.019812661  0.019810135            8 
 1898000   0.95185754   -7.9257894    451.01535   0.01980222  0.019803732            4 
 1899000   0.94639743   -7.9696693    451.01503  0.019791777  0.019797335           10 
 1900000   0.95573851   -7.9042909     452.1826   0.01983257  0.019790996            5 
 1901000   0.95054935   -7.8955522    450.89179  0.019765553  0.019784677            2 
 1902000   0.95058054   -7.9386706    450.58373  0.019741664  0.019778343            4 
 1903000   0.95041191   -7.9228295    451.18329  0.019757545  0.019772016            7 
 1904000   0.94600229     -7.90823    452.50757  0.019805128  0.019765681            3 
 1905000   0.94625699    -7.910696    452.70458   0.01980335  0.019759345            3 
 1906000   0.94290713   -7.9264058    451.18303  0.019726435  0.019753086            2 
 1907000   0.95935447   -7.9336397     453.4586  0.019815531  0.019746841            3 
 1908000   0.94584586   -7.9006921    452.28302  0.019753801  0.019740617            4 
 1909000   0.93815881   -7.9084267    451.77122  0.019721112   0.01973432            7 
 1910000   0.95370292   -7.9053089    453.25584   0.01977556  0.019728035            4 
 1911000    0.9197066    -7.921472    452.67728  0.019739983   0.01972177            3 
 1912000   0.94990661   -7.9376512     452.9572  0.019741859   0.01971549            3 
 1913000   0.95000242    -7.925417    452.09287  0.019693887  0.019709164            5 
 1914000   0.94671087   -7.9270924    453.09766  0.019727345  0.019702839            2 
 1915000   0.94527675   -7.9419465    452.78551   0.01970346  0.019696547            2 
 1916000   0.96804211   -7.9423485    453.55662  0.019726714  0.019690302            4 
 1917000   0.93795764   -7.9189762    454.42829  0.019754316  0.019684073            3 
 1918000    0.9310291   -7.9337925    454.31341  0.019739025  0.019677833           13 
 1919000    0.9362419   -7.9297714    453.06339  0.019674457  0.019671585           11 
 1920000    0.9523045   -7.9256573    453.54371  0.019685057  0.019665308            3 
 1921000   0.95392563   -7.8993019    455.05054  0.019740176  0.019659088            2 
 1922000   0.93656054   -7.8975335     454.6551   0.01971276  0.019652831            3 
 1923000   0.92833187   -7.9505099    453.98525  0.019673481  0.019646616            4 
 1924000    0.9394755   -7.9818589     453.4513  0.019640129  0.019640375            5 
 1925000   0.95039125   -7.9385128    453.84831  0.019647113  0.019634064            3 
 1926000   0.93513952    -7.908645    454.37519  0.019659709  0.019627786            5 
 1927000   0.95417008   -7.9088747    455.71899  0.019707619  0.019621574            2 
 1928000   0.94358924   -7.8875838    456.15179  0.019716104  0.019615399            3 
 1929000   0.94385913   -7.9015765    456.67424  0.019728453  0.019609232            4 
 1930000   0.94982194   -7.9050787    455.79065   0.01968008  0.019603111            4 
 1931000   0.93354534   -7.9343363    455.85723  0.019672761  0.019597006           14 
 1932000   0.94583437   -7.8999496    455.08203  0.019629142  0.019590825            3 
 1933000   0.94602473   -7.8922369    456.53465  0.019681611  0.019584717            9 
 1934000   0.95466174   -7.9353735    455.16998  0.019612633  0.019578563            4 
 1935000   0.93086364   -7.9064172    455.80558   0.01962987  0.019572418            5 
 1936000   0.95724613   -7.9705532    455.40422  0.019602454   0.01956623            9 
 1937000   0.94815534   -7.9749186    455.27773  0.019586892  0.019560041            4 
 1938000   0.93760226   -7.9892865    454.94852   0.01956263  0.019553799            8 
 1939000   0.94920649   -7.9559285    456.69817  0.019627736  0.019547598            2 
 1940000   0.93073492   -7.9483386    456.90465  0.019626489  0.019541378            5 
 1941000    0.9352151   -7.9416481    457.13826  0.019626406  0.019535217            4 
 1942000   0.92470896   -7.9195517    456.54492  0.019590839  0.019529055            4 
 1943000   0.94888943   -7.9724576    455.83212  0.019550185  0.019522916            5 
 1944000   0.93489926   -7.9588811    455.95836   0.01954554  0.019516691            5 
 1945000    0.9421552   -7.9078631    457.13152  0.019585755  0.019510484            2 
 1946000   0.93370915   -7.9312113    457.46653  0.019590036  0.019504303            4 
 1947000    0.9498217   -7.9373627    456.33672  0.019531618  0.019497989            1 
 1948000   0.92400962   -7.9395093    456.90331   0.01954583  0.019491753            3 
 1949000   0.92934214   -7.9429616    457.11603  0.019544896   0.01948557            5 
 1950000   0.96601073   -7.9242686    457.90945   0.01956878  0.019479391            3 
 1951000   0.94162493   -7.9782019    455.76941  0.019467342  0.019473177            2 
 1952000   0.94434008    -7.948177    456.70114  0.019497146  0.019466926            4 
 1953000   0.93780607   -7.9676604    456.42575  0.019475412  0.019460673            2 
 1954000    0.9378785   -7.9283959    458.44216   0.01955144   0.01945443            6 
 1955000   0.91125299   -7.9216047    456.36266  0.019452799    0.0194482            3 
 1956000   0.93388299   -7.9399944    457.92857  0.019509568  0.019441926            2 
 1957000   0.94134074   -7.9400763    457.30571  0.019473076  0.019435678            5 
 1958000   0.93138106   -7.9916227    456.08267  0.019411077  0.019429415            3 
 1959000   0.92936112   -7.9605285    458.26972  0.019494203  0.019423135            7 
 1960000   0.93578357   -7.8950216     458.3125  0.019486076  0.019416837            5 
 1961000   0.95227195   -7.9297133     458.1104   0.01946755  0.019410566            2 
 1962000   0.92940411   -7.9442566    457.94758  0.019450713  0.019404325            5 
 1963000    0.9327617    -7.925514    458.60865  0.019468868   0.01939813            3 
 1964000   0.94032394   -7.9880082    457.47538   0.01941087  0.019391879            4 
 1965000   0.93392846   -7.9056467    458.43115  0.019441525  0.019385604            4 
 1966000   0.91317009   -7.9637062    458.23371  0.019423267    0.0193793            9 
 1967000   0.94558356   -7.9628814    457.07253  0.019364198  0.019373068            3 
 1968000    0.9434147   -7.9574644    458.15448  0.019400173  0.019366845            5 
 1969000   0.93452371   -7.9430949    458.68229  0.019412658   0.01936063            2 
 1970000   0.94588508   -7.9516899    458.34234  0.019388424  0.019354373            4 
 1971000   0.94075419   -7.9324533    459.53463  0.019428997  0.019348131            5 
 1972000   0.94492744   -7.9446805    459.82794  0.019431539  0.019341999            6 
 1973000    0.9468938   -7.9244173     459.2805  0.019398568  0.019335873            3 
 1974000    0.9420155   -7.9356454    458.95571   0.01937503  0.019329715            8 
 1975000   0.93458566   -7.9267034    459.36163  0.019382347  0.019323596            5 
 1976000   0.93218287   -7.9343656    460.66836  0.019427647  0.019317427            8 
 1977000   0.92581555   -7.9429892    459.81376  0.019381797  0.019311185            5 
 1978000   0.93080802   -8.0004775    457.48232  0.019273775  0.019304901            5 
 1979000   0.93820544   -8.0016027    458.81894  0.019320319  0.019298626           11 
 1980000   0.92046923   -7.9540149    459.73062  0.019348932  0.019292407            9 
 1981000   0.94450029   -7.9692745    459.60288  0.019333791  0.019286206            3 
 1982000   0.93540958   -7.9875039    460.07373  0.019343833  0.019279934            4 
 1983000   0.93825093   -7.9716871     458.6533  0.019274386  0.019273643            3 
 1984000   0.93196675   -7.9730631    458.07972   0.01924058  0.019267316            1 
 1985000   0.95419426    -8.032808    458.86202  0.019263729  0.019260993            4 
 1986000   0.92003995   -7.9316881    459.42868  0.019277806  0.019254636            8 
 1987000   0.92863684   -7.9511046    459.20685  0.019258801  0.019248295            4 
 1988000   0.93830002   -7.9779545    458.92439  0.019237273  0.019241996            8 
 1989000   0.94029555   -7.9445278    459.34889  0.019245387  0.019235716            8 
 1990000   0.93199857    -7.941154    460.27946  0.019274684  0.019229462            6 
 1991000   0.92311232   -7.9623474     461.2761  0.019306718  0.019223194            3 
 1992000   0.92629036   -7.9916811    459.43803  0.019220132    0.0192169            2 
 1993000   0.93481591   -7.9610576    459.07571  0.019195338  0.019210667            3 
 1994000   0.94642365   -7.9472295    460.51848  0.019246008  0.019204418            3 
 1995000   0.94918755    -7.979121    459.36116  0.019188018  0.019198204            2 
 1996000   0.90759435    -7.942366    460.12271    0.0192102  0.019192018            4 
 1997000   0.90528303   -7.9762746    460.99924  0.019237157  0.019185847            3 
 1998000   0.92696495   -7.9798671    460.62218  0.019211803  0.019179652            6 
 1999000   0.91151424   -7.9903615    460.68991  0.019205016  0.019173422            5 
 2000000   0.94087644   -7.9813272    458.49324  0.019103885  0.019167107            3 
 2001000   0.92963992   -7.9802834    460.81494  0.019191027  0.019160782            4 
 2002000    0.9223005   -7.9695132    461.54625  0.019211882  0.019154501            3 
 2003000   0.93062425   -7.9242297    462.48923  0.019241522  0.019148279            4 
 2004000   0.92133413   -7.9292535    461.52323  0.019191751  0.019142076            5 
 2005000   0.94259764   -7.9680618    461.61607  0.019186038  0.019135833            4 
 2006000   0.95440319    -7.971808    460.85205  0.019144735  0.019129535            5 
 2007000   0.93244222   -7.9443235    461.51709  0.019162809  0.019123323            4 
 2008000   0.92933499   -7.9567816    461.36094  0.019146785  0.019117086            2 
 2009000   0.91560861   -7.9642643    462.04339  0.019165563   0.01911083            3 
 2010000   0.91348697   -7.9384658    462.82016  0.019188232  0.019104636            5 
 2011000   0.92615394    -7.939816      462.541  0.019167122  0.019098389            6 
 2012000   0.95218628    -7.945317    460.94414  0.019091457  0.019092177            1 
 2013000    0.9267197   -7.9725234    461.10579  0.019088665  0.019085963            3 
 2014000   0.93350681   -7.9795196    461.90526  0.019112267  0.019079674            3 
 2015000   0.94169895   -7.9559642    463.31574  0.019161114  0.019073421            4 
 2016000   0.93912743   -7.9352416    462.99939  0.019138533   0.01906724            5 
 2017000   0.93624377    -7.984887    462.44238  0.019106031  0.019061045            6 
 2018000    0.9276725   -7.9978937    462.33469  0.019092116  0.019054812            2 
 2019000   0.93704583   -7.9525414    463.42959  0.019127852  0.019048594            6 
 2020000   0.93962544   -7.9597812    462.89889  0.019096489   0.01904241           10 
 2021000   0.93426502   -7.9634754    462.52863  0.019071773  0.019036242            3 
 2022000   0.92494687    -7.997806    462.22628   0.01904988  0.019030103            3 
 2023000   0.93598231   -7.9774145    462.35471  0.019045753  0.019023906           12 
 2024000   0.93503808   -7.9602319    463.74148   0.01909344  0.019017743            4 
 2025000   0.92422687   -7.9465769     464.2253  0.019103922  0.019011624            4 
 2026000   0.93786534   -7.9371448    464.16461  0.019091996  0.019005515            6 
 2027000   0.91588624   -7.9686898     465.0091  0.019117296  0.018999429            1 
 2028000   0.92934317   -7.9702228    463.50514  0.019046069  0.018993289            9 
 2029000   0.93348907   -7.9797074    463.39389  0.019032113   0.01898713            6 
 2030000   0.93759163    -7.958623    464.49247  0.019067835  0.018980986            5 
 2031000   0.95233522   -7.9928157    464.17908  0.019045588   0.01897482            5 
 2032000   0.93061404   -7.9873162    464.52013  0.019050202  0.018968645            2 
 2033000   0.93016257   -7.9847752    464.86036  0.019054778   0.01896252            3 
 2034000   0.93705643   -8.0047792    463.66431  0.018996408   0.01895631            3 
 2035000    0.9348965   -8.0480789    464.01115  0.019001275  0.018950109            2 
 2036000   0.94322128   -8.0015482    464.00042  0.018991504  0.018943916            5 
 2037000   0.90197348   -8.0095491    464.58898  0.019006258  0.018937776            3 
 2038000   0.92339763   -7.9829919    464.49849  0.018993232  0.018931642            5 
 2039000   0.92132535    -7.995576    464.31385  0.018976371  0.018925473            3 
 2040000   0.93556899   -7.9452511    465.52751  0.019016646  0.018919308            3 
 2041000   0.92136079    -7.966234    465.94146  0.019024231  0.018913215            3 
 2042000   0.89735978   -7.9920324    464.30547   0.01894815  0.018907031            3 
 2043000   0.91433401   -7.9690172    465.52048  0.018988435  0.018900888            5 
 2044000   0.93141713   -7.9722506    466.20676  0.019007125  0.018894822            4 
 2045000    0.9311337   -7.9868602    464.73285  0.018937769  0.018888764            3 
 2046000   0.90127487   -7.9730657    465.12853  0.018944629  0.018882659            3 
 2047000   0.93342116   -7.9871234    467.40601   0.01902809   0.01887657            2 
 2048000   0.92444363   -7.9879478    466.54484  0.018983758    0.0188705            6 
 2049000   0.92079177   -7.9708329    465.98108  0.018951565  0.018864351            3 
 2050000   0.90793985   -7.9604329    466.83468  0.018977019  0.018858305            1 
 2051000   0.90499859   -7.9954451    466.61774  0.018958952  0.018852216            3 
 2052000   0.93141204   -7.9788227    465.08765  0.018887575  0.018846112            3 
 2053000   0.93138667   -8.0060198    466.05406  0.018917603   0.01884004            3 
 2054000   0.93781339   -7.9933246    466.38776  0.018921931  0.018833969            5 
 2055000   0.92221246   -7.9923288    467.03992   0.01893917  0.018827883            2 
 2056000   0.92326916   -7.9988978    465.48127  0.018866783  0.018821789            4 
 2057000   0.91850325   -7.9668663    467.75257  0.018949626   0.01881574            2 
 2058000   0.93270949   -7.9654541    467.38573  0.018925564  0.018809727            2 
 2059000   0.92227884   -7.9302909    467.68721  0.018928574  0.018803772            2 
 2060000    0.9331885   -7.9858831    468.51134  0.018952724  0.018797761            3 
 2061000   0.90342044   -7.9687868    467.75833  0.018913081   0.01879173            7 
 2062000   0.92219491   -7.9606455    468.40496  0.018930042  0.018785702            4 
 2063000   0.93345494    -7.995364    467.09545  0.018867969  0.018779617            6 
 2064000   0.92750174   -8.0551847    466.84486  0.018848711  0.018773519            4 
 2065000   0.91228417   -8.0018532    466.99826  0.018845773  0.018767399            9 
 2066000   0.90960558     -8.01373    466.92989  0.018833894  0.018761348           13 
 2067000   0.93849031   -7.9563403    468.71926  0.018896922  0.018755297            3 
 2068000   0.93160283   -7.9849094    468.08305  0.018862147  0.018749322            4 
 2069000   0.92158531   -7.9793629    469.24622   0.01889988  0.018743298            2 
 2070000   0.92500336   -7.9924735    468.70065  0.018868786  0.018737331            3 
 2071000   0.92371828    -7.997656    468.06963  0.018834284  0.018731335            3 
 2072000   0.92142717   -7.9708499    467.76628  0.018812994  0.018725338            3 
 2073000   0.90634615    -7.990408    468.30122  0.018825423  0.018719303            6 
 2074000    0.9444399   -7.9884519    469.60814  0.018868858  0.018713293            7 
 2075000   0.94392342    -7.972464    468.85792  0.018829635  0.018707329            4 
 2076000    0.9388282   -7.9913451    468.86359  0.018820793    0.0187013            4 
 2077000   0.92424677   -8.0193212    468.11472  0.018781685  0.018695247            3 
 2078000   0.92278521   -8.0252242    468.13391  0.018773416  0.018689159            3 
 2079000   0.91738959   -8.0233862    468.56673  0.018781735  0.018683077            5 
 2080000   0.92156061   -8.0101595    469.64399  0.018815865  0.018676995            8 
 2081000   0.92157566   -7.9809827    469.37694  0.018796129  0.018670969            5 
 2082000   0.93279961   -7.9795137    469.54002  0.018793629  0.018664975            3 
 2083000   0.90912564   -8.0159851    468.28866  0.018734544  0.018658975            2 
 2084000   0.91591938   -7.9716727    470.29289  0.018805698  0.018653016            5 
 2085000    0.9223137   -8.0360857    468.11452  0.018709613  0.018647035            5 
 2086000   0.90711784    -8.012584    469.37746  0.018751097  0.018641013            8 
 2087000   0.93323123    -8.021047    468.18144  0.018694356  0.018634916            4 
 2088000   0.93477595   -8.0216887    468.08932  0.018681726  0.018628796            2 
 2089000    0.9497793   -8.0074208    469.39092  0.018724706  0.018622722            4 
 2090000   0.90609408   -8.0372919    468.65741    0.0186865  0.018616644            3 
 2091000   0.93554779   -8.0068794    468.70851    0.0186796  0.018610559            5 
 2092000   0.92289112    -8.016225    468.14246  0.018648122  0.018604441            3 
 2093000   0.91667856    -8.010105    469.31763  0.018686002  0.018598334            3 
 2094000   0.92096866   -8.0326929    468.49592  0.018644377  0.018592219            3 
 2095000   0.94242164   -8.0009991     469.4887  0.018674968  0.018586089            2 
 2096000   0.89459177   -7.9910901    469.28523  0.018657969   0.01857997            3 
 2097000   0.92275161   -7.9885055    469.22893  0.018646834  0.018573806            3 
 2098000    0.9073022    -8.020802     470.2202   0.01867732  0.018567676            7 
 2099000   0.92173402   -8.0024117    469.16104  0.018626371  0.018561551            2 
 2100000   0.91543189    -7.987264    469.54817  0.018632864  0.018555429            2 
 2101000   0.94067589   -8.0070557    470.41886   0.01865853  0.018549345            3 
 2102000   0.91917735   -7.9996928    469.60199  0.018617269  0.018543267            3 
 2103000   0.92677328   -8.0387643    467.89732  0.018540867  0.018537129            5 
 2104000   0.91802695   -8.0232718    470.05843   0.01861765  0.018530985            6 
 2105000   0.92756211   -8.0048464     471.3988  0.018661869  0.018524878            8 
 2106000   0.92824775   -8.0002065     470.6001  0.018621403  0.018518722            1 
 2107000   0.92217325    -7.985155    471.84054  0.018661626  0.018512653            4 
 2108000    0.9252622   -8.0188036     470.0031  0.018580135  0.018506572            4 
 2109000   0.91012857   -7.9937808    471.16213  0.018617122  0.018500475            4 
 2110000   0.91596813   -7.9977201     471.2083  0.018610122  0.018494449            3 
 2111000   0.91948252   -7.9889095    470.30393  0.018565606  0.018488322            3 
 2112000   0.91272756   -8.0091489    469.81455  0.018537506  0.018482174            4 
 2113000   0.91192305   -8.0643693     470.1241  0.018540941  0.018476009            7 
 2114000   0.92230162    -8.028453    469.85491  0.018521559   0.01846979            4 
 2115000   0.90405306   -8.0244999    470.00678  0.018518786  0.018463563            7 
 2116000   0.92672806   -8.0130953    471.17437  0.018556016  0.018457377            2 
 2117000   0.92621424   -8.0311905    469.19074  0.018469168  0.018451208            3 
 2118000    0.9343385   -8.0138084     470.1145  0.018496793  0.018445071            3 
 2119000   0.90599786   -8.0084562    470.11087  0.018487921   0.01843895            3 
 2120000    0.8909866   -8.0463512    469.81442  0.018467548  0.018432782            2 
 2121000    0.9134093    -8.001951    470.98338  0.018504769  0.018426647            2 
 2122000   0.91936462   -7.9989373    470.56687  0.018479692  0.018420542            4 
 2123000   0.90659503   -8.0104748    471.74058  0.018517058  0.018414393            5 
 2124000   0.90842766   -8.0254958    470.27819  0.018450965  0.018408201            4 
 2125000   0.91385853   -8.0131578     470.5467  0.018452812  0.018402005            4 
 2126000   0.91343114   -8.0451448    470.19325  0.018430278  0.018395762            7 
 2127000   0.91676216   -8.0567327    469.66093  0.018400757  0.018389483            3 
 2128000   0.89967199   -8.0188456    470.23313  0.018414518  0.018383246            5 
 2129000   0.91193404   -8.0265517    472.14001  0.018480508  0.018377041            3 
 2130000   0.90713325   -8.0300955    471.06768  0.018429878  0.018370816            4 
 2131000   0.91794448   -8.0057268    472.00218  0.018457773   0.01836457            3 
 2132000    0.9110017   -8.0211491     471.5161  0.018430117  0.018358381            6 
 2133000   0.91528228    -8.004174    470.26848  0.018372733  0.018352165           10 
 2134000   0.90981645    -8.018949    472.13468  0.018436999  0.018345978           31 
 2135000   0.91152842   -8.0110934    471.69556  0.018411224   0.01833977            6 
 2136000   0.90873496   -8.0397549    471.84424  0.018408405  0.018333572           15 
 2137000   0.91555006   -8.0159381    471.97236  0.018404787  0.018327395            8 
 2138000    0.9129765   -7.9748096    473.59967  0.018459607  0.018321279            6 
 2139000   0.91184593   -8.0165757    472.28304  0.018399682  0.018315157            4 
 2140000   0.92315206   -8.0416372    470.45687  0.018319972  0.018308974           11 
 2141000   0.91183627    -7.995649    471.38301  0.018347462  0.018302777            4 
 2142000   0.88469808   -8.0188993    472.55265  0.018384401   0.01829657            8 
 2143000    0.9222881   -8.0362463    472.22115  0.018362931  0.018290401            3 
 2144000   0.90974607   -8.0374051    470.61996  0.018292131  0.018284152           13 
 2145000   0.91883676   -8.0383389    470.22877  0.018268406   0.01827791            4 
 2146000    0.9216698   -8.0024461    472.22371  0.018337361  0.018271714            3 
 2147000   0.90220684   -8.0528382    471.74466  0.018310226  0.018265542            4 
 2148000   0.89081875   -8.0359648    472.12716  0.018316541  0.018259341            3 
 2149000   0.90273104   -8.0341353    471.24711  0.018273891  0.018253134            3 
 2150000   0.92865953   -8.0344308    471.92801  0.018291783  0.018246913            5 
 2151000   0.90396179   -8.0538679    471.28605  0.018258409  0.018240671            6 
 2152000   0.90112942   -8.0677549      471.897  0.018273583  0.018234424            7 
 2153000   0.88961011   -8.0625329    471.85977  0.018263654  0.018228187            3 
 2154000   0.90757903    -8.065259    471.31737  0.018234191  0.018221984            8 
 2155000   0.90716896   -8.0683255    471.26597  0.018223742  0.018215748           10 
 2156000   0.90979678   -8.0486427    473.65841  0.018307762  0.018209524            5 
 2157000   0.90784003   -8.0742011    471.35041  0.018210107  0.018203329            4 
 2158000    0.9194016   -8.0431537     472.1566  0.018232801  0.018197157            5 
 2159000   0.89259197   -8.0230692    472.09644  0.018222033  0.018190986           10 
 2160000   0.90516994   -8.0648544    472.51483  0.018229739  0.018184828            4 
 2161000   0.89443765   -8.0402718    472.81728  0.018232966  0.018178671            3 
 2162000    0.8938764   -8.0164137     473.9514  0.018268247  0.018172527            5 
 2163000   0.91058041   -8.0301881    473.32506   0.01823567  0.018166391            5 
 2164000     0.900945   -8.0457545    474.05585  0.018255386  0.018160248            8 
 2165000   0.89153716   -8.0114395    474.47763  0.018263188  0.018154093            4 
 2166000   0.91869267   -8.0736376    473.62171  0.018221826  0.018147897            7 
 2167000   0.90370693   -8.0656993    474.93771  0.018264025  0.018141681            6 
 2168000   0.91645365   -8.0498401     472.9953  0.018180939  0.018135477            6 
 2169000   0.89922139   -8.0291715    473.41078  0.018188519  0.018129328            7 
 2170000   0.91242868   -8.0642858    474.51198  0.018222426  0.018123164            6 
 2171000   0.89987669    -8.029389    473.08368  0.018159208  0.018117019            3 
 2172000   0.92110674   -8.0547795    472.97812  0.018146797  0.018110871            7 
 2173000   0.92064798    -8.042289    473.11497  0.018143694  0.018104693           20 
 2174000   0.89430175   -8.0551178    473.66819  0.018156554  0.018098535            8 
 2175000   0.91767915   -8.0559686    472.96118  0.018121118  0.018092323            1 
 2176000   0.91127105   -8.0231724    474.37033  0.018166756  0.018086141            3 
 2177000   0.89882304    -8.013739     473.3492  0.018119323  0.018079989            6 
 2178000   0.90205792   -8.0375863    473.85015  0.018130171  0.018073788           12 
 2179000   0.91659463   -8.0091874    474.34334  0.018140712  0.018067664            6 
 2180000   0.90448637   -8.0559059    474.52388  0.018139292  0.018061529            6 
 2181000   0.89121563   -8.0039973    475.24675  0.018158595  0.018055381            2 
 2182000   0.91640538   -8.0674805    473.33843  0.018077392  0.018049226           11 
 2183000   0.92527482   -8.0813528    473.78457  0.018086142     0.018043            3 
 2184000   0.90667571   -8.0627462    473.96179  0.018084622  0.018036766            5 
 2185000   0.89671859   -8.0545945    473.51955  0.018059479  0.018030544            7 
 2186000   0.91276228   -8.0708732    472.57405  0.018015174  0.018024328            3 
 2187000   0.91214235   -8.0463594    475.13406  0.018104483  0.018018107            6 
 2188000    0.9079355   -8.0606193    473.92735  0.018050249  0.018011908            3 
 2189000   0.91630497   -8.0616178    473.66956   0.01803219  0.018005653            5 
 2190000   0.90988129   -8.0689166    474.40133  0.018051801  0.017999413            9 
 2191000     0.892909   -8.0127988    475.20523  0.018074138  0.017993215            4 
 2192000   0.89730897   -8.0461612    474.03218  0.018021296   0.01798707            5 
 2193000   0.89908104   -8.0419136    473.82201  0.018005092  0.017980842            4 
 2194000   0.89234921   -8.0388788    474.17232  0.018010192  0.017974611            3 
 2195000    0.8888284   -8.0867382    473.00794  0.017957781  0.017968331            4 
 2196000    0.8780829   -8.0462367    473.79913  0.017979627  0.017962077           12 
 2197000   0.91746292   -8.0545336    474.02496  0.017980009  0.017955836            6 
 2198000   0.89332414   -8.0710506    473.79163  0.017962982  0.017949585            6 
 2199000   0.91234636    -8.068544    473.05674  0.017926965  0.017943315            5 
 2200000   0.92149684   -8.0517044    474.05161  0.017956501   0.01793703            5 
 2201000   0.89516488   -8.0774618    475.15178  0.017989996  0.017930785            5 
 2202000   0.91775347   -8.0920593    474.05962  0.017940494  0.017924522            4 
 2203000   0.90389765   -8.0905884     473.9827  0.017929441  0.017918234            5 
 2204000   0.90060319   -8.1026502    474.30915  0.017933649  0.017911927            4 
 2205000   0.90844993    -8.055912    474.16405  0.017920032  0.017905653            3 
 2206000    0.9015059   -8.0411885    474.96625  0.017942213  0.017899373            3 
 2207000    0.9095056    -8.073185    474.56637  0.017918984  0.017893133            3 
 2208000   0.88987137   -8.0670084     474.8749  0.017922513  0.017886848            4 
 2209000   0.89314093   -8.0848789    475.35066  0.017932347  0.017880607            3 
 2210000   0.89114709   -8.0616179    475.63218  0.017934849  0.017874388            2 
 2211000   0.86794419   -8.0287769     473.5937  0.017849906  0.017868193            3 
 2212000   0.87490916   -8.0439607    475.77219  0.017923907  0.017861997            3 
 2213000   0.90230386   -8.0402107    476.06085  0.017926677  0.017855835            3 
 2214000   0.90287142   -8.0611636    476.53212  0.017936319  0.017849687            5 
 2215000   0.89509902   -8.0412004    476.33687  0.017920875  0.017843528            4 
 2216000   0.90795085   -8.0336904    476.09535  0.017903706  0.017837372            4 
 2217000   0.87085183   -8.1040395    475.58052  0.017876279  0.017831175            3 
 2218000   0.89207341    -8.059383    475.63458   0.01787025  0.017824973            4 
 2219000   0.89508474   -8.0436439    476.26205  0.017885761  0.017818781            4 
 2220000   0.91485209   -8.0602841     476.4819  0.017885957  0.017812581            4 
 2221000   0.89003032   -8.0790089     475.9742  0.017858855  0.017806374            4 
 2222000   0.90521998   -8.0486361    476.44617  0.017868518  0.017800153            2 
 2223000   0.89635525   -8.0633923    474.95628  0.017804629  0.017793925           18 
 2224000   0.88334356   -8.0440791    476.80027  0.017865717  0.017787765           18 
 2225000   0.88709735    -8.072365    476.79166  0.017857366  0.017781563            6 
 2226000    0.8889086   -8.0629818    475.65828  0.017806914  0.017775348           28 
 2227000   0.91127055   -8.0699757    477.02034  0.017849885   0.01776916            9 
 2228000   0.88022031   -8.0887797    475.62291  0.017789606  0.017762969            9 
 2229000   0.89925163    -8.063893    476.20921  0.017803545  0.017756805            5 
 2230000   0.89199783   -8.0639383    477.58765  0.017847072  0.017750666            4 
 2231000   0.89827972   -8.0415655    478.39599  0.017869266  0.017744554            3 
 2232000   0.86982357   -8.0466112     477.5553  0.017829872  0.017738464            3 
 2233000   0.88551183   -8.0596198    477.70485  0.017827469  0.017732355            8 
 2234000   0.89098709   -8.1108644     477.2011  0.017800697  0.017726264           10 
 2235000   0.90214426   -8.0939452    475.95086  0.017746117  0.017720157            5 
 2236000   0.88349543   -8.0452658    477.33461  0.017789752  0.017714037            6 
 2237000   0.89263608   -8.0544732    476.92222  0.017766436  0.017707917            3 
 2238000   0.86760723    -8.097647    476.53639  0.017744131  0.017701753            5 
 2239000   0.88476954   -8.0883801    477.48388  0.017771471  0.017695599            3 
 2240000   0.89641461   -8.0638924    476.93049   0.01774295  0.017689475            9 
 2241000   0.87977242   -8.0703642    477.57516  0.017759005  0.017683343            6 
 2242000   0.87386013   -8.0878172    476.28704  0.017703206    0.0176772            3 
 2243000   0.88158127   -8.0387624    478.10175  0.017762734  0.017671095            4 
 2244000    0.8913775   -8.0679089    478.18903  0.017758059  0.017664955            1 
 2245000   0.87660004   -8.0768947    478.73898  0.017770563  0.017658821            4 
 2246000   0.89545552   -8.0723549    477.94686  0.017733261  0.017652749            5 
 2247000   0.88440851   -8.0322474    478.89612  0.017760574  0.017646677            9 
 2248000   0.87889548   -8.0969009    476.86459  0.017677365   0.01764057            6 
 2249000   0.90077168   -8.0479849    478.40609  0.017726622  0.017634482            4 
 2250000   0.89532647   -8.0660337    478.30208  0.017714892  0.017628394            3 
 2251000   0.87282137   -8.0887248     478.4545  0.017712665  0.017622328            3 
 2252000   0.89344507   -8.0583711    478.85256  0.017719529  0.017616234            3 
 2253000   0.89332325   -8.0664822    479.24035  0.017726008  0.017610156            3 
 2254000   0.90600647   -8.0965498    477.75961  0.017663399  0.017604057            2 
 2255000   0.88506922   -8.0637839    479.18584  0.017708272  0.017597937            3 
 2256000   0.87031007   -8.0757505    477.97892  0.017655841  0.017591782            3 
 2257000   0.87994819   -8.1175293     478.5691  0.017669809  0.017585569            8 
 2258000   0.89655724   -8.0810025    478.01356  0.017641481  0.017579417            4 
 2259000   0.91338553   -8.0921471    479.46931  0.017687373  0.017573295            6 
 2260000   0.87367336   -8.0625137    479.22353  0.017670484   0.01756717            7 
 2261000   0.88611452   -8.0956242    477.62619  0.017603796  0.017561046            9 
 2262000   0.89882634   -8.0596601    478.81347  0.017639753  0.017554913            2 
 2263000   0.88979782   -8.0583854    479.28299  0.017649248  0.017548827            4 
 2264000   0.88642644    -8.121419    477.15427  0.017563099  0.017542694            2 
 2265000   0.89160912   -8.0769715    478.44975  0.017603008  0.017536598           11 
 2266000   0.87830534   -8.0820479    479.36685  0.017628966  0.017530499            5 
 2267000   0.90741379   -8.1306846    479.25676  0.017617143  0.017524374            7 
 2268000   0.88912702   -8.0960486    480.20879  0.017644356  0.017518291            3 
 2269000   0.86789704   -8.0723561     479.7907  0.017621224  0.017512243            6 
 2270000   0.87825729   -8.0812721    478.60888  0.017570076  0.017506189            8 
 2271000   0.89902465   -8.0640718    480.48143  0.017631052  0.017500126            6 
 2272000   0.90086726   -8.1204637    478.82368  0.017562488  0.017494053           13 
 2273000   0.88780921   -8.0839984    478.71365  0.017550728  0.017487965           10 
 2274000   0.88731903   -8.1095178    479.95822  0.017588619   0.01748189            8 
 2275000    0.8974193     -8.07826    480.18095  0.017589046  0.017475831            6 
 2276000   0.87740649   -8.1276158     479.4558  0.017554767  0.017469756            5 
 2277000   0.87959654    -8.101391    480.62747  0.017589938  0.017463669            4 
 2278000   0.88379765   -8.0923635    480.24931  0.017568383  0.017457617           15 
 2279000   0.89574668   -8.1087427    480.62468    0.0175744  0.017451599            5 
 2280000   0.90018206   -8.0988604    481.60218  0.017602419  0.017445568           14 
 2281000   0.89896962   -8.0913583    480.66791   0.01756057  0.017439562           15 
 2282000   0.89441658   -8.0776219    481.55217  0.017585165  0.017433568            5 
 2283000   0.88717791   -8.0967885    480.71143  0.017546774  0.017427587            5 
 2284000   0.88880682   -8.0868974    481.57581  0.017570629  0.017421556            4 
 2285000    0.8958232   -8.1391982    480.14115  0.017510618  0.017415509            3 
 2286000   0.89517939    -8.135012    479.82767  0.017491531  0.017409455            8 
 2287000   0.88614482   -8.1217128     479.7329  0.017480429  0.017403355            6 
 2288000   0.89270913   -8.0983434    481.43669  0.017534844  0.017397295            4 
 2289000   0.87834383   -8.0887293    482.03127   0.01754883  0.017391198           10 
 2290000   0.89042028   -8.0887847    480.91364  0.017500496  0.017385165            3 
 2291000   0.86254829   -8.1079605    478.78965  0.017415599  0.017379106            5 
 2292000   0.89233632   -8.0907228    480.38455  0.017465988  0.017373086            3 
 2293000   0.89681618   -8.1010341    481.88234  0.017512805  0.017367053           15 
 2294000   0.86885131   -8.1189939    480.36905  0.017450198  0.017360953            6 
 2295000   0.89245311   -8.1010385    480.45244  0.017445622  0.017354872            3 
 2296000   0.88690353   -8.0970762    479.89221   0.01741769  0.017348783            3 
 2297000   0.90253985   -8.0930893    479.38294  0.017391632  0.017342694            9 
 2298000   0.89588736   -8.0879413    480.33247  0.017418497  0.017336597            4 
 2299000   0.87095034   -8.0900768    480.77884    0.0174271  0.017330542            1 
 2300000   0.89887633   -8.0977052    481.25385  0.017436734   0.01732449            6 
 2301000   0.88841426   -8.0646188    480.80551  0.017412919   0.01731843            6 
 2302000   0.87765725   -8.1116468    480.41101  0.017391073  0.017312319            6 
 2303000   0.87201828   -8.0938929    480.58448  0.017389799  0.017306222           12 
 2304000   0.87317281   -8.0950321     481.3173  0.017408757  0.017300099            5 
 2305000   0.88058966   -8.1250738    479.54511  0.017337134  0.017293969           14 
 2306000   0.88713566   -8.1526919    480.11086   0.01735006  0.017287844            8 
 2307000   0.89098484    -8.097612    481.78092  0.017402865    0.0172817            5 
 2308000   0.87360742   -8.0862799     480.5308  0.017350188  0.017275582            4 
 2309000   0.86591548   -8.1031005    480.43137  0.017339085   0.01726947            3 
 2310000   0.89365587   -8.1249799    481.16756  0.017358137   0.01726331            2 
 2311000   0.87319666   -8.1191105    478.90989  0.017269216  0.017257165            4 
 2312000   0.90139817   -8.0948879    480.58095  0.017321978  0.017251027            7 
 2313000   0.86961123   -8.0964312    482.14726   0.01737092  0.017244958            4 
 2314000   0.89308046   -8.1069515    481.22349  0.017330146  0.017238899            6 
 2315000   0.89401471   -8.0860328    481.08241  0.017317581  0.017232819            4 
 2316000   0.87599733   -8.1158163    481.74916  0.017334095  0.017226738            6 
 2317000   0.88149629    -8.111382    482.70344  0.017360935  0.017220685            2 
 2318000   0.89415669   -8.1289728    481.85249  0.017322853  0.017214618            8 
 2319000   0.88483098   -8.1171336    481.58273  0.017305689  0.017208486            8 
 2320000   0.87147031   -8.1527065    481.59307  0.017298602  0.017202368            5 
 2321000   0.87840446   -8.1222257    481.92845   0.01730319  0.017196233           11 
 2322000   0.88855131   -8.1021826    482.25501  0.017307458  0.017190122            6 
 2323000   0.86919442   -8.1184866    481.42741  0.017270319  0.017184078           18 
 2324000   0.88578661   -8.1288826    481.47936  0.017264751  0.017177991           14 
 2325000   0.88592126   -8.1051495    481.69819  0.017265168  0.017171901            7 
 2326000   0.86773298   -8.1119997    481.76341  0.017260082  0.017165845           11 
 2327000   0.89998981   -8.1122255    481.47172  0.017242219   0.01715977            4 
 2328000   0.89545925   -8.0755079    483.01658  0.017290112  0.017153731            6 
 2329000     0.873604   -8.1171847    481.23069  0.017218788  0.017147695            7 
 2330000   0.87491665   -8.1131342    482.07558  0.017241616  0.017141675            3 
 2331000    0.8790841   -8.0943168    482.94796  0.017265407  0.017135663           17 
 2332000   0.86747922   -8.0980437    483.43579  0.017275436  0.017129706           10 
 2333000   0.86131041   -8.1221639     482.3764   0.01723019  0.017123722            4 
 2334000   0.86256252   -8.1266722    482.04281  0.017210897  0.017117684           10 
 2335000   0.87764188   -8.1041978    483.68951  0.017262295  0.017111657            6 
 2336000   0.87484978   -8.1298231    482.98524  0.017229782  0.017105625            6 
 2337000   0.88283488   -8.1406975    483.35606  0.017235632  0.017099606            5 
 2338000   0.89206535   -8.1393855    482.88354  0.017211418  0.017093516            9 
 2339000   0.88538088   -8.1489274    482.03354  0.017173776  0.017087427            5 
 2340000   0.87495262   -8.1450715    481.63392  0.017152205  0.017081318            4 
 2341000   0.88881414   -8.1208982    483.49762  0.017211221  0.017075257            4 
 2342000   0.89051947   -8.1208549    482.93678  0.017183916  0.017069209            3 
 2343000   0.86408102   -8.0927708    483.39987  0.017193053  0.017063209            6 
 2344000   0.85724113   -8.1202685    482.78865  0.017163988   0.01705715            5 
 2345000   0.86969949   -8.1173384    484.71239  0.017225032  0.017051111            5 
 2346000   0.88642255   -8.1381887    482.37623  0.017134706  0.017045036            6 
 2347000   0.88782748   -8.1498304    482.21276  0.017121601  0.017038949            4 
 2348000    0.8658985    -8.125431    482.26872  0.017116295  0.017032845            5 
 2349000   0.87230428   -8.1341608     482.7263  0.017125241  0.017026742            6 
 2350000   0.87463122     -8.14462    482.69064  0.017116689  0.017020646            7 
 2351000   0.88110758   -8.1540541    481.68199  0.017073656  0.017014521            5 
 2352000   0.87043821   -8.1442874    483.98488   0.01714799  0.017008402            6 
 2353000    0.8810401   -8.0996188    483.19179  0.017112615  0.017002335            8 
 2354000   0.86425664   -8.1082781    483.09902  0.017102061  0.016996281            5 
 2355000   0.87716517   -8.1211854    483.43947  0.017106846  0.016990262            7 
 2356000   0.86884217   -8.1234438     484.2783  0.017129255  0.016984243            5 
 2357000   0.88913885   -8.1586304    483.67309   0.01710059  0.016978185            7 
 2358000   0.88680309   -8.1109537     482.9373  0.017067334  0.016972136            9 
 2359000   0.84732165   -8.1530779     482.8763  0.017057945   0.01696607            6 
 2360000   0.87273107   -8.1487354    482.35341  0.017032253  0.016959968            5 
 2361000   0.89037668   -8.1641612    481.27179  0.016986862  0.016953867            5 
 2362000   0.87876972   -8.1250194    482.09499  0.017008714  0.016947728            8 
 2363000   0.86515565   -8.1204907    483.55487     0.017053  0.016941606            3 
 2364000   0.85913904   -8.1612373    482.70423    0.0170158  0.016935536            6 
 2365000   0.86778849   -8.1025115    483.54969  0.017038396  0.016929457            5 
 2366000   0.86880927   -8.1015129    483.36156  0.017024569  0.016923417            5 
 2367000   0.86337085    -8.137867    483.31457  0.017015722  0.016917337            3 
 2368000   0.86605489   -8.1386901    483.70138  0.017022149  0.016911254            3 
 2369000   0.85374957   -8.0800764    483.52005  0.017008585  0.016905179            9 
 2370000   0.87476334   -8.1529802    483.31583  0.016994228  0.016899091            5 
 2371000   0.86678534   -8.1381767    482.76345  0.016967646   0.01689301            4 
 2372000   0.88983547   -8.1574392    484.13982  0.017008847   0.01688696            4 
 2373000   0.85612533    -8.147118    483.68454  0.016985691  0.016880886            3 
 2374000     0.874805    -8.124212    484.45024  0.017005414  0.016874853            5 
 2375000    0.8810993    -8.171298    483.19703  0.016954282  0.016868835            4 
 2376000   0.85320525   -8.1282235    484.76195  0.017002032  0.016862801            7 
 2377000   0.90804078   -8.1608042    483.66565  0.016956446  0.016856741            3 
 2378000   0.87332229   -8.1708171    483.54901  0.016945227  0.016850659            5 
 2379000   0.86791108   -8.2022373    483.38876  0.016932491  0.016844596           15 
 2380000   0.87265603   -8.1769735     483.9727  0.016945823  0.016838498            7 
 2381000   0.88168933   -8.1518827    484.73292  0.016965313   0.01683249            3 
 2382000   0.88229674   -8.1435873    484.52925  0.016951065  0.016826484           11 
 2383000   0.89079174   -8.1721218    483.96446  0.016924201  0.016820425            9 
 2384000   0.89864085   -8.1645291    483.20261  0.016890472  0.016814392            5 
 2385000   0.88481386   -8.1794247    484.09379  0.016914528  0.016808354            6 
 2386000   0.86523467   -8.1178028    484.93418   0.01693679  0.016802326            4 
 2387000   0.86511533   -8.1392358    485.17266  0.016938021   0.01679634            8 
 2388000   0.88378591   -8.1381692     484.3261  0.016901385  0.016790346           12 
 2389000   0.87183496   -8.1461347    483.90952   0.01687978  0.016784337            5 
 2390000   0.86585355   -8.1486471    485.23875  0.016919064  0.016778344            9 
 2391000    0.8664298   -8.1593656    485.89282  0.016934784   0.01677233            4 
 2392000   0.87514004   -8.1243293    484.91007  0.016893467  0.016766291            5 
 2393000   0.89316977   -8.1513223    484.40486  0.016868814  0.016760268            4 
 2394000    0.8984545   -8.1480001    485.22191  0.016890209  0.016754247           11 
 2395000   0.86304959   -8.1705541    484.64497  0.016863082  0.016748236            9 
 2396000   0.86594222   -8.1366362    484.97785  0.016867621  0.016742231            6 
 2397000   0.87353152   -8.1493498    484.09608  0.016829929  0.016736181            5 
 2398000   0.86791472   -8.1406849     485.4106  0.016868592  0.016730119            2 
 2399000   0.89173002   -8.1525144     484.7927  0.016840097  0.016724044            7 
 2400000    0.8608513   -8.1651393      484.779  0.016832604  0.016717965            7 
 2401000   0.86449768   -8.1385537    485.38898  0.016846765  0.016711917            2 
 2402000   0.87247875    -8.174673    484.32976  0.016803003  0.016705871            8 
 2403000   0.86887454   -8.1428175    484.24694  0.016793138  0.016699789            9 
 2404000   0.90046336   -8.1242186    485.39424  0.016825923  0.016693736            7 
 2405000   0.87507834   -8.1600701    484.06635  0.016772916  0.016687665            7 
 2406000   0.88676205   -8.1218824    483.82035  0.016757424  0.016681587            7 
 2407000   0.87199077   -8.1815437    484.15532  0.016762059  0.016675528            7 
 2408000   0.86190712   -8.1842774    484.31729  0.016760704  0.016669419           10 
 2409000   0.84410516   -8.1337741    484.22071  0.016750405  0.016663363            4 
 2410000   0.86443506   -8.1436301    484.95315  0.016768781  0.016657307            3 
 2411000   0.87067112   -8.1407142    484.38493  0.016742186  0.016651252           10 
 2412000   0.86946912   -8.1381801     484.7156  0.016746669  0.016645192            4 
 2413000   0.86647257   -8.1683828    483.89146  0.016711267  0.016639134            2 
 2414000   0.86797666   -8.1854459    484.07221  0.016710584   0.01663305            4 
 2415000   0.88002455   -8.1874144    483.94285  0.016699201  0.016626991            5 
 2416000   0.86217456    -8.147901     485.2542  0.016737521  0.016620901           10 
 2417000   0.85571109    -8.148244    483.74415  0.016678532  0.016614847            9 
 2418000   0.87295839   -8.1424384    484.27086  0.016689787   0.01660875            2 
 2419000   0.84900529   -8.1572211    484.74221  0.016699125  0.016602647            5 
 2420000   0.88413498   -8.1741837    484.14537  0.016671673  0.016596526            3 
 2421000   0.85720206   -8.1835682    483.46153  0.016641248  0.016590414            7 
 2422000   0.88526622    -8.171475    483.77883  0.016645294  0.016584252            5 
 2423000   0.87323136    -8.177174     483.4706  0.016627824  0.016578109            6 
 2424000   0.86780961   -8.1701394    483.48051  0.016621305  0.016571941            5 
 2425000   0.86918466   -8.1772627    482.89591  0.016594361  0.016565794            4 
 2426000   0.86487432   -8.1729205    483.92401  0.016622836  0.016559661            7 
 2427000   0.87336997   -8.1553359    485.00627  0.016653147   0.01655352           10 
 2428000   0.86565545   -8.1692732    484.16323  0.016617354  0.016547385            9 
 2429000   0.84452443   -8.1483148      485.253    0.0166479   0.01654125            3 
 2430000   0.86063052   -8.1681578    484.27543  0.016607525  0.016535134            5 
 2431000    0.8603747   -8.1637679    484.29244  0.016601277  0.016529031            6 
 2432000   0.86156229   -8.1495763    484.03316  0.016585566  0.016522924            5 
 2433000    0.8497827   -8.1749059     484.4991  0.016594708   0.01651681            6 
 2434000   0.85972534   -8.1920274    484.15999   0.01657628  0.016510692            9 
 2435000   0.87280607   -8.1888039    484.83555  0.016592592  0.016504572            3 
 2436000   0.85518315   -8.1914405    485.24033  0.016599628   0.01649849            3 
 2437000   0.85285479   -8.1652242    485.29482   0.01659468    0.0164924            6 
 2438000    0.8680186   -8.1807534    483.81636  0.016537338  0.016486294            4 
 2439000   0.85026328   -8.1984607    482.55927  0.016487606  0.016480168           12 
 2440000   0.85070127   -8.1447737    485.36798  0.016576775  0.016474062            7 
 2441000   0.86974948   -8.1903014    484.15714  0.016528648  0.016467965            4 
 2442000   0.87794886   -8.1863546    483.93452  0.016514282  0.016461873            4 
 2443000   0.83564866   -8.1543502    484.20924  0.016516893    0.0164558            4 
 2444000   0.85869852   -8.1573549     484.3583  0.016515217   0.01644975            5 
 2445000   0.85617342   -8.1482994    485.28665  0.016540104  0.016443689            8 
 2446000   0.85214643   -8.2048544    484.60376  0.016510076  0.016437622            3 
 2447000   0.86668349   -8.1569053    485.52772  0.016534795  0.016431574            5 
 2448000   0.83905252   -8.1762967     485.8446  0.016538828  0.016425556            8 
 2449000   0.85145977   -8.1501519    486.03162  0.016538438  0.016419529            7 
 2450000   0.85025321   -8.1557808      485.801  0.016523844  0.016413484            5 
 2451000   0.86627062    -8.160766    485.71912  0.016514318  0.016407464            7 
 2452000   0.84869555   -8.1310987    486.52129  0.016534845  0.016401461            4 
 2453000   0.86913673   -8.1379459     487.7492  0.016569819   0.01639548            4 
 2454000   0.85894851   -8.1583991    486.06201  0.016505773  0.016389502            3 
 2455000    0.8576752    -8.148521    487.14769  0.016535902  0.016383521            8 
 2456000   0.86313251   -8.1687432    485.39358  0.016469652  0.016377483            6 
 2457000   0.87631674   -8.1712436    485.51008    0.0164669  0.016371391            3 
 2458000   0.86550484   -8.2123527    485.28779  0.016452664  0.016365302            6 
 2459000   0.84031406   -8.2188563    484.93038  0.016433861  0.016359209            7 
 2460000   0.85392948   -8.1872256    484.88128  0.016425518  0.016353079            4 
 2461000   0.86288595    -8.201753    484.91184  0.016419878  0.016347025            2 
 2462000   0.85240875   -8.2197666    485.18067  0.016422308  0.016340915            7 
 2463000   0.85813998   -8.1722741    486.81421   0.01647091   0.01633484            4 
 2464000   0.86367029   -8.1963653    487.12779  0.016474831  0.016328807            6 
 2465000   0.86208468   -8.1793213    486.48179  0.016446308  0.016322801           12 
 2466000   0.85496038   -8.2138872    485.27882  0.016398987  0.016316802            6 
 2467000   0.86123504   -8.1933592    485.95116  0.016415051  0.016310757            4 
 2468000   0.84987102      -8.1769    485.56529   0.01639537  0.016304716            6 
 2469000   0.84085356   -8.1760757    486.60066  0.016423675  0.016298723            3 
 2470000   0.86018559   -8.1738486    486.31894  0.016407522  0.016292731            8 
 2471000   0.84579059   -8.1988142    486.32805  0.016401189  0.016286725           11 
 2472000   0.83822498   -8.2090247    486.51865  0.016400979  0.016280709            6 
 2473000   0.84522811   -8.2146579    485.72768  0.016367694  0.016274671            3 
 2474000   0.86487309   -8.1923862    485.97291  0.016369338  0.016268651            6 
 2475000   0.87487389   -8.2095219    486.80332  0.016390684  0.016262619            6 
 2476000   0.85008214   -8.2121711    485.88899  0.016353291  0.016256561            7 
 2477000   0.85966182   -8.1965283    486.33057  0.016361545   0.01625056            5 
 2478000   0.86495086   -8.1771976     487.0045  0.016377606  0.016244557            6 
 2479000    0.8660231   -8.1969945    486.51907  0.016354682  0.016238553            5 
 2480000   0.86380768   -8.1971989    486.73733  0.016355421  0.016232533            7 
 2481000   0.86129679   -8.2033296    486.25285  0.016332556  0.016226497           10 
 2482000   0.85483524   -8.2267065    485.76026  0.016309437   0.01622049            8 
 2483000   0.84830971   -8.1922485     487.7044  0.016368116  0.016214494            9 
 2484000   0.87035326   -8.1936739    486.52784  0.016322056   0.01620851            7 
 2485000   0.86312734   -8.2186707    484.98911  0.016263887  0.016202489            2 
 2486000   0.85455101   -8.1993064     487.9643  0.016357076  0.016196491           11 
 2487000   0.86355459     -8.20622    487.08656  0.016321088  0.016190483            5 
 2488000   0.84784522   -8.1955495    487.72675  0.016335971  0.016184491            2 
 2489000   0.86996436   -8.2167155    486.07616  0.016274145  0.016178479            5 
 2490000   0.85029545   -8.1848402      487.593  0.016318373  0.016172483            2 
 2491000   0.84861629   -8.2250877    487.30213  0.016302092  0.016166475            1 
 2492000   0.86887747   -8.1645218    487.62565  0.016306369  0.016160507            6 
 2493000   0.86329863   -8.1959502     486.1072  0.016249071  0.016154547           11 
 2494000    0.8291474   -8.2052776    487.10655  0.016275947  0.016148563           15 
 2495000   0.84299025   -8.2088508    486.14043  0.016237155  0.016142576           13 
 2496000   0.84092744   -8.1852252    487.12685  0.016263583  0.016136587           21 
 2497000   0.86137838   -8.1949842     489.0049  0.016319747  0.016130646            6 
 2498000   0.84653204   -8.2236318    487.16426   0.01625181  0.016124677            8 
 2499000   0.87304841    -8.173454    487.60734  0.016260082  0.016118697            5 
 2500000   0.85151269   -8.1954001    488.10062  0.016270021  0.016112721            5 
 2501000   0.86520971   -8.1896157    488.37351  0.016272608  0.016106742            4 
 2502000    0.8424837   -8.2211355     487.6825  0.016243089  0.016100749            7 
 2503000   0.84301887   -8.2224496    486.57038  0.016199573  0.016094748            6 
 2504000    0.8507437   -8.2212008    487.02589  0.016208263  0.016088743            3 
 2505000   0.84355817   -8.2524088    486.06749   0.01616991  0.016082705            6 
 2506000   0.85539699   -8.2305409    485.87154  0.016156941  0.016076665            7 
 2507000   0.83987103   -8.2211516    487.46529  0.016203473  0.016070666            7 
 2508000   0.84809074   -8.2243296    486.80404  0.016175041  0.016064664            8 
 2509000   0.84451486    -8.175889    488.06123  0.016210351  0.016058696            7 
 2510000   0.85404066   -8.1819994    487.07343  0.016171097  0.016052742           11 
 2511000   0.86262426   -8.1736276    488.04045  0.016196749  0.016046792            6 
 2512000    0.8629552   -8.1796213    488.35541   0.01620075  0.016040868            7 
 2513000   0.83847166   -8.2038606    488.31736  0.016193041  0.016034934            3 
 2514000   0.84813286   -8.1762559     488.4983  0.016192598  0.016029023            2 
 2515000   0.86356607   -8.1667054    488.57122  0.016188576  0.016023106            3 
 2516000   0.86339976   -8.1844653    487.65986  0.016151956  0.016017222            6 
 2517000   0.85675237   -8.1882459    488.61733  0.016177239  0.016011326           11 
 2518000   0.83861558   -8.1854379      488.875  0.016179342  0.016005468           10 
 2519000   0.85050912    -8.177156    490.14147  0.016214816  0.015999594            4 
 2520000    0.8520925   -8.1892037    487.81914  0.016131585  0.015993716            7 
 2521000   0.83801071    -8.183358    489.42392  0.016178233  0.015987821            7 
 2522000   0.85387275    -8.183977    488.55786  0.016143202  0.015981913            8 
 2523000   0.85744109   -8.2026131    488.53576  0.016136073  0.015975994            7 
 2524000     0.826666   -8.2254702    489.23264  0.016152689  0.015970079            9 
 2525000    0.8355642   -8.2263945    486.90063  0.016069328  0.015964125            7 
 2526000   0.84729644   -8.2108103    488.49766  0.016115652  0.015958176           13 
 2527000   0.86368375   -8.1897206    488.80933  0.016119553  0.015952248            7 
 2528000   0.86128891   -8.2514397    487.48816  0.016069626  0.015946318           13 
 2529000   0.86946624   -8.2496756    488.15671  0.016085301  0.015940387           24 
 2530000   0.82490531   -8.2136866    490.15782  0.016144856  0.015934481           27 
 2531000   0.84158139   -8.1997986    489.46501  0.016115666  0.015928593           27 
 2532000   0.85667382   -8.2097082    489.54059  0.016111789  0.015922709           37 
 2533000   0.83320723   -8.2248757    488.39985  0.016067899  0.015916803           35 
 2534000   0.83219066   -8.2081201    490.42859  0.016128275  0.015910951           27 
 2535000   0.84053194   -8.2237243    489.31176  0.016085199  0.015905092           27 
 2536000   0.83105266   -8.2332824    489.43532  0.016082917  0.015899225           30 
 2537000   0.83465996   -8.2061254    489.76676  0.016087464  0.015893331           12 
 2538000   0.84236964      -8.1948     489.9799  0.016088124  0.015887458           37 
 2539000   0.82460489   -8.2134511    490.13066  0.016086736  0.015881618           35 
 2540000   0.83209404   -8.2384156    488.28839   0.01601996  0.015875754           13 
 2541000   0.86625008   -8.2338055    488.64477  0.016025343  0.015869872            5 
 2542000   0.84042864   -8.2390287    489.70617  0.016053835  0.015863986           10 
 2543000   0.82807557   -8.2346857    488.13511  0.015996038  0.015858114           21 
 2544000   0.86313996   -8.2099438    489.89863  0.016047518  0.015852233            5 
 2545000    0.8690051   -8.2230439    491.07434   0.01607971  0.015846356            5 
 2546000   0.84100344   -8.2429667    488.83349  0.016000049  0.015840467            5 
 2547000    0.8638811   -8.2307414    490.09209  0.016034946  0.015834569            9 
 2548000   0.85177396   -8.2178987    490.50823  0.016042263  0.015828702            5 
 2549000   0.85424594   -8.2116443    491.09884  0.016055278  0.015822854            5 
 2550000   0.84716833   -8.1930115    490.23441  0.016020732  0.015817035            5 
 2551000   0.83744062   -8.2212224    490.09244  0.016009814  0.015811209            4 
 2552000   0.85630505   -8.1810803    490.75334  0.016025122  0.015805389            4 
 2553000   0.84674125    -8.214935    488.80159  0.015955137  0.015799567            3 
 2554000   0.84955923   -8.2224074    490.32414  0.015998569  0.015793732            7 
 2555000   0.84174608   -8.2343386    489.20109  0.015955678  0.015787887           10 
 2556000   0.83146511   -8.2112956    489.80312  0.015969064   0.01578203            5 
 2557000   0.84939843   -8.2243319    491.53761  0.016019346  0.015776199            3 
 2558000    0.8459515    -8.271268      488.724  0.015921423  0.015770377            5 
 2559000   0.84624548   -8.2147364    491.78112  0.016014756  0.015764555            3 
 2560000   0.83655376   -8.2482207    489.33402  0.015928842  0.015758738            5 
 2561000   0.83381162   -8.2008596    490.27267  0.015953165  0.015752919            4 
 2562000   0.85521317   -8.2203929    489.78138  0.015930958   0.01574711            4 
 2563000   0.84823807   -8.2076817    489.99601  0.015931721  0.015741264            4 
 2564000   0.82904069   -8.2262098     490.6503  0.015946772  0.015735438            9 
 2565000   0.82304506    -8.201821     492.9012  0.016013684  0.015729634            8 
 2566000   0.84172291   -8.2175565    490.35495  0.015924752  0.015723846            9 
 2567000   0.82707502    -8.202829    490.79644   0.01593288  0.015718045           10 
 2568000   0.85220194   -8.2168623    491.01352   0.01593372  0.015712242            7 
 2569000   0.85081013   -8.2217273    489.90581  0.015891586  0.015706441           13 
 2570000   0.83489629   -8.2373483    489.99585  0.015888322  0.015700605            4 
 2571000   0.83022872   -8.2435986    489.58593  0.015868856  0.015694764            5 
 2572000   0.84463983   -8.2444172    490.33844  0.015887067  0.015688934            4 
 2573000   0.85319395   -8.2185392    491.21712  0.015909351  0.015683101            4 
 2574000   0.83174927   -8.2519237    490.28124  0.015872871  0.015677293            4 
 2575000   0.83205816    -8.236868    491.48232  0.015905577  0.015671465            3 
 2576000   0.85036877   -8.2242701    490.52701  0.015868498  0.015665644            7 
 2577000   0.83549201   -8.2108461    490.97641  0.015876873  0.015659838            4 
 2578000   0.84645335   -8.2061422    490.20049  0.015845633  0.015654029            5 
 2579000   0.83268873   -8.2188301     489.1372  0.015805131  0.015648243            8 
 2580000   0.83277958   -8.2048906    490.96649  0.015858091  0.015642446            6 
 2581000   0.83199463   -8.2278745    491.24315  0.015860879  0.015636679            4 
 2582000   0.83143561   -8.2266621     490.5939  0.015833782  0.015630874            3 
 2583000   0.81915307   -8.1722091    492.97727  0.015904545  0.015625062            4 
 2584000   0.82706642   -8.2458244    489.91355  0.015799586  0.015619278            4 
 2585000   0.84865811   -8.1958487    491.04862  0.015830065  0.015613478            7 
 2586000   0.83950238   -8.2141151     492.1678  0.015860009  0.015607704            6 
 2587000   0.82068519   -8.2603348    490.40946  0.015797238  0.015601932            8 
 2588000   0.84254934   -8.2108281    492.93108   0.01587233  0.015596125            4 
 2589000   0.82395181   -8.2453254    490.94083  0.015802138  0.015590338            4 
 2590000   0.83316297   -8.2282605    491.52893  0.015814959  0.015584542            9 
 2591000   0.84431517   -8.2475838    490.41276  0.015772956  0.015578739            4 
 2592000   0.84059961   -8.2162586    489.88408  0.015749874  0.015572944            6 
 2593000   0.84333787   -8.2287463    491.22199  0.015786797  0.015567172            5 
 2594000   0.84385213   -8.2240921    491.23685  0.015781189  0.015561377            7 
 2595000   0.82699475   -8.2198369    490.97866  0.015766816  0.015555597            5 
 2596000   0.82600015   -8.2454228    490.40253  0.015742249  0.015549791            3 
 2597000   0.84319071   -8.2477698    491.02791  0.015756254  0.015544026            8 
 2598000    0.8319927   -8.1966721    491.45807  0.015763987   0.01553826            9 
 2599000   0.84137722    -8.219125    491.78387  0.015768368  0.015532493            2 
 2600000   0.84480946   -8.2307157    490.96085  0.015735925  0.015526732            3 
 2601000   0.84301266   -8.2331916    490.97553  0.015730345  0.015520959           11 
 2602000   0.83918044   -8.2594861     489.5104  0.015677376  0.015515156            5 
 2603000   0.83879467   -8.2462035    489.82207  0.015681332  0.015509322            9 
 2604000   0.84200063   -8.2145834    491.54067  0.015730308    0.0155035            2 
 2605000   0.83575393   -8.2610084    490.70408  0.015697507  0.015497709           14 
 2606000   0.83420569   -8.2330027    490.48373  0.015684438    0.0154919            4 
 2607000   0.81516635   -8.2400026    490.62523  0.015682944  0.015486085            6 
 2608000   0.84863332   -8.2735192     490.4235  0.015670485  0.015480286            7 
 2609000   0.84498656   -8.2233301    491.55848  0.015700731  0.015474476            6 
 2610000   0.84633572   -8.2220529    491.41204  0.015690039  0.015468685            9 
 2611000   0.82486097   -8.2423409    490.60083   0.01565814  0.015462904            6 
 2612000   0.84031603   -8.2381774    492.17081  0.015702234  0.015457128           10 
 2613000   0.82884856   -8.2949246    490.07565  0.015629406  0.015451312            7 
 2614000   0.81815345   -8.2321482    492.35503  0.015696092  0.015445568            6 
 2615000   0.84225999   -8.2425027    492.31233   0.01568873  0.015439848            5 
 2616000   0.82514107   -8.2512876    491.65574  0.015661816  0.015434122            5 
 2617000   0.82979289   -8.2523757    491.28327  0.015643971   0.01542839            7 
 2618000    0.8216218    -8.243116    491.50939  0.015645193  0.015422638           14 
 2619000   0.84007567   -8.2427773    491.64462  0.015643522  0.015416895           13 
 2620000   0.82487173   -8.2745719    491.15033   0.01562183  0.015411122            5 
 2621000   0.83324451   -8.2407963    492.01627  0.015643402  0.015405381           10 
 2622000   0.84921659   -8.2681711    491.37734  0.015617129  0.015399622            9 
 2623000   0.85389837   -8.2738913    491.73514  0.015622542  0.015393903            6 
 2624000   0.85243734   -8.2568089    493.13658  0.015661096  0.015388191           22 
 2625000   0.84936829   -8.2465534    492.62945   0.01563903  0.015382479           16 
 2626000   0.83832828   -8.2251049    493.27868  0.015653677  0.015376818            9 
 2627000   0.81264234    -8.253315    492.04859  0.015608698  0.015371144           10 
 2628000   0.83166742   -8.2217428    492.26358  0.015609576  0.015365495            8 
 2629000   0.84565158   -8.2480057    492.25006   0.01560321  0.015359854            9 
 2630000   0.82446785   -8.2553651    493.04072   0.01562233  0.015354203            4 
 2631000   0.83229792   -8.2705087    491.56349  0.015569603  0.015348527            7 
 2632000   0.83257085   -8.2651076    492.25631  0.015585623  0.015342837            5 
 2633000   0.83680206   -8.2744553    492.27646  0.015580341  0.015337134            5 
 2634000    0.8347643     -8.27885    492.72093  0.015588488  0.015331431            8 
 2635000   0.81732651   -8.2939524    491.94451  0.015558017   0.01532572            8 
 2636000   0.83791598   -8.2748303    491.84179  0.015548868  0.015319991            5 
 2637000   0.83813784   -8.2545984    492.65735  0.015568744  0.015314288            5 
 2638000   0.82645582   -8.2586668     493.1329  0.015577865  0.015308603            6 
 2639000   0.83619398   -8.2764208    492.02294  0.015536912   0.01530292            8 
 2640000   0.82275164   -8.2749422    493.26469  0.015570224  0.015297246            9 
 2641000   0.82031069   -8.2714573     492.6139  0.015543793  0.015291591            3 
 2642000   0.82248042   -8.2836577    492.65401  0.015539175  0.015285897            8 
 2643000   0.85561044   -8.2787104     492.3447  0.015523543  0.015280204            5 
 2644000   0.82698905   -8.2647791    492.83267  0.015533052  0.015274519            3 
 2645000    0.8340238   -8.2765669    493.25638  0.015540529  0.015268824            3 
 2646000   0.84702664   -8.2593918    493.49838  0.015542277   0.01526315           15 
 2647000   0.82471444   -8.2676556    493.45294  0.015534975  0.015257497            5 
 2648000   0.83937035    -8.279703    492.70502  0.015505571  0.015251829           18 
 2649000   0.83983282   -8.2453407    493.29837  0.015518383  0.015246146            8 
 2650000   0.82496062   -8.2585299    492.83841  0.015498063  0.015240472            9 
 2651000   0.82471392   -8.2605698    492.78293  0.015490473  0.015234794            9 
 2652000   0.85319666   -8.2783859    492.92753  0.015489176  0.015229117            9 
 2653000    0.8247453   -8.2847658    493.47614   0.01550057  0.015223446            9 
 2654000   0.79750139   -8.2620918    493.08753  0.015482527  0.015217779           11 
 2655000   0.81461499   -8.2922563     491.9479  0.015440926  0.015212122            5 
 2656000   0.81192658   -8.2592945    493.12913  0.015472174  0.015206459           13 
 2657000   0.82496845   -8.2868969    493.40719  0.015475072  0.015200807           15 
 2658000   0.81488509   -8.2955374     492.5026  0.015440889   0.01519514           17 
 2659000   0.80840196   -8.2666738    494.58395  0.015500312  0.015189466           14 
 2660000   0.81866916   -8.2553685    494.43007  0.015489664  0.015183828           31 
 2661000   0.84375238   -8.2892017    493.66462  0.015459872  0.015178218            9 
 2662000    0.8195685   -8.2903943    493.16277  0.015438354  0.015172606           26 
 2663000   0.82608112   -8.2719604    493.58818  0.015445869  0.015166976           26 
 2664000    0.8130469   -8.2809307    493.35945  0.015432916  0.015161337           23 
 2665000   0.81264796    -8.277367    491.76453  0.015377252   0.01515571           19 
 2666000   0.83245907   -8.2827833    493.30185  0.015419538   0.01515007           30 
 2667000   0.82530888   -8.2873295    492.15447  0.015377905  0.015144445           37 
 2668000   0.82435961   -8.2771843    492.87795  0.015394739  0.015138805           24 
 2669000   0.81706265    -8.273299    494.66083  0.015444637  0.015133185           19 
 2670000   0.82798145   -8.2884148    493.77913  0.015411334  0.015127558           17 
 2671000   0.84003612   -8.2813894    494.07135  0.015414681  0.015121938           15 
 2672000   0.81874786   -8.3229145    492.86358  0.015371245  0.015116317           26 
 2673000    0.8195879   -8.2897933    493.54651  0.015386785  0.015110703           11 
 2674000   0.78785555   -8.2689834    494.69814   0.01541692  0.015105096           10 
 2675000   0.82782687   -8.2666591    494.95756  0.015419239  0.015099494            8 
 2676000   0.82989524   -8.2814408    494.06528   0.01538569  0.015093923            8 
 2677000   0.81687421    -8.270224    495.00813  0.015409293  0.015088369            6 
 2678000   0.81526087   -8.2517873     494.6892  0.015393615  0.015082822            7 
 2679000   0.82396264   -8.2670961     493.7138  0.015357528  0.015077271           10 
 2680000   0.83477108   -8.2889019    494.84251  0.015386894  0.015071711            4 
 2681000   0.82067089   -8.2649666    493.95809  0.015353664  0.015066115            6 
 2682000   0.84192671   -8.2706261    493.71559  0.015340405  0.015060531           17 
 2683000   0.81246534   -8.3022752    494.97137  0.015373691  0.015054959            6 
 2684000   0.82645037   -8.2724018    495.14697  0.015373416  0.015049428            6 
 2685000   0.82755839   -8.2760277    495.12646  0.015367054  0.015043893            2 
 2686000   0.83959305    -8.303238     494.7723  0.015350344  0.015038324           11 
 2687000   0.80693882    -8.286367    494.95414  0.015350271  0.015032751           19 
 2688000   0.82528377   -8.3223952    494.23962  0.015322409  0.015027188            4 
 2689000   0.82178841   -8.2961694    494.40063  0.015321701  0.015021626            9 
 2690000   0.82221183   -8.2828903    494.61373  0.015322606  0.015016093            8 
 2691000    0.8336925   -8.2722036    494.79662  0.015322576  0.015010547            8 
 2692000    0.8212362   -8.3038611    494.86406  0.015318972  0.015005017            8 
 2693000   0.82522614   -8.2826074    495.72996  0.015340078  0.014999463            6 
 2694000   0.82752116   -8.2896752    496.19782  0.015348856  0.014993958            9 
 2695000   0.82630744   -8.2991539    496.22475  0.015343994  0.014988481            7 
 2696000   0.81634907   -8.2657413    495.71295  0.015322482  0.014983001            4 
 2697000   0.83063571   -8.2321982     496.0637  0.015327639  0.014977557           10 
 2698000   0.81486464    -8.270548    496.73306  0.015342632  0.014972113            5 
 2699000   0.84394159   -8.2435596     495.0862    0.0152861  0.014966658            9 
 2700000   0.81594664   -8.2790981    495.41491  0.015290584  0.014961182            4 
 2701000    0.8191454   -8.2537061    495.12555  0.015275995  0.014955695            6 
 2702000   0.81602636    -8.264041    495.40539  0.015278972  0.014950244           20 
 2703000    0.8086308    -8.230979    497.19613  0.015328528  0.014944797            9 
 2704000   0.81680229   -8.2417584    496.54659  0.015302841  0.014939347           19 
 2705000   0.82575486   -8.2799911    495.04569  0.015250945  0.014933882           21 
 2706000   0.81290449   -8.2806871    495.25299  0.015251694  0.014928408            4 
 2707000   0.80162393   -8.2709961    496.54317  0.015285777  0.014922947            5 
 2708000   0.84332793   -8.2676489    496.09107   0.01526622  0.014917483            7 
 2709000   0.81125215   -8.2963148    496.85047  0.015283944  0.014912039            4 
 2710000   0.81222437   -8.2706321    495.63376  0.015240891  0.014906596           18 
 2711000   0.83000429   -8.2788263     496.3304  0.015256683  0.014901148           26 
 2712000   0.80918494   -8.2558145    496.29268  0.015249898  0.014895724           25 
 2713000   0.81284778   -8.2821842    495.02947  0.015205476  0.014890292            4 
 2714000   0.81862506   -8.2951206    496.03063  0.015230614  0.014884826            2 
 2715000   0.81583959   -8.2713434    496.67127  0.015244668  0.014879386            9 
 2716000   0.81727727    -8.305809    496.71525  0.015240404  0.014873934           28 
 2717000   0.82387157   -8.2659333    496.06922   0.01521498  0.014868511            7 
 2718000   0.80596281   -8.2866535    496.46535  0.015221528  0.014863089           18 
 2719000   0.82125833   -8.3063191    496.14257  0.015206037  0.014857649            8 
 2720000   0.81702263   -8.3017747    496.24683   0.01520364  0.014852178           22 
 2721000   0.81476847   -8.2939513     495.6146  0.015178691  0.014846686           16 
 2722000   0.81646302   -8.3031849    496.26886  0.015193144  0.014841187           16 
 2723000   0.81412413    -8.309549    495.25167  0.015156435  0.014835673           17 
 2724000    0.8112441   -8.3455252    495.89811  0.015170647  0.014830165           17 
 2725000   0.81895904   -8.3087913    495.30163  0.015146839  0.014824679           11 
 2726000   0.83438018   -8.3177195     494.6672  0.015121888   0.01481918            7 
 2727000   0.80940639   -8.3113772    494.52557  0.015112015  0.014813684            7 
 2728000    0.8189293   -8.3527964     495.4058  0.015133364  0.014808193           12 
 2729000   0.79302267   -8.3023151    495.52516  0.015131463    0.0148027            6 
 2730000   0.81708033   -8.2984446    494.95318  0.015108461  0.014797194            9 
 2731000   0.82398351   -8.3337296    495.89033  0.015131525  0.014791691           13 
 2732000   0.80740863   -8.2866481    496.05273   0.01513094  0.014786221           18 
 2733000   0.80722509   -8.2864751    496.98701  0.015153891  0.014780764           17 
 2734000   0.80210536   -8.2730642    496.73693  0.015140726  0.014775318           22 
 2735000   0.82569019   -8.3077135    495.90844  0.015109946  0.014769891           13 
 2736000   0.81415196    -8.293809    496.43068   0.01512033  0.014764449            6 
 2737000   0.80416973   -8.2663498    497.88279  0.015159018  0.014759009            7 
 2738000   0.81601269   -8.3114609    495.99734  0.015096096  0.014753591           22 
 2739000    0.8001395   -8.3075584    496.62569  0.015109702  0.014748174           45 
 2740000   0.79019835   -8.3197237    495.86405  0.015081023  0.014742747           29 
 2741000   0.82269135   -8.2973795     496.1557  0.015084388  0.014737292           13 
 2742000   0.81541457   -8.3039814    496.64667  0.015093808  0.014731871           18 
 2743000   0.80605206   -8.2874977    497.30753  0.015108383  0.014726457            9 
 2744000   0.81507738   -8.2931404    497.10143  0.015096618  0.014721046           19 
 2745000   0.81580703   -8.2904052    496.49116  0.015072591  0.014715667           20 
 2746000   0.83225511   -8.2684789    498.51784  0.015128606  0.014710296           11 
 2747000   0.80758972   -8.3037489    497.80655  0.015101521  0.014704936           15 
 2748000   0.81676802   -8.2982517    496.94293  0.015069837  0.014699547            7 
 2749000   0.81891369   -8.2824002    496.54304  0.015052232  0.014694164           16 
 2750000   0.80456257   -8.3258188    497.26712  0.015068701  0.014688768           10 
 2751000   0.81553173   -8.3013155     495.6957  0.015015621   0.01468339           11 
 2752000   0.79405836   -8.3167592    497.59461  0.015067666  0.014678019            6 
 2753000   0.79716761   -8.2840242    498.07771  0.015076817  0.014672645           18 
 2754000   0.80176057   -8.3149638    497.35179  0.015049376   0.01466726            8 
 2755000   0.80696474   -8.3236474    497.86768  0.015059518  0.014661895           10 
 2756000    0.8106936   -8.3367044    497.25327  0.015035476  0.014656517            3 
 2757000   0.79917863   -8.3437161    497.22142   0.01502906  0.014651137           10 
 2758000    0.8030137   -8.3243454    496.33063  0.014996696  0.014645743           12 
 2759000   0.83311862    -8.355832    497.28216      0.01502  0.014640337           12 
 2760000    0.8283837   -8.3313002    497.05259  0.015007627  0.014634949           14 
 2761000   0.81237981   -8.3522596    496.28286  0.014978959  0.014629562           21 
 2762000   0.84044194   -8.2883662    497.73587  0.015017375  0.014624184           27 
 2763000     0.825749   -8.2964638    498.00018  0.015019911  0.014618856           10 
 2764000    0.7855829   -8.3162232    497.38057  0.014995796  0.014613522           22 
 2765000   0.82052131   -8.3093163    498.23138  0.015016015  0.014608185           44 
 2766000   0.81643557   -8.3420165    497.06909  0.014975569  0.014602849           29 
 2767000   0.80521142   -8.3277827    497.36033  0.014978928  0.014597519           48 
 2768000   0.80343029   -8.3318594    497.23509  0.014969746  0.014592189           28 
 2769000   0.82424897    -8.347734    497.50855   0.01497257   0.01458685           52 
 2770000   0.80457254   -8.3359484    498.41046  0.014994298  0.014581494           58 
 2771000   0.80624276   -8.3348172    498.21272   0.01498294  0.014576158           44 
 2772000        0.834   -8.3358301    497.42343  0.014953807  0.014570815           26 
 2773000   0.81075194   -8.3614002    497.29867  0.014944665  0.014565474           51 
 2774000   0.81473086   -8.3782927    496.91052  0.014927617  0.014560147           63 
 2775000   0.81023402   -8.3526208    498.19561  0.014960829  0.014554803           22 
 2776000   0.80771443   -8.3414982    497.41171  0.014931908  0.014549459           28 
 2777000   0.80672988   -8.3272438    497.60713  0.014932395  0.014544116           37 
 2778000   0.80937443    -8.372391    497.22404  0.014915528  0.014538775           49 
 2779000   0.80198328    -8.352935    496.92937  0.014901324  0.014533446           37 
 2780000   0.80294155   -8.3370386    498.00594  0.014928236  0.014528132           52 
 2781000   0.80679142   -8.3552746    496.75869  0.014885493  0.014522805           33 
 2782000   0.79733401   -8.3261077    496.75394      0.01488  0.014517466           58 
 2783000   0.78968478   -8.3207964    498.76333  0.014934823  0.014512133           43 
 2784000   0.80345055   -8.3463282     497.9721  0.014905774  0.014506836           34 
 2785000   0.80399528   -8.3419296    498.29842  0.014910186  0.014501526           46 
 2786000   0.80206287   -8.3797011    497.82073  0.014890546  0.014496198           55 
 2787000   0.78765178   -8.3569005    497.62422  0.014879327  0.014490856           35 
 2788000   0.81955245   -8.3565295    496.96102  0.014854167   0.01448552           31 
 2789000   0.81905473   -8.3582533      497.129   0.01485386  0.014480176           21 
 2790000   0.79594203   -8.3339723    497.82884   0.01486944   0.01447485           21 
 2791000   0.80314242   -8.3668673    497.97271  0.014868408  0.014469541           40 
 2792000   0.80694157   -8.3675013    497.33016  0.014843904  0.014464212           28 
 2793000   0.79251916   -8.3556107    498.56967  0.014875572  0.014458897           48 
 2794000    0.7972567   -8.3403633    497.85363  0.014848891  0.014453574           45 
 2795000   0.80078446   -8.3315776    498.42847  0.014860718  0.014448248           32 
 2796000   0.79337496   -8.3580753    497.65122  0.014832237  0.014442931           37 
 2797000   0.80308166   -8.3424501    498.08431  0.014839838  0.014437602           22 
 2798000    0.8067228    -8.356662    497.17947  0.014807585  0.014432284           70 
 2799000   0.79649018   -8.3519779    498.04666  0.014828113  0.014426981           53 
 2800000   0.80019832   -8.3171699    498.56824   0.01483834  0.014421685           50 
 2801000   0.81182853   -8.3119721    499.52262  0.014861437  0.014416402           53 
 2802000   0.79744759   -8.3813838    497.63276  0.014799927  0.014411095           59 
 2803000   0.79201975   -8.3126211    499.44287  0.014848462   0.01440579           76 
 2804000   0.80441541   -8.3378844    498.47396  0.014814371  0.014400497           80 
 2805000   0.79380905     -8.36224    498.48759  0.014809495  0.014395207           71 
 2806000   0.80001312   -8.3629559    498.81088  0.014813818  0.014389914           61 
 2807000   0.81498133   -8.3546963    498.28021  0.014792786  0.014384625           45 
 2808000   0.80607443   -8.3858705    497.22136  0.014756094  0.014379332           72 
 2809000   0.80104638   -8.3445957    499.03653  0.014804691  0.014374046           43 
 2810000   0.80678469   -8.3350648    499.05993  0.014800117  0.014368767           62 
 2811000   0.80137193   -8.3736812    499.40223  0.014804999  0.014363479           68 
 2812000   0.80574241   -8.3628098    498.44908  0.014771488  0.014358163           76 
 2813000   0.80879919   -8.3697012    498.94149  0.014780824  0.014352872           64 
 2814000   0.80317692   -8.3470387    498.49582  0.014762373  0.014347567           88 
 2815000   0.77595133   -8.3734535    498.58061  0.014759639  0.014342269           91 
 2816000   0.81260264   -8.3762135    497.49264  0.014722202   0.01433696           64 
 2817000   0.79772329   -8.3728282    498.76755   0.01475469   0.01433167           87 
 2818000   0.79783032   -8.3776173    498.98574  0.014755907  0.014326377           48 
 2819000   0.80274645   -8.3483866    498.79905  0.014745153  0.014321087           47 
 2820000    0.8058395   -8.3712421    497.43844  0.014699717  0.014315799           53 
 2821000    0.8076453   -8.3773464    498.89276  0.014737468  0.014310501           85 
 2822000   0.79748919   -8.4109661    498.19368  0.014711602  0.014305203           71 
 2823000   0.80013909   -8.4111302    498.09806  0.014703568  0.014299905           87 
 2824000   0.81012634   -8.4145918    497.00861  0.014666212  0.014294599           71 
 2825000   0.78866389   -8.4039111    498.14318  0.014694489  0.014289279          119 
 2826000   0.78540257   -8.3579621    498.45262  0.014698414   0.01428397           90 
 2827000   0.78268421   -8.3652622    499.15626  0.014713956  0.014278681           78 
 2828000   0.79027848   -8.3837387    497.79331  0.014668591   0.01427342           71 
 2829000   0.81071963   -8.3918732    497.43336  0.014652803  0.014268144           86 
 2830000   0.79473082   -8.3932471    498.06229  0.014666145  0.014262863           81 
 2831000   0.79993579   -8.3782869    497.97608  0.014658427  0.014257594           85 
 2832000   0.79983897   -8.4086364    497.82283  0.014648742  0.014252293           71 
 2833000   0.81768936   -8.3740282     499.2928   0.01468681  0.014246995           75 
 2834000    0.8063405   -8.4217508     497.4601  0.014627738  0.014241731           71 
 2835000   0.80246113   -8.3789226    498.40975  0.014650492   0.01423644           87 
 2836000   0.79394477   -8.3704767    498.45454  0.014646643   0.01423116           78 
 2837000   0.80120108    -8.376164    498.76116  0.014650487    0.0142259           82 
 2838000   0.79961622    -8.387092    499.01339   0.01465273  0.014220652           94 
 2839000    0.8185471   -8.3954867     497.4439    0.0146015  0.014215398           77 
 2840000   0.81595583   -8.3779601    498.07853   0.01461498  0.014210138          104 
 2841000   0.79203128   -8.3838114    498.79168  0.014630754  0.014204881           69 
 2842000   0.79891602   -8.4106297    498.34631  0.014612547  0.014199605           95 
 2843000   0.79408965   -8.3821112    498.05043  0.014598735   0.01419433           72 
 2844000   0.80434948   -8.3950259    497.83136  0.014587182  0.014189087          104 
 2845000   0.78230348   -8.4054863    497.79923  0.014581114  0.014183823           97 
 2846000    0.7947037   -8.3961693    498.68362  0.014601886  0.014178556           97 
 2847000   0.78811864   -8.3701989    499.66144  0.014625379  0.014173305          103 
 2848000   0.80225073   -8.3793315    498.71367  0.014592511   0.01416806          130 
 2849000   0.77867154   -8.3914097    498.41609  0.014578685   0.01416281          119 
 2850000   0.78939793   -8.3943669    500.36579  0.014630579  0.014157574          138 
 2851000   0.79856113   -8.3925203     498.2913  0.014564811  0.014152331          140 
 2852000   0.79982014   -8.3824633    498.48535  0.014565374  0.014147073          155 
 2853000   0.78186616   -8.3965061    499.38837  0.014586645  0.014141839          152 
 2854000   0.78872839   -8.3752364    498.82162  0.014564985  0.014136602          156 
 2855000   0.80394982   -8.3842722    499.52213  0.014580331  0.014131381          156 
 2856000     0.794375   -8.4083371    498.71453  0.014551661  0.014126133          162 
 2857000   0.78861502   -8.4283597    498.38141  0.014536851  0.014120902          183 
 2858000   0.77646891   -8.4181205    498.93193  0.014547817  0.014115661          173 
 2859000   0.79316185   -8.4062722    498.91859   0.01454234   0.01411041          145 
 2860000    0.7787918   -8.4165119    498.94979  0.014538164  0.014105148          160 
 2861000   0.78544015   -8.4271206    497.87932  0.014501903  0.014099874          197 
 2862000   0.79453613   -8.4100499     497.5909  0.014488437  0.014094606          200 
 2863000   0.81220488   -8.4123947    498.63243  0.014513693  0.014089336          201 
 2864000   0.80980826   -8.4259429    498.14696    0.0144945  0.014084077          191 
 2865000     0.793507    -8.430586    498.51007  0.014500002   0.01407882          210 
 2866000   0.78736184   -8.4312988    497.53938  0.014466718  0.014073557          217 
 2867000   0.79580674   -8.4132737    497.67763  0.014465691  0.014068279          199 
 2868000   0.81067977   -8.4006541    497.98687  0.014469632  0.014063016          223 
 2869000   0.78942173   -8.4270384    498.92524  0.014491845  0.014057741          272 
 2870000   0.81025904   -8.4172475    497.63537  0.014449343  0.014052475          249 
 2871000   0.78980872   -8.4153838    498.18209  0.014460179  0.014047209          269 
 2872000    0.7873255   -8.4120975    497.56927  0.014437363  0.014041955          264 
 2873000   0.80967479   -8.4131063    497.79243   0.01443881  0.014036694          255 
 2874000    0.7899031   -8.4374281    498.22994  0.014446472   0.01403144          280 
 2875000    0.7918658   -8.4333594     497.5931  0.014422988  0.014026162          277 
 2876000   0.78487279   -8.4356721    497.53456  0.014416277  0.014020893          288 
 2877000    0.7867446   -8.4891129    498.35067  0.014434905  0.014015611          312 
 2878000   0.78852436   -8.4621442    497.13714  0.014394752  0.014010324          287 
 2879000   0.78875631   -8.4438158    498.21117   0.01442084  0.014005026          289 
 2880000   0.78491828   -8.4420782    498.16193  0.014414408  0.013999742          300 
 2881000   0.79029705    -8.457377    497.52527  0.014390989  0.013994478          316 
 2882000   0.80466956   -8.4647848    497.94289  0.014398071    0.0139892          331 
 2883000    0.7731139   -8.4906363     498.0182  0.014395254  0.013983926          296 
 2884000    0.8030303   -8.4666126    497.55014  0.014376738  0.013978642          314 
 2885000   0.78613956   -8.4453273    498.79182  0.014407621  0.013973358          351 
 2886000   0.77993109   -8.4700613    496.75743  0.014343885  0.013968073          356 
 2887000   0.77593693   -8.4323472    497.74601  0.014367452  0.013962768          352 
 2888000   0.78981026   -8.4471327    497.79809   0.01436398  0.013957498          338 
 2889000   0.78456068   -8.4734871    496.61373  0.014324845  0.013952221          367 
 2890000   0.77727332   -8.4531321    497.64652  0.014349669  0.013946937          342 
 2891000   0.79083619   -8.4458939    497.72665  0.014347015  0.013941656          361 
 2892000   0.78261718    -8.454526    498.18969  0.014355397  0.013936373          368 
 2893000   0.77105286    -8.460707    497.16569  0.014320938  0.013931114          391 
 2894000   0.79390914   -8.4490977     497.8727  0.014336348  0.013925847          380 
 2895000   0.77090647   -8.4651728    498.64075  0.014353505  0.013920552          374 
 2896000   0.80489313   -8.4923776    496.11557  0.014275885  0.013915246          404 
 2897000     0.799671   -8.4929442    497.17134  0.014301327  0.013909961          463 
 2898000   0.78422577   -8.4644047    496.95825  0.014290265  0.013904668          436 
 2899000   0.77238165   -8.4726657    496.65463  0.014276608   0.01389937          428 
 2900000   0.79997783   -8.4994445    496.82196  0.014276493  0.013894077          464 
 2901000   0.79098643   -8.4716481    497.37698  0.014287515  0.013888794          456 
 2902000   0.78084596   -8.4841733    497.71469  0.014292289  0.013883512          473 
 2903000   0.79458911    -8.497698    496.14669  0.014242355  0.013878232          458 
 2904000   0.79468887    -8.475381    497.69585  0.014281906  0.013872952          490 
 2905000   0.78089624   -8.4646341    498.06897  0.014287693  0.013867681          497 
 2906000   0.79310071   -8.4875921     498.0306  0.014281676  0.013862427          483 
 2907000   0.78653285   -8.4885605    497.70011  0.014267289  0.013857184          469 
 2908000   0.77582855   -8.4956764     497.1631  0.014246994  0.013851941          466 
 2909000   0.79628219   -8.4587529    498.81799  0.014289503  0.013846687          468 
 2910000   0.78828524   -8.4744262    497.38058   0.01424343  0.013841438          483 
 2911000   0.78911386   -8.5037425    497.23568  0.014234389  0.013836187          554 
 2912000   0.77855581   -8.5139569     496.5568  0.014210073  0.013830933          549 
 2913000   0.77985264   -8.4927259    496.83329  0.014213105  0.013825662          620 
 2914000   0.78300938   -8.5050433    497.03749  0.014214067  0.013820373          553 
 2915000   0.80508181   -8.5079079    498.21283  0.014242791  0.013815088          597 
 2916000    0.7781724    -8.480654    496.95765  0.014202036   0.01380981          605 
 2917000   0.77350476   -8.5093047    496.77092  0.014191833  0.013804531          583 
 2918000   0.78674621   -8.5007434     496.9011  0.014190687  0.013799253          563 
 2919000   0.79777339   -8.5017673    497.85762  0.014213133  0.013793943          639 
 2920000    0.7735532   -8.5218275    498.07958    0.0142146  0.013788666          667 
 2921000   0.79011243   -8.5048159    496.98148  0.014178406  0.013783375          695 
 2922000   0.77589741   -8.5064069    498.19759  0.014208236  0.013778092          741 
 2923000   0.76983647   -8.5413452    496.72102  0.014161279  0.013772813          704 
 2924000   0.77243483   -8.5383688    496.71375  0.014156229  0.013767533          765 
 2925000   0.75686573   -8.5088948     496.8934  0.014156507  0.013762243          780 
 2926000   0.76461037   -8.4942783    496.20652  0.014132106  0.013756963          702 
 2927000     0.772067   -8.5191707    498.11882  0.014181722  0.013751684          758 
 2928000   0.79385661   -8.5181575    496.44568   0.01412926  0.013746406          784 
 2929000    0.7922524   -8.5380735    496.98198  0.014139694  0.013741119          807 
 2930000   0.78725304   -8.5801592    497.12458  0.014138924  0.013735821          836 
 2931000   0.77272475   -8.5481748    496.69656  0.014121931  0.013730522          860 
 2932000   0.78858403    -8.548224    496.97614  0.014125061  0.013725206          947 
 2933000   0.78007927    -8.554895    496.79562  0.014115116  0.013719906          879 
 2934000   0.77505198    -8.580484    496.40152  0.014099112  0.013714603          915 
 2935000   0.79330621   -8.5667298    497.81483  0.014134436  0.013709314          965 
 2936000   0.78764039   -8.5537149    496.62304  0.014095795  0.013704013          996 
 2937000    0.7711553   -8.5848742    494.34394  0.014026329  0.013698697         1031 
 2938000   0.78870978   -8.5434743    496.25397  0.014075731  0.013693381         1054 
 2939000   0.78733017   -8.5781559    495.60109   0.01405243  0.013688052         1059 
 2940000   0.79550397   -8.6032791    496.30713  0.014067662  0.013682718         1089 
 2941000   0.78512175   -8.6187273     495.3665  0.014036226  0.013677358         1084 
 2942000   0.76963469   -8.6087629    495.10532  0.014024057  0.013671975         1139 
 2943000   0.78812858   -8.6228004    494.91761  0.014013977  0.013666584         1131 
 2944000    0.7928902    -8.620447    494.10779  0.013986294  0.013661193         1225 
 2945000   0.80092204   -8.6534358    493.52997  0.013965194  0.013655809         1282 
 2946000   0.78440063   -8.6232142    495.47716  0.014015534  0.013650424         1226 
 2947000   0.78116066   -8.6068147    495.90951  0.014023004   0.01364504         1332 
 2948000   0.75519695   -8.6202946    494.72351  0.013984722  0.013639648         1370 
 2949000    0.7749597   -8.6432786    493.87529   0.01395601   0.01363424         1409 
 2950000   0.77308659   -8.6287604    495.06657  0.013984931   0.01362884         1422 
 2951000   0.77484895   -8.6378893    495.69147  0.013997839  0.013623429         1394 
 2952000   0.77161709   -8.6572309    494.63019  0.013963138  0.013618026         1463 
 2953000   0.78752818   -8.6707231    494.04011  0.013941757  0.013612594         1557 
 2954000   0.75637362   -8.7022148    493.49529  0.013921668  0.013607139         1595 
 2955000   0.78514823   -8.6849977    492.19331   0.01388024  0.013601678         1561 
 2956000    0.7696727    -8.683238    493.67787  0.013917396  0.013596213         1626 
 2957000   0.78079084   -8.6927693    493.29407  0.013901873  0.013590739         1631 
 2958000   0.78802743   -8.7322226    493.10814  0.013891935  0.013585253         1734 
 2959000    0.7814897   -8.7302472    492.74387  0.013876982  0.013579759         1685 
 2960000   0.76460902   -8.7502211    492.22529  0.013857694  0.013574254         1817 
 2961000   0.79873795   -8.7529417    492.42349  0.013858592  0.013568739         1802 
 2962000   0.78645529   -8.7838638    490.91313   0.01381142   0.01356321         1895 
 2963000    0.7722964   -8.7826216    491.61526  0.013826506  0.013557671         1824 
 2964000   0.76651441   -8.7367963    491.56076  0.013820309  0.013552121         1922 
 2965000   0.77029167   -8.7823988    491.45886  0.013812784  0.013546574         1871 
 2966000   0.77561549   -8.7640054    491.00756  0.013795447  0.013541023         1930 
 2967000   0.76026076   -8.8078885    490.15707   0.01376691  0.013535463         2069 
 2968000    0.7947413   -8.8101355     491.0051  0.013786082   0.01352989         2038 
 2969000   0.78320502   -8.8255444    490.18588  0.013758445  0.013524293         2135 
 2970000   0.78048174    -8.834796    490.25508  0.013755754  0.013518698         2170 
 2971000    0.7656818   -8.8070668    490.28061   0.01375184  0.013513117         2110 
 2972000   0.79058969   -8.8419931    490.06499  0.013741167  0.013507538         2264 
 2973000   0.78276822   -8.8030599    491.33554  0.013772159  0.013501936         2197 
 2974000   0.78717101   -8.8421303    489.84746  0.013725831  0.013496328         2278 
 2975000   0.77639605   -8.8250071    489.85883  0.013721536  0.013490717         2289 
 2976000   0.78151906   -8.8638374    489.39236  0.013703863  0.013485094         2345 
 2977000   0.77386501   -8.8595817      489.137  0.013692112  0.013479473         2339 
 2978000   0.77652099   -8.8762057    489.31085  0.013692379  0.013473838         2336 
 2979000   0.78126189   -8.8539351    489.74801  0.013700011  0.013468214         2386 
 2980000   0.77764678   -8.8799851    489.66316  0.013693041  0.013462576         2436 
 2981000   0.76523654   -8.8728732    488.85574  0.013665877  0.013456931         2505 
 2982000   0.76615325   -8.8820201    488.38318  0.013648088  0.013451269         2488 
 2983000   0.76852579   -8.8832111    489.23607  0.013667339  0.013445601         2568 
 2984000   0.76194735   -8.8976849    488.33368  0.013637558  0.013439927         2508 
 2985000   0.79375606   -8.8964043    488.40876  0.013635086  0.013434248         2567 
 2986000   0.76618589   -8.9107206    489.20605   0.01365277   0.01342857         2539 
 2987000   0.79045189     -8.93807    486.85143  0.013582508  0.013422882         2648 
 2988000   0.79436368   -8.9123229    488.52392  0.013624607  0.013417187         2660 
 2989000   0.78958087   -8.9341229    488.85006  0.013629142  0.013411504         2599 
 2990000   0.77344055   -8.9398651    488.00483  0.013601026  0.013405802         2657 
 2991000   0.77120256    -8.944373    488.11954  0.013599675  0.013400101         2673 
 2992000   0.75755599   -8.9471978     487.3648  0.013574109  0.013394394         2742 
 2993000   0.77190804   -8.9434286    487.08326  0.013561735  0.013388692         2799 
 2994000   0.77629878   -8.9565532    487.80966  0.013577423  0.013382983         2790 
 2995000   0.77053656   -8.9711667    487.22479  0.013556616  0.013377262         2800 
 2996000   0.77706813   -9.0026028    486.53815  0.013532993  0.013371542         2858 
 2997000   0.77269742   -8.9805989    487.13483  0.013545068  0.013365816         2848 
 2998000   0.77640829   -8.9961194    487.50994  0.013550977   0.01336008         2904 
 2999000   0.77574463   -8.9975311    486.80609    0.0135269  0.013354348         2900 
 3000000   0.75361096   -9.0101118    486.43052  0.013511959   0.01334861         2926 
 3001000   0.76367128   -8.9879564    486.64051  0.013513287  0.013342855         2996 
 3002000   0.77098207   -8.9861544    487.17251  0.013523554   0.01333711         2983 
 3003000   0.77324271   -9.0098954    485.43697  0.013470889  0.013331372         2997 
 3004000     0.767415   -9.0013074    486.82175   0.01350482  0.013325626         3003 
 3005000   0.76562552   -9.0179333    486.02313  0.013478179   0.01331988         3045 
 3006000    0.7917745   -9.0643353    485.09008  0.013447829  0.013314118         3168 
 3007000   0.76789111   -9.0412008    486.73282  0.013488882  0.013308346         3156 
 3008000   0.78014569   -9.0506041    485.51297  0.013450603  0.013302574         3132 
 3009000   0.76275351   -9.0424363     485.2918  0.013440008  0.013296794         3184 
 3010000   0.77019838   -9.0371832    486.26982   0.01346262  0.013291025         3144 
 3011000   0.78647336   -9.0759021    485.92006  0.013448468  0.013285251         3238 
 3012000   0.77855563   -9.0638232    486.48479  0.013459628  0.013279471         3266 
 3013000   0.75785241   -9.0721722    484.58336  0.013402571  0.013273692         3293 
 3014000   0.76114899   -9.0861501    484.91771  0.013407369  0.013267899         3314 
 3015000    0.7774943   -9.0817919    485.04871  0.013406543  0.013262113         3330 
 3016000   0.77064766   -9.0795732    485.56494  0.013416361  0.013256322         3329 
 3017000   0.78015838   -9.1002398    484.85297  0.013392249  0.013250532         3411 
 3018000   0.77464245   -9.1053402    484.07479  0.013366324  0.013244738         3344 
 3019000   0.76369178   -9.1347418    485.46902  0.013400382  0.013238943         3429 
 3020000   0.76672309   -9.0938584    484.73526  0.013375697  0.013233141         3384 
 3021000   0.74897537   -9.1288375    484.56515  0.013366577  0.013227349         3346 
 3022000   0.76798664   -9.1187845    484.93062  0.013372232  0.013221555         3390 
 3023000   0.77181197   -9.1000365    485.16827   0.01337436   0.01321576         3343 
 3024000   0.77003834   -9.1017747    484.94314  0.013363733  0.013209961         3338 
 3025000   0.76839633   -9.1132708     484.7542   0.01335411  0.013204161         3390 
 3026000   0.78422447   -9.1270336    484.04103  0.013330057   0.01319836         3405 
 3027000   0.75304168   -9.1297433    484.52938  0.013339098   0.01319256         3357 
 3028000   0.75352045   -9.1084225    484.18695  0.013325268  0.013186767         3396 
 3029000   0.75586279   -9.1431701     483.9745  0.013315024  0.013180968         3377 
 3030000   0.77288414   -9.1394609    484.38587  0.013321944  0.013175176         3431 
 3031000   0.76011109   -9.1490334    483.48146  0.013292683  0.013169377         3465 
 3032000   0.75791174   -9.1171405    484.69119  0.013321548  0.013163581         3510 
 3033000   0.77440566   -9.1444293    484.24651  0.013304938  0.013157782         3452 
 3034000   0.77138692   -9.1378015    483.38935  0.013277009  0.013151991         3506 
 3035000   0.76753248   -9.1210552    484.26189  0.013296592  0.013146191         3469 
 3036000   0.76588007   -9.1292407    483.58539  0.013273644  0.013140394         3472 
 3037000   0.76542549   -9.1616525    484.61166  0.013297433  0.013134599         3494 
 3038000   0.76445459   -9.1440759    484.84675  0.013299505  0.013128807         3537 
 3039000   0.76797151   -9.1534701    483.52499  0.013258884  0.013123005         3530 
 3040000   0.76134778   -9.1472343    483.23649  0.013246614  0.013117213         3552 
 3041000   0.76939412   -9.1509611    483.73703  0.013255975  0.013111429         3530 
 3042000   0.78704241   -9.1317715    483.80187  0.013253393  0.013105654         3508 
 3043000   0.77915956   -9.1551812    484.00068  0.013254482  0.013099872         3504 
 3044000    0.7641102    -9.156033    483.85346  0.013246098   0.01309409         3501 
 3045000   0.76049058   -9.1445433    483.88918  0.013242725  0.013088298         3476 
 3046000   0.76020654    -9.177347    482.88538  0.013210915  0.013082517         3539 
 3047000    0.7642821   -9.1782344     484.0457  0.013238314  0.013076731         3535 
 3048000   0.76512731    -9.183201    484.02985  0.013233537  0.013070939         3557 
 3049000   0.75119111   -9.1551679    483.09958  0.013203771  0.013065154         3508 
 3050000    0.7641985   -9.1952206    482.78995  0.013190982   0.01305937         3549 
 3051000   0.75583232   -9.1663894    482.24279  0.013171714  0.013053584         3530 
 3052000   0.77774919   -9.2006477    482.86543  0.013184399  0.013047803         3512 
 3053000   0.76456348    -9.198066    482.88774  0.013180689  0.013042023         3520 
 3054000   0.76711705   -9.1731227    483.43315  0.013191256  0.013036235         3519 
 3055000   0.76289727   -9.1571246     483.2968  0.013183219  0.013030463         3545 
 3056000   0.75728188    -9.182802    482.91647  0.013168534  0.013024684         3557 
 3057000   0.74347955   -9.1902845    483.11914  0.013169751  0.013018906         3563 
 3058000   0.77461116    -9.192449    483.30435  0.013170491  0.013013136         3544 
 3059000   0.76876397   -9.1783634    484.05653  0.013186677  0.013007366         3558 
 3060000    0.7685406   -9.2062745    483.14996  0.013157679  0.013001593         3580 
 3061000   0.76294326   -9.1913847    483.16876  0.013153892  0.012995822         3574 
 3062000   0.77678702   -9.1820927    482.68581  0.013136453  0.012990056         3612 
 3063000   0.75492479   -9.2171045    482.37058  0.013123587  0.012984285         3574 
 3064000   0.74648565   -9.1701679    481.92187  0.013107101  0.012978509         3568 
 3065000   0.76114664   -9.1912222    483.76549   0.01315295  0.012972743         3577 
 3066000   0.76148966    -9.197726    482.68049   0.01311917  0.012966979         3636 
 3067000   0.75174614    -9.196538    483.26946  0.013130895  0.012961219         3625 
 3068000   0.75985475   -9.1998021    482.73364  0.013112061   0.01295545         3617 
 3069000   0.74832077   -9.1910248    482.17782  0.013092696  0.012949691         3645 
 3070000   0.76025977   -9.2045005    482.49685  0.013097092  0.012943934         3635 
 3071000   0.75662187    -9.200583    482.68536  0.013097942  0.012938169         3671 
 3072000   0.75527753   -9.2035727    482.92223  0.013100104  0.012932402         3632 
 3073000   0.76172948   -9.2212295    482.14165  0.013074673  0.012926647         3624 
 3074000   0.75374269   -9.2211171     482.0721  0.013068535  0.012920891         3660 
 3075000   0.77733056   -9.2185038    482.68126  0.013080793  0.012915143         3673 
 3076000   0.75574838    -9.217782    481.86557  0.013054442  0.012909396         3692 
 3077000   0.75414758   -9.1944162    482.51902  0.013067897  0.012903659         3648 
 3078000   0.75799234   -9.2000359    482.16506  0.013054068  0.012897921         3652 
 3079000   0.76160469   -9.2082025    482.17846  0.013050191  0.012892174         3658 
 3080000   0.77116959   -9.2196099      481.558  0.013029167  0.012886434         3682 
 3081000   0.76017379   -9.2208585    482.57213  0.013052367  0.012880694         3667 
 3082000   0.75288161   -9.2181449     482.1746  0.013037384  0.012874954         3676 
 3083000   0.74283347    -9.236959    482.37385  0.013038541  0.012869214         3687 
 3084000   0.75269722   -9.2326937    482.57658  0.013039791  0.012863477         3646 
 3085000   0.77155829   -9.2231667    481.83656  0.013015574  0.012857739         3682 
 3086000   0.74937565   -9.2396864    482.95863  0.013041657  0.012852003         3694 
 3087000   0.75127722   -9.2562762    481.75257  0.013004875   0.01284627         3662 
 3088000   0.74618503   -9.2123548    481.84698  0.013003211  0.012840541         3658 
 3089000   0.77563433   -9.2336158    481.69382  0.012994869  0.012834813         3638 
 3090000   0.76459383   -9.2224378    481.91541   0.01299664  0.012829087         3671 
 3091000   0.76885312   -9.2125313    483.08002  0.013023833   0.01282337         3698 
 3092000   0.76054157   -9.2160571    482.44987  0.013002638  0.012817659         3701 
 3093000   0.75858082   -9.2171653    483.29674  0.013021251  0.012811953         3657 
 3094000   0.75923098   -9.2142127    482.67767  0.013000368  0.012806237         3661 
 3095000   0.74787517   -9.2287027    482.16048  0.012982242  0.012800532         3718 
 3096000    0.7724119   -9.2145819    482.51611  0.012987621  0.012794826         3661 
 3097000   0.75188937    -9.238463     482.4916  0.012982768  0.012789114         3709 
 3098000   0.76452995   -9.2139256    481.40657  0.012949391  0.012783411         3683 
 3099000   0.76787095   -9.2418527    481.78229  0.012955316  0.012777715         3715 
 3100000   0.74803241   -9.2473466    482.65843  0.012974689  0.012772009         3735 
 3101000   0.77598621   -9.2255918    481.55464  0.012940843  0.012766309         3708 
 3102000   0.75740313   -9.2372268    481.26627  0.012928924  0.012760616         3754 
 3103000   0.76682044   -9.1995018    482.10148  0.012947188  0.012754927         3736 
 3104000   0.76553191   -9.2214341     481.3536  0.012922938  0.012749247         3730 
 3105000   0.76458292   -9.2301983    481.63857  0.012926424  0.012743561         3743 
 3106000   0.76522246    -9.252752    481.74159  0.012925027  0.012737874         3697 
 3107000   0.76151851   -9.2360766    481.93777  0.012926128  0.012732188         3679 
 3108000   0.74626504   -9.2189965    482.17547  0.012928343    0.0127265         3687 
 3109000   0.75832622   -9.2646307    481.84769  0.012915398  0.012720826         3726 
 3110000   0.74037995   -9.2531268    482.23955  0.012921746  0.012715146         3754 
 3111000    0.7495172    -9.201021    482.15269  0.012915265  0.012709461         3774 
 3112000   0.76478187   -9.2338175    481.42089  0.012891519  0.012703788         3723 
 3113000   0.75674504   -9.2354578     482.5651  0.012918008  0.012698101         3662 
 3114000   0.75319245   -9.2172113    482.57324  0.012914077  0.012692431         3658 
 3115000   0.74605904   -9.2382906    482.22766  0.012900686  0.012686758         3675 
 3116000   0.74823184   -9.2457729    481.67313  0.012881716  0.012681084         3706 
 3117000   0.75094796   -9.2390919    480.94856  0.012858212  0.012675417         3709 
 3118000   0.74977264   -9.2138126    481.95602  0.012881014  0.012669751         3735 
 3119000   0.75351502   -9.2213894    482.60348  0.012894183  0.012664094         3692 
 3120000   0.73587086   -9.2366449     481.9191  0.012871771  0.012658436         3740 
 3121000    0.7500254   -9.2435567    481.91823  0.012867623  0.012652778         3751 
 3122000   0.76108951   -9.2216288     482.2458  0.012872245  0.012647122         3731 
 3123000   0.76216116   -9.2355816    482.56665  0.012876685  0.012641481         3659 
 3124000   0.74093775   -9.2406253    481.29481  0.012838637  0.012635833         3723 
 3125000   0.76163466   -9.2161987    482.28882  0.012861035  0.012630192         3707 
 3126000   0.75362882   -9.2475204    482.23178    0.0128554   0.01262455         3715 
 3127000   0.74989107   -9.2444442    481.74894  0.012838422  0.012618906         3716 
 3128000   0.76600675   -9.2590208    481.74614  0.012834243  0.012613267         3743 
 3129000   0.76555698   -9.2460343    480.92158  0.012808181  0.012607628         3731 
 3130000   0.76209097   -9.2334966    481.59591  0.012822042  0.012601984         3742 
 3131000   0.75064757   -9.2284554    481.74072  0.012821801  0.012596352         3708 
 3132000   0.74027126    -9.250306    481.23558  0.012804267  0.012590727         3721 
 3133000   0.73848954    -9.262399    481.59498   0.01280974  0.012585099         3732 
 3134000   0.74322431   -9.2782881      481.706  0.012808605  0.012579479         3733 
 3135000   0.77560787   -9.2547832    481.53997  0.012800106  0.012573851         3743 
 3136000   0.76001485   -9.2224588    481.90558  0.012805739  0.012568233         3738 
 3137000   0.77215215   -9.2596453    482.48328  0.012817004  0.012562616         3756 
 3138000   0.74598645   -9.2500488    482.68445  0.012818261  0.012557002         3760 
 3139000   0.73939759   -9.2814486    481.94089  0.012794438    0.0125514         3797 
 3140000   0.74208252   -9.2635722    481.17843  0.012770128  0.012545785         3744 
 3141000   0.74443458   -9.2699586    480.58474  0.012750311  0.012540173         3785 
 3142000   0.75212139   -9.2624322    480.66264   0.01274832  0.012534558         3795 
 3143000   0.74288088   -9.2590023      481.614  0.012769488  0.012528951         3825 
 3144000   0.76234397   -9.2572729    480.94134  0.012747597  0.012523336         3802 
 3145000   0.75045195   -9.2249555    482.64179  0.012788601  0.012517735         3777 
 3146000   0.74488644   -9.2404699    481.20544  0.012746489  0.012512134         3798 
 3147000   0.75868618   -9.2681312    480.78506  0.012731306  0.012506536         3836 
 3148000   0.74734616   -9.2355054    481.24898  0.012739543  0.012500938         3771 
 3149000   0.74228003   -9.2184738    482.13405  0.012758919  0.012495341         3761 
 3150000   0.73101756   -9.2520051    480.91758  0.012722687  0.012489753         3776 
 3151000   0.75048343   -9.2449382    481.25863  0.012727669  0.012484164         3794 
 3152000   0.74691053   -9.2626138    480.72871  0.012709621  0.012478581         3822 
 3153000   0.75488583   -9.2851848    480.09308   0.01268879  0.012472998         3833 
 3154000   0.75663347   -9.2831743    480.59567  0.012698047  0.012467421         3796 
 3155000   0.75118176   -9.2406437     481.3595  0.012714197  0.012461844         3767 
 3156000   0.74875718   -9.2642774    481.87631  0.012723815   0.01245627         3790 
 3157000   0.73287211   -9.2604855     482.0666  0.012724807    0.0124507         3802 
 3158000   0.75527024   -9.2917272    480.82345  0.012687974  0.012445135         3801 
 3159000   0.74276697   -9.2716738    481.22461   0.01269454  0.012439566         3825 
 3160000   0.77401284    -9.273877    480.94371  0.012683115  0.012433996         3775 
 3161000   0.74730546   -9.2946434    481.08433  0.012682809  0.012428432         3792 
 3162000   0.74596813   -9.2398549    481.53605  0.012690703  0.012422871         3799 
 3163000   0.74255893   -9.2666857     481.1633  0.012676871  0.012417309         3799 
 3164000   0.74910637   -9.2565643    481.04919  0.012669858  0.012411755         3799 
 3165000   0.74115634   -9.2829297     480.4962  0.012651295  0.012406193         3821 
 3166000   0.74515414   -9.2781448     480.0693  0.012636063  0.012400635         3820 
 3167000   0.76613386   -9.2798928    479.88148  0.012627131  0.012395073         3844 
 3168000   0.74066144   -9.2772124     480.8405  0.012648372  0.012389515         3803 
 3169000   0.74217661   -9.2886566    481.45506  0.012660541  0.012383963         3800 
 3170000   0.74195826   -9.2792842    480.06422  0.012619985  0.012378412         3836 
 3171000   0.75092497   -9.2996061    480.72237  0.012633301  0.012372855         3809 
 3172000   0.75500521    -9.282558    481.07281  0.012638525  0.012367307         3812 
 3173000   0.74198427   -9.2717293      480.812  0.012627692  0.012361763         3852 
 3174000   0.74233706   -9.2890343    480.51041  0.012615795   0.01235622         3844 
 3175000   0.74514239   -9.2514613    481.09311  0.012627116  0.012350678         3844 
 3176000   0.73236698   -9.2784661    481.46342  0.012632856  0.012345144         3807 
 3177000   0.75894575   -9.2597477    481.78948  0.012637432  0.012339612         3785 
 3178000   0.72998877   -9.2863218    480.98441  0.012612346  0.012334082         3814 
 3179000   0.74933714   -9.3058694    480.71487  0.012601312  0.012328549         3803 
 3180000   0.74552948   -9.2987502    480.68768  0.012596637  0.012323014         3813 
 3181000   0.75116577   -9.2769158     480.0608  0.012576255  0.012317489         3835 
 3182000   0.74032646   -9.2786995    480.87408  0.012593602  0.012311966         3800 
 3183000    0.7295191   -9.2661825     480.4916  0.012579631   0.01230644         3840 
 3184000   0.74085163   -9.2796459    481.68762  0.012606983  0.012300912         3821 
 3185000   0.74132792   -9.3015016    480.73805   0.01257818  0.012295395         3790 
 3186000   0.76161718   -9.2789063    480.29683  0.012562692  0.012289883         3824 
 3187000   0.74036388   -9.2995108     480.0843  0.012553193  0.012284368         3820 
 3188000    0.7575056   -9.2956697    480.96666   0.01257232  0.012278856         3804 
 3189000   0.75103111   -9.2796304    480.62926   0.01255956  0.012273346         3797 
 3190000   0.75794818   -9.3096804    480.36548  0.012548733  0.012267839         3828 
 3191000    0.7458944   -9.3077038    481.26888  0.012568392  0.012262332         3824 
 3192000   0.74238757   -9.2964711    480.13062  0.012534738  0.012256832         3820 
 3193000   0.74249006   -9.2853731    480.11131  0.012530309  0.012251333         3823 
 3194000   0.76653528   -9.2856754    480.94015  0.012548011  0.012245841         3779 
 3195000    0.7515401   -9.2822597    481.16738   0.01255001  0.012240354         3793 
 3196000    0.7473713   -9.3194519    481.48169  0.012554279  0.012234873         3820 
 3197000   0.74522464   -9.2772592    481.38617  0.012547862  0.012229387         3802 
 3198000   0.72581839   -9.2913025    480.40699  0.012518423  0.012223909         3803 
 3199000   0.73114944   -9.2747891    480.49615  0.012516832  0.012218435         3789 
 3200000   0.74132167   -9.2821665    480.83822  0.012521829  0.012212953         3807 
 3201000   0.74545202   -9.3012167      480.811  0.012517208  0.012207481         3806 
 3202000   0.74162943   -9.3022421    480.29574  0.012499889   0.01220201         3846 
 3203000   0.73813515   -9.3420861    479.37688   0.01247208  0.012196539         3805 
 3204000   0.74552269   -9.2871007    481.12303  0.012513603  0.012191074         3814 
 3205000   0.74858924   -9.3194372    480.94247  0.012505004  0.012185616         3807 
 3206000   0.74885832   -9.2808399     480.8574  0.012498893  0.012180158         3756 
 3207000   0.74171996   -9.2936493    480.73788   0.01249189  0.012174703         3759 
 3208000   0.74391829   -9.2819294    480.74987  0.012488307  0.012169255         3813 
 3209000   0.74533428   -9.3114397     480.3444  0.012473886  0.012163807         3826 
 3210000    0.7417235   -9.2949335     480.5873  0.012476306   0.01215836         3800 
 3211000   0.73692066   -9.2743305    481.66495  0.012500388  0.012152919         3767 
 3212000   0.74385839    -9.275361     480.3357   0.01246201   0.01214748         3778 
 3213000   0.73174248   -9.3165845    480.07463   0.01245136  0.012142044         3812 
 3214000   0.74571962   -9.2836113    480.13079  0.012448942  0.012136611         3803 
 3215000   0.73336225   -9.2850757    481.06802  0.012469363  0.012131176         3794 
 3216000   0.74470058   -9.2941639     480.6786  0.012455395  0.012125755         3805 
 3217000   0.73326824   -9.3207371    480.47122  0.012446151  0.012120324         3811 
 3218000   0.74036365    -9.309414     480.6007  0.012445636  0.012114901         3809 
 3219000   0.73735704   -9.2914215    480.99918  0.012452086  0.012109476         3828 
 3220000   0.73618145   -9.2911201    479.55372  0.012410811  0.012104051         3838 
 3221000   0.73205373     -9.28077    480.97774    0.0124438  0.012098623         3810 
 3222000   0.72576261   -9.2973179    480.48493  0.012427191  0.012093202         3838 
 3223000    0.7318056   -9.2889845    480.80323  0.012431566  0.012087784         3811 
 3224000   0.74137979   -9.3088161    481.12847  0.012436116   0.01208237         3803 
 3225000   0.74447262   -9.2914105    480.62225   0.01241918  0.012076957         3771 
 3226000   0.75049267   -9.2892227    479.91522  0.012397066  0.012071547         3792 
 3227000   0.73260997   -9.2955455    480.45777  0.012407235   0.01206614         3844 
 3228000   0.74549497   -9.3006756    479.90234  0.012389053  0.012060743         3790 
 3229000   0.72440009   -9.2877881    480.43971  0.012399084  0.012055345         3820 
 3230000   0.73743325    -9.318256    479.80637  0.012378905  0.012049953         3840 
 3231000   0.74748551   -9.3003485    480.43101  0.012391185  0.012044563         3841 
 3232000   0.73483405   -9.3062861    480.07549  0.012378184  0.012039165         3860 
 3233000   0.74002363   -9.3156836    480.30436  0.012380255  0.012033779         3829 
 3234000   0.72760099   -9.2969897    481.32047  0.012402609   0.01202839         3796 
 3235000   0.72377804   -9.2791974    480.25967  0.012371449  0.012022998         3832 
 3236000   0.72541159   -9.3058577    480.73816  0.012379948  0.012017616         3823 
 3237000   0.73541055   -9.3042633    480.58138  0.012372088   0.01201223         3878 
 3238000   0.71768737   -9.2869809    480.00245  0.012353367  0.012006849         3859 
 3239000   0.72915721   -9.3107609     480.4994  0.012362339  0.012001472         3829 
 3240000   0.72033761    -9.320529    479.63673  0.012336336  0.011996101         3858 
 3241000   0.73463889   -9.3046311    479.74149  0.012335223  0.011990728         3843 
 3242000   0.72713512   -9.2882341    479.68278  0.012329909  0.011985357         3841 
 3243000   0.72654619   -9.2818778    480.44555  0.012345707  0.011979991         3858 
 3244000   0.72107476   -9.3171977      480.472  0.012342581  0.011974633         3838 
 3245000   0.72785778   -9.2849976    482.02449  0.012378646  0.011969279         3830 
 3246000   0.73116286   -9.3195403    479.36965  0.012306676  0.011963925         3856 
 3247000   0.72866643    -9.274125    480.88416  0.012341755  0.011958569         3840 
 3248000   0.72575124   -9.3158545    479.66464  0.012306667  0.011953215         3849 
 3249000   0.74141787   -9.2966487    480.48977  0.012324043  0.011947867         3851 
 3250000   0.73024555    -9.315434    479.70937   0.01230024  0.011942521         3854 
 3251000   0.73181688   -9.3200804    479.24537  0.012284563  0.011937174         3866 
 3252000   0.73316778   -9.3093819     479.2869   0.01228185  0.011931833         3865 
 3253000   0.73474189   -9.3066597    480.02095  0.012296879  0.011926492         3858 
 3254000   0.72131909   -9.3053633     479.9783  0.012292007  0.011921152         3838 
 3255000   0.74566616   -9.3120217    479.54614  0.012277167  0.011915813         3870 
 3256000   0.73600939   -9.3319831    480.25318  0.012291492  0.011910484         3850 
 3257000   0.72345418   -9.3114059    479.83189  0.012276939  0.011905151         3880 
 3258000   0.73892306   -9.3340249    479.83707  0.012273303  0.011899819         3861 
 3259000   0.72951795   -9.3251916    479.05843  0.012249627  0.011894488         3888 
 3260000   0.73255508   -9.2973387    479.55595  0.012258588  0.011889161         3867 
 3261000   0.73657867   -9.3147248    480.49847  0.012278914  0.011883836         3881 
 3262000   0.72336051   -9.3123754     479.5769  0.012251607  0.011878508         3889 
 3263000   0.73415545   -9.3389808    479.15338  0.012237036  0.011873177         3867 
 3264000   0.70390862    -9.333835    480.33576  0.012263474  0.011867852         3886 
 3265000   0.72482892   -9.3220193    479.66098  0.012242496  0.011862537         3882 
 3266000    0.7331581   -9.3590122    478.27691  0.012203432   0.01185722         3852 
 3267000   0.71571657   -9.3234066    479.59427  0.012233299  0.011851912         3862 
 3268000   0.73033895   -9.3303975     479.8556   0.01223622  0.011846604         3876 
 3269000   0.71782658   -9.3111464    479.57003  0.012225197  0.011841294         3879 
 3270000   0.74122864   -9.3202103    478.96764  0.012206107  0.011835996         3876 
 3271000   0.73607632   -9.3217662    479.43158  0.012214195  0.011830697         3851 
 3272000   0.72975145   -9.3013328    480.01412  0.012225299    0.0118254         3896 
 3273000   0.71558141   -9.3266172    478.83258   0.01219148  0.011820099         3884 
 3274000   0.72002877   -9.3100656    479.95383  0.012216296  0.011814807         3873 
 3275000   0.73114605   -9.3039841    479.82471   0.01220928  0.011809514         3820 
 3276000    0.7220406   -9.3067888    480.16563  0.012214225  0.011804226         3854 
 3277000   0.72054345   -9.3225958    479.42158  0.012191577  0.011798949         3894 
 3278000   0.72058941   -9.3020671    479.91838  0.012200487   0.01179367         3854 
 3279000   0.71848351   -9.3209049    479.02645  0.012174099  0.011788396         3898 
 3280000   0.71427635   -9.3475714    478.88392  0.012166766  0.011783117         3889 
 3281000   0.71279222   -9.3097581    480.09582  0.012193839  0.011777845         3884 
 3282000    0.7224419   -9.3247256    479.71806  0.012180532  0.011772574         3860 
 3283000   0.72095377   -9.3201912    479.79939  0.012178886  0.011767308         3875 
 3284000   0.72458471   -9.3155327    479.88101  0.012177249  0.011762047         3893 
 3285000   0.72163358   -9.3356188    479.94544  0.012175176  0.011756782         3897 
 3286000   0.72955301   -9.3484791    479.21414  0.012152925  0.011751529         3898 
 3287000   0.71238462   -9.3255496    480.36297  0.012178353  0.011746266         3891 
 3288000   0.73202763    -9.323423    479.55494   0.01215417  0.011741012         3898 
 3289000   0.74263362   -9.3297238    478.55729  0.012125197  0.011735761         3885 
 3290000   0.70743863   -9.3288594    478.84737   0.01212886  0.011730511         3902 
 3291000   0.70632197   -9.3259493    478.50812  0.012116584   0.01172526         3908 
 3292000   0.71999302   -9.3595663    478.91149  0.012123114  0.011720012         3907 
 3293000   0.73213918   -9.3351573    479.39477  0.012131662  0.011714765         3898 
 3294000   0.72898101    -9.339293    478.92729  0.012116153  0.011709515         3932 
 3295000   0.73159418   -9.3051955    479.70143  0.012132054  0.011704279         3891 
 3296000    0.7247143   -9.3424083    478.60977  0.012100773  0.011699042         3936 
 3297000   0.71368219   -9.3526427    478.85376   0.01210327  0.011693804         3930 
 3298000   0.71540022   -9.3273602    479.47001  0.012115171  0.011688566         3892 
 3299000   0.72726031   -9.3171943    479.03949  0.012100624  0.011683336         3913 
 3300000   0.72326561   -9.3163189    479.66276  0.012112696  0.011678106         3907 
 3301000   0.73316307   -9.3276344    479.18959  0.012097081  0.011672884         3887 
 3302000   0.72224826   -9.3386402    480.35015  0.012122707  0.011667663         3882 
 3303000   0.72597907   -9.3311607    480.35033  0.012119041  0.011662442         3905 
 3304000    0.7319735   -9.3388015    479.21521  0.012086744  0.011657216         3916 
 3305000   0.74489567   -9.3333385    478.80715  0.012072798  0.011651999         3903 
 3306000   0.72131183   -9.3366038    479.37437  0.012083443  0.011646782         3908 
 3307000   0.72217796    -9.346742    479.05206  0.012071668  0.011641566         3899 
 3308000   0.73803976   -9.3537953    479.63994  0.012082828  0.011636358         3909 
 3309000   0.72202753   -9.3668525    479.46592  0.012074794  0.011631154         3908 
 3310000   0.72537307   -9.3425518    479.51326  0.012072338  0.011625946         3901 
 3311000   0.72463597   -9.3372742    479.60795  0.012071075  0.011620744         3903 
 3312000   0.72964025   -9.3397175    480.41217  0.012087665  0.011615548         3910 
 3313000   0.70935735   -9.3535823    478.72931  0.012041687   0.01161035         3902 
 3314000   0.70534491   -9.3481666    479.50219  0.012057488  0.011605157         3874 
 3315000   0.71639255   -9.3424788    478.98673  0.012040893  0.011599968         3895 
 3316000   0.73773469   -9.3445117    479.19214  0.012042424  0.011594782         3896 
 3317000   0.73645686   -9.3385439    479.68103  0.012051076    0.0115896         3902 
 3318000   0.70480383   -9.3429631    479.10761  0.012033042  0.011584419         3897 
 3319000   0.72631386   -9.3630732    479.38947  0.012036494  0.011579247         3909 
 3320000   0.72592377   -9.3316999    479.13016   0.01202636  0.011574074         3894 
 3321000   0.71056921   -9.3442109    479.02022  0.012019979  0.011568902         3924 
 3322000   0.70948313   -9.3516904    478.06411  0.011992377  0.011563722         3889 
 3323000   0.72991167   -9.3364003    478.15958  0.011991162  0.011558555         3899 
 3324000   0.71560402   -9.3640882    479.68413  0.012025775  0.011553387         3911 
 3325000   0.73396416   -9.3800741    478.35971  0.011988965  0.011548229         3907 
 3326000   0.74722498   -9.3262212    479.06723  0.012003088  0.011543077         3910 
 3327000   0.72122384   -9.3557759    479.27132  0.012004592  0.011537922         3874 
 3328000   0.73212691   -9.3595231    478.80544  0.011989319  0.011532768         3913 
 3329000   0.73063145   -9.3373823    479.14005  0.011994094  0.011527619         3903 
 3330000   0.72388074   -9.3497512    479.24152  0.011993031   0.01152247         3901 
 3331000   0.73156649   -9.3557164    479.18967  0.011988133   0.01151732         3914 
 3332000   0.72352668   -9.3616316    478.51054   0.01196755  0.011512178         3911 
 3333000   0.72405859   -9.3584364    479.02275  0.011976767  0.011507037         3919 
 3334000   0.71362853    -9.359767    478.59784  0.011962553  0.011501897         3896 
 3335000    0.7151684   -9.3640021    479.22604  0.011974664   0.01149676         3866 
 3336000   0.71229891   -9.3385147    479.18964  0.011970165  0.011491624         3891 
 3337000   0.71519236   -9.3395249    479.20851  0.011967049  0.011486494         3900 
 3338000   0.71865358   -9.3588627    478.45231  0.011944585  0.011481364         3905 
 3339000   0.71429132   -9.3447386    478.39754  0.011939641  0.011476233         3907 
 3340000   0.71153991   -9.3556528    480.31377  0.011983876  0.011471104         3904 
 3341000   0.71841586    -9.329522    478.78191  0.011942081  0.011465983         3911 
 3342000   0.71280219   -9.3613298    478.12675  0.011922171  0.011460866         3898 
 3343000   0.71508444   -9.3659015       478.74  0.011933892  0.011455748         3911 
 3344000   0.71009383   -9.3466183    479.36368  0.011945865  0.011450634         3887 
 3345000   0.72126592   -9.3411983    478.96458  0.011932351  0.011445526         3912 
 3346000   0.72355704   -9.3502908    479.73649   0.01194801  0.011440419         3886 
 3347000   0.71105564   -9.3310848    478.45246   0.01191247  0.011435314         3889 
 3348000   0.70787775   -9.3742819    478.33927  0.011906095  0.011430214         3900 
 3349000   0.72429767   -9.3854154    477.61601  0.011884543  0.011425116         3910 
 3350000   0.72447173   -9.3592175    478.97194  0.011914725  0.011420019         3897 
 3351000   0.71790077   -9.3418602    479.65709  0.011928208  0.011414925         3925 
 3352000     0.718355   -9.3773728    479.14968  0.011912035  0.011409835         3934 
 3353000    0.7136438   -9.3576472    479.16844  0.011908948   0.01140475         3888 
 3354000   0.72044606   -9.3744962    479.23816   0.01190713  0.011399665         3903 
 3355000   0.71122861   -9.3299096     479.0114  0.011897948  0.011394586         3881 
 3356000   0.71542755   -9.3408712     479.2436  0.011900169   0.01138951         3909 
 3357000    0.7044964   -9.3458714     477.9034  0.011863355  0.011384434         3907 
 3358000    0.7075563   -9.3644148    478.40372  0.011872238  0.011379355         3896 
 3359000   0.72196577   -9.3671573    478.90362  0.011881106  0.011374282         3903 
 3360000   0.72756598      -9.3578    478.01848  0.011855617  0.011369211         3880 
 3361000   0.72913137   -9.3605033    478.74116  0.011870008  0.011364143         3914 
 3362000   0.68776673   -9.3687595     478.9039  0.011870511  0.011359079         3909 
 3363000   0.72201303   -9.3530212    479.13484  0.011872704  0.011354018         3888 
 3364000   0.71521437   -9.3278879    478.87526  0.011862744   0.01134896         3860 
 3365000   0.70498756   -9.3503036    478.99193  0.011862108  0.011343902         3914 
 3366000   0.72836736   -9.3297191    479.08089  0.011860787  0.011338852         3903 
 3367000    0.7177669   -9.3572736    478.74411  0.011848929  0.011333801         3882 
 3368000   0.71309647    -9.342222    478.85374  0.011848123  0.011328759         3893 
 3369000    0.7064667   -9.3471643    478.99254  0.011848039  0.011323714         3901 
 3370000    0.7101891   -9.3806694    478.57326  0.011834156   0.01131867         3899 
 3371000   0.70904702   -9.3605237    478.50518  0.011828962  0.011313633         3896 
 3372000   0.70201799   -9.3724689    478.10613  0.011815592    0.0113086         3927 
 3373000   0.70873246   -9.3449371    478.46273    0.0118209  0.011303568         3908 
 3374000   0.72028132   -9.3669587    477.92605  0.011804141  0.011298543         3889 
 3375000   0.69832813   -9.3511409    478.83405  0.011823063  0.011293518         3900 
 3376000   0.70566293   -9.3870601    478.63616  0.011814676  0.011288491         3910 
 3377000   0.69730564   -9.3415927    478.66083  0.011811786  0.011283467         3914 
 3378000   0.70675877   -9.3966272    478.19196  0.011796723  0.011278449         3897 
 3379000   0.71753107   -9.3625475    478.50479  0.011800947  0.011273441         3912 
 3380000   0.72743996   -9.3505345    478.91035  0.011807454  0.011268429         3898 
 3381000   0.72102705   -9.3652594     478.6391  0.011797276  0.011263417         3905 
 3382000   0.71623802   -9.3545488    479.68722  0.011819614  0.011258407         3898 
 3383000   0.70570648   -9.3677866    478.55255   0.01178817  0.011253405         3907 
 3384000     0.712469   -9.3814422    477.95446  0.011769958  0.011248401         3915 
 3385000    0.7230146   -9.3510504    478.97331  0.011791563  0.011243399         3902 
 3386000   0.71531506   -9.3696078    479.02877  0.011789446  0.011238398         3926 
 3387000   0.70511188   -9.3741213    477.57763  0.011750261  0.011233401         3897 
 3388000   0.70777933    -9.380934    478.26362  0.011763666  0.011228408         3919 
 3389000   0.69368558   -9.3402811    478.90508  0.011775968  0.011223423         3905 
 3390000   0.70119739   -9.3571544    478.40458  0.011760191  0.011218433         3912 
 3391000   0.70540381   -9.3479817    479.49778  0.011783588  0.011213453         3901 
 3392000   0.71124156   -9.3741936    478.87884  0.011764909  0.011208475         3911 
 3393000   0.70971697   -9.3589529    478.04744  0.011741022  0.011203499         3907 
 3394000   0.70806381   -9.3653005    479.16554  0.011765015  0.011198521         3892 
 3395000   0.70285475   -9.3736259    478.47215   0.01174453  0.011193547         3893 
 3396000   0.71221376   -9.3610578    477.85348   0.01172589   0.01118858         3912 
 3397000   0.71759492   -9.3668441    478.52343  0.011738873  0.011183615         3881 
 3398000   0.71019419    -9.371967     477.6675  0.011714428  0.011178654         3903 
 3399000   0.70531119   -9.3430941    478.75376  0.011737613  0.011173686         3899 
 3400000   0.70535459   -9.3829036    478.13117  0.011718901  0.011168724         3910 
 3401000   0.71608574   -9.3774166    478.30157  0.011719631  0.011163767         3889 
 3402000   0.69802161    -9.348664    479.06765  0.011734951  0.011158814         3884 
 3403000   0.69797973   -9.3752528     478.7987  0.011724917  0.011153855         3923 
 3404000   0.72452323   -9.3637129    478.05362  0.011703232  0.011148904         3912 
 3405000   0.69944074   -9.3771591    478.48512  0.011710355  0.011143951         3924 
 3406000   0.72041004   -9.3614881    479.41375  0.011729638  0.011139009         3904 
 3407000   0.70183977   -9.3669713     479.0314  0.011716843  0.011134063         3896 
 3408000   0.70279482   -9.3788724    477.89223  0.011685549  0.011129116         3895 
 3409000   0.69585837   -9.3708868    478.74809  0.011703043  0.011124179         3893 
 3410000    0.7034574   -9.3817329    477.93272  0.011679685   0.01111924         3910 
 3411000   0.69530695   -9.3769561    477.99083  0.011677681  0.011114307         3899 
 3412000   0.72432889   -9.3821886    477.81858  0.011670051  0.011109372         3896 
 3413000      0.70279   -9.3667916    478.24362   0.01167701  0.011104443         3915 
 3414000   0.70665836   -9.3792722    479.28985  0.011699127  0.011099512         3910 
 3415000   0.69901506    -9.390659    477.54989  0.011653243  0.011094587         3916 
 3416000   0.68704217   -9.3665759    479.25705  0.011691478  0.011089667         3915 
 3417000   0.70587929   -9.3611647    478.27275  0.011664051   0.01108475         3919 
 3418000   0.69506828   -9.3905021    477.24062  0.011635474  0.011079833         3916 
 3419000   0.70734703   -9.3540651    478.43769  0.011661248  0.011074917         3908 
 3420000   0.71671218   -9.3654533    479.02726  0.011672204  0.011070008         3905 
 3421000   0.69992686   -9.3857293    477.45014  0.011630375  0.011065097         3900 
 3422000   0.72091343   -9.3915828    477.50028  0.011628197  0.011060189         3917 
 3423000   0.71076345   -9.3829985    478.30408  0.011644368  0.011055286         3910 
 3424000   0.71055514   -9.3814754    477.98244   0.01163314  0.011050387         3897 
 3425000   0.71245865    -9.380777    477.28294  0.011612724  0.011045492         3920 
 3426000   0.71362863   -9.3488277    478.58991  0.011641124  0.011040599         3908 
 3427000   0.71842895   -9.3846086    478.88998  0.011645024  0.011035709         3902 
 3428000   0.70745221   -9.4001041     477.7523  0.011613971   0.01103082         3902 
 3429000   0.71410972   -9.3822302    478.77602  0.011635463  0.011025937         3932 
 3430000   0.69906324   -9.3683876    477.82998  0.011609086  0.011021054         3904 
 3431000   0.71316992    -9.371409    477.86814  0.011606629   0.01101617         3899 
 3432000   0.69834809   -9.3812102    478.36553  0.011615325  0.011011285         3917 
 3433000   0.68758187   -9.3812362    478.90845   0.01162512  0.011006405         3921 
 3434000   0.69898943   -9.3701527    477.95999  0.011598719  0.011001527         3910 
 3435000   0.71241187   -9.3753641    478.08327  0.011598333  0.010996656         3896 
 3436000   0.68380306   -9.3864273     477.9763  0.011592363  0.010991787         3917 
 3437000   0.69286299   -9.3789441    477.30813   0.01157279  0.010986919         3915 
 3438000   0.70415662   -9.3953623    477.54172  0.011575085   0.01098206         3909 
 3439000   0.70320776   -9.3729028    477.82006  0.011578464  0.010977198         3914 
 3440000   0.69659218   -9.3582126     479.2408  0.011609516  0.010972343         3890 
 3441000   0.71043771   -9.3714858    478.54744   0.01158935  0.010967487         3913 
 3442000   0.70073846   -9.3934097    477.73869  0.011566403  0.010962637         3913 
 3443000   0.69369051   -9.3840729    478.12171  0.011572314  0.010957785         3902 
 3444000   0.69290992   -9.3968249    477.71256  0.011559053  0.010952937         3909 
 3445000   0.68548318   -9.3664903    478.28619  0.011569574  0.010948092         3909 
 3446000   0.70008541   -9.3830815    477.90392  0.011556972  0.010943242         3905 
 3447000   0.70087148   -9.3892233    478.64812  0.011571611    0.0109384         3919 
 3448000   0.69106951   -9.3975854    477.67647  0.011544772  0.010933555         3912 
 3449000   0.69460468   -9.3833807    478.48172   0.01156088   0.01092872         3915 
 3450000   0.68493585   -9.4033907    477.93121  0.011544232   0.01092389         3890 
 3451000   0.70887636   -9.3698716    478.18026  0.011546901   0.01091906         3899 
 3452000   0.69966098   -9.3638213     478.4649  0.011550427  0.010914233         3908 
 3453000   0.69662006   -9.4073666    478.78965   0.01155492  0.010909406         3909 
 3454000    0.7049737   -9.4028818    478.58862  0.011546724  0.010904588         3924 
 3455000   0.68850011   -9.3853054    479.18504  0.011557767  0.010899771         3901 
 3456000   0.69685608   -9.3835498    478.04722  0.011526987  0.010894951         3915 
 3457000   0.69404532   -9.3653875    477.43533  0.011508903  0.010890137         3908 
 3458000   0.69466922   -9.3954107    477.74589  0.011513059  0.010885321         3915 
 3459000   0.69137989    -9.389687     478.8501  0.011536333  0.010880514         3917 
 3460000   0.68796394   -9.3858097    478.36162  0.011521234  0.010875704         3881 
 3461000   0.68661476   -9.3821495    478.24217  0.011515029  0.010870903         3912 
 3462000   0.68434721   -9.4009834    478.41701  0.011515911  0.010866099         3925 
 3463000   0.70593792   -9.3779083    478.42578  0.011512797  0.010861303         3911 
 3464000   0.68358836   -9.3826494    477.97727  0.011498683  0.010856506         3903 
 3465000   0.69677596   -9.3911289    477.94684  0.011494633  0.010851718         3908 
 3466000   0.70088489   -9.4029846    478.00122  0.011492624  0.010846929         3917 
 3467000   0.69492579   -9.3936307    478.59559  0.011503596  0.010842135         3898 
 3468000   0.69563655   -9.3961251    477.73469  0.011479592  0.010837345         3921 
 3469000   0.70387061   -9.4051144    478.13371  0.011485868  0.010832559         3931 
 3470000   0.70302562   -9.3905249    477.95203  0.011478195   0.01082777         3890 
 3471000   0.70183293   -9.3903188    477.81666  0.011471638  0.010822984         3935 
 3472000   0.70468271   -9.4043438    478.25229   0.01147879  0.010818201         3910 
 3473000   0.70605542   -9.3919009    477.34084  0.011453615  0.010813418         3907 
 3474000   0.68456961   -9.3853599    478.42039  0.011476214  0.010808639         3905 
 3475000     0.705724   -9.4031463    477.93748  0.011461331  0.010803862         3917 
 3476000   0.69685741   -9.3817871    477.76364  0.011453866   0.01079909         3920 
 3477000   0.68727911    -9.368469    477.45941   0.01144328  0.010794324         3912 
 3478000   0.70388401   -9.3902305    477.57431  0.011442743  0.010789559         3915 
 3479000   0.68887299   -9.3992821    478.76436  0.011467959  0.010784799         3910 
 3480000   0.68244309   -9.4075259    476.78329  0.011417224  0.010780037         3918 
 3481000   0.69561749   -9.3916216    478.58618  0.011457105  0.010775281         3926 
 3482000   0.68284562   -9.4211538    477.74263  0.011433626  0.010770531         3909 
 3483000   0.68570013   -9.4093524    477.43811  0.011423057  0.010765779         3898 
 3484000   0.68961384   -9.3962789    477.33976  0.011417426  0.010761032         3917 
 3485000   0.67445981   -9.4037404      477.809  0.011425371  0.010756289         3914 
 3486000   0.69308561   -9.4125549    477.83296  0.011422666  0.010751543         3906 
 3487000   0.67865665   -9.3986034     478.1691  0.011427423  0.010746806         3889 
 3488000   0.67971148   -9.3845871    478.44479  0.011430734  0.010742072         3939 
 3489000   0.70486322   -9.3858808    477.65214  0.011408525  0.010737339         3918 
 3490000   0.68151066   -9.4004307    478.31279  0.011421031  0.010732611         3914 
 3491000   0.69820388   -9.4043953    477.36173  0.011395057   0.01072788         3900 
 3492000   0.70833037   -9.4000746    477.66152  0.011398948  0.010723152         3900 
 3493000    0.6874488   -9.3865985    478.08184  0.011405712  0.010718431         3919 
 3494000   0.68920021   -9.3898491    477.38178  0.011385751   0.01071371         3892 
 3495000   0.70017381   -9.3952328    477.70287   0.01139015  0.010708989         3906 
 3496000   0.71234402   -9.3842384    478.38259  0.011403094  0.010704271         3904 
 3497000   0.67705906   -9.3905128    477.02003  0.011367363  0.010699553         3928 
 3498000   0.69633696   -9.4031212    477.64435  0.011378987  0.010694845         3915 
 3499000   0.68050177   -9.4167656    476.45657  0.011347446  0.010690135         3919 
 3500000   0.70443869   -9.4105621    477.37902  0.011366167  0.010685426         3907 
 3501000   0.69397078   -9.4126802    477.85617  0.011374278  0.010680723         3897 
 3502000   0.69154189   -9.3857721    477.69858   0.01136728  0.010676023         3920 
 3503000   0.70168559   -9.4064334      478.663  0.011386978  0.010671324         3926 
 3504000   0.69551887   -9.4136773    477.26347  0.011350444  0.010666627         3920 
 3505000   0.68986306   -9.4202837     478.0559  0.011366046  0.010661937         3913 
 3506000   0.69369607   -9.4211814    477.80526  0.011356847  0.010657242         3912 
 3507000    0.7027601    -9.409955    477.51599  0.011346735  0.010652557         3898 
 3508000    0.6954065   -9.3886172    477.21913  0.011336448  0.010647868         3918 
 3509000   0.69466461   -9.3944336    478.02296  0.011352307  0.010643184         3924 
 3510000    0.6868062    -9.407429    477.61112  0.011339295  0.010638505         3899 
 3511000   0.68836448   -9.3926288    477.43187  0.011331811   0.01063383         3928 
 3512000   0.69956627    -9.387904    479.15393  0.011369446  0.010629153         3936 
 3513000   0.69101163   -9.3947992    478.11489  0.011341562  0.010624479         3906 
 3514000   0.69563647   -9.4293908    476.79311  0.011306989  0.010619811         3903 
 3515000   0.68969062   -9.4004575    477.60209  0.011322951   0.01061514         3934 
 3516000   0.68878528   -9.3988827    477.10773  0.011308014  0.010610477         3895 
 3517000   0.67829898   -9.4046184    477.74401  0.011319875  0.010605818         3910 
 3518000   0.68573908   -9.3976894    477.73673  0.011316485  0.010601159         3907 
 3519000   0.69445463   -9.3915786    477.80931  0.011314988  0.010596504         3876 
 3520000   0.68770128    -9.397525    476.80666  0.011288037  0.010591852         3887 
 3521000   0.68662179   -9.4170329    477.79924  0.011308323    0.0105872         3925 
 3522000   0.70687949   -9.3996582    477.47716  0.011297491  0.010582547         3909 
 3523000   0.69105679   -9.3991434    477.16373   0.01128687  0.010577902         3914 
 3524000   0.69638301   -9.4171627    477.53025  0.011292335  0.010573259         3919 
 3525000    0.6884218    -9.402713    477.65448  0.011292068  0.010568615         3916 
 3526000    0.6734593   -9.4189595    477.79186  0.011292112  0.010563976         3910 
 3527000   0.68954014   -9.3994187    477.40691  0.011279816  0.010559343         3915 
 3528000   0.68247347   -9.4284147    477.50498  0.011278935  0.010554704         3897 
 3529000   0.68561456    -9.404503    477.14924  0.011267338   0.01055007         3911 
 3530000   0.69061474   -9.4164962    478.22083  0.011289444  0.010545442         3915 
 3531000   0.68661203   -9.4105516    477.77753  0.011275784  0.010540808         3900 
 3532000    0.6745864   -9.4159029    477.61603  0.011268781   0.01053618         3914 
 3533000   0.67566685   -9.4123993    476.67839  0.011243476  0.010531558         3925 
 3534000   0.68829395   -9.3852312    477.88042  0.011268639  0.010526935         3883 
 3535000   0.69589453   -9.4065273    476.86692  0.011241559  0.010522315         3923 
 3536000   0.69638376   -9.4287584     477.2239  0.011246793  0.010517696         3899 
 3537000   0.67794882   -9.4356328    477.29874  0.011245376   0.01051308         3926 
 3538000   0.69039578   -9.4096792    477.06949  0.011236798  0.010508463         3906 
 3539000   0.67790304   -9.4105927    477.65728  0.011247464  0.010503853         3911 
 3540000    0.6850288   -9.4127818    476.94626  0.011227548   0.01049925         3910 
 3541000    0.6803362   -9.4353153    478.39286  0.011258422  0.010494649         3915 
 3542000   0.69573961   -9.4018103    477.43319  0.011232665  0.010490046         3889 
 3543000   0.69410722   -9.4281815    476.61861  0.011210335  0.010485443         3904 
 3544000   0.67644532   -9.3841971    476.82805  0.011212097  0.010480847         3877 
 3545000   0.68231243   -9.4087025    477.50454  0.011224836  0.010476255         3905 
 3546000   0.68890826   -9.4057786    477.56492   0.01122309  0.010471662         3908 
 3547000   0.67677436   -9.4153651    477.59216  0.011220566  0.010467076         3896 
 3548000   0.68978937   -9.4242677    477.16677  0.011207412  0.010462494         3906 
 3549000   0.68077611   -9.3970879    477.62769  0.011215077  0.010457914         3909 
 3550000    0.6781444   -9.4044625    477.39779  0.011206521  0.010453334         3889 
 3551000   0.68051867   -9.4212515     476.7128   0.01118729  0.010448758         3905 
 3552000   0.68351637   -9.4277798    477.50428  0.011202709  0.010444183         3898 
 3553000   0.68726022   -9.4030296    477.96158  0.011210282  0.010439613         3915 
 3554000   0.68414713   -9.4276515    477.32245  0.011192141   0.01043504         3920 
 3555000    0.6818896   -9.4246485    477.82028  0.011200663  0.010430474         3914 
 3556000   0.68471676   -9.4117521    478.37775  0.011210577  0.010425912         3898 
 3557000   0.67735428   -9.3907867    477.38914  0.011184264  0.010421348         3901 
 3558000   0.67404326   -9.3966378    478.01376   0.01119575  0.010416787         3905 
 3559000    0.6726737   -9.4090392    477.71693  0.011185654  0.010412224         3897 
 3560000   0.68058123   -9.4171796    477.25121  0.011171611  0.010407669         3915 
 3561000   0.68735817   -9.4161667    478.13447  0.011189143  0.010403117         3915 
 3562000   0.68044476   -9.4158595     477.4793  0.011170674  0.010398562         3910 
 3563000   0.68710707   -9.4320973    476.26759  0.011139199  0.010394015         3905 
 3564000   0.68975284   -9.4378406    476.65682  0.011145174  0.010389468         3916 
 3565000   0.68079345   -9.4355322     477.9089  0.011171316  0.010384925         3907 
 3566000   0.68031664   -9.4202173    477.06378  0.011148434  0.010380388         3916 
 3567000   0.69048067   -9.4202147    476.92639  0.011142099  0.010375856         3907 
 3568000   0.68686751   -9.4331139    477.04252  0.011141688   0.01037132         3929 
 3569000   0.68831295   -9.4156511    477.57747  0.011151057  0.010366786         3910 
 3570000    0.6831683   -9.4287845    477.39298  0.011143627  0.010362254         3939 
 3571000   0.67591849   -9.4229235    476.68332  0.011123946  0.010357725         3906 
 3572000   0.67454454   -9.4302493    476.69966  0.011121213  0.010353202         3916 
 3573000   0.68461081   -9.4323786    478.60338  0.011162501  0.010348672         3905 
 3574000   0.68599923   -9.4188853    477.05805  0.011123346  0.010344149         3905 
 3575000   0.66812512   -9.4290247    477.50133  0.011130567  0.010339637         3900 
 3576000   0.68526757   -9.4282162    476.96937  0.011115058  0.010335126         3920 
 3577000   0.68785692   -9.4433788     477.8488  0.011132439  0.010330613         3911 
 3578000   0.68152571   -9.4281404    477.86278  0.011129653  0.010326099         3919 
 3579000    0.6818854   -9.4245759     477.6857   0.01112242  0.010321585         3935 
 3580000   0.67838088   -9.3925449    477.14666  0.011106766  0.010317078         3895 
 3581000   0.67394203   -9.3946021    477.05846  0.011101612   0.01031258         3904 
 3582000   0.66116165   -9.4001021    476.93268  0.011095586  0.010308082         3892 
 3583000   0.68031902   -9.4201078    478.02741  0.011117951  0.010303586         3914 
 3584000   0.68644028   -9.4384606    477.53919  0.011103497  0.010299087         3921 
 3585000   0.66057907   -9.4202541    477.17614   0.01109196  0.010294593         3918 
 3586000   0.66520899   -9.4175268     477.3156  0.011092108  0.010290105         3919 
 3587000   0.68492337   -9.4256663    477.94209  0.011103571  0.010285613         3919 
 3588000   0.69902993   -9.4166497    478.10073   0.01110416  0.010281125         3912 
 3589000   0.67441515    -9.406557    477.32068  0.011082954  0.010276646         3922 
 3590000   0.66119149   -9.4106271    477.63151  0.011087082  0.010272164         3934 
 3591000   0.67940443   -9.4082636    477.62765  0.011083905  0.010267687         3891 
 3592000   0.68568898   -9.4176864    477.76999  0.011084122  0.010263214         3905 
 3593000   0.68374957   -9.4215059    477.03951  0.011064095  0.010258741         3913 
 3594000   0.66794629   -9.4287663    477.42499  0.011069954   0.01025427         3937 
 3595000   0.67297508   -9.4094928    476.85292  0.011053614  0.010249803         3914 
 3596000    0.6817681   -9.4228209    478.04986  0.011078278  0.010245339         3879 
 3597000   0.65990128   -9.4341367    477.18329  0.011055122  0.010240875         3906 
 3598000   0.67554025   -9.4430943     476.5624  0.011037669  0.010236412         3925 
 3599000   0.67605525   -9.4234795    477.67872   0.01106045  0.010231955         3940 
 3600000   0.66927895   -9.4370082    476.79638  0.011036953    0.0102275         3914 
 3601000   0.66725369   -9.4486489    477.41942  0.011048306  0.010223044         3925 
 3602000   0.66577276   -9.4123471    477.07033  0.011037163  0.010218592         3914 
 3603000   0.67261058   -9.4346197    476.64083  0.011024166  0.010214146         3899 
 3604000   0.68654811    -9.439027    476.23704   0.01101177  0.010209703         3889 
 3605000   0.68363051   -9.4596263    476.37676  0.011011945  0.010205257         3911 
 3606000   0.66902987   -9.4301733    477.73849  0.011040361  0.010200811         3916 
 3607000   0.68609701   -9.4634886    476.68208  0.011012894  0.010196371         3894 
 3608000   0.66832606   -9.4284816    475.80598  0.010989606  0.010191931         3911 
 3609000   0.68287128   -9.4486683    477.08083  0.011015998  0.010187494         3928 
 3610000   0.67801461   -9.4411124    477.42614  0.011020917  0.010183061         3932 
 3611000   0.68017242    -9.433786    476.87418  0.011005127  0.010178625         3929 
 3612000    0.6804144   -9.4254165    476.95559  0.011003959  0.010174191         3918 
 3613000   0.67762218   -9.4329506    475.77947  0.010973786  0.010169766         3896 
 3614000   0.67527955   -9.4736484    476.11186  0.010978414  0.010165337         3913 
 3615000   0.66493643   -9.4467729    476.55031  0.010985484  0.010160911         3907 
 3616000   0.68849988   -9.4390209    476.98904  0.010992557  0.010156495         3913 
 3617000   0.65890657   -9.4315453     476.3908  0.010975735  0.010152074         3927 
 3618000   0.67233455   -9.4477411    476.01129   0.01096396  0.010147656         3924 
 3619000   0.67297725    -9.416992    476.31269  0.010967871  0.010143243         3905 
 3620000   0.67544008    -9.414225     476.4295   0.01096753  0.010138829         3909 
 3621000   0.67899228   -9.4368339    476.51277  0.010966417  0.010134424         3907 
 3622000   0.68916657   -9.4668404    476.47971  0.010962629  0.010130021         3928 
 3623000   0.65693298   -9.4346356    477.37501  0.010980196  0.010125619         3911 
 3624000   0.66663977   -9.4253394     476.7199  0.010962102  0.010121218         3913 
 3625000   0.65974424   -9.4323583    476.81569   0.01096128  0.010116818         3902 
 3626000   0.68070615   -9.4397528    475.88417  0.010936849  0.010112422         3912 
 3627000   0.66261474   -9.4403564    476.91478  0.010957513   0.01010803         3913 
 3628000   0.66209901   -9.4246427    477.94069  0.010978057  0.010103636         3898 
 3629000   0.67519581   -9.4323264    477.12782  0.010956366  0.010099247         3931 
 3630000   0.68539628   -9.4418716     477.6138  0.010964504  0.010094861         3912 
 3631000   0.66612794   -9.4336748    476.83593  0.010943632  0.010090478         3906 
 3632000   0.66310793   -9.4442352    476.85427   0.01094104  0.010086094         3929 
 3633000   0.67067914   -9.4487506    476.27626   0.01092477  0.010081714         3918 
 3634000   0.67253414   -9.4354339    476.58593  0.010928865  0.010077336         3911 
 3635000   0.67701541   -9.4477229    476.77832  0.010930269  0.010072965         3910 
 3636000   0.66897984   -9.4379543    476.75848  0.010926808  0.010068595         3916 
 3637000   0.66195104   -9.4618508    476.59171  0.010919982  0.010064224         3896 
 3638000   0.65547423    -9.442342    476.95179  0.010925229  0.010059852         3940 
 3639000   0.68199356   -9.4497037     476.9509  0.010922206  0.010055487         3929 
 3640000   0.66735996   -9.4501095    476.85205  0.010916943  0.010051128         3915 
 3641000   0.66943809   -9.4500122    477.18957  0.010921669  0.010046769         3922 
 3642000   0.66121336   -9.4472221    477.29247  0.010921025  0.010042411         3901 
 3643000   0.67760605   -9.4518875    476.00559   0.01088859  0.010038055         3907 
 3644000    0.6630069   -9.4509328    476.31027  0.010892569  0.010033701         3933 
 3645000   0.67435505   -9.4590196    477.43175  0.010915221  0.010029357         3919 
 3646000   0.66830513   -9.4392966    476.47551  0.010890371  0.010025004         3919 
 3647000   0.67915132   -9.4489593    476.52633  0.010888546  0.010020659         3915 
 3648000   0.65014544   -9.4456144    477.01847  0.010896803  0.010016317         3902 
 3649000   0.66432962   -9.4588672    476.98337  0.010893016  0.010011973         3915 
 3650000   0.66620525   -9.4405005    476.97555  0.010889853  0.010007633         3908 
 3651000   0.66834906   -9.4477208    476.64433   0.01087931  0.010003297         3898 
 3652000   0.67614607   -9.4537485    477.14625  0.010887784 0.0099989621         3920 
 3653000   0.66076437   -9.4451027    477.33369  0.010889079 0.0099946287         3926 
 3654000   0.65742669   -9.4234391    477.90914  0.010899223 0.0099903009         3915 
 3655000   0.66360696   -9.4340949    476.41938  0.010862275 0.0099859704         3925 
 3656000   0.65962771   -9.4663288     476.6499  0.010864558 0.0099816472         3919 
 3657000   0.66693133    -9.445116    477.12957  0.010872518 0.0099773227         3952 
 3658000   0.65445368   -9.4372469     476.7801  0.010861584 0.0099730043         3914 
 3659000   0.66746173   -9.4474009    476.24102  0.010846338 0.0099686877         3934 
 3660000   0.67817701   -9.4723958    476.86628  0.010857611 0.0099643728         3905 
 3661000   0.67112558   -9.4412872    476.38992  0.010843802  0.009960059         3908 
 3662000   0.68178998   -9.4610566    476.01599  0.010832332 0.0099557456         3904 
 3663000   0.67233187   -9.4379145    476.77699  0.010846687 0.0099514342         3941 
 3664000   0.66632914   -9.4421154    476.55767  0.010838739  0.009947132         3930 
 3665000   0.65566581   -9.4667732    476.84777  0.010842378 0.0099428224         3914 
 3666000   0.67573366   -9.4321086     477.4939  0.010854108 0.0099385199         3910 
 3667000   0.66939552    -9.434037    476.34947   0.01082514 0.0099342237         3932 
 3668000   0.66705117   -9.4548121    476.39332  0.010823185 0.0099299293         3928 
 3669000   0.65268521   -9.4790105    476.21288  0.010816137 0.0099256375         3921 
 3670000   0.66262783   -9.4175697    476.63267  0.010822722 0.0099213447         3913 
 3671000   0.66453699     -9.45005    476.42242  0.010815001  0.009917056         3914 
 3672000   0.67823829   -9.4463701    477.07409  0.010826845 0.0099127709         3922 
 3673000   0.68151146   -9.4506921    476.18625  0.010803754 0.0099084828         3909 
 3674000   0.67519531   -9.4377637    477.57374  0.010832284 0.0099042011         3924 
 3675000   0.67509729   -9.4578191     477.0614  0.010817719 0.0098999271         3939 
 3676000   0.64395383   -9.4456691    476.43678  0.010800616 0.0098956464         3913 
 3677000   0.65474625   -9.4461287    476.53863  0.010799987  0.009891372         3921 
 3678000   0.66864585   -9.4606268    476.84181   0.01080392 0.0098870981         3921 
 3679000   0.66437949   -9.4516951    477.14229  0.010807789 0.0098828299         3918 
 3680000   0.66577239   -9.4402652     476.9709  0.010800972 0.0098785616         3922 
 3681000    0.6479858   -9.4423727    476.78605  0.010793852  0.009874296         3925 
 3682000   0.67198686   -9.4531489    475.92151  0.010771354 0.0098700345         3932 
 3683000    0.6683035   -9.4521656    476.85923  0.010789647 0.0098657768         3912 
 3684000   0.65246025    -9.463459    476.93996  0.010788544 0.0098615169         3929 
 3685000   0.67025354   -9.4474734    477.21608  0.010791861 0.0098572618         3918 
 3686000    0.6672525   -9.4601629    476.76576  0.010778752  0.009853006         3911 
 3687000   0.66326034   -9.4696267    476.41162  0.010767824 0.0098487539         3898 
 3688000   0.68288464   -9.4543464    477.32493  0.010785542  0.009844504         3929 
 3689000   0.65973192   -9.4620606    476.33893  0.010760344 0.0098402623         3918 
 3690000   0.66819604   -9.4457043    477.77339  0.010789824 0.0098360208         3913 
 3691000   0.66508893   -9.4411665    476.69854  0.010762633 0.0098317808         3921 
 3692000   0.66596401   -9.4483775    476.74147  0.010760687 0.0098275432         3914 
 3693000   0.65806963    -9.468595    476.40063  0.010750082 0.0098233065         3917 
 3694000   0.67892451   -9.4650138    476.48871  0.010749159  0.009819073         3904 
 3695000   0.67061909   -9.4526776    476.47555  0.010745953 0.0098148418         3926 
 3696000   0.65172388   -9.4700604    476.31428  0.010739409  0.009810609         3923 
 3697000   0.65850947   -9.4656485    476.80691  0.010747609 0.0098063815         3900 
 3698000   0.62918314    -9.464723    476.06275  0.010727933 0.0098021552         3886 
 3699000   0.67114757   -9.4430949    476.59772  0.010737085 0.0097979281         3916 
 3700000   0.64758768   -9.4626601    476.51027  0.010732213 0.0097937037         3890 
 3701000   0.65535557   -9.4607411    475.92437  0.010716121 0.0097894862         3904 
 3702000   0.64455493   -9.4581759    475.69492  0.010708061 0.0097852712         3901 
 3703000   0.64200518   -9.4576384    476.78949  0.010729802 0.0097810577         3899 
 3704000   0.66160457   -9.4742742    476.18433   0.01071329 0.0097768461         3909 
 3705000   0.66107478    -9.472214    476.78663  0.010723946 0.0097726367         3917 
 3706000   0.66279154    -9.446947    476.23651  0.010708682 0.0097684294         3914 
 3707000    0.6591081   -9.4845677    476.17674   0.01070445 0.0097642262         3912 
 3708000   0.64797238   -9.4607278    476.76879  0.010714868 0.0097600277         3916 
 3709000   0.65311512   -9.4473551     476.5965  0.010708109 0.0097558314         3912 
 3710000   0.64533591   -9.4589182    476.32253  0.010699069 0.0097516359         3906 
 3711000   0.66346938   -9.4585305     476.7034  0.010704738 0.0097474437         3894 
 3712000    0.6357138   -9.4688828    476.83266  0.010704756 0.0097432549         3923 
 3713000   0.67101059   -9.4633431    476.68855  0.010698639 0.0097390657         3913 
 3714000   0.65314487   -9.4666201    476.60058  0.010693784  0.009734879         3885 
 3715000   0.67768922   -9.4491704    476.09847  0.010679643 0.0097306984         3904 
 3716000   0.63908297   -9.4642446    475.83167  0.010670786  0.009726519         3889 
 3717000   0.65009858   -9.4624401    477.16677  0.010697847 0.0097223385         3904 
 3718000   0.66551961   -9.4878696    475.70385  0.010662181 0.0097181631         3904 
 3719000   0.65003811   -9.4636285    476.28883  0.010672422 0.0097139928         3914 
 3720000   0.65177056   -9.4500011    476.42634  0.010672633 0.0097098222         3926 
 3721000   0.66168594   -9.4413278    477.27429  0.010688755 0.0097056562         3904 
 3722000   0.65607996   -9.4665845     476.3027   0.01066413 0.0097014872         3900 
 3723000   0.65726077   -9.4473324    476.65929  0.010669247 0.0096973198         3910 
 3724000   0.65914349   -9.4653798    476.06795   0.01065315 0.0096931569         3935 
 3725000   0.64522351   -9.4801898    476.21077  0.010653485 0.0096889982         3901 
 3726000   0.66271499    -9.462493    475.67925  0.010638738 0.0096848425         3905 
 3727000   0.66448175   -9.4771293    476.07418  0.010644714 0.0096806887         3929 
 3728000   0.67511272   -9.4697494    476.41935  0.010649574 0.0096765335         3886 
 3729000   0.66760565   -9.4415393    476.32346  0.010644575 0.0096723837         3915 
 3730000   0.64433919    -9.454675    476.65538  0.010649137 0.0096682351         3923 
 3731000   0.65386882   -9.4579895    476.59129  0.010644852 0.0096640868         3912 
 3732000   0.65811865   -9.4859799    476.25702  0.010634535 0.0096599419         3906 
 3733000   0.65699921   -9.4652841    475.74055  0.010620157 0.0096557959         3894 
 3734000   0.64166154   -9.4620453    475.39655  0.010609636 0.0096516575         3893 
 3735000   0.66075879   -9.4640004    475.93973  0.010618914 0.0096475172         3911 
 3736000   0.65410579   -9.4496444    476.86264  0.010636658 0.0096433819         3907 
 3737000   0.65431435   -9.4790295    475.67604  0.010607351 0.0096392485         3896 
 3738000   0.64050496    -9.447953    476.66824  0.010626633 0.0096351212         3911 
 3739000   0.63845861   -9.4698669    476.44255  0.010618761 0.0096309939         3895 
 3740000   0.65406767   -9.4571243    476.54088  0.010618112 0.0096268651         3905 
 3741000   0.65419936   -9.4818832    476.24451  0.010608672 0.0096227434         3901 
 3742000   0.65280849   -9.4737022    475.92542  0.010598731 0.0096186216         3913 
 3743000   0.64213178   -9.4497228    476.56792  0.010610204 0.0096145057         3914 
 3744000   0.64396293   -9.4522003    476.26836  0.010600703 0.0096103864         3901 
 3745000    0.6442331   -9.4670554    476.29371  0.010598436 0.0096062742         3921 
 3746000   0.66026369   -9.4629423    475.33542  0.010574289  0.009602161         3903 
 3747000   0.63919962   -9.4831142    476.90892  0.010606461 0.0095980519         3919 
 3748000   0.64221767   -9.4764456    475.90856  0.010581389 0.0095939437         3920 
 3749000   0.65523886   -9.4912293    475.00491   0.01055848 0.0095898368         3933 
 3750000   0.64814311   -9.4835112    476.30607  0.010584579 0.0095857319         3906 
 3751000   0.66043624   -9.4690272    475.76381   0.01056971 0.0095816285         3909 
 3752000   0.65730087   -9.4948374     475.7266  0.010566067 0.0095775328         3896 
 3753000   0.64565117   -9.4768535    476.64201  0.010583578 0.0095734328         3895 
 3754000   0.64335854   -9.4607379    476.81045  0.010584498 0.0095693362         3909 
 3755000   0.65323147   -9.4569764    475.99862  0.010563662 0.0095652463         3895 
 3756000   0.65238163   -9.4635518    476.44765  0.010570812 0.0095611555         3904 
 3757000   0.65395309   -9.4656768    475.25354  0.010541512 0.0095570704         3893 
 3758000   0.65408492   -9.4893911    475.71884  0.010549025 0.0095529883         3922 
 3759000   0.65600021   -9.4697606    475.49158  0.010541181 0.0095489088         3898 
 3760000   0.65073352   -9.4619484    476.81549  0.010567719 0.0095448322         3904 
 3761000   0.64498442    -9.473841    476.62685   0.01056073 0.0095407517         3915 
 3762000   0.65083435   -9.4511047    476.78353  0.010561393 0.0095366716         3918 
 3763000   0.65164578   -9.4641172    475.90475  0.010539126 0.0095325991         3902 
 3764000   0.63831543   -9.4886823    476.14079  0.010541551 0.0095285263         3910 
 3765000   0.64739152   -9.4834501    476.20898  0.010540261 0.0095244598         3920 
 3766000   0.64216612   -9.4852823    476.27192  0.010538855 0.0095203947         3917 
 3767000   0.64120214   -9.4840635    476.27464  0.010536117   0.00951633         3918 
 3768000   0.64060124   -9.4462088    475.26545  0.010511002 0.0095122685         3919 
 3769000   0.64157036   -9.4880896    476.25349  0.010530059 0.0095082125         3899 
 3770000   0.65721868   -9.4994275     476.0506  0.010522781 0.0095041577         3905 
 3771000   0.64144845   -9.4691251    475.68099  0.010511822 0.0095000994         3930 
 3772000   0.65068652   -9.4905863    475.72078  0.010509915 0.0094960474         3904 
 3773000   0.64434486   -9.4927274    475.51173  0.010502512 0.0094919988         3908 
 3774000   0.66144239   -9.4958742    476.43613  0.010520141 0.0094879445         3933 
 3775000    0.6415186   -9.4835545    476.69363  0.010523038 0.0094838977         3907 
 3776000   0.65213001    -9.470884    475.82111  0.010500995  0.009479854         3895 
 3777000   0.65521448    -9.479189    476.25109  0.010507702 0.0094758125         3917 
 3778000   0.66800244   -9.4790717    475.64157  0.010491476 0.0094717732         3911 
 3779000   0.65662288   -9.4982957    475.82329  0.010492707 0.0094677351         3905 
 3780000   0.65940574   -9.4724119    475.17753  0.010475695 0.0094636962         3891 
 3781000   0.64816515   -9.4615773    476.72271   0.01050698 0.0094596631         3907 
 3782000   0.65060957   -9.4871413    476.08045   0.01049005 0.0094556325         3897 
 3783000   0.64742361   -9.4886768    475.94393   0.01048427 0.0094516023         3890 
 3784000   0.64043895   -9.4846083    475.72199  0.010476612  0.009447576         3908 
 3785000   0.63282472   -9.4845854    475.35434  0.010465749 0.0094435479         3911 
 3786000   0.65373522   -9.4682018    475.82903  0.010473434 0.0094395249         3918 
 3787000   0.64415883   -9.4708115    476.60582  0.010487761 0.0094355073         3909 
 3788000   0.64649488   -9.4549998    475.77857  0.010466794 0.0094314898         3893 
 3789000   0.66682732   -9.4763143    475.72923  0.010462946 0.0094274722         3908 
 3790000   0.65451111   -9.4928505     476.0266  0.010466724 0.0094234552         3921 
 3791000   0.63038037   -9.4811063    476.63624  0.010477364 0.0094194459         3910 
 3792000   0.64113614   -9.4900705    476.05292  0.010461782 0.0094154392         3905 
 3793000   0.64536903   -9.4708429    476.50871  0.010469038 0.0094114294         3928 
 3794000   0.64853316   -9.4824893    475.35203  0.010440872 0.0094074274         3905 
 3795000   0.64438014   -9.4736492    476.57568  0.010464991 0.0094034261         3906 
 3796000   0.63637001   -9.5046676    476.38893  0.010458134 0.0093994257         3908 
 3797000   0.63604979   -9.4968431    475.67946  0.010439809 0.0093954239         3895 
 3798000   0.62686285   -9.4780215      475.761  0.010438849 0.0093914287         3886 
 3799000    0.6431365   -9.4922008    475.97685  0.010440836 0.0093874354         3895 
 3800000    0.6493658   -9.4899211    475.26161  0.010422404 0.0093834457         3907 
 3801000   0.64429689   -9.5173637    475.25598  0.010419538 0.0093794535         3912 
 3802000   0.63793043   -9.4711858    476.42163  0.010442347 0.0093754649         3903 
 3803000    0.6542313   -9.4891224    476.21483   0.01043507 0.0093714798         3922 
 3804000   0.65652253   -9.4982852    475.23444  0.010410849 0.0093675016         3920 
 3805000   0.63171234   -9.4855431    475.39386  0.010411604 0.0093635212         3927 
 3806000   0.65274052   -9.5012933    476.40239  0.010430951 0.0093595437         3919 
 3807000   0.63455225   -9.4895376    475.79304  0.010414873 0.0093555682         3908 
 3808000   0.63309735   -9.4850354    475.76823  0.010411595 0.0093515947         3919 
 3809000   0.63795914   -9.4913537    476.01699  0.010414304 0.0093476238         3919 
 3810000   0.65742599    -9.483292    476.38346  0.010419586 0.0093436567         3910 
 3811000   0.65330895   -9.4553039    475.55465  0.010398728 0.0093396922         3896 
 3812000   0.62903377   -9.4786345    476.45471  0.010415676  0.009335725         3923 
 3813000   0.63393334   -9.4890713    475.95126  0.010401942 0.0093317642         3900 
 3814000   0.64366943   -9.4796926    475.94999  0.010399187 0.0093278044         3929 
 3815000   0.63817459   -9.5030306    476.11408  0.010400046 0.0093238438         3922 
 3816000   0.63850091   -9.4887986    475.52775  0.010384516 0.0093198862         3910 
 3817000   0.64383228   -9.4981824    476.10207  0.010394334 0.0093159337         3930 
 3818000   0.64146943    -9.487845    475.68338  0.010382473 0.0093119805         3914 
 3819000   0.64756492   -9.4893763    475.81723  0.010382675 0.0093080314         3902 
 3820000   0.63848086   -9.4832156    475.97286  0.010383352 0.0093040844         3913 
 3821000   0.62958444   -9.4951115    475.71549  0.010375022 0.0093001406         3902 
 3822000   0.64477949   -9.5086617     475.9678  0.010377808 0.0092961954         3943 
 3823000   0.65516942   -9.4910326    474.91878  0.010352227 0.0092922499         3924 
 3824000   0.64572661   -9.4960843    475.45069  0.010361112 0.0092883106         3907 
 3825000   0.65035608   -9.5008346    475.39199  0.010357124  0.009284373         3907 
 3826000   0.63129189    -9.476145    475.46044  0.010355908 0.0092804373         3937 
 3827000   0.64295924    -9.482199    476.42242  0.010374149 0.0092765043         3917 
 3828000    0.6379746   -9.4874672    475.42123  0.010349644 0.0092725749         3916 
 3829000   0.65367643   -9.4899867    476.79194  0.010376772 0.0092686486         3929 
 3830000   0.64113722    -9.480728    475.77164  0.010351863  0.009264723         3906 
 3831000   0.63955882   -9.5006983    475.05706  0.010333617 0.0092607967         3909 
 3832000   0.64742798   -9.4976757    475.88682  0.010348965 0.0092568774         3894 
 3833000   0.64792544     -9.48531    476.40875  0.010357613 0.0092529588         3915 
 3834000   0.64053537   -9.4991656    475.88864  0.010343606 0.0092490425         3921 
 3835000   0.63323579   -9.5100989    476.18647  0.010347381 0.0092451283         3917 
 3836000   0.64766085   -9.4956387    475.12028  0.010321522 0.0092412163         3910 
 3837000    0.6461376   -9.4796892    475.43187  0.010325599 0.0092373081         3916 
 3838000   0.64759287   -9.4990734    475.57475  0.010326011 0.0092334016         3906 
 3839000   0.64041779   -9.5033918    475.75329  0.010327196 0.0092294947         3894 
 3840000   0.64422807   -9.4849414    476.19124  0.010334011 0.0092255905         3923 
 3841000   0.64567507   -9.4773504    476.36275  0.010335042 0.0092216914         3910 
 3842000   0.62801458    -9.487209    475.41665  0.010311831 0.0092177906         3903 
 3843000   0.64882804   -9.4937183    475.21892   0.01030486 0.0092138965         3891 
 3844000   0.63923284   -9.5075726    476.40212  0.010327829 0.0092100024         3910 
 3845000   0.61818852   -9.5043061     476.0937  0.010318459  0.009206107         3928 
 3846000    0.6467246   -9.4944787     475.9339  0.010312314 0.0092022165         3933 
 3847000   0.63453733   -9.4815917     476.6517  0.010325182 0.0091983277         3879 
 3848000   0.63621147   -9.4899743     476.5325  0.010319917 0.0091944436         3917 
 3849000   0.63094402   -9.4927599    475.88507  0.010303219 0.0091905613         3917 
 3850000   0.63995463   -9.4758567    476.44973  0.010312765  0.009186677         3917 
 3851000   0.64130391   -9.4707846     475.9726  0.010299762 0.0091827999         3916 
 3852000    0.6388779   -9.4892942    475.15487  0.010279398 0.0091789217         3924 
 3853000   0.64056742   -9.4916951    476.85862  0.010313579 0.0091750444         3909 
 3854000   0.63162608   -9.5011679    475.92143  0.010290638 0.0091711696         3912 
 3855000   0.64316865   -9.5072681    475.09979  0.010270207 0.0091672979         3916 
 3856000   0.63368014   -9.5052365    474.94756  0.010264254 0.0091634316         3935 
 3857000   0.63775972   -9.5024642    475.69781  0.010277803 0.0091595705         3925 
 3858000    0.6348499   -9.5118263    475.92107  0.010279961 0.0091557074         3916 
 3859000    0.6256239   -9.4843134    475.06178  0.010258741  0.009151845         3900 
 3860000   0.64104869   -9.4841573    476.09196  0.010278324 0.0091479867         3921 
 3861000   0.64316648   -9.5280417    476.10262  0.010275892 0.0091441303         3915 
 3862000   0.62883901   -9.5007206    476.17523  0.010274798 0.0091402729         3932 
 3863000   0.64714363   -9.5072397    475.36048  0.010254562 0.0091364151         3908 
 3864000   0.63314892   -9.5219668    474.99079  0.010243935 0.0091325591         3927 
 3865000   0.62539469   -9.4968685    475.01702   0.01024185  0.009128706         3921 
 3866000   0.65137545   -9.4986055    474.96266  0.010238029 0.0091248534         3919 
 3867000   0.63680493   -9.5130374    475.32418  0.010243173 0.0091210029         3911 
 3868000   0.63133155   -9.5188825     475.4976  0.010244261 0.0091171553         3920 
 3869000   0.64238505   -9.5256472    475.33739  0.010238162 0.0091133079         3910 
 3870000   0.62402423   -9.5173934     475.3645    0.0102361 0.0091094643         3918 
 3871000   0.63528808   -9.5003789    475.23339  0.010230634 0.0091056216         3900 
 3872000   0.63101194   -9.5102285    475.77909  0.010239736  0.009101786         3925 
 3873000    0.6389105   -9.5074886    475.76094  0.010236702 0.0090979467         3920 
 3874000   0.62568183   -9.4983331    474.84042  0.010214258 0.0090941139         3894 
 3875000   0.62959356   -9.5058894    475.90898  0.010234602 0.0090902831         3906 
 3876000    0.6212781   -9.4904118    476.02874  0.010234536 0.0090864522         3914 
 3877000   0.63190228    -9.509416    475.43885  0.010219217 0.0090826266         3917 
 3878000   0.62455633   -9.4899068    475.71306  0.010222474 0.0090788036         3904 
 3879000    0.6337827   -9.5063316    475.86511  0.010223105 0.0090749767         3910 
 3880000    0.6389663    -9.488697    476.11291  0.010225793 0.0090711526         3905 
 3881000   0.63397308   -9.5168448     474.9514  0.010198218 0.0090673314         3905 
 3882000   0.61479908   -9.4977988    475.49924  0.010207351 0.0090635137         3923 
 3883000   0.62010427   -9.4987041    476.03154  0.010216146 0.0090597024         3901 
 3884000    0.6189263    -9.477033    475.58998  0.010204042 0.0090558877         3909 
 3885000   0.61715551   -9.4840771    475.54509  0.010200452 0.0090520746         3925 
 3886000   0.63294675   -9.5174989    476.19229  0.010211706 0.0090482673         3923 
 3887000   0.63953389   -9.5238185    475.37595  0.010191578 0.0090444628         3912 
 3888000   0.63309165   -9.5106576    474.33007   0.01016654 0.0090406586         3922 
 3889000   0.63059561   -9.5208357    475.67338   0.01019271 0.0090368552         3922 
 3890000   0.62960012   -9.5103637    475.26844  0.010181415 0.0090330528         3909 
 3891000   0.63185071   -9.5230157    474.69403  0.010166496 0.0090292517         3913 
 3892000   0.61388272   -9.5068371    474.72578  0.010164564 0.0090254535         3897 
 3893000   0.63581403   -9.5202635    474.88229  0.010165303 0.0090216547         3906 
 3894000   0.61581464   -9.5078348    475.74294  0.010181111 0.0090178599         3918 
 3895000   0.64254601   -9.4946039    475.78079  0.010179307 0.0090140687         3904 
 3896000   0.61955055   -9.5114387    475.86533  0.010178502 0.0090102794         3926 
 3897000   0.63056405   -9.5239576    475.03802  0.010158199  0.009006494         3924 
 3898000   0.62711289   -9.5340999    474.43608  0.010142724 0.0090027069         3913 
 3899000    0.6358719   -9.5051169     475.4508  0.010161811 0.0089989247         3921 
 3900000   0.63515499   -9.5241699    475.12819  0.010152312 0.0089951432         3932 
 3901000   0.61944124   -9.5203071    475.53814  0.010158467 0.0089913662         3902 
 3902000   0.62230897   -9.5108333    475.60332  0.010157255 0.0089875883         3895 
 3903000    0.6242155   -9.5270044    474.89746  0.010139582 0.0089838139         3927 
 3904000   0.61475251   -9.5262013    474.44429  0.010127312 0.0089800392         3931 
 3905000   0.62371949   -9.5222686    475.24742  0.010141857 0.0089762672         3909 
 3906000   0.63643316   -9.5100879    475.26512  0.010139638 0.0089724968         3923 
 3907000   0.62273084   -9.5069497    474.96492   0.01013064 0.0089687293         3915 
 3908000   0.61668702   -9.5199698    475.21335  0.010133345 0.0089649678         3906 
 3909000   0.61254624   -9.5055941    475.48302  0.010136502 0.0089612057         3893 
 3910000   0.63180253   -9.5033432    474.89651  0.010121409 0.0089574453         3900 
 3911000   0.63701594   -9.5230357    475.08685  0.010122877 0.0089536866         3913 
 3912000   0.62494915   -9.5244828    474.51678  0.010108145 0.0089499303         3921 
 3913000   0.62287208   -9.5201913    475.18875  0.010119873 0.0089461786         3914 
 3914000   0.62899782   -9.5270874    475.31616      0.01012 0.0089424265         3918 
 3915000   0.60973151   -9.5201776    475.24916  0.010115989 0.0089386724         3923 
 3916000   0.63433545   -9.5236403    475.24239  0.010113262 0.0089349227         3916 
 3917000   0.62638788   -9.5058916    475.87086   0.01012405 0.0089311767         3920 
 3918000   0.61838803   -9.5137978    474.53648  0.010093085  0.008927435         3908 
 3919000   0.62848019   -9.5031685    474.69232  0.010093823 0.0089236949         3919 
 3920000   0.62686476   -9.4985051     475.6177  0.010110921 0.0089199524         3930 
 3921000   0.61748391   -9.5234065    474.94739  0.010094096  0.008916209         3915 
 3922000   0.62061905   -9.5204466    475.29096  0.010098822 0.0089124714         3900 
 3923000    0.6229934    -9.522945    475.38059  0.010098152 0.0089087365         3911 
 3924000   0.63627851   -9.5212624     475.0953   0.01008952 0.0089050035         3918 
 3925000   0.63004666   -9.4939274     475.2077  0.010089336 0.0089012724         3897 
 3926000   0.63350674   -9.5217885    475.50848   0.01009315 0.0088975444         3918 
 3927000   0.64213838   -9.5204921    475.06349  0.010081137 0.0088938173         3911 
 3928000   0.61802459   -9.5075535    475.19238  0.010081305 0.0088900905         3932 
 3929000   0.61190043   -9.5239601     475.4217  0.010083603 0.0088863672         3924 
 3930000   0.62398405   -9.5159679     475.0911  0.010074027 0.0088826463         3913 
 3931000   0.62983004   -9.5160256    474.96082  0.010068702 0.0088789273         3914 
 3932000   0.62113187   -9.5068111    475.97029  0.010087536 0.0088752114         3915 
 3933000   0.62515074   -9.5135337    475.03752  0.010065207 0.0088714947         3924 
 3934000   0.62943293   -9.5043649    474.87878  0.010059286 0.0088677833         3932 
 3935000   0.62790128   -9.5416063    475.73061  0.010074769 0.0088640716         3938 
 3936000   0.62749099   -9.5142989    475.47836  0.010066869 0.0088603621         3919 
 3937000   0.61859133   -9.5031976    474.88337  0.010051718 0.0088566555         3909 
 3938000   0.60974632   -9.4975694    475.07372  0.010053194 0.0088529518         3931 
 3939000   0.60186101   -9.5097207    474.79479   0.01004474 0.0088492499         3929 
 3940000   0.62594082   -9.5461588    474.74139  0.010041062 0.0088455508         3917 
 3941000   0.62076045   -9.5271489    475.10584   0.01004622 0.0088418534         3898 
 3942000   0.62160953   -9.5285258    475.21837   0.01004605 0.0088381575         3916 
 3943000   0.62282777   -9.5263669    474.67138  0.010031942 0.0088344663         3919 
 3944000   0.62989298   -9.5288801    474.71859  0.010030396 0.0088307745         3937 
 3945000   0.62923671   -9.4929898    475.35865  0.010041374 0.0088270829         3923 
 3946000   0.61787357   -9.5254004    474.56786  0.010022129 0.0088233932         3919 
 3947000   0.62217813   -9.5296881    474.67019   0.01002175 0.0088197067         3908 
 3948000   0.62002506   -9.5379531    475.71062  0.010041173 0.0088160209         3928 
 3949000   0.63058303   -9.5420564    474.41789  0.010011351 0.0088123411         3929 
 3950000   0.63662617   -9.5101248    475.28734  0.010027159 0.0088086596         3906 
 3951000   0.62770983   -9.5318411     474.5129  0.010008287  0.008804982         3916 
 3952000   0.61121204   -9.5124383    475.31935  0.010022759 0.0088013081         3908 
 3953000   0.62659759   -9.5273675    475.28846  0.010019573 0.0087976298         3917 
 3954000   0.61304518    -9.526369    475.28488  0.010016963 0.0087939545         3921 
 3955000   0.60813262   -9.5389478    474.46464  0.009997148  0.008790283         3904 
 3956000   0.61686362   -9.5406763    475.43687  0.010015101 0.0087866134         3923 
 3957000    0.6184186   -9.5211393      475.553  0.010015016 0.0087829484         3918 
 3958000   0.62478397   -9.5271224     474.1927  0.009983845 0.0087792809         3911 
 3959000   0.60694242     -9.54835    474.90667 0.0099963516 0.0087756171         3915 
 3960000   0.60728708   -9.5414081    475.21775  0.010000374 0.0087719524         3916 
 3961000   0.62167405   -9.5358829    474.32414 0.0099790486 0.0087682937         3918 
 3962000   0.62454704   -9.5392828    475.12933 0.0099934657 0.0087646354         3905 
 3963000   0.62734447   -9.5152568    475.79036  0.010004844   0.00876098         3927 
 3964000   0.61740443   -9.5114575    475.32373 0.0099925103 0.0087573295         3925 
 3965000   0.62009866   -9.5164326    474.99056 0.0099829878 0.0087536757         3915 
 3966000   0.61793268   -9.5256278    475.18957 0.0099846522 0.0087500269         3930 
 3967000   0.60606188    -9.537332     474.3179 0.0099638244 0.0087463775         3919 
 3968000     0.626287    -9.537102    475.30865 0.0099821206 0.0087427337         3939 
 3969000   0.60879553   -9.5230959    474.79661 0.0099688547 0.0087390917         3924 
 3970000   0.61362681   -9.5463712    474.76789 0.0099657409  0.008735449         3924 
 3971000   0.60950815   -9.5403349    475.25733 0.0099735022  0.008731808         3926 
 3972000   0.60318348   -9.5513957    474.62378 0.0099576992 0.0087281682         3929 
 3973000   0.61666082    -9.526713    474.90626  0.009961118  0.008724531         3930 
 3974000   0.60562743   -9.5204227       475.59 0.0099729492 0.0087208954         3925 
 3975000   0.62793126   -9.5462398    474.82764 0.0099544579  0.008717265         3925 
 3976000   0.61487267   -9.5394689    474.90986 0.0099536776 0.0087136356         3915 
 3977000   0.61563142   -9.5316586    474.63778 0.0099454735  0.008710004         3937 
 3978000   0.61855641   -9.5426518    474.66007 0.0099434403 0.0087063762         3915 
 3979000   0.61897007   -9.5352459    473.66161 0.0099200304 0.0087027529         3933 
 3980000   0.61637046   -9.5677164    475.06432 0.0099469079 0.0086991282         3926 
 3981000   0.60578535   -9.5332019    474.08189 0.0099238442 0.0086955044         3927 
 3982000   0.61720773   -9.5451547    474.32877 0.0099265186  0.008691883         3921 
 3983000    0.6101307   -9.5513181    474.86415 0.0099352279 0.0086882636         3931 
 3984000   0.60700704   -9.5299828    475.17287 0.0099391915 0.0086846467         3930 
 3985000    0.6206354    -9.531829    474.86173 0.0099301909 0.0086810358         3919 
 3986000   0.60733852   -9.5391021    474.98073 0.0099301875 0.0086774274         3933 
 3987000   0.61356485   -9.5379101     474.6019 0.0099197789 0.0086738202         3932 
 3988000   0.61132716   -9.5362186    475.00025 0.0099256155 0.0086702184         3909 
 3989000   0.60632741   -9.5281688    474.96728 0.0099224383 0.0086666142         3902 
 3990000   0.61011628   -9.5340003    474.36284 0.0099073274 0.0086630141         3897 
 3991000   0.61229732   -9.5256243    474.38914 0.0099053941  0.008659417         3917 
 3992000   0.61051644   -9.5565848    473.77054 0.0098899997 0.0086558186         3919 
 3993000   0.61214279   -9.5343601    474.24165 0.0098973547 0.0086522227         3919 
 3994000   0.61219833   -9.5501787    474.14032 0.0098927625 0.0086486294         3922 
 3995000   0.60853187   -9.5292761    475.14049 0.0099111491 0.0086450352         3916 
 3996000   0.61745278   -9.5500624    474.86319 0.0099028859 0.0086414439         3923 
 3997000   0.61717799   -9.5435519     474.6099 0.0098951276 0.0086378562         3938 
 3998000   0.60904238   -9.5207032    474.55714 0.0098915529 0.0086342701         3931 
 3999000   0.61927666   -9.5384015    474.44621 0.0098867677 0.0086306844         3933 
 4000000   0.61461959   -9.5395702    474.23167 0.0098798265 0.0086271038         3939 
 4001000   0.61242298   -9.5584985     474.5657 0.0098843144 0.0086235228         3929 
 4002000   0.61042264   -9.5432413    474.28074 0.0098759107 0.0086199397         3937 
 4003000   0.61580409   -9.5602175    473.94888 0.0098665352  0.008616361         3937 
 4004000   0.61564465   -9.5635397    474.64632 0.0098785865  0.008612789         3948 
 4005000   0.60987431   -9.5453953    474.33522 0.0098696467 0.0086092138         3922 
 4006000    0.6274994   -9.5546182    474.71082 0.0098749963 0.0086056436         3899 
 4007000   0.61488295   -9.5244394    474.69502 0.0098722033 0.0086020726         3917 
 4008000   0.59426926   -9.5415748    475.32693 0.0098828787 0.0085985064         3916 
 4009000   0.62125626   -9.5333735    474.83035 0.0098700913 0.0085949419         3916 
 4010000   0.61435945   -9.5257008    474.57889 0.0098624041 0.0085913785         3931 
 4011000   0.60085377   -9.5435127    474.75963 0.0098637003 0.0085878174         3935 
 4012000   0.61707222   -9.5651021    473.76863 0.0098406578 0.0085842546         3913 
 4013000   0.59875407   -9.5515713    473.92378 0.0098414274 0.0085806956         3922 
 4014000   0.60819467   -9.5520799    474.51604 0.0098512713 0.0085771376         3924 
 4015000   0.61990723   -9.5291681    473.46227 0.0098269463 0.0085735833         3915 
 4016000   0.61540954   -9.5551512    474.40542   0.00984407 0.0085700297         3926 
 4017000   0.61636091   -9.5293182    474.47741 0.0098431127 0.0085664798         3920 
 4018000   0.60569893   -9.5398237    474.27273  0.009836418 0.0085629331         3907 
 4019000   0.60057795   -9.5321707    474.38936 0.0098363887 0.0085593853         3930 
 4020000   0.61143388   -9.5504765      474.778 0.0098419984 0.0085558411         3921 
 4021000   0.60880051   -9.5444495    474.57209 0.0098352833 0.0085523021         3930 
 4022000    0.6064541   -9.5343019    475.08652 0.0098434966 0.0085487645         3918 
 4023000   0.60036296   -9.5608548    474.62557 0.0098315016 0.0085452238         3923 
 4024000     0.615252   -9.5637792    474.58044 0.0098281237 0.0085416852         3923 
 4025000   0.61057749   -9.5614372    473.77259 0.0098089563 0.0085381514         3927 
 4026000   0.60263509   -9.5491009    474.44029 0.0098203405 0.0085346208         3936 
 4027000    0.5950193   -9.5402138    474.50294 0.0098191983 0.0085310923         3915 
 4028000   0.61678776   -9.5514667    474.46131 0.0098158993  0.008527564         3923 
 4029000   0.60897075   -9.5405517    473.99902 0.0098039013 0.0085240375         3928 
 4030000   0.59616044   -9.5280118    475.04305 0.0098230573 0.0085205146         3936 
 4031000   0.60267216   -9.5497006    474.85669 0.0098167678 0.0085169896         3933 
 4032000   0.60572824   -9.5547354    474.43101  0.009805535 0.0085134698         3933 
 4033000   0.60786445   -9.5618314     475.4277 0.0098236982 0.0085099516         3922 
 4034000   0.59746944   -9.5550227    474.12477 0.0097943475 0.0085064368         3918 
 4035000   0.60710922   -9.5318442    474.02188 0.0097897952 0.0085029245         3902 
 4036000   0.60827502   -9.5487636    475.37872 0.0098153849  0.008499413         3917 
 4037000    0.5991875   -9.5677034    474.71002 0.0097991499 0.0084959004         3929 
 4038000    0.6137076   -9.5517478    474.69347 0.0097963817  0.008492391         3947 
 4039000   0.59794919   -9.5395248    474.98297 0.0097999293 0.0084888834         3920 
 4040000    0.6110581   -9.5449641    474.16726 0.0097806778 0.0084853787         3923 
 4041000   0.60715208   -9.5571892    474.77223 0.0097907331 0.0084818796         3921 
 4042000   0.62950805   -9.5390307    473.49616 0.0097620023  0.008478377         3930 
 4043000   0.60772443   -9.5643137    474.65249 0.0097834217 0.0084748796         3914 
 4044000   0.60707235   -9.5543982    475.21568 0.0097926079 0.0084713816         3905 
 4045000    0.6201279   -9.5545498    474.43868 0.0097741797 0.0084678892         3924 
 4046000     0.596404   -9.5620309    474.63358 0.0097757781 0.0084643963         3928 
 4047000   0.60209006   -9.5399038    474.39523 0.0097684547 0.0084609015         3917 
 4048000   0.59696545   -9.5298374    474.91021  0.009776643 0.0084574107         3919 
 4049000   0.60414642   -9.5461738     474.9499 0.0097750454 0.0084539223         3924 
 4050000   0.59377332   -9.5530682    473.77019 0.0097483577 0.0084504347         3917 
 4051000   0.59177755    -9.548642    474.72636 0.0097656209 0.0084469503         3935 
 4052000   0.59886848   -9.5654861    474.16184 0.0097516009 0.0084434653         3928 
 4053000    0.6102116   -9.5531195    473.91929 0.0097442079 0.0084399776         3924 
 4054000   0.61643342   -9.5478738    474.24483  0.009748496 0.0084364983         3921 
 4055000   0.60042948    -9.555276    474.69432 0.0097553292 0.0084330235         3926 
 4056000   0.59970064   -9.5588069    475.07689 0.0097607842 0.0084295508         3922 
 4057000   0.59660721   -9.5602029    474.55976 0.0097477562 0.0084260811         3915 
 4058000   0.60052072   -9.5530497    474.33109 0.0097406582 0.0084226111         3930 
 4059000   0.60342065   -9.5555821     474.3488 0.0097386219 0.0084191408         3921 
 4060000   0.58687884   -9.5372206    474.79332 0.0097453474 0.0084156759         3925 
 4061000   0.61276899   -9.5600458    474.17762 0.0097303131 0.0084122103         3936 
 4062000   0.59639593   -9.5424113    474.96606 0.0097440927 0.0084087463         3896 
 4063000   0.59713648    -9.566917    474.02731 0.0097224405 0.0084052847         3929 
 4064000   0.59627495   -9.5558592    474.45485 0.0097288151 0.0084018255         3909 
 4065000   0.61105493   -9.5589647    474.56379 0.0097286551 0.0083983678         3935 
 4066000   0.59432928    -9.571687     474.7653 0.0097303922 0.0083949123         3927 
 4067000   0.60131945   -9.5668775    473.41792 0.0097003918 0.0083914568         3921 
 4068000   0.59806636    -9.560226    474.00947 0.0097101252 0.0083880052         3947 
 4069000   0.58903881   -9.5475254    473.61036  0.009699565 0.0083845581         3922 
 4070000   0.60327783   -9.5659204    474.35111 0.0097123487 0.0083811128         3946 
 4071000   0.60499035   -9.5718217    474.44464 0.0097118776 0.0083776694         3923 
 4072000   0.59254186   -9.5674929    474.16031 0.0097036736 0.0083742256         3925 
 4073000   0.59327608   -9.5597107    473.70806 0.0096920382 0.0083707833         3941 
 4074000   0.59005499   -9.5602989     474.0677 0.0096970157 0.0083673433         3932 
 4075000   0.59627835    -9.555563     473.2575 0.0096780676 0.0083639037         3931 
 4076000   0.59254792     -9.55584    473.76757 0.0096861214 0.0083604665         3941 
 4077000    0.6179642   -9.5470822    473.77855   0.00968397 0.0083570294         3924 
 4078000    0.6047645    -9.555765    473.89767 0.0096840295 0.0083535989         3930 
 4079000   0.59938239   -9.5524068    474.38633 0.0096916386  0.008350167         3915 
 4080000    0.5855304   -9.5559002    474.06242 0.0096826476 0.0083467369         3924 
 4081000   0.60449511   -9.5705638    474.15145 0.0096820928  0.008343311         3921 
 4082000   0.60164327   -9.5589537    473.82823 0.0096731225 0.0083398855         3908 
 4083000   0.59597217   -9.5615878    473.56129 0.0096653052 0.0083364623         3948 
 4084000   0.59995822   -9.5455569     473.9221 0.0096703007 0.0083330414         3932 
 4085000   0.60321052   -9.5651032    474.17258 0.0096730432 0.0083296221         3937 
 4086000   0.61282984   -9.5504127    473.76337 0.0096623301 0.0083262022         3923 
 4087000   0.59893276    -9.573552    473.93104 0.0096633848 0.0083227843         3938 
 4088000   0.59159496   -9.5550783    474.51455 0.0096729156 0.0083193699         3911 
 4089000   0.60800429   -9.5745055    473.78959 0.0096557755 0.0083159572         3930 
 4090000   0.58812309   -9.5485753    475.44435 0.0096871302 0.0083125495         3920 
 4091000   0.60215191   -9.5606252    473.37289 0.0096425668 0.0083091402         3923 
 4092000   0.59023295   -9.5607192    474.92127  0.009671743 0.0083057332         3919 
 4093000   0.61079145   -9.5500203    473.94984 0.0096496018  0.008302327         3928 
 4094000    0.5974053   -9.5682069    474.15578 0.0096514367 0.0082989227         3925 
 4095000    0.6020111   -9.5492682    473.95128 0.0096449183 0.0082955185         3917 
 4096000   0.59790674   -9.5712451    474.57107 0.0096551732 0.0082921178         3932 
 4097000   0.60598685   -9.5790365    473.37808  0.009628551 0.0082887184         3923 
 4098000   0.59982329   -9.5569509    474.02518 0.0096393603 0.0082853199         3921 
 4099000   0.60829694   -9.5585113    474.33804 0.0096433691 0.0082819237         3944 
 4100000   0.60091247    -9.559008    474.27515 0.0096397388 0.0082785333         3928 
 4101000   0.59666336   -9.5618687    474.48836 0.0096417206 0.0082751422         3914 
 4102000   0.58779672   -9.5558165    474.20913 0.0096336976 0.0082717521         3928 
 4103000   0.60791878   -9.5608732    473.63566 0.0096197022 0.0082683627         3935 
 4104000    0.5887532   -9.5739256    474.03337 0.0096254339 0.0082649773         3925 
 4105000   0.60135526   -9.5483789     475.2822  0.009648441 0.0082615974         3909 
 4106000   0.60413965   -9.5598574    473.89017 0.0096178391 0.0082582148         3923 
 4107000   0.60047327   -9.5786902     473.7341 0.0096123306 0.0082548336         3934 
 4108000   0.59224653   -9.5719813    473.60744 0.0096074214 0.0082514559         3924 
 4109000   0.60214542   -9.5575753    473.69472 0.0096068532 0.0082480765         3926 
 4110000    0.5927114   -9.5648561    473.32015 0.0095969211 0.0082447017         3934 
 4111000    0.5915268   -9.5726019    474.04853 0.0096093515 0.0082413279         3936 
 4112000   0.58233495   -9.5704066    474.22346 0.0096105597 0.0082379579         3934 
 4113000   0.59182715   -9.5479857    474.31356 0.0096100486 0.0082345911         3917 
 4114000   0.58516994   -9.5843737    473.61668 0.0095935967 0.0082312243         3929 
 4115000   0.59640239    -9.570394    473.94581 0.0095979305 0.0082278577         3938 
 4116000   0.60217959   -9.5597479    473.47685 0.0095861041 0.0082244958         3910 
 4117000   0.59296285   -9.5656095    473.83401 0.0095910049 0.0082211307         3934 
 4118000   0.57915575   -9.5760836    473.47454 0.0095814017 0.0082177709         3922 
 4119000   0.58945105   -9.5547714    474.30882 0.0095959541 0.0082144103         3947 
 4120000   0.60762339   -9.5797214    473.90673 0.0095854922 0.0082110576         3940 
 4121000   0.60310241   -9.5592265    474.18387 0.0095887703 0.0082077058         3927 
 4122000   0.60508302    -9.555116    473.24374 0.0095674378 0.0082043521         3924 
 4123000   0.59312852   -9.5803163    473.23365 0.0095649134 0.0082010006         3926 
 4124000   0.60413946   -9.5761795    474.90501 0.0095963669 0.0081976501         3936 
 4125000   0.59749982   -9.5697744    472.88177  0.009553167 0.0081943042         3915 
 4126000   0.58881807   -9.5695592    473.71524 0.0095676854 0.0081909584         3927 
 4127000   0.58404361   -9.5746722    473.39555 0.0095589118 0.0081876137         3925 
 4128000   0.58791629   -9.5704079    473.25381 0.0095537348 0.0081842734         3934 
 4129000   0.59183707   -9.5666641     474.6564 0.0095797287 0.0081809328         3911 
 4130000   0.59207489   -9.5709223    474.14643 0.0095671193 0.0081775936         3934 
 4131000   0.58325171    -9.567409    474.04493 0.0095627557 0.0081742568         3929 
 4132000   0.58430199   -9.5803438    473.73277 0.0095541458 0.0081709258         3941 
 4133000   0.59693458   -9.5726222    474.01248  0.009557474   0.00816759         3916 
 4134000   0.59420267   -9.5815954    473.16335 0.0095380454 0.0081642604         3933 
 4135000   0.59303407   -9.5471069    474.34357 0.0095595237 0.0081609323         3918 
 4136000   0.58439026   -9.5750141    473.90606 0.0095483973 0.0081576063         3939 
 4137000   0.58875958   -9.5676142    473.76196 0.0095431866 0.0081542836         3928 
 4138000   0.59134693   -9.5717248    473.11967 0.0095279456 0.0081509619         3937 
 4139000   0.58771757   -9.5769058    474.09345 0.0095452494 0.0081476377         3936 
 4140000   0.58598955   -9.5685066    474.10646 0.0095432058 0.0081443199         3935 
 4141000   0.58970609   -9.5505224    474.52719  0.009549368 0.0081410035         3928 
 4142000   0.58980204   -9.5708787    474.36697  0.009543839 0.0081376867         3927 
 4143000   0.58323894   -9.5823741    473.98856 0.0095339238 0.0081343719         3922 
 4144000   0.59594651   -9.5676969     473.3248 0.0095182753 0.0081310603         3928 
 4145000   0.58159916    -9.564303    474.27967 0.0095351763 0.0081277487         3926 
 4146000   0.59373051   -9.5848534    473.73967 0.0095220226  0.008124439         3919 
 4147000   0.58526631   -9.5886612    473.50987 0.0095151087 0.0081211327         3931 
 4148000   0.58380268    -9.581638    473.20484 0.0095066867 0.0081178274         3920 
 4149000   0.57185297   -9.5929403    473.76937 0.0095157342 0.0081145223         3923 
 4150000   0.57440088   -9.5757758    474.13818 0.0095208469 0.0081112195         3942 
 4151000   0.58929758   -9.5689211    473.49088 0.0095055584 0.0081079192         3932 
 4152000   0.60831041   -9.5588217    473.85185 0.0095105141 0.0081046209         3937 
 4153000   0.58907297   -9.5596773    473.48467 0.0095008563 0.0081013262         3917 
 4154000   0.60007245   -9.5801595    473.47208 0.0094983164 0.0080980298         3930 
 4155000   0.58826597   -9.5888314    473.78024 0.0095022109 0.0080947362         3924 
 4156000   0.57793631   -9.5782135    473.42808 0.0094928633 0.0080914454         3925 
 4157000   0.59408968   -9.5828465    473.76301  0.009497294 0.0080881555         3928 
 4158000   0.57646073   -9.5861688    473.66092 0.0094929637 0.0080848665         3926 
 4159000   0.58794378   -9.5634751     473.9374 0.0094962211 0.0080815796         3927 
 4160000   0.58848476   -9.5711433    473.48578 0.0094848914 0.0080782932         3933 
 4161000   0.58708981   -9.5915012    473.68856  0.009486673 0.0080750085         3931 
 4162000   0.58966734   -9.5813087    473.55595 0.0094817386 0.0080717277         3937 
 4163000   0.58168584   -9.5665187    473.84741 0.0094852952 0.0080684491         3930 
 4164000   0.58820212   -9.5832909    474.20158 0.0094901053  0.008065175         3936 
 4165000   0.59321291   -9.5761831    473.10955 0.0094659773 0.0080619018         3933 
 4166000   0.58772163   -9.5834907    472.77518 0.0094570168  0.008058629         3941 
 4167000   0.58156461   -9.5823966    473.49108 0.0094690642 0.0080553559         3938 
 4168000   0.57724038   -9.5940713     473.6849 0.0094706674 0.0080520883         3939 
 4169000   0.58316282   -9.5746664    474.37063 0.0094821027 0.0080488198         3931 
 4170000   0.59173953   -9.5829079    474.30067 0.0094784307 0.0080455536         3931 
 4171000    0.5883039   -9.5819524    473.53796 0.0094609199 0.0080422865         3918 
 4172000   0.57804261   -9.5925465    474.01041  0.009468089 0.0080390233         3922 
 4173000   0.59067775   -9.5712064    473.67168 0.0094590558 0.0080357625         3937 
 4174000   0.57640374   -9.6048188    473.95648 0.0094624756 0.0080325008         3945 
 4175000   0.59931129   -9.5667261    474.17523 0.0094645755  0.008029241         3919 
 4176000   0.58540149   -9.5707799    473.41221 0.0094470828 0.0080259867         3931 
 4177000   0.58691118   -9.5927589    473.80655 0.0094526884 0.0080227341         3934 
 4178000   0.58688697   -9.5763978    473.23593 0.0094390444 0.0080194827         3933 
 4179000   0.59248415    -9.574268    473.90553 0.0094501381 0.0080162314         3948 
 4180000    0.5776837   -9.5865711    473.71037 0.0094439867 0.0080129815         3924 
 4181000   0.58130014   -9.5838811    473.76901 0.0094428967 0.0080097354         3924 
 4182000   0.60100106   -9.5762393    473.61905 0.0094376504 0.0080064908         3928 
 4183000   0.58210266   -9.5921602     472.3889 0.0094108873 0.0080032447         3926 
 4184000   0.58117391   -9.5919286    473.95194 0.0094397693 0.0080000009         3927 
 4185000   0.56861657   -9.5712485    473.91902 0.0094368583 0.0079967591         3934 
 4186000   0.58444538   -9.5637608    473.63144 0.0094288788 0.0079935225         3902 
 4187000   0.57862519   -9.5810773     473.8526 0.0094310286  0.007990286         3924 
 4188000   0.58643055   -9.5866883       473.55 0.0094227554 0.0079870521         3934 
 4189000   0.58557211   -9.5958199    473.49299 0.0094193719 0.0079838194         3941 
 4190000   0.58347568   -9.5738689    474.13456 0.0094298839 0.0079805861         3928 
 4191000   0.57926035    -9.573961      473.334 0.0094117157 0.0079773554         3914 
 4192000   0.58384797   -9.5981702     472.6403 0.0093956802 0.0079741263         3935 
 4193000   0.57798539   -9.5748099     473.2869 0.0094062903 0.0079708989         3940 
 4194000   0.57145555   -9.5976167     472.8869 0.0093960996 0.0079676757         3930 
 4195000   0.57633016   -9.5861748    473.84546 0.0094129014 0.0079644516         3918 
 4196000   0.57093623   -9.5814797    473.69958  0.009407761 0.0079612283         3927 
 4197000   0.58962005   -9.5819386    472.90496 0.0093897418 0.0079580059         3936 
 4198000   0.59741234   -9.5952736    473.52601 0.0093998335 0.0079547872         3935 
 4199000   0.57916518   -9.5979653    474.10868 0.0094091585 0.0079515704         3929 
 4200000   0.58600375   -9.5754352    474.07992 0.0094063475 0.0079483586         3922 
 4201000   0.57627088   -9.5980175    473.68128 0.0093962009 0.0079451458         3926 
 4202000   0.57378982   -9.5939065    473.21712 0.0093847595 0.0079419361         3928 
 4203000   0.59053752   -9.5744157    473.57461 0.0093896147 0.0079387297         3913 
 4204000   0.58452281   -9.5912679    473.30266 0.0093819905 0.0079355237         3928 
 4205000   0.58015965   -9.5817757    473.09153 0.0093755753 0.0079323185         3936 
 4206000   0.57961378    -9.585037    473.69318 0.0093852667  0.007929115         3929 
 4207000   0.57502894   -9.5946029    473.91124 0.0093873552  0.007925916         3928 
 4208000   0.58231333   -9.5790649    473.25082 0.0093720456  0.007922717         3935 
 4209000   0.57992407   -9.6139899    473.20755 0.0093689624 0.0079195188         3945 
 4210000   0.58783538    -9.594314    472.96386 0.0093619132 0.0079163211         3945 
 4211000   0.57381496   -9.5870735    474.94086 0.0093988138 0.0079131241         3932 
 4212000   0.59472841   -9.5907634    473.21284 0.0093623939 0.0079099298         3936 
 4213000   0.59913916   -9.5940526    473.19963 0.0093599104 0.0079067383         3924 
 4214000   0.59206801   -9.5678707    472.70189 0.0093478462 0.0079035496         3930 
 4215000   0.57453189   -9.5867519    473.59892 0.0093633634 0.0079003585         3930 
 4216000   0.56797885   -9.5848123    473.46674 0.0093585297 0.0078971729         3927 
 4217000   0.57433953   -9.5978389    474.09697 0.0093687647 0.0078939913         3925 
 4218000   0.57663761    -9.604526    473.15779 0.0093479886 0.0078908084         3926 
 4219000   0.56752563   -9.5735432    472.64605  0.009335665 0.0078876257         3914 
 4220000   0.58058292   -9.5912962    473.32262 0.0093468131 0.0078844441         3936 
 4221000   0.57636375   -9.5975717     474.1581 0.0093610934  0.007881265         3938 
 4222000   0.57948865   -9.5988802     473.3444 0.0093428153 0.0078780884         3927 
 4223000    0.5680119   -9.5780143    473.66912 0.0093470108 0.0078749154         3934 
 4224000   0.58567135   -9.5980998    474.25589 0.0093563741 0.0078717417         3924 
 4225000   0.57398772   -9.5965722    473.46262 0.0093385133 0.0078685729         3932 
 4226000   0.58594485    -9.599358    473.48328 0.0093367108 0.0078654022         3931 
 4227000   0.57250024   -9.6065612    473.25539 0.0093300093 0.0078622352         3932 
 4228000   0.57524705   -9.5972394    473.07193 0.0093241866 0.0078590675         3915 
 4229000   0.57808059   -9.6104844    473.38288  0.009328109 0.0078559027         3927 
 4230000   0.58163983   -9.6079419    473.23999 0.0093230888 0.0078527359         3935 
 4231000    0.5676896    -9.584094    473.13417  0.009318801 0.0078495763         3928 
 4232000    0.5758646   -9.6090576    473.35441 0.0093209358 0.0078464169         3932 
 4233000   0.56283958   -9.5937894    473.38178 0.0093192727 0.0078432577         3932 
 4234000   0.57430989   -9.5911994    473.33722 0.0093161948 0.0078401049         3934 
 4235000   0.58374911   -9.6099326    473.05588 0.0093084588 0.0078369526         3940 
 4236000   0.57514229   -9.5973991    473.42208 0.0093134655 0.0078337974         3926 
 4237000   0.55981016   -9.6002193    472.96865 0.0093023494 0.0078306472         3925 
 4238000     0.562621   -9.5865932    474.47803 0.0093298338 0.0078274976         3927 
 4239000   0.58275379   -9.5966311    473.38367 0.0093061192 0.0078243506         3925 
 4240000   0.58118772   -9.5982417    473.18625 0.0093000442 0.0078212055         3915 
 4241000   0.56835371   -9.5765315    473.61038 0.0093061853 0.0078180604         3924 
 4242000   0.56931202   -9.6029591    473.24235 0.0092967616 0.0078149196         3918 
 4243000   0.57597072   -9.5799509    473.80913  0.009305702 0.0078117807         3915 
 4244000   0.57916439   -9.5817865    473.64521 0.0093002907 0.0078086409         3943 
 4245000   0.56142871   -9.5886435     473.2532 0.0092904045 0.0078055032         3927 
 4246000   0.56407653   -9.6036355    472.38072 0.0092710928 0.0078023663         3926 
 4247000   0.57563661   -9.6101659    472.84456  0.009278011 0.0077992314         3921 
 4248000   0.58002096   -9.5870599    472.53416 0.0092697379 0.0077960993         3907 
 4249000   0.58136757   -9.5884352    472.87873 0.0092743142 0.0077929678         3945 
 4250000   0.57554951   -9.6087356     473.3428 0.0092812314 0.0077898392         3926 
 4251000   0.56056404   -9.6022434    473.50143 0.0092821577 0.0077867139         3941 
 4252000   0.57275574   -9.6051236    473.22511 0.0092745592 0.0077835888         3907 
 4253000   0.57607455    -9.609621    472.64212 0.0092609554 0.0077804637         3931 
 4254000   0.57062198   -9.5974697    473.15282 0.0092687826 0.0077773386         3937 
 4255000   0.57572171   -9.6035262    472.77045 0.0092591157 0.0077742165         3944 
 4256000   0.56773851   -9.6107578    473.47285 0.0092706934 0.0077710955         3939 
 4257000   0.57455021   -9.5993647    473.54609 0.0092699492 0.0077679786         3926 
 4258000   0.57103624   -9.6023695    473.38924 0.0092647025 0.0077648657         3947 
 4259000   0.57195419   -9.5993106    472.86317 0.0092522339 0.0077617514         3930 
 4260000   0.55922269   -9.5893036     472.9021 0.0092508236 0.0077586399         3929 
 4261000    0.5693514   -9.6006139    473.02951 0.0092511443 0.0077555309         3929 
 4262000   0.58315044   -9.5968902    473.22869 0.0092528681 0.0077524238         3914 
 4263000   0.56071586   -9.5897267    473.21695 0.0092504682 0.0077493148         3937 
 4264000   0.57802532   -9.5978719    472.93696 0.0092428268 0.0077462096         3935 
 4265000   0.57533727    -9.598914    473.41028 0.0092499077 0.0077431045         3915 
 4266000    0.5779327    -9.613348    473.01531  0.009240024 0.0077400016         3929 
 4267000   0.56881234   -9.6010029    473.62427 0.0092497514 0.0077368995         3925 
 4268000   0.57391698   -9.6149961    473.64502 0.0092479893 0.0077338016         3935 
 4269000    0.5762798   -9.6119537    473.03545 0.0092339237 0.0077307057         3927 
 4270000   0.57671887   -9.5919153    473.11019 0.0092332199 0.0077276118         3912 
 4271000   0.56994667   -9.6292979    472.70035 0.0092230616 0.0077245184         3928 
 4272000   0.57769456   -9.5959481    473.18097 0.0092302779 0.0077214278         3946 
 4273000   0.55854545   -9.5991963    472.52686 0.0092153613 0.0077183359         3927 
 4274000   0.56788455   -9.5801041    474.20137 0.0092458542 0.0077152483         3943 
 4275000   0.57158365   -9.5974205    473.79574 0.0092357843 0.0077121629         3935 
 4276000   0.56583989   -9.6060176    472.78576 0.0092139414 0.0077090744         3931 
 4277000    0.5647532   -9.6073445     472.6271 0.0092086957 0.0077059885         3938 
 4278000   0.55666331    -9.605553     473.7508 0.0092284324 0.0077029092         3932 
 4279000   0.56787092   -9.6349123    472.46445 0.0092012239 0.0076998278         3936 
 4280000    0.5517353     -9.59405    472.52468 0.0092002469 0.0076967473         3922 
 4281000   0.55314716   -9.5882631    473.51939 0.0092174608 0.0076936664         3944 
 4282000    0.5708109   -9.5991786     473.0094  0.009205383 0.0076905902         3915 
 4283000    0.5627639   -9.6123683    472.99274 0.0092029096 0.0076875182         3933 
 4284000   0.55330114   -9.6041317    473.04481 0.0092017743 0.0076844475         3946 
 4285000   0.55885477   -9.5865441    472.73306  0.009193564 0.0076813767         3935 
 4286000   0.57664049   -9.6032059    473.19327 0.0092003669 0.0076783075         3919 
 4287000    0.5891915   -9.6196268    472.64576  0.009187578 0.0076752404         3929 
 4288000   0.55347943   -9.6049648    473.06794 0.0091936401  0.007672175         3924 
 4289000   0.56508441   -9.6170725    472.59858  0.009182377  0.007669113         3937 
 4290000   0.55522403   -9.6167475    472.79379 0.0091840285 0.0076660488         3924 
 4291000   0.56541367   -9.6048944    473.61109 0.0091977606 0.0076629857         3939 
 4292000   0.56657358   -9.6064522    473.82784  0.009199826 0.0076599236         3927 
 4293000   0.57424225   -9.6156163    473.13027 0.0091841422 0.0076568639         3930 
 4294000   0.56595985    -9.618081    473.82993 0.0091955815  0.007653809         3934 
 4295000   0.56812904   -9.6185545      472.528   0.00916818 0.0076507526         3929 
 4296000   0.54883931   -9.6113179    472.70355 0.0091694513 0.0076476979         3941 
 4297000   0.56330791   -9.6155802    473.24381 0.0091777947 0.0076446442         3935 
 4298000   0.56307695   -9.6004143     472.1633 0.0091547095 0.0076415952         3944 
 4299000    0.5681297   -9.6215858    472.88807 0.0091666292 0.0076385437         3939 
 4300000   0.56829085    -9.623768    472.51938 0.0091573523 0.0076354926         3934 
 4301000   0.57877493   -9.6141454     472.3893 0.0091527029 0.0076324477         3941 
 4302000   0.56207281   -9.6059422    474.24614 0.0091865439  0.007629403         3926 
 4303000   0.57327305   -9.6125891     472.9915 0.0091601111 0.0076263609         3944 
 4304000   0.56522818   -9.6228182    472.78924 0.0091540667 0.0076233201         3939 
 4305000   0.55331854      -9.6181    472.24822 0.0091414678 0.0076202778         3933 
 4306000   0.55746639   -9.6213758    472.97323 0.0091533757 0.0076172392         3930 
 4307000   0.57025417   -9.6156169    472.51065 0.0091423004 0.0076142025         3928 
 4308000   0.55196201    -9.633749    472.72108 0.0091442488 0.0076111649         3944 
 4309000   0.57093815    -9.616027    472.66936 0.0091411263 0.0076081318         3946 
 4310000   0.56127721   -9.6104941    472.99035 0.0091452117 0.0076051021         3936 
 4311000   0.55906611   -9.6157126    472.50721 0.0091337511 0.0076020721         3945 
 4312000    0.5569182   -9.6126121    473.11381 0.0091433559 0.0075990429         3931 
 4313000   0.55254975   -9.5974318    472.73704 0.0091339562 0.0075960169         3935 
 4314000   0.56940789   -9.5988111    471.79038 0.0091135525  0.007592992         3932 
 4315000   0.56448283   -9.6033201    473.02269 0.0091352393 0.0075899693         3934 
 4316000   0.55534858   -9.6196837    473.08712 0.0091343667 0.0075869478         3940 
 4317000   0.55293083   -9.6081792    473.18054 0.0091340541 0.0075839264         3959 
 4318000   0.56246319   -9.6207206    472.06149 0.0091103422 0.0075809086         3936 
 4319000   0.56915823   -9.6034746    473.06599 0.0091276143 0.0075778923         3940 
 4320000   0.56489144    -9.618605    472.21535 0.0091090923  0.007574878         3939 
 4321000   0.54409291   -9.6203004    472.38418 0.0091102404 0.0075718637         3929 
 4322000   0.56059182   -9.6146262    472.95946 0.0091192244 0.0075688517         3933 
 4323000   0.56005082   -9.6102432    472.98343 0.0091175772 0.0075658413         3934 
 4324000   0.56876847   -9.6223979    472.85427 0.0091129793  0.007562831         3939 
 4325000   0.56549228   -9.6011152     472.6757 0.0091074316 0.0075598233         3947 
 4326000   0.55514565   -9.6237416    473.25806 0.0091165445 0.0075568196         3937 
 4327000   0.56488921    -9.624317    473.02576 0.0091099639 0.0075538156         3951 
 4328000   0.56845659   -9.6128089    472.34011  0.009094657  0.007550813         3960 
 4329000   0.54261976   -9.6156359    472.90089 0.0091033512 0.0075478107         3946 
 4330000   0.55223802   -9.6315699    472.97261 0.0091026291 0.0075448128         3922 
 4331000   0.55799938   -9.6188293    472.65937 0.0090945004 0.0075418142         3929 
 4332000   0.57044331   -9.6191683    471.93451 0.0090784571   0.00753882         3935 
 4333000   0.55256758   -9.6169907    472.77821 0.0090925882 0.0075358253         3932 
 4334000    0.5558336   -9.6138595    472.95988 0.0090939833 0.0075328317         3924 
 4335000   0.56643777   -9.6032283    472.58381 0.0090846561 0.0075298397         3950 
 4336000   0.55758036   -9.6184581    473.03491 0.0090912306 0.0075268472         3939 
 4337000   0.56218779    -9.618303    472.84507 0.0090854867 0.0075238567         3947 
 4338000   0.56026192   -9.6099431    472.82564 0.0090830191 0.0075208684         3950 
 4339000   0.55672719     -9.62236    472.07212 0.0090664539 0.0075178851         3931 
 4340000   0.56462963   -9.6295983    472.53899 0.0090733294 0.0075149031         3926 
 4341000   0.55042233   -9.6135071    472.84087 0.0090770343  0.007511923         3937 
 4342000    0.5468536   -9.6212217    472.78287 0.0090738306 0.0075089426         3951 
 4343000   0.55089626   -9.6447358    472.97881  0.009075501 0.0075059626         3959 
 4344000   0.55983426   -9.6205756    472.60813 0.0090663008 0.0075029839         3936 
 4345000   0.55715736   -9.5985756    472.58845 0.0090638368 0.0075000062         3936 
 4346000   0.55834549   -9.6268168    471.86659 0.0090479098 0.0074970308         3946 
 4347000   0.54144392   -9.6243744    472.41483 0.0090563384 0.0074940559         3930 
 4348000   0.55661008   -9.6172104    472.66144 0.0090589819 0.0074910851         3928 
 4349000   0.56186224   -9.6408679    472.54252 0.0090546202 0.0074881152         3933 
 4350000   0.56965009   -9.6485062    472.28723  0.009047648 0.0074851487         3934 
 4351000   0.55881237   -9.6073871    472.73189 0.0090540851 0.0074821821         3939 
 4352000   0.56110799   -9.6274608    473.12828 0.0090595948 0.0074792186         3940 
 4353000   0.56248976    -9.632918     472.8966 0.0090530783 0.0074762567         3956 
 4354000   0.56219267   -9.6239996    472.84494 0.0090500103 0.0074732957         3924 
 4355000   0.55794271   -9.6129502    472.56671 0.0090426083 0.0074703356         3941 
 4356000   0.55789957   -9.5942642    473.33734 0.0090552751 0.0074673804         3924 
 4357000   0.56795524    -9.607482    472.99148 0.0090465818 0.0074644238         3942 
 4358000   0.54681046   -9.6277007    472.14314 0.0090282839 0.0074614699         3934 
 4359000   0.56754684   -9.6230053     472.5463 0.0090339202 0.0074585155         3940 
 4360000   0.55488255   -9.6051016     472.9069 0.0090387405 0.0074555655         3932 
 4361000   0.56291403   -9.6296688    472.56321 0.0090301003 0.0074526123         3937 
 4362000   0.56087968   -9.6292118    472.64582 0.0090296084 0.0074496627         3926 
 4363000   0.55486752   -9.6385101    472.95159 0.0090333789 0.0074467152         3953 
 4364000   0.55449503   -9.6190504    471.92951 0.0090117918 0.0074437693         3942 
 4365000   0.54000283    -9.621456    472.77999 0.0090259638 0.0074408233         3931 
 4366000   0.54717811   -9.6372343    472.27816 0.0090143183  0.007437881         3948 
 4367000   0.55474448   -9.6328034    472.34424  0.009013515 0.0074349398         3956 
 4368000   0.54730133   -9.6455342    472.49131 0.0090142573 0.0074319986         3948 
 4369000   0.55417914   -9.6176254    472.44461 0.0090113034 0.0074290612         3936 
 4370000   0.55233424   -9.6158851    472.19787 0.0090045361 0.0074261243         3931 
 4371000   0.55986247   -9.6358039    472.98506 0.0090174837 0.0074231867         3947 
 4372000   0.55301457   -9.6155727    473.10934 0.0090177901  0.007420254         3927 
 4373000   0.55106541   -9.6207342    473.24857 0.0090183811 0.0074173213         3947 
 4374000   0.57005042   -9.6434203    472.81234 0.0090080083 0.0074143896         3937 
 4375000   0.55404686   -9.6428844     472.2233 0.0089947295 0.0074114588         3940 
 4376000   0.54964354   -9.6332297    473.74365 0.0090216265 0.0074085287         3917 
 4377000   0.54400443   -9.6273873    472.72253 0.0090001244 0.0074056032         3938 
 4378000    0.5506125   -9.6321558    472.15905  0.008987343  0.007402677         3940 
 4379000   0.55156234    -9.626641    472.66596 0.0089949371 0.0073997525         3943 
 4380000    0.5460321   -9.6160743    471.74389 0.0089753405 0.0073968322         3937 
 4381000   0.54938389   -9.6225642    472.56037 0.0089888224 0.0073939126         3937 
 4382000   0.55335283   -9.6412744    471.95228 0.0089752069 0.0073909941         3945 
 4383000   0.55196804   -9.6396626    472.19022 0.0089776831 0.0073880763         3942 
 4384000   0.55019402   -9.6351622    472.26023  0.008976966 0.0073851616         3942 
 4385000   0.54425743   -9.6441047    471.87485 0.0089675951 0.0073822456         3937 
 4386000   0.56579313   -9.6371449    472.47052 0.0089768681 0.0073793352         3947 
 4387000   0.55781088   -9.6386968    472.84931 0.0089820172 0.0073764239         3948 
 4388000    0.5512783   -9.6237353    471.38284 0.0089521201 0.0073735114         3940 
 4389000   0.54137163    -9.640846    472.72443  0.008975553 0.0073706033         3945 
 4390000   0.54301428   -9.6354407     472.6837 0.0089727353 0.0073676969         3931 
 4391000   0.56032734   -9.6489695     472.2613 0.0089626755 0.0073647927         3957 
 4392000   0.54520451   -9.6387233    472.56225 0.0089663451 0.0073618869         3919 
 4393000   0.55392934   -9.6551987    471.57361 0.0089455499 0.0073589845         3945 
 4394000   0.55022644   -9.6449257    471.96008 0.0089508435 0.0073560836         3933 
 4395000   0.55199001   -9.6308041    472.68229 0.0089625007 0.0073531841         3944 
 4396000   0.55293606   -9.6393123     472.7995 0.0089626838 0.0073502865         3940 
 4397000   0.55402265   -9.6370996    472.77197 0.0089601237 0.0073473927         3941 
 4398000   0.54648149   -9.6316315    472.34519 0.0089499999 0.0073444996         3952 
 4399000   0.55834323    -9.635381    472.31396 0.0089473737 0.0073416072         3935 
 4400000   0.54764419   -9.6470647     472.9345 0.0089570928 0.0073387192         3938 
 4401000   0.55024398   -9.6299558    472.26162 0.0089423164 0.0073358312         3949 
 4402000   0.55350759   -9.6409392    472.79715 0.0089504231 0.0073329441         3931 
 4403000   0.54466626   -9.6484543    472.68106 0.0089461931 0.0073300602         3943 
 4404000   0.55020602   -9.6392116    471.92591 0.0089298726 0.0073271764         3945 
 4405000   0.54192121   -9.6460053    472.57191 0.0089400664 0.0073242914         3953 
 4406000    0.5498832   -9.6445931    472.82064 0.0089427418 0.0073214119         3945 
 4407000   0.54480754   -9.6461779    471.99393 0.0089250799 0.0073185302         3943 
 4408000   0.55145498   -9.6274409    472.70889 0.0089365716 0.0073156529         3936 
 4409000   0.54220151   -9.6477565    472.03801 0.0089218646 0.0073127777         3931 
 4410000   0.54428133   -9.6293377    472.00638 0.0089192437    0.0073099         3935 
 4411000   0.55349433      -9.6316    472.31333 0.0089230206  0.007307026         3933 
 4412000    0.5432218   -9.6455428    471.83191 0.0089119052 0.0073041534         3926 
 4413000   0.53041636   -9.6406803    473.22551 0.0089362019 0.0073012827         3947 
 4414000   0.53832677   -9.6508132    472.03459 0.0089116936 0.0072984121         3939 
 4415000   0.55013843   -9.6477266     471.9203  0.008907518 0.0072955436         3942 
 4416000   0.54317133   -9.6524926    472.44381 0.0089153799 0.0072926781         3950 
 4417000    0.5505552   -9.6406887    472.19428 0.0089086536 0.0072898135         3947 
 4418000   0.55224456   -9.6492271    472.12036 0.0089052429 0.0072869501         3940 
 4419000   0.54731465   -9.6585806    471.80364  0.008897255 0.0072840877         3950 
 4420000    0.5374238    -9.658447    472.51473 0.0089086488 0.0072812265         3929 
 4421000   0.54633334   -9.6484569    471.82793 0.0088936878 0.0072783668         3942 
 4422000    0.5427634    -9.644955    471.75945 0.0088903861 0.0072755129         3924 
 4423000   0.54202498   -9.6299319    471.74103  0.008888029 0.0072726578         3949 
 4424000   0.53860134   -9.6478416    471.50722 0.0088816158 0.0072698029         3946 
 4425000   0.54607995   -9.6512321    472.23439  0.008893303 0.0072669512         3956 
 4426000    0.5447963    -9.639934    472.49505 0.0088962015  0.007264098         3941 
 4427000   0.55955174   -9.6424105    472.44432  0.008893237 0.0072612467         3933 
 4428000   0.54483197   -9.6263172    471.57506 0.0088748694 0.0072584007         3943 
 4429000   0.54481202   -9.6427582    472.04331  0.008881676 0.0072555514         3944 
 4430000   0.53226134   -9.6371401    472.73821 0.0088927429 0.0072527042         3930 
 4431000   0.53900802   -9.6279748    471.97596 0.0088764004 0.0072498579         3948 
 4432000    0.5451427   -9.6437952    472.18194 0.0088782706 0.0072470151         3944 
 4433000   0.53977106   -9.6514367    472.40701 0.0088804988 0.0072441754         3931 
 4434000   0.54543819   -9.6413337    471.70382   0.00886528 0.0072413365         3937 
 4435000    0.5291534   -9.6251612    472.58916 0.0088799166 0.0072384994         3946 
 4436000   0.53836966   -9.6550063    471.42643  0.008856072 0.0072356632         3958 
 4437000   0.54237434   -9.6516445    472.50501 0.0088743335 0.0072328307         3943 
 4438000   0.54032714   -9.6440267    472.80993 0.0088780595  0.007229999         3939 
 4439000   0.54640211   -9.6342559    472.38334 0.0088680509 0.0072271679         3944 
 4440000   0.53639615   -9.6458519    472.40753 0.0088665077 0.0072243416         3948 
 4441000   0.53868062   -9.6524887      472.027 0.0088573707 0.0072215108         3936 
 4442000   0.54178301   -9.6375297    471.89633 0.0088529253  0.007218684         3930 
 4443000    0.5496305   -9.6745355    472.52906 0.0088628002 0.0072158573         3948 
 4444000   0.54345363   -9.6599132     472.1547 0.0088537859  0.007213032         3935 
 4445000   0.53279604   -9.6555366    471.98656  0.008848642 0.0072102082         3914 
 4446000   0.54363003   -9.6554287       471.99 0.0088467161 0.0072073855         3940 
 4447000   0.54111434   -9.6524209    471.25135 0.0088308851 0.0072045659         3939 
 4448000   0.53223654   -9.6523247    472.05352 0.0088439284 0.0072017467         3936 
 4449000   0.54599645   -9.6321034    472.39027 0.0088482482 0.0071989312         3941 
 4450000   0.54696846   -9.6266014    471.32863 0.0088263789 0.0071961161         3930 
 4451000   0.55044611   -9.6445506    472.09345 0.0088387151  0.007193303         3924 
 4452000   0.54116985   -9.6398199    472.89447 0.0088517234 0.0071904912         3925 
 4453000   0.53080096   -9.6427478    472.44205  0.008841269 0.0071876816         3942 
 4454000   0.54435127   -9.6486998    472.00763 0.0088311561 0.0071848744         3947 
 4455000   0.53709034   -9.6250298    471.05644 0.0088113813 0.0071820654         3931 
 4456000   0.53517846   -9.6631737    472.38608 0.0088342699  0.007179258         3928 
 4457000   0.54881863   -9.6547459    471.44366 0.0088146672 0.0071764529         3925 
 4458000   0.54028553   -9.6617548    471.63686 0.0088163014  0.007173649         3942 
 4459000   0.52737112   -9.6585756    471.72888  0.008816044 0.0071708461         3931 
 4460000   0.52783933   -9.6600126    471.47482 0.0088093203 0.0071680439         3954 
 4461000   0.53382461   -9.6516918    472.19542 0.0088208066 0.0071652409         3926 
 4462000   0.53584477   -9.6621843     472.2001 0.0088189172 0.0071624454         3937 
 4463000   0.53699095   -9.6548458    471.77149 0.0088089381 0.0071596505         3945 
 4464000   0.53578644   -9.6602835    471.70497  0.008805723 0.0071568559         3947 
 4465000   0.53998058   -9.6476928    471.26098 0.0087954644 0.0071540629         3934 
 4466000   0.53206509   -9.6543356    471.54102 0.0087987203 0.0071512677         3933 
 4467000   0.53238358   -9.6494714    472.22091 0.0088094341 0.0071484762         3929 
 4468000   0.54525812   -9.6604145    472.25269 0.0088080553 0.0071456865         3945 
 4469000   0.52425305   -9.6395361    471.67758 0.0087953603 0.0071428978         3928 
 4470000   0.53348108   -9.6426276     471.8233 0.0087961092 0.0071401126         3938 
 4471000   0.53891444   -9.6512567    472.73809 0.0088111922  0.007137328         3930 
 4472000   0.53338219   -9.6386652     472.5461 0.0088056444  0.007134544         3934 
 4473000   0.54781921   -9.6432943    471.55197 0.0087851548 0.0071317648         3937 
 4474000   0.54722385    -9.651892    472.12791 0.0087939187 0.0071289843         3925 
 4475000   0.55177774   -9.6589114    472.06606 0.0087908019 0.0071262074         3941 
 4476000   0.52947732   -9.6566207    471.79981 0.0087838808 0.0071234292         3937 
 4477000   0.52877792   -9.6484939    471.63881 0.0087789221 0.0071206534         3918 
 4478000   0.53356199   -9.6642294    472.12479 0.0087860055 0.0071178786         3948 
 4479000   0.54458102   -9.6471597    471.46908 0.0087718442 0.0071151056         3945 
 4480000   0.54246046   -9.6559082    472.18607 0.0087832231 0.0071123324         3942 
 4481000   0.53144252   -9.6584207     472.1299 0.0087802183 0.0071095597         3944 
 4482000   0.53930026   -9.6509993    471.96475 0.0087751887 0.0071067887         3949 
 4483000   0.53372765   -9.6553862    471.57183 0.0087659275  0.007104019         3934 
 4484000   0.51955585   -9.6471715    471.44082 0.0087615377 0.0071012525         3929 
 4485000   0.54982686   -9.6670389    470.95029 0.0087504699 0.0070984893         3939 
 4486000   0.53931143    -9.658546    472.44258 0.0087762406 0.0070957265         3944 
 4487000   0.52968613    -9.636254    471.70082 0.0087605084 0.0070929648         3930 
 4488000   0.53422743   -9.6624435    472.45287 0.0087725205 0.0070902042         3941 
 4489000   0.53140554   -9.6556667    471.99735 0.0087621102  0.007087446         3936 
 4490000   0.52966933   -9.6546619    471.83369 0.0087571212 0.0070846865         3938 
 4491000   0.53467936   -9.6503381    472.03271 0.0087588642  0.007081931         3928 
 4492000     0.534783   -9.6683128    471.82167 0.0087529992 0.0070791763         3936 
 4493000    0.5411577    -9.652737    471.58567 0.0087466738  0.007076421         3936 
 4494000   0.52169543   -9.6703016    471.87864 0.0087501603 0.0070736676         3939 
 4495000   0.54074634   -9.6712553    471.07642 0.0087333411  0.007070914         3937 
 4496000   0.53117904    -9.666715    472.28634 0.0087538244 0.0070681655         3944 
 4497000   0.53806304    -9.638402    471.11235 0.0087301229  0.007065415         3946 
 4498000   0.52980006   -9.6602795    471.29976  0.008731654 0.0070626664         3943 
 4499000   0.52698265   -9.6706779    472.11453  0.008744805 0.0070599206         3952 
 4500000   0.53376952   -9.6507872    471.21429 0.0087261905 0.0070571776         3932 
 4501000   0.53152334   -9.6503554    471.79972 0.0087350907 0.0070544352         3932 
 4502000   0.52415935   -9.6740809    472.68125 0.0087494678  0.007051692         3924 
 4503000    0.5386546   -9.6609439    472.34984 0.0087413916 0.0070489524         3937 
 4504000    0.5320037   -9.6524407    471.64828 0.0087264705 0.0070462116         3936 
 4505000   0.53397375   -9.6727277    471.57306 0.0087231422 0.0070434753         3940 
 4506000   0.53122773   -9.6666355    471.81226 0.0087256298 0.0070407399         3943 
 4507000   0.53716537   -9.6618257    471.82966 0.0087240156 0.0070380074         3939 
 4508000   0.54237145   -9.6633595    471.27526 0.0087118319 0.0070352722         3924 
 4509000   0.52569833    -9.650937    472.18181 0.0087266542 0.0070325404         3921 
 4510000   0.54014945   -9.6696632    471.11939 0.0087050885 0.0070298103         3942 
 4511000   0.53769607   -9.6686678    471.94498 0.0087184101  0.007027082         3937 
 4512000   0.53294861    -9.657888    471.77789 0.0087133918 0.0070243532         3930 
 4513000   0.52944898   -9.6770138    471.31053 0.0087028312 0.0070216264         3951 
 4514000   0.53004156   -9.6619379    471.22335 0.0086992939 0.0070189035         3952 
 4515000   0.53201057   -9.6484601    471.99753 0.0087116562 0.0070161802         3937 
 4516000   0.52713917   -9.6679595    471.56857 0.0087018116 0.0070134596         3932 
 4517000    0.5198455   -9.6795809    471.96072 0.0087071198 0.0070107393         3935 
 4518000   0.52718227   -9.6690023    471.92597 0.0087045517 0.0070080199         3933 
 4519000   0.54459501   -9.6694114    471.62342 0.0086970462 0.0070053018         3939 
 4520000   0.53319322   -9.6628338    471.30966 0.0086893374 0.0070025864         3938 
 4521000   0.54421746   -9.6514442     471.2156 0.0086856817 0.0069998726         3932 
 4522000   0.52428418   -9.6608313    471.93363 0.0086969931  0.006997159         3936 
 4523000   0.52428726   -9.6619146    472.02667 0.0086967844 0.0069944472         3936 
 4524000   0.53649008   -9.6678424    472.25804 0.0086991239 0.0069917369         3932 
 4525000   0.52512143    -9.661879    471.65526 0.0086861005 0.0069890294         3945 
 4526000   0.54668353    -9.674881     471.6736  0.008684519 0.0069863229         3938 
 4527000   0.52207905   -9.6676348    471.83377  0.008685549 0.0069836175         3937 
 4528000   0.51966473   -9.6728467    471.52158 0.0086778854 0.0069809144         3922 
 4529000   0.52795968   -9.6750723    472.03307 0.0086853806   0.00697821         3927 
 4530000   0.51461237   -9.6709815    472.19302 0.0086864058 0.0069755072         3944 
 4531000   0.52467907   -9.6745498    470.90704 0.0086608372 0.0069728074         3935 
 4532000   0.52426584   -9.6645323    472.44717 0.0086872457  0.006970109         3921 
 4533000   0.52551365   -9.6825559    471.45589 0.0086671059 0.0069674134         3923 
 4534000   0.52744855   -9.6671498    471.75727 0.0086707335 0.0069647159         3930 
 4535000   0.52604043   -9.6806471    471.20148 0.0086586087 0.0069620182         3946 
 4536000   0.52762021   -9.6661174    471.12549 0.0086553037 0.0069593232         3926 
 4537000    0.5137565   -9.6793286    472.15134 0.0086722383 0.0069566305         3934 
 4538000   0.53409598   -9.6771387    471.63239 0.0086607975 0.0069539415         3937 
 4539000   0.53274673   -9.6556802    471.68954 0.0086599388 0.0069512534         3928 
 4540000   0.51452764   -9.6620773    471.30393 0.0086509532 0.0069485658         3936 
 4541000   0.53483291   -9.6773493    471.56099 0.0086537655 0.0069458813         3937 
 4542000   0.51280668    -9.684773    471.39436 0.0086488029 0.0069431947         3941 
 4543000   0.52539266   -9.6635612    470.58302 0.0086320166 0.0069405099         3936 
 4544000   0.52034587    -9.665074    471.88142 0.0086539287 0.0069378276         3945 
 4545000   0.51786072    -9.658597    470.95382 0.0086350169  0.006935146         3928 
 4546000   0.52047126   -9.6634511    471.33707 0.0086401428  0.006932465         3933 
 4547000   0.51872232      -9.6878    471.31366 0.0086378136 0.0069297875         3947 
 4548000    0.5075718   -9.6592909    471.12696 0.0086324934 0.0069271088         3941 
 4549000   0.51756151    -9.675047    472.17282  0.008649755 0.0069244345         3935 
 4550000    0.5354001   -9.6672553    471.17561   0.00862959 0.0069217608         3928 
 4551000   0.52322933   -9.6750145    471.14574 0.0086271468 0.0069190868         3938 
 4552000   0.52995618   -9.6727714    471.64442 0.0086343808 0.0069164157         3950 
 4553000   0.52466985   -9.6590102    471.50983 0.0086300211 0.0069137471         3938 
 4554000   0.51951911    -9.666111    471.30062 0.0086242977 0.0069110795         3934 
 4555000   0.51705277   -9.6884234    472.10523 0.0086371246 0.0069084108         3934 
 4556000   0.51999109   -9.6816771    470.84711 0.0086122166 0.0069057445         3946 
 4557000   0.52587928   -9.6725918    471.32945 0.0086191473 0.0069030806         3945 
 4558000   0.51971875   -9.6694002    470.86329 0.0086087335 0.0069004181         3928 
 4559000   0.51336495   -9.6746267    471.56174 0.0086196122  0.006897757         3945 
 4560000   0.51704689   -9.6644667    471.59938 0.0086184098 0.0068950979         3931 
 4561000   0.52538331   -9.6847021    471.05442 0.0086065632 0.0068924404         3933 
 4562000   0.51640622   -9.6854556    472.05223 0.0086229035 0.0068897839         3938 
 4563000   0.52467323   -9.6696362     472.2013 0.0086237362 0.0068871291         3950 
 4564000   0.51381769   -9.6793595    471.61456 0.0086111334 0.0068844754         3933 
 4565000   0.52828019   -9.6852143     470.8339 0.0085949963 0.0068818256         3947 
 4566000   0.51135269   -9.6949409    471.31326 0.0086018627 0.0068791742         3933 
 4567000   0.51575163   -9.6853414    471.50547 0.0086034864 0.0068765232         3936 
 4568000   0.52274683    -9.673269     471.0189 0.0085927266  0.006873875         3944 
 4569000   0.52432926   -9.6597611    471.77931 0.0086047149 0.0068712291         3943 
 4570000   0.51413197   -9.6805927    471.55623 0.0085987643  0.006868585         3942 
 4571000   0.50921591   -9.6782852    471.20124 0.0085904113  0.006865943         3944 
 4572000   0.51833295   -9.6850861    470.99949 0.0085848551 0.0068633006         3927 
 4573000   0.51816092   -9.6877836    471.69114 0.0085955817  0.006860661         3930 
 4574000    0.5179159   -9.6877661    471.13784 0.0085836219 0.0068580195         3944 
 4575000   0.53057164   -9.6889689    470.43692 0.0085689785 0.0068553805         3945 
 4576000   0.51274954   -9.6784128    471.13408 0.0085798018 0.0068527428         3939 
 4577000   0.52025918   -9.6771145    471.51742 0.0085849068 0.0068501076         3946 
 4578000   0.52568289   -9.6841101    471.30146 0.0085791004 0.0068474709         3933 
 4579000   0.52001987   -9.6711469    471.43058 0.0085795767 0.0068448395         3929 
 4580000   0.52267042   -9.6779395    472.03086 0.0085886256 0.0068422079         3948 
 4581000   0.53139766   -9.6793769    471.45138 0.0085762094  0.006839576         3935 
 4582000   0.52631268   -9.6985644    471.18194 0.0085694373 0.0068369467         3936 
 4583000   0.52097638   -9.6765834     471.4759 0.0085729125 0.0068343187         3937 
 4584000    0.5224251   -9.6830519    471.51191 0.0085716971 0.0068316913         3947 
 4585000   0.52091425   -9.6877427    472.23634 0.0085829942 0.0068290657         3933 
 4586000   0.51138336   -9.6872966    470.71866 0.0085535446 0.0068264408         3935 
 4587000   0.50962099   -9.6608015    470.50577 0.0085478121 0.0068238163         3939 
 4588000   0.50944438   -9.6890912    471.01325 0.0085551666 0.0068211954         3938 
 4589000   0.52359683   -9.6852521    470.71319 0.0085478533 0.0068185747         3931 
 4590000    0.5096586   -9.6887756    471.23971 0.0085555504 0.0068159552         3940 
 4591000   0.50886116   -9.6888511    471.04395 0.0085501334 0.0068133396         3937 
 4592000   0.52423015   -9.6842919    471.13809 0.0085499798 0.0068107249         3942 
 4593000   0.51558946   -9.6608396    471.06762 0.0085468398 0.0068081095         3941 
 4594000   0.52038896   -9.6996532    470.66126  0.008537608 0.0068054943         3942 
 4595000   0.50442418   -9.6821468    471.38678 0.0085489079 0.0068028823         3947 
 4596000   0.50518757   -9.6743182    471.12182 0.0085422437  0.006800272         3932 
 4597000   0.52365007   -9.6772107    470.92851  0.008536881 0.0067976631         3945 
 4598000   0.50775331   -9.6724117    471.12833 0.0085386461 0.0067950551         3949 
 4599000   0.50779963   -9.6791108     471.6093 0.0085455045  0.006792449         3943 
 4600000   0.51056486   -9.6885565    470.98499 0.0085323368 0.0067898448         3934 
 4601000   0.50784325   -9.6868668    470.98539 0.0085304896 0.0067872413         3938 
 4602000   0.50507231   -9.6792216    471.52973 0.0085384929 0.0067846399         3930 
 4603000   0.52762988    -9.684572    471.84568 0.0085423578 0.0067820402         3944 
 4604000    0.5187348   -9.6700111    471.06367 0.0085263479 0.0067794408         3942 
 4605000   0.51919503   -9.6870095    471.59486  0.008534109 0.0067768441         3936 
 4606000   0.50939988    -9.694734    470.83628 0.0085185317 0.0067742452         3947 
 4607000   0.50894287   -9.6989022    471.36591 0.0085262628 0.0067716493         3938 
 4608000   0.52601428   -9.6976017     470.7177 0.0085126899 0.0067690543         3938 
 4609000   0.50973561   -9.7077334    471.19431 0.0085194603 0.0067664599         3952 
 4610000   0.50963112   -9.6770739    470.46104 0.0085043571 0.0067638672         3925 
 4611000    0.5145038   -9.6898602    471.54295 0.0085220659 0.0067612773         3938 
 4612000   0.51159121   -9.6897831    470.43617 0.0085002199 0.0067586893         3948 
 4613000   0.51235711    -9.686523    471.16175 0.0085114848 0.0067561022         3937 
 4614000   0.51720424   -9.6889591    471.15735 0.0085095605 0.0067535135         3949 
 4615000   0.49978723   -9.6950609    471.09078 0.0085065147  0.006750928         3945 
 4616000   0.51377321   -9.6819318    471.65542 0.0085148653 0.0067483451         3941 
 4617000   0.51066724   -9.6995934    470.26547 0.0084879335 0.0067457619         3930 
 4618000   0.51804449   -9.6870688    471.39286 0.0085064397 0.0067431792         3930 
 4619000   0.50985489   -9.6916056    471.37274 0.0085042351 0.0067406002         3941 
 4620000   0.51068762   -9.6947899    471.67135 0.0085077805  0.006738021         3926 
 4621000   0.51970826   -9.6843109    471.14191 0.0084963916  0.006735447         3942 
 4622000   0.50552281   -9.6778009    470.79087 0.0084882242 0.0067328712         3944 
 4623000   0.51851312   -9.7049829     471.0432 0.0084909367 0.0067302986         3955 
 4624000   0.52443032   -9.6808571    470.54498 0.0084801215 0.0067277262         3954 
 4625000   0.50421886   -9.6892998    471.07936 0.0084879164 0.0067251552         3928 
 4626000   0.51040803   -9.6957608    471.07854 0.0084860667 0.0067225851         3942 
 4627000   0.51740352   -9.7008912    471.06519 0.0084839922 0.0067200173         3928 
 4628000   0.50625625    -9.686238    471.10864 0.0084829415 0.0067174486         3934 
 4629000   0.51284783    -9.692859    471.15404 0.0084819263 0.0067148832         3940 
 4630000   0.51722026   -9.6962401    470.96939 0.0084767708 0.0067123168         3951 
 4631000   0.49897536   -9.6724867    470.95024 0.0084745959 0.0067097527         3934 
 4632000   0.50884598   -9.6908324    471.68422 0.0084859711 0.0067071899         3915 
 4633000   0.49670823   -9.6943046    470.71386 0.0084666858 0.0067046277         3931 
 4634000   0.51015199   -9.6757557    471.03549 0.0084706426  0.006702068         3934 
 4635000   0.50898528   -9.6892381    471.15845 0.0084710258 0.0066995108         3939 
 4636000   0.51362067   -9.6978354    470.90884 0.0084647116 0.0066969562         3945 
 4637000   0.50763984   -9.6893795    470.23176 0.0084507182 0.0066944025         3925 
 4638000   0.51321775   -9.6957323     471.1174 0.0084648088   0.00669185         3938 
 4639000   0.51213569   -9.6809553    470.29268 0.0084481691 0.0066892968         3949 
 4640000   0.51072549    -9.700511    470.72406 0.0084540959  0.006686745         3935 
 4641000   0.51340246   -9.6978014    470.71614  0.008452132 0.0066841955         3943 
 4642000   0.50337545   -9.6878518    471.48675 0.0084641453 0.0066816457         3935 
 4643000   0.50631825   -9.6879776    471.04946 0.0084544738 0.0066790973         3955 
 4644000   0.50227897   -9.6887312    471.02732  0.008452256 0.0066765508         3927 
 4645000   0.51391413   -9.6929633    471.39093 0.0084569596 0.0066740059         3942 
 4646000   0.51533748   -9.6933888    470.83464 0.0084451614  0.006671461         3956 
 4647000   0.50766347   -9.7146864    470.78248 0.0084424087 0.0066689173         3938 
 4648000   0.49833782   -9.6994762    471.30957 0.0084500425 0.0066663763         3943 
 4649000   0.50555606     -9.69082     470.5503 0.0084346149 0.0066638347         3938 
 4650000   0.50300773   -9.7033168    470.57048 0.0084331627  0.006661296         3944 
 4651000   0.50594655   -9.6842267    470.85272 0.0084364065 0.0066587589         3940 
 4652000   0.50081734   -9.7061001    471.05937 0.0084382948 0.0066562218         3943 
 4653000   0.51035222    -9.704702    470.39095 0.0084245102 0.0066536871         3956 
 4654000   0.49793712   -9.6957897    471.40672  0.008440888 0.0066511558         3944 
 4655000   0.50653129   -9.6951983    470.14982 0.0084165739  0.006648624         3949 
 4656000   0.51042644   -9.6930947    470.96306 0.0084293217 0.0066460936         3928 
 4657000   0.49971841    -9.694125    471.07852 0.0084295777 0.0066435648         3936 
 4658000   0.51065742   -9.7085713    470.55486 0.0084183995 0.0066410377         3942 
 4659000   0.51236043   -9.6885955    470.81203 0.0084211924 0.0066385092         3952 
 4660000   0.50348514   -9.6938564    471.83307 0.0084376443 0.0066359827         3941 
 4661000   0.51161332   -9.7065789    471.24689 0.0084253538 0.0066334572         3939 
 4662000   0.50701768   -9.7001601    470.93665  0.008418001 0.0066309328         3951 
 4663000   0.50986342   -9.6942888    470.94616 0.0084163656 0.0066284098         3948 
 4664000   0.50295838   -9.7038277    470.69528 0.0084100786 0.0066258894         3933 
 4665000   0.50531721   -9.7014318    470.74062 0.0084090858 0.0066233685         3931 
 4666000   0.50295949   -9.7061832    471.05375  0.008412876   0.00662085         3943 
 4667000   0.50655236   -9.6981116     471.4651 0.0084184183 0.0066183337         3954 
 4668000   0.51001549    -9.696564    471.54287 0.0084180032 0.0066158192         3935 
 4669000   0.50599697   -9.6973117    471.72385 0.0084194304  0.006613304         3943 
 4670000   0.51427731   -9.6978576     470.9896 0.0084045253 0.0066107915         3940 
 4671000   0.51127823   -9.7006881    471.01671 0.0084032097 0.0066082792         3926 
 4672000   0.49557207   -9.6925297    470.99334 0.0084009943 0.0066057674         3936 
 4673000   0.50046739   -9.7082227    471.10637 0.0084012121 0.0066032588         3952 
 4674000   0.50303234   -9.6988594    471.13232 0.0083998774 0.0066007533         3945 
 4675000    0.5079464    -9.696991    470.99917 0.0083957071 0.0065982466         3959 
 4676000   0.50632097    -9.728473    470.40664 0.0083833518 0.0065957409         3945 
 4677000   0.51153662   -9.7106416    471.33866 0.0083981658 0.0065932369         3925 
 4678000   0.49659145    -9.704062     470.4448 0.0083804475 0.0065907342         3944 
 4679000   0.50760099    -9.699826    471.20168 0.0083921366 0.0065882348         3941 
 4680000   0.50826131   -9.7133977    469.50036 0.0083600491 0.0065857334         3941 
 4681000   0.49596383    -9.689752    470.76808 0.0083808318 0.0065832344         3934 
 4682000   0.51067183   -9.6937938    471.73242 0.0083962056 0.0065807366         3935 
 4683000   0.49638056   -9.7035221    471.07061  0.008382636   0.00657824         3939 
 4684000   0.49267059   -9.7186614    470.66926 0.0083737059 0.0065757441         3937 
 4685000   0.49105315   -9.6997333    470.38266 0.0083668208 0.0065732506         3943 
 4686000   0.49640385   -9.7121309    470.81002 0.0083726351 0.0065707565         3936 
 4687000   0.49522787   -9.6937263    470.58804 0.0083669021 0.0065682657         3951 
 4688000   0.50415575   -9.6981238    469.95562 0.0083538755 0.0065657747         3928 
 4689000   0.51596349   -9.7094458    470.04892 0.0083537521 0.0065632865         3942 
 4690000   0.49935099   -9.7127522    471.13115 0.0083712003 0.0065607999         3932 
 4691000    0.5090371    -9.687701    470.46145 0.0083575187 0.0065583145         3948 
 4692000   0.50693724   -9.7067459    470.76126 0.0083610624 0.0065558292         3946 
 4693000   0.51358972   -9.7149619    470.54569  0.008355453 0.0065533451         3947 
 4694000   0.49929543   -9.7051434    470.31026 0.0083494933 0.0065508625         3937 
 4695000   0.49792181   -9.7116114    470.93341 0.0083587755 0.0065483827         3940 
 4696000   0.50187094   -9.7018298    470.29168 0.0083456076 0.0065459048         3935 
 4697000   0.50402301   -9.7138247    470.93553  0.008355254  0.006543427         3940 
 4698000   0.49790213   -9.7061442    470.80679 0.0083511918 0.0065409509         3930 
 4699000   0.49403308   -9.7005582    470.36051 0.0083415002  0.006538476         3935 
 4700000   0.49436043   -9.7053696    470.68538 0.0083454854 0.0065360016         3938 
 4701000   0.50741447    -9.702652    470.35918 0.0083379277 0.0065335273         3935 
 4702000   0.49763739   -9.7050579     470.8974 0.0083456933  0.006531056         3932 
 4703000   0.50232208   -9.7045367     470.3325 0.0083339092 0.0065285828         3942 
 4704000   0.49569515   -9.7120493    470.91841 0.0083425172  0.006526111         3946 
 4705000   0.48837619   -9.7212525    470.77681 0.0083382362 0.0065236438         3948 
 4706000   0.48978795   -9.7149613    470.51769 0.0083318757 0.0065211747         3945 
 4707000   0.50873579   -9.7018311    470.24087 0.0083252049 0.0065187072         3928 
 4708000   0.49252859   -9.7113742    470.30669 0.0083246015 0.0065162414         3937 
 4709000   0.50825822   -9.7044387    470.29729 0.0083226673 0.0065137769         3931 
 4710000   0.49363663   -9.6987568    470.42559 0.0083231704  0.006511313         3945 
 4711000   0.49655628   -9.7099029    470.36118 0.0083202643 0.0065088505         3942 
 4712000   0.49311021   -9.7095089     470.8355 0.0083268871  0.006506389         3927 
 4713000   0.50269993   -9.7141699    470.30432 0.0083157282 0.0065039289         3946 
 4714000   0.49327588   -9.7260167    470.27487 0.0083134435 0.0065014693         3944 
 4715000   0.49864539   -9.7106581    470.73932  0.008319889 0.0064990109         3941 
 4716000   0.50222826   -9.7255519    470.69897 0.0083174119  0.006496556         3929 
 4717000    0.5012513   -9.7230431    470.49737 0.0083120869 0.0064941016         3947 
 4718000   0.50371123   -9.7136823    471.21833 0.0083230593  0.006491649         3950 
 4719000   0.49628377   -9.7133901    470.71539 0.0083124142 0.0064891958         3946 
 4720000   0.50190013   -9.7038756    470.70678  0.008310501 0.0064867449         3937 
 4721000   0.49086927   -9.7107413    470.04546 0.0082970674 0.0064842969         3945 
 4722000   0.49456257    -9.711299    470.87797 0.0083100023 0.0064818485         3948 
 4723000   0.49152513   -9.7006286    471.15603  0.008313149 0.0064794019         3948 
 4724000   0.50025485   -9.6912109    470.46093 0.0082991273 0.0064769572         3937 
 4725000   0.50142262   -9.7229527    471.04235 0.0083076252 0.0064745127         3938 
 4726000   0.49794505   -9.7198046    470.23301 0.0082915963 0.0064720684         3941 
 4727000   0.49346267   -9.7053685    470.41367 0.0082930272 0.0064696264         3950 
 4728000   0.49208205   -9.7168064    470.60431 0.0082946333  0.006467185         3944 
 4729000   0.49275173   -9.7212138    470.00084 0.0082822451 0.0064647448         3934 
 4730000   0.48559808   -9.7225973    470.89274 0.0082962075 0.0064623067         3949 
 4731000   0.49725586    -9.722927    470.78449 0.0082925471   0.00645987         3943 
 4732000   0.49931981   -9.7209545     472.0303 0.0083127342 0.0064574348         3939 
 4733000    0.5019469    -9.712561     470.1919 0.0082786094 0.0064550006         3930 
 4734000   0.47957397   -9.7010167    470.33897 0.0082794495 0.0064525666         3951 
 4735000   0.48651676   -9.7129595    470.41708 0.0082790757 0.0064501332         3949 
 4736000    0.4968182   -9.7136192    470.22298 0.0082739122 0.0064477011         3940 
 4737000   0.48143391   -9.7127656     470.7504  0.008281444 0.0064452715         3949 
 4738000   0.48219123   -9.7211251    470.09648 0.0082681947 0.0064428432         3946 
 4739000   0.49749857   -9.7278468    470.44075 0.0082725038 0.0064404165         3937 
 4740000   0.49276719   -9.7413743    470.62335 0.0082739689 0.0064379896         3942 
 4741000   0.49619043    -9.716433    470.49414 0.0082699525 0.0064355658         3932 
 4742000   0.49275213   -9.7109963    470.79048 0.0082734162 0.0064331437         3942 
 4743000   0.49674498   -9.7085486    470.78613 0.0082715955 0.0064307219         3941 
 4744000   0.48610687   -9.7139129    470.26887 0.0082607657 0.0064282996         3936 
 4745000   0.49536084   -9.7201141    471.10791 0.0082737602 0.0064258795         3949 
 4746000   0.50247642   -9.7112937     469.3633  0.008241384 0.0064234616         3951 
 4747000   0.49734827   -9.7296179    470.46652 0.0082590148 0.0064210425         3929 
 4748000    0.4846614   -9.7290528    469.93108 0.0082478777 0.0064186269         3937 
 4749000   0.50042172    -9.712526    469.93877  0.008246276 0.0064162094         3940 
 4750000   0.49289839   -9.7035331    470.87998 0.0082610524 0.0064137957         3946 
 4751000   0.49165044   -9.7262792    469.68938 0.0082384302 0.0064113831         3946 
 4752000   0.48149194   -9.7259341    470.49532 0.0082508298 0.0064089727         3945 
 4753000   0.48880169   -9.7263298    470.45889 0.0082484552 0.0064065621         3940 
 4754000    0.4834497   -9.7202033    470.58819 0.0082489866 0.0064041547         3952 
 4755000   0.49352248   -9.7153081    470.38763  0.008243737 0.0064017467         3947 
 4756000   0.48530101   -9.7298296    470.73513 0.0082480925 0.0063993403         3948 
 4757000   0.48922435   -9.7229847    470.55187 0.0082431482 0.0063969334         3936 
 4758000   0.49086078   -9.7310887    469.88104 0.0082296666 0.0063945283         3938 
 4759000   0.49375675   -9.7306078    470.03817 0.0082306887 0.0063921249         3948 
 4760000   0.48831152   -9.7244425    470.20684 0.0082319125 0.0063897253         3931 
 4761000   0.48844485   -9.7373123    469.87932 0.0082244508 0.0063873253         3943 
 4762000   0.50264152   -9.7357681    470.09515 0.0082265006 0.0063849243         3946 
 4763000   0.48093773   -9.7208272    470.31543 0.0082286274 0.0063825271         3941 
 4764000   0.49298825   -9.7098224     470.2228 0.0082252798 0.0063801312         3943 
 4765000   0.49145856    -9.718685    471.41603 0.0082444216 0.0063777357         3944 
 4766000   0.48907472   -9.7201296    470.64396 0.0082291922 0.0063753409         3933 
 4767000   0.49234355   -9.7118781    469.69835 0.0082109354 0.0063729488         3940 
 4768000   0.48724053   -9.7352953    469.40826 0.0082041433 0.0063705558         3937 
 4769000    0.4844622   -9.7262999    469.66817 0.0082069646 0.0063681635         3935 
 4770000   0.48484859   -9.7424434    469.56499 0.0082034414 0.0063657738         3947 
 4771000   0.49062974   -9.7455808    470.04618 0.0082101268 0.0063633853         3939 
 4772000    0.4754374   -9.7364643    470.64913 0.0082189357 0.0063609981         3940 
 4773000   0.49511663   -9.7332425    470.30865  0.008211269 0.0063586109         3956 
 4774000   0.49318863   -9.7351741    470.13986 0.0082066027 0.0063562256         3941 
 4775000   0.49272456    -9.704026    469.93156 0.0082012488 0.0063538427         3940 
 4776000   0.48331703   -9.7227918    470.22828  0.008204709   0.00635146         3929 
 4777000   0.49458158   -9.7166329    470.60526 0.0082095677 0.0063490796         3929 
 4778000   0.47744523   -9.7293784    469.55918 0.0081896048 0.0063466997         3941 
 4779000   0.47385787   -9.7354747    470.81523 0.0082097934 0.0063443224         3934 
 4780000   0.49259962   -9.7350757     470.3275 0.0081995728 0.0063419443         3937 
 4781000   0.47768682   -9.7257416    469.89256 0.0081902768 0.0063395665         3935 
 4782000   0.49177504   -9.7385585    469.81842 0.0081872721 0.0063371919         3944 
 4783000   0.48375052   -9.7450403    470.43923 0.0081963766 0.0063348169         3929 
 4784000   0.47756685   -9.7293154    469.95735 0.0081862694  0.006332443         3934 
 4785000   0.48440139   -9.6992906    470.43048 0.0081927983 0.0063300725         3956 
 4786000   0.48496338   -9.7190072    470.75785 0.0081967866  0.006327702         3946 
 4787000    0.4821556   -9.7215877    470.88425 0.0081972747 0.0063253343         3942 
 4788000   0.48734313   -9.7245661    470.14081 0.0081826234  0.006322966         3941 
 4789000   0.48740252   -9.7320876    470.67366  0.008190187 0.0063205986         3939 
 4790000   0.48639868   -9.7332213    470.09915 0.0081784821 0.0063182321         3950 
 4791000   0.48321535   -9.7345779     469.8912  0.008173158 0.0063158678         3939 
 4792000   0.49265539   -9.7381985     470.3798 0.0081799492 0.0063135044         3946 
 4793000   0.47846221     -9.75203     470.1689 0.0081745757 0.0063111404         3946 
 4794000   0.47829478    -9.738564    470.53301 0.0081791998  0.006308779         3942 
 4795000   0.48490927   -9.7227049     470.1441 0.0081707351 0.0063064194         3938 
 4796000   0.48001797   -9.7306983     470.4563 0.0081744562 0.0063040615         3947 
 4797000   0.48757154   -9.7394024    470.52862 0.0081740084 0.0063017033         3955 
 4798000   0.48097349   -9.7259495    470.08747 0.0081646427 0.0062993487         3957 
 4799000   0.48392024   -9.7579765    470.40683  0.008168487 0.0062969944         3953 
 4800000   0.48996887   -9.7331229    469.67568 0.0081540917 0.0062946407         3954 
 4801000   0.47518736   -9.7276236    470.47759 0.0081663125 0.0062922882         3930 
 4802000   0.47376888   -9.7395462    469.93034 0.0081551149 0.0062899368         3936 
 4803000   0.47564053   -9.7335679    470.69768 0.0081667306 0.0062875872         3939 
 4804000   0.49310663   -9.7268851     470.9781 0.0081698948 0.0062852389         3944 
 4805000   0.49628669   -9.7427632    470.42877 0.0081586676 0.0062828916         3951 
 4806000   0.48380709    -9.740319    470.78431 0.0081631348 0.0062805447         3942 
 4807000   0.48154675   -9.7475733    470.76595 0.0081611184 0.0062781996         3945 
 4808000   0.49516146    -9.729097    470.27242 0.0081508669 0.0062758557         3939 
 4809000   0.48058172    -9.741086    470.34801  0.008150482 0.0062735131         3944 
 4810000   0.48182391   -9.7417948    470.18871 0.0081460275 0.0062711723         3936 
 4811000   0.48783393   -9.7322763    469.98599 0.0081408229 0.0062688318         3955 
 4812000   0.47841648    -9.738412    470.01369 0.0081396108 0.0062664922         3942 
 4813000   0.48326419   -9.7209949    470.45381 0.0081455401  0.006264153         3935 
 4814000   0.48279182   -9.7250739    469.73056 0.0081313281 0.0062618168         3952 
 4815000   0.48420696   -9.7286399    469.53204 0.0081262035 0.0062594804         3955 
 4816000   0.47941586   -9.7316416    469.48031 0.0081236211 0.0062571449         3930 
 4817000   0.48555489   -9.7382809    469.67217 0.0081252538 0.0062548124         3948 
 4818000   0.47728202   -9.7315642    470.21007  0.008132871  0.006252479         3939 
 4819000   0.48791424   -9.7282258    470.51412 0.0081364412 0.0062501482         3934 
 4820000   0.46879172   -9.7537032    470.04745 0.0081266848 0.0062478192         3938 
 4821000   0.46430224   -9.7285125    470.63306 0.0081351217 0.0062454896         3943 
 4822000    0.4735649    -9.740069    469.54271 0.0081145913 0.0062431621         3947 
 4823000   0.47191295   -9.7456135    470.00967 0.0081209771  0.006240836         3949 
 4824000   0.48064337    -9.751329    469.57336 0.0081117564 0.0062385099         3949 
 4825000   0.46951342   -9.7374847    470.43385 0.0081249369 0.0062361863         3954 
 4826000   0.47663765   -9.7460101     470.3402 0.0081216362  0.006233864         3940 
 4827000   0.47726908   -9.7335066    470.81705 0.0081281861 0.0062315419         3954 
 4828000   0.46943772   -9.7360179    469.94911 0.0081115215 0.0062292226         3947 
 4829000   0.47023687   -9.7446878     469.7745 0.0081068285  0.006226904         3938 
 4830000   0.48098796   -9.7339052     470.1313 0.0081113061 0.0062245854         3936 
 4831000   0.46766716   -9.7366887    469.83655 0.0081045428 0.0062222673         3946 
 4832000   0.47583309    -9.742254    469.56791 0.0080982324 0.0062199506         3956 
 4833000   0.48495263   -9.7432646     468.8651 0.0080844385 0.0062176369         3940 
 4834000   0.48509364   -9.7285367    469.92275 0.0081009989 0.0062153236         3947 
 4835000   0.47424312   -9.7381727    470.27102 0.0081053262 0.0062130124         3955 
 4836000   0.48610398   -9.7578116    469.93716  0.008097897 0.0062107021         3952 
 4837000   0.47616245   -9.7241815    470.00284 0.0080973544  0.006208393         3940 
 4838000   0.48054554   -9.7483309    469.77912 0.0080918272 0.0062060854         3947 
 4839000    0.4745176   -9.7340268    469.74365 0.0080895442  0.006203778         3951 
 4840000    0.4841287   -9.7353684    469.68805 0.0080869155 0.0062014726         3946 
 4841000   0.48654001    -9.740948    469.76715 0.0080866066  0.006199167         3954 
 4842000   0.47813738    -9.747503     470.1132 0.0080908921 0.0061968617         3946 
 4843000   0.47504129   -9.7449259    470.49157 0.0080957322 0.0061945589         3948 
 4844000   0.46412588   -9.7420833    470.21709  0.008089339 0.0061922566         3950 
 4845000   0.47225765   -9.7421524     469.7866 0.0080802648  0.006189956         3933 
 4846000     0.477109    -9.744308    470.22442 0.0080861264 0.0061876568         3948 
 4847000   0.47698076    -9.734706    469.83285 0.0080777259 0.0061853584         3954 
 4848000   0.47978577   -9.7319589    470.74302 0.0080917049 0.0061830615         3945 
 4849000   0.48132863   -9.7490754    470.01328  0.008077495 0.0061807664         3943 
 4850000   0.48019708    -9.753273    470.39209 0.0080823383 0.0061784708         3936 
 4851000   0.47478525   -9.7494255    470.07391 0.0080752063 0.0061761786         3950 
 4852000    0.4693627   -9.7468687    469.73919 0.0080677931  0.006173887         3934 
 4853000   0.46879628   -9.7391304      470.052 0.0080715021 0.0061715957         3931 
 4854000   0.47024841   -9.7493082    469.28975  0.008056753  0.006169305         3933 
 4855000   0.47294169    -9.742814    469.86808 0.0080650202 0.0061670163         3948 
 4856000   0.46844113   -9.7455973    469.62902  0.008059257 0.0061647285         3950 
 4857000   0.47375306   -9.7522793    469.65615 0.0080580632 0.0061624412         3944 
 4858000   0.46999545   -9.7622411    469.33148  0.008050835 0.0061601567         3939 
 4859000   0.48248164   -9.7574907    469.73931 0.0080561726 0.0061578723         3956 
 4860000   0.47717652   -9.7470891    470.33319  0.008064698 0.0061555897         3940 
 4861000    0.4663544   -9.7559623    470.01578 0.0080575975 0.0061533071         3943 
 4862000    0.4807165   -9.7421753    469.40034 0.0080453918 0.0061510261         3939 
 4863000   0.47418738   -9.7355955    469.52813 0.0080459273 0.0061487454         3944 
 4864000   0.46774736   -9.7665583    470.38585  0.008058968 0.0061464683         3946 
 4865000   0.47387697   -9.7469636    469.60292 0.0080439006 0.0061441916         3955 
 4866000   0.47204299    -9.753172    469.08208 0.0080333279 0.0061419161         3940 
 4867000   0.48224683   -9.7483432    469.50101 0.0080388503 0.0061396409         3945 
 4868000   0.47124781   -9.7596088    469.77836 0.0080419467 0.0061373664         3939 
 4869000   0.47086616   -9.7397923    470.02182 0.0080444619 0.0061350929         3947 
 4870000   0.46951229   -9.7520452    470.39217 0.0080491474 0.0061328211         3944 
 4871000   0.46963612   -9.7494878    469.70259 0.0080356974 0.0061305509         3949 
 4872000   0.46985039   -9.7433787     469.1366 0.0080243672 0.0061282814         3949 
 4873000   0.47945986   -9.7599777    469.95992 0.0080368001 0.0061260116         3943 
 4874000   0.47828575    -9.753293    469.40861  0.008025725 0.0061237442         3951 
 4875000   0.46874233   -9.7309136    470.15495 0.0080368368 0.0061214769         3925 
 4876000   0.47087225   -9.7658864    469.89307 0.0080307129 0.0061192123         3955 
 4877000   0.46923808   -9.7546042     469.2402 0.0080179106 0.0061169487         3947 
 4878000   0.47554034   -9.7498273    469.67266 0.0080236548 0.0061146863         3946 
 4879000   0.46481729   -9.7404143    469.56363  0.008020148 0.0061124243         3949 
 4880000   0.47075236   -9.7478268    469.63771 0.0080197697 0.0061101621         3948 
 4881000   0.46836801   -9.7759751    469.66253 0.0080185503 0.0061079012         3950 
 4882000    0.4706631   -9.7591362     470.2085 0.0080262273 0.0061056421         3935 
 4883000   0.48450458   -9.7340888    469.54475  0.008013256 0.0061033852         3936 
 4884000    0.4715096   -9.7409175    470.17445 0.0080223596 0.0061011299         3956 
 4885000   0.48003751    -9.757948    469.83937 0.0080150012 0.0060988753         3952 
 4886000   0.47228206   -9.7438844    470.03105   0.00801663 0.0060966213         3948 
 4887000    0.4747566   -9.7519764    469.76033 0.0080103732 0.0060943675         3936 
 4888000   0.47986948   -9.7741637    470.29699 0.0080178838 0.0060921153         3944 
 4889000   0.47274155    -9.757639    469.41952 0.0080012873 0.0060898665         3942 
 4890000   0.47988549   -9.7603546    469.11243 0.0079944176 0.0060876158         3942 
 4891000   0.46317724   -9.7436074    469.83543 0.0080051018 0.0060853693         3939 
 4892000   0.47104305   -9.7291184    469.84896 0.0080036959  0.006083121         3941 
 4893000   0.46974966   -9.7582803    469.74321  0.008000259 0.0060808747         3941 
 4894000   0.46937555   -9.7399795    468.58469 0.0079788974  0.006078628         3943 
 4895000   0.46791172   -9.7630175    469.79701 0.0079979063 0.0060763855         3947 
 4896000   0.45640287   -9.7542577    469.75638  0.007995581 0.0060741434         3954 
 4897000    0.4774926   -9.7686228    469.39479  0.007987795  0.006071901         3959 
 4898000   0.47068528   -9.7538144    469.75585 0.0079923072 0.0060696597         3941 
 4899000   0.46062419   -9.7590037    468.64401 0.0079717631 0.0060674188         3944 
 4900000   0.45930915   -9.7587987    469.73276 0.0079886523  0.006065179         3941 
 4901000   0.46597437   -9.7552935    469.39597 0.0079812958 0.0060629415         3958 
 4902000   0.46245854   -9.7509736    469.25013 0.0079771884 0.0060607065         3940 
 4903000   0.46902014   -9.7632148    470.08889 0.0079898172 0.0060584721         3937 
 4904000   0.47127033   -9.7548204    469.14537 0.0079721548 0.0060562384         3957 
 4905000   0.47134336   -9.7438654     470.1729 0.0079879868 0.0060540057         3944 
 4906000   0.46301138   -9.7591412    469.91306  0.007981945 0.0060517752         3936 
 4907000   0.46333709   -9.7626825    469.35645 0.0079708656 0.0060495448         3934 
 4908000   0.46481269    -9.753853    469.68179 0.0079747655 0.0060473154         3925 
 4909000   0.45471621   -9.7754529    469.37723  0.007967971 0.0060450872         3949 
 4910000    0.4632311   -9.7523468     469.2523 0.0079642278 0.0060428603         3946 
 4911000    0.4730268   -9.7568004    469.70509 0.0079702893 0.0060406333         3944 
 4912000   0.45677918   -9.7568167    469.54428 0.0079659386 0.0060384072         3952 
 4913000   0.46375928   -9.7459418    469.58816 0.0079650614 0.0060361831         3948 
 4914000    0.4686537   -9.7614688     470.0326 0.0079709775 0.0060339596         3942 
 4915000   0.46505522     -9.76393    469.80563 0.0079655074 0.0060317362         3944 
 4916000    0.4850203   -9.7500775    469.16883 0.0079530925 0.0060295162         3938 
 4917000   0.46476581   -9.7482495     470.1034 0.0079673142 0.0060272983         3959 
 4918000    0.4648539   -9.7583904     469.3988 0.0079537549 0.0060250825         3930 
 4919000   0.47248389   -9.7460778    469.47985  0.007953511 0.0060228662         3943 
 4920000    0.4687167   -9.7627072    469.83662 0.0079579373 0.0060206506         3940 
 4921000   0.46217175   -9.7630121    469.50158 0.0079506466 0.0060184355         3943 
 4922000   0.45928503   -9.7602855    469.42026 0.0079476545 0.0060162223         3945 
 4923000   0.45901021   -9.7689813    469.48931 0.0079472088 0.0060140098         3951 
 4924000   0.45969407   -9.7621176    469.96665 0.0079536733 0.0060117975         3934 
 4925000   0.46471975   -9.7537823     469.3901 0.0079423028 0.0060095866         3946 
 4926000   0.47742419    -9.780456    469.64967 0.0079450817 0.0060073781         3946 
 4927000   0.45741438   -9.7613633    469.42172 0.0079396137 0.0060051707         3954 
 4928000   0.45851718   -9.7817037    468.95558   0.00793012  0.006002963         3948 
 4929000   0.47070389   -9.7729117    469.33284 0.0079348895  0.006000756         3953 
 4930000   0.46892266   -9.7538431    468.96175 0.0079270073 0.0059985502         3951 
 4931000   0.46022529   -9.7552588    469.62667 0.0079366367  0.005996346         3946 
 4932000   0.46323598   -9.7574846     468.9436  0.007923486 0.0059941428         3943 
 4933000   0.46957623   -9.7595753     470.2429  0.007943829 0.0059919417         3949 
 4934000   0.46428166   -9.7567067    469.70894 0.0079332006 0.0059897418         3941 
 4935000    0.4565386   -9.7550548    469.27218 0.0079242179 0.0059875417         3942 
 4936000   0.46044928   -9.7714577    469.68778 0.0079296289 0.0059853443         3946 
 4937000    0.4654588   -9.7551885    469.00686 0.0079165293 0.0059831455         3935 
 4938000   0.46792008   -9.7678961    469.38816  0.007921361 0.0059809485         3946 
 4939000   0.47641138     -9.78268    470.07748 0.0079313876  0.005978755         3952 
 4940000   0.46501226   -9.7575768    469.83181 0.0079256377 0.0059765621         3961 
 4941000   0.46189592   -9.7538994    469.12235 0.0079120683 0.0059743706         3948 
 4942000   0.45050639    -9.762005    469.43213 0.0079156908 0.0059721789         3957 
 4943000   0.45096019   -9.7622335    469.59407 0.0079168195 0.0059699895         3946 
 4944000   0.46182474   -9.7740762    469.47489 0.0079132094 0.0059678001         3945 
 4945000   0.46982561   -9.7798904    469.40039 0.0079103537 0.0059656126         3927 
 4946000   0.47149711   -9.7638308    469.73733 0.0079144314 0.0059634241         3936 
 4947000   0.46853808   -9.7641688    470.25532 0.0079215572  0.005961238         3937 
 4948000   0.45688173   -9.7432051    469.88198 0.0079136684 0.0059590534         3936 
 4949000   0.46985837   -9.7743783    468.94072 0.0078962201 0.0059568694         3943 
 4950000   0.46351437    -9.769381    470.09332  0.007914029 0.0059546878         3937 
 4951000   0.45683474   -9.7622138    469.44817 0.0079015715 0.0059525049         3956 
 4952000   0.45118348   -9.7629691    469.92721 0.0079080374 0.0059503227         3958 
 4953000   0.45692592   -9.7555942    469.07124 0.0078920392 0.0059481415         3945 
 4954000   0.45011933   -9.7745745    468.36286 0.0078785302 0.0059459622         3935 
 4955000   0.47080063   -9.7666871    469.95217 0.0079036692 0.0059437839         3941 
 4956000   0.46283018   -9.7622727    469.81386 0.0078997488 0.0059416071         3947 
 4957000   0.44582233   -9.7696871    469.01431 0.0078847138 0.0059394315         3943 
 4958000    0.4540471   -9.7774841    469.64732 0.0078937629 0.0059372552         3945 
 4959000   0.46058481   -9.7848492    468.96024 0.0078806251 0.0059350805         3943 
 4960000   0.45253295   -9.7836148     469.4737  0.007887663 0.0059329081         3955 
 4961000   0.45608583   -9.7726529    468.98887  0.007877929 0.0059307368         3944 
 4962000   0.45331722   -9.7529412    469.26199 0.0078809282 0.0059285671         3949 
 4963000   0.45765267    -9.770455     468.6537 0.0078691265  0.005926397         3947 
 4964000   0.45384789    -9.772083    469.14583 0.0078758029 0.0059242293         3944 
 4965000   0.45908316   -9.7713885    469.43833  0.007879126 0.0059220626         3937 
 4966000   0.45597084   -9.7586616    468.75892 0.0078661384 0.0059198958         3937 
 4967000   0.45419513   -9.7757249    468.97933 0.0078682526 0.0059177312         3946 
 4968000   0.45360152   -9.7673849     469.0132 0.0078672369 0.0059155664         3949 
 4969000   0.46126713   -9.7667393    469.65449 0.0078764086 0.0059134027         3948 
 4970000   0.45000982    -9.770962    469.25995 0.0078682084 0.0059112408         3949 
 4971000   0.45575533    -9.766198    468.85843 0.0078598945 0.0059090789         3950 
 4972000   0.46199231   -9.7770579    469.35321 0.0078666065 0.0059069194         3942 
 4973000   0.46301143   -9.7736482    469.07147 0.0078603034 0.0059047598         3948 
 4974000   0.45520582   -9.7849946    469.74759 0.0078700508 0.0059026019         3944 
 4975000   0.44660578   -9.7688563    469.02544 0.0078563726 0.0059004458         3944 
 4976000   0.44416929   -9.7730847    469.38795 0.0078608647 0.0058982894         3932 
 4977000   0.45053244   -9.7756922    469.20244  0.007856179 0.0058961342         3945 
 4978000   0.45669037   -9.7783908    468.76905 0.0078473459 0.0058939809         3951 
 4979000    0.4500791   -9.7636702    469.59098 0.0078595263 0.0058918286         3941 
 4980000   0.46141686    -9.781415    468.54577 0.0078404579 0.0058896767         3940 
 4981000   0.44698351   -9.7816159     469.1592 0.0078491468 0.0058875253         3937 
 4982000   0.45368674   -9.7668768    469.73293  0.007857168 0.0058853764         3942 
 4983000   0.45300668   -9.7783445    469.08064 0.0078446827  0.005883228         3949 
 4984000   0.45727138    -9.772131     469.6799 0.0078531284 0.0058810796         3932 
 4985000   0.45973056   -9.7726813    468.91426  0.007838754 0.0058789346         3949 
 4986000   0.45423664   -9.7794767    468.91046 0.0078371182 0.0058767883         3959 
 4987000   0.44777674   -9.7714949    468.91263 0.0078355831 0.0058746442         3943 
 4988000   0.45138413   -9.7587207    469.65863 0.0078464754 0.0058725019         3944 
 4989000   0.45653688   -9.7817168    468.76559 0.0078299858 0.0058703604         3936 
 4990000   0.45206241   -9.7751939    468.37646 0.0078219181 0.0058682189         3942 
 4991000    0.4520964   -9.7807933    469.31963 0.0078360988 0.0058660803         3953 
 4992000   0.44690034   -9.7797477    469.44289 0.0078365867 0.0058639424         3958 
 4993000   0.45186709   -9.7699759    469.26646 0.0078320725 0.0058618052         3946 
 4994000   0.45202236   -9.7814542    469.44203 0.0078334339 0.0058596687         3936 
 4995000   0.44641645   -9.7821284    468.99812 0.0078244597 0.0058575346         3948 
 4996000   0.44191454   -9.7730693    469.72763 0.0078350618 0.0058554019         3938 
 4997000   0.45446076   -9.7730247    469.73829 0.0078336717 0.0058532699         3941 
 4998000   0.44235728   -9.7722839    468.66268 0.0078141703 0.0058511379         3945 
 4999000   0.45058674   -9.7753046    468.88209 0.0078162647 0.0058490076         3941 
 5000000   0.44740298   -9.7685232    468.80635 0.0078134392 0.0058468769         3931 
 5001000   0.44375121   -9.7890318    468.65803 0.0078094053 0.0058447474         3939 
 5002000   0.45506471   -9.7840875     468.6595 0.0078078685 0.0058426191         3945 
 5003000   0.45030842   -9.7841692    469.51456 0.0078205504 0.0058404916         3942 
 5004000   0.45721745   -9.7827019    468.95961 0.0078097457 0.0058383656         3934 
 5005000   0.45415661   -9.7758899    469.60378 0.0078189108 0.0058362408         3950 
 5006000   0.44942782   -9.7754299    469.22952 0.0078111186 0.0058341165         3942 
 5007000   0.45818747   -9.7830014    468.50318 0.0077974699 0.0058319936         3941 
 5008000    0.4429475   -9.7925969     468.5309 0.0077963741 0.0058298715         3940 
 5009000    0.4468423   -9.7718815      468.698 0.0077975977 0.0058277511         3949 
 5010000    0.4516037   -9.7797663    469.54028 0.0078100513 0.0058256325         3945 
 5011000   0.46019425   -9.7744179    468.81538 0.0077964375 0.0058235139         3952 
 5012000   0.46569198   -9.7938536    469.28861 0.0078027502 0.0058213974         3941 
Loop time of 12922.8 on 48 procs for 5000000 steps with 4000 atoms

Performance: 66858.793 tau/day, 386.914 timesteps/s
99.4% CPU use with 48 MPI tasks x no OpenMP threads

MPI task timing breakdown:
Section |  min time  |  avg time  |  max time  |%varavg| %total
---------------------------------------------------------------
Pair    | 910.25     | 996.85     | 1093.9     | 110.4 |  7.71
Neigh   | 88.584     | 91.42      | 96.508     |  16.3 |  0.71
Comm    | 799.15     | 905.95     | 1011.4     | 128.1 |  7.01
Output  | 17.849     | 17.854     | 17.948     |   0.3 |  0.14
Modify  | 10751      | 10785      | 10832      |  16.9 | 83.46
Other   |            | 125.4      |            |       |  0.97

Nlocal:        83.3333 ave          91 max          74 min
Histogram: 1 2 1 5 12 8 6 9 1 3
Nghost:        2384.69 ave        2418 max        2356 min
Histogram: 2 5 8 3 5 11 5 7 1 1
Neighs:        16283.4 ave       18843 max       13505 min
Histogram: 2 5 6 4 4 7 4 9 4 3
FullNghs:      32564.0 ave       36682 max       28350 min
Histogram: 1 3 3 10 8 6 11 3 0 3

Total # of neighbors = 1563074
Ave neighs/atom = 390.76850
Neighbor list builds = 266137
Dangerous builds = 1

#clear
#
#next RN
#
#jump SELF
Total wall time: 3:35:26
