
units lj                  # Use reduced LJ style units
atom_style atomic         # Uncharged point particles
atom_modify map hash      # Needed for indexing of clusters etc
                          # Used to be able to find where atoms are in relation to each other.

lattice fcc 1.0 spacing 1 1 1
Lattice spacing in x,y,z = 1.5874011 1.5874011 1.5874011
region box block 0 10 0 10 0 10 units lattice
create_box 2 box
Created orthogonal box = (0.0000000 0.0000000 0.0000000) to (15.874011 15.874011 15.874011)
  3 by 4 by 4 MPI processor grid
create_atoms 1 box
Created 4000 atoms
  using lattice units in orthogonal box = (0.0000000 0.0000000 0.0000000) to (15.874011 15.874011 15.874011)
  create_atoms CPU = 0.044 seconds
set type 1 type/fraction 2 0.76 78393
Setting atom values ...
  3028 settings made for type/fraction
mass 1 1.0
mass 2 1.0
pair_style lj/cut  3.5
pair_modify tail  yes
pair_coeff 1  1  1.0  1.0   # Intearaction between 1 and 1 set with epsilon = 1 and sigma = 1
pair_coeff 1  2  1.5  0.8
pair_coeff 2  2  0.5  0.88

write_data data.0
System init for write_data ...
Neighbor list info ...
  update every 1 steps, delay 10 steps, check yes
  max neighbors/atom: 2000, page size: 100000
  master list distance cutoff = 3.8
  ghost atom cutoff = 3.8
  binsize = 1.9, bins = 9 9 9
  1 neighbor lists, perpetual/occasional/extra = 1 0 0
  (1) pair lj/cut, perpetual
      attributes: half, newton on
      pair build: half/bin/atomonly/newton
      stencil: half/bin/3d
      bin: standard
WARNING: Not all mixed pair coeffs generated from mixing. Use write_data with 'pair ij' option to store all pair coeffs. (../write_data.cpp:312)


#############################
#   M E L T   S Y S T E M   #
#############################

velocity all create 2.4 5300450 mom yes dist gaussian # Assign velocities
                                                    # Temperature 2.4, random number seed, zero linear momentum
                                                                                # Gaussian distribution

timestep 0.002   # simulation timestep
thermo 1000       # output thermodynamic data every 1000 steps bf 100

# Define a fix  in this case with index 1 applied to all
# particles in the simulation. This fix is for simulations
# in the anisotropic NPT ensemble. Note that we use the MTK
# correction.
fix 1 all npt temp 2.4 2.4 0.1 iso 5.68 5.68 0.5 mtk yes tchain 5 pchain 5 # Use NPT ensemble
                                                                         # Set temperature and pressure and damping
                                                                         # Numbers of thermostats in chain and in barostat
run 10000          # run for 10000 steps
Per MPI rank memory allocation (min/avg/max) = 3.642 | 3.644 | 3.648 Mbytes
Step Temp E_pair E_mol TotEng Press Volume 
       0          2.4   -3.9031684            0  -0.30406845   -3.4881309         4000 
    1000    2.3668654   -3.3409607            0    0.2084499    5.7181908    3750.0179 
    2000    2.3821177   -3.3631734            0   0.20910988    5.7509859    3737.9853 
    3000    2.3997544   -3.3954294            0   0.20330235    5.5893413    3732.7432 
    4000    2.3856702   -3.4103771            0   0.16723359    5.4793505    3722.7946 
    5000     2.429124   -3.4275715            0   0.21520356     5.388331     3732.946 
    6000    2.4376505   -3.3404445            0   0.31511709    5.7733098    3744.8339 
    7000    2.3998789   -3.4287954            0   0.17012298    5.6416184    3709.9585 
    8000    2.4225125   -3.3655039            0   0.26735649    5.4150133    3776.6219 
    9000    2.3676112   -3.3414619            0   0.20906704    5.8408628    3726.7257 
   10000    2.3731091   -3.3300933            0   0.22868042    5.8137905    3750.3456 
Loop time of 2.79824 on 48 procs for 10000 steps with 4000 atoms

Performance: 617530.104 tau/day, 3573.670 timesteps/s
99.4% CPU use with 48 MPI tasks x no OpenMP threads

MPI task timing breakdown:
Section |  min time  |  avg time  |  max time  |%varavg| %total
---------------------------------------------------------------
Pair    | 1.1807     | 1.2326     | 1.3203     |   2.6 | 44.05
Neigh   | 0.21512    | 0.22074    | 0.23115    |   0.8 |  7.89
Comm    | 0.79311    | 0.86205    | 0.93294    |   3.8 | 30.81
Output  | 0.00024516 | 0.00025312 | 0.00042992 |   0.0 |  0.01
Modify  | 0.4311     | 0.46735    | 0.49535    |   2.7 | 16.70
Other   |            | 0.01529    |            |       |  0.55

Nlocal:        83.3333 ave          93 max          75 min
Histogram: 1 6 7 9 4 6 6 3 4 2
Nghost:        1720.27 ave        1745 max        1691 min
Histogram: 1 2 2 10 5 8 8 5 3 4
Neighs:        10180.3 ave       11650 max        9088 min
Histogram: 6 7 5 7 6 5 3 3 2 4

Total # of neighbors = 488655
Ave neighs/atom = 122.16375
Neighbor list builds = 907
Dangerous builds = 221

# Equilibrate just above the melting temperature to avoid step fn in T

fix 1 all npt temp 1.25 1.25 0.1 iso 5.68 5.68 0.5 mtk yes tchain 5 pchain 5
run 2000
Per MPI rank memory allocation (min/avg/max) = 3.644 | 3.646 | 3.649 Mbytes
Step Temp E_pair E_mol TotEng Press Volume 
   10000    2.3731091   -3.3300933            0   0.22868042    5.8137905    3750.3456 
   11000     1.242263   -4.9969579            0   -3.1340291    5.9366941    2838.0741 
   12000    1.2435336   -5.0161717            0   -3.1513376    5.6018566      2844.21 
Loop time of 0.629151 on 48 procs for 2000 steps with 4000 atoms

Performance: 549311.997 tau/day, 3178.889 timesteps/s
99.7% CPU use with 48 MPI tasks x no OpenMP threads

MPI task timing breakdown:
Section |  min time  |  avg time  |  max time  |%varavg| %total
---------------------------------------------------------------
Pair    | 0.28575    | 0.31381    | 0.33747    |   2.1 | 49.88
Neigh   | 0.040195   | 0.043029   | 0.045592   |   0.6 |  6.84
Comm    | 0.20084    | 0.22503    | 0.2601     |   2.8 | 35.77
Output  | 4.9138e-05 | 5.0651e-05 | 6.6565e-05 |   0.0 |  0.01
Modify  | 0.037647   | 0.042562   | 0.048291   |   1.5 |  6.76
Other   |            | 0.004669   |            |       |  0.74

Nlocal:        83.3333 ave          90 max          76 min
Histogram: 5 2 3 5 7 8 3 7 4 4
Nghost:        2074.02 ave        2103 max        2043 min
Histogram: 2 5 3 5 7 7 6 4 6 3
Neighs:        13451.4 ave       14814 max       12127 min
Histogram: 1 5 8 6 6 4 7 5 3 3

Total # of neighbors = 645669
Ave neighs/atom = 161.41725
Neighbor list builds = 144
Dangerous builds = 16

#############################
# L I N E A R  Q U E N C H  #
#############################

# Define solid atoms. This closely follows ten Wolde  Ruiz-Montero and Frenkel  Faraday Discuss  1996  104  93-110
# Compute components of the per-atom q6 vector
compute q6 all orientorder/atom degrees 1 6 components 6 nnn NULL cutoff 1.3 # compute the Q6 parameter.
                                                                             # Use all neighbours within 1.3 unit cell.

# get number of connections
compute coord_number all coord/atom orientorder q6 0.5

# An atom is solid if it has 8 or more connections (of a possible 14)
variable is_solid atom c_coord_number>=8
group solid dynamic all var is_solid    # Must be dynamic to update
dynamic group solid defined

# do clustering
compute cluster solid cluster/atom 1.3 # Create a cluster where all atoms within are solid and max 1.3 units from another member

# define chunks one chunk per cluster
compute clus_chunks solid chunk/atom c_cluster nchunk every compress yes  # Says which atoms are in which chunk

# count the size of each chunk
compute size_chunks solid property/chunk clus_chunks count


# Find the maximum entry in the vector of chunk sizes
variable max_n equal max(c_size_chunks)


# Thermo style which includes this variable
# thermo_style custom step temp pe vol v_max_n

thermo ${N}  # Print the thermo information every 100 steps
thermo 1000  

# Reset the npt fix at a lower temperature (below freezing)
fix 1  all npt temp  ${temp} ${temp}  0.1  iso  5.68  5.68  0.5  mtk yes tchain  5  pchain  5
fix 1  all npt temp  0.45 ${temp}  0.1  iso  5.68  5.68  0.5  mtk yes tchain  5  pchain  5
fix 1  all npt temp  0.45 0.45  0.1  iso  5.68  5.68  0.5  mtk yes tchain  5  pchain  5

dump dmp2 all dcd ${N} traj.dcd
dump dmp2 all dcd 1000 traj.dcd


compute msd all msd com yes
variable twopoint equal c_msd[4]/6/(step*dt+1.0e-6)
fix 9 all vector 10 c_msd[4]
variable fit equal slope(f_9)/6/(10*dt)
thermo_style custom step temp pe c_msd[4] v_twopoint v_fit v_max_n

fix 1 all npt temp 1.25 ${temp} 0.1 iso 5.68 5.68 0.5 mtk yes tchain 5 pchain 5
fix 1 all npt temp 1.25 0.45 0.1 iso 5.68 5.68 0.5 mtk yes tchain 5 pchain 5
run 5000000 # 5000000  # Run for this many steps
Neighbor list info ...
  update every 1 steps, delay 10 steps, check yes
  max neighbors/atom: 2000, page size: 100000
  master list distance cutoff = 3.8
  ghost atom cutoff = 3.8
  binsize = 1.9, bins = 8 8 8
  4 neighbor lists, perpetual/occasional/extra = 1 3 0
  (1) pair lj/cut, perpetual
      attributes: half, newton on
      pair build: half/bin/atomonly/newton
      stencil: half/bin/3d
      bin: standard
  (2) compute orientorder/atom, occasional
      attributes: full, newton on
      pair build: full/bin/atomonly
      stencil: full/bin/3d
      bin: standard
  (3) compute coord/atom, occasional
      attributes: full, newton on
      pair build: full/bin/atomonly
      stencil: full/bin/3d
      bin: standard
  (4) compute cluster/atom, occasional
      attributes: full, newton on
      pair build: full/bin/atomonly
      stencil: full/bin/3d
      bin: standard
Per MPI rank memory allocation (min/avg/max) = 9.841 | 9.847 | 9.853 Mbytes
Step Temp PotEng c_msd[4] v_twopoint v_fit v_max_n 
   12000    1.2435336   -5.0161717 7.5651761e-31 5.2535943e-33 8.3333333e+20            2 
   13000    1.2513567   -4.9788552   0.71986895 0.0046145444  0.060187847            2 
   14000    1.2373958    -5.001403    1.4463667 0.0086093253  0.059996957            3 
   15000    1.2611598   -4.9856011    2.1256686   0.01180927  0.059330665            1 
   16000    1.2430466   -5.0514742    2.8669988  0.014932285  0.059254936            3 
   17000    1.2323993   -5.0400814    3.6169142  0.017729971   0.06038783            2 
   18000     1.227596   -4.9789458     4.348523   0.02013205   0.06056448            2 
   19000    1.2392637   -5.0223036    5.1107415  0.022415532  0.060761161            2 
   20000    1.2494994   -5.0365581    5.8580023  0.024408342    0.0610136            3 
   21000    1.2383671   -5.0159887      6.57271  0.026082182  0.061041721            2 
   22000    1.2424877    -5.019572    7.3355627  0.027786222  0.061075966            1 
   23000    1.2570682   -4.9814027    8.1538136  0.029542802  0.061381117            1 
   24000    1.2378633   -5.0501024    8.9846113  0.031196566  0.061788459            3 
   25000    1.2437627   -5.0056614    9.8278416  0.032759471  0.062322525            1 
   26000    1.2562371   -4.9975058    10.739995  0.034423059  0.062903957            1 
   27000    1.2480441   -5.0626889    11.477083  0.035423095  0.063506051            3 
   28000    1.2475935   -5.0067967    12.182228  0.036256632  0.063882567            2 
   29000    1.2598695   -5.0641518    12.776233  0.036713312  0.063958271            3 
   30000    1.2509669   -5.0284736    13.662417  0.037951159  0.063960624            4 
   31000    1.2467747   -5.0215886    14.369724  0.038628291  0.063956476            1 
   32000    1.2404086   -5.0449228    15.105893  0.039338262  0.063888622            5 
   33000    1.2698565   -5.0511001    15.618522  0.039440711  0.063692683            2 
   34000    1.2442799   -4.9875278    16.380525  0.040148345  0.063415291            2 
   35000    1.2507184   -5.0219216    17.152865  0.040840154  0.063221762            2 
   36000    1.2328386   -5.0006775    17.991496  0.041646982  0.063052191            4 
   37000    1.2353828   -5.0291143    18.719315  0.042160618  0.062929466            1 
   38000    1.2349955   -5.0372993    19.465124  0.042686674  0.062879918            3 
   39000    1.2444494   -4.9711654    20.257692  0.043285666  0.062815585            4 
   40000    1.2604516   -5.0262655    20.946506  0.043638554  0.062709198            3 
   41000    1.2610705   -5.0300899    21.600035  0.043902509  0.062629558            3 
   42000    1.2383387   -5.0098975     22.32344   0.04429254  0.062551461            3 
   43000    1.2280392   -5.0179432    22.921431  0.044421377  0.062433926            2 
   44000    1.2576366    -5.079597    23.682367  0.044852967  0.062340577            1 
   45000    1.2504915   -5.0223623    24.593979  0.045544405  0.062310534            1 
   46000    1.2695406   -5.0276444     25.32107  0.045871503  0.062271979            1 
   47000    1.2371916   -5.0085756    26.065406  0.046215258  0.062248071            3 
   48000    1.2296897    -5.018133    26.934363  0.046761047  0.062224698            2 
   49000    1.2557181   -5.0389634    27.481417  0.046737104  0.062210919            3 
   50000    1.2566096   -5.0483903    28.313061  0.047188435  0.062182401            2 
   51000    1.2688627   -5.0292059    29.120265  0.047582131  0.062187719            3 
   52000    1.2396861   -5.0858988    29.814511  0.047779664  0.062209174            2 
   53000    1.2365695   -5.0746091    30.673252  0.048228384  0.062243053            2 
   54000    1.2530865   -5.0101335     31.57622  0.048728734  0.062279315            3 
   55000    1.2400394   -5.0239268     32.20107    0.0487895  0.062341095            4 
   56000    1.2556298   -5.0649544    32.809639  0.048823867  0.062362399            7 
   57000    1.2480005   -5.0740006    33.559818   0.04906406  0.062376571            2 
   58000    1.2497455    -5.018581    34.456131  0.049505935  0.062378151            3 
   59000    1.2384957   -5.0406261    35.226483   0.04975492  0.062398585            4 
   60000    1.2703061   -5.0364978    36.058922  0.050081835  0.062428149            5 
   61000    1.2386295   -5.0504754    36.908783  0.050421834  0.062480996            4 
   62000    1.2287137   -5.0472986    37.717573  0.050695663  0.062544857            1 
   63000    1.2269449   -5.0919978    38.243429  0.050586546  0.062579605            4 
   64000    1.2299471   -5.0455265    39.153918  0.050981664   0.06261944            2 
   65000    1.2343839   -5.0738891    39.783014  0.051003864  0.062641619            1 
   66000    1.2377603   -5.0789695     40.27158  0.050847954  0.062646594            3 
   67000    1.2418437   -5.0502867    40.856011  0.050815933  0.062619255            2 
   68000    1.2381407   -5.0024251    41.713234  0.051119159  0.062576543            1 
   69000    1.2387133   -5.0620953    42.234282  0.051007587  0.062532219            2 
   70000    1.2376236   -5.0023388    43.317829  0.051568843   0.06248932            2 
   71000    1.2674595    -5.050922    44.071803  0.051727468   0.06247182            4 
   72000    1.2397342   -5.0817862    44.822577  0.051877982  0.062449033            1 
   73000    1.2183223   -5.0655464    45.347801  0.051766896  0.062414708            1 
   74000    1.2203251   -5.0940569    45.950007  0.051745503  0.062362018            3 
   75000    1.2201809   -5.0660933    46.770139   0.05196682   0.06232796            2 
   76000    1.2543768   -5.0906987    47.608576  0.052202386  0.062311821            2 
   77000    1.2516116   -5.0612803     48.33378  0.052309285  0.062289115            3 
   78000    1.2493745   -5.0306038    49.335997  0.052709398  0.062279226            3 
   79000    1.2484806   -5.0245701    49.895217  0.052632085  0.062262157            1 
   80000    1.2475697   -5.0594091    50.592867  0.052700902  0.062232145            2 
   81000    1.2339793   -5.0084414    51.234867  0.052710768  0.062206236            1 
   82000    1.2307777   -5.0501851    52.308614   0.05315916  0.062178877            3 
   83000    1.2127434   -4.9982743    52.636983  0.052848376  0.062152813            4 
   84000    1.2543739   -5.0637195     53.30666  0.052883591  0.062110348            1 
   85000    1.2377545   -5.0439512    53.947686  0.052889888  0.062068837            2 
   86000    1.2507327   -5.0287405    54.798952  0.053099759  0.062020175            2 
   87000    1.2137153   -5.0216278     56.00872  0.053648198  0.061992765            3 
   88000    1.2390344   -5.0514682    56.558545  0.053559228  0.061996441            2 
   89000    1.2090296   -5.0341911     57.51101   0.05384926  0.062011702            4 
   90000    1.2508755   -5.0588124    58.413695  0.054086754  0.062016394            3 
   91000    1.2472645   -5.0528226    58.845516  0.053887835  0.062027783            3 
   92000    1.2554966   -5.0709877    59.576676   0.05396438  0.062016472            3 
   93000    1.2239937   -5.0274088    60.052854  0.053810801  0.062000266            4 
   94000    1.2440625   -5.0458383    61.069526   0.05413965  0.061991548            2 
   95000    1.2314072    -5.066303    61.697509  0.054120621  0.061985195            2 
   96000    1.2365429   -5.0450698    62.651129  0.054384661  0.061984273            3 
   97000    1.2439215   -5.0666278     62.69213  0.053859218  0.061973059            1 
   98000    1.2148704   -5.0315677    63.806409   0.05425715  0.061943773            3 
   99000    1.2541761    -5.074122    64.418453  0.054224287  0.061922093            1 
  100000    1.2227011   -5.0346291    65.093433  0.054244527  0.061903968            2 
  101000    1.2069941   -5.0421293    65.696164  0.054204756  0.061868802            3 
  102000     1.219596   -5.0606569    65.981087  0.053906116  0.061827517            1 
  103000     1.261876   -5.0713358    67.023081  0.054225794  0.061789583            4 
  104000    1.2359046   -5.0476529    67.507851  0.054092829  0.061747625            2 
  105000    1.2221445   -5.0367318    68.406965  0.054291242  0.061704513            1 
  106000    1.1989165   -5.0143059    69.117328  0.054337522  0.061649966            3 
  107000    1.2393619   -5.0426209    69.765332   0.05433437  0.061605397            2 
  108000    1.2369096   -5.0608467    70.034634  0.054039069  0.061551862            2 
  109000    1.2440344   -5.0404838    70.891914  0.054198711  0.061497499            1 
  110000    1.2424112    -5.032726    71.639456  0.054272315  0.061440583            3 
  111000    1.2200361   -5.0426527    72.006077  0.054058616  0.061383305            1 
  112000    1.2289898   -5.0276001    73.019355  0.054329877  0.061327208            1 
  113000    1.2373386   -5.0816329     73.35701  0.054098089  0.061268345            2 
  114000    1.2467502   -5.0265578    74.053482  0.054132662  0.061217828            3 
  115000    1.2244411   -5.0623494    74.838825  0.054231033  0.061175914            1 
  116000    1.2493423   -5.0358493    75.966129  0.054573368  0.061134402            2 
  117000    1.2591009   -5.0619882    76.069966  0.054180887  0.061094414            5 
  118000    1.2400331   -5.0831878    76.601812  0.054097325  0.061043027            2 
  119000    1.2341465   -5.0724227    78.027012  0.054640764  0.060993967            3 
  120000     1.233306    -5.052806    78.224591  0.054322632  0.060952918            2 
  121000     1.229176   -5.0463559    79.304283  0.054617275  0.060905318            1 
  122000    1.2350781   -5.0549088    80.059481  0.054685438  0.060873463            2 
  123000    1.2225996   -5.0817204    80.879302  0.054796275   0.06084938            3 
  124000    1.2383499    -5.090177    81.725576  0.054923102  0.060827998            3 
  125000    1.2429366   -5.0557633    82.472235   0.05498149  0.060806999            2 
  126000    1.2268164   -5.0658778    82.805828  0.054765759  0.060787072            1 
  127000    1.2300946   -5.0205313    83.810169  0.054993549  0.060756285            3 
  128000    1.2309025    -5.058599    83.742132  0.054519617  0.060725474            1 
  129000    1.2258207   -5.0435674    85.049642  0.054941629  0.060692894            2 
  130000      1.22462   -5.0113001    86.068507  0.055172119  0.060662131            6 
  131000    1.2236299   -5.0377223    86.150125  0.054802878  0.060633058            1 
  132000      1.22936   -5.0355884    86.900963  0.054861719  0.060600851            3 
  133000    1.2250341   -5.0873379    87.842263  0.055039012  0.060570223            2 
  134000     1.242079    -5.033366    88.765584  0.055202477  0.060545692            2 
  135000    1.2279329   -5.0080714    89.545215  0.055274824  0.060524242            3 
  136000     1.253215   -5.0499403    89.729369  0.054981231  0.060499027            2 
  137000    1.2301855   -5.0773634     91.16084  0.055450633  0.060473205            3 
  138000    1.2374797   -5.0714329     91.10139  0.055012916  0.060450166            2 
  139000    1.2229361   -5.0412025    92.186926  0.055267941  0.060434289            4 
  140000    1.2619705   -5.0550007    93.113166  0.055424503  0.060415476            1 
  141000    1.2210435   -5.0694765    93.163006  0.055060878   0.06039971            2 
  142000    1.2326901   -5.0473699    94.719975   0.05558684  0.060377219           10 
  143000    1.2237815   -5.0764109    94.782277  0.055234427  0.060353821            5 
  144000    1.2449485   -5.0618572    95.328171  0.055166766  0.060327895            1 
  145000    1.2450432   -5.0519606    96.178525  0.055275014  0.060297657            2 
  146000     1.190125   -5.0275256    96.762716   0.05522986   0.06026767            2 
  147000    1.2258469    -5.069427    97.572362   0.05531313  0.060236309            2 
  148000    1.2336216    -5.039329    98.166933  0.055274174  0.060203751            3 
  149000    1.2359778   -5.0646734     98.65975  0.055178831   0.06017569            2 
  150000    1.1788517   -5.0313312    99.766776  0.055425986  0.060154134            3 
  151000    1.1988584   -5.0346158    100.49029  0.055458217  0.060134155            3 
  152000    1.2282311   -5.0805349    101.14265  0.055451017  0.060118399            2 
  153000    1.2332499   -5.0306009    101.93589   0.05552064  0.060097413            2 
  154000     1.217626   -5.1022365    102.39894  0.055410681  0.060069783            2 
  155000    1.2263701   -5.0692503    103.41165  0.055597661  0.060048848            2 
  156000    1.2198765   -5.0400122    104.41051  0.055774845  0.060032978            3 
  157000    1.2313896   -5.0516568    105.08239  0.055776214  0.060019279            3 
  158000    1.2301096   -5.0771305    105.16574  0.055467162  0.060006348            2 
  159000     1.247986   -5.0432624    106.28472   0.05570478  0.059992317            1 
  160000    1.2315227   -5.0593656    106.87243  0.055662724  0.059979499            2 
  161000    1.2217546   -5.0363816    107.80063  0.055797429   0.05996915            3 
  162000    1.2283469   -5.0346618    108.26966  0.055694267  0.059959019            1 
  163000     1.246566   -5.0343725     108.6867  0.055565799  0.059942113            1 
  164000    1.2366593   -5.0472888    108.98797  0.055380068  0.059921866            3 
  165000     1.226848    -5.081047    109.87665   0.05549326  0.059893571            3 
  166000     1.214274   -5.0695571    110.50632  0.055475058  0.059867369            2 
  167000    1.2174787   -5.0549881    111.03433   0.05540635  0.059844597            3 
  168000    1.2502684   -5.0682943     112.1319   0.05562098  0.059819564            3 
  169000    1.2276412   -5.0789006    112.56226  0.055504071  0.059800742            2 
  170000    1.2006413   -5.0468646    113.19643  0.055488445  0.059776494            2 
  171000    1.2430376   -5.0617089    113.79937  0.055457781  0.059753442            4 
  172000    1.1985071   -5.0907814    114.72705  0.055584813  0.059731089            1 
  173000    1.2359143   -5.0198976    115.50877  0.055640063  0.059708478            2 
  174000    1.2091895   -5.0884286    115.81084  0.055464963  0.059688036            2 
  175000    1.2040191   -5.1080186    116.41905  0.055437643  0.059666589            1 
  176000    1.2256545   -5.0551546    118.13446  0.055934879  0.059645806            1 
  177000     1.213054   -5.0563597    118.05392  0.055580943  0.059626743            3 
  178000    1.2263254   -5.0619561     118.8759  0.055653511  0.059605015            1 
  179000    1.2254922   -5.0344381    119.69463  0.055723757  0.059584008            2 
  180000    1.2142045   -5.0674554    120.13777  0.055619338  0.059558633            2 
  181000    1.2199125   -5.0477191    120.61228  0.055530514  0.059535465            2 
  182000    1.2314128   -5.0800968    121.82593  0.055781104  0.059511071            3 
  183000    1.2122386     -5.04369    122.53088  0.055797304  0.059491432            3 
  184000    1.1984836   -5.1091583    123.08683  0.055745846  0.059477977            3 
  185000    1.2093105    -5.056633    124.31111  0.055995995  0.059462851            3 
  186000    1.2275952   -5.0412928    124.68061  0.055860489  0.059451774            2 
  187000    1.2164376   -5.1026316    125.32033   0.05584685  0.059440775            2 
  188000    1.2200291   -5.0328067    126.57253  0.056104844  0.059431248            3 
  189000    1.2275065   -5.0620901    127.68771  0.056299698  0.059426689            3 
  190000     1.261704   -5.1155157    127.61267  0.055970471  0.059425909            2 
  191000     1.204268   -5.0750502    128.64939  0.056129753  0.059427091            2 
  192000    1.2276293   -5.0511937     129.6174  0.056257553  0.059429584            2 
  193000    1.2082262   -5.0676309     130.2932  0.056257857  0.059431851            1 
  194000    1.2087376   -5.0678711    131.42013  0.056451946   0.05943108            2 
  195000    1.2079321   -5.0693637    132.18481  0.056489234  0.059432829            1 
  196000    1.2119199   -5.0835823    132.56087  0.056360914  0.059437623            1 
  197000    1.2383088   -5.0428404    133.46809  0.056458585  0.059439781            5 
  198000    1.2334146   -5.0942206    133.51776  0.056194343  0.059435253            2 
  199000    1.2288111   -5.0950706    133.86011  0.056055323  0.059428489            2 
  200000    1.2317115   -5.0728656    134.03933   0.05584972  0.059420686            1 
  201000    1.2206942   -5.0630584    135.42468  0.056146219  0.059410258            1 
  202000    1.2128822   -5.0971278    135.55222  0.055920885   0.05939667            3 
  203000    1.2195545   -5.0602016    136.14983  0.055890736  0.059381857            3 
  204000    1.1975837   -5.0956788    137.33852  0.056102335  0.059371843            2 
  205000    1.2067958   -5.1105817    137.52671  0.055905168  0.059361337            2 
  206000    1.2299938   -5.0997942     139.2627  0.056336043  0.059349614            3 
  207000    1.2259971    -5.079573    139.53548  0.056173703  0.059340646            2 
  208000    1.1963875   -5.1051305    139.69346  0.055966931  0.059326982            4 
  209000    1.2246922   -5.0838509    140.57752  0.056051643  0.059312956            4 
  210000    1.1989401   -5.0791137    141.19081    0.0560281   0.05929942            4 
  211000    1.1925513    -5.058346     142.4807     0.056272  0.059287427            2 
  212000    1.2118401   -5.0946533    142.72884  0.056104102   0.05927592            2 
  213000     1.239664   -5.1096724    143.40056  0.056103503  0.059267799            4 
  214000    1.2239522    -5.106977    144.64992  0.056327849  0.059259813            3 
  215000    1.2080899   -5.0844817    144.54775   0.05602626  0.059251085            1 
  216000     1.247614    -5.090017    145.41789  0.056102583  0.059241133            3 
  217000     1.214572   -5.0587092    146.34596  0.056200447  0.059231844            5 
  218000    1.1962007   -5.0944368    146.65873  0.056062206  0.059220844            2 
  219000    1.2338629   -5.0625656      148.022  0.056324963  0.059209374            2 
  220000    1.2040812   -5.1318795    148.26825  0.056162215   0.05919919            2 
  221000    1.1894669   -5.0689733    149.52326   0.05638132  0.059190295            3 
  222000    1.2029566   -5.1175747    150.32485  0.056428248  0.059186443            5 
  223000    1.2169789    -5.067803    151.02776  0.056437876  0.059180882            1 
  224000    1.1958385   -5.0852172    151.47257  0.056351403  0.059175603            2 
  225000    1.2213897   -5.1216266    152.01153  0.056300568  0.059169986            3 
  226000    1.2094747   -5.0619804     153.0741  0.056443251  0.059161232            2 
  227000    1.2049924   -5.0583428    153.95275  0.056517161  0.059154886            1 
  228000    1.2216844   -5.0566628     154.4089  0.056436002   0.05915174            2 
  229000    1.2230445   -5.0985524    155.41047  0.056554028  0.059145508            1 
  230000    1.2135107    -5.078255    155.83277  0.056461148  0.059141762            2 
  231000    1.2151184   -5.0679819    157.58278  0.056848045  0.059139822            4 
  232000    1.2228118   -5.1063874    157.80693  0.056683523  0.059141065            3 
  233000    1.2253467   -5.1101749    158.73186   0.05677105  0.059145432            2 
  234000    1.2448516   -5.1128542      159.685  0.056867878  0.059149734            2 
  235000    1.2052287   -5.1104651    159.85228  0.056685206  0.059149661            1 
  236000    1.1950048   -5.0812185    160.25353  0.056586699  0.059149545            1 
  237000    1.2029213   -5.1267021    160.95089  0.056593139  0.059147297            1 
  238000     1.211368   -5.0805015    162.49675  0.056896623   0.05914907            2 
  239000    1.2273354   -5.0645956    162.72255   0.05673729  0.059148975            8 
  240000    1.2176036   -5.0555018    163.50882  0.056773896  0.059148004            2 
  241000    1.2051366   -5.1010341    164.05302  0.056726494  0.059148448            2 
  242000    1.2463923   -5.0987061    164.90081  0.056784027  0.059149088            3 
  243000    1.2447649   -5.1005256    164.95159  0.056567762  0.059148176            2 
  244000    1.2004986   -5.1233979    165.53504   0.05653519  0.059146279            3 
  245000    1.2109457   -5.0637101    167.04898   0.05681938  0.059142606            1 
  246000     1.220987   -5.0997835    166.99814  0.056571186  0.059136048            3 
  247000    1.2305437    -5.057573    167.93061   0.05665675  0.059128284            2 
  248000    1.2210939   -5.1172562    167.81874  0.056390706  0.059120745            2 
  249000    1.2024911   -5.0925385    167.70737  0.056126965   0.05910811            3 
  250000    1.2027679   -5.0846209    168.43146  0.056143819  0.059093299            1 
  251000    1.2004064   -5.1014615    168.89922  0.056075439  0.059074479            2 
  252000    1.2138735   -5.0767145    169.85058   0.05616752  0.059057451            2 
  253000    1.2033468   -5.1055432    170.09617  0.056026406  0.059038417            2 
  254000    1.2083371   -5.1172657    170.43471  0.055916901  0.059019721            3 
  255000    1.2202227    -5.115304    170.85793  0.055835924  0.059000284            2 
  256000    1.2224122   -5.0961087    171.87565  0.055949104   0.05897867            2 
  257000    1.2127385   -5.0962306    172.65806  0.055985103  0.058958516            3 
  258000    1.1992974   -5.0950852    173.93221  0.056179656   0.05893797            3 
  259000    1.2101449   -5.0901712    173.71953  0.055894316  0.058915391            1 
  260000    1.2231852   -5.0924796      174.515  0.055934296  0.058892866            3 
  261000    1.2028964   -5.1174515    173.68119  0.055453765  0.058869408            2 
  262000    1.1904877     -5.08379    175.97056  0.055970279   0.05884591            2 
  263000    1.1966008   -5.1012632     175.7092   0.05567465  0.058823622            3 
  264000    1.2105624   -5.1382108    177.09642  0.055901646  0.058801475            2 
  265000    1.2118205   -5.1203001    177.32236  0.055761748  0.058781711            4 
  266000    1.1930336   -5.1074402    178.81293   0.05601909  0.058761419            3 
  267000    1.1825044   -5.0848894    179.84096  0.056130136  0.058744148            1 
  268000    1.2002076    -5.113345    179.68828   0.05587322  0.058722851            1 
  269000    1.1717941   -5.1792133     179.8444  0.055713879  0.058702471            2 
  270000    1.2107115   -5.1008718    181.57794  0.056042573  0.058683811            4 
  271000    1.2071906   -5.0734725    182.40909  0.056091356  0.058669958            3 
  272000    1.1884395   -5.1031884    182.94805  0.056050262   0.05865265            3 
  273000    1.1997949   -5.1037867    183.79677  0.056104019  0.058634704            3 
  274000     1.195645   -5.0933478    183.27575    0.0557408  0.058617782            2 
  275000    1.2163554   -5.1246899    184.49023  0.055906131  0.058601336            2 
  276000    1.2067438   -5.0652708    185.05076  0.055872813  0.058582824            3 
  277000    1.2115708   -5.1086745    186.13395  0.055996976  0.058562876            2 
  278000    1.1751198   -5.0966613    186.31088  0.055848586  0.058545984            1 
  279000    1.2121679   -5.1034462    187.58002  0.056027484  0.058528414            1 
  280000    1.2032113    -5.065124    188.75432  0.056176881  0.058510877            2 
  281000    1.2068384   -5.0874038    189.30543  0.056140399  0.058494134            2 
  282000    1.2103481   -5.0816292    190.07825  0.056169694  0.058478327            1 
  283000    1.2212182   -5.0963897    190.16567  0.055996959  0.058463687            3 
  284000    1.1910702   -5.1020215    190.63737  0.055938195  0.058448504            3 
  285000    1.2108298   -5.1158861    190.86781  0.055809302  0.058429614            3 
  286000    1.2130526   -5.0938337    192.00132  0.055944441  0.058411375            2 
  287000    1.2227766   -5.0940782    192.44298  0.055877752  0.058392964            4 
  288000    1.2031282    -5.124861    192.64851  0.055743203  0.058374277            2 
  289000    1.2132435   -5.1072263    193.41224  0.055770542  0.058355762            1 
  290000    1.1917458   -5.1160377    194.58031  0.055913882  0.058339558            4 
  291000    1.1965819   -5.1586353    193.20591  0.055328153  0.058320882            3 
  292000    1.2119106   -5.0989479     195.9822  0.055930993  0.058302647            3 
  293000     1.216566   -5.0644587    197.21603   0.05609102  0.058285982            3 
  294000    1.2103501   -5.0938182    197.55961  0.055997621   0.05827037            2 
  295000    1.2178213   -5.1014017     198.2234  0.055995311  0.058253609            5 
  296000    1.2059033   -5.0974787    199.13025  0.056061444  0.058238747            2 
  297000     1.228093    -5.126587    199.62113  0.056010419  0.058222868            2 
  298000    1.1714846   -5.0801202    200.86871  0.056171339  0.058212634            5 
  299000    1.2038412   -5.1191421    202.35987  0.056399073  0.058203018            1 
  300000    1.2005195    -5.103492    203.06759  0.056407664  0.058196695            2 
  301000    1.2130429   -5.1240269    203.54106  0.056351345  0.058190034            1 
  302000    1.1886829   -5.1137141    203.60784  0.056183178  0.058183326            1 
  303000    1.1853867   -5.1017959    204.48529  0.056239079    0.0581736            2 
  304000    1.1689763   -5.0853481      205.033  0.056204221  0.058165555            3 
  305000    1.1981004   -5.1158266    205.24632  0.056078229  0.058153584            2 
  306000    1.1850649   -5.0662447    206.76773  0.056309294  0.058141675            2 
  307000    1.1739019   -5.1188146    206.57683  0.056074057  0.058132405            1 
  308000    1.1837822    -5.113298    207.51061  0.056144646  0.058119448            3 
  309000    1.2082965   -5.1397964    207.75174  0.056027976  0.058110285            2 
  310000    1.1998435   -5.1174219    208.85942  0.056145006  0.058100794            2 
  311000    1.2047666   -5.0752248     209.2199  0.056061066  0.058090077            4 
  312000    1.2119768   -5.1178613    209.27914  0.055897205   0.05807893            2 
  313000     1.190215   -5.0888372       210.72  0.056102236   0.05806632            3 
  314000    1.1844343   -5.1244407    210.48791  0.055861971  0.058052091            3 
  315000    1.1828182   -5.0927694     212.3444  0.056175767  0.058040706            5 
  316000    1.2098012   -5.1190619    211.65939   0.05581735  0.058027339            2 
  317000    1.1886025   -5.0946795    213.95044  0.056243545  0.058014626            3 
  318000     1.197937   -5.0846183    213.57535  0.055968383   0.05799988            2 
  319000    1.2110662   -5.1288527    213.24473  0.055706566  0.057986915            2 
  320000    1.2151123   -5.1130461    214.49239  0.055857393  0.057972213            6 
  321000    1.1735164   -5.1175538    215.08524  0.055837291  0.057957142            4 
  322000    1.2033184   -5.1343258     215.7201  0.055828183  0.057944155            2 
  323000    1.2007302   -5.1313895    216.35078  0.055818055  0.057931205            2 
  324000    1.2053662    -5.075823    218.30391  0.056148124  0.057918818            3 
  325000    1.2319879   -5.1280682    217.54457  0.055780658  0.057905334            6 
  326000    1.2089824   -5.0989216    218.54579  0.055865489  0.057893817            3 
  327000    1.2239791   -5.0987478    219.76323    0.0560049  0.057881908            2 
  328000    1.2261748   -5.1512583    218.99128  0.055638029  0.057868825            4 
  329000    1.2120718   -5.1194198    220.62336  0.055882309  0.057854687            4 
  330000    1.1927124   -5.1542983    220.78478  0.055753732    0.0578415            1 
  331000    1.2350688    -5.084282    222.28557  0.055963134  0.057827333            4 
  332000    1.2032831   -5.0951736    222.34916  0.055810532   0.05781368            2 
  333000    1.1844813   -5.1090014    223.37811  0.055900427  0.057800998            2 
  334000     1.222572   -5.1262764    224.66468  0.056054061  0.057789803            6 
  335000    1.1944139   -5.1152993    225.34995  0.056057201  0.057778196            3 
  336000    1.1989308   -5.1191183    225.34947  0.055890246  0.057768051            4 
  337000    1.1909127    -5.114689    226.44995  0.055996525  0.057757969            1 
  338000    1.1872954   -5.0948722     227.4824  0.056085404  0.057747485            1 
  339000    1.1702881   -5.1348934    227.68602  0.055970014  0.057737372            3 
  340000     1.220169     -5.13994    227.84806  0.055845112  0.057726244            6 
  341000    1.2117388   -5.1480387    228.99225  0.055960961  0.057714579            4 
  342000    1.2156136   -5.1485371    229.74163   0.05597993  0.057706202            4 
  343000    1.2134418   -5.1089969    230.24912   0.05594002  0.057697562            2 
  344000    1.1876587   -5.1336339    231.39874  0.056055897  0.057688921            7 
  345000    1.1872578   -5.0996255    232.20659  0.056088547  0.057680697            3 
  346000     1.165092   -5.0793162    233.69709  0.056285427  0.057673744            2 
  347000    1.2026749   -5.1432487    232.06629  0.055731577  0.057667158            3 
  348000    1.1839331   -5.1009175    234.50564  0.056155566  0.057661825            2 
  349000    1.2064087   -5.1030627    233.98965  0.055871453  0.057656038            2 
  350000    1.1680241   -5.1319032    234.87528  0.055922686  0.057648221            1 
  351000    1.1941905   -5.0989686    236.36217  0.056116374  0.057639314            6 
  352000    1.1835525   -5.1040366    236.79226  0.056058775  0.057630473            4 
  353000    1.1836809   -5.1294031     237.2289  0.056003046  0.057620896            1 
  354000    1.1905928   -5.1079235    237.25015  0.055849848  0.057609945            3 
  355000    1.1925173   -5.0999112    238.00879  0.055870607  0.057599107            3 
  356000     1.218267   -5.1345725    238.34881  0.055793261  0.057586961            3 
  357000    1.1909262   -5.1490811    238.85791  0.055755814  0.057574141            4 
  358000    1.1842764   -5.0969392    239.76039  0.055810147  0.057562023            2 
  359000    1.1807083   -5.1276846    239.99744  0.055709712  0.057548576            2 
  360000    1.1851591   -5.1574599    239.19888   0.05537011  0.057533579            2 
  361000    1.2109735   -5.1115681    240.97862  0.055627567  0.057518225            5 
  362000    1.1924738    -5.096474    241.73031  0.055646941   0.05750278            2 
  363000    1.2008491    -5.132762    241.65048  0.055475317  0.057488524            1 
  364000    1.1961001   -5.1331968    242.88114  0.055604657  0.057474071            2 
  365000    1.1968877   -5.1014629    244.33445  0.055784122  0.057460201            2 
  366000    1.1869616   -5.1186706    244.96102  0.055774368  0.057445146            2 
  367000    1.1927511    -5.150244    243.97767  0.055399108  0.057429913            3 
  368000    1.1732776   -5.1415669    244.88479  0.055453983  0.057414768            1 
  369000    1.1970812   -5.1240331     245.6432  0.055474977  0.057399532            3 
  370000     1.210601   -5.1106997    247.23836  0.055684316  0.057384207            4 
  371000    1.1777544   -5.1419061    246.27841    0.0553186  0.057368174            4 
  372000     1.194178   -5.1077892    246.94348  0.055318879  0.057351981            3 
  373000     1.196049    -5.140195    247.99032   0.05540445  0.057335545            1 
  374000    1.1719806   -5.1141286    247.25213  0.055091829  0.057318874            2 
  375000    1.2000254   -5.1440671     249.0244  0.055338755  0.057302168            1 
  376000    1.2001318   -5.1309478    250.23496  0.055459877  0.057284519            2 
  377000    1.1824085   -5.1509621    249.69857  0.055194203  0.057266304            3 
  378000    1.2000367   -5.1433037    250.44118    0.0552119  0.057248608            3 
  379000    1.1768953   -5.1585062    250.40911  0.055059172  0.057230367            3 
  380000    1.1639616   -5.1571037    250.15974  0.054859593  0.057211241            2 
  381000    1.1897444   -5.1132637    252.68977  0.055268978  0.057191355            4 
  382000    1.2054049    -5.133625    252.92324  0.055175227  0.057172073            3 
  383000    1.1826532   -5.1599509    252.96706  0.055040701  0.057154142            3 
  384000     1.191406   -5.1352471    254.33747  0.055194764  0.057136871            3 
  385000    1.1921625   -5.1397133    254.69134  0.055127995  0.057121547            2 
  386000    1.2195075   -5.1462569    254.98434  0.055048432  0.057104445            3 
  387000    1.1820278    -5.165327    254.48083  0.054797768   0.05708648            3 
  388000    1.1991509   -5.1039409    256.71954  0.055137358   0.05706914            2 
  389000    1.2058663   -5.1269332     257.4761   0.05515769  0.057053138            1 
  390000    1.2089139   -5.1253766    258.18225  0.055167147   0.05703678            5 
  391000    1.1870266   -5.1629119    258.55405  0.055105296   0.05701999            2 
  392000    1.1746808   -5.1380097     259.3449  0.055132845  0.057003618            4 
  393000    1.2192704   -5.1292478    261.29483  0.055406028  0.056987363            2 
  394000    1.1895942   -5.1283494    260.77678  0.055155834  0.056972547            1 
  395000    1.1954694   -5.1152782    261.39119  0.055145822  0.056957224            2 
  396000    1.1855801   -5.1480541    262.57451   0.05525558  0.056942494            2 
  397000    1.1964563    -5.104659    262.57262     0.055116  0.056926464            3 
  398000    1.1863605    -5.127508    263.28162  0.055125968  0.056911953            2 
  399000    1.2035821   -5.1852709     262.9474  0.054918004  0.056898501            3 
  400000    1.2051953   -5.1878607    263.77884  0.054953925  0.056883991            3 
  401000    1.1856822    -5.117006    265.20274  0.055112788  0.056869988            3 
  402000    1.2300303   -5.1386477    267.08919  0.055366747  0.056857048            1 
  403000    1.1934059   -5.1695926    266.63909  0.055136289  0.056844396            3 
  404000    1.1798772    -5.172852    267.06559  0.055087787   0.05682985            3 
  405000    1.1835109   -5.1479545    266.89626  0.054916925  0.056814331            2 
  406000    1.1686215   -5.1349635    267.26087    0.0548565  0.056797686            2 
  407000    1.1974184   -5.1288456    267.67569  0.054806651  0.056781726            2 
  408000    1.1885918   -5.1298056    268.83164  0.054908422  0.056763432            2 
  409000    1.1831661   -5.1425205    268.79766  0.054767248  0.056745238            3 
  410000    1.1694185   -5.1227705     270.2053  0.054919776  0.056727411            2 
  411000    1.1911766   -5.1394677    270.09718  0.054764229  0.056710317            3 
  412000    1.2168652   -5.1595879    270.52183  0.054717199  0.056691591            2 
  413000    1.2156945   -5.1603913    271.47501  0.054777039  0.056673011            6 
  414000    1.1833354   -5.1753012    271.27984  0.054605444  0.056654205            2 
  415000    1.1725751   -5.1537225    271.39351   0.05449669  0.056636123            3 
  416000    1.1865583   -5.1613332    273.67404  0.054822525  0.056618908            1 
  417000    1.1671398   -5.1168465    273.71191  0.054698623  0.056600756            4 
  418000     1.204737   -5.1653207    273.61258  0.054547962  0.056582442            3 
  419000    1.1861891   -5.1148883    275.48903  0.054790976  0.056563808            3 
  420000    1.1943222   -5.1454879    275.72742  0.054707821  0.056545689            1 
  421000    1.1860457   -5.1228065    275.53285   0.05453936  0.056527058            1 
  422000    1.2197884    -5.107658    277.37815  0.054774516  0.056507755            1 
  423000     1.170013   -5.1242435    277.29797  0.054629229  0.056489736            2 
  424000    1.1921873   -5.1522883    277.62553  0.054564766  0.056472664            2 
  425000    1.1856981   -5.1344665    280.03852  0.054909514  0.056457232            1 
  426000    1.1573578   -5.1335627     279.7603  0.054726194  0.056440767            3 
  427000    1.1989869   -5.1640597     279.8552   0.05461655  0.056423536            8 
  428000    1.2012789   -5.1381501    280.89092  0.054690599  0.056407558            2 
  429000     1.182247   -5.1264344    283.50847  0.055071574  0.056390991            3 
  430000    1.2040162   -5.1046454     282.3333  0.054715756  0.056375248            2 
  431000    1.1561655   -5.1521578    281.66515  0.054459618  0.056357657            2 
  432000    1.1946991   -5.1756259    282.89653  0.054571089  0.056341352            5 
  433000    1.1924563   -5.1614158    284.30506  0.054716139  0.056324833            2 
  434000    1.2203589   -5.1700773    283.80069  0.054493221  0.056309347            2 
  435000     1.195954   -5.1554924    286.16856  0.054821563  0.056293322            2 
  436000    1.1858115   -5.1375534    286.35819   0.05473207  0.056278449            3 
  437000     1.163299   -5.1682721    284.78885  0.054307561  0.056262487            3 
  438000    1.1457914   -5.1102371    287.48001  0.054695588  0.056246404            2 
  439000    1.1637503   -5.1566175    287.48793    0.0545725  0.056230005            1 
  440000      1.18653   -5.1331215     287.8898  0.054524584  0.056212647            1 
  441000     1.194454   -5.1449737    287.44278  0.054316474  0.056195061            2 
  442000    1.1415668   -5.1591685    287.73855  0.054249349  0.056176263            1 
  443000    1.1851269   -5.1681779    287.86778  0.054151199  0.056155823            3 
  444000    1.1763107    -5.146349    289.19992  0.054279264  0.056135068            3 
  445000    1.1689308   -5.1464723    289.81969   0.05427335  0.056115604            2 
  446000    1.1942834   -5.1564466    290.39293  0.054258768    0.0560973            9 
  447000    1.1760992   -5.1585237    291.08838  0.054267035  0.056078466            2 
  448000    1.1679599   -5.1185002    292.02167  0.054319507  0.056058408            3 
  449000    1.1591102   -5.1465175    292.63684  0.054312703  0.056040212            3 
  450000    1.1841153   -5.1639468     293.8184  0.054410814  0.056022125            2 
  451000    1.1912583   -5.1565676     294.1757  0.054356189  0.056004038            2 
  452000    1.1904363   -5.1903287    294.24519  0.054248744  0.055986954            2 
  453000    1.1793662   -5.1580407    294.81716  0.054234209  0.055969534            5 
  454000    1.1605872    -5.157292     295.6252  0.054263069  0.055951366            3 
  455000    1.1611257   -5.1379875    296.66126  0.054333564  0.055934354            1 
  456000    1.1760468   -5.1443234    296.34784  0.054157134  0.055916391            3 
  457000    1.1674878   -5.1797644    296.54284  0.054074186  0.055897264            6 
  458000    1.1704152   -5.2204283    296.78054   0.05399937   0.05587894            2 
  459000    1.1926222   -5.1619155    298.76023  0.054241145  0.055859362            2 
  460000    1.1636466   -5.1653543    298.43397  0.054064126   0.05584113            4 
  461000    1.1779246   -5.1699385    299.81617  0.054196705  0.055823748            4 
  462000    1.1679383   -5.1591379    300.42165   0.05418861  0.055805857            1 
  463000    1.1651965   -5.1572673    301.42727  0.054252568   0.05578793            6 
  464000    1.1820912   -5.1816739    300.68542  0.054002411  0.055771112            3 
  465000    1.1650855   -5.1701694    301.76532  0.054079807  0.055753081            3 
  466000    1.1892006   -5.1561862     302.4848  0.054092419  0.055735466            4 
  467000    1.1805445   -5.1544125    304.45432  0.054328037  0.055719046            3 
  468000    1.1966332   -5.1729353    304.11459  0.054151459  0.055703274            2 
  469000    1.1711868   -5.1428225    304.60779   0.05412363  0.055686622            4 
  470000     1.179596   -5.1613069    305.35891  0.054141651   0.05567029            2 
  471000    1.1597292    -5.169786     305.6938  0.054085951  0.055653533            2 
  472000    1.1792827   -5.1720733    306.09255  0.054041763  0.055635294            2 
  473000    1.2059047    -5.170542     306.3155  0.053966789   0.05561831            3 
  474000    1.1739148   -5.1199215    308.36605  0.054213441   0.05560063            2 
  475000    1.1536893   -5.1570186    307.01999  0.053863156  0.055582971            2 
  476000    1.1935855    -5.154404    308.46228    0.0540025  0.055565373            1 
  477000    1.1685317   -5.1697597    308.37569  0.053874159    0.0555486            2 
  478000    1.1932386   -5.1236562    309.67632  0.053988201  0.055531666            4 
  479000    1.1580401   -5.1626188    310.65901  0.054046453  0.055516051            2 
  480000    1.2088073   -5.1578324    311.26335  0.054038776  0.055499056            3 
  481000    1.1651265   -5.1591539     309.9594   0.05370052  0.055480473            2 
  482000    1.1941624   -5.1691881    311.24855  0.053811991  0.055461843            3 
  483000    1.1618957   -5.1565616    312.59241  0.053932438  0.055443756            7 
  484000    1.1707781   -5.1902407    311.63298  0.053655815  0.055425987            3 
  485000    1.1750498   -5.1985705    312.99679  0.053779518  0.055407339            3 
  486000    1.2051429   -5.1403251    313.03195  0.053674889  0.055388513            2 
  487000    1.1778774   -5.1524165    314.92163  0.053888028  0.055369157            2 
  488000    1.1738311   -5.1741723      313.694  0.053567965  0.055350883            2 
  489000    1.1758406   -5.1267855    316.38477  0.053916968  0.055332862            2 
  490000    1.1713557   -5.1698794    316.59839  0.053843264  0.055315178            2 
  491000    1.1675293   -5.1350756    317.10049   0.05381882  0.055297516            2 
  492000    1.1816394   -5.1508391    317.04767  0.053700486  0.055279695            3 
  493000    1.1819191   -5.1352043    318.84524  0.053895408  0.055261547            3 
  494000    1.1623252   -5.1850784    318.47538  0.053723916  0.055244219            2 
  495000    1.1812059   -5.1389993     319.7527  0.053830421  0.055226729            2 
  496000    1.2059431   -5.1802291    320.17874  0.053793471  0.055210678            2 
  497000    1.1707426   -5.1011339    321.90187  0.053974157  0.055195442            1 
  498000     1.172645   -5.1404457    323.71234  0.054168732   0.05518036            4 
  499000    1.1838028   -5.1731472    323.44571   0.05401565  0.055166891            2 
  500000    1.1638907   -5.1559969    323.56694  0.053927824  0.055151438            1 
  501000    1.1408366   -5.1867822    322.69083  0.053674455    0.0551356            4 
  502000    1.1590162   -5.1806607    324.71075  0.053902847  0.055120385            2 
  503000    1.1506419   -5.1613198    325.74818  0.053967557  0.055105312            2 
  504000    1.1536367   -5.1711484    325.83098   0.05387417  0.055091212            2 
  505000    1.1541729   -5.1603963    325.95546  0.053788029  0.055076386            2 
  506000    1.1719824   -5.1718296    327.02425  0.053857749  0.055061917            3 
  507000    1.1740475   -5.1962654    327.32708  0.053801295  0.055046783            3 
  508000    1.1274939   -5.1738771    327.28126   0.05368787  0.055031393            2 
  509000    1.1867237   -5.1584535    328.09304  0.053715299  0.055017324            3 
  510000     1.181605   -5.1642242    328.63512  0.053698549  0.055003018            2 
  511000    1.2083716   -5.1540701    330.82384  0.053950398  0.054989058            1 
  512000    1.1772462   -5.1901208    329.50588  0.053630515  0.054975485            4 
  513000    1.1525307   -5.1813116    330.80361  0.053736778   0.05496103            4 
  514000    1.2231875   -5.1639076     332.2794  0.053871498  0.054946468            5 
  515000    1.1808082   -5.2098686    332.05759  0.053731002  0.054932775            2 
  516000    1.1637644   -5.1853994    332.13113  0.053638748  0.054918938            5 
  517000    1.2162452   -5.1345009     334.8258  0.053969342   0.05490498            4 
  518000    1.1646315   -5.1766119    335.23323    0.0539307  0.054892042            2 
  519000    1.1474066    -5.201702    333.68056  0.053577482  0.054877934            2 
  520000    1.1579599   -5.2211198    335.14308  0.053708827   0.05486443            2 
  521000    1.1909956   -5.1536062    336.86084  0.053880492  0.054851677            3 
  522000    1.1498464   -5.1665104    335.94522  0.053631101  0.054838978            2 
  523000    1.1484938   -5.1492384     337.2303  0.053733317   0.05482593            1 
  524000     1.146993   -5.1964814    337.41397  0.053659983  0.054811843            1 
  525000    1.1586879   -5.1595742    339.46595  0.053883484  0.054798747            2 
  526000    1.1613512   -5.1964623    338.70625  0.053660686  0.054786675            3 
  527000    1.1718227   -5.1789036    339.22031   0.05364015  0.054773523            2 
  528000    1.1549052   -5.1553819     340.0443  0.053668607  0.054761148            2 
  529000    1.1484109   -5.1720769    341.29524  0.053764216  0.054749792            2 
  530000    1.1475607   -5.1652202    341.85452   0.05375071  0.054738731            2 
  531000    1.1555163   -5.1579345    343.11463  0.053847242  0.054728113            4 
  532000    1.1726418   -5.1658391    344.36469  0.053941838  0.054717267            3 
  533000    1.1407356   -5.1849284    344.16506  0.053809422  0.054706862            2 
  534000    1.1878844   -5.1649556     346.4543  0.054065901  0.054696959            3 
  535000    1.1493906   -5.1997926    346.13237  0.053914699   0.05468747            2 
  536000     1.154435   -5.1936321    346.55013  0.053879063  0.054677324            1 
  537000     1.200398    -5.180492    346.21666  0.053726981  0.054667284            2 
  538000     1.140585   -5.1812458    347.33643  0.053800563  0.054656414            3 
  539000    1.1745733   -5.2007643    348.27755  0.053846251  0.054646607            1 
  540000    1.1721636   -5.1919008     348.9953    0.0538573  0.054636449            4 
  541000    1.1741381   -5.1421865    351.34593  0.054119828  0.054626367            2 
  542000    1.1641042   -5.1732008    350.20164   0.05384404  0.054617121            3 
  543000    1.1653585   -5.1936415    351.02882  0.053871826  0.054608791            2 
  544000    1.1746545   -5.2027327    351.18426  0.053796608   0.05459916            2 
  545000     1.167408      -5.1754    352.57601  0.053910705  0.054589139            4 
  546000    1.1747998   -5.2149908     352.0994  0.053739225  0.054579175            5 
  547000    1.1669687   -5.1886055    352.86794  0.053758066   0.05456948            2 
  548000    1.1337723   -5.1764984    353.35628  0.053734227   0.05456026            2 
  549000    1.1626659   -5.1835823    356.29966  0.054083131  0.054551863            2 
  550000    1.1520058   -5.2004298    354.79782  0.053757245   0.05454285            6 
  551000    1.1951608   -5.1647881    355.85517  0.053819596  0.054533015            2 
  552000    1.1612423   -5.1683754    356.21915  0.053777046   0.05452316            4 
  553000    1.1766125   -5.2387803    356.26937  0.053687368  0.054513396            1 
  554000    1.1542827    -5.225724    356.91878  0.053688144  0.054502392            3 
  555000    1.1486163   -5.2030699    357.42116  0.053666841  0.054491371            3 
  556000    1.1748772    -5.214598    359.51305   0.05388385  0.054481517            4 
  557000    1.1722119   -5.2112341    358.23282  0.053595575  0.054471707            1 
  558000    1.1567162   -5.1898633    358.74833  0.053576513  0.054461753            3 
  559000    1.1709135   -5.2234173    359.66951  0.053617996  0.054450841            2 
  560000    1.1678261   -5.1860443    360.96837  0.053715531  0.054439894            2 
  561000    1.1754283   -5.1834789    362.68907  0.053875382  0.054430261            2 
  562000    1.1424374   -5.1674381    364.01258  0.053975767   0.05442115            2 
  563000    1.1750433   -5.1878461    361.38746  0.053491335  0.054412373            1 
  564000    1.1626506   -5.1820446    364.71678  0.053888413  0.054402696            3 
  565000    1.1808393   -5.1784247     364.0309  0.053691873  0.054392862            2 
  566000    1.1794662   -5.1831095    365.87266  0.053868177  0.054381809            3 
  567000    1.1463541   -5.1865008    364.08422  0.053510321  0.054370876            2 
  568000    1.1416178     -5.18903    365.26274  0.053589017   0.05435966            5 
  569000    1.1846881   -5.1975376    366.07771  0.053614193   0.05434926            5 
  570000    1.1461809   -5.1849593     366.3122  0.053554415  0.054338952            4 
  571000    1.1552903   -5.1829894    367.21432  0.053592282  0.054328408            3 
  572000    1.1610327    -5.167839    366.56455  0.053403926  0.054318363            2 
  573000    1.1284357   -5.1756015    368.59378  0.053605844  0.054308094            3 
  574000    1.1727322   -5.2081107    369.37584  0.053625994  0.054297679            1 
  575000    1.1567122   -5.2044708    371.95534  0.053906571  0.054288614            4 
  576000     1.172617   -5.2362391     369.2467  0.053421109  0.054278546            2 
  577000    1.1489498   -5.2120309    369.64057  0.053385409  0.054268175            5 
  578000    1.1491677    -5.179104    371.81619  0.053606717  0.054257707            1 
  579000    1.1551358   -5.1497837    371.98547  0.053538495   0.05424676            3 
  580000    1.1667962   -5.2249725    370.82654  0.053279676  0.054235355            3 
  581000    1.1760736   -5.1984358    374.84087  0.053763751  0.054224056            3 
  582000    1.1411556   -5.1807662      373.818  0.053524913  0.054213613            3 
  583000    1.1647124   -5.1724561    373.48867  0.053386031  0.054202161            1 
  584000    1.1623867   -5.2123085    373.28756  0.053265919  0.054191044            3 
  585000    1.1456893   -5.2115629    376.57813  0.053643608  0.054180814            3 
  586000    1.1613894   -5.2066047    376.31756  0.053515011  0.054170727            2 
  587000    1.1630307   -5.1994826    378.41098  0.053721036  0.054161506            2 
  588000    1.1508185   -5.1894918    375.78052  0.053256877  0.054151716            2 
  589000    1.1773481   -5.2148749    377.06667  0.053348426  0.054140634            1 
  590000    1.1439794   -5.2372378    377.26266  0.053285686     0.054129            2 
  591000    1.1775439   -5.1889977    379.75284   0.05354665  0.054118037            1 
  592000    1.1424218   -5.2043181    379.70326   0.05344922  0.054108983            1 
  593000    1.1812685   -5.2129647    381.39074  0.053596225  0.054099913            3 
  594000    1.1511801   -5.2140192    381.94717  0.053584059  0.054090326            3 
  595000    1.1517282   -5.1848128    382.47076  0.053567333  0.054081664            1 
  596000     1.150435   -5.1622581    384.51883  0.053763818  0.054072888            3 
  597000    1.1415226   -5.2526163    381.55589  0.053260175  0.054063511            2 
  598000    1.1820963   -5.2125209    383.27527  0.053410712  0.054053963            4 
  599000     1.157786   -5.1773297    384.65934  0.053514099   0.05404467            2 
  600000    1.1288732   -5.1689994    384.42217  0.053391968  0.054034523            5 
  601000    1.1621688   -5.1935378     385.3438  0.053430921  0.054024529            4 
  602000    1.1459156   -5.1800869    386.10543  0.053447596  0.054014917            3 
  603000    1.1763729   -5.2288788    385.18208  0.053231355  0.054004156            3 
  604000    1.1395981   -5.1908974    386.71348  0.053354509  0.053993458            2 
  605000     1.153317   -5.2143878    385.72929  0.053130757    0.0539815            3 
  606000    1.1538908   -5.1908862    387.38795   0.05327117  0.053970226            3 
  607000     1.163246    -5.186482    387.12427  0.053147209  0.053959911            2 
  608000    1.1661079   -5.2288566    387.91269  0.053167857  0.053948426            1 
  609000    1.1636665    -5.197787    389.90589  0.053353297  0.053937784            4 
  610000    1.1301264   -5.2253909    388.07552  0.053015781  0.053927484            1 
  611000    1.1722199    -5.208295    391.47754  0.053393008  0.053917706            4 
  612000    1.1421134   -5.2220263    391.15746  0.053262181  0.053907692            7 
  613000    1.1595299   -5.2132979    392.31786  0.053333043  0.053897794            2 
  614000     1.171986   -5.2526789    392.84667  0.053317951  0.053887939            3 
  615000    1.1620746    -5.208541    391.46966  0.053044669  0.053877963            3 
  616000    1.1460474   -5.1564627    394.80061  0.053409174    0.0538692            2 
  617000    1.1539261   -5.1816036    395.40469  0.053404198  0.053859489            2 
  618000    1.1677974   -5.1822039    396.86942  0.053515294  0.053851573            2 
  619000    1.1440413   -5.1993536    396.79777  0.053419194  0.053842975            3 
  620000     1.138853   -5.2048215    397.73292  0.053458726    0.0538352            1 
  621000    1.1732992   -5.2421748    396.69798   0.05323376  0.053827108            1 
  622000    1.1821562   -5.2169533    396.00516  0.053055354  0.053817544            2 
  623000    1.1563631   -5.1993818    397.85391  0.053217484  0.053807897            3 
  624000    1.1524645    -5.197561     397.9625  0.053146701  0.053798382            2 
  625000    1.1313393    -5.207665    397.91782   0.05305571  0.053787565            5 
  626000    1.1435259   -5.1908594    398.16334   0.05300364  0.053776474            2 
  627000    1.1426526   -5.2058058    399.32246   0.05307316  0.053765309            3 
  628000    1.1484921   -5.2031508     398.8126  0.052920992  0.053753281            7 
  629000    1.1503174   -5.2231607    399.39527  0.052914053  0.053740641            5 
  630000    1.1241306   -5.2522672    398.04747  0.052651781  0.053728534            5 
  631000    1.1589157   -5.1840812    401.02909  0.052962109   0.05371667            4 
  632000    1.1517771   -5.2259849    399.71413  0.052704922  0.053705434            4 
  633000    1.1652661   -5.1921375    403.39388  0.053106092  0.053694744            3 
  634000    1.1572077   -5.1798765    403.06778  0.052979466  0.053684363            5 
  635000    1.1592798   -5.2164346    403.62349  0.052968962   0.05367303            2 
  636000    1.1235568   -5.2413553    402.70071  0.052764768  0.053661256            5 
  637000    1.1328455   -5.2377205    403.98838   0.05285039  0.053649933            6 
  638000    1.1473007   -5.1980472    403.95815  0.052763604  0.053639201            2 
  639000    1.1685722   -5.2209565     405.7182  0.052910563  0.053628458            3 
  640000    1.1660272   -5.2302158     405.4031  0.052786861  0.053617579            3 
  641000    1.1603924   -5.2127411    406.14893  0.052801473  0.053605786            1 
  642000     1.139156   -5.2150496    407.11128  0.052844144  0.053594507            2 
  643000     1.164594   -5.1744168    407.64288  0.052830855  0.053583448            5 
  644000    1.1623688   -5.2331907    408.61529   0.05287465  0.053572426            3 
  645000     1.152607   -5.2048803     408.4677  0.052773605  0.053561012            1 
  646000    1.1438083   -5.2385402    408.00439  0.052632146  0.053549431            4 
  647000    1.1561972   -5.2007218    410.71433  0.052899836  0.053538457            3 
  648000    1.1554132   -5.2233991    408.28054  0.052505214  0.053525861            2 
  649000    1.1364169   -5.2300349    410.73331  0.052739254  0.053514842            2 
  650000    1.1479255    -5.186427      410.725  0.052657051  0.053502782            2 
  651000    1.1277141   -5.2157192    410.96929  0.052607436  0.053489994            3 
  652000    1.1243256   -5.2095537    410.56238  0.052474741  0.053477834            4 
  653000    1.1473638   -5.2190019    414.70946  0.052923616  0.053466869            3 
  654000    1.1457617   -5.2313995    413.06109  0.052632656  0.053455661            7 
  655000    1.1342991    -5.199526     416.1263  0.052942277  0.053443246            3 
  656000    1.1431185   -5.2603524     412.7522  0.052432952   0.05343189            2 
  657000    1.1343062   -5.2359611    414.69873  0.052600041  0.053420278            3 
  658000    1.1691562   -5.1879173    416.49808  0.052747984  0.053408543            2 
  659000     1.136534   -5.2320614    415.65393  0.052561195  0.053397216            4 
  660000    1.1483198   -5.2382859    415.61009  0.052476021  0.053385562            3 
  661000    1.1420589   -5.2200846    417.73954  0.052665096   0.05337361            3 
  662000    1.1488036   -5.2127025    418.36656  0.052664471  0.053362166            2 
  663000    1.1335063   -5.2255583    416.72873  0.052379177  0.053351318            2 
  664000    1.1505513   -5.1715055    419.06458  0.052593446  0.053338807            1 
  665000    1.1755155    -5.206459    418.57124  0.052452537  0.053326943            3 
  666000    1.1217413   -5.1932243    420.45637  0.052609656  0.053314965            3 
  667000    1.1355205    -5.210409    420.03093  0.052477627   0.05330262            4 
  668000    1.1590415    -5.196743     419.3799  0.052317851  0.053290317            5 
  669000    1.1194059   -5.2414715    419.93672  0.052309008  0.053277637            5 
  670000    1.1398009   -5.2307712    420.70389  0.052326354  0.053263836            4 
  671000    1.1131607   -5.1958033     421.9152  0.052398808   0.05325011            2 
  672000    1.1199502   -5.2518194    420.97541  0.052204291  0.053236235            1 
  673000    1.1318586   -5.1953368    422.71269  0.052341839  0.053223451            2 
  674000    1.1659363   -5.2220532    424.85316  0.052528827   0.05321116            1 
  675000    1.1315699   -5.1657583     425.8678  0.052576271  0.053199336            3 
  676000    1.1463237   -5.2242772    423.76083  0.052238761   0.05318742            2 
  677000    1.1304169   -5.2370672    424.00753  0.052191965  0.053174944            4 
  678000    1.1433826   -5.2412473    426.03013  0.052363586  0.053162416            3 
  679000    1.1749719   -5.1991437    429.17403  0.052672315  0.053150072            2 
  680000    1.1556753   -5.1941439    426.44143  0.052259979  0.053138048            3 
  681000    1.1152775   -5.2328094    428.15663  0.052393127  0.053125332            1 
  682000     1.126216    -5.223666    428.23275  0.052325605  0.053112865            3 
  683000    1.1459808   -5.2234862    426.66104  0.052057227  0.053099504            1 
  684000    1.1421004   -5.2106048    428.12678  0.052159695  0.053086173            6 
  685000    1.1437176   -5.1768868    431.25811   0.05246449  0.053073906            2 
  686000    1.1629864   -5.2379191    428.11776   0.05200653  0.053061049            4 
  687000    1.1513734   -5.2270553    430.33819  0.052200169   0.05304676            3 
  688000    1.1564228   -5.2157395    430.18135  0.052105299  0.053033897            3 
  689000    1.1387739   -5.2313961    430.18862  0.052030554  0.053020908            5 
  690000    1.1396901   -5.2531292    430.33994  0.051973422  0.053007707            3 
  691000    1.1339306   -5.2405331    431.97029  0.052094825  0.052993691            5 
  692000    1.1436841   -5.2264929    430.60849   0.05185555  0.052979611            4 
  693000    1.1555364   -5.2691722    433.39837  0.052116206  0.052966111            3 
  694000    1.1637266   -5.2228273    432.50991  0.051934428  0.052952764            2 
  695000    1.1260662   -5.2499799    432.82241  0.051897171  0.052938721            2 
  696000    1.1468675   -5.2095858    434.05205  0.051969834  0.052924075            4 
  697000    1.1476227   -5.2569809    433.70678  0.051853991  0.052910187            2 
  698000    1.1430608   -5.2192686    435.78645   0.05202799  0.052896364            2 
  699000     1.090052   -5.2541472    435.56429  0.051927074  0.052881739            2 
  700000    1.1378689   -5.2403191    436.40032  0.051952418  0.052867138            2 
  701000     1.145265   -5.2637344     433.7087  0.051558334  0.052852738            1 
  702000    1.1197131   -5.2691185    436.55353  0.051822593  0.052838286            6 
  703000    1.1431659   -5.2905569    436.23376  0.051710972  0.052823598            2 
  704000    1.1601304    -5.262263     437.3237  0.051766536  0.052808919            3 
  705000    1.1196308   -5.2615523    437.13486  0.051670787  0.052794331            3 
  706000    1.1483527   -5.2011926    439.47273  0.051873552  0.052779546            3 
  707000    1.1796052   -5.2290009    438.61802  0.051699437  0.052764846            2 
  708000    1.1683478    -5.205377    440.48719   0.05184642  0.052750445            2 
  709000    1.1253697   -5.2208224    440.87234  0.051818564  0.052736353            3 
  710000    1.1188423   -5.2434296    438.93838  0.051518589  0.052721883            1 
  711000    1.1170411   -5.2198344    442.02417  0.051807803  0.052706818            4 
  712000    1.1661625   -5.2166519    442.98441  0.051847426  0.052692109            2 
  713000    1.1339538   -5.2107585    443.02957  0.051779987  0.052677855            1 
  714000    1.1246927   -5.2110245    442.37133  0.051630641  0.052662845            3 
  715000    1.1426621   -5.2489863    441.66677  0.051476314  0.052648456            2 
  716000    1.1162804   -5.2655371    442.76742  0.051532521  0.052633387            5 
  717000     1.132957   -5.2616182    444.45914  0.051657268  0.052618978            3 
  718000    1.1101851   -5.2069433    444.97261  0.051644917  0.052605013            2 
  719000    1.1485364   -5.2318523    445.73134  0.051661027  0.052590796            6 
  720000    1.1656364   -5.2070308    444.33441  0.051427594  0.052576664            3 
  721000    1.1439371   -5.2335997    446.57204  0.051614891  0.052562169            2 
  722000    1.1235553   -5.2415979    447.43943  0.051643517  0.052547917            4 
  723000    1.1321877   -5.2391275    446.73147  0.051490487  0.052533808            3 
  724000    1.1382824   -5.2618861    446.48376  0.051390856   0.05252001            3 
  725000     1.146286   -5.2317676    447.56483  0.051444233  0.052505991            3 
  726000    1.1401226   -5.2240323    449.10115  0.051549719  0.052492456            5 
  727000    1.1242498   -5.2269064     449.8733   0.05156732  0.052479419            1 
  728000    1.1285637    -5.213267    451.66771   0.05170189  0.052466535            1 
  729000    1.1601024   -5.2365379    451.49104  0.051610773  0.052453182            2 
  730000    1.1252236   -5.2265333    451.11763  0.051497447  0.052440247            2 
  731000    1.1597299   -5.2490976    452.67064   0.05160404  0.052426947            3 
  732000      1.14259   -5.2059676     454.7448  0.051769672    0.0524139            2 
  733000    1.1324532   -5.2243539    452.93623  0.051493432  0.052401021            5 
  734000    1.1203554   -5.2537233    455.26321  0.051687467  0.052388105            2 
  735000    1.1309625   -5.2319212    455.30713  0.051622124  0.052375762            2 
  736000    1.1220412   -5.2511607    455.18761  0.051538452  0.052362887            3 
  737000    1.1221586    -5.216429    455.74317   0.05153134  0.052349497            1 
  738000    1.1222353   -5.2477516    456.91104  0.051593388  0.052336351            2 
  739000    1.1402111   -5.2975057    456.11755  0.051434094  0.052322488            3 
  740000    1.1357604   -5.2432407    459.29213  0.051722087  0.052308973            4 
  741000    1.1400774   -5.2549174    457.49068  0.051449694  0.052295539            5 
  742000    1.1322393   -5.2454125    457.11652  0.051338333  0.052281711            3 
  743000     1.123898   -5.2354497    458.66335  0.051442726  0.052267849            2 
  744000    1.1330035   -5.2375392    457.86821  0.051284521  0.052253776            2 
  745000     1.135397   -5.2699533    457.74775   0.05120221  0.052239987            3 
  746000    1.1107246   -5.2103933    461.23676   0.05152332  0.052226524            3 
  747000    1.1096659   -5.2789946    459.64438  0.051276705  0.052212608            1 
  748000    1.1530546   -5.2551276     461.2875   0.05139121   0.05219834            3 
  749000    1.1366663   -5.2857499    460.54573  0.051240068  0.052184426            2 
  750000     1.144414   -5.2058923    463.79912  0.051533236  0.052170648            5 
  751000    1.1615131   -5.2584754    460.64036   0.05111411  0.052156769            3 
  752000    1.1278362   -5.2415694    462.75499  0.051280473  0.052142935            3 
  753000    1.1254709   -5.2475398    463.20775  0.051262478  0.052129513            2 
  754000    1.1352062   -5.2229312    465.03149  0.051396053  0.052115777            3 
  755000    1.1060312   -5.2285307    465.19312  0.051345819  0.052102136            2 
  756000    1.1160791   -5.2430118    467.12538  0.051490893  0.052088896            3 
  757000    1.1382741   -5.2478791    465.55885  0.051250423   0.05207548            1 
  758000    1.1384691   -5.2861485    466.21618  0.051255077  0.052062051            4 
  759000    1.1554431   -5.2393329     468.5065  0.051439009  0.052049176            1 
  760000    1.1309803   -5.2420275    470.79769  0.051622553  0.052036935            2 
  761000     1.121287   -5.2542801    468.80982  0.051337037  0.052024391            4 
  762000    1.1304326   -5.2688499    468.93654  0.051283524  0.052011319            2 
  763000    1.1378874   -5.2439967    469.45301  0.051272719  0.051999217            2 
  764000      1.13191   -5.2733636     469.6577  0.051227934  0.051986958            3 
  765000    1.1099784   -5.2598478    470.41822  0.051243815  0.051974086            2 
  766000    1.1421834   -5.2580663    472.35522  0.051387643  0.051961438            4 
  767000      1.15212   -5.2517477    472.23806  0.051307916  0.051949582            2 
  768000    1.1197794    -5.283315      471.877  0.051201931  0.051937561            2 
  769000    1.1350123   -5.2848288    474.06708  0.051372679  0.051925451            5 
  770000    1.1277187   -5.3063378    473.27492  0.051220229  0.051913121            2 
  771000    1.1199001    -5.235919     474.2437  0.051258507  0.051901305            2 
  772000    1.0986221   -5.2562745    477.62031  0.051556596  0.051889791            4 
  773000    1.1198605   -5.2877531    474.85123  0.051191379  0.051878237            4 
  774000    1.1213199   -5.2725087    475.37232  0.051181344  0.051866789            2 
  775000     1.107829   -5.2345444    477.37129  0.051330246  0.051855346            2 
  776000    1.1181171   -5.2117815    477.80437  0.051310606  0.051843822            2 
  777000    1.1137491   -5.2394809    479.20485  0.051394772   0.05183247            3 
  778000    1.1381618   -5.2781057     478.4358  0.051246336  0.051821068            3 
  779000    1.1472799   -5.2578008    478.67345  0.051205975  0.051809963            2 
  780000    1.1350698   -5.2393527    479.43801  0.051222009  0.051798387            2 
  781000     1.119564   -5.2663437    480.13371  0.051230656  0.051786718            5 
  782000    1.1511524   -5.2877843    479.89085  0.051139263  0.051774274            3 
  783000    1.1243811   -5.2415816    481.95886  0.051294046  0.051761708            2 
  784000     1.122554   -5.2585985     480.5383  0.051077625   0.05174998            2 
  785000    1.1400349   -5.2759246    481.26458  0.051089659  0.051737366            4 
  786000    1.1279362   -5.2380464    482.53933   0.05115981  0.051725722            4 
  787000    1.1170641   -5.2749209    482.11542  0.051049917  0.051713514            6 
  788000    1.1405382   -5.2617791     484.2887  0.051214964  0.051701732            4 
  789000    1.1186905   -5.3122502    485.55925  0.051284246  0.051690421            3 
  790000    1.1368728    -5.285812    483.90447  0.051044776  0.051678646            2 
  791000    1.1297521    -5.261613    486.34126  0.051236963  0.051667609            4 
  792000    1.1354044     -5.25942    486.95683   0.05123704  0.051656729            4 
  793000    1.0938853   -5.2931784    487.21621  0.051199686  0.051645827            1 
  794000    1.1081258   -5.2346592    487.24706   0.05113844  0.051635439            5 
  795000    1.1352353   -5.2706384    487.25707  0.051075164  0.051624226            7 
  796000    1.1258404   -5.2622274    489.10939  0.051204919  0.051613387            3 
  797000    1.1372515   -5.2845761    487.17457   0.05093837  0.051602082            2 
  798000    1.1181346   -5.2797045    489.90644   0.05115982  0.051590116            2 
  799000    1.1350997   -5.2680723    489.22861  0.051025095  0.051579078            3 
  800000    1.1602856   -5.2629235    491.27891  0.051174886  0.051568014            3 
  801000    1.1086456   -5.2878201      491.227  0.051105597  0.051557176            8 
  802000    1.1089473   -5.2793824    491.13187   0.05103199  0.051546327            3 
  803000    1.1373176   -5.2845855    489.94472  0.050845239   0.05153538            4 
  804000    1.1180919   -5.2897078    490.56547  0.050846339  0.051524068            2 
  805000    1.1171241   -5.2848119    492.59731  0.050993511  0.051512367            3 
  806000     1.130064   -5.2937899    491.76227  0.050843908   0.05150081            5 
  807000    1.1362332   -5.2150508    492.76615  0.050884567  0.051488903            2 
  808000    1.1303617   -5.2501656    492.47068  0.050791118  0.051477293            3 
  809000    1.1361101   -5.2839831    494.71696   0.05095972  0.051465468            3 
  810000    1.1017352   -5.2903436    494.10107  0.050833444  0.051453137            1 
  811000    1.1245149   -5.2663451    497.45295  0.051115181  0.051440867            5 
  812000    1.1309571   -5.2789169    495.22246  0.050823324  0.051429078            4 
  813000    1.1079488   -5.2751652    496.06927  0.050847608  0.051416452            7 
  814000    1.0947231   -5.2526312    497.88372  0.050970896  0.051404413            3 
  815000    1.1097522    -5.291364    495.71513  0.050686618  0.051393126            4 
  816000    1.1438122   -5.2367647    499.25093  0.050985593  0.051381653            3 
  817000    1.1147868   -5.2653403    497.33613  0.050727879  0.051370199            2 
  818000    1.1262161   -5.2490213    500.24689  0.050962397  0.051358961            2 
  819000    1.1342349   -5.2602319    498.30976  0.050703069  0.051347576            2 
  820000    1.1262995   -5.2627658    502.35036  0.051051866  0.051336603            2 
  821000    1.1114316   -5.2733567    500.21568  0.050773008   0.05132556            2 
  822000     1.110742   -5.2602404    502.74591  0.050967752  0.051314291            2 
  823000    1.1240254   -5.2862001    505.03889     0.051138  0.051303687            2 
  824000     1.134965   -5.2859916    505.42053  0.051114536  0.051293283            2 
  825000    1.1082326   -5.2638672    505.71386  0.051082208  0.051283042            3 
  826000    1.1432651   -5.2594437    504.93671   0.05094196  0.051273023            3 
  827000     1.127363   -5.2738131    503.97674  0.050783629  0.051262239            2 
  828000    1.1360771   -5.2767625    506.32306   0.05095844   0.05125197            4 
  829000    1.1158362   -5.3027081    502.44921   0.05050756  0.051241202            3 
  830000    1.1251779   -5.2361834    506.25258  0.050828572  0.051230892            2 
  831000    1.1270528   -5.2778368    507.01566  0.050843929  0.051220209            2 
  832000    1.1434581   -5.2852259    504.82589  0.050563491  0.051209311            2 
  833000    1.1047285   -5.2542196    507.76663  0.050796982  0.051198457            2 
  834000    1.1094874   -5.2950562    506.32375  0.050591902  0.051186895            3 
  835000     1.110695   -5.2753888    508.42396  0.050740914  0.051175054            4 
  836000    1.1162489   -5.2580318    510.31027  0.050868249  0.051164369            5 
  837000    1.1348529   -5.2595218    508.99691  0.050676714  0.051153243            3 
  838000    1.1019696   -5.2584223     511.6197  0.050877059  0.051143008            2 
  839000    1.1158215   -5.2505153    509.90219  0.050645828  0.051132917            3 
  840000    1.0869063    -5.276086    512.40634  0.050833962  0.051121654            1 
  841000     1.146467   -5.2739315    511.12924  0.050646972  0.051110775            2 
  842000     1.118548   -5.2821491    512.37389  0.050710005  0.051099191            3 
  843000    1.1333297   -5.2581624    513.87203  0.050797947  0.051087793            4 
  844000    1.1440164   -5.2367522    515.27877  0.050876656  0.051077397            2 
  845000     1.113642   -5.2680803    512.65726  0.050557915  0.051067263            3 
  846000    1.1105366   -5.2948477    514.79684  0.050708908  0.051056635            3 
  847000    1.1154624   -5.2654194     513.3277  0.050504496  0.051046925            2 
  848000    1.1090575   -5.2722864     515.8155  0.050689416  0.051036539            3 
  849000    1.1209933   -5.2954827    515.79782  0.050627976  0.051026249            2 
  850000    1.1046584   -5.2762797    517.45711  0.050731089  0.051016282            2 
  851000    1.1265597   -5.2815899    518.92428  0.050815147  0.051006133            2 
  852000    1.1226942   -5.2759684    518.93422  0.050756477  0.050996322            2 
  853000    1.1055933   -5.2668218    519.91788  0.050793072   0.05098623            3 
  854000    1.1296719   -5.2790338    517.46723   0.05049446  0.050975677            5 
  855000    1.1224944   -5.2569749    519.57413  0.050640753  0.050964685            3 
  856000    1.1052602   -5.3027955    519.46757   0.05057122  0.050953763            3 
  857000    1.1075946   -5.3196891    517.37784  0.050309008  0.050942623            5 
  858000    1.1188034    -5.304287    519.25097  0.050432301   0.05093113            2 
  859000     1.104994   -5.2636293    520.86148  0.050529829  0.050920061            2 
  860000    1.1111379   -5.2432249    523.27608  0.050705046  0.050909422            2 
  861000    1.0937612   -5.3102851    520.56657  0.050383912  0.050898749            2 
  862000    1.1287597   -5.2998209    522.84917   0.05054613  0.050888069            6 
  863000    1.1136102   -5.3039463    523.18387  0.050519879  0.050877698            3 
  864000    1.1374388   -5.2964565    523.83662  0.050524365  0.050866811            3 
  865000    1.1056982    -5.294091    524.79124  0.050557923  0.050856083            2 
  866000    1.1022992   -5.2807421    523.47562  0.050372943  0.050845276            4 
  867000    1.1327961   -5.3015942    525.17844  0.050478512  0.050834292            3 
  868000    1.1496363   -5.3090885    525.34343  0.050436198  0.050823775            1 
  869000    1.1090639   -5.2914331    526.23217  0.050463384  0.050813246            4 
  870000    1.0926384   -5.3038266    526.45047   0.05042629  0.050803474            3 
  871000      1.13711   -5.2986726    525.04748  0.050234163   0.05079286            3 
  872000    1.1080352   -5.3196002    527.67184  0.050427355   0.05078282            4 
  873000    1.0979602    -5.282527    528.96944  0.050493456  0.050772667            3 
  874000    1.1038423   -5.3165247    530.25307  0.050558073  0.050762728            1 
  875000    1.1101539    -5.287589    529.41485  0.050420462  0.050752941            4 
  876000    1.1353875   -5.2889733    530.46349  0.050462661  0.050742849            2 
  877000    1.1272882   -5.2752875     531.0464   0.05046051  0.050733372            2 
  878000    1.1271284   -5.2813604    532.75397  0.050565108  0.050723914            2 
  879000    1.0942191   -5.2644247    533.00888  0.050531748  0.050714892            5 
  880000      1.11423   -5.3090552     531.9713  0.050376071  0.050705621            3 
  881000    1.1295684   -5.3212505    533.64757  0.050477447  0.050695615            2 
  882000    1.1114875   -5.2485953    535.07596  0.050555174  0.050685807            4 
  883000    1.1178193   -5.2709211    533.90145  0.050387075   0.05067624            4 
  884000    1.0904141   -5.3048123    532.90598  0.050236235  0.050666358            3 
  885000    1.0856042   -5.2825294    535.63621  0.050436555  0.050656408            2 
  886000    1.1108661   -5.3175993    535.72923  0.050388377  0.050646452            1 
  887000    1.1223197    -5.271796    536.90952  0.050442458  0.050636648            2 
  888000    1.1225776   -5.3363459    535.90239   0.05029114  0.050626221            5 
  889000    1.0888677   -5.3025235     537.7337  0.050406234  0.050616678            2 
  890000    1.1088145   -5.2775837    538.76442  0.050446107   0.05060691            3 
  891000    1.1149674   -5.2957569      538.662   0.05037991  0.050597362            3 
  892000    1.1066596   -5.2945755    540.46814  0.050492166  0.050587912            2 
  893000    1.1075835   -5.2712782    542.67828   0.05064187  0.050578893            3 
  894000    1.1190256   -5.2742744    542.33023   0.05055278  0.050569603            1 
  895000    1.1021676   -5.2912202    540.38374   0.05031506  0.050559945            2 
  896000    1.1085461   -5.3094048    541.65727   0.05037735  0.050550516            5 
  897000    1.1397105   -5.2841553     543.6463  0.050505974  0.050540891            3 
  898000    1.1036356   -5.2988405    541.92083  0.050289609  0.050531354            2 
  899000    1.1083122   -5.2745622    544.93473  0.050513045  0.050521839            3 
  900000    1.0986647   -5.3175003    543.19213  0.050295567  0.050512125            4 
  901000    1.1207321   -5.2529701     545.5955  0.050462033   0.05050241            3 
  902000    1.1433334   -5.3176818    543.46646  0.050209392  0.050493047            3 
  903000    1.1006183   -5.2995475    542.73381  0.050086176  0.050483884            3 
  904000    1.1095662   -5.2998823     546.1456   0.05034528  0.050474172            1 
  905000    1.1121241   -5.3006118    545.42278  0.050223092  0.050464743            3 
  906000    1.1069182   -5.2928825    547.36881  0.050346653  0.050455512            2 
  907000    1.0926022   -5.3067794    546.22444  0.050186002  0.050446053            4 
  908000    1.1073766    -5.324968    546.64782  0.050169587  0.050436555            2 
  909000    1.0960112   -5.3258942    549.24171  0.050352192   0.05042639            4 
  910000    1.1032564   -5.2635467    549.59941  0.050329616  0.050417404            2 
  911000    1.1031032   -5.3175864    547.81727  0.050111349  0.050408343            6 
  912000    1.1085695   -5.3038876     549.2999  0.050191877  0.050398499            6 
  913000    1.1196744   -5.3121921     549.7397  0.050177044  0.050388932            4 
  914000    1.1322939   -5.2908501     550.1314  0.050157859   0.05037934            7 
  915000    1.1302996   -5.2952921    549.42755  0.050038939  0.050369515            1 
  916000    1.1144974   -5.2633976     551.3236  0.050156805  0.050360322            1 
  917000     1.107723   -5.3066513    552.80948  0.050237139  0.050350911            1 
  918000    1.0917311   -5.3373059    553.91688  0.050282941  0.050341302            3 
  919000    1.1007354   -5.2620093    552.39226  0.050089976  0.050331961            2 
  920000    1.1119705   -5.3307321    552.95946  0.050086907  0.050322165            3 
  921000    1.1173595   -5.3420525     552.7172  0.050010604  0.050312515            2 
  922000    1.1039534   -5.3149672    553.55756  0.050032318  0.050303076            2 
  923000    1.1020361   -5.3003206    555.39483   0.05014399  0.050293851            2 
  924000    1.1068892   -5.2949828    558.22642  0.050345096  0.050284936            5 
  925000    1.0980515   -5.2950782    557.05835  0.050185437  0.050276568            4 
  926000    1.1139157   -5.3134272    557.67358  0.050186607  0.050268134            3 
  927000    1.1190285   -5.3119713    559.73624  0.050317892  0.050259769            2 
  928000    1.1190429   -5.3255172    559.30769  0.050225188  0.050251153            3 
  929000    1.1049283   -5.3201208     557.9443  0.050048825  0.050241776            3 
  930000    1.0983318   -5.2951147    560.36299  0.050211738   0.05023277            3 
  931000    1.0962726   -5.3089129    560.44443  0.050165094    0.0502238            3 
  932000    1.0871071   -5.2998697    561.00427  0.050161326  0.050214594            3 
  933000    1.0759437   -5.3240585    558.92679  0.049922007   0.05020572            2 
  934000    1.0983851   -5.2997841    562.54408  0.050191299  0.050197095            2 
  935000    1.1209205   -5.3122089    563.86509  0.050255356   0.05018861            6 
  936000    1.1015895   -5.3005846       563.93  0.050207443  0.050180105            2 
  937000    1.0991866   -5.3098866    564.81648    0.0502327  0.050171801            3 
  938000    1.0984034   -5.3022201    564.49119  0.050150248  0.050163829            3 
  939000    1.1117882   -5.3171878     566.5222  0.050277085   0.05015601            2 
  940000     1.085756   -5.3405899    565.74319  0.050154538  0.050147573            5 
  941000    1.1043022    -5.260828    567.20538  0.050230728  0.050139311            3 
  942000    1.1155695   -5.3542249    565.05011   0.04998674  0.050131175            4 
  943000    1.0886947    -5.342713    563.66678  0.049811486  0.050122351            2 
  944000    1.1058342   -5.3027067    568.08008  0.050148312  0.050113729            3 
  945000    1.0995997   -5.3076832     568.8826  0.050166014  0.050105439            1 
  946000    1.0845676   -5.3072586    569.53835   0.05017075  0.050097204            4 
  947000    1.1078832   -5.3107892    570.58752  0.050210095  0.050089479            2 
  948000    1.0921173   -5.3373419    570.19271  0.050122425  0.050082018            2 
  949000    1.1292936   -5.2981673    571.51536  0.050185753   0.05007419            5 
  950000    1.0950957   -5.2917034    573.91429  0.050343358   0.05006715            6 
  951000    1.0804812   -5.2990047    574.94362  0.050380619  0.050060579            2 
  952000     1.108883   -5.3620227     572.4392  0.050108473  0.050053641            4 
  953000    1.0971486   -5.3223229    575.10977  0.050289416  0.050046277            3 
  954000    1.1048818   -5.3097197    575.80472  0.050297407  0.050039107            2 
  955000     1.108979   -5.3080025    573.52382  0.050045709  0.050031219            2 
  956000    1.1076291   -5.2961654    576.40699  0.050244682  0.050023658            5 
  957000    1.0879804   -5.3645155    575.62683  0.050124245  0.050016313            5 
  958000    1.0895675   -5.3169268     576.6354  0.050159656    0.0500086            2 
  959000    1.0898032   -5.2935866    575.94095  0.050047007  0.050000819            2 
  960000     1.081589    -5.329769    574.69057  0.049886335  0.049993025            2 
  961000    1.0857815   -5.3456023     577.2292  0.050054562  0.049984996            2 
  962000    1.0854358   -5.3227964    576.16103  0.049909999  0.049976729            3 
  963000      1.10752   -5.3175692    578.81197  0.050087571  0.049968783            3 
  964000    1.1172822   -5.3050887    578.31384  0.049992552  0.049961241            4 
  965000    1.0861666   -5.2990797    576.50698  0.049784713  0.049953077            2 
  966000    1.0970754   -5.3174606    579.16367  0.049962359  0.049944737            3 
  967000    1.1167094   -5.3293704    579.46187   0.04993639  0.049936234            2 
  968000    1.1186595   -5.3319541    578.91835  0.049838012  0.049928019            2 
  969000    1.0977808   -5.3552364    578.57759  0.049757274  0.049919859            4 
  970000    1.1148397   -5.3419577    581.55951  0.049962157  0.049911702            3 
  971000    1.0841584   -5.3175814    582.31181  0.049975267  0.049904134            3 
  972000    1.0860119   -5.3348614    582.32945  0.049925364  0.049896125            2 
  973000    1.0817776   -5.3325716    583.90565  0.050009049   0.04988817            2 
  974000    1.1071625   -5.3021338    584.72324  0.050027656  0.049879839            2 
  975000    1.0951083   -5.2960829    584.58149   0.04996423   0.04987157            3 
  976000    1.1105897   -5.3164484    584.32166  0.049890852  0.049863299            4 
  977000     1.112478   -5.3301329    583.05582  0.049731817  0.049855313            1 
  978000    1.0844665   -5.2964898    583.94994  0.049757152  0.049847241            1 
  979000    1.0893973   -5.3201106    585.40112  0.049829853  0.049838885            3 
  980000    1.0990582   -5.3096531    587.03335  0.049917801  0.049830565            5 
  981000    1.0937253   -5.3484744    583.56482  0.049572275  0.049821983            3 
  982000    1.0927146   -5.2949635    587.28138  0.049837184  0.049813637            2 
  983000    1.1182735   -5.3118291    587.72084   0.04982374  0.049805751            4 
  984000    1.0928019   -5.3342295    585.58722  0.049592413  0.049797079            6 
  985000    1.1033775   -5.3713684    585.19335  0.049508743  0.049787754            2 
  986000    1.0766072   -5.3185262    587.09152  0.049618958  0.049778745            3 
  987000    1.1034414   -5.3356699    589.28539  0.049753917  0.049769947            3 
  988000    1.0912689   -5.3464805    586.57654  0.049475079  0.049760411            3 
  989000    1.0957975   -5.3248547    590.78647  0.049779783  0.049751379            5 
  990000     1.082022   -5.3357464    591.47237  0.049787237  0.049742645            3 
  991000    1.1020989   -5.3336745    590.51568  0.049656549  0.049733453            2 
  992000    1.1299815   -5.3225893    592.49595  0.049772845  0.049723861            3 
  993000    1.0804739   -5.3398379    590.46045  0.049551901  0.049714868            3 
  994000    1.1105898   -5.3397043    590.39035  0.049496173  0.049705905            1 
  995000    1.0735845   -5.3118688    590.81286  0.049481814  0.049696906            3 
  996000    1.0958615    -5.288601    595.06858  0.049788201  0.049688625            3 
  997000    1.0801816   -5.3834644    589.95552  0.049310893  0.049679736            4 
  998000    1.1091032   -5.2964394    591.59556  0.049398427  0.049670596            4 
  999000    1.0616848   -5.3066405    596.56465  0.049763484  0.049662063            1 
 1000000    1.1182142   -5.3756403    595.63316  0.049636097   0.04965356            5 
 1001000    1.0915073   -5.3238092    595.67383  0.049589896  0.049644831            3 
 1002000    1.0921091   -5.3112302    594.98968  0.049483506  0.049636351            1 
 1003000    1.0990762   -5.3138842    597.22834  0.049620168  0.049627824            4 
 1004000    1.0863606   -5.3136551    596.46849  0.049507677  0.049619021            3 
 1005000    1.0667447   -5.3482618    597.74171  0.049563989   0.04961007            4 
 1006000    1.1077825   -5.3608115    597.76441  0.049516601  0.049601041            1 
 1007000      1.10773   -5.3377433    597.82997  0.049472854  0.049592398            4 
 1008000    1.0770854   -5.3410649    596.63695  0.049325145  0.049583462            2 
 1009000    1.1079943   -5.3082305    599.35374  0.049500639  0.049574641            2 
 1010000    1.0735741   -5.3553464    598.76229  0.049402829    0.0495657            2 
 1011000     1.068709   -5.3707015    597.66755  0.049263728  0.049555688            4 
 1012000    1.1019512   -5.3104609    599.95633  0.049403519  0.049546282            3 
 1013000    1.0745076   -5.3331494    601.35299  0.049469644  0.049537093            3 
 1014000    1.0841914   -5.3448586    600.95419  0.049388083  0.049527812            3 
 1015000    1.0763169   -5.3540299     600.3138  0.049286847  0.049518437            3 
 1016000    1.1114532     -5.36677    600.18724  0.049227956  0.049508847            3 
 1017000    1.1045437   -5.3719052    600.29767    0.0491886  0.049498765            5 
 1018000    1.0860917   -5.3289906    602.05997  0.049284542  0.049488724            3 
 1019000    1.0847429   -5.3351828     604.5747  0.049441831  0.049479054            1 
 1020000    1.0621708   -5.3548071    601.64742  0.049154201  0.049469551            3 
 1021000    1.0937251   -5.3169605    602.76521  0.049197291  0.049459998            4 
 1022000    1.0829752   -5.3483872    603.45783  0.049205629  0.049450216            2 
 1023000    1.0719344   -5.3107072    606.65818  0.049418229  0.049440352            5 
 1024000    1.0904956   -5.3226388    607.20952  0.049414837  0.049431009            3 
 1025000    1.1008199   -5.3316395    605.44684   0.04922332  0.049421234            3 
 1026000    1.0710243   -5.3219171     604.7648  0.049119948  0.049411511            3 
 1027000    1.0924997   -5.3526073    605.40406   0.04912399  0.049401035            3 
 1028000    1.1022971   -5.3687453    606.49704  0.049164805    0.0493912            4 
 1029000    1.0828202   -5.3617752    606.87551  0.049147676  0.049381186            6 
 1030000    1.0787157   -5.3739166     606.4095  0.049062257  0.049371283            5 
 1031000    1.1132311   -5.3434452    606.37952  0.049012247  0.049361322            2 
 1032000    1.0752604   -5.3258377     610.4077  0.049290027  0.049352024            3 
 1033000    1.0894777   -5.3449944    608.58253  0.049095073  0.049342576            3 
 1034000    1.0766533   -5.3220329    608.63143  0.049051534  0.049333006            6 
 1035000    1.0824788    -5.366385    607.89148  0.048944564  0.049323138            4 
 1036000    1.0757547   -5.3384645    610.99749   0.04914716  0.049313202            4 
 1037000    1.0920998   -5.3514523    610.05192   0.04902378  0.049303342            2 
 1038000    1.0865913   -5.3538705    610.03562  0.048975242  0.049293419            4 
 1039000    1.0730047   -5.3314788    610.07418  0.048931198  0.049283636            3 
 1040000    1.0924099   -5.3211231    612.17501  0.049052484  0.049273682            2 
 1041000    1.0827097   -5.3357814    611.79125  0.048974644  0.049263864            3 
 1042000    1.0612196   -5.3320816    615.16286  0.049197286  0.049254019            3 
 1043000    1.0725806   -5.3443505    613.45278  0.049013485  0.049243853            4 
 1044000    1.0702255   -5.3854895    611.55327  0.048814916  0.049234148            3 
 1045000    1.0919424   -5.3635354    615.64557  0.049094543  0.049224274            3 
 1046000    1.0730058   -5.3367418    613.63841    0.0488877  0.049214851            4 
 1047000    1.0813265    -5.339033      617.992   0.04918752  0.049205763            5 
 1048000    1.0937349   -5.3762587    616.23262  0.049000686  0.049196329            5 
 1049000    1.1223653   -5.3511272    618.60987  0.049142824  0.049187528            2 
 1050000    1.0957337   -5.3505659    619.08249  0.049133531  0.049178873            3 
 1051000    1.0667421   -5.3441572    621.54135  0.049281744  0.049170494            3 
 1052000    1.0946614   -5.3271801    620.21488  0.049129822  0.049161745            3 
 1053000    1.0713964   -5.3796932    621.36194  0.049173943  0.049152911            4 
 1054000    1.0599389    -5.349586    620.78717  0.049081845  0.049144109            4 
 1055000    1.0884928   -5.3111765    623.85597  0.049277722  0.049135659            2 
 1056000    1.0840963   -5.3417908    625.77586  0.049382565  0.049127118            7 
 1057000    1.0740742   -5.3610449     624.4271   0.04922951  0.049118428            3 
 1058000    1.0718715   -5.3167228    624.25031  0.049169054  0.049109874            3 
 1059000    1.0923436   -5.3729177    621.61434  0.048915198   0.04910123            2 
 1060000    1.0834938   -5.3493291    626.06685  0.049219092  0.049092344            7 
 1061000    1.0664543   -5.3720214    624.62891  0.049059763  0.049083672            3 
 1062000    1.0777612   -5.3429995    625.89899  0.049113229  0.049074923            3 
 1063000    1.0787184   -5.3628526    626.27947  0.049096854  0.049066328            1 
 1064000    1.0907999   -5.3640839    622.70236  0.048770548  0.049057239            7 
 1065000    1.0894807   -5.3460511    626.28219  0.049004866  0.049048176            2 
 1066000    1.0624487   -5.3634109    626.15055  0.048948604   0.04903908            5 
 1067000    1.0738304   -5.3646159    626.61799  0.048939237  0.049029777            5 
 1068000    1.0873019   -5.3730258    624.38151  0.048718907  0.049020536            5 
 1069000    1.0609616   -5.3380186    627.86674  0.048945022  0.049011535            4 
 1070000    1.0857441   -5.2718703    628.86132  0.048976739  0.049002512            2 
 1071000    1.0841649    -5.341967    628.29363  0.048886837  0.048993231            3 
 1072000    1.0787346   -5.3779729    626.06033  0.048667625  0.048983826            2 
 1073000    1.1006391    -5.351893    629.97434  0.048926246  0.048974432            5 
 1074000    1.0827904    -5.337433    632.77864   0.04909828  0.048965389            1 
 1075000    1.0720872   -5.3610963    630.50383  0.048876266  0.048955967            4 
 1076000    1.0940066    -5.382704    630.46904  0.048828147  0.048946827            6 
 1077000    1.0873207   -5.3076494    634.38455  0.049085775  0.048937645            8 
 1078000    1.0852601   -5.3447916    631.84024  0.048843556   0.04892826            2 
 1079000    1.0881863   -5.3542128     631.0007  0.048733449  0.048918792            2 
 1080000     1.069887    -5.332403    632.29783  0.048788413  0.048909576            2 
 1081000    1.0548109   -5.3387321    632.88988  0.048788921  0.048900459            4 
 1082000    1.0786119   -5.3781106    631.01747   0.04859962  0.048890866            4 
 1083000    1.0833368    -5.362413    634.34409  0.048810718  0.048881166            2 
 1084000    1.0899429   -5.3547013    633.38796  0.048692187  0.048871697            4 
 1085000     1.071827   -5.3560881    634.80757  0.048756341  0.048862729            3 
 1086000    1.0691787   -5.3523041    633.41782  0.048604805  0.048853017            4 
 1087000    1.0890914   -5.3994287    632.46035  0.048486687  0.048843255            4 
 1088000    1.0667381   -5.3670454    634.13066  0.048570057  0.048833302            2 
 1089000    1.0842001   -5.3741678    635.41472  0.048623716  0.048823632            4 
 1090000    1.0714915   -5.3916684    640.28979  0.048951819  0.048814353            4 
 1091000    1.0673966   -5.3624404    635.94048  0.048574739  0.048805087            4 
 1092000    1.0761026    -5.328865    638.47461  0.048723642  0.048795913            3 
 1093000    1.0910873   -5.3837197    637.31082  0.048590334  0.048787001            2 
 1094000     1.062467   -5.3415893     639.7041  0.048728222   0.04877765            2 
 1095000    1.0579369   -5.3519125    638.41478    0.0485856  0.048768662            9 
 1096000    1.0852424   -5.3394542    640.36942  0.048689889  0.048759518            4 
 1097000    1.0529858   -5.3474395    641.00547  0.048693821  0.048749903            3 
 1098000    1.0548153   -5.3289932    640.18947  0.048587543  0.048740405            2 
 1099000    1.0710198   -5.3366274     640.6517  0.048578381  0.048731156            6 
 1100000    1.0938338   -5.3315656    639.41506  0.048440535  0.048721704            2 
 1101000     1.067517   -5.3741677    641.95518  0.048588797  0.048712314            3 
 1102000    1.0748498   -5.3150134    643.91047  0.048692564  0.048703163            6 
 1103000    1.0686368   -5.4026593    641.84603  0.048492447  0.048694206            2 
 1104000    1.0725476   -5.3358916    646.07775  0.048767946  0.048684785            2 
 1105000    1.0929394   -5.3640254    643.46736   0.04852695  0.048675546            2 
 1106000    1.0612681   -5.3827549    643.32136  0.048472074  0.048666419            3 
 1107000    1.0955827    -5.364208    643.82952   0.04846654  0.048657499            3 
 1108000    1.0808441   -5.3711725    647.16856  0.048673929  0.048648448            4 
 1109000    1.0590529   -5.3799567     645.7345   0.04852228  0.048639586            2 
 1110000    1.0910277   -5.3374706    648.18206  0.048662317  0.048630694            5 
 1111000    1.0417506   -5.3840805    648.26999  0.048625112  0.048621621            4 
 1112000    1.0731545   -5.3422966     647.8871   0.04855269  0.048612626            3 
 1113000    1.0840845   -5.3762656    648.15679   0.04852926  0.048603827            5 
 1114000    1.0723964   -5.3803893    648.06597  0.048478902   0.04859485            2 
 1115000     1.084406   -5.4044033    647.94527  0.048426403   0.04858562            3 
 1116000    1.0672877   -5.3455144    652.23809  0.048703561  0.048576438            2 
 1117000    1.1021412   -5.3723592    650.91931  0.048561572  0.048567883            2 
 1118000    1.0651852   -5.3512292    651.02127  0.048525736    0.0485591            3 
 1119000    1.0821651   -5.3562552    652.82543  0.048616729  0.048551022            3 
 1120000    1.0797662   -5.3832003    652.60033  0.048556572  0.048542279            3 
 1121000    1.0670089   -5.3728497     652.5872  0.048512281  0.048533657            2 
 1122000    1.0739038   -5.3956113    653.12152  0.048508728   0.04852514            2 
 1123000    1.0674624   -5.3614491    654.04201  0.048533838  0.048516843            6 
 1124000    1.0764685   -5.3891102    653.98994  0.048486798  0.048508453            3 
 1125000    1.0601834   -5.3442477    655.11277  0.048526872  0.048500461            2 
 1126000    1.0628726   -5.3795412    653.07384  0.048332877  0.048491899            3 
 1127000    1.0756848   -5.3343607    656.88064  0.048571476  0.048483758            4 
 1128000    1.0652793   -5.3750287    657.80884  0.048596989  0.048475157            3 
 1129000    1.0655724   -5.3645144    656.85193  0.048483313  0.048466594            2 
 1130000    1.0796125   -5.3685232    658.93627   0.04859412  0.048458322            2 
 1131000     1.065616   -5.3537173    658.10233  0.048489709  0.048449327            3 
 1132000    1.0620681   -5.3804095    655.64981  0.048266329  0.048441031            5 
 1133000    1.0675732   -5.3582844    658.33343  0.048421112  0.048432084            2 
 1134000    1.0740105   -5.3814727    659.92525  0.048495389  0.048423397            2 
 1135000    1.0715281   -5.3820545    658.61264  0.048356287  0.048414797            4 
 1136000    1.0893871   -5.3627833     658.0668  0.048273679  0.048406418            5 
 1137000     1.071986   -5.3863622    660.96541  0.048443668  0.048397917            3 
 1138000    1.0791264   -5.3606005    662.15875  0.048488485  0.048389653            2 
 1139000    1.0631303   -5.3827819    660.44541   0.04832056  0.048381391            3 
 1140000     1.090545   -5.3988278    662.30402  0.048414037  0.048372858            4 
 1141000    1.0430472   -5.3746374    663.18646  0.048436055  0.048364498            4 
 1142000    1.0783571   -5.3566564    662.84832  0.048368967  0.048356064            5 
 1143000    1.0856592   -5.3538227    662.85786  0.048327345  0.048347518            2 
 1144000    1.0684356    -5.377891    665.33824  0.048465781  0.048338903            4 
 1145000    1.0618175   -5.3980105    663.97494  0.048324232  0.048330324            3 
 1146000    1.0732097   -5.3594821    665.32217  0.048380029  0.048321553            3 
 1147000    1.0873327   -5.3459564    667.67577  0.048508847   0.04831278            3 
 1148000    1.0623531   -5.4051629     660.5717  0.047950907   0.04830349            1 
 1149000    1.0552952    -5.383888    666.62424  0.048348146  0.048294417            4 
 1150000    1.0566944   -5.3644618    666.00731  0.048261399  0.048285298            5 
 1151000    1.0800913   -5.3752644    664.11566  0.048082512  0.048276488            5 
 1152000    1.0666668   -5.4133524    663.84555  0.048021235  0.048268001            3 
 1153000    1.0739995   -5.3852241     665.8973  0.048127876  0.048259249            2 
 1154000    1.0704417   -5.3922934    666.97437  0.048163949  0.048250503            3 
 1155000    1.0624075   -5.3658469    668.33185  0.048220191  0.048241766            3 
 1156000    1.0842347   -5.3783902    666.81355  0.048069028  0.048232669            4 
 1157000    1.0665823   -5.3757043    668.13374  0.048122568  0.048223376            2 
 1158000    1.0776444   -5.3826474    669.90173  0.048208242   0.04821437            2 
 1159000    1.0549945   -5.3766322     669.0168   0.04810302  0.048205499            6 
 1160000     1.076069   -5.3709983     672.2632   0.04829477  0.048196533            3 
 1161000    1.0655696   -5.3977076    670.85621  0.048152183  0.048187442            2 
 1162000    1.0870226   -5.3845182    670.95968  0.048118164  0.048178559            4 
 1163000    1.0586845   -5.3794012    670.14036  0.048018082   0.04816959            2 
 1164000    1.0539662   -5.4086042    670.81818  0.048025357  0.048160972            4 
 1165000    1.0616263   -5.3678773    673.28036  0.048160254  0.048151766            4 
 1166000    1.0793055   -5.3536729     674.0523  0.048174121  0.048142961            4 
 1167000    1.0785893   -5.4018895    670.54429   0.04788234  0.048133808            5 
 1168000    1.0670652    -5.398769    671.69917  0.047923742  0.048124494            6 
 1169000    1.0433356   -5.3829175    672.75246  0.047957831  0.048115242            1 
 1170000     1.050727   -5.3707699    673.13434  0.047944041  0.048105997            3 
 1171000    1.0676743    -5.420203    674.26907  0.047983851   0.04809665            3 
 1172000    1.0939597   -5.4171665    673.20905  0.047867537  0.048087421            4 
 1173000    1.0746751   -5.4066546    672.60991  0.047784165  0.048077855            3 
 1174000    1.0550923   -5.4183123    675.22956  0.047929412  0.048068986            2 
 1175000    1.0883739   -5.3407558    677.54668  0.048052956  0.048059802            4 
 1176000    1.0399988   -5.3947411    674.79086  0.047816813  0.048050586            3 
 1177000    1.0664559   -5.4008747    675.61209  0.047834331  0.048041263            4 
 1178000    1.0709715   -5.3498778    676.88613  0.047883852  0.048032192            4 
 1179000    1.0639879   -5.3855948    677.25961  0.047869636  0.048023254            4 
 1180000    1.0614576   -5.4051857    679.53848  0.047990005  0.048014043            2 
 1181000    1.0565709   -5.3946751    678.37074  0.047866973  0.048005086            4 
 1182000    1.0697648   -5.3834531    679.94304  0.047937327  0.047995688            4 
 1183000    1.0755293    -5.349666    682.79541  0.048097732  0.047986846            4 
 1184000    1.0468813    -5.371441    683.90136  0.048134949  0.047977726            3 
 1185000    1.0693748   -5.3976092    678.53068  0.047716644  0.047968405            5 
 1186000    1.0489687   -5.3684493     679.3328  0.047732771   0.04795889            4 
 1187000    1.0569751   -5.4428695     677.1043  0.047536106  0.047948849            7 
 1188000    1.0630764   -5.4130428    678.91629  0.047623196  0.047938598            4 
 1189000    1.0411301   -5.3908385    679.89475  0.047651721  0.047928507            6 
 1190000     1.059148   -5.3706187    681.03676   0.04769165  0.047918683            4 
 1191000    1.0717609   -5.4506185    678.26539  0.047457696  0.047908624            2 
 1192000    1.0632348   -5.4220404     680.6881  0.047587256   0.04789917            5 
 1193000    1.0797534   -5.3808638    682.35991  0.047664146  0.047889418            2 
 1194000    1.0548808   -5.3701939    682.28913  0.047619286  0.047879426            2 
 1195000    1.0560572   -5.3952962    683.80703  0.047685288  0.047869975            3 
 1196000     1.058421   -5.3704538    685.31868  0.047750744  0.047859801            3 
 1197000    1.0279404   -5.3750739    682.43656  0.047510203  0.047849585            2 
 1198000    1.0518861    -5.383371    683.57904  0.047550017  0.047839323            8 
 1199000    1.0669999   -5.3976961    682.04232  0.047403553  0.047828773            3 
 1200000    1.0618388   -5.3597502    682.99605  0.047430281  0.047818082            3 
 1201000    1.0892576   -5.4233127    683.92618  0.047455328  0.047807148            3 
 1202000    1.0631595   -5.3906874    683.53397  0.047388656  0.047796208            7 
 1203000    1.0460562   -5.3732677    687.24497  0.047606329  0.047785907            7 
 1204000    1.0553436   -5.3946633    683.24951  0.047290249  0.047775375            3 
 1205000    1.0796211   -5.4522971    684.29959  0.047323623  0.047764302            3 
 1206000    1.0722763   -5.3933317    683.59622  0.047235781  0.047753319            3 
 1207000    1.0648454   -5.3818478    686.68557   0.04740994  0.047742494            3 
 1208000    1.0413292   -5.3994651    687.03568  0.047394846  0.047731685            8 
 1209000    1.0490332   -5.4171803    686.12078  0.047292582  0.047720648            5 
 1210000    1.0431569   -5.3798772    688.88648  0.047443973  0.047709851            2 
 1211000    1.0521364   -5.4048171    687.64921  0.047319654  0.047699337            3 
 1212000    1.0499622   -5.4089451    689.14923  0.047383748  0.047689135            3 
 1213000    1.0745418   -5.3974607    687.79914  0.047251933  0.047678595            2 
 1214000    1.0459461   -5.4095478    688.59471  0.047267622  0.047668042            3 
 1215000    1.0509868   -5.4478219    690.06722  0.047329713  0.047657272            3 
 1216000    1.0699338   -5.4336234    686.04008  0.047014808  0.047646175            6 
 1217000    1.0513237    -5.380898    691.20968  0.047330161   0.04763543            2 
 1218000    1.0575095   -5.4103348    690.62482  0.047251287  0.047624892            3 
 1219000    1.0544638   -5.3776838    693.77363  0.047427784  0.047614305            3 
 1220000    1.0744257   -5.4145903    691.38174  0.047225529  0.047603977            1 
 1221000    1.0435736   -5.3914861    691.75652  0.047212429  0.047593245            7 
 1222000    1.0586603   -5.3791264    691.93246  0.047185792  0.047582539            5 
 1223000    1.0416289   -5.4409616    688.67341  0.046925144  0.047571779            3 
 1224000    1.0664701   -5.3964211    689.70035  0.046956723  0.047560877            5 
 1225000    1.0673761   -5.3764078    693.47373  0.047175084  0.047550165            2 
 1226000    1.0625778   -5.4247435    691.44572  0.046998757  0.047539234            2 
 1227000    1.0623231   -5.4004699    695.05974  0.047205905  0.047528689            4 
 1228000    1.0548984    -5.395566    694.86246  0.047154076  0.047518079            4 
 1229000    1.0394353   -5.4060206    694.04696  0.047060412  0.047507412            3 
 1230000    1.0422248   -5.4137931    695.71173  0.047134941  0.047496352            3 
 1231000    1.0462144   -5.3980464    695.45817  0.047079486  0.047485295            4 
 1232000    1.0477842   -5.4178683    693.27873  0.046893854  0.047474361            4 
 1233000    1.0388318   -5.4329178    693.48377  0.046869679  0.047463068            3 
 1234000    1.0580624    -5.401762    694.96039  0.046931415  0.047451956            2 
 1235000    1.0482203   -5.4513178    693.48999  0.046794197  0.047440574            4 
 1236000    1.0549903   -5.4128883    699.27145  0.047146133  0.047429392            4 
 1237000    1.0445696    -5.395278    697.34692   0.04697837  0.047418119            3 
 1238000     1.047211   -5.3733034    698.43725  0.047013816   0.04740708            2 
 1239000    1.0508933   -5.4243891    698.60986   0.04698748  0.047395786            2 
 1240000    1.0506045   -5.4142505    699.01572  0.046976863    0.0473848            2 
 1241000    1.0223465   -5.4111035    695.00171  0.046669467   0.04737388            4 
 1242000    1.0600158   -5.3903867    697.60981  0.046806885  0.047362738            3 
 1243000    1.0569577   -5.4125471    699.09215  0.046868608  0.047351731            5 
 1244000    1.0478641   -5.3966009    699.26172  0.046842291  0.047340433            4 
 1245000    1.0374444   -5.4073988    700.63366  0.046896496   0.04732906            2 
 1246000    1.0410705   -5.4031259     699.9414   0.04681256  0.047317954            2 
 1247000    1.0543556   -5.3888196    701.89726  0.046905724  0.047306579            2 
 1248000    1.0685852   -5.4306222    700.41352  0.046769065  0.047295792            4 
 1249000      1.09551   -5.4275017     700.5379  0.046739919  0.047284689            2 
 1250000    1.0682591   -5.3986932    702.14165  0.046809443  0.047273153            5 
 1251000    1.0342242   -5.4207123    701.99102  0.046761992  0.047261912            3 
 1252000    1.0467413   -5.3893455    703.90681  0.046852157   0.04725074            4 
 1253000     1.048645    -5.418296    704.35928  0.046844857  0.047239449            4 
 1254000     1.084086   -5.4147516    702.60484  0.046690911  0.047228389            6 
 1255000    1.0521387   -5.4019934    705.18714  0.046825175  0.047217316            3 
 1256000    1.0695225   -5.4329893    706.95119  0.046904935  0.047206213            3 
 1257000    1.0458808   -5.4114454    705.45959  0.046768734  0.047195112            3 
 1258000    1.0257458   -5.4142378    708.09049  0.046905836  0.047184234            3 
 1259000    1.0508163   -5.4291303    704.12945  0.046606397   0.04717304            3 
 1260000    1.0548261   -5.3755649    708.78111  0.046877057  0.047162076            3 
 1261000    1.0540531   -5.4006748    709.40977  0.046881428   0.04715117            6 
 1262000    1.0559856   -5.4117504    705.72202  0.046600767  0.047140073            4 
 1263000    1.0685331   -5.4182123    707.25195  0.046664816  0.047128829            3 
 1264000    1.0521177   -5.4282228    706.73474  0.046593799  0.047117596            8 
 1265000    1.0295444   -5.3936025    709.46351  0.046736726  0.047106295            3 
 1266000    1.0642765   -5.4373248    706.84401  0.046527384  0.047094803            3 
 1267000    1.0501012   -5.3777923    707.71785  0.046548135  0.047083594            4 
 1268000    1.0391777   -5.3953269    709.76257  0.046645805  0.047072119            3 
 1269000    1.0588853    -5.420764    708.84008  0.046548469  0.047060633            4 
 1270000    1.0477717   -5.3845412    710.97373   0.04665182  0.047049021            5 
 1271000    1.0516037   -5.4379834    707.30731  0.046374725  0.047037359            5 
 1272000    1.0481023   -5.4247792    709.18989  0.046461602  0.047025806            4 
 1273000    1.0476765   -5.4440743    707.34536  0.046304357  0.047014024            3 
 1274000    1.0393841   -5.4133879    712.00762  0.046572974   0.04700229            3 
 1275000    1.0501677    -5.430222     709.1416  0.046349124  0.046990701            4 
 1276000    1.0490754    -5.387966    712.30957  0.046519695  0.046978765            4 
 1277000    1.0438612   -5.4202508    708.74269  0.046250502   0.04696697            3 
 1278000    1.0491889   -5.3896244    710.03968  0.046298884   0.04695513            2 
 1279000    1.0615583   -5.4021498    710.17253   0.04627134  0.046942743            3 
 1280000    1.0248971    -5.416318    709.07755  0.046163903  0.046930742            2 
 1281000    1.0444363   -5.4494493    710.41435  0.046214829  0.046918437            1 
 1282000    1.0642923   -5.4435055    712.59768  0.046320702  0.046906231            7 
 1283000    1.0639731    -5.419805    712.60493  0.046285069   0.04689446            3 
 1284000    1.0283853   -5.4162797     713.8729  0.046331315  0.046882655            5 
 1285000     1.061135   -5.4073139    714.39773  0.046329295  0.046870814            2 
 1286000    1.0452804   -5.4098541    715.20028  0.046345275  0.046858993            2 
 1287000    1.0430059   -5.4445036    712.41743  0.046129075  0.046846993            6 
 1288000    1.0326989   -5.4125274    716.19771  0.046337844  0.046835035            4 
 1289000     1.034716   -5.4183183     716.5089  0.046322013  0.046823305            2 
 1290000    1.0758504   -5.4574778    716.27029   0.04627069  0.046811672            8 
 1291000    1.0589713   -5.4250475    714.51513  0.046121555  0.046800076            3 
 1292000    1.0415052    -5.426913    717.76319  0.046295355  0.046788612            2 
 1293000    1.0364266   -5.4345935    720.94719  0.046464758  0.046777302            2 
 1294000    1.0469556   -5.4627611    717.10898   0.04618167   0.04676623            5 
 1295000    1.0575789   -5.4458057    720.16253  0.046342505   0.04675488            3 
 1296000    1.0477638   -5.4081755    723.61264   0.04652859  0.046743813            3 
 1297000    1.0234421    -5.481938    718.83549   0.04618578  0.046732771            6 
 1298000    1.0502346   -5.3962806     725.2086  0.046559361  0.046721954            3 
 1299000    1.0377848   -5.4175854    722.31799   0.04633808  0.046711104            3 
 1300000    1.0379765   -5.4518571    722.51958  0.046315358  0.046700242            4 
 1301000    1.0426745   -5.4198891    723.88023  0.046366912   0.04668971            4 
 1302000    1.0592305   -5.4000151    725.90007  0.046460578  0.046679065            2 
 1303000    1.0426198   -5.4249853    723.51128  0.046272146  0.046668405            6 
 1304000    1.0444936   -5.4584555    724.90992  0.046326043  0.046657598            2 
 1305000    1.0437544   -5.4688546     723.1813   0.04618016  0.046646811            4 
 1306000    1.0333928   -5.4103247    723.45697  0.046162389  0.046635935            3 
 1307000    1.0438835   -5.4315309    726.64093  0.046330077  0.046625217            3 
 1308000    1.0190174   -5.4234222    726.21721  0.046267661  0.046614476            3 
 1309000     1.022394   -5.4577628    723.61692  0.046066776  0.046603567            3 
 1310000    1.0293658     -5.44592    726.04154  0.046185848  0.046592433            3 
 1311000    1.0474056   -5.4209479    726.28714  0.046166231  0.046581365            3 
 1312000    1.0389501   -5.4289435    725.53932  0.046083544  0.046570302            2 
 1313000    1.0689509   -5.4394786    727.08822  0.046146752  0.046559416            4 
 1314000    1.0267576   -5.4352761    728.41123  0.046195537  0.046548109            6 
 1315000    1.0251508   -5.4195424    730.64314  0.046301847  0.046537239            4 
 1316000    1.0441163   -5.4127652    729.28432  0.046180618  0.046526434            4 
 1317000    1.0277546   -5.4256075    728.24669  0.046079897    0.0465154            2 
 1318000    1.0394048    -5.386286    730.81874  0.046207558  0.046504746            3 
 1319000    1.0139409   -5.4382562    728.22509  0.046008661  0.046493834            3 
 1320000    1.0130769   -5.4260154    732.89422  0.046268575  0.046482939            4 
 1321000    1.0528897   -5.4649926    729.45408  0.046016533  0.046471934            4 
 1322000    1.0060808   -5.4304319    731.20769  0.046092265  0.046461024            2 
 1323000    1.0570798   -5.4171502    729.36302  0.045941234  0.046450114            3 
 1324000    1.0286081   -5.4442215    731.25009  0.046025308  0.046439025            2 
 1325000    1.0422497   -5.4536549     730.9896  0.045974188  0.046427852            4 
 1326000    1.0427563   -5.4008749    732.04068  0.046005573  0.046416819            6 
 1327000    1.0328447   -5.4156816    735.16843  0.046167321  0.046405726            2 
 1328000    1.0180468   -5.4717177    733.49196  0.046027357  0.046394533            5 
 1329000    1.0420375   -5.4091633    733.63945  0.046001972  0.046383161            3 
 1330000     1.016303   -5.4607999    732.43541  0.045891943  0.046371784            5 
 1331000    1.0422714   -5.4539173     733.5824  0.045929276  0.046360124            2 
 1332000    1.0618621   -5.4576832    731.26683  0.045749927  0.046348648            5 
 1333000    1.0613537   -5.4567943    732.31671   0.04578124   0.04633721            2 
 1334000    1.0520508   -5.4338347     735.3959  0.045939274  0.046325937            3 
 1335000    1.0405619   -5.4359299    736.44554  0.045970383  0.046314353            2 
 1336000    1.0355908   -5.4718154    732.52045  0.045691146  0.046302729            2 
 1337000    1.0735222    -5.449423    732.53599   0.04565794  0.046291093            2 
 1338000    1.0427635    -5.415967    736.51142  0.045871414  0.046279682            3 
 1339000    1.0144401   -5.4457516     731.9167  0.045551201   0.04626799            3 
 1340000    1.0287797   -5.4564742    735.97641  0.045769677  0.046256277            2 
 1341000    1.0185259   -5.4459624    738.07985  0.045866259  0.046244812            3 
 1342000    1.0501832   -5.4218266    739.62654  0.045928126  0.046233741            1 
 1343000    1.0356486   -5.4334657    738.59566  0.045829961  0.046222746            6 
 1344000    1.0213568   -5.4748209    738.19192  0.045770828  0.046211415            6 
 1345000    1.0143169   -5.4327786    738.70199  0.045768401  0.046200209            1 
 1346000    1.0324885   -5.4351145    738.40968    0.0457163  0.046189047            5 
 1347000    1.0091659   -5.4429611    737.06011  0.045598868  0.046177596            3 
 1348000    1.0414619   -5.4486831    737.61975  0.045599638  0.046166303            3 
 1349000    1.0104969   -5.4246881    739.55088  0.045685129  0.046155177            3 
 1350000    1.0661265   -5.4339687    742.62546  0.045841077  0.046143974            2 
 1351000    1.0344572   -5.4196828    740.57635  0.045680752  0.046132858            2 
 1352000    1.0199126   -5.4709259       740.21  0.045624383  0.046121632            4 
 1353000    1.0407442   -5.4513462    742.27045  0.045717569  0.046110569            3 
 1354000    1.0420873   -5.4476115    746.40211  0.045938092  0.046099618            3 
 1355000     1.048194   -5.4553923    743.17743  0.045705869  0.046088859            7 
 1356000    1.0491138   -5.4220852    744.80756  0.045772343    0.0460778            2 
 1357000    1.0206243    -5.474236    741.93544  0.045562235  0.046066698            7 
 1358000    1.0084894    -5.490812    744.97157  0.045714996  0.046055255            3 
 1359000    1.0359359   -5.4131887     745.9852  0.045743512  0.046044365            3 
 1360000    1.0357256   -5.4341663    745.80606    0.0456989  0.046033293            5 
 1361000    1.0228167   -5.4326698     747.2805  0.045755602  0.046022405            5 
 1362000     1.024934   -5.4166347    747.35659  0.045726663  0.046011394            6 
 1363000    1.0419682   -5.4486971    747.46707   0.04569987  0.046000731            3 
 1364000    1.0327945   -5.4231578    749.24185  0.045774796  0.045989969            5 
 1365000      1.03265   -5.4460429    745.26008  0.045498173  0.045978791            3 
 1366000    1.0139544   -5.4749156    746.12397  0.045517568  0.045967809            4 
 1367000    1.0460531   -5.4983023    744.71023  0.045398088  0.045956807            3 
 1368000    1.0518172   -5.4811724    747.61536  0.045541871  0.045945847            5 
 1369000    1.0026729   -5.4374912    753.09946  0.045842431  0.045935125            3 
 1370000    1.0303928   -5.4404641    751.54236  0.045714256  0.045924621            2 
 1371000    1.0235686   -5.4434671    752.74331  0.045753909  0.045914296            4 
 1372000    1.0356255    -5.455115    752.33548  0.045695789  0.045904031            2 
 1373000    1.0285135    -5.442449    753.93394  0.045759525  0.045893994            6 
 1374000    1.0519314   -5.4729183    752.62343  0.045646739  0.045883802            2 
 1375000    1.0270734   -5.4901556    751.18981  0.045526655  0.045873131            9 
 1376000    1.0560898   -5.4910515    750.29225  0.045439211  0.045862286            4 
 1377000    1.0376487    -5.432541    751.91432  0.045504377  0.045851507            3 
 1378000     1.018386   -5.4504311    750.44338  0.045382401  0.045841155            4 
 1379000     1.049565    -5.448954    754.31119  0.045583224    0.0458304            6 
 1380000    1.0020562   -5.4596847    751.96915  0.045408765  0.045819548            2 
 1381000    1.0237417   -5.4669971    753.03898  0.045440441  0.045808695            3 
 1382000    1.0312285    -5.465451    755.66645  0.045565994  0.045797885            5 
 1383000    1.0478043    -5.440726    754.83857  0.045483163  0.045787081            5 
 1384000    1.0256353   -5.4756776    753.54377  0.045372337   0.04577594            4 
 1385000    1.0251456   -5.4945743    752.27838   0.04526344  0.045764807            2 
 1386000    1.0220014   -5.4288088    757.82128   0.04556405  0.045753435            2 
 1387000     1.024444   -5.4629929    751.74287  0.045165998  0.045742124            5 
 1388000    1.0349522   -5.4645009    753.10428  0.045215195  0.045730387            5 
 1389000    1.0394531   -5.4544872    754.74523  0.045281091  0.045718707            3 
 1390000    1.0457152   -5.4937747     754.7496  0.045248777  0.045706938            3 
 1391000    1.0233727   -5.4777113    755.51576  0.045262147  0.045695643            4 
 1392000   0.99685136   -5.4880433    753.36904  0.045101116  0.045684248            3 
 1393000    1.0250211   -5.4704481    756.51971  0.045257221  0.045672759            1 
 1394000    1.0154024   -5.4340743    756.74673  0.045238327  0.045661521            3 
 1395000    1.0467438   -5.4433177    757.90662  0.045275186  0.045650371            4 
 1396000     1.004563   -5.4795227    757.30358  0.045206756  0.045638771            4 
 1397000    1.0310252   -5.4845492     756.5925  0.045131979  0.045627369            3 
 1398000    1.0373443   -5.4964641    754.98873  0.045004097  0.045615669            4 
 1399000    1.0330099   -5.4404768    758.42677   0.04517672  0.045604399            3 
 1400000    1.0284487   -5.4605128    759.87549  0.045230684  0.045593134            4 
 1401000    1.0238142   -5.4564731    760.49996  0.045235543  0.045582055            6 
 1402000    1.0242456   -5.4468085    760.95014  0.045230037  0.045571012            3 
 1403000    1.0270384    -5.480546    759.93259   0.04513736  0.045559977            5 
 1404000    1.0163798   -5.4819262    759.99084  0.045108668  0.045548863            4 
 1405000    1.0358662   -5.4437217    761.78649  0.045183066  0.045537675            6 
 1406000    1.0139948   -5.4833582    759.91063  0.045039748  0.045526237            3 
 1407000    1.0341743   -5.4791056    760.20839  0.045025372  0.045514951            7 
 1408000    1.0611258   -5.4638416     759.5465   0.04495422  0.045503351            4 
 1409000    1.0225942    -5.487786    761.23044  0.045021909  0.045491917            2 
 1410000     1.024622   -5.4720134    763.35165  0.045115346  0.045480427            3 
 1411000     1.031125   -5.4584501    763.99136  0.045121153   0.04546929            2 
 1412000    1.0329715   -5.4800734    762.28527  0.044988507  0.045458235            3 
 1413000    1.0049527   -5.4203672    766.37398  0.045197805  0.045447073            7 
 1414000    1.0253977   -5.4748478    764.44635  0.045052236  0.045436099            2 
 1415000     1.023076   -5.4781974    763.26663   0.04495092   0.04542491            2 
 1416000    1.0172827   -5.4974542    763.05299  0.044906603  0.045413509            3 
 1417000    1.0048647   -5.5030952    763.91873  0.044925825  0.045402241            2 
 1418000     1.037213   -5.4504395    764.44547  0.044925098  0.045390683            4 
 1419000    1.0303191   -5.4652805    767.52739   0.04507443  0.045379398            2 
 1420000    1.0257044   -5.4646068    763.85477  0.044827158  0.045368043            5 
 1421000    1.0337119   -5.4448883    768.22737  0.045052039  0.045356651            1 
 1422000    1.0274997   -5.4873224    765.67142  0.044870571  0.045345699            2 
 1423000     1.027948   -5.5029242      763.798  0.044729328  0.045334301            4 
 1424000    1.0382059   -5.4919854    765.23923  0.044782258  0.045322755            3 
 1425000    1.0420983   -5.4431871    770.45764  0.045056002  0.045311505            4 
 1426000    1.0339071   -5.4820854    763.64448  0.044626255  0.045300183            5 
 1427000    1.0035454   -5.4839135    769.57155  0.044941109  0.045288846            4 
 1428000    1.0320232    -5.514457    765.88156  0.044694302  0.045277568            4 
 1429000    1.0348449   -5.5469835    765.00642  0.044611991  0.045265959            4 
 1430000    1.0158817   -5.4716196    765.69726  0.044621052  0.045254172            2 
 1431000     1.018689   -5.4874172    768.41925  0.044748384  0.045242718            5 
 1432000    1.0337638   -5.5176486    769.38542   0.04477336  0.045231446            5 
 1433000    1.0399804   -5.4998821    769.67749    0.0447591  0.045220018            2 
 1434000    1.0078071    -5.413284    771.82637  0.044852765  0.045208741            4 
 1435000     1.052794   -5.5150628    769.78666  0.044703058  0.045197375            4 
 1436000    1.0203525   -5.4531729    770.98974  0.044741745  0.045185917            4 
 1437000    1.0267438   -5.4465441    771.69817  0.044751691  0.045174536            2 
 1438000    1.0278353   -5.4924359    772.45938  0.044764683  0.045163339            4 
 1439000   0.99795133   -5.4516467    774.00578  0.044823128  0.045151905            3 
 1440000    1.0203335   -5.4776882    771.36708  0.044639299  0.045140641            6 
 1441000    1.0094432   -5.4942664    771.01796  0.044588131  0.045129137            3 
 1442000    1.0130524   -5.5024075    772.94399  0.044668515   0.04511773            2 
 1443000     1.000625   -5.4821242    773.43753  0.044666062  0.045106008            5 
 1444000    1.0319894   -5.4850955    772.04782   0.04455493  0.045094567            3 
 1445000    1.0203149   -5.4668138    773.04453  0.044581576  0.045083092            5 
 1446000    1.0288131   -5.4773212    774.24417  0.044619881  0.045071353            4 
 1447000    1.0217411   -5.4902504    775.23962  0.044646373  0.045059743            2 
 1448000    1.0278799   -5.5048461    773.95827  0.044541797  0.045048242            5 
 1449000    1.0252664   -5.5096448    775.07175  0.044575095  0.045036545            2 
 1450000    1.0308242   -5.4722538    774.75964  0.044526416  0.045024824            2 
 1451000   0.99778522   -5.5011411    775.52003    0.0445394  0.045013306            6 
 1452000    1.0346895   -5.4673008    776.10761  0.044542448  0.045001668            5 
 1453000    1.0032007   -5.4619788    775.81607  0.044495072  0.044990136            3 
 1454000    1.0171195    -5.450737    776.96654  0.044530407  0.044978275            7 
 1455000     1.026203   -5.4718181    775.26261  0.044402211  0.044966634            3 
 1456000    1.0122737    -5.478691    774.79589  0.044345003  0.044954705            2 
 1457000    1.0078606   -5.4850467    779.64498  0.044591911  0.044942938            4 
 1458000    1.0276813   -5.4742715    775.99895  0.044352935  0.044931032            3 
 1459000    1.0143595   -5.4699335    778.31803  0.044454994  0.044919435            3 
 1460000   0.99755222   -5.4981924    778.90323  0.044457947  0.044907664            5 
 1461000    1.0075368   -5.4762807     777.2107  0.044330977  0.044895821            4 
 1462000    1.0073941   -5.5015556    777.00758  0.044289077  0.044883857            4 
 1463000    1.0206035   -5.4974468    778.04355  0.044317814  0.044871901            3 
 1464000    1.0070502    -5.476517    777.31794   0.04424624  0.044859686            3 
 1465000    1.0258817   -5.4792585    780.01154  0.044369257  0.044847739            3 
 1466000   0.99721449   -5.5097985    776.52846  0.044140999  0.044835546            5 
 1467000    1.0283121   -5.4840485    780.16984   0.04431776  0.044823583            3 
 1468000    1.0246598    -5.512997    781.72744   0.04437599  0.044811383            5 
 1469000    1.0316192   -5.4962885    779.15137  0.044199646  0.044799719            3 
 1470000    1.0239542   -5.4779413    779.57704   0.04419371  0.044787799            3 
 1471000    1.0205522   -5.5541876    779.82804  0.044177886  0.044776012            7 
 1472000    1.0193045   -5.4619641     783.1333  0.044334992  0.044764099            6 
 1473000    1.0215074   -5.5095362    780.71426  0.044168039  0.044752431            3 
 1474000    1.0382051   -5.4787336    783.15688  0.044276169  0.044740674            2 
 1475000     1.017985   -5.4703343    782.47165  0.044207438  0.044729144            4 
 1476000    1.0295259   -5.4925147    781.99578   0.04415062  0.044717402            4 
 1477000    1.0234401   -5.4958937    785.89213  0.044340562  0.044705732            3 
 1478000     1.002035   -5.4929734     783.7544  0.044190031  0.044694224            4 
 1479000   0.99239435   -5.4672136    785.94735  0.044283713  0.044682549            3 
 1480000    1.0179981   -5.5127804    785.47218  0.044227037  0.044670908            3 
 1481000     1.006033   -5.4405581    786.68495  0.044265415  0.044659221            6 
 1482000    1.0225033   -5.4842638     785.6066   0.04417491  0.044647503            6 
 1483000    1.0024194    -5.497023    786.69242  0.044206137  0.044635548            3 
 1484000    1.0273187    -5.480407    787.00692  0.044194009  0.044623882            3 
 1485000     1.000282   -5.4924043     786.5214  0.044137003  0.044611979            3 
 1486000    1.0013177   -5.4782985    788.84366  0.044237532  0.044600117            7 
 1487000   0.99787029   -5.4950109    787.47271  0.044130952  0.044588606            5 
 1488000    1.0143051   -5.4718161     788.9682  0.044185047  0.044576686            6 
 1489000    1.0168564   -5.4844063    786.69699  0.044028262  0.044565062            3 
 1490000    1.0072877   -5.4877572    786.15373  0.043968329  0.044553212            3 
 1491000   0.99898986   -5.4870711    789.37651  0.044118964  0.044541411            6 
 1492000    1.0018066   -5.4960906     789.8557  0.044116158  0.044529511            2 
 1493000    1.0195124   -5.4678986     787.3246  0.043945334  0.044517682            3 
 1494000    1.0099897   -5.4750239    787.49064  0.043925181  0.044505579            2 
 1495000    1.0172743   -5.4941869    787.73706  0.043909535  0.044493412            3 
 1496000    1.0209438   -5.5012729    787.61938  0.043873629  0.044481344            2 
 1497000    1.0060873   -5.5245677    788.66741  0.043902661  0.044469773            5 
 1498000    1.0064892   -5.4971141      792.799  0.044103193  0.044458036            2 
 1499000   0.99145426   -5.4827933    793.77471  0.044128013  0.044446325            2 
 1500000    1.0123032   -5.4998592    791.57947  0.043976637  0.044434666            5 
 1501000    0.9999487   -5.4966854    793.33283  0.044044683  0.044423036            4 
 1502000   0.98676333   -5.4985482    789.46282  0.043800645  0.044411563            2 
 1503000    1.0091078   -5.5019009    793.58757  0.044000198   0.04439997            4 
 1504000    1.0018491   -5.4747782    792.97344  0.043936915  0.044388389            4 
 1505000    1.0207197   -5.4749259    792.44409   0.04387841  0.044376833            3 
 1506000    0.9965527   -5.5142956    790.29424  0.043730314  0.044365174            5 
 1507000     1.022481    -5.492699    795.06456  0.043965083  0.044353618            2 
 1508000    1.0181404   -5.4810569    794.82396  0.043922633  0.044342194            1 
 1509000    0.9947003   -5.5263486    792.11397  0.043743868  0.044330574            4 
 1510000    1.0132008   -5.4781971     794.3919  0.043840613  0.044318951            3 
 1511000   0.98841552   -5.4615446    796.92505  0.043951304  0.044307366            7 
 1512000    1.0128747   -5.5293543    794.52049  0.043789709  0.044295668            6 
 1513000    1.0306593   -5.5225892    795.48937  0.043814131  0.044283935            3 
 1514000    1.0049531   -5.4833628    798.69447  0.043961607  0.044272431            4 
 1515000    1.0204272   -5.5035133    794.91271  0.043724572  0.044261069            6 
 1516000    1.0073048   -5.5136274    796.03812  0.043757592  0.044249634            3 
 1517000    1.0103332   -5.5024259    795.88473  0.043720321  0.044238042            2 
 1518000    1.0024772   -5.5078952    798.22893  0.043820209  0.044226332            3 
 1519000    1.0079497   -5.5032615    798.94954  0.043830894  0.044214887            8 
 1520000    1.0066612   -5.4864998    796.79001  0.043683663  0.044203107            4 
 1521000   0.99877153    -5.479783     799.5889   0.04380829  0.044191682            7 
 1522000   0.98690893   -5.4918557    798.32879  0.043710512  0.044180175            2 
 1523000   0.99827919    -5.478509    802.07273  0.043886667  0.044168562            3 
 1524000    1.0013458   -5.5296229     798.0265  0.043636619  0.044156733            3 
 1525000   0.99722765   -5.4831159    800.75649  0.043757185  0.044144837            4 
 1526000    1.0228246   -5.4955683    799.04111  0.043634836  0.044133165            7 
 1527000    1.0035539   -5.4862947    799.70882  0.043642699  0.044121651            6 
 1528000    1.0082172   -5.4843826    801.96105  0.043736968  0.044110277            4 
 1529000   0.99646807   -5.5010048     799.2392  0.043560017   0.04409861            4 
 1530000   0.99786836   -5.5147668    797.15167  0.043417847  0.044086738            2 
 1531000    1.0158828   -5.5182651     798.2328  0.043448334  0.044074902            3 
 1532000    1.0020364   -5.5369091    797.61366  0.043386296  0.044062991            2 
 1533000    1.0011911   -5.4787605    804.23744  0.043718061  0.044051247            2 
 1534000    1.0190648   -5.5117889    799.70314  0.043443239  0.044039533            4 
 1535000    1.0127045   -5.4684361     802.7444  0.043580043  0.044027836            2 
 1536000     1.004243   -5.4969978    803.83602  0.043610895  0.044016295            6 
 1537000    1.0219049   -5.5195559    803.71544  0.043575984  0.044004565            2 
 1538000   0.99365992   -5.4896131    805.31846  0.043634507  0.043992885            1 
 1539000    1.0262664   -5.5393892    802.00377  0.043426672  0.043981022            9 
 1540000    1.0105236   -5.5029745    804.49495  0.043533276  0.043969145            3 
 1541000    1.0399211   -5.5382401    803.64829  0.043459241    0.0439573            7 
 1542000    1.0284824    -5.498506     804.6762  0.043486608  0.043945687            3 
 1543000    1.0179933   -5.5155995    804.94899  0.043473158  0.043934089            4 
 1544000    1.0194507    -5.518444    806.70996  0.043540045  0.043922466            3 
 1545000    1.0201775   -5.5124598    805.81755   0.04346373  0.043911016            4 
 1546000    1.0223557   -5.5090839    807.16937  0.043508483  0.043899518            5 
 1547000    1.0139863   -5.5064868    809.50242  0.043606034  0.043888174            4 
 1548000   0.99109814   -5.5014123    808.24756  0.043510312  0.043876764            4 
 1549000   0.99279951   -5.5005061    810.71416  0.043614922  0.043865461            2 
 1550000    1.0080743   -5.4910595    810.53955  0.043577395  0.043854119            7 
 1551000   0.98241355   -5.5372098    807.03226  0.043360856   0.04384272            5 
 1552000   0.99345408   -5.5234509    811.76737  0.043587166  0.043831462            3 
 1553000   0.99259261   -5.5182481    809.81267   0.04345421  0.043820307            1 
 1554000    1.0045961   -5.5487455    810.51584  0.043463955  0.043809187            3 
 1555000    1.0031776   -5.4900764    811.39798  0.043483279  0.043798054            2 
 1556000    1.0001832   -5.5226968    809.03007  0.043328517  0.043787236            3 
 1557000    0.9777985   -5.5058504    812.03339  0.043461432  0.043776184            4 
 1558000    1.0114873    -5.508396    811.16043  0.043386844  0.043765092            7 
 1559000    1.0013947   -5.5336717    809.55297   0.04327309  0.043753798            5 
 1560000   0.98477983   -5.5096305    814.07895  0.043487123  0.043742439            4 
 1561000    1.0373965   -5.5228161    808.96786  0.043186412  0.043731017            3 
 1562000   0.99715011   -5.5181583    814.84407  0.043472262  0.043719791            4 
 1563000    1.0008054   -5.4944621    816.04974   0.04350873   0.04370883            3 
 1564000     1.025413    -5.530347    813.53777  0.043347068   0.04369761            8 
 1565000    1.0066362   -5.5076107    814.95659   0.04339492  0.043686419            4 
 1566000    1.0051045   -5.5511305    814.12705  0.043323066  0.043675298            6 
 1567000   0.99432952   -5.5419713    817.20719  0.043459221   0.04366448            5 
 1568000    1.0021442    -5.525941    814.86482  0.043307016  0.043653504            4 
 1569000   0.96516077   -5.5214543    816.02559  0.043341066   0.04364245            4 
 1570000    1.0251804   -5.4967037    818.64629  0.043452563  0.043631717            2 
 1571000   0.98733621   -5.5256808    816.08079  0.043288818   0.04362101            6 
 1572000   0.99806506    -5.524265    816.98274  0.043309094  0.043610098            3 
 1573000      1.01361   -5.5297276    816.76575  0.043270065  0.043599067            2 
 1574000   0.99368754   -5.5563952    816.14957  0.043209952    0.0435877            3 
 1575000     0.981872    -5.525001    817.94756  0.043277649  0.043576544            4 
 1576000    1.0018826   -5.5189045    816.67545  0.043182923  0.043565473            5 
 1577000    0.9894898   -5.5067052     821.1488  0.043391925  0.043554575            2 
 1578000    1.0149284   -5.4984124    821.17534  0.043365829  0.043543808            4 
 1579000   0.99782218   -5.5251015    821.17813  0.043338512  0.043533078            4 
 1580000    1.0029769   -5.5458926    822.26319  0.043368312  0.043522246            2 
 1581000   0.97213797   -5.5314429    818.91503  0.043164402  0.043511195            5 
 1582000    1.0226119   -5.5027764    822.33423  0.043317226  0.043500312            5 
 1583000    1.0066734   -5.5012379    821.35766  0.043238453  0.043489473            5 
 1584000   0.99582447   -5.5192179    823.97133   0.04334866  0.043479038            3 
 1585000   0.98123211   -5.5121921    820.70151  0.043149396  0.043468491            2 
 1586000    1.0054716   -5.5155164    821.87115  0.043183646  0.043457549           10 
 1587000    1.0118648   -5.5216911    822.32783  0.043180416   0.04344673            4 
 1588000    0.9678937   -5.5364871    825.87685  0.043339465  0.043435773            4 
 1589000   0.99251167   -5.5505642    822.41584  0.043130682  0.043424818            4 
 1590000    1.0174536   -5.4936132    824.39396  0.043207231   0.04341402            3 
 1591000   0.99220805   -5.5440607    823.06599  0.043110517  0.043403322            3 
 1592000   0.99487377   -5.4963429    825.51576  0.043211671  0.043392626            4 
 1593000   0.98150977   -5.5548239    823.26021  0.043066552  0.043381886            4 
 1594000   0.99240137    -5.508395    825.98705  0.043182092  0.043371241            4 
 1595000    1.0029463   -5.5473212    825.56117  0.043132767   0.04336036            3 
 1596000    1.0032103   -5.5598083    825.15327  0.043084444  0.043349583            4 
 1597000    0.9996597   -5.5382899    825.81977  0.043092244  0.043338963            3 
 1598000   0.99676921    -5.535791    828.60509  0.043210528  0.043328275            4 
 1599000     1.002378    -5.515147    828.63709  0.043185173  0.043317807            4 
 1600000   0.96739964   -5.5371268    830.00524   0.04322944  0.043307303            5 
 1601000   0.99002383   -5.5602371    827.33464  0.043063431  0.043296675            3 
 1602000    1.0011047   -5.5362991    828.24307  0.043083805  0.043286062            4 
 1603000   0.99534892   -5.5466299    828.34296  0.043062121  0.043275498            3 
 1604000   0.98315543   -5.5471717    827.86751  0.043010573  0.043264943            3 
 1605000   0.99457262   -5.5486429    827.45108  0.042962153   0.04325429            5 
 1606000   0.97769186   -5.5496841    829.41472  0.043037294  0.043243651            3 
 1607000    0.9803553    -5.525284    831.10011  0.043097911  0.043232994            3 
 1608000    1.0149265   -5.5748424    826.72199  0.042844216  0.043222079            3 
 1609000    1.0062076   -5.5551011    828.87375  0.042929032  0.043211129            2 
 1610000   0.99211413   -5.5461422    830.29275  0.042975815  0.043200571            3 
 1611000    1.0013008   -5.5038034     831.5316  0.043013222  0.043189888            3 
 1612000   0.99302751   -5.5265041    831.16357  0.042967513  0.043179415            3 
 1613000   0.97580858   -5.5333177     831.5346  0.042960044  0.043168849            4 
 1614000    1.0142956   -5.5347839    831.54973  0.042934207  0.043157882            3 
 1615000   0.99617563   -5.5280896    835.16579   0.04309421  0.043147297            3 
 1616000    1.0147938   -5.5519169    830.91911  0.042848552  0.043136498            9 
 1617000   0.99956201   -5.5895183    829.88612  0.042768817  0.043125554            2 
 1618000   0.98186819   -5.5676852    830.14941  0.042755944  0.043114717            7 
 1619000    1.0030659   -5.5144823    832.86354  0.042869237  0.043103741            2 
 1620000   0.99157818   -5.5463912    832.57041  0.042827696  0.043092832            6 
 1621000    1.0061329   -5.5331973    831.92619  0.042768157  0.043082188            9 
 1622000   0.99768708   -5.5200898    831.69719  0.042730024  0.043071203            3 
 1623000    1.0080259   -5.5541471    831.72506  0.042705127  0.043060256            7 
 1624000   0.98123608   -5.5683016     834.7224  0.042832635  0.043049353            5 
 1625000      1.00709   -5.5496571    837.09483   0.04292794  0.043038444            6 
 1626000   0.99614538   -5.5331479    833.44777  0.042714625  0.043027859            1 
 1627000    1.0107526   -5.5418563    836.32454  0.042835717  0.043016769            3 
 1628000   0.95530764   -5.5387387    835.69061  0.042776956  0.043005922            4 
 1629000     1.005964   -5.5716177     834.6854  0.042699274   0.04299495            3 
 1630000    0.9990138   -5.5694516    835.26027  0.042702468  0.042984167            4 
 1631000   0.99394137   -5.5641711    838.13802   0.04282332  0.042973492            2 
 1632000   0.98599174   -5.5410752    837.07749  0.042742927  0.042962587            2 
 1633000   0.97435333   -5.5178066    841.55702  0.042945347  0.042951842            3 
 1634000    1.0216207   -5.5392141    835.72104  0.042621432   0.04294117            3 
 1635000   0.99214377   -5.5441719    838.10389  0.042716814  0.042930391            4 
 1636000    1.0080948   -5.5996686    835.68713  0.042567601  0.042919795            3 
 1637000   0.97991534   -5.5589986    837.51806  0.042634803  0.042909024            4 
 1638000   0.98064902   -5.5299145    837.65241  0.042615609  0.042898159            7 
 1639000   0.99218728   -5.5544531    838.74486  0.042645153  0.042887148            5 
 1640000     0.995495    -5.510166    840.72981  0.042720011  0.042876485            5 
 1641000   0.98781314   -5.5593816    839.41036  0.042626973  0.042865855            4 
 1642000   0.98835764   -5.5562219    838.85921  0.042573041  0.042855105            6 
 1643000   0.98158002   -5.5191323    840.31455  0.042620945  0.042844385            2 
 1644000    0.9790933   -5.5427278    842.42552  0.042702023  0.042833515            4 
 1645000   0.96285652   -5.5227547    842.39635  0.042674587  0.042822778            2 
 1646000   0.97238706   -5.5730826    839.67072  0.042510668  0.042811943            4 
 1647000   0.99411847   -5.5819418    842.08376   0.04260695  0.042800996            3 
 1648000   0.99309955   -5.5875073    838.49325  0.042399537   0.04279018            3 
 1649000    1.0011609   -5.5461296    841.59513   0.04253058  0.042779211            2 
 1650000   0.96438391   -5.5446795    842.73682  0.042562466  0.042768372            2 
 1651000   0.97910237   -5.5646683    841.63461  0.042481053  0.042757458            3 
 1652000   0.97600261   -5.5697792    841.49251  0.042448169  0.042746563            2 
 1653000   0.96675156   -5.5255104    843.64482  0.042530995  0.042735599            4 
 1654000   0.99569819   -5.5570196    842.60882  0.042453085  0.042724685            5 
 1655000    0.9898573   -5.5418091    844.81195  0.042538366  0.042713774            3 
 1656000   0.99897783   -5.5523856    842.64952   0.04240386  0.042702962            3 
 1657000   0.99597375   -5.5719479    844.15989  0.042454229  0.042692133            4 
 1658000   0.99994317   -5.5473302    845.56514  0.042499253  0.042681399            3 
 1659000   0.99283752    -5.541203    847.18477  0.042554991  0.042670612            4 
 1660000   0.98463816   -5.5707913    846.00754  0.042470258  0.042659786            4 
 1661000   0.97890445   -5.5958801    843.34678  0.042311197  0.042648985            2 
 1662000   0.98946116   -5.5486176    846.12167  0.042424873  0.042638133            3 
 1663000   0.98324527   -5.5520596    847.23176  0.042454989  0.042627304            4 
 1664000   0.98614166   -5.5397037    846.69384  0.042402536  0.042616266            3 
 1665000   0.98581349   -5.5381211    847.96618   0.04244075  0.042605495            3 
 1666000   0.99633592   -5.5416102     849.7001  0.042502006  0.042594738            4 
 1667000   0.96411981   -5.5335827    849.86272  0.042484639  0.042584172            3 
 1668000   0.95957756   -5.5266013    848.78489   0.04240532  0.042573716            6 
 1669000   0.97927362   -5.5003022    854.96174  0.042688323  0.042563501            2 
 1670000   0.99212784   -5.5312201      851.766  0.042503293  0.042553064            3 
 1671000    1.0024359   -5.5553431    851.27822  0.042453532  0.042542702            4 
 1672000   0.97606049   -5.5875451    849.15473  0.042322305  0.042532235            4 
 1673000   0.98633985     -5.56429    851.39073  0.042408384  0.042521881            4 
 1674000   0.96848749   -5.5552438    850.22136  0.042324839  0.042511478            4 
 1675000   0.99990588   -5.5935146    849.33025  0.042255236  0.042501099            4 
 1676000   0.96243147   -5.5877376    850.56272  0.042291305  0.042490764            3 
 1677000   0.97873884   -5.5287595     855.3215  0.042502559  0.042480571            3 
 1678000   0.99375699    -5.538713    855.58534  0.042490333  0.042470539            4 
 1679000   0.96893149   -5.5722886     856.7372  0.042522196  0.042460553            5 
 1680000   0.99486539   -5.5669653    858.16908  0.042567911  0.042450594            3 
 1681000   0.97059467   -5.5801474     855.3177  0.042401234  0.042440319            7 
 1682000   0.99139913   -5.5938083    854.46341  0.042333701  0.042430226            2 
 1683000   0.98809617   -5.5704388    855.77954  0.042373715  0.042420148            3 
 1684000    1.0031156   -5.5893097    855.23374  0.042321543  0.042409991            3 
 1685000   0.98259545   -5.5557893    855.02603  0.042286154  0.042399777            5 
 1686000    1.0023547   -5.5438265    856.63339  0.042340519  0.042389434            5 
 1687000   0.96626103   -5.5538259    857.20208  0.042343513  0.042379153            5 
 1688000    0.9871386   -5.5360521    858.50028  0.042382518  0.042368838            2 
 1689000   0.98651427   -5.5409183    858.86794  0.042375565  0.042358622            3 
 1690000    1.0016765   -5.5335897    860.02719  0.042407652  0.042348616            4 
 1691000   0.95814285   -5.5706033    856.50783  0.042209138  0.042338277            2 
 1692000    0.9798017   -5.5554277    856.35219  0.042176526   0.04232806           10 
 1693000   0.98340939   -5.6079026    854.32727  0.042051943  0.042317672            4 
 1694000   0.99332717    -5.550585    860.97788  0.042354284  0.042307537            5 
 1695000   0.97881615   -5.6012068    861.18503   0.04233948  0.042297332            3 
 1696000   0.96508423   -5.5869631    856.47861  0.042083265  0.042287099            3 
 1697000   0.98174419   -5.5841192    860.69625  0.042265579  0.042276836            2 
 1698000   0.97579363   -5.5605933    861.01069  0.042256119  0.042266751            5 
 1699000   0.97920615   -5.6157163    859.89864  0.042176704  0.042256613            2 
 1700000   0.98306574     -5.52137    863.55065  0.042330914  0.042246727            8 
 1701000    0.9844941   -5.5777658    864.01893   0.04232897  0.042236728            5 
 1702000   0.97077341   -5.5541895    865.30346  0.042366993  0.042226609            4 
 1703000   0.98876801   -5.5587705    863.57299  0.042257437  0.042216635            4 
 1704000   0.98343882   -5.5810786    863.22896  0.042215814   0.04220649            4 
 1705000   0.97837444   -5.5455038     861.6124  0.042112043  0.042196312            4 
 1706000   0.98946885   -5.5721358    862.03032  0.042107773  0.042186304            3 
 1707000   0.97766539   -5.5723005    865.58064  0.042256427  0.042176481            3 
 1708000   0.99401603   -5.5839284    860.82543   0.04199968  0.042166174           10 
 1709000   0.97528218   -5.5637821    865.48655  0.042202387  0.042155986            6 
 1710000   0.97738514   -5.5950249    861.51033  0.041983934  0.042145966            5 
 1711000    1.0099742   -5.5889667    864.48374  0.042104215  0.042135762            3 
 1712000   0.98527501   -5.5632152     864.8424  0.042097079  0.042125619            6 
 1713000   0.98530405   -5.5683049    863.20034  0.041992622  0.042115457            6 
 1714000   0.99116908     -5.57347    866.45659  0.042126439  0.042105402            3 
 1715000     0.931255   -5.5806911    864.61719  0.042012497    0.0420952            3 
 1716000   0.96351881   -5.5495771    865.99567  0.042054957  0.042085233            5 
 1717000   0.96588085   -5.5532182    865.90627  0.042026125  0.042075315            3 
 1718000   0.94384092   -5.5563504    866.38897  0.042025076  0.042065097            3 
 1719000    0.9667183    -5.537794     867.6028  0.042059472  0.042054852            5 
 1720000   0.98585794   -5.5646855    867.26141  0.042018479  0.042044624            4 
 1721000   0.97448874   -5.5783901     867.4026    0.0420009  0.042034384           11 
 1722000   0.99768909   -5.5405924    870.02242  0.042103292  0.042024191            5 
 1723000     0.985902     -5.53842    865.51166  0.041860692  0.042014042            4 
 1724000   0.97918367   -5.5851388    866.24193   0.04187171   0.04200385            3 
 1725000   0.98357432   -5.5733261    869.16052  0.041988431  0.041993675            7 
 1726000   0.95646736   -5.5869376    869.98225  0.042003778  0.041983396            2 
 1727000    0.9689182   -5.6373849    864.41977  0.041711048   0.04197289            5 
 1728000    0.9690187   -5.5865563    867.37335  0.041829347  0.041962358            4 
 1729000   0.97647602   -5.5715647    868.10399   0.04184037   0.04195191            6 
 1730000   0.96183189   -5.5642495    866.56975  0.041742281  0.041941506            3 
 1731000   0.96554538   -5.5545838      870.435  0.041904246  0.041931278            4 
 1732000   0.96598704   -5.5568989     869.5628  0.041838087  0.041920893            4 
 1733000   0.97437978   -5.6010032    869.59434  0.041815462  0.041910553            6 
 1734000   0.97819473   -5.5840945    867.77857  0.041704083  0.041900066            3 
 1735000   0.96473422   -5.5963927    870.91657  0.041830767  0.041889577            3 
 1736000   0.98083705   -5.5938192    869.00892  0.041715098   0.04187918            1 
 1737000   0.97720476   -5.5797027    867.26009  0.041607181  0.041868501            5 
 1738000   0.96939359   -5.5730155    870.13369  0.041721025  0.041857912            6 
 1739000   0.94940046   -5.5778736    869.13298  0.041649079  0.041847446            4 
 1740000   0.94916568   -5.6026564    870.94231  0.041711796  0.041836802            7 
 1741000    0.9648213   -5.5764143    872.53479  0.041764063  0.041826174            2 
 1742000   0.97962489   -5.5623337    872.85155   0.04175524  0.041815743            3 
 1743000    1.0052745   -5.6058776    869.85259  0.041587904  0.041805215            2 
 1744000   0.99057228     -5.57113     873.8155  0.041753416  0.041794638            5 
 1745000   0.99511758    -5.564677    872.72344  0.041677337  0.041784051            7 
 1746000   0.96450623   -5.5804658    871.54002  0.041596985  0.041773431            3 
 1747000   0.99426768   -5.5796066    873.20447   0.04165257  0.041762681            3 
 1748000   0.97491421   -5.5972378    872.80994  0.041609932  0.041752193            3 
 1749000   0.97941071     -5.57802    872.73358  0.041582503  0.041741727            5 
 1750000   0.97083796   -5.5634741    873.47902  0.041594239  0.041731188            2 
 1751000   0.97087508   -5.5644666    875.23946  0.041654267  0.041720833            3 
 1752000   0.97257163   -5.6129307    874.38485  0.041589843  0.041710447            5 
 1753000   0.95914501   -5.5952695    873.35834   0.04151732  0.041699853            2 
 1754000   0.97591006   -5.5894685    876.77005  0.041655741  0.041689331            3 
 1755000   0.99294545   -5.5681901    877.56944  0.041669964  0.041678743            4 
 1756000   0.96639449   -5.5925251     876.5793  0.041599245  0.041668323            3 
 1757000   0.99050239   -5.5767074    875.98407  0.041547338  0.041657762            3 
 1758000   0.98044588   -5.6180027    876.20596  0.041534222  0.041647299            2 
 1759000   0.99232246   -5.5719724    878.45509  0.041617164  0.041636836            2 
 1760000   0.96590735   -5.5830989    877.33798  0.041540624   0.04162629            5 
 1761000   0.96055021   -5.5734153    879.67441  0.041627598  0.041616013            2 
 1762000   0.98337262   -5.5585464    879.44976  0.041593349  0.041605892            2 
 1763000   0.97720861   -5.6400658    876.68895  0.041439259  0.041595695            5 
 1764000   0.99009367   -5.6197652    876.94986  0.041428092  0.041585233            3 
 1765000     0.972827   -5.5778319    877.83121  0.041446233  0.041574828            5 
 1766000   0.97260116   -5.5841311    878.58514   0.04145834  0.041564289            3 
 1767000   0.95310313   -5.5864348    879.45021  0.041475675  0.041553828            7 
 1768000   0.94912611    -5.565616    880.08509   0.04148214  0.041543299            2 
 1769000   0.97082283   -5.6230518    878.99058  0.041407131  0.041532833            6 
 1770000   0.96036886   -5.5721435    881.11561  0.041483786  0.041522379            3 
 1771000   0.96722471   -5.5609704    880.17863  0.041416273  0.041512141            3 
 1772000   0.94766161   -5.6031919    882.11955  0.041484177  0.041501888            4 
 1773000   0.97722121   -5.5742027    879.94204  0.041358434  0.041491542            8 
 1774000   0.98340327   -5.6057364    878.86546  0.041284548  0.041481295            4 
 1775000   0.96567007   -5.6057031    880.72095  0.041348401  0.041470827            5 
 1776000   0.96850581   -5.5878448    882.24533  0.041396646  0.041460325            5 
 1777000   0.95498527   -5.5817015    883.54977  0.041434523  0.041449898            4 
 1778000   0.97836475   -5.5639356    883.36496  0.041402557  0.041439643            7 
 1779000   0.94883156   -5.5931347    884.03405  0.041410626  0.041429274            4 
 1780000   0.96229018   -5.6007305    879.05036  0.041154043  0.041418891            2 
 1781000   0.96468259   -5.5932161    883.53979  0.041340997  0.041408333            2 
 1782000   0.95079662   -5.5914694    882.32658  0.041261064  0.041397709            4 
 1783000   0.98295713   -5.6377315    881.16034  0.041183415  0.041386947            2 
 1784000    0.9621726   -5.5795496    882.19791  0.041208796  0.041376202            5 
 1785000   0.96926458   -5.5944725    883.61681  0.041251952  0.041365814            2 
 1786000   0.96455481   -5.6281131     883.6594  0.041230842  0.041355162            2 
 1787000   0.96897214   -5.5890011    883.77459  0.041213141  0.041344561            7 
 1788000   0.96991553   -5.6238623    881.71409  0.041094057  0.041334042            5 
 1789000   0.96660014   -5.5611248    884.18934  0.041186386  0.041323437            7 
 1790000    0.9743543   -5.5657901    886.25031  0.041259325  0.041312866            3 
 1791000   0.96233621   -5.6216614    884.32307  0.041146616  0.041302251            6 
 1792000   0.97094717   -5.6174458    883.35623  0.041078694  0.041291505            5 
 1793000   0.95836833   -5.6278996     885.1026  0.041136949  0.041280805            5 
 1794000   0.95546458   -5.6056301    883.65624  0.041046834  0.041270013            3 
 1795000   0.96435928   -5.6288942    883.18195  0.041001947  0.041259357            3 
 1796000   0.97311812   -5.6044455     882.8491  0.040963674  0.041248717            4 
 1797000   0.96228345   -5.5952954    887.38089  0.041151034  0.041237982            2 
 1798000   0.97155565   -5.5974067    887.17786  0.041118737  0.041227357            4 
 1799000   0.95231351   -5.5945916     886.8927  0.041082671  0.041216777            4 
 1800000   0.96210939    -5.620677    886.62612  0.041047505  0.041206164            4 
 1801000   0.97268312    -5.572693     886.7581  0.041030821  0.041195409            5 
 1802000   0.94642471   -5.6150265    887.30595  0.041033387  0.041184729            6 
 1803000   0.96033791   -5.5848044    888.13647  0.041049014  0.041174012            5 
 1804000    0.9486385    -5.569252    890.17151  0.041120266    0.0411634            5 
 1805000   0.95243902   -5.5923424    888.06417  0.041000192  0.041152796            4 
 1806000   0.96000451    -5.592842     889.2888  0.041033998  0.041142276            4 
 1807000    0.9453868   -5.5966165    891.62028   0.04111881  0.041131806            5 
 1808000   0.97428707   -5.6053539    888.18498   0.04093773  0.041121154            3 
 1809000   0.96310945   -5.6060861    887.10667  0.040865426  0.041110345            7 
 1810000   0.93927416   -5.6121145     887.0362  0.040839604  0.041099733            5 
 1811000   0.93622504   -5.5916303    889.83066  0.040945641  0.041089214            5 
 1812000   0.97027352   -5.5825373     891.3512  0.040992973  0.041078958            6 
 1813000   0.96767318   -5.6137234    889.95693  0.040906276  0.041068335            8 
 1814000   0.94716131   -5.5849238    893.60537  0.041051331   0.04105767            3 
 1815000   0.97855315   -5.6138265    892.45463  0.040975878  0.041047122            5 
 1816000   0.98173246   -5.5810856    894.54254  0.041049125  0.041036533            2 
 1817000   0.97606543   -5.6227651    891.36253  0.040880688  0.041025933            3 
 1818000   0.94792821   -5.6230926    892.34522  0.040903246  0.041015518           10 
 1819000   0.94830884   -5.5773518    892.96952   0.04090936   0.04100491            3 
 1820000   0.96571466   -5.6137226     889.7059   0.04073745  0.040994648            6 
 1821000   0.97846536    -5.613727    893.22973  0.040876338  0.040984035            2 
 1822000   0.97061864   -5.6326445    893.30769  0.040857469  0.040973282            4 
 1823000   0.96781106   -5.6154812    894.55516  0.040892081  0.040962818            6 
 1824000   0.94655304   -5.6370729    892.01364  0.040753547   0.04095224            4 
 1825000   0.96779149   -5.6095507    892.16077  0.040737935  0.040941596            7 
 1826000   0.95325542   -5.6338739    893.46073  0.040774951  0.040931016            3 
 1827000   0.97260555   -5.5940251    895.54549  0.040847724   0.04092057            2 
 1828000   0.93861269   -5.6220849    894.63581  0.040783908  0.040910037            6 
 1829000   0.96040825   -5.6374694    895.10175  0.040782839   0.04089937            7 
 1830000   0.96361326   -5.6144934    895.17445  0.040763864  0.040888961            3 
 1831000   0.96996758   -5.5839034     898.0835  0.040873999    0.0408785            2 
 1832000   0.95825316   -5.5967285    898.26054  0.040859741  0.040868209            2 
 1833000   0.95858022   -5.6094607    899.43966  0.040891056  0.040857825            3 
 1834000   0.94989248   -5.6184289    897.18721  0.040766413  0.040847342            3 
 1835000   0.93636589   -5.6562565    899.04485  0.040828558  0.040836825            3 
 1836000   0.95759407   -5.5942751    898.62558   0.04078729  0.040826432            2 
 1837000   0.97110947   -5.5860915    899.53191  0.040806202  0.040815979            5 
 1838000   0.94693623   -5.6297587     899.5084  0.040782934  0.040805627            2 
 1839000   0.95356051   -5.6399784    895.66384  0.040586543  0.040795282            5 
 1840000    0.9396541     -5.61467    897.89575  0.040665568  0.040784757            3 
 1841000   0.97998035   -5.5916064    899.54804  0.040718271  0.040774361            4 
 1842000   0.96162779   -5.6326482    901.27816  0.040774437  0.040764062            4 
 1843000   0.97016309   -5.5889113    900.65829  0.040724285  0.040753772            3 
 1844000    0.9490879   -5.6143982    899.47605  0.040648773  0.040743316            2 
 1845000   0.96087862   -5.6244701    899.81312  0.040641966   0.04073296            3 
 1846000   0.96506578   -5.6234782    899.52673  0.040607021  0.040722681            3 
 1847000   0.94893793   -5.6465853    901.44158   0.04067143  0.040712396            5 
 1848000   0.96090268   -5.6470215    902.08764  0.040678555  0.040702319            7 
 1849000   0.96382496   -5.6454647    900.61375  0.040590127  0.040692104            2 
 1850000   0.94591242   -5.6354276    903.78614  0.040711087  0.040682099            3 
 1851000   0.95087095   -5.6287052    901.14073  0.040569995  0.040671938            6 
 1852000   0.94947244    -5.619031     903.9746  0.040675603  0.040661835            9 
 1853000   0.93668154   -5.6292346    903.72185  0.040642285  0.040651691            4 
 1854000   0.95555107   -5.6172711    906.67676  0.040753181   0.04064163            5 
 1855000   0.93313574   -5.5960794     906.7283  0.040733527  0.040631681            5 
 1856000   0.95159752   -5.6231557    908.81927  0.040805463  0.040621714            9 
 1857000   0.94123909   -5.5674945    908.97758  0.040790593  0.040611739            2 
 1858000   0.96586882   -5.6354714    908.24204   0.04073565  0.040601962            6 
 1859000   0.95896112    -5.613403    905.39058  0.040585914  0.040591948            2 
 1860000   0.95130718   -5.6238707    907.51914   0.04065946  0.040581958            6 
 1861000   0.95935926    -5.619518     906.8402  0.040607209  0.040571857            3 
 1862000   0.97386554   -5.6115583     905.6866  0.040533772  0.040561919            5 
 1863000   0.96295683   -5.6476148    908.32151  0.040629876  0.040552117            2 
 1864000   0.94116666   -5.6333801    908.32646    0.0406083  0.040542118            6 
 1865000   0.94729085   -5.6639339    906.84264  0.040520225  0.040532045            5 
 1866000   0.94763096   -5.6588349    910.63487  0.040667867  0.040522042            3 
 1867000   0.94239939   -5.6220549    907.37638  0.040500642  0.040512013            4 
 1868000   0.96583299    -5.610924    909.40406  0.040569418  0.040502115            5 
 1869000   0.95360831   -5.6505489    909.33916  0.040544817   0.04049205            6 
 1870000   0.92665705   -5.6192885     909.6827  0.040538445  0.040482176            5 
 1871000   0.95823762   -5.6274542    913.37028  0.040681021  0.040472311            5 
 1872000   0.95194785   -5.6375075    910.30345  0.040522767  0.040462436            6 
 1873000   0.95000452   -5.6732601    910.09931   0.04049205  0.040452679            4 
 1874000   0.96531924   -5.6037772    912.72596  0.040587245  0.040442817            3 
 1875000   0.97580663   -5.6241925    913.80663  0.040613628  0.040433066            4 
 1876000   0.92727629   -5.6679062    911.01801  0.040468106   0.04042317            4 
 1877000   0.97057442   -5.6256668    912.79241  0.040525325  0.040413223            3 
 1878000   0.94763521   -5.6118401    913.69566  0.040543826    0.0404036            5 
 1879000   0.93292229   -5.6213789    918.62136  0.040740702  0.040393926            3 
 1880000     0.952742   -5.6456708    914.90505  0.040554302  0.040384027            7 
 1881000   0.96716419   -5.6318189    913.77065  0.040482485  0.040374281            5 
 1882000   0.93890264   -5.6060257    918.24868  0.040659258  0.040364765            4 
 1883000   0.94650937   -5.6170765    915.30341   0.04050732  0.040355163            3 
 1884000    0.9355655   -5.6497207    915.08743  0.040476266  0.040345474            3 
 1885000   0.92578396   -5.6649214    914.12933  0.040412437  0.040335728            4 
 1886000   0.94688822   -5.6497818    914.08785  0.040389177  0.040325942            5 
 1887000   0.95608526   -5.6434234    914.90887  0.040404031  0.040315959            9 
 1888000   0.96795248   -5.6377115    914.93607  0.040383831  0.040306135            4 
 1889000   0.94309559   -5.6754215    913.51652  0.040299829    0.0402961            6 
 1890000   0.93549411   -5.6728368    911.73349  0.040199889  0.040286219            3 
 1891000    0.9548604   -5.6332939    916.39315  0.040383975  0.040276382            3 
 1892000   0.94241401   -5.6273504    918.18712  0.040441646  0.040266659            5 
 1893000    0.9658304   -5.6233079    915.90245  0.040319706  0.040256806            5 
 1894000   0.94575356    -5.640002    917.24267  0.040357386   0.04024718            4 
 1895000   0.93426354   -5.6276308    918.54491  0.040393356  0.040237559            3 
 1896000   0.95296187   -5.6079416    918.83465  0.040384786  0.040227856            6 
 1897000   0.95070066   -5.6564492    919.97755  0.040413704  0.040218239            3 
 1898000   0.93419504   -5.6332267    920.58265  0.040418978  0.040208525            4 
 1899000   0.95289165   -5.6562302    917.56975   0.04026548  0.040198681            3 
 1900000   0.96394629   -5.6517542    919.88199  0.040345701  0.040188919            3 
 1901000   0.94241526   -5.6443719     916.1427   0.04016056  0.040179275            3 
 1902000   0.93387411    -5.671963    917.36716  0.040193093  0.040169375            7 
 1903000   0.96720317   -5.6304137    919.35969  0.040259226  0.040159492           11 
 1904000   0.93290565   -5.6431526    918.47104  0.040199188  0.040149701            7 
 1905000   0.92513514   -5.6497725    918.41392  0.040175587  0.040139659            9 
 1906000    0.9509268    -5.630004    919.61842  0.040207171  0.040129787            4 
 1907000   0.94666407   -5.6259574     920.7845  0.040237043  0.040120031            2 
 1908000   0.96038347   -5.6421047    920.95751  0.040223511  0.040110322           12 
 1909000   0.92792123    -5.617531    921.55582  0.040228559  0.040100426            4 
 1910000   0.94917397   -5.6190212    924.17292  0.040321681  0.040090675            4 
 1911000   0.93719851   -5.6022433    919.01973  0.040075865  0.040080584            4 
 1912000   0.94764444   -5.6558962    920.22641  0.040107497  0.040070559            2 
 1913000   0.94364047   -5.6271474     920.3908  0.040093692  0.040060552            3 
 1914000   0.93527765   -5.6691777    921.92086  0.040139362  0.040050554            4 
 1915000   0.95788113   -5.6581035    921.93934  0.040119206   0.04004069           12 
 1916000   0.93503369   -5.6572307    921.16702  0.040064676  0.040030762            5 
 1917000   0.94789166   -5.6531468    920.40426  0.040010618   0.04002082            4 
 1918000   0.95105715   -5.6396185    921.76231  0.040048762   0.04001083            6 
 1919000   0.93737243   -5.6545257    923.70028   0.04011205  0.040000775            7 
 1920000   0.95661643   -5.6492352    922.47168  0.040037833  0.039990942            4 
 1921000   0.94391653   -5.6214966    923.10276  0.040044368  0.039981068            3 
 1922000   0.91683882   -5.6543054    921.21192   0.03994155  0.039971073            7 
 1923000   0.94586596   -5.6407781    923.05907  0.040000826  0.039961102            6 
 1924000   0.95582313   -5.6674835    919.73446  0.039836039  0.039951006            2 
 1925000   0.92767077   -5.6212143    923.50634  0.039978629  0.039940982            2 
 1926000   0.94486761   -5.6568424    925.98705  0.040065206   0.03993102            4 
 1927000   0.93881045   -5.6474337    926.40631  0.040062546  0.039921293            4 
 1928000   0.97212968   -5.6762834    923.72208  0.039925747  0.039911482           10 
 1929000   0.92457322   -5.6286773    927.80066  0.040081245  0.039901688            5 
 1930000   0.94627864   -5.6692436    924.56961  0.039920968  0.039891791            4 
 1931000   0.93754268   -5.6626688    925.95376  0.039960028  0.039881897            4 
 1932000   0.95660243   -5.6588539    924.82777  0.039890777  0.039872037            4 
 1933000   0.94709602    -5.663379    925.06484   0.03988036  0.039861994            4 
 1934000    0.9494238   -5.6497398    929.14434  0.040035519  0.039852061            6 
 1935000   0.90562874   -5.6181218    927.58368  0.039947618  0.039842093            6 
 1936000   0.94513477   -5.6569607    926.39136  0.039875661  0.039832099            9 
 1937000   0.95203433   -5.6317507    927.28637   0.03989358  0.039822078            3 
 1938000   0.93721131   -5.6389059    928.45783  0.039923367   0.03981213           10 
 1939000   0.94225192   -5.6673621    927.20256  0.039848829  0.039802023            8 
 1940000   0.94647878   -5.6370915    929.19476  0.039913864  0.039792007            5 
 1941000   0.95111769   -5.6445182    929.78853  0.039918793   0.03978208            3 
 1942000   0.94335914   -5.6116265     927.3637  0.039794186  0.039772084            4 
 1943000   0.95690991   -5.6540984    927.89126  0.039796331  0.039761917            2 
 1944000   0.95867402   -5.6934571    922.54564  0.039546709  0.039751876            5 
 1945000   0.93078769   -5.6732409     924.8405    0.0396247  0.039741533            5 
 1946000    0.9373338   -5.7169039     924.1539  0.039574936  0.039731144            5 
 1947000   0.95613247   -5.6410453    929.85051   0.03979843  0.039720879            4 
 1948000   0.93216768   -5.6837377    928.25445  0.039709722  0.039710495            2 
 1949000   0.93534372   -5.6556301    928.97565  0.039720184  0.039700382            5 
 1950000   0.92156182   -5.6823267     927.2701  0.039626928  0.039690276            6 
 1951000   0.92902111   -5.6477913    931.19879  0.039774423  0.039680228            6 
 1952000   0.96212787   -5.6404759    930.88605  0.039740695  0.039670153            3 
 1953000   0.95153628   -5.6489086    927.73914   0.03958607  0.039660071            9 
 1954000   0.93565294   -5.6474011    930.24137  0.039672525   0.03964994            5 
 1955000    0.9472513   -5.6827563    927.71253  0.039544439   0.03963978            5 
 1956000   0.93304454   -5.6576647    932.69804  0.039736624  0.039629529            5 
 1957000   0.92639816   -5.6603784    932.93646  0.039726472  0.039619539            7 
 1958000   0.93671497   -5.6675579     931.6813  0.039652762  0.039609673            8 
 1959000   0.94064553   -5.6824734    928.88985  0.039513776  0.039599569            8 
 1960000   0.95957613   -5.6421015    933.36868  0.039684043   0.03958952            3 
 1961000   0.93914978   -5.6864877    931.59821  0.039588569  0.039579507            6 
 1962000   0.92796768   -5.6739304    931.46872  0.039562891  0.039569559            2 
 1963000   0.93552592   -5.6660571    933.07965  0.039611125  0.039559433            3 
 1964000   0.92421484   -5.6420247    935.31373  0.039685749   0.03954947            3 
 1965000    0.9459911   -5.6588844    932.34037  0.039539456  0.039539449            3 
 1966000   0.93441795   -5.6619615    934.25586  0.039600537  0.039529415            6 
 1967000   0.95898858   -5.6232103    934.86123  0.039606051  0.039519437            8 
 1968000   0.94879774   -5.6911366    933.14661  0.039513322  0.039509442            8 
 1969000   0.94058561   -5.6435036     936.5101  0.039635606  0.039499481            3 
 1970000   0.92541908   -5.6676627    934.78968  0.039542711  0.039489583            2 
 1971000   0.95005768   -5.6844343    935.35564  0.039546577  0.039479623            5 
 1972000    0.9413583    -5.646484    934.24321  0.039479514  0.039469594            3 
 1973000   0.93267447   -5.6443073    935.70805  0.039521374  0.039459604            6 
 1974000   0.93471614    -5.688105    931.70194  0.039332233  0.039449549            5 
 1975000   0.94487877   -5.6578133    932.90071  0.039362899  0.039439371            4 
 1976000   0.94792753   -5.6652252    937.86285  0.039552246  0.039429269            6 
 1977000   0.93265566   -5.6824163    935.15909  0.039418272   0.03941909            3 
 1978000   0.94416758   -5.6867281     935.1473  0.039397847   0.03940886            5 
 1979000   0.94027881   -5.6699506    935.25438  0.039382448   0.03939876            6 
 1980000   0.94120317    -5.685666    935.26783  0.039363124  0.039388706            7 
 1981000   0.93228848   -5.6968595    935.09979  0.039336185   0.03937871            4 
 1982000   0.94067728   -5.6959398    934.19323  0.039278222  0.039368542            2 
 1983000   0.92208183   -5.6098622    939.40671  0.039477505  0.039358429            7 
 1984000   0.95184826    -5.688629    935.16843  0.039279588  0.039348452            3 
 1985000   0.93303564   -5.6503272    938.08397  0.039382199  0.039338333            5 
 1986000   0.93944448   -5.6341223    942.74016  0.039557744   0.03932839            3 
 1987000   0.92084804   -5.6741998    938.61064  0.039364647  0.039318508            3 
 1988000   0.95034544   -5.6682287    937.92781  0.039316223  0.039308431            8 
 1989000   0.93239078   -5.6726602    936.67953  0.039244157  0.039298241            5 
 1990000   0.94334886   -5.7135794    935.84737  0.039189588  0.039287945            2 
 1991000   0.94314884   -5.6772096     935.2718  0.039145814  0.039277652            8 
 1992000   0.93418773   -5.6689332    938.27143   0.03925165  0.039267547            6 
 1993000   0.94468952   -5.6634305    941.66997  0.039374058  0.039257512            3 
 1994000    0.9288903   -5.6500635    937.80252  0.039192683  0.039247298            3 
 1995000    0.9365801   -5.6890224     936.2951  0.039110071  0.039237081            3 
 1996000   0.92643349   -5.6840042    937.20578  0.039128498   0.03922692            3 
 1997000   0.93936366   -5.6678986    940.16798  0.039232515  0.039216738            4 
 1998000   0.93578455   -5.6656133    938.58054  0.039146669  0.039206616            3 
 1999000   0.93810927   -5.7023597    939.52611  0.039166504  0.039196481            2 
 2000000   0.94458421   -5.6647996     941.2635  0.039219313  0.039186353            3 
 2001000   0.92957724   -5.6800288    939.30264  0.039118051   0.03917637            4 
 2002000   0.93056687   -5.7005995    939.71199  0.039115551  0.039166301            8 
 2003000   0.94779253   -5.6867637    942.89347  0.039228385  0.039156188            8 
 2004000   0.92857081   -5.6706191    940.56547  0.039112004  0.039146037            2 
 2005000   0.94021479   -5.6613493    940.06737  0.039071794  0.039135926            5 
 2006000   0.92074077   -5.6907781    940.83207  0.039084084  0.039125689            6 
 2007000   0.93253479   -5.6836317    940.54664  0.039052759  0.039115456            8 
 2008000   0.93240729   -5.6847312    942.53892  0.039115991  0.039105282            3 
 2009000   0.92950775   -5.6699014    942.55318  0.039097112  0.039095183            9 
 2010000   0.93043344   -5.6515483      944.843  0.039172595  0.039085006            4 
 2011000   0.92505182   -5.6801217    940.50762  0.038973464  0.039075129            9 
 2012000   0.94364813   -5.6972097    941.36542  0.038989621  0.039064985            3 
 2013000   0.95075887   -5.6812367    945.66941  0.039148427   0.03905493            4 
 2014000   0.95434865   -5.6672877    943.17415  0.039025743  0.039044818            3 
 2015000   0.91848141   -5.6941413    943.69446  0.039027893  0.039034829            5 
 2016000   0.93023581   -5.6650078    945.54584  0.039085063  0.039024795            6 
 2017000   0.92190263   -5.6758575    947.04322   0.03912755  0.039014813            2 
 2018000   0.90133631   -5.6961725    945.61712   0.03904927  0.039004852            5 
 2019000   0.92290166    -5.684968    944.11429    0.0389679  0.038995023            4 
 2020000   0.92031261   -5.6828931    947.92222  0.039105702  0.038985049            3 
 2021000   0.92226718   -5.6929764    945.69533  0.038994529  0.038975177            3 
 2022000   0.93464453   -5.7130542    946.53359  0.039009792  0.038965358            4 
 2023000   0.90708133   -5.7043916    947.11324  0.039014386  0.038955416            2 
 2024000   0.93723089   -5.6610716    946.69469  0.038977877  0.038945521            7 
 2025000   0.91199155   -5.6931341     950.4242  0.039112107  0.038935644            3 
 2026000   0.92705722   -5.6741192     949.7116  0.039063491  0.038925849            6 
 2027000   0.93492285   -5.6801805    950.72996  0.039086086   0.03891621            6 
 2028000     0.915041   -5.6952229    952.76505  0.039150437   0.03890637            5 
 2029000   0.92862647   -5.6572165    951.97524  0.039098704  0.038896716            8 
 2030000   0.93971538   -5.6962149    951.25041  0.039049688  0.038887206            4 
 2031000   0.92204418   -5.6822516    951.94561  0.039058986  0.038877551            2 
 2032000   0.92144444   -5.6915545    954.29416  0.039136079  0.038867898            3 
 2033000   0.92602604    -5.724392    947.26791  0.038828821  0.038858111            4 
 2034000   0.93147651   -5.6755504    950.82747  0.038955567  0.038848335            6 
 2035000   0.94003991    -5.656956    954.65222  0.039093047  0.038838679           11 
 2036000    0.9264833   -5.6804668    953.76812  0.039037661  0.038829088            6 
 2037000   0.92478982   -5.6841737    951.97832  0.038945276   0.03881938            7 
 2038000   0.91495019   -5.6748011    951.05075  0.038888238  0.038809603            5 
 2039000   0.92030879   -5.6975597    951.50985  0.038887929  0.038799821            3 
 2040000   0.92666993   -5.6799891     952.0119  0.038889375  0.038790011            7 
 2041000    0.9274165   -5.6993209     952.1168  0.038874604  0.038780204            6 
 2042000   0.92987066    -5.665894    954.55565  0.038955095   0.03877053            3 
 2043000   0.92139314     -5.68595    954.96059  0.038952545  0.038760762            7 
 2044000   0.93422985   -5.6878162    955.58641  0.038959002  0.038751122            7 
 2045000   0.93071658   -5.6582107    957.97523  0.039037296  0.038741473            5 
 2046000   0.92622652   -5.7102988    953.73596  0.038845551  0.038731651            6 
 2047000   0.93433351   -5.6730416    957.17001  0.038966374  0.038721934            2 
 2048000   0.94010001   -5.6971093    953.57102  0.038800904  0.038712127            4 
 2049000   0.94005514   -5.6890379    953.39727  0.038774901  0.038702339            6 
 2050000   0.91516209   -5.6848149    957.82503  0.038935977  0.038692625            4 
 2051000   0.91280945   -5.7066619    954.91214  0.038798641  0.038683093            4 
 2052000   0.93592764   -5.6839984    956.85055  0.038858453  0.038673551            5 
 2053000   0.90988227   -5.7147024    957.60457  0.038870132  0.038664107            3 
 2054000    0.9031958   -5.7246166    958.17011  0.038874152  0.038654595            3 
 2055000   0.91067674   -5.6717532     959.9918  0.038929108  0.038645186            5 
 2056000   0.92423073   -5.6375703    963.22607  0.039041264  0.038635986           13 
 2057000   0.91971496   -5.6342827    961.57216  0.038955281  0.038626714            5 
 2058000   0.92341043    -5.689862    959.31591  0.038844992  0.038617384            2 
 2059000   0.90642936   -5.6991452    958.98117  0.038812578  0.038607916            3 
 2060000   0.91059405   -5.7085133    960.43157   0.03885241   0.03859852            4 
 2061000   0.92613292   -5.7287648    960.19163  0.038823857  0.038588903            7 
 2062000   0.93871797   -5.6663105    959.77566  0.038788218  0.038579475            3 
 2063000   0.94216649   -5.7120843    959.28485   0.03874959  0.038570036            3 
 2064000   0.92545303   -5.6775953     957.5472  0.038660659  0.038560527            4 
 2065000   0.91601865   -5.6996982    959.99327  0.038740648  0.038550973            8 
 2066000   0.89917657   -5.6943934    958.03172  0.038642777  0.038541564            5 
 2067000    0.9094419   -5.6809876    961.82933  0.038777186  0.038532097            4 
 2068000   0.90244247   -5.7118224    961.12632  0.038730106  0.038522485            5 
 2069000   0.93366968   -5.7127515    961.68671  0.038733958  0.038512884            4 
 2070000   0.91372495   -5.6869092    962.49715  0.038747872  0.038503472            3 
 2071000   0.90974649   -5.6625057    963.30998  0.038761869   0.03849409            4 
 2072000    0.9229579   -5.6751993    962.83113  0.038723903  0.038484722            5 
 2073000   0.91813309   -5.7203512    962.96916  0.038710772  0.038475317            7 
 2074000   0.90369072   -5.6937579    963.87385  0.038728458  0.038465893            8 
 2075000   0.92893988   -5.6717372     963.4358  0.038692201  0.038456574            4 
 2076000   0.93011028   -5.6799848    967.56674  0.038839384   0.03844729            5 
 2077000   0.91921107   -5.6935723    964.77269  0.038708582  0.038437921            4 
 2078000    0.9324673    -5.685464    967.98123  0.038818625  0.038428583            3 
 2079000   0.92813285   -5.7043989    967.31635  0.038773303  0.038419357            4 
 2080000   0.90745154   -5.6834831    963.43304   0.03859908  0.038410237            2 
 2081000   0.91498434   -5.7006965    965.19475  0.038651079  0.038401068           10 
 2082000   0.91215997   -5.6892123    968.58292  0.038768128   0.03839193           17 
 2083000   0.89928457   -5.6747634    969.46496  0.038784804  0.038382727            5 
 2084000   0.90884793   -5.7036643    966.57225  0.038650522   0.03837348            5 
 2085000   0.92268802   -5.6896887    968.79662  0.038720888  0.038364273            5 
 2086000   0.92602225   -5.6729775    967.24545  0.038640358  0.038355053           11 
 2087000   0.92776355   -5.7111844    969.99616  0.038731678  0.038345813            3 
 2088000   0.92224327   -5.7139699    969.89854  0.038709233  0.038336525            3 
 2089000   0.91659756   -5.7160836    965.84168  0.038528869  0.038327314            4 
 2090000   0.90092277    -5.687174    971.66438  0.038742599  0.038318084            4 
 2091000   0.90676376   -5.7255273    967.00627  0.038538429  0.038308746            5 
 2092000   0.93890826   -5.7319866    967.01068  0.038520183  0.038299415            6 
 2093000   0.90029669   -5.7098901    969.24862  0.038590883  0.038290146            6 
 2094000    0.9091189   -5.7478208    966.55991  0.038465453  0.038281007            6 
 2095000   0.92430201   -5.7035565    968.53274  0.038525567  0.038271836            3 
 2096000   0.91585159   -5.7119035    967.56234  0.038468604  0.038262533            7 
 2097000   0.92140356   -5.7223878    969.66149  0.038533679  0.038253169            5 
 2098000   0.91628734   -5.6983703    970.52733  0.038549703  0.038243991           10 
 2099000   0.89044572   -5.7062413     969.6938  0.038498245  0.038234753            5 
 2100000   0.91751255   -5.7332782    973.12479  0.038616063  0.038225494            2 
 2101000   0.91737801   -5.7288036     970.9667  0.038512086  0.038216167            1 
 2102000   0.92053919   -5.7244677    970.14664  0.038461253   0.03820706            5 
 2103000   0.92273275   -5.7065535    971.54137  0.038498231   0.03819779            5 
 2104000   0.92385417   -5.7420764    970.07234   0.03842175  0.038188587            5 
 2105000   0.91754199   -5.7170462    971.08533    0.0384436  0.038179267            9 
 2106000   0.92358816   -5.7042048    975.19582  0.038587996  0.038170127           11 
 2107000   0.90341869   -5.7274602    972.73832  0.038472485  0.038160982            1 
 2108000   0.91796018    -5.745122    973.78075  0.038495444  0.038151762           11 
 2109000   0.91227672   -5.7044257    975.44223  0.038542841  0.038142621            5 
 2110000   0.93147983    -5.713923    971.99859   0.03838857  0.038133303            4 
 2111000   0.91174067    -5.708824    973.41955  0.038426478  0.038124015            5 
 2112000   0.90512126   -5.7013845    976.35505   0.03852411  0.038114853            5 
 2113000   0.92093179   -5.6964886    975.88338  0.038487276  0.038105634            8 
 2114000   0.91626082   -5.7039709    972.56834  0.038338393  0.038096415            5 
 2115000   0.91502737   -5.6819319    976.15606  0.038461626  0.038087232            5 
 2116000   0.89563946   -5.6955328     975.8569  0.038431667  0.038078175            3 
 2117000   0.92851055   -5.7304505    977.34772  0.038472198  0.038069104            3 
 2118000   0.91649556   -5.7176787    975.48681  0.038380815  0.038059913            4 
 2119000   0.92638864   -5.7127903    973.34967  0.038278656  0.038050638            4 
 2120000   0.91388859   -5.6956616    976.68543  0.038391723   0.03804144            8 
 2121000   0.89305275   -5.7227554    976.52742  0.038367414  0.038032231            6 
 2122000   0.88383726   -5.6957058    979.34629  0.038460033  0.038022961            5 
 2123000   0.94222033   -5.7247376    976.16899    0.0383172  0.038013894            7 
 2124000   0.89867279   -5.7077184     975.6314  0.038278068  0.038004658            6 
 2125000   0.92171905    -5.757175    976.78021  0.038305106  0.037995372            3 
 2126000   0.90486541   -5.7048947    981.11769  0.038457106  0.037986208            3 
 2127000   0.91143785    -5.717283    975.42212   0.03821588   0.03797716            5 
 2128000   0.88948586   -5.7296332    977.21606  0.038268173  0.037967959            6 
 2129000   0.90608727   -5.7366747    977.01438  0.038242304  0.037958756            7 
 2130000   0.91696988   -5.7126464    979.59207  0.038325199  0.037949526            6 
 2131000   0.90567249   -5.7048479     978.6537  0.038270518  0.037940345            3 
 2132000   0.89718426   -5.7095592     981.9615   0.03838186  0.037931096            4 
 2133000   0.91039011   -5.7069748    978.65349  0.038234626  0.037921926            6 
 2134000   0.91407883   -5.7167142     972.3527  0.037970661  0.037912777           10 
 2135000   0.90120349    -5.740616    977.49011    0.0381534  0.037903576            3 
 2136000   0.91853915   -5.6783426    978.11706  0.038159998  0.037894479            3 
 2137000   0.89663567   -5.7479231    979.21978  0.038185142  0.037885382            5 
 2138000   0.90849308   -5.7617847    978.99766  0.038158624   0.03787627            4 
 2139000   0.91344397   -5.7123976    980.95396     0.038217  0.037867176            3 
 2140000   0.90480388    -5.718934    981.85723  0.038234316  0.037858105            7 
 2141000   0.91189052   -5.6818445    984.61098  0.038323641  0.037849076            8 
 2142000    0.9193062   -5.7140474    981.73453  0.038193842  0.037839947            6 
 2143000   0.90337751   -5.7035729    977.96806  0.038029556  0.037830743            6 
 2144000   0.91222728   -5.7415261    979.69163   0.03807881  0.037821479            5 
 2145000   0.91019033   -5.7345836     980.7727  0.038103057  0.037812282            9 
 2146000   0.89736286   -5.7671479    981.92105  0.038129895  0.037802875            9 
 2147000   0.91779945   -5.7215871    980.49678  0.038056854  0.037793577            5 
 2148000   0.89070689   -5.7030441    983.09438  0.038139912  0.037784532            6 
 2149000   0.91213395   -5.7212685     979.7332  0.037991826  0.037775431            4 
 2150000   0.90358645   -5.7472677    980.93391  0.038020694   0.03776625            7 
 2151000   0.89659829   -5.7196779    987.57018  0.038260119  0.037757177            3 
 2152000   0.91791907   -5.7177338    984.28764  0.038115228  0.037747995           10 
 2153000   0.91281407   -5.7624957    981.65004  0.037995434  0.037738889            6 
 2154000   0.89506276   -5.7455184    985.85945  0.038140647  0.037729745            3 
 2155000   0.89425884   -5.7402609    982.07773   0.03797671  0.037720655            7 
 2156000   0.88958035   -5.7556288    981.96767  0.037954842   0.03771157            2 
 2157000   0.91234606   -5.7184945    983.61327  0.038000822  0.037702329            4 
 2158000   0.88548194   -5.6884954    987.46801  0.038132067  0.037693255            4 
 2159000    0.9171977   -5.7379981    984.10025  0.037984416  0.037684297            2 
 2160000     0.912762   -5.7327141    985.13901  0.038006906  0.037675127            3 
 2161000   0.90216253   -5.7467457    982.55082  0.037889512  0.037665894            5 
 2162000   0.91279879   -5.7215545     986.1461  0.038010565  0.037656697           13 
 2163000   0.91067804   -5.7615661    985.12511  0.037953656  0.037647491            5 
 2164000   0.90777879   -5.7203086    985.31822  0.037943555  0.037638183            4 
 2165000   0.93011781   -5.7137329    984.85014  0.037908012  0.037628807            7 
 2166000   0.90302698   -5.7370323    986.27606   0.03794537  0.037619474            7 
 2167000   0.88751788   -5.7535113    985.95805   0.03791563  0.037610064            5 
 2168000   0.90740524   -5.7502138    984.55714  0.037844294  0.037600707            4 
 2169000   0.91018855   -5.7349706    985.83277  0.037875856  0.037591296            6 
 2170000   0.91487512   -5.7050945    986.79342  0.037895293  0.037581939            9 
 2171000   0.92034808   -5.7223218    985.81547  0.037840299  0.037572608            5 
 2172000   0.90677084   -5.7053526    987.13422  0.037873474  0.037563294            9 
 2173000   0.91013509   -5.7254792    989.05956   0.03792988  0.037554002            7 
 2174000   0.91941276   -5.7602686     985.0768  0.037759767  0.037544693            3 
 2175000   0.91517578   -5.7037649    991.04436  0.037971048   0.03753539            7 
 2176000    0.8990302   -5.7387489    985.91067  0.037756995  0.037526067            4 
 2177000   0.88119146   -5.7030144    986.62647  0.037767052  0.037516681            3 
 2178000   0.89931222   -5.7422464    984.32613  0.037661698  0.037507266           11 
 2179000   0.89968321   -5.7390095    984.53073  0.037652238  0.037497748            4 
 2180000   0.92226096   -5.7211378    984.64295  0.037639257  0.037488371            3 
 2181000   0.90180216   -5.7306868    984.11532  0.037601839  0.037478929            6 
 2182000   0.88824107   -5.7770059    983.98078  0.037579468  0.037469485            6 
 2183000   0.91980339   -5.7426777    987.17076  0.037684027  0.037459884            4 
 2184000   0.88652124   -5.7350073    986.76628  0.037651338   0.03745048            7 
 2185000    0.9034135   -5.7426982    987.14959  0.037648726  0.037440909            3 
 2186000   0.91054193   -5.7638272    984.62808   0.03753538  0.037431236            4 
 2187000   0.89247674   -5.7351995    986.00323  0.037570615  0.037421617            6 
 2188000   0.90978244   -5.7254525    988.19377  0.037636874  0.037412068            3 
 2189000   0.91297436   -5.7357284    985.05212  0.037500081  0.037402404            3 
 2190000   0.91405007   -5.7350197    988.37077  0.037609238   0.03739289            8 
 2191000   0.89549346   -5.7323342    986.73412  0.037529824  0.037383289            8 
 2192000   0.89575546   -5.7147439    987.12252  0.037527468  0.037373676            4 
 2193000   0.90360314   -5.7152406    990.45557   0.03763701  0.037364048            7 
 2194000   0.89736693   -5.7584659    986.58271  0.037472756  0.037354434            5 
 2195000   0.90243732   -5.7665198     986.8711  0.037466632  0.037344763            4 
 2196000   0.88527615   -5.7410365    989.29303  0.037541478  0.037335223            4 
 2197000   0.90267072   -5.7443566    985.49699  0.037380405  0.037325603            7 
 2198000   0.88867243   -5.7645221    989.63313  0.037520213  0.037315932            4 
 2199000   0.90785721   -5.7571897    987.88956  0.037437076  0.037306245            5 
 2200000   0.91101246   -5.7719402    988.33022  0.037436751  0.037296561            3 
 2201000   0.91242678   -5.7326364    988.42649  0.037423387  0.037286949            2 
 2202000   0.91116045   -5.7283161    989.38434  0.037442641  0.037277385            3 
 2203000   0.88158968   -5.7173521    988.70374  0.037399899  0.037267853            3 
 2204000   0.89959249   -5.7603695    990.53687  0.037452241   0.03725835            5 
 2205000    0.8881444   -5.7249529    989.55189   0.03739803  0.037248686            6 
 2206000   0.90359501   -5.7683376    991.52433  0.037455588  0.037239124            4 
 2207000   0.91378704   -5.7934295    990.07468   0.03738388  0.037229477            5 
 2208000   0.90782303   -5.7727856    988.56156  0.037309842  0.037219896            4 
 2209000   0.91768921   -5.7517062    991.95206  0.037420856  0.037210377            3 
 2210000   0.93547874   -5.7434778    993.23547  0.037452318   0.03720114            5 
 2211000   0.88635186   -5.7458216    993.65593  0.037451226  0.037191879            6 
 2212000   0.91864059   -5.7844905    992.04758  0.037373703   0.03718266            3 
 2213000   0.88000007   -5.7534552    992.39029   0.03736972   0.03717317            6 
 2214000   0.90592273   -5.7438571    994.51608  0.037432854  0.037163729            7 
 2215000   0.90290709   -5.7758295    991.61272  0.037306724   0.03715423            5 
 2216000   0.91152853   -5.7602963    993.97945   0.03737889  0.037144783            5 
 2217000   0.90845733   -5.7512867     991.3682  0.037263877  0.037135445           10 
 2218000   0.90907782   -5.7424178    993.93748  0.037343609  0.037125995            5 
 2219000   0.90836964   -5.7618973    993.91021  0.037325755  0.037116544            4 
 2220000   0.91347806    -5.773428    995.40172  0.037364929   0.03710713           13 
 2221000    0.8999306   -5.7410152    995.04954  0.037334892  0.037097704            7 
 2222000    0.8899021    -5.743016    995.97414  0.037352766  0.037088249           10 
 2223000   0.88792101   -5.7796141    993.38688  0.037238974  0.037078818            4 
 2224000   0.89692573   -5.7508064    997.38528   0.03737205  0.037069409            6 
 2225000   0.89429051   -5.7595722     996.1009   0.03730715  0.037060021            4 
 2226000   0.90263564   -5.7550634    998.38712  0.037375978  0.037050622            6 
 2227000    0.8967916   -5.7501161    996.51798  0.037289252  0.037041226            3 
 2228000   0.91160396    -5.766034    995.40933  0.037231049  0.037031809            6 
 2229000   0.88540645   -5.7398005    998.87896  0.037344062  0.037022538            3 
 2230000   0.90845766   -5.7450931    999.82169  0.037362544   0.03701327           15 
 2231000   0.90030296   -5.7924809    995.80962  0.037195937  0.037003914            4 
 2232000   0.89159029   -5.7404766    995.65566  0.037173524  0.036994585            8 
 2233000   0.91268202    -5.752556    998.32024  0.037256316  0.036985244            5 
 2234000   0.89954754   -5.7520891    998.81521  0.037258102  0.036975888            4 
 2235000   0.89066096   -5.7577765    999.15536  0.037254115   0.03696661            4 
 2236000   0.91025135   -5.7836128    993.15573  0.037013854  0.036957282            9 
 2237000   0.89410611   -5.7323236     1000.072  0.037254955  0.036947863            3 
 2238000   0.89884262   -5.7722644    994.80561  0.037042211  0.036938558            6 
 2239000   0.90145987   -5.7175706    1000.5551  0.037239656  0.036929179            6 
 2240000   0.89279396   -5.7376548    999.16415  0.037171285  0.036919799            2 
 2241000   0.90444193   -5.7716672    994.95736  0.036998266  0.036910395            4 
 2242000   0.90907279   -5.7820686    996.47852  0.037038304  0.036900945           10 
 2243000   0.88800994   -5.7744303    1000.1155  0.037156912  0.036891509            3 
 2244000   0.89600982   -5.7755507    994.62723  0.036936543  0.036882089            4 
 2245000   0.87612554   -5.7641391    1001.4046  0.037171663  0.036872625            5 
 2246000    0.8813029   -5.7679022    999.21977  0.037074049   0.03686307            4 
 2247000   0.86311493   -5.7530117    998.76688  0.037040754  0.036853556            7 
 2248000   0.88319456   -5.7873607    999.05742  0.037035047  0.036844064            7 
 2249000   0.88602041   -5.7745104     998.4948  0.036997732  0.036834431            5 
 2250000   0.89801022   -5.7655066     997.9938  0.036962733  0.036825059            2 
 2251000   0.91400106    -5.794123    997.57435  0.036930784  0.036815645           10 
 2252000   0.90173253   -5.7782799    1001.6296  0.037064446  0.036806213            5 
 2253000   0.89533709   -5.7328733    1004.6787  0.037160775  0.036796922            3 
 2254000   0.88284115   -5.7571319    1006.0221  0.037193956  0.036787498            8 
 2255000   0.89575475   -5.7509543    1002.7155  0.037055266  0.036778229            7 
 2256000   0.88946532   -5.7327125    1004.9758  0.037122334  0.036768956            5 
 2257000   0.88535617   -5.7513244    1002.0003  0.036996022  0.036759712            6 
 2258000   0.87993622    -5.769666    1004.5874  0.037075118  0.036750395            8 
 2259000   0.89896932   -5.7712349    1004.7432  0.037064455   0.03674109            4 
 2260000   0.90950946   -5.7689388    999.98638  0.036872654  0.036731784            4 
 2261000   0.89262661   -5.7380099    1004.0615  0.037006543  0.036722428            5 
 2262000    0.8789723   -5.7479049    1006.4589  0.037078505  0.036713023            4 
 2263000    0.8891404    -5.781949    1002.6085  0.036920329  0.036703667            4 
 2264000   0.90230658   -5.7870936    1003.1891  0.036925395  0.036694466            7 
 2265000   0.88979172   -5.7622077    1002.5366  0.036885084  0.036685051            5 
 2266000   0.90336703   -5.7940322    1001.8177   0.03684237  0.036675604            5 
 2267000   0.89239686   -5.7501826    1003.9919  0.036906041  0.036666371            5 
 2268000   0.90766947   -5.7642871    1004.1427  0.036895309  0.036656998            7 
 2269000   0.88822789   -5.7693634    1001.3782  0.036777516   0.03664745            6 
 2270000   0.90089859   -5.7749716    1004.2854   0.03686804  0.036638021            3 
 2271000   0.88802945   -5.7824325    1003.6334  0.036827882   0.03662864            7 
 2272000   0.89866229   -5.7718133    1004.9894  0.036861406   0.03661921            5 
 2273000   0.87484552   -5.7568239    1007.4237  0.036934437  0.036609811            4 
 2274000    0.8953722   -5.7539963    1001.4821  0.036700458  0.036600507            4 
 2275000   0.87817355   -5.7646144    1006.6904  0.036875106  0.036591077            4 
 2276000   0.89031394   -5.8092793    1004.8527   0.03679162  0.036581551            6 
 2277000   0.88030344   -5.7762926    1004.8631   0.03677584  0.036572005            4 
 2278000   0.89413189   -5.8041511    1004.9951  0.036764526  0.036562613            4 
 2279000   0.87704989   -5.7755798    1007.3508  0.036834532  0.036553217            7 
 2280000   0.89861353   -5.7784594    1006.1242  0.036773545  0.036543856           21 
 2281000   0.87605336   -5.7588097    1006.8639  0.036784448  0.036534457            5 
 2282000   0.88375271   -5.7904537    1003.0711  0.036629824  0.036525067            5 
 2283000   0.87770788   -5.7876908    1006.9278  0.036754556  0.036515574            5 
 2284000   0.87887717   -5.7720365    1008.4719  0.036794801  0.036506116            6 
 2285000   0.91865861   -5.7894949    1006.0629  0.036690843   0.03649677            3 
 2286000   0.90198549   -5.7840171    1008.0384  0.036746807  0.036487387            7 
 2287000   0.88940854   -5.7499848    1008.8689  0.036760999  0.036478081            4 
 2288000   0.89492189   -5.7972214    1006.1165  0.036644688  0.036468768            3 
 2289000   0.89826303    -5.793587    1008.5331  0.036716657   0.03645925            6 
 2290000   0.88946071    -5.780453    1007.5271  0.036664015  0.036449827            3 
 2291000   0.88366613   -5.7721332    1007.3482  0.036641501  0.036440292            6 
 2292000   0.87276776   -5.7749914    1007.2341  0.036621369  0.036430906            5 
 2293000   0.89753244   -5.8199102    1005.5589  0.036544515  0.036421372            7 
 2294000   0.89266588   -5.7808302    1006.9546  0.036579288  0.036411814            5 
 2295000   0.89857011   -5.7959785    1007.1052  0.036568816  0.036402194            4 
 2296000   0.87339406   -5.7856078    1009.5396  0.036641247  0.036392772            5 
 2297000   0.88636531   -5.7666247    1005.4669  0.036477538  0.036383383           15 
 2298000    0.9017293   -5.7764221    1010.4157  0.036641125   0.03637406            3 
 2299000   0.88682394   -5.7913308    1010.8816  0.036642076  0.036364769            3 
 2300000   0.86239038   -5.7781435    1010.3948  0.036608508  0.036355388            4 
 2301000   0.89603184   -5.7698002    1008.8811  0.036537779  0.036346034            7 
 2302000   0.87554222   -5.7706201    1012.2033   0.03664217  0.036336755            9 
 2303000   0.88153757   -5.7841707    1012.4826  0.036636365  0.036327351            5 
 2304000   0.89848716   -5.7922256    1010.8234  0.036560454  0.036317975            4 
 2305000   0.87958519   -5.7504392    1015.5097  0.036714015  0.036308669            6 
 2306000   0.87183742   -5.7550436    1014.5594  0.036663754  0.036299408            3 
 2307000   0.88698328    -5.801284     1009.974  0.036482229   0.03629007            3 
 2308000   0.88225329   -5.7853623    1011.0056  0.036503669  0.036280697            6 
 2309000   0.87051702   -5.7760069    1012.1841  0.036530392  0.036271332            6 
 2310000   0.88976765   -5.7962645    1006.5857  0.036312616  0.036261865            5 
 2311000   0.88260595   -5.7721899    1011.0602  0.036458251  0.036252359            4 
 2312000     0.880884   -5.7468626    1013.5643  0.036532738  0.036242919            4 
 2313000   0.88713042   -5.7816485    1011.2664  0.036434156  0.036233507            3 
 2314000   0.88463019   -5.7699466    1009.7266  0.036362957    0.0362241            4 
 2315000   0.88032965   -5.7934726     1010.824  0.036386755   0.03621468            4 
 2316000   0.86784342   -5.8066449    1014.5346  0.036504556  0.036205256            6 
 2317000   0.89514673   -5.7947575    1011.6682  0.036385708  0.036195855            8 
 2318000   0.88182884   -5.7671674    1013.6577  0.036441533   0.03618648            5 
 2319000   0.87442513   -5.7988825    1011.4459  0.036346338  0.036176945            5 
 2320000   0.85755532   -5.8229091    1010.4366   0.03629442  0.036167428           11 
 2321000   0.86918374   -5.8064116    1012.1903  0.036341744  0.036157849            3 
 2322000   0.87154988   -5.8211473    1011.6066  0.036305146  0.036148314            8 
 2323000   0.88672542    -5.804085    1013.7082  0.036364909  0.036138807            9 
 2324000   0.88006161   -5.7981881    1012.6994   0.03631309  0.036129332            6 
 2325000   0.87262525   -5.7919985    1014.1547  0.036349631   0.03611995            4 
 2326000   0.86550096   -5.8057248    1016.7684  0.036427644  0.036110554            4 
 2327000   0.89462583   -5.8031426    1012.1892  0.036248001  0.036101146            6 
 2328000   0.87951263   -5.7822095    1016.1156   0.03637298   0.03609178            6 
 2329000   0.89082035   -5.8257427      1013.52  0.036264492  0.036082443            5 
 2330000   0.88135086   -5.8026013    1014.6543  0.036289497   0.03607302            8 
 2331000   0.88751537   -5.7916478    1015.0825  0.036289235  0.036063603           10 
 2332000   0.89194862   -5.7857243    1016.2466  0.036315272  0.036054234            4 
 2333000   0.85941086   -5.8014071    1016.4537  0.036307104  0.036044857            4 
 2334000   0.87128172    -5.785206    1015.6954  0.036264474  0.036035501            2 
 2335000   0.88142724   -5.7922502    1017.0155  0.036296057  0.036026054            6 
 2336000   0.87055755   -5.8004454    1015.9038  0.036240861  0.036016515            5 
 2337000   0.88129098   -5.8265965    1014.9925  0.036192857  0.036006972            7 
 2338000   0.85975432   -5.7746051    1017.8502  0.036279236  0.035997523            8 
 2339000   0.88154183    -5.800426    1017.5399  0.036252669  0.035988237            8 
 2340000   0.85703579   -5.7910184    1016.4883  0.036199725  0.035978721            7 
 2341000   0.85032422   -5.8286694    1018.7886  0.036266148  0.035969165            7 
 2342000   0.87218449   -5.8005791    1015.3729  0.036129123   0.03595969            5 
 2343000   0.90285346   -5.7970642    1016.2419  0.036144612  0.035950217            6 
 2344000   0.86898338   -5.7810337    1017.5966  0.036177353  0.035940765            4 
 2345000   0.87719711   -5.7590833    1017.5852  0.036161522  0.035931457            5 
 2346000   0.87630738   -5.7611853    1022.0319   0.03630406  0.035922137            4 
 2347000   0.89925908   -5.8020519    1018.4099   0.03615999  0.035912897            3 
 2348000   0.87451103   -5.7698767    1018.4346  0.036145463  0.035903577            3 
 2349000   0.87655322   -5.7912022    1020.5529  0.036205226  0.035894223            4 
 2350000   0.88596879   -5.8002342    1018.2708  0.036108895  0.035884845            5 
 2351000   0.86828737   -5.8116542     1018.058  0.036085991  0.035875504           12 
 2352000   0.88481685   -5.7798626    1020.4083  0.036153923  0.035866261            5 
 2353000   0.89854849   -5.7854659    1021.5068  0.036177461  0.035857023            6 
 2354000    0.8761533   -5.8181417    1016.2083  0.035974523   0.03584765            7 
 2355000   0.86346217   -5.7987976    1018.9825  0.036057414  0.035838333            7 
 2356000   0.86832444   -5.7962691    1022.2398   0.03615732  0.035828894            7 
 2357000    0.8816527   -5.8254849    1019.2912  0.036037731  0.035819466            7 
 2358000   0.87264432    -5.827164    1019.1731  0.036018274   0.03581009           10 
 2359000   0.89505172   -5.7887938    1019.7645  0.036023897  0.035800645            5 
 2360000   0.88807492   -5.7910176    1020.4239  0.036031919   0.03579142            2 
 2361000   0.88508178    -5.829172    1020.3704  0.036014766  0.035782164            4 
 2362000   0.86675314   -5.7965994    1022.9498  0.036090523  0.035772822            4 
 2363000   0.90169598   -5.7834579     1021.433   0.03602176  0.035763572            3 
 2364000   0.89654565   -5.7977643    1020.8317  0.035985325  0.035754302            5 
 2365000   0.89800896    -5.818161    1022.4269  0.036026317  0.035745122            5 
 2366000   0.87337998     -5.78513    1024.1123  0.036070451  0.035735849            3 
 2367000   0.87367459   -5.8023185    1020.7541  0.035936983  0.035726496            6 
 2368000   0.88184931   -5.8257519    1024.1283  0.036040551  0.035717237            4 
 2369000   0.86498721   -5.7956365    1024.2865  0.036030904  0.035707961           11 
 2370000   0.86152737   -5.8212611    1025.0098  0.036041131   0.03569872            8 
 2371000   0.87441694   -5.7913939     1025.957  0.036059224  0.035689489           14 
 2372000   0.86440456   -5.8151004    1023.6664  0.035963546   0.03568027            5 
 2373000   0.87284604   -5.8473553    1020.6742  0.035843314   0.03567084            5 
 2374000   0.86899891   -5.8306835     1025.497  0.035997507  0.035661478            4 
 2375000   0.87271278   -5.8048298    1023.7169  0.035919892  0.035652153            5 
 2376000   0.88222606   -5.8361525    1025.4837  0.035966739  0.035642958            2 
 2377000   0.86212325   -5.8245313    1022.9525  0.035862871  0.035633652            5 
 2378000   0.84125113   -5.8115965     1021.591  0.035800077  0.035624295            6 
 2379000   0.85640812   -5.7896828    1023.2196  0.035842077  0.035615001            6 
 2380000   0.86052098   -5.8219106    1025.9718  0.035923383  0.035605664            4 
 2381000   0.87286168   -5.8253712    1022.5457  0.035788384   0.03559637            6 
 2382000    0.8749962   -5.8419103    1021.1959  0.035726138  0.035587013            6 
 2383000   0.86417023   -5.7985755     1024.808  0.035837458  0.035577754            6 
 2384000   0.86254574   -5.7955246    1025.6225  0.035850897  0.035568511           12 
 2385000   0.87581379   -5.7946689    1024.6648  0.035802403  0.035559225            5 
 2386000    0.8622784   -5.8217725    1025.1119  0.035803013  0.035549841            4 
 2387000   0.86672943   -5.8186723     1025.032  0.035785227  0.035540548            3 
 2388000   0.86423945   -5.8025902    1026.4649  0.035820244  0.035531267            5 
 2389000   0.85834087   -5.7917461    1026.9258  0.035821328  0.035521977            8 
 2390000   0.86083757   -5.8654622     1021.378  0.035612902  0.035512647            7 
 2391000   0.86843268   -5.8358849    1025.9099  0.035755955  0.035503264            5 
 2392000   0.88119862    -5.836982    1027.5696  0.035798828  0.035493938            8 
 2393000   0.87128213    -5.811739    1026.3996  0.035743127  0.035484558            4 
 2394000    0.8792108   -5.8384355    1024.1454  0.035649727  0.035475216           15 
 2395000   0.86215479   -5.8511003    1025.0047  0.035664744  0.035465876            8 
 2396000   0.87303027   -5.8241307    1027.9375   0.03575186  0.035456623            7 
 2397000   0.84416102   -5.8084001    1029.8907  0.035804848  0.035447292            3 
 2398000   0.87231253   -5.8111515    1028.4448  0.035739671  0.035437994           13 
 2399000   0.85592923    -5.844668    1024.4066  0.035584501  0.035428611            5 
 2400000   0.86071863   -5.8384718    1027.9167  0.035691551  0.035419272            8 
 2401000   0.89757097   -5.8103786    1029.4409  0.035729587  0.035410049            6 
 2402000   0.87780256   -5.7968693    1030.9343  0.035766525  0.035400846            4 
 2403000    0.8693285   -5.8563007    1026.1187  0.035584641  0.035391536            5 
 2404000   0.87035727    -5.813266    1027.1936  0.035607099  0.035382263            6 
 2405000   0.87373601   -5.8360629    1029.4498  0.035670472  0.035372885            4 
 2406000   0.88850989   -5.8003305    1029.3751  0.035653059  0.035363559            6 
 2407000   0.85716299   -5.8387814    1027.8464   0.03558532  0.035354215            5 
 2408000   0.86395017   -5.8373065    1027.7774  0.035568156  0.035344947            4 
 2409000   0.85198599   -5.8045215    1028.9996  0.035595668  0.035335541            4 
 2410000   0.88102156   -5.8355748    1028.2895  0.035556347  0.035326167            5 
 2411000   0.85217964    -5.816628    1028.7771  0.035558451  0.035316878            8 
 2412000   0.86426483   -5.8075567    1029.2828  0.035561181  0.035307591            4 
 2413000   0.88093839   -5.8197372    1030.6205  0.035592639  0.035298252            5 
 2414000   0.85030387   -5.7905388    1029.2991  0.035532282  0.035288953            6 
 2415000   0.87562171   -5.8556232    1028.1605  0.035478278  0.035279637            3 
 2416000   0.85624256    -5.829182    1030.5256  0.035545173  0.035270325            5 
 2417000   0.85214065   -5.8393035    1027.9509  0.035441695  0.035261034            2 
 2418000     0.886758   -5.8283297    1030.5433   0.03551638  0.035251757            6 
 2419000     0.865839   -5.8230542    1032.2774  0.035561436  0.035242414            8 
 2420000   0.87099099    -5.778803    1032.1212  0.035541362  0.035233218            5 
 2421000   0.87557561   -5.8490554    1030.8084  0.035481495  0.035223922            7 
 2422000   0.85218603   -5.8405377    1031.2668  0.035482617  0.035214532           11 
 2423000   0.86731514   -5.8254075    1030.5922  0.035444772   0.03520528            6 
 2424000   0.87367448   -5.8032261    1031.6288  0.035465785  0.035195952            3 
 2425000   0.85218752   -5.8450857    1027.5003  0.035309289  0.035186577            5 
 2426000   0.86613081   -5.8153567    1031.2892  0.035424885  0.035177259            6 
 2427000   0.86518638   -5.9066357    1024.9694  0.035193291  0.035167739           10 
 2428000   0.87836463   -5.8288377    1033.6172  0.035475604  0.035158304           10 
 2429000   0.85463611   -5.8350961    1035.7469  0.035534064  0.035149033            9 
 2430000   0.88182084   -5.8360746    1032.0295  0.035391958  0.035139628            3 
 2431000   0.88222709   -5.8491516    1029.6248  0.035294966  0.035130174            6 
 2432000   0.88187326   -5.8248569    1036.9271   0.03553067  0.035120797            4 
 2433000   0.86540947   -5.8032115    1032.5875  0.035367431  0.035111552            5 
 2434000   0.85614075   -5.8357489    1032.4528   0.03534829  0.035102354            6 
 2435000   0.85591108   -5.8201818    1036.3441  0.035466943  0.035093176           10 
 2436000    0.8827296   -5.8314478    1038.9707  0.035542239  0.035084059            5 
 2437000   0.84059542   -5.8299521    1033.9094  0.035354582  0.035074889           10 
 2438000   0.86112755   -5.8511235    1033.8932  0.035339526  0.035065596            5 
 2439000   0.85550566   -5.8357975    1030.8611  0.035221441  0.035056312            6 
 2440000   0.86153077   -5.8170664    1034.9377  0.035346235   0.03504705            3 
 2441000   0.86584053     -5.86939    1031.4262  0.035211872  0.035037756            4 
 2442000   0.83652435   -5.8286731    1035.0219  0.035320157  0.035028453            5 
 2443000   0.85057143   -5.8236642    1034.9877  0.035304534  0.035019126            4 
 2444000   0.83504133   -5.8183948    1039.1199  0.035430984  0.035009981            5 
 2445000   0.87975821   -5.8254439    1033.9655  0.035240815  0.035000858            4 
 2446000   0.85842878   -5.8369277    1034.2758  0.035236977  0.034991583            3 
 2447000   0.86381713   -5.8180062    1036.6228  0.035302505  0.034982435            3 
 2448000   0.86171769   -5.8298884    1037.9353  0.035332766  0.034973319            2 
 2449000   0.87615054   -5.8319772    1036.1403  0.035257257  0.034964163           11 
 2450000   0.86244191   -5.8506497    1035.9322   0.03523579  0.034954934            6 
 2451000   0.87835884   -5.8450439    1033.9329  0.035153439  0.034945702            7 
 2452000   0.87059123   -5.8627756    1034.0842  0.035144243  0.034936424            8 
 2453000   0.85745066    -5.850658    1035.9174  0.035192195  0.034927309            6 
 2454000   0.86034003   -5.8097098    1037.5449  0.035233118  0.034918197            4 
 2455000   0.84842049   -5.8505209    1041.0997  0.035339433  0.034909115           17 
 2456000   0.86723049   -5.8547206    1037.0067  0.035186168  0.034899969            8 
 2457000   0.86139078    -5.829175     1038.738  0.035230567  0.034890763            5 
 2458000   0.87060369   -5.8111263    1040.5403  0.035277336  0.034881644           11 
 2459000   0.85214585   -5.8401775    1036.7729  0.035135317  0.034872425            6 
 2460000    0.8464089   -5.8606324    1036.7346  0.035119736  0.034863269            4 
 2461000   0.87440779   -5.8504111    1038.8167  0.035175968  0.034854091            5 
 2462000   0.86493657    -5.837025    1036.6501  0.035088348  0.034844854            4 
 2463000   0.85044814   -5.8438836    1036.5796  0.035071715  0.034835653            9 
 2464000   0.85207346   -5.8615125    1038.9145  0.035136448  0.034826475            4 
 2465000   0.86846052   -5.7948042    1040.2524  0.035167423   0.03481735            3 
 2466000   0.85897866   -5.8549353    1040.1862  0.035150926  0.034808284           12 
 2467000   0.84516691   -5.8313812    1038.4807  0.035079068  0.034799274            6 
 2468000   0.86109072   -5.8488533    1043.8365  0.035245696   0.03479025            6 
 2469000   0.85428108   -5.8346208    1041.4634  0.035151322  0.034781199            3 
 2470000   0.87394385   -5.8171065    1043.0385  0.035190233   0.03477215            6 
 2471000    0.8404642   -5.8037024    1045.5018  0.035259066  0.034763061            4 
 2472000   0.85816383   -5.8258708    1040.9267   0.03509057  0.034754009            8 
 2473000    0.8575413   -5.8940843    1038.0133  0.034978206  0.034744923            3 
 2474000   0.85135381   -5.8707421    1040.1001  0.035034362  0.034735864            5 
 2475000   0.86550505   -5.8734031    1041.7235  0.035074865  0.034726758            6 
 2476000   0.85738743   -5.8404507    1042.7081  0.035093839  0.034717671            4 
 2477000   0.86754995   -5.8455576    1043.2111  0.035096591  0.034708647            4 
 2478000   0.87195269    -5.871911    1039.3434   0.03495236   0.03469961            6 
 2479000   0.83764351   -5.8479393    1042.3085  0.035037934  0.034690563            8 
 2480000   0.86741374   -5.8326536    1040.6024  0.034966478  0.034681555            4 
 2481000   0.84459856   -5.7823702    1046.3334  0.035144881  0.034672644            7 
 2482000   0.85487924    -5.859389    1041.1648  0.034957186  0.034663572            5 
 2483000   0.84921734   -5.8532143    1045.5734  0.035091066  0.034654526            4 
 2484000   0.86516875   -5.8630438    1041.9002  0.034953711  0.034645555            7 
 2485000   0.86566145   -5.8605572    1044.8841   0.03503971   0.03463646            6 
 2486000   0.85943229   -5.8630057    1044.2499  0.035004356  0.034627365           11 
 2487000   0.86557336   -5.8627758    1044.1587  0.034987223   0.03461827            6 
 2488000   0.84144067   -5.8519496    1045.1335   0.03500581  0.034609159            7 
 2489000   0.84643911   -5.8566185    1042.8217  0.034914346  0.034600118            4 
 2490000   0.85106952   -5.8236679    1045.2131   0.03498036  0.034591076            5 
 2491000   0.82604151   -5.8676722    1042.1968   0.03486541  0.034582096            6 
 2492000   0.86392114   -5.8550878    1044.9999  0.034945155  0.034573056            7 
 2493000   0.85320655   -5.8363747    1046.4921  0.034981016  0.034564059            3 
 2494000   0.83851668    -5.821235    1047.4379  0.034998594  0.034555109            5 
 2495000   0.83597957   -5.8366874    1047.9704  0.035002351  0.034546058            7 
 2496000   0.86497656    -5.850514     1046.423  0.034936665  0.034537066            3 
 2497000   0.84971115   -5.8692452    1044.1666  0.034847372  0.034528044            5 
 2498000   0.86897311   -5.8918737    1044.9738  0.034860349  0.034518956            5 
 2499000   0.83798005   -5.8071297    1048.6365  0.034968536  0.034509918            4 
 2500000   0.85187705   -5.8835179    1047.0512  0.034901707  0.034500947            4 
 2501000   0.83337995   -5.8650977    1046.6571   0.03487462  0.034491861            3 
 2502000   0.87745353   -5.8441193    1043.5464  0.034757074  0.034482853            8 
 2503000   0.83701295   -5.8620748    1043.6909     0.034748  0.034473771            7 
 2504000   0.85396711   -5.8812362    1045.8533  0.034806086  0.034464655            4 
 2505000   0.85065606   -5.8331432    1049.3639  0.034908979  0.034455612            9 
 2506000    0.8540383   -5.8500556     1047.158  0.034821693  0.034446547            4 
 2507000   0.84105536   -5.8670542     1046.517  0.034786498  0.034437454            4 
 2508000   0.85393528   -5.8388577    1048.2547  0.034830366  0.034428381            4 
 2509000    0.8362865   -5.8613352    1045.5984  0.034728259  0.034419343            4 
 2510000   0.83641307   -5.8730063     1048.666  0.034816269  0.034410265            8 
 2511000    0.8623154   -5.8603525     1050.197  0.034853214  0.034401207            5 
 2512000   0.84747246   -5.8301743    1049.3309  0.034810605  0.034392239           10 
 2513000   0.85818867   -5.8638227    1044.4062  0.034633448   0.03438315            3 
 2514000   0.86858491   -5.8545269    1047.2204  0.034712954  0.034374073            8 
 2515000   0.84736601   -5.8813867    1046.3878  0.034671563  0.034364989            6 
 2516000   0.84490508   -5.8491518    1051.1044  0.034814005  0.034355968            4 
 2517000   0.84703968   -5.8958635    1043.3633  0.034543878  0.034346786            7 
 2518000   0.85598938   -5.8977256     1046.101  0.034620764  0.034337594            7 
 2519000    0.8350875   -5.8968425    1046.5254  0.034621061  0.034328418           11 
 2520000    0.8260926    -5.867703    1047.5019  0.034639614  0.034319338            8 
 2521000   0.83732682   -5.8467798    1048.8747   0.03467125  0.034310161           15 
 2522000   0.84292731   -5.8574753    1047.2297  0.034603148  0.034301006            4 
 2523000   0.83577041   -5.8660573    1049.7168  0.034671581  0.034291863            5 
 2524000   0.85620237   -5.8677468    1048.0189  0.034601785  0.034282748            5 
 2525000   0.84375384   -5.8565961    1049.9375  0.034651402  0.034273593            6 
 2526000   0.85145271   -5.8362016    1051.7434   0.03469726  0.034264477            5 
 2527000   0.82587916   -5.8733057    1049.5947  0.034612673  0.034255391           10 
 2528000   0.82759826   -5.8727866    1051.6823  0.034667797  0.034246287            6 
 2529000   0.84256995   -5.9085744    1046.9592  0.034498458  0.034237188            4 
 2530000   0.85806673   -5.8927161    1049.0154  0.034552549  0.034228058            4 
 2531000   0.85904437   -5.8807104    1050.5531  0.034589528  0.034218979            9 
 2532000   0.84504521   -5.9017747    1048.5062  0.034508499  0.034209877            8 
 2533000   0.84438438   -5.8837912    1046.8957   0.03444189  0.034200806            7 
 2534000   0.83505162   -5.8717775    1048.5584  0.034482978  0.034191654            6 
 2535000    0.8416604   -5.8833612    1048.1901  0.034457269  0.034182512            4 
 2536000   0.83534365   -5.8899134    1050.6136  0.034523317  0.034173359            5 
 2537000   0.84587831    -5.863736    1050.5634  0.034508061  0.034164351            7 
 2538000   0.85363533   -5.8636467    1051.8167  0.034535615  0.034155276            5 
 2539000   0.82986932   -5.8487493    1053.9258  0.034591235  0.034146245            3 
 2540000   0.84993569   -5.8585507    1053.0814  0.034549916  0.034137344            6 
 2541000   0.83736229   -5.8540026    1057.1314   0.03466914  0.034128397            9 
 2542000   0.84709685   -5.8682703    1055.4832  0.034601468  0.034119422            5 
 2543000   0.84724784    -5.868239    1051.4885  0.034456957  0.034110335            6 
 2544000   0.83996803   -5.8864716    1049.0602   0.03436387  0.034101389            6 
 2545000   0.84290041   -5.8534721    1055.0651   0.03454699  0.034092362            5 
 2546000   0.83636308     -5.88159    1053.7906  0.034491706  0.034083307            5 
 2547000   0.84847129   -5.8758036    1055.2168  0.034524828  0.034074225            5 
 2548000   0.85654462    -5.896791    1052.7636  0.034431044  0.034065246            6 
 2549000   0.84186609   -5.8644789    1051.4627  0.034375008  0.034056169            6 
 2550000    0.8668792   -5.8738042    1052.4477  0.034393716  0.034047039            5 
 2551000   0.86584727   -5.8863393    1051.5776   0.03435181  0.034037948            6 
 2552000    0.8309589   -5.8615224    1057.3924  0.034528228   0.03402897            5 
 2553000   0.84162985   -5.8861589    1052.5053  0.034355179  0.034019958            4 
 2554000   0.84658932   -5.8941081    1052.1282  0.034329423  0.034011012            7 
 2555000   0.84858269   -5.8599387    1056.2325  0.034449855  0.034002034            6 
 2556000   0.84734462   -5.8573805    1057.8441  0.034488917  0.033993102            5 
 2557000   0.85413591   -5.8707847    1053.4695  0.034332862  0.033984091            7 
 2558000   0.85039299    -5.850452    1057.3991  0.034447455  0.033975151            7 
 2559000    0.8437828   -5.8714167    1052.9501  0.034289114  0.033966177            6 
 2560000   0.83072776   -5.9030701    1050.9974  0.034212156  0.033957115            6 
 2561000   0.83279963   -5.8650122    1054.5706  0.034315066   0.03394805            8 
 2562000   0.84760212   -5.8560371    1055.7248  0.034339213  0.033939065            7 
 2563000    0.8299908    -5.876091    1057.1485  0.034372108  0.033930156            5 
 2564000    0.8219953   -5.8719918    1055.2829  0.034298065  0.033921267            5 
 2565000   0.84992762    -5.866636    1059.4054  0.034418628  0.033912312            7 
 2566000   0.83896931   -5.8948198    1053.2199  0.034204336  0.033903366            6 
 2567000   0.83429851   -5.8843995    1055.4166  0.034262322  0.033894392            6 
 2568000   0.82406836   -5.8939818    1053.1809  0.034176432  0.033885327           10 
 2569000   0.83926169   -5.8668649    1056.2789  0.034263619  0.033876349           10 
 2570000   0.84111528   -5.8875915    1051.0541  0.034080873   0.03386741            5 
 2571000   0.83099486   -5.8602627    1054.6075  0.034182792  0.033858448            6 
 2572000   0.84710718   -5.8656468    1055.8807  0.034210754  0.033849352            4 
 2573000   0.81709229   -5.8939778    1057.9669  0.034265024  0.033840375            7 
 2574000   0.83940666   -5.8592886    1058.6707  0.034274497  0.033831423            5 
 2575000   0.83905193   -5.9222381    1052.0017  0.034045362  0.033822372            8 
 2576000   0.82472221   -5.9093571    1058.2152  0.034233153  0.033813311           10 
 2577000   0.83157692    -5.867256    1058.6885  0.034235172  0.033804335            3 
 2578000   0.84991056   -5.8900321    1057.1608  0.034172512  0.033795335            6 
 2579000   0.84645859   -5.8937382    1055.7216  0.034112757    0.0337863            5 
 2580000   0.84125189   -5.8852568    1057.6059  0.034160398  0.033777359            5 
 2581000   0.83916284   -5.9240603    1056.7223  0.034118633  0.033768383           10 
 2582000   0.83651337   -5.8905087    1057.0336  0.034115465  0.033759427            6 
 2583000   0.81823987   -5.8726288    1057.8723  0.034129316  0.033750487            7 
 2584000   0.82769714   -5.8563614    1061.9994  0.034249207  0.033741663            5 
 2585000   0.83262686   -5.9234151    1055.7212  0.034033566  0.033732822            7 
 2586000   0.82342209   -5.8889014     1057.876  0.034089843  0.033723887            7 
 2587000   0.84997188   -5.9102373    1059.9555  0.034143652  0.033714869           17 
 2588000   0.84194878    -5.917776    1058.1704  0.034072977  0.033705874            5 
 2589000    0.8521014   -5.8847334    1058.8936  0.034083097  0.033696982            5 
 2590000   0.84314513    -5.887037    1058.6335  0.034061568  0.033688093            9 
 2591000   0.82944231   -5.8846403     1059.079   0.03406275  0.033679105            8 
 2592000   0.82422782   -5.9063548    1060.6034  0.034098616  0.033670165            7 
 2593000   0.83803067   -5.9146487    1060.2834  0.034075183  0.033661248            4 
 2594000   0.81926983   -5.8796828    1061.2035  0.034091604  0.033652229            6 
 2595000   0.84565297   -5.8416054    1064.3265  0.034178756  0.033643362            2 
 2596000   0.83329551   -5.9101122    1062.7146  0.034113848  0.033634501            5 
 2597000   0.83880457   -5.9066819    1057.9831  0.033948886  0.033625594            5 
 2598000    0.8348335   -5.8777454    1062.9747  0.034095929  0.033616677           11 
 2599000   0.84140503   -5.9202592    1061.1781  0.034025205   0.03360778            6 
 2600000   0.82139691   -5.8908971    1062.2251  0.034045675  0.033598922            8 
 2601000   0.84209028   -5.9001087    1059.9218   0.03395879  0.033590015           12 
 2602000   0.82455868   -5.9045836    1060.1638  0.033953492  0.033581062           13 
 2603000   0.85188588   -5.8974455    1065.8578  0.034122735  0.033572158           11 
 2604000   0.82797492   -5.8945102     1061.498  0.033970111  0.033563319            4 
 2605000   0.84735615   -5.8710443    1061.3645  0.033952798  0.033554457            5 
 2606000   0.84165149   -5.8925524    1061.4343  0.033942003  0.033545645            8 
 2607000   0.84119676   -5.8921448     1061.933  0.033944923  0.033536751            3 
 2608000   0.82775945   -5.9243797    1061.2747  0.033910872  0.033527819           24 
 2609000   0.81504083   -5.8943087    1061.6914  0.033911186  0.033518863            7 
 2610000   0.82821634   -5.9030646    1064.5095  0.033988172  0.033509933            5 
 2611000   0.84331533   -5.9198887    1060.0758  0.033833645  0.033501033            4 
 2612000   0.83795162   -5.9057033    1060.9712  0.033849258  0.033492017            4 
 2613000   0.82024236    -5.902359    1065.6337  0.033985001  0.033483158            4 
 2614000   0.83607965   -5.8913292    1064.2293  0.033927229  0.033474284            7 
 2615000   0.84508174   -5.9206262    1065.1426  0.033943359  0.033465427            6 
 2616000   0.82128102   -5.8790297    1064.9594  0.033924547  0.033456516            5 
 2617000   0.83686832   -5.9404934    1061.4036  0.033798355  0.033447611           10 
 2618000   0.84165967    -5.895781    1063.0143  0.033836715  0.033438733            9 
 2619000   0.81955907   -5.8900683    1065.7043  0.033909391  0.033429872            4 
 2620000   0.83473008   -5.9026671    1065.1866  0.033879982  0.033420995           12 
 2621000   0.85372335   -5.9196384    1066.1464  0.033897571   0.03341216            8 
 2622000   0.84034665    -5.911007    1064.3921  0.033828887  0.033403255            5 
 2623000   0.82660207   -5.8918251    1065.4095  0.033848312  0.033394486           15 
 2624000   0.83162515    -5.889924    1066.8731  0.033881894  0.033385694            6 
 2625000   0.82340298   -5.9234966    1065.6211  0.033829243  0.033376818            5 
 2626000   0.82194803   -5.9243364    1062.9457  0.033731456  0.033367866            2 
 2627000   0.82139976   -5.9116868    1066.9065   0.03384426  0.033359022            7 
 2628000   0.81404503    -5.885126    1068.3622  0.033877543  0.033350226            4 
 2629000    0.8284235   -5.8955652    1067.0696  0.033823685  0.033341499            5 
 2630000   0.85369454   -5.9008773    1066.1339  0.033781176  0.033332754            8 
 2631000   0.83212987    -5.951848    1064.2854  0.033709787   0.03332386            6 
 2632000   0.84260044   -5.9026568    1065.4037  0.033732385  0.033314975           13 
 2633000   0.83341152   -5.8935791    1067.0161  0.033770606  0.033306128           13 
 2634000   0.82016831   -5.9389079    1066.6069   0.03374484  0.033297337            3 
 2635000    0.8253223   -5.8978966    1065.6218  0.033700878  0.033288512            5 
 2636000    0.8239436   -5.9095179    1066.0752  0.033702428  0.033279685           16 
 2637000   0.83396121   -5.8960624    1065.7206  0.033678441  0.033270894            4 
 2638000   0.84468106   -5.9092242    1066.5717  0.033692561  0.033262043            5 
 2639000   0.83681522   -5.8997222    1065.8548  0.033657156   0.03325322            5 
 2640000   0.82492603    -5.921334    1068.0082   0.03371238  0.033244414           11 
 2641000   0.80964124   -5.8955798    1067.3702  0.033679483  0.033235591            6 
 2642000   0.81352103   -5.9105456     1068.505   0.03370253  0.033226829            7 
 2643000   0.81913565   -5.9027476    1067.9605  0.033672608  0.033218088           14 
 2644000    0.8516967   -5.8876931    1066.8086  0.033623568  0.033209353            6 
 2645000   0.83179167    -5.884488    1067.1537   0.03362173  0.033200556            9 
 2646000   0.83002266   -5.9010002    1071.8252  0.033756148  0.033191843            4 
 2647000   0.82422826   -5.9309219    1065.9362  0.033557997  0.033183045            3 
 2648000   0.81965742   -5.9282795    1069.6844  0.033663281  0.033174194            4 
 2649000   0.82145143    -5.917506    1068.7589  0.033621457  0.033165362            4 
 2650000   0.82480291   -5.9201535    1066.8217  0.033547853   0.03315657           12 
 2651000   0.82840104   -5.9006538    1070.2474  0.033642885  0.033147777           12 
 2652000   0.81635665   -5.9168349    1068.5171  0.033575828  0.033138944            8 
 2653000   0.81853971   -5.9314863     1068.365  0.033558391  0.033130176            4 
 2654000   0.83467106   -5.8977644    1070.0774  0.033599516  0.033121417            7 
 2655000   0.83149472   -5.9181508    1070.3195   0.03359446  0.033112584           10 
 2656000   0.81932703   -5.9113048    1069.8295  0.033566437  0.033103734            7 
 2657000    0.8297151    -5.907151    1070.7279  0.033581983  0.033094918            4 
 2658000    0.8478513   -5.9063708    1068.3867  0.033495947  0.033086173            7 
 2659000   0.82697075   -5.9009332    1071.1386  0.033569593  0.033077353            8 
 2660000   0.82062016   -5.9311234     1068.403  0.033471271  0.033068551            8 
 2661000   0.82031718   -5.8927911    1074.4672  0.033648603  0.033059771            6 
 2662000   0.82249972   -5.9183091    1065.4371  0.033353279  0.033050933            7 
 2663000   0.81160041   -5.8996836    1068.9548  0.033450831  0.033042147           10 
 2664000   0.83521334   -5.9089005    1070.6564  0.033491505  0.033033329            7 
 2665000   0.85585818   -5.9022237    1071.2374  0.033497104  0.033024467            7 
 2666000   0.80351756   -5.9493165     1066.376  0.033332582  0.033015582           13 
 2667000   0.82511531   -5.9399783     1069.381  0.033413979  0.033006662            9 
 2668000   0.84667834   -5.9302751    1067.8997  0.033355189  0.032997809            6 
 2669000   0.82240536   -5.9308045    1069.9671  0.033407241  0.032988929           11 
 2670000   0.84042404   -5.9134721    1070.1882   0.03340163   0.03298005            6 
 2671000   0.81141081   -5.8761427     1073.105  0.033480125  0.032971228            2 
 2672000   0.80289842   -5.9262301    1069.9784  0.033370083  0.032962396            6 
 2673000   0.83998016   -5.9483283    1065.6343  0.033222169  0.032953505            6 
 2674000   0.82463123    -5.925039    1069.3285  0.033324873  0.032944664            6 
 2675000   0.79899439   -5.9568963    1071.0895  0.033367274  0.032935744            5 
 2676000    0.8263537    -5.931266    1071.2705  0.033360441   0.03292679            4 
 2677000   0.82254931   -5.9541258    1068.8527  0.033272714  0.032917859           20 
 2678000   0.80731239   -5.9439265     1072.268  0.033366566  0.032909004            6 
 2679000   0.82418157   -5.9362934    1071.7699  0.033338619  0.032900087            9 
 2680000   0.82684551   -5.9025461    1070.0898  0.033273937  0.032891231            6 
 2681000   0.81165817   -5.9404163     1072.184  0.033326619  0.032882392            7 
 2682000    0.8201904   -5.9380433    1073.6763  0.033360562   0.03287355            6 
 2683000   0.82487348   -5.9258461    1072.3942  0.033308306  0.032864788           14 
 2684000   0.83669453   -5.9220399     1073.317  0.033324546  0.032856052            4 
 2685000   0.83478013   -5.9100499    1072.8139   0.03329652   0.03284729            4 
 2686000   0.81747039   -5.9441132    1071.4784  0.033242689  0.032838432           10 
 2687000   0.81893105   -5.9558652     1071.351  0.033226368  0.032829607            5 
 2688000   0.84793404   -5.9306142    1074.1772  0.033301624  0.032820756            6 
 2689000   0.82096858   -5.9150659    1072.0787  0.033224208  0.032811917            4 
 2690000   0.82195229   -5.9199615    1073.9616  0.033270187  0.032803143            4 
 2691000   0.81491956   -5.9363325    1071.1758  0.033171553  0.032794306           14 
 2692000   0.82244839   -5.9354691    1075.0231  0.033278327   0.03278545            6 
 2693000   0.81313121   -5.9448998    1071.0814  0.033143997   0.03277659            4 
 2694000   0.84070719   -5.9287168     1077.598  0.033333272   0.03276777            3 
 2695000   0.82193663   -5.9382591    1073.1355  0.033182915  0.032758999            4 
 2696000   0.84074976   -5.9354556    1073.3939  0.033178594  0.032750285            4 
 2697000   0.80897044   -5.9411785    1072.1709  0.033128504  0.032741521            8 
 2698000   0.80817034   -5.9226691    1076.2194   0.03324127  0.032732674            4 
 2699000   0.81209303   -5.9154164    1074.3744   0.03317199  0.032723894           12 
 2700000   0.82263798   -5.9093332    1075.1564  0.033183841  0.032715143            9 
 2701000   0.82612493   -5.9195366    1075.3155  0.033176464  0.032706375            4 
 2702000   0.81624363   -5.8987736    1076.6222  0.033204485    0.0326977            5 
 2703000   0.82497936   -5.9131584    1075.8194   0.03316745   0.03268898            4 
 2704000   0.81024196   -5.9235092    1075.5596  0.033147177  0.032680191            7 
 2705000   0.81795044   -5.9209554     1074.993  0.033117468  0.032671469            8 
 2706000   0.83632825   -5.9224607    1072.5289  0.033029344  0.032662702            5 
 2707000   0.82874099    -5.958125    1074.1968   0.03306849  0.032653904            7 
 2708000   0.80798539   -5.9091683    1074.8626  0.033076767   0.03264519           20 
 2709000   0.82155887   -5.9005332    1078.5798  0.033178904   0.03263648            6 
 2710000   0.80487257   -5.9122782    1076.1783  0.033092815  0.032627712            4 
 2711000   0.80905647   -5.9231292    1076.1004  0.033078211  0.032619004            5 
 2712000   0.81160431   -5.9324689    1073.6235  0.032989907  0.032610303            9 
 2713000   0.81553321   -5.9398461    1076.1096  0.033054109  0.032601522            5 
 2714000   0.80045112   -5.9495557    1074.9424  0.033006093  0.032592718            7 
 2715000   0.83331238   -5.9655439    1074.3672  0.032976279  0.032583913            6 
 2716000   0.80019597   -5.9425848    1077.6508  0.033064888  0.032575101            5 
 2717000   0.82923331   -5.9273164    1077.7717  0.033056424   0.03256631            7 
 2718000   0.80303709   -5.9488995    1076.1453  0.032994397  0.032557546            4 
 2719000   0.80148747   -5.9382458    1076.7065  0.032999463  0.032548832           16 
 2720000   0.80118666   -5.9262001    1079.2637  0.033065676  0.032540095            4 
 2721000   0.82729546   -5.9434345    1076.6693  0.032974069  0.032531408            4 
 2722000   0.82922132   -5.9473841    1075.4811  0.032925579  0.032522612            8 
 2723000   0.79537314   -5.9353731    1080.1351  0.033055916  0.032513848            4 
 2724000   0.81180115   -5.9130763    1078.7282   0.03300074  0.032505145            9 
 2725000   0.82198689   -5.9615303    1075.2878  0.032883418  0.032496405            5 
 2726000   0.80121902   -5.9432133    1079.9228  0.033013047  0.032487621            6 
 2727000   0.81968637   -5.9781147    1075.7626  0.032873812  0.032478806            9 
 2728000   0.82957176   -5.9544052     1076.117  0.032872587  0.032469979            8 
 2729000   0.80068908   -5.9328396    1078.5722  0.032935513  0.032461144            7 
 2730000   0.80275223   -5.9469665    1080.4143  0.032979678  0.032452403            7 
 2731000   0.82019234   -5.9485564    1076.1687  0.032838053  0.032443581            5 
 2732000    0.8347444   -5.9477209    1075.9863   0.03282047  0.032434748            3 
 2733000   0.80853788   -5.9428922    1077.2036  0.032845578  0.032425918            4 
 2734000   0.81913511   -5.9373611    1080.1204   0.03292247  0.032417171            3 
 2735000   0.81407973       -5.949    1080.6685  0.032927134  0.032408414            6 
 2736000   0.80929481   -5.9325829    1078.7089  0.032855412  0.032399669            7 
 2737000   0.80614038    -5.983434    1077.3669  0.032802549  0.032390874            7 
 2738000   0.79391976   -5.9516361    1079.0943  0.032843143  0.032382021            3 
 2739000   0.81166784     -5.95598    1077.8265   0.03279258  0.032373207           10 
 2740000   0.80702469     -5.92744    1079.4979  0.032831445  0.032364424            8 
 2741000   0.81713657   -5.9522577    1079.2236  0.032811128  0.032355597           12 
 2742000   0.80672914   -5.9410142    1080.9976  0.032853075  0.032346868            7 
 2743000   0.81349681   -5.9403418    1080.3507  0.032821445  0.032338154            7 
 2744000   0.80764383   -5.9414247    1078.8089  0.032762662  0.032329421            7 
 2745000   0.82745028   -5.9488603    1079.0322  0.032757505  0.032320642            8 
 2746000   0.82168037   -5.9639248    1080.3852  0.032786634  0.032311848            4 
 2747000   0.81943096   -5.9667358    1080.9596  0.032792125  0.032303153            9 
 2748000   0.83027005   -5.9506255    1078.8715  0.032716871  0.032294471           11 
 2749000   0.82073654   -5.9690658    1081.1761   0.03277483  0.032285831            4 
 2750000   0.81275148   -5.9535104     1080.919  0.032755122  0.032277138           22 
 2751000   0.80717239   -5.9427979    1084.0156  0.032837017  0.032268554            3 
 2752000   0.80084876    -5.956029    1081.9189  0.032761593  0.032259911           11 
 2753000   0.82209869   -5.9420333    1080.4909  0.032706469  0.032251238            6 
 2754000   0.81007929    -5.952929    1082.7641  0.032763377  0.032242518            6 
 2755000   0.82083495   -5.9504281    1084.3078  0.032798179  0.032233854            7 
 2756000   0.82265799    -5.942882    1082.4334  0.032729601  0.032225208            4 
 2757000   0.80269281    -5.948972    1081.0488   0.03267588  0.032216449            9 
 2758000   0.81535502   -5.9416491    1080.2814  0.032640846  0.032207759            5 
 2759000   0.79341003   -5.9524717    1078.6823  0.032580714  0.032199125            6 
 2760000   0.80459038   -5.9486086    1081.6762  0.032659306  0.032190419            6 
 2761000   0.81464442   -5.9458164     1083.076  0.032689726  0.032181772            6 
 2762000   0.82989367   -5.9584877    1085.1264  0.032739754  0.032173153            4 
 2763000   0.79649198   -5.9387113    1084.8103  0.032718372  0.032164626           14 
 2764000   0.81604891   -5.9305466    1085.0136  0.032712662  0.032156138            5 
 2765000   0.80284472   -5.9476908    1084.3081  0.032679568  0.032147545            9 
 2766000   0.82062709   -5.9526405    1083.6185  0.032646977  0.032138942            5 
 2767000   0.81282495   -5.9756789    1083.8155  0.032641111  0.032130437            7 
 2768000   0.78264735   -5.9550453    1085.4033  0.032677121  0.032121884            5 
 2769000    0.8119965   -5.9748105    1087.0279  0.032714215  0.032113328            7 
 2770000   0.82761226   -5.9946321     1083.507  0.032596481   0.03210472           12 
 2771000   0.81686124    -5.970276    1086.1783  0.032665052   0.03209619            7 
 2772000   0.79452069   -5.9292563    1092.0042  0.032828408  0.032087736            3 
 2773000    0.8056303   -5.9469804    1088.1193  0.032699822  0.032079257            4 
 2774000   0.81146953   -5.9927761    1086.4053  0.032636545  0.032070771            4 
 2775000    0.8120388   -5.9620394    1086.9466  0.032641038  0.032062268           11 
 2776000   0.80609012   -5.9678436     1086.855  0.032626531  0.032053847           13 
 2777000    0.8028132   -5.9608968    1086.9983  0.032619083  0.032045342            4 
 2778000   0.80456009   -5.9741974    1085.8745  0.032573629  0.032036855            5 
 2779000   0.82680191   -5.9817321    1083.7819  0.032499158  0.032028352            7 
 2780000     0.806613   -5.9726961    1087.9229  0.032611599  0.032019825            4 
 2781000   0.81710381   -5.9490235    1088.5679  0.032619198  0.032011273            6 
 2782000   0.81658436    -5.955758    1086.1442  0.032534874  0.032002725            3 
 2783000   0.79863406   -5.9598357    1085.2592  0.032496681  0.031994231            6 
 2784000   0.80018116    -5.987724    1086.2414   0.03251441  0.031985666            4 
 2785000    0.8115679   -5.9630103    1088.4025  0.032567401  0.031977231            6 
 2786000   0.81659839   -5.9639581    1087.1822  0.032519208  0.031968815            5 
 2787000   0.79712741   -5.9496727    1088.9464  0.032560293  0.031960387            5 
 2788000   0.78497371   -5.9451632    1087.0416  0.032491677  0.031951923            7 
 2789000   0.80720988   -5.9478967    1088.8888  0.032535221  0.031943513            8 
 2790000   0.79625824   -5.9533672    1090.1062  0.032559924  0.031934992            7 
 2791000   0.79662989   -5.9797079    1088.5293  0.032501173  0.031926531            8 
 2792000   0.82012035   -5.9618683    1089.1973   0.03250947  0.031918116            5 
 2793000   0.79588388    -5.984298    1089.4107  0.032504198   0.03190969            6 
 2794000   0.80256237   -5.9700668    1092.0712  0.032571917  0.031901274           15 
 2795000   0.80850932   -5.9677788    1087.0608  0.032410876  0.031892855            4 
 2796000   0.81011518   -5.9686932    1091.5594  0.032533363  0.031884476            7 
 2797000   0.78520814   -5.9471889    1091.2461  0.032512398  0.031876127           11 
 2798000   0.80005435   -5.9664614    1091.6239  0.032512029  0.031867797            5 
 2799000   0.80217405   -5.9733125     1089.527  0.032437985  0.031859391           11 
 2800000   0.80984985   -5.9921178    1091.2016  0.032476237  0.031850997            7 
 2801000   0.80585237   -5.9732409    1089.1834  0.032404601  0.031842687            8 
 2802000   0.80312516   -5.9768521    1092.2715  0.032484877  0.031834365            8 
 2803000   0.79303245   -6.0040695    1089.1373  0.032380108   0.03182598            5 
 2804000   0.80307515   -5.9684301    1090.4446  0.032407412   0.03181759            8 
 2805000   0.79958128   -5.9800802    1088.7136  0.032344432   0.03180921            6 
 2806000   0.81108185   -5.9480113    1092.5972  0.032448243  0.031800802            6 
 2807000   0.80299693   -5.9679716    1089.7342  0.032351686  0.031792443            6 
 2808000   0.80096498   -5.9726787    1090.8808  0.032374193  0.031784126            7 
 2809000   0.78427497   -5.9575182    1094.4544  0.032468685  0.031775764            5 
 2810000    0.7966248   -5.9945277    1092.0599  0.032386117  0.031767389            5 
 2811000   0.80716549   -5.9580971    1092.2628  0.032380612   0.03175908           10 
 2812000   0.81212828   -5.9565099    1091.5016  0.032346538  0.031750758            6 
 2813000   0.79706652   -5.9457811    1096.5459  0.032484475  0.031742447            8 
 2814000    0.7989929   -5.9324385    1094.1998  0.032403453  0.031734133            8 
 2815000   0.80018929   -5.9745946    1091.8268  0.032321692  0.031725791            6 
 2816000   0.82056542   -5.9961938    1091.4096   0.03229787  0.031717365            6 
 2817000   0.79869182   -5.9666224    1093.3019  0.032342384  0.031709075            6 
 2818000   0.79477387   -5.9804969    1093.6859  0.032342262  0.031700768            7 
 2819000   0.79637857   -5.9799511    1092.9843  0.032310047   0.03169245            6 
 2820000   0.80651249   -5.9637827    1093.3252  0.032308664  0.031684102           13 
 2821000   0.82611074   -5.9991138    1093.8068  0.032311437  0.031675804            8 
 2822000   0.78879625   -6.0058786    1093.7445  0.032298148  0.031667441            8 
 2823000   0.78618675   -5.9594727    1095.1505  0.032328213  0.031659122           12 
 2824000   0.80776315   -5.9726371     1094.034  0.032283816  0.031650857            6 
 2825000   0.82147435   -5.9661862    1094.8673  0.032296969  0.031642575            6 
 2826000   0.79460008   -5.9598145    1096.3374  0.032328892  0.031634367            4 
 2827000   0.80942026   -5.9867385    1095.4344  0.032290839  0.031626027            8 
 2828000   0.81027457     -5.98436    1093.9234  0.032234895  0.031617724           11 
 2829000   0.80181074    -5.990463    1094.9209  0.032252883  0.031609413            6 
 2830000   0.81047275   -5.9963703    1094.2353  0.032221299  0.031601136            5 
 2831000   0.78131909    -5.994017     1095.429  0.032245054  0.031592829            4 
 2832000   0.81100977   -5.9755026    1096.1284  0.032254249  0.031584504            9 
 2833000   0.80607642   -5.9751623    1097.3296  0.032278197  0.031576301           14 
 2834000   0.79268558    -5.997946    1090.1422  0.032055462  0.031567934            5 
 2835000   0.80502531   -5.9833357    1094.0686  0.032159571  0.031559532            5 
 2836000   0.79049164    -5.991181     1094.914  0.032173071  0.031551112            7 
 2837000   0.79974824   -5.9694497    1094.8754  0.032160599  0.031542815            9 
 2838000   0.80257279   -5.9882587    1095.0099  0.032153216  0.031534486            6 
 2839000   0.80474845   -6.0089906    1091.8738  0.032049837  0.031526059            6 
 2840000     0.824968   -5.9674912    1097.0327  0.032189925  0.031517695            6 
 2841000   0.79760345   -6.0101016    1093.6118  0.032078252   0.03150934            8 
 2842000   0.81226764   -6.0094423    1094.6158  0.032096405   0.03150096            7 
 2843000   0.80471868   -5.9885276    1096.5494  0.032141791  0.031492639            9 
 2844000   0.80088593   -6.0182272    1094.2748  0.032063842  0.031484255            4 
 2845000   0.79228574   -5.9977112     1096.681  0.032123051  0.031475902            5 
 2846000   0.80356755   -6.0002789    1096.4154  0.032103987  0.031467629            6 
 2847000    0.8039856   -5.9642757     1097.467  0.032123492  0.031459363            9 
 2848000   0.80726257   -6.0165394    1097.8323  0.032122902  0.031451018           11 
 2849000   0.79456278   -6.0112622    1097.2482  0.032094541  0.031442681            4 
 2850000   0.79083779    -5.976216    1098.1812  0.032110561   0.03143434            6 
 2851000   0.80529747   -5.9891258    1099.2406  0.032130264  0.031426092            6 
 2852000   0.79560435   -6.0117564     1098.747  0.032104577  0.031417755           10 
 2853000   0.79467732   -6.0241493    1096.0518  0.032014598  0.031409447           12 
 2854000   0.80567382   -6.0085717    1097.3543  0.032041412   0.03140116            3 
 2855000   0.81053911   -5.9743426    1099.9236  0.032105185  0.031392914            4 
 2856000   0.80824469   -6.0071922    1095.0022  0.031950345   0.03138465            7 
 2857000   0.79460575   -5.9839837    1098.9527   0.03205439  0.031376401            9 
 2858000   0.80205499    -6.004477    1098.6432  0.032034149   0.03136811           14 
 2859000    0.8213509   -5.9971622    1099.5109  0.032048238  0.031359798            6 
 2860000   0.79107523   -5.9867664    1097.7428  0.031985513  0.031351471            6 
 2861000   0.80310151   -5.9809225    1097.9628  0.031980742  0.031343141            5 
 2862000   0.80793413   -6.0245943    1096.2771  0.031920484  0.031334774            4 
 2863000   0.80978855   -5.9800478    1101.0683  0.032048791  0.031326486            5 
 2864000   0.78309346   -5.9820735    1101.6635   0.03205492  0.031318226            8 
 2865000   0.77649343   -5.9830005    1101.6873  0.032044423  0.031309992           10 
 2866000   0.80459463   -5.9824709    1104.2122  0.032106658  0.031301752            5 
 2867000   0.80054624   -5.9770402    1099.2512  0.031951262  0.031293489           11 
 2868000   0.79605496   -5.9722857    1100.0286   0.03196271  0.031285241            6 
 2869000   0.77885288   -5.9602765     1099.802  0.031944985  0.031277071            8 
 2870000   0.79200526   -5.9672267    1101.1912  0.031974192  0.031268913            7 
 2871000   0.80841672   -6.0034071    1102.1803  0.031991766  0.031260683            8 
 2872000   0.80398616   -6.0047484    1101.1609  0.031951046  0.031252425            5 
 2873000   0.79167324    -5.986398    1103.6727  0.032012784  0.031244246            4 
 2874000   0.78090889   -6.0042688    1100.2172  0.031901451  0.031236084            8 
 2875000   0.79802912   -5.9813396    1101.7619  0.031935126  0.031227954            7 
 2876000   0.80904373   -5.9812799    1103.7554  0.031981785  0.031219849           10 
 2877000   0.78935513    -5.986094    1102.5475  0.031935683  0.031211658            9 
 2878000   0.78866831   -5.9928601    1101.2439  0.031886839  0.031203458            7 
 2879000   0.80657376    -5.992837    1103.3323  0.031936213  0.031195261           16 
 2880000   0.80406486   -6.0260857    1099.9821  0.031828186  0.031187011            7 
 2881000   0.78275557   -6.0040675    1103.8827  0.031929963  0.031178801           11 
 2882000   0.79120089   -5.9923054    1104.4109  0.031934157  0.031170648            9 
 2883000   0.77590289   -6.0087536     1102.197  0.031859088  0.031162447           10 
 2884000   0.79528252   -6.0147595    1100.9174  0.031811068  0.031154332            7 
 2885000   0.79387753   -6.0059196     1104.565  0.031905402  0.031146259            7 
 2886000   0.80784492   -5.9737713    1106.2374  0.031942638  0.031138131            7 
 2887000   0.78640311   -5.9827265    1106.3686  0.031935359  0.031130048            9 
 2888000   0.78436093   -5.9957943     1104.452  0.031868998  0.031121969            5 
 2889000   0.77010339    -5.990364    1104.3375  0.031854665  0.031113825            6 
 2890000   0.76876103   -6.0265236    1101.8919  0.031773122  0.031105679            5 
 2891000   0.79963703    -5.989737    1105.2991  0.031860346  0.031097595            4 
 2892000   0.79815822   -6.0338717    1105.8473  0.031865126  0.031089596            4 
 2893000   0.79558125   -5.9918095     1107.501  0.031901744  0.031081595            9 
 2894000   0.80017401   -6.0199093     1102.489    0.0317464  0.031073568           24 
 2895000   0.78754986   -6.0225611    1104.9807   0.03180716  0.031065536            8 
 2896000   0.78363573   -6.0062816    1108.6675  0.031902266  0.031057528           10 
 2897000   0.78196596   -5.9979847    1109.0154   0.03190126  0.031049491            6 
 2898000   0.78198948   -5.9941446    1108.0926  0.031863717  0.031041416            8 
 2899000   0.79232753   -5.9756035    1107.5973  0.031838489   0.03103344            5 
 2900000   0.78050892   -5.9858085     1107.575  0.031826868  0.031025484            8 
 2901000   0.78486256   -6.0135732    1104.1964  0.031718845  0.031017491            6 
 2902000   0.77653507   -5.9919875    1109.6236  0.031863761  0.031009496            6 
 2903000   0.78480572   -6.0202867    1106.2068  0.031754701  0.031001456            9 
 2904000   0.78590223   -6.0122286    1103.2839   0.03165989  0.030993364            8 
 2905000   0.79069905   -6.0220917    1107.1275   0.03175925   0.03098528            7 
 2906000   0.79198681   -6.0013058    1107.6633  0.031763688  0.030977284            5 
 2907000    0.7829772    -6.027405    1104.0736  0.031649856  0.030969241            8 
 2908000   0.78798426   -6.0163125    1105.8353  0.031689457  0.030961196           21 
 2909000   0.80306874   -6.0038356    1109.6645  0.031788257  0.030953194            4 
 2910000    0.7963121   -6.0232415    1105.9163  0.031669997  0.030945122            6 
 2911000   0.76920414   -5.9983494    1110.9221   0.03180242  0.030937041            4 
 2912000    0.7840068   -5.9964581    1109.2625  0.031744004  0.030929053            8 
 2913000   0.78631214   -6.0287103    1108.3573  0.031707212  0.030920989            8 
 2914000   0.79354663   -6.0223755    1108.7515  0.031707605  0.030912942            9 
 2915000   0.74990194   -6.0244547    1107.3758  0.031657398  0.030904862            5 
 2916000   0.79518174   -6.0343912    1106.3875  0.031618297  0.030896887            6 
 2917000   0.78179188   -6.0070972    1109.0504  0.031683534   0.03088892            5 
 2918000   0.79845501   -6.0113013    1108.6385  0.031660911  0.030880956            9 
 2919000   0.78567736   -5.9723274     1110.362  0.031699268  0.030873057            6 
 2920000   0.77250454   -5.9984352    1109.3303  0.031658969  0.030865216            7 
 2921000   0.78694578   -5.9876139     1111.728  0.031716537  0.030857322            6 
 2922000   0.79195051   -6.0166401    1110.5846  0.031673072  0.030849327           13 
 2923000   0.76225888   -6.0216809    1108.3931  0.031599757  0.030841316            7 
 2924000   0.78358219   -6.0343281    1106.5703     0.031537  0.030833331            6 
 2925000   0.78861758   -5.9828048    1111.3579  0.031662618  0.030825336            7 
 2926000   0.79206004    -6.001405    1111.6345  0.031659675  0.030817359            9 
 2927000   0.77757736   -6.0074833    1110.3323  0.031611784  0.030809346            4 
 2928000   0.78663231    -6.029479    1109.2152  0.031569195  0.030801325            6 
 2929000   0.78275974   -6.0010516     1111.407  0.031620775  0.030793252           11 
 2930000   0.77576247   -6.0289338    1106.8644  0.031480784  0.030785167            4 
 2931000   0.78257476   -6.0223165    1107.7019  0.031493857  0.030777133            9 
 2932000   0.77996708   -6.0281234    1110.0624  0.031550203  0.030769116            7 
 2933000   0.78234511    -6.032014    1106.7051  0.031444058  0.030761069           10 
 2934000   0.75190953   -6.0476229    1109.6659  0.031517437  0.030753037            9 
 2935000   0.78734133   -6.0268113    1109.2828  0.031495821  0.030744986            7 
 2936000   0.78054455   -6.0433897    1108.9657  0.031476094  0.030736935            7 
 2937000    0.7818952   -6.0208592    1112.8105  0.031574467  0.030728896           10 
 2938000   0.80160542   -5.9997707    1111.2298  0.031518885  0.030720906            7 
 2939000   0.78551641   -5.9956828    1114.5032  0.031600976  0.030713006            5 
 2940000   0.77674056   -6.0128288    1115.2582  0.031611626  0.030705036           15 
 2941000    0.7830232   -6.0272588    1109.2476  0.031430568  0.030697123            5 
 2942000   0.78165914   -6.0282458    1109.9272  0.031439135  0.030689101           17 
 2943000   0.78525323   -6.0344798    1107.0178  0.031346071  0.030681109           10 
 2944000   0.78898838   -6.0191382     1109.968  0.031418932  0.030673127           11 
 2945000   0.76291269    -6.001181    1113.1936  0.031499535   0.03066518            5 
 2946000   0.77115509   -6.0364277    1111.8263  0.031450167  0.030657186            8 
 2947000   0.78259277    -6.031092    1114.3162  0.031509902  0.030649278           11 
 2948000   0.78511979   -6.0301065    1112.8694  0.031458316  0.030641336           10 
 2949000     0.790475   -6.0564044    1110.2027  0.031372292  0.030633328            4 
 2950000   0.76976907    -6.041425    1108.3931   0.03131054  0.030625353           17 
 2951000   0.78352979   -6.0166288    1112.4593  0.031414754  0.030617384           10 
 2952000   0.76142928   -6.0093681    1115.5157  0.031490394  0.030609396            5 
 2953000   0.77638071   -6.0079521    1112.7276  0.031401049  0.030601416            5 
 2954000    0.8004078   -6.0220639     1110.756    0.0313348  0.030593391           13 
 2955000   0.79535763   -6.0520637    1109.6866  0.031294039  0.030585345            3 
 2956000   0.77219802   -6.0077656    1112.2406  0.031355452  0.030577411           19 
 2957000   0.77293324   -6.0566713    1108.1688  0.031230097  0.030569397           10 
 2958000   0.79469213   -6.0654846    1109.0924   0.03124556  0.030561378           12 
 2959000   0.78331982    -6.015409    1111.3521  0.031298638  0.030553309            6 
 2960000   0.78257133    -6.036283    1112.1097  0.031309394  0.030545241            9 
 2961000   0.79984378   -6.0484265    1112.5208   0.03131039  0.030537222           16 
 2962000   0.78663301   -6.0067544    1111.8448  0.031280802  0.030529199           11 
 2963000   0.77716652   -6.0346035    1112.0183  0.031275124  0.030521172            7 
 2964000   0.77799706   -6.0345473    1112.5494  0.031279503  0.030513109           11 
 2965000   0.79240364   -6.0262135    1110.7769  0.031219137  0.030505019            7 
 2966000   0.78818798   -6.0354665    1112.3969  0.031254127  0.030496935            5 
 2967000   0.76525128   -6.0340292    1114.1857  0.031293836  0.030488845            9 
 2968000   0.77358578   -6.0042904     1115.093  0.031308765  0.030480788            8 
 2969000   0.78404567   -6.0492176     1109.739  0.031147946  0.030472754           11 
 2970000   0.76576316   -6.0330858    1113.2981  0.031237321  0.030464678           11 
 2971000   0.76525161   -6.0376899    1112.8054  0.031212987   0.03045666            8 
 2972000   0.77760122   -6.0351707    1114.3212  0.031244986  0.030448633           10 
 2973000   0.78299838   -6.0327608    1111.6635  0.031159982  0.030440582           13 
 2974000   0.77785581   -6.0506585    1112.2615   0.03116626  0.030432458           12 
 2975000   0.78470993   -6.0319295    1113.6369   0.03119431   0.03042434            8 
 2976000    0.7791024   -6.0327021    1110.9413  0.031108346  0.030416235            6 
 2977000   0.75929221     -6.02822    1113.8053  0.031178069  0.030408199            7 
 2978000   0.77342589   -6.0555481     1112.823  0.031140111  0.030400148           11 
 2979000   0.76117456   -6.0327769    1113.4683  0.031147708   0.03039209            8 
 2980000   0.77795661   -6.0334775    1113.4647  0.031137157  0.030384098            5 
 2981000   0.77355296   -6.0368484    1112.0672  0.031087643  0.030376083            7 
 2982000   0.76824228   -6.0243819    1114.4445  0.031143653  0.030368077            8 
 2983000   0.77344662   -6.0406034    1111.0751  0.031039085  0.030360091            5 
 2984000   0.78095872   -6.0225874    1113.6741  0.031101265  0.030352158           10 
 2985000   0.76475302   -6.0339239     1115.003  0.031127945  0.030344135            8 
 2986000   0.74418764   -6.0474898    1113.1064   0.03106459  0.030336128            6 
 2987000   0.77099428   -6.0784302     1113.185  0.031056384  0.030328062            5 
 2988000   0.76631986   -6.0455124    1113.9299  0.031066763  0.030319958           12 
 2989000   0.76125853   -6.0630828    1113.0023   0.03103051  0.030311881            7 
 2990000   0.77933234   -6.0373067    1116.1506  0.031107877  0.030303866            8 
 2991000   0.78795097    -6.036975    1116.2213  0.031099444  0.030295892            8 
 2992000   0.77916623   -6.0422594    1115.3046  0.031063519  0.030287867            6 
 2993000   0.76402043   -6.0332933    1117.0872  0.031102774  0.030279853            3 
 2994000   0.77471003    -6.047289    1113.8186  0.031001408  0.030271828            9 
 2995000   0.77179343   -6.0658537    1111.4138  0.030924145  0.030263756            6 
 2996000   0.76143558   -6.0420082     1112.633  0.030947736  0.030255647            8 
 2997000   0.78146341   -6.0449031    1113.1476   0.03095172  0.030247514           17 
 2998000   0.75305396   -6.0246845    1115.5294    0.0310076  0.030239413           15 
 2999000   0.77617429   -6.0523941    1114.9435  0.030980979  0.030231339            4 
 3000000   0.77090414   -6.0577505    1113.5529  0.030932026   0.03022322           21 
 3001000   0.77747625   -6.0291394    1115.5863  0.030978183  0.030215168            8 
 3002000   0.78723552   -6.0204697    1115.8908  0.030976316  0.030207079            6 
 3003000   0.78641453   -6.0490134    1111.0426  0.030831463  0.030198996            5 
 3004000   0.77560825   -6.0526864    1114.0334  0.030904168   0.03019081            5 
 3005000   0.78624982   -6.0612009    1110.8182  0.030804719  0.030182638           10 
 3006000   0.77944103   -6.0390321    1113.9474  0.030881222  0.030174497            5 
 3007000   0.77840955   -6.0616039     1110.035  0.030762525  0.030166344           12 
 3008000   0.75844251   -6.0569039    1113.8617  0.030858314  0.030158224           17 
 3009000   0.78019613   -6.0458441    1111.6771  0.030787558  0.030150062           10 
 3010000   0.77773184   -6.0527256    1111.2181  0.030764621  0.030141849            7 
 3011000   0.77333551   -6.0490631    1114.2057  0.030837089  0.030133646            7 
 3012000   0.76590447   -6.0488675    1113.2011  0.030799056  0.030125488            5 
 3013000   0.75004869   -6.0411753    1113.3228  0.030792199  0.030117286            6 
 3014000   0.76692218   -6.0814763    1115.9163  0.030853692  0.030109157           11 
 3015000   0.77757008   -6.0353902    1113.5456  0.030777933   0.03010107           17 
 3016000   0.76551316   -6.0440589    1114.3719   0.03079056  0.030092983           11 
 3017000   0.77051402   -6.0388276    1114.5802  0.030786107  0.030084835            7 
 3018000   0.75197636   -6.0538811     1110.166  0.030654021  0.030076646           10 
 3019000   0.75073673   -6.0625545    1110.1879   0.03064447  0.030068514            8 
 3020000    0.7603765   -6.0747272     1113.252  0.030718874  0.030060337            7 
 3021000   0.76751707   -6.0470812    1112.9615  0.030700692  0.030052183            5 
 3022000   0.76062714     -6.05231    1115.6267  0.030764027  0.030044044            7 
 3023000   0.76641691   -6.0525573     1117.706   0.03081117  0.030035893            6 
 3024000   0.76413207   -6.0747372     1114.431  0.030710732  0.030027726           10 
 3025000   0.77760168   -6.0659388    1116.5105  0.030757865  0.030019595            6 
 3026000   0.76275716   -6.0362475    1116.1579   0.03073799  0.030011462            8 
 3027000   0.76703015   -6.0623776    1116.0426  0.030724662  0.030003345           10 
 3028000   0.76529011   -6.0635627    1113.9676  0.030657408  0.029995256           14 
 3029000   0.77227307   -6.0456809     1116.484  0.030716518  0.029987102            5 
 3030000   0.76732293     -6.07171    1114.5326  0.030652712  0.029978957           19 
 3031000   0.75898575   -6.0727229    1113.7189  0.030620228  0.029970835            8 
 3032000   0.76235685   -6.0726922    1115.9944  0.030672668  0.029962669            7 
 3033000   0.76429554   -6.0627279    1117.4931  0.030703733  0.029954564            6 
 3034000   0.78479127   -6.0752218    1114.5056  0.030611557  0.029946471           16 
 3035000    0.7634365   -6.0504259    1117.2467  0.030676736   0.02993834           15 
 3036000    0.7872218   -6.0537233     1117.002  0.030659914  0.029930219            6 
 3037000   0.76799681   -6.0207524    1117.8987  0.030674422  0.029922167           10 
 3038000   0.77300021    -6.041931    1115.0108   0.03058511  0.029914108            5 
 3039000   0.77534711   -6.0438398    1114.7912  0.030569026  0.029905997            9 
 3040000   0.76116207   -6.0439891    1115.4522  0.030577089  0.029897806            6 
 3041000   0.77435826   -6.0553908    1116.0229  0.030582672  0.029889651            7 
 3042000   0.76760059   -6.0357523    1117.6118  0.030616147  0.029881565            6 
 3043000   0.76218303   -6.0648097    1115.6216  0.030551582  0.029873492           10 
 3044000    0.7614456   -6.0327161    1118.5452  0.030621583  0.029865436           15 
 3045000   0.74720665   -6.1016378    1114.5238  0.030501471  0.029857308           26 
 3046000     0.770204   -6.0662491    1116.1549  0.030536083  0.029849132           16 
 3047000   0.76775691   -6.0767905    1115.3507  0.030504068  0.029841034            7 
 3048000   0.75525084   -6.0588129    1116.0698   0.03051372  0.029832914            7 
 3049000   0.75111839   -6.0761197    1117.9215  0.030554322  0.029824754            9 
 3050000   0.76863945   -6.0651726    1115.5047   0.03047827  0.029816601            4 
 3051000   0.76588135    -6.088691    1115.9199  0.030479621  0.029808426            7 
 3052000   0.76118513   -6.0868101    1115.7373  0.030464649  0.029800254            7 
 3053000   0.76503521   -6.0651516    1117.0601  0.030490778  0.029792066           11 
 3054000    0.7778964   -6.1002801     1114.336  0.030406461  0.029783953            9 
 3055000   0.77851392   -6.0842605    1117.9879  0.030496123  0.029775818            5 
 3056000   0.75084743   -6.0826326    1118.1483  0.030490519  0.029767706            5 
 3057000   0.76258146   -6.0510427    1119.8117  0.030525888  0.029759654            8 
 3058000   0.76809511   -6.0846843    1116.7194  0.030431639  0.029751602           10 
 3059000   0.76317174   -6.0701364    1118.8537  0.030479833  0.029743506            5 
 3060000    0.7631607   -6.0924056    1114.8546  0.030360963  0.029735375            9 
 3061000   0.77033503   -6.0660477    1119.3586  0.030473663   0.02972728            4 
 3062000   0.76121178   -6.0720173    1113.8395  0.030313506  0.029719186            9 
 3063000   0.76865797   -6.0804325    1117.3528  0.030399196  0.029711116            7 
 3064000   0.75710604   -6.1103579    1115.2074  0.030330923  0.029702988            6 
 3065000   0.76938571   -6.1096709    1114.9409  0.030313781  0.029694829           12 
 3066000   0.76041509   -6.0848878    1120.5206  0.030455551  0.029686661            7 
 3067000   0.77569363   -6.0560707    1121.6868  0.030477308   0.02967856            7 
 3068000   0.75762181   -6.0868742    1120.2055  0.030427139  0.029670513           10 
 3069000   0.75797591   -6.0781491    1119.6976  0.030403431  0.029662492            5 
 3070000   0.75966333   -6.0588587    1119.3668  0.030384548   0.02965441            5 
 3071000   0.74587124   -6.0613782    1119.3107  0.030373134  0.029646421            9 
 3072000   0.76288572   -6.0914058    1119.4654  0.030367442  0.029638415           11 
 3073000   0.76689575    -6.072664    1123.6224   0.03047029  0.029630376            3 
 3074000   0.77604728   -6.0601888    1121.0293  0.030390082  0.029622367           11 
 3075000   0.75123676   -6.0895025    1121.4407  0.030391346  0.029614324           19 
 3076000   0.75559723   -6.0674635    1120.3374  0.030351576  0.029606246           10 
 3077000   0.75762853   -6.0819912    1116.7281  0.030243964  0.029598208            7 
 3078000   0.75441138   -6.1148593    1119.5579   0.03031075   0.02959014            8 
 3079000   0.75492455   -6.0940138    1118.5098   0.03027254  0.029582082           11 
 3080000   0.76589459   -6.1044802    1116.0641  0.030196538  0.029574008            5 
 3081000   0.76020755   -6.0821878    1120.4923   0.03030651   0.02956595            7 
 3082000    0.7641182   -6.0906148      1118.84  0.030252002  0.029557944            9 
 3083000   0.75484944   -6.0638898    1119.4595  0.030258934  0.029549905            8 
 3084000   0.76591691   -6.1036814    1117.2304  0.030188889  0.029541907           19 
 3085000   0.76990787   -6.0789979    1120.1172  0.030257084  0.029533814            7 
 3086000   0.75169678   -6.0959389    1119.9183  0.030241906   0.02952573           15 
 3087000   0.74657023   -6.0646918    1120.6108  0.030250804   0.02951767            9 
 3088000   0.76035427   -6.0941669    1118.9567  0.030196371  0.029509646           10 
 3089000   0.77177739   -6.0713466    1123.4226  0.030307074  0.029501624            5 
 3090000   0.75542931   -6.0862256    1117.5445  0.030138741   0.02949359            7 
 3091000   0.75331612    -6.089548     1118.867  0.030164645  0.029485565            7 
 3092000   0.76122443   -6.0959598    1119.5946    0.0301745  0.029477546           12 
 3093000   0.76086834   -6.0832656    1119.5496   0.03016353  0.029469523            8 
 3094000   0.75921876   -6.0846494    1122.9618  0.030245685  0.029461553            9 
 3095000   0.76528979   -6.1078831    1121.5645  0.030198291  0.029453497            8 
 3096000   0.74463254   -6.1042692    1120.8971  0.030170571  0.029445455           12 
 3097000   0.73303647    -6.089237    1118.8011  0.030104431   0.02943745           10 
 3098000   0.76373715   -6.0746817    1121.9943  0.030180609  0.029429447            6 
 3099000   0.76311731   -6.1134263    1119.9248   0.03011522  0.029421437            6 
 3100000   0.75593547   -6.0842031    1120.8736  0.030131011  0.029413396            5 
 3101000   0.77053394   -6.0816196    1121.5893  0.030140527  0.029405408            7 
 3102000    0.7500499   -6.1021848    1118.8565  0.030057395  0.029397396           12 
 3103000   0.75813498   -6.0886803    1121.5051  0.030118839  0.029389397           19 
 3104000   0.74324455   -6.0598776    1120.0029  0.030068807  0.029381391           13 
 3105000    0.7567171   -6.0788026    1124.8896  0.030190275  0.029373428           13 
 3106000   0.75467317    -6.088946    1121.5886   0.03009199  0.029365473            9 
 3107000    0.7530461   -6.0642953    1123.1796  0.030124977  0.029357509            8 
 3108000   0.75350582   -6.0864996    1121.6574  0.030074469  0.029349529            6 
 3109000   0.75995852   -6.0710129    1122.2735  0.030081309  0.029341533           12 
 3110000   0.75442848    -6.081932    1121.2854   0.03004516  0.029333498            6 
 3111000   0.77343656   -6.0941631    1123.8838  0.030105104  0.029325477            9 
 3112000   0.76252278   -6.0843486    1123.2891  0.030079506  0.029317477           16 
 3113000   0.73635353   -6.1204803    1124.0796  0.030091006  0.029309537            7 
 3114000   0.77083792   -6.1051084    1121.1478  0.030002886   0.02930154            6 
 3115000   0.75481089   -6.1066297    1125.1219  0.030099569   0.02929352            7 
 3116000   0.75831327   -6.0769852    1124.0965  0.030062486  0.029285547            6 
 3117000   0.76545322   -6.0817538    1124.1818  0.030055121  0.029277558            8 
 3118000   0.74959102   -6.1017158    1120.3769  0.029943791  0.029269563           16 
 3119000   0.77908519   -6.0836957    1124.0794  0.030033114  0.029261569           17 
 3120000   0.76546423   -6.1026399    1121.7152  0.029960342  0.029253573           11 
 3121000   0.75286091   -6.0749695    1123.6693  0.030002918  0.029245603           14 
 3122000   0.75416023   -6.1053603    1121.5384  0.029936429  0.029237621           12 
 3123000   0.75324341   -6.1182921    1122.6021  0.029955227  0.029229613            7 
 3124000   0.76620648   -6.1129299    1118.6461  0.029840112  0.029221596            7 
 3125000    0.7395098   -6.1376737    1119.7846  0.029860924  0.029213605            9 
 3126000   0.73882538   -6.1376585    1122.4921  0.029923546    0.0292056            9 
 3127000   0.75970379    -6.110142    1121.5382  0.029888558  0.029197646           15 
 3128000   0.77246574   -6.1074694    1123.1416  0.029921717  0.029189698            6 
 3129000   0.74039048   -6.1062202    1120.3883  0.029838827  0.029181707           10 
 3130000   0.76528713   -6.0913504    1123.2619  0.029905801  0.029173737            6 
 3131000    0.7575601   -6.0768741    1125.7041   0.02996125  0.029165797            7 
 3132000   0.76080394   -6.1067393    1123.0577  0.029881271  0.029157805            7 
 3133000   0.76762837   -6.1235069    1122.8172  0.029865336   0.02914982            6 
 3134000   0.75798882   -6.1419182    1122.6448  0.029851224  0.029141791            6 
 3135000   0.75580295   -6.1018418    1121.9709  0.029823788  0.029133735           14 
 3136000   0.73436586   -6.1010163     1122.764  0.029835353  0.029125735            7 
 3137000   0.74542576   -6.0959107    1125.7929  0.029906305  0.029117743           10 
 3138000   0.73660024   -6.0999552    1126.2146  0.029907972  0.029109788            8 
 3139000   0.74544009   -6.1252595    1123.9186  0.029837492  0.029101849           10 
 3140000   0.74208042   -6.1242189    1126.6411  0.029900242  0.029093893            8 
 3141000   0.76168466   -6.0951971    1124.3377  0.029829612  0.029085943            8 
 3142000   0.74636834   -6.1003539    1127.0099   0.02989099  0.029078045            5 
 3143000    0.7551821   -6.1272545    1125.0348  0.029829113  0.029070109           21 
 3144000   0.74079886   -6.0954367    1125.1531  0.029822761  0.029062185           15 
 3145000   0.75561964   -6.0898354     1126.271  0.029842898  0.029054297            8 
 3146000   0.74571638    -6.125147    1125.1305  0.029803203  0.029046408           40 
 3147000   0.73221508     -6.12519     1126.753  0.029836695  0.029038521            7 
 3148000   0.74793883   -6.1025984    1125.1396  0.029784508  0.029030675           10 
 3149000   0.73833244    -6.087666    1128.5313  0.029864808  0.029022775            7 
 3150000   0.75319972   -6.0897578    1128.1022  0.029843974  0.029014923           13 
 3151000   0.74308494   -6.1101446    1125.7483  0.029772249  0.029007071            6 
 3152000   0.75422668   -6.1380489    1125.1255  0.029746339  0.028999206            8 
 3153000   0.76294805   -6.1212484     1125.269  0.029740697  0.028991314           12 
 3154000   0.72918261    -6.107552       1128.1  0.029806067  0.028983428           10 
 3155000   0.75315443   -6.0914741    1130.2498  0.029853403  0.028975572           11 
 3156000   0.73776923   -6.1277629    1126.3627  0.029741304  0.028967694            6 
 3157000   0.75042916   -6.1090082    1128.1682  0.029779543  0.028959816           17 
 3158000   0.74347276   -6.0870305    1131.1781  0.029849538  0.028952012            9 
 3159000   0.74413229   -6.0842151    1129.9604  0.029807965  0.028944208            6 
 3160000   0.74516608   -6.1057738    1127.2542  0.029727167  0.028936335           21 
 3161000   0.74094367    -6.125633    1124.7684  0.029652231  0.028928447           25 
 3162000   0.74041149   -6.1062169    1126.5342  0.029689388  0.028920573            8 
 3163000   0.74119159   -6.1341479    1129.7871  0.029765705  0.028912723            6 
 3164000   0.74821886   -6.1391741    1126.3149  0.029664846  0.028904863            8 
 3165000   0.74900249   -6.1139633    1126.5362  0.029661302  0.028896998           13 
 3166000   0.76647569   -6.1239648    1125.9685  0.029636989  0.028889081           14 
 3167000   0.75377153   -6.1191658    1127.5092  0.029668173  0.028881206           13 
 3168000   0.76282734   -6.1076809    1126.5286  0.029633012  0.028873327            7 
 3169000   0.74916345   -6.1079612    1126.4141  0.029620649  0.028865458            8 
 3170000   0.72723926   -6.1054763    1127.7733  0.029647036  0.028857602           10 
 3171000   0.75478718   -6.1130681    1128.6332  0.029660287  0.028849725           12 
 3172000   0.74746295   -6.1324772    1127.4947  0.029621024  0.028841859            5 
 3173000   0.73022382   -6.1286637    1125.1948  0.029551287  0.028833938            7 
 3174000   0.74049395   -6.1228855    1126.7261  0.029582181  0.028826051            6 
 3175000   0.73114177   -6.1034302    1128.2388  0.029612568  0.028818142           23 
 3176000   0.74730911   -6.0847867    1129.0892  0.029625556  0.028810261            6 
 3177000   0.75456055   -6.0934996    1128.0942  0.029590131  0.028802378           27 
 3178000    0.7417211   -6.1193319     1129.131  0.029608009   0.02879447           12 
 3179000   0.74664395   -6.1214641    1126.0975  0.029519176  0.028786556            7 
 3180000   0.73645132   -6.1464006    1128.6236   0.02957609  0.028778628           10 
 3181000   0.74934435   -6.1310385    1128.2313  0.029556516  0.028770682           14 
 3182000   0.73679796   -6.1090908    1125.4798  0.029475167  0.028762741           12 
 3183000   0.75996141   -6.1258173    1129.7818  0.029578538  0.028754857            6 
 3184000   0.73596265   -6.1478488    1128.6124  0.029538642  0.028746926            7 
 3185000   0.75638795   -6.1249501    1128.4434  0.029524945  0.028739024            5 
 3186000   0.73745627   -6.0868783    1132.0505  0.029610024  0.028731119           12 
 3187000     0.745984   -6.1214559    1128.4182  0.029505756  0.028723225           12 
 3188000   0.72974399   -6.0965659    1129.9714  0.029537103  0.028715349            7 
 3189000   0.73489047   -6.1542878    1128.2866  0.029483813   0.02870752           18 
 3190000   0.73837379   -6.1395676    1126.8805  0.029437841   0.02869961           17 
 3191000   0.73914328   -6.1156311     1128.558  0.029472421  0.028691707           15 
 3192000   0.74290928   -6.1339734    1128.0219  0.029449192  0.028683816            9 
 3193000   0.75256915   -6.1289798    1127.3057  0.029421278  0.028675985           13 
 3194000   0.73215033    -6.122152    1128.6035  0.029445926  0.028668142            7 
 3195000   0.74395288   -6.1328108     1130.386  0.029483203  0.028660329           10 
 3196000   0.74135023   -6.1146917    1129.2381  0.029444048  0.028652464           11 
 3197000   0.74779539   -6.0931254    1132.5554  0.029521306  0.028644659            7 
 3198000   0.72761106   -6.1343723    1128.9874    0.0294191  0.028636869            9 
 3199000    0.7425658   -6.1204624    1131.7134  0.029480915   0.02862911           16 
 3200000    0.7352715   -6.1109092    1131.1764  0.029457719  0.028621356           17 
 3201000    0.7509062    -6.156783    1129.4232  0.029402875  0.028613529            5 
 3202000   0.72291091   -6.1579354    1130.9025  0.029432191  0.028605739            7 
 3203000   0.73410406   -6.1426463    1130.6275  0.029415846  0.028597951           25 
 3204000   0.75288081   -6.1324517     1130.617  0.029406392  0.028590158           10 
 3205000   0.73942197   -6.1370841    1131.5226  0.029420764  0.028582373           12 
 3206000   0.74741104   -6.0938187    1133.2529  0.029456564  0.028574653            5 
 3207000    0.7330433   -6.1188405    1132.1622  0.029419035  0.028566949            8 
 3208000   0.73077908   -6.1206332     1132.516  0.029419057  0.028559247           12 
 3209000   0.73001053   -6.1307036    1129.5793  0.029333628  0.028551516            6 
 3210000   0.74514378   -6.1355595    1135.6104   0.02948106  0.028543756           16 
 3211000   0.73072073   -6.1217584    1132.2421  0.029384461  0.028536066            9 
 3212000   0.73629965   -6.1013558    1131.5575  0.029357552  0.028528338           13 
 3213000   0.73483224   -6.1245586    1132.4694  0.029372066  0.028520621           29 
 3214000   0.73251036   -6.1016358    1135.3539  0.029437718  0.028512898           14 
 3215000   0.73465399   -6.1042171    1132.9232  0.029365558  0.028505178            5 
 3216000   0.73710202   -6.1298034    1133.9504  0.029383042  0.028497469            8 
 3217000   0.73661023   -6.1080198    1133.7666  0.029369148  0.028489728            6 
 3218000   0.74073817   -6.1366217    1130.8152  0.029283593  0.028481931            4 
 3219000   0.72103442   -6.1674035    1130.2136   0.02925892  0.028474082           11 
 3220000   0.73545136   -6.1203008    1132.7037  0.029314279  0.028466311            8 
 3221000   0.73867168   -6.1438367     1132.342   0.02929582  0.028458561            4 
 3222000    0.7348859   -6.1322054    1132.1058  0.029280617  0.028450802           12 
 3223000   0.74417606   -6.1463556    1133.3067  0.029302584  0.028443084            7 
 3224000   0.73411447   -6.1472759    1133.5352    0.0292994  0.028435296           11 
 3225000    0.7301662   -6.1285045    1132.8476  0.029272549    0.0284275            9 
 3226000   0.71588775   -6.1476095    1131.7907  0.029236172  0.028419711            7 
 3227000   0.73312895   -6.1606496    1131.7916  0.029227136  0.028411881            6 
 3228000   0.74666699   -6.1263373    1135.2707  0.029307896  0.028404135            7 
 3229000   0.72911981   -6.1419428    1133.9737  0.029265349  0.028396411            8 
 3230000   0.72892183   -6.1383296    1136.3426  0.029317404  0.028388767            9 
 3231000   0.73057938    -6.157504    1134.0981   0.02925044  0.028381085           16 
 3232000   0.71932593   -6.1065441    1134.4595   0.02925071   0.02837339           16 
 3233000   0.73676968   -6.1268823    1135.7365  0.029274578  0.028365694           11 
 3234000   0.72311947   -6.1174103     1133.286  0.029202381  0.028357987            5 
 3235000    0.7383266   -6.1281051    1134.4875  0.029224305  0.028350244           14 
 3236000   0.75416916    -6.175676    1132.5377  0.029165062  0.028342522           15 
 3237000   0.72685075   -6.1514582    1131.7404  0.029135526  0.028334746           16 
 3238000   0.74226626   -6.1464056    1132.4273  0.029144206  0.028326994            8 
 3239000   0.73540905    -6.192415    1130.9738  0.029097813  0.028319179           11 
 3240000   0.73808181   -6.1609963    1130.3467  0.029072704  0.028311335            9 
 3241000   0.73025091   -6.1532901    1132.9781  0.029131393  0.028303528           10 
 3242000   0.72456397   -6.1489709    1137.4078  0.029236269  0.028295746           11 
 3243000   0.74300967   -6.1282804    1133.7392  0.029132984  0.028287985           23 
 3244000   0.74377343     -6.16396    1132.3586  0.029088537  0.028280201            9 
 3245000   0.74236979   -6.1849491    1131.2975  0.029052324  0.028272388            7 
 3246000   0.74357693   -6.1407134    1132.3972  0.029071605  0.028264554            6 
 3247000   0.73799318   -6.1815463    1133.0228  0.029078708  0.028256747           12 
 3248000   0.72244131   -6.1532104    1130.8597  0.029014258  0.028248958           16 
 3249000   0.71424473   -6.1348048    1134.5608  0.029100256  0.028241153           17 
 3250000   0.73423677    -6.162661    1130.6944  0.028992164  0.028233346            9 
 3251000     0.729951   -6.1168504    1135.7359  0.029112477  0.028225549            9 
 3252000   0.71897882   -6.1326073    1135.5794  0.029099513  0.028217851           11 
 3253000   0.72569566   -6.1495948    1134.8363  0.029071532   0.02821011           10 
 3254000   0.73823734   -6.1369104    1136.2508  0.029098822   0.02820234            8 
 3255000   0.72251396   -6.1516416    1132.1674  0.028985341  0.028194554            6 
 3256000   0.72794696   -6.1653828    1133.6562  0.029014543  0.028186784            3 
 3257000   0.71792568    -6.175219    1133.7657  0.029008436  0.028178971           10 
 3258000    0.7328368   -6.1288901    1135.0928  0.029033476  0.028171243           10 
 3259000   0.74593743    -6.147914    1131.5593  0.028934216  0.028163455            9 
 3260000   0.72579311   -6.1832267    1131.7518   0.02893026  0.028155631           11 
 3261000   0.72948896   -6.1621503    1133.5772  0.028968036  0.028147862            5 
 3262000   0.72871425   -6.1604961    1133.7618  0.028963873  0.028140131           10 
 3263000   0.72601618   -6.1478216     1133.029  0.028936281  0.028132391           11 
 3264000   0.72106047   -6.1627971    1133.6834  0.028944123  0.028124647            6 
 3265000   0.73483478   -6.1763421    1131.1976  0.028871812  0.028116848            5 
 3266000   0.72917628   -6.1579134    1133.2131  0.028914399  0.028109096            6 
 3267000   0.73228163   -6.1694806    1134.1351  0.028929065  0.028101319           10 
 3268000   0.72368205   -6.1741114    1132.5396  0.028879529  0.028093555            8 
 3269000    0.7147737   -6.1402007    1136.4979  0.028971599  0.028085766           11 
 3270000   0.73305753   -6.1589166    1136.9316  0.028973792  0.028078053           10 
 3271000      0.72431   -6.1520704    1134.6118  0.028905834  0.028070363           17 
 3272000   0.71832917   -6.1665607    1133.9744  0.028880767  0.028062596           17 
 3273000   0.72411062   -6.1739578    1135.2781  0.028905135  0.028054805            7 
 3274000   0.74167032    -6.170415    1135.8634  0.028911204   0.02804705           14 
 3275000   0.74026314   -6.1704349    1133.1181  0.028832522  0.028039311           12 
 3276000   0.74003105   -6.1701126    1134.1066  0.028848865  0.028031587           25 
 3277000   0.72837701   -6.1265158    1136.7962  0.028908459  0.028023906           10 
 3278000   0.72623455   -6.1819368    1134.2351  0.028834531  0.028016173           19 
 3279000   0.72573299   -6.1800222    1134.8189  0.028840573  0.028008448           14 
 3280000   0.72419057   -6.1446599    1136.1076  0.028864523  0.028000758            6 
 3281000   0.73953977    -6.150229    1137.2397  0.028884478  0.027993059            7 
 3282000   0.72639076   -6.1576017    1133.5954  0.028783145  0.027985304           18 
 3283000   0.73113389   -6.1698722    1135.4481  0.028821405  0.027977555           12 
 3284000   0.74404864   -6.1505623    1136.1557  0.028830586  0.027969798            7 
 3285000    0.7184724   -6.1697771    1137.0816  0.028845296  0.027962072            7 
 3286000    0.7219149   -6.1633965    1133.8471   0.02875449  0.027954346            7 
 3287000    0.7093906   -6.1586386    1136.9881  0.028825376  0.027946611            9 
 3288000   0.73338436   -6.1500571    1136.9747  0.028816268  0.027938851            7 
 3289000   0.72594122   -6.1916514     1136.205  0.028788006  0.027931123           12 
 3290000   0.72461602   -6.1922264    1133.2812  0.028705198  0.027923327           10 
 3291000   0.73741325   -6.1614829    1134.0533  0.028716026  0.027915602           13 
 3292000   0.74405752   -6.1662774    1136.3606  0.028765711  0.027907885            8 
 3293000   0.72018704    -6.135035    1136.3809  0.028757489  0.027900187            6 
 3294000   0.73061068   -6.1563501    1133.5824   0.02867796  0.027892535           13 
 3295000   0.70976402   -6.1420165    1137.6827  0.028772957  0.027884894           10 
 3296000   0.72304711   -6.1628817    1137.2811  0.028754074  0.027877206            5 
 3297000   0.72325203   -6.1508741    1138.5601  0.028777679  0.027869502           10 
 3298000   0.71733883   -6.1746817    1136.2576  0.028710775  0.027861801            9 
 3299000   0.72139426   -6.1938694    1135.2174  0.028675795  0.027854085           15 
 3300000   0.71830731   -6.1673663    1135.1116  0.028664434  0.027846356            8 
 3301000   0.72398227   -6.1782808    1137.4771  0.028715467  0.027838674           12 
 3302000   0.71238447   -6.1658662    1136.8313  0.028690472  0.027830973           15 
 3303000   0.73694899   -6.1914214    1137.9941  0.028711123   0.02782331           10 
 3304000   0.73847078   -6.1776876    1136.1093  0.028654895  0.027815664           11 
 3305000   0.70649615   -6.1578336    1138.1103  0.028696678   0.02780799           27 
 3306000   0.72481831   -6.1754293    1137.7149  0.028678031  0.027800331            5 
 3307000   0.71313655   -6.1875417    1137.2521  0.028657698  0.027792689           11 
 3308000   0.72168268   -6.1641679     1137.136  0.028646111  0.027785059           11 
 3309000   0.73278698   -6.1522487     1137.809  0.028654403  0.027777422           10 
 3310000   0.72738089   -6.1943265    1137.1824  0.028629969  0.027769799           35 
 3311000   0.73092403   -6.1876911    1139.3421   0.02867568  0.027762159           14 
 3312000   0.72067415   -6.1733058    1138.0348  0.028634129  0.027754517           10 
 3313000   0.71853707   -6.1781134    1140.5232  0.028688076  0.027746855            6 
 3314000   0.71448297   -6.1736906    1138.2193  0.028621487  0.027739194           10 
 3315000    0.7215783   -6.1755217    1137.8887  0.028604544   0.02773151            5 
 3316000   0.71595616    -6.219769    1136.3127   0.02855631  0.027723846            9 
 3317000   0.70461315   -6.1865628    1138.3597  0.028599128  0.027716197            9 
 3318000   0.74362865   -6.1517097    1141.7217  0.028674947  0.027708534            8 
 3319000   0.71639548   -6.1941779    1138.6322  0.028588738  0.027700897           12 
 3320000    0.7169324   -6.1902486    1139.5682   0.02860362  0.027693191           11 
 3321000   0.70733956   -6.1680018    1137.9604  0.028554662   0.02768556           16 
 3322000   0.73519061   -6.1980785    1140.2071  0.028602424  0.027677928           17 
 3323000   0.72158189   -6.1779414    1140.1233  0.028591717  0.027670251            7 
 3324000   0.71608112   -6.1859644    1141.7243  0.028623252  0.027662639           15 
 3325000   0.73081893   -6.1500741    1140.3234  0.028579535  0.027655079            9 
 3326000   0.72353778   -6.1572075    1141.6239  0.028603524  0.027647477           11 
 3327000   0.70986841   -6.1984431    1135.7899    0.0284488  0.027639826           18 
 3328000   0.71604966    -6.162223    1140.7721  0.028565006  0.027632161            8 
 3329000    0.7322089   -6.1800491     1137.773  0.028481351  0.027624572           18 
 3330000    0.7376386   -6.1632544    1138.7828  0.028498067  0.027616954           31 
 3331000   0.73420585   -6.2056786     1138.452  0.028481238  0.027609301           13 
 3332000   0.73608557   -6.1599008    1137.4174  0.028446815  0.027601666            8 
 3333000   0.71838064   -6.1819147    1141.8811  0.028549882  0.027594092           10 
 3334000   0.72168733   -6.1828386    1137.1308  0.028422586  0.027586486           16 
 3335000   0.71397663    -6.164208    1139.3834  0.028470351  0.027578891            6 
 3336000   0.71543364   -6.1979706     1138.393  0.028437076  0.027571277           10 
 3337000   0.72515152   -6.1823323    1139.3814  0.028453236  0.027563621            5 
 3338000    0.7206575   -6.1811334     1140.998  0.028485072  0.027555985           16 
 3339000    0.7264451   -6.1976797    1140.5022  0.028464167   0.02754834           11 
 3340000   0.71770554   -6.2056613     1138.507  0.028405864  0.027540695            6 
 3341000   0.72518488   -6.1915656    1139.6281  0.028425325  0.027533055            6 
 3342000    0.7231187    -6.204966    1141.0952    0.0284534  0.027525417            9 
 3343000   0.72784714   -6.1893094    1139.5741  0.028406973  0.027517819           17 
 3344000   0.70586335    -6.179873    1139.8428  0.028405172  0.027510196           24 
 3345000   0.71546117   -6.1848173    1138.6538  0.028367061  0.027502583            8 
 3346000   0.70844509   -6.2050626    1140.8528  0.028413349  0.027494991           10 
 3347000   0.72503406   -6.2003061    1139.0039  0.028358827  0.027487342            7 
 3348000    0.7252134   -6.1588635    1143.7891  0.028469462  0.027479762           10 
 3349000   0.71520222   -6.1593358    1140.0113  0.028366958  0.027472197            9 
 3350000   0.70948068   -6.1880275    1142.5729  0.028422211  0.027464603            5 
 3351000   0.71365516   -6.2043398    1139.3571  0.028333759  0.027456945           15 
 3352000    0.7300809   -6.2239637    1137.0336  0.028267543  0.027449224            8 
 3353000   0.71229017    -6.213171    1137.1538  0.028262098  0.027441496            7 
 3354000   0.71917301   -6.2021146    1138.0262  0.028275347  0.027433828           16 
 3355000   0.72585299   -6.2105655     1137.523  0.028254421  0.027426142            8 
 3356000   0.72014692   -6.1732535    1137.8062  0.028253034  0.027418485            5 
 3357000   0.71718994   -6.1837967    1143.0287   0.02837426  0.027410851            8 
 3358000   0.71852856   -6.1765891    1139.8222  0.028286237  0.027403243           11 
 3359000   0.71792974   -6.1856853     1139.121  0.028260419  0.027395615           14 
 3360000   0.71852996   -6.1923492    1139.3488  0.028257658  0.027387951           10 
 3361000   0.69713797   -6.2020768     1140.767  0.028284414  0.027380339           13 
 3362000   0.72230378   -6.2041575    1137.4158  0.028192936  0.027372715           10 
 3363000   0.71218625   -6.1933933    1141.3722   0.02828259  0.027365131           11 
 3364000   0.71467451   -6.1893711    1138.6985  0.028207949  0.027357558           20 
 3365000   0.70700879   -6.1790449    1141.7457  0.028275029  0.027349959            8 
 3366000   0.70671308   -6.1741789    1139.0087  0.028198869  0.027342377           12 
 3367000   0.72649324   -6.1891947    1142.2396  0.028270459  0.027334763           11 
 3368000   0.71248395   -6.1925233    1139.1942  0.028186713  0.027327116           14 
 3369000   0.71451415    -6.203817    1138.8369  0.028169509   0.02731948           18 
 3370000   0.71232178   -6.2036732    1140.2126  0.028195169  0.027311824           24 
 3371000   0.71496399   -6.2043159    1140.2823  0.028188528  0.027304208           10 
 3372000    0.7176884    -6.180226    1139.7438   0.02816686  0.027296627           24 
 3373000   0.71651127   -6.1839233    1138.0759  0.028117302  0.027289012            6 
 3374000   0.73132732   -6.2014023    1142.8116  0.028225933  0.027281398            6 
 3375000   0.71010068   -6.1942674    1139.8856  0.028145324  0.027273779            7 
 3376000   0.69799658   -6.1920336    1141.9144  0.028187065  0.027266202            9 
 3377000   0.69790018   -6.1767443    1139.9103  0.028129264  0.027258583            6 
 3378000   0.72117803   -6.1920782    1139.3115  0.028106165  0.027250988            6 
 3379000   0.69819274   -6.2088965    1140.5633  0.028128719    0.0272434            4 
 3380000   0.69852077   -6.1926157    1140.8863   0.02812836    0.0272358            8 
 3381000   0.69970133   -6.1838554    1141.4214   0.02813323  0.027228198            5 
 3382000   0.71315919   -6.2418914    1139.0865  0.028067378  0.027220563            9 
 3383000   0.71366362    -6.215589    1138.0419   0.02803335  0.027212923           17 
 3384000   0.72674865    -6.207216    1138.4336  0.028034713  0.027205253            6 
 3385000   0.69169195    -6.198104    1138.2629  0.028022227   0.02719761           11 
 3386000   0.70349802   -6.2052383    1139.5484  0.028045591  0.027189986           17 
 3387000   0.69128786   -6.2130336    1139.4392  0.028034624  0.027182337           11 
 3388000   0.72865427    -6.218797    1137.9437  0.027989564  0.027174677           17 
 3389000   0.72766083   -6.2022438    1138.8652  0.028003963  0.027167041           40 
 3390000   0.70397753   -6.2020537    1141.3873  0.028057702  0.027159385           13 
 3391000   0.70933709   -6.2137662    1139.9666  0.028014514  0.027151722           15 
 3392000   0.70870452   -6.2039913    1140.3963  0.028016811  0.027144056           17 
 3393000   0.69644269    -6.207521    1141.1423  0.028026876  0.027136375           16 
 3394000   0.71892167   -6.1945494    1140.1797  0.027994983  0.027128685            9 
 3395000    0.6930114   -6.2046594    1139.3206   0.02796565  0.027121037           18 
 3396000   0.71626481   -6.2317727    1140.1172  0.027976964  0.027113347           16 
 3397000   0.70345571   -6.1898494    1139.5115   0.02795387  0.027105722           17 
 3398000   0.70521407   -6.2187731    1139.7319  0.027951046  0.027098071           10 
 3399000   0.69917679   -6.2023669    1139.3089  0.027932453  0.027090374            5 
 3400000   0.70908879   -6.1948995    1139.1678  0.027920779  0.027082666           11 
 3401000   0.71546121   -6.2258263    1137.5221  0.027872246   0.02707499           18 
 3402000   0.68958876   -6.1893215    1139.6837  0.027917002  0.027067331            5 
 3403000   0.70047259    -6.202403    1139.7682  0.027910869  0.027059712           12 
 3404000   0.70511629   -6.2006624    1141.8851  0.027954492  0.027052087            6 
 3405000   0.70341819   -6.2226024    1140.4512  0.027911189  0.027044447           10 
 3406000   0.69682297   -6.2171894     1140.333  0.027900102  0.027036811            7 
 3407000   0.70689863   -6.2144399    1139.3367  0.027867546  0.027029113           16 
 3408000   0.70700701   -6.1997776     1141.085  0.027902117  0.027021468           13 
 3409000   0.69580397    -6.207855    1139.7505  0.027861311  0.027013825           19 
 3410000   0.70830547   -6.2224459    1139.2245  0.027840286  0.027006156           10 
 3411000   0.69718042   -6.2056102    1138.7871  0.027821438  0.026998488           18 
 3412000   0.69208804   -6.2149414    1137.0297  0.027770361  0.026990796           11 
 3413000   0.69589039   -6.2151691    1139.6978   0.02782737  0.026983107           18 
 3414000   0.71519112   -6.1933368    1139.0761  0.027804044  0.026975434           11 
 3415000    0.7185598   -6.2042156    1139.1139  0.027796826  0.026967774            6 
 3416000   0.71979228   -6.2065114    1138.5712  0.027775448  0.026960121           18 
 3417000    0.7046707   -6.2376517    1139.6631  0.027793949  0.026952501            7 
 3418000   0.71110887   -6.2165693     1139.549  0.027783037   0.02694483           11 
 3419000   0.71050906    -6.219862    1139.0131  0.027761847  0.026937191            8 
 3420000   0.70793679    -6.218115    1140.0016  0.027777817  0.026929516           12 
 3421000   0.71331818   -6.2131431    1140.3891  0.027779136  0.026921889           12 
 3422000    0.7039538   -6.2333099    1139.6838  0.027753843  0.026914266            9 
 3423000   0.70241994   -6.2147826     1140.258  0.027759714  0.026906612           13 
 3424000   0.73654987   -6.2387845    1141.8146   0.02778949  0.026898968           14 
 3425000   0.70362077   -6.2180864    1140.1407   0.02774065  0.026891327           13 
 3426000   0.70605085   -6.2181522    1142.0448  0.027778868  0.026883729           16 
 3427000   0.70244151   -6.2164205    1142.3555  0.027778317  0.026876119           11 
 3428000   0.70932152   -6.2311375     1139.276  0.027695352   0.02686851           17 
 3429000   0.69616211    -6.212127    1142.3329  0.027761567  0.026860896            7 
 3430000   0.71245713   -6.1912899    1141.5677   0.02773488  0.026853341            9 
 3431000   0.70557883    -6.207445    1143.6822  0.027778155  0.026845787           10 
 3432000   0.70165763   -6.2324447    1144.7164  0.027795174  0.026838168           10 
 3433000   0.70226841   -6.2476891    1140.5277  0.027685398  0.026830533            7 
 3434000   0.71264965   -6.2496029    1138.5327  0.027628925  0.026822903           10 
 3435000   0.68896455   -6.2456566    1142.6588  0.027720981  0.026815277           13 
 3436000   0.72298784   -6.2662267    1136.6414  0.027566972   0.02680764            9 
 3437000   0.69811606   -6.2280951    1141.5553  0.027678095  0.026800016           11 
 3438000   0.70483792   -6.2287713    1142.7238  0.027698367   0.02679241            6 
 3439000   0.68897858   -6.2258752    1143.0479  0.027698166  0.026784799           11 
 3440000   0.70237936   -6.2204964    1144.2937  0.027720294  0.026777172           11 
 3441000   0.69594395    -6.214911    1143.8074   0.02770046  0.026769613           17 
 3442000   0.69403651   -6.2102635    1142.9993  0.027672848  0.026762082           12 
 3443000   0.69974948   -6.2324764    1142.2169  0.027645873  0.026754574            9 
 3444000   0.68718067   -6.2305765    1142.8827  0.027653957   0.02674707           16 
 3445000   0.70327242   -6.2191162    1143.7391  0.027666644  0.026739551           11 
 3446000   0.69761507   -6.2127815    1139.5033  0.027556184  0.026732009           41 
 3447000   0.70007914   -6.1917043    1144.5757  0.027670817  0.026724462           15 
 3448000   0.70977498   -6.2105897    1140.4214  0.027562389  0.026716971            5 
 3449000   0.70220708    -6.236831    1143.8807   0.02763798  0.026709484            5 
 3450000   0.69552184   -6.2279677    1142.9717  0.027608012  0.026701977           17 
 3451000   0.69568298   -6.2362699    1141.9832  0.027576142  0.026694455           14 
 3452000   0.70507056   -6.2140882    1143.5405  0.027605747  0.026686918           19 
 3453000    0.6819103   -6.2280248     1140.432  0.027522733  0.026679355           10 
 3454000    0.7138731   -6.2316861    1144.5652  0.027614486  0.026671809           11 
 3455000   0.70241096   -6.2180637    1146.0746  0.027642899   0.02666429           15 
 3456000   0.70189836   -6.2278831    1142.7323   0.02755431   0.02665675           16 
 3457000   0.69630687   -6.2544555    1142.7443  0.027546627  0.026649208           10 
 3458000   0.69975293   -6.2403844    1142.5402  0.027533742  0.026641655           39 
 3459000    0.7067261   -6.2247684    1141.7697  0.027507221  0.026634107           35 
 3460000   0.69601687   -6.2176729    1144.7526  0.027571114  0.026626583           21 
 3461000   0.69195615   -6.2403942    1143.2245  0.027526354  0.026619071           30 
 3462000   0.68776232   -6.2211136    1142.6878  0.027505482  0.026611568           27 
 3463000   0.69930974   -6.2149363    1144.5176  0.027541573   0.02660409           12 
 3464000   0.69688228    -6.247055    1142.8019  0.027492348   0.02659659           24 
 3465000    0.7129113   -6.2368595    1144.0126  0.027513529  0.026589069           13 
 3466000   0.71557216   -6.2598155    1144.7432  0.027523159  0.026581523           11 
 3467000   0.68649564   -6.2292275    1144.3102  0.027504812  0.026574026           16 
 3468000   0.69289208   -6.2252921    1143.4889  0.027477146  0.026566538           15 
 3469000   0.69451411   -6.2312422    1143.9351  0.027479945  0.026559056           15 
 3470000   0.68721926   -6.2001687    1145.6733  0.027513768  0.026551591            8 
 3471000   0.69493396    -6.262261    1141.4746  0.027405038  0.026544095            9 
 3472000   0.71817675   -6.2547696    1144.0486  0.027458925  0.026536605            7 
 3473000   0.68416032   -6.2156149    1142.2652  0.027408225  0.026529132            7 
 3474000   0.69393916   -6.2365122    1144.7657  0.027460316  0.026521663           11 
 3475000   0.69517487   -6.2468302     1148.203  0.027534844  0.026514198            9 
 3476000   0.69063091   -6.2595264    1145.7185   0.02746736  0.026506719           10 
 3477000   0.69770809   -6.2264848    1144.2485  0.027424229  0.026499233           10 
 3478000   0.69872083   -6.2282802    1144.0232  0.027410946  0.026491797           17 
 3479000   0.69197618   -6.2398182     1143.828  0.027398391  0.026484356            8 
 3480000   0.69104454   -6.2192204    1144.5248  0.027407204  0.026476896           25 
 3481000   0.69381057   -6.2240547     1147.608  0.027473141   0.02646947           12 
 3482000   0.70194524   -6.2447105    1145.9733  0.027426127  0.026462038           10 
 3483000   0.71157347    -6.243581    1146.3226   0.02742661  0.026454569           10 
 3484000   0.69296626   -6.2446555    1143.0229  0.027339812   0.02644707           11 
 3485000   0.69463997   -6.2596876    1145.3797  0.027388324    0.0264396            9 
 3486000   0.69310495   -6.2644585    1144.1545  0.027351178  0.026432098            9 
 3487000   0.68878173   -6.2603148    1144.8019  0.027358805  0.026424604           24 
 3488000    0.6796036   -6.2600802    1142.5168  0.027296367    0.0264171            7 
 3489000   0.69285849   -6.2663176    1145.4787  0.027359288  0.026409588           15 
 3490000    0.6956599   -6.2663628    1143.0234  0.027292821  0.026402065            9 
 3491000   0.68663228   -6.2501738    1143.1084  0.027287034  0.026394555           23 
 3492000   0.69347486   -6.2459076    1145.6599  0.027340108   0.02638708           18 
 3493000   0.69216357   -6.2556459    1141.7504  0.027239011  0.026379581           16 
 3494000   0.68915854   -6.2685528    1142.3218  0.027244844  0.026372024           31 
 3495000   0.69675828   -6.2478186    1143.5688  0.027266782  0.026364491           11 
 3496000   0.70189137   -6.2643659    1142.1046  0.027224079  0.026357005           11 
 3497000   0.69297865   -6.2496062    1143.2487  0.027243558  0.026349513           10 
 3498000   0.70485104   -6.2729856    1140.6921  0.027174865  0.026342029           14 
 3499000   0.68798693    -6.262728    1146.7919  0.027312373  0.026334502           14 
 3500000   0.69403198   -6.2476035    1144.2672  0.027244456  0.026327007           14 
 3501000     0.691511   -6.2591621    1143.4077  0.027216217  0.026319493           31 
 3502000   0.66460324   -6.2441464    1144.6359   0.02723767  0.026311988            6 
 3503000   0.70965968    -6.261541    1144.7987  0.027233768  0.026304526            7 
 3504000   0.68537273   -6.2435051    1146.1702  0.027258613  0.026297101           18 
 3505000   0.69612828   -6.2442388    1140.6409  0.027119375  0.026289628           10 
 3506000   0.67864919   -6.2421215    1144.6164  0.027206132  0.026282145            6 
 3507000   0.70053768   -6.2385651    1147.0631  0.027256514  0.026274696            6 
 3508000   0.69337204   -6.2575995    1142.7014  0.027145131  0.026267237           10 
 3509000   0.69231212   -6.2577034    1145.1483  0.027195505  0.026259797            9 
 3510000   0.69604966   -6.2119823     1146.336  0.027215955  0.026252354            8 
 3511000   0.70229807   -6.2289714    1145.6865  0.027192786  0.026244917           12 
 3512000   0.68662092   -6.2589744    1146.3004   0.02719961   0.02623747           26 
 3513000   0.67730769   -6.2449725    1144.0997  0.027139666  0.026230057           12 
 3514000   0.69001331   -6.2651137    1145.2837   0.02716002  0.026222603           15 
 3515000   0.70086086   -6.2263232    1144.6282  0.027136752   0.02621521           12 
 3516000   0.68990357   -6.2580831    1146.7244  0.027178717  0.026207775            7 
 3517000   0.68463127   -6.2593842    1145.0763  0.027131938  0.026200361           17 
 3518000   0.69340422   -6.2445801    1147.8153  0.027189106  0.026192949           10 
 3519000    0.6792477   -6.2489196     1145.991  0.027138178  0.026185513            7 
 3520000   0.70638798   -6.2677619    1144.9274  0.027105289  0.026178038           14 
 3521000   0.67948665   -6.2617134    1143.8517  0.027072132  0.026170579           21 
 3522000   0.69140869    -6.257192    1145.9946  0.027115148  0.026163137            8 
 3523000   0.68116561   -6.2656193     1143.721  0.027053671  0.026155697            8 
 3524000   0.70123787    -6.262272    1145.2998  0.027083329  0.026148244            8 
 3525000   0.70531219   -6.2586526    1145.3334   0.02707644    0.0261408            8 
 3526000   0.68671646   -6.2685041    1142.5883  0.027003884  0.026133331            7 
 3527000   0.68876142   -6.2691156    1142.9287  0.027004268  0.026125873           11 
 3528000   0.68756303   -6.2884284    1143.7123  0.027015125  0.026118432           10 
 3529000   0.67736679   -6.2845119    1144.7315  0.027031537  0.026110944           41 
 3530000   0.66974814   -6.2505491    1145.2757  0.027036726  0.026103461           18 
 3531000   0.68964314   -6.2502906    1147.8696  0.027090285  0.026096015           22 
 3532000   0.67560698    -6.263899    1145.5813  0.027028625  0.026088542           26 
 3533000   0.68909783   -6.2823588    1145.8228  0.027026673  0.026081114           54 
 3534000   0.69749223   -6.2697249    1145.8705   0.02702015   0.02607369           21 
 3535000   0.69602635   -6.2811325    1146.8394  0.027035347  0.026066272           18 
 3536000   0.68103884   -6.2353285    1145.9793  0.027007432  0.026058878           23 
 3537000   0.69739015    -6.301565    1145.2271  0.026982074   0.02605147           14 
 3538000   0.69257524   -6.2785645    1146.2434  0.026998385  0.026044006            8 
 3539000    0.6672268   -6.2505846    1148.4523   0.02704277  0.026036587           14 
 3540000   0.70128772   -6.2731564    1147.1514  0.027004505  0.026029193            8 
 3541000   0.69257887   -6.2801714    1149.2396  0.027046023  0.026021831            9 
 3542000   0.67239796   -6.2564104    1145.4476  0.026949172  0.026014464           14 
 3543000   0.67876076   -6.2659004    1146.5406  0.026967274  0.026007109            8 
 3544000   0.70187866   -6.2543951    1147.7636  0.026988421  0.025999744            8 
 3545000   0.68799455   -6.2573166    1144.2654  0.026898574  0.025992398           12 
 3546000   0.68526201   -6.2762161    1147.0323  0.026956014  0.025984972           11 
 3547000   0.70828771   -6.2883616    1142.2512  0.026836088  0.025977553            7 
 3548000    0.6585864   -6.2709298    1144.8683  0.026889992  0.025970073           15 
 3549000   0.68433775   -6.2860284    1144.8674  0.026882394  0.025962619            7 
 3550000    0.6894037   -6.2387096    1147.6852  0.026940967  0.025955213           10 
 3551000    0.6807078   -6.2450942    1147.5993  0.026931365  0.025947803           12 
 3552000   0.67699605   -6.2726418    1148.4058  0.026942704  0.025940404           14 
 3553000   0.69205218   -6.2593138    1144.8103  0.026850791  0.025933017           16 
 3554000   0.69820442   -6.2807356    1143.9706  0.026823547  0.025925614           19 
 3555000   0.68635468   -6.2593481    1145.8284   0.02685955  0.025918208           20 
 3556000   0.66868156   -6.2477918    1148.9879  0.026926037  0.025910826           10 
 3557000   0.68883792   -6.2356602      1147.58  0.026885483   0.02590348           18 
 3558000   0.67517402    -6.242552    1146.4478   0.02685141  0.025896124           48 
 3559000   0.69009544   -6.2543435    1148.4705  0.026891227  0.025888769           16 
 3560000   0.68384538   -6.2517588    1148.5458  0.026885436  0.025881389            9 
 3561000   0.69210684    -6.258771     1146.737  0.026835556  0.025873997           15 
 3562000   0.67926692   -6.2462376    1151.2811  0.026934332  0.025866626           17 
 3563000     0.695202   -6.2945648    1148.2336  0.026855497  0.025859288            6 
 3564000   0.67102982   -6.2715692    1149.0781  0.026867707  0.025851928            6 
 3565000   0.67811299   -6.2783787    1145.4599  0.026775594  0.025844566           13 
 3566000   0.68437355   -6.2708565    1149.7391  0.026868084  0.025837203           11 
 3567000   0.68656122   -6.2866795    1146.8631  0.026793362  0.025829839           26 
 3568000   0.68308396    -6.272179    1148.8005  0.026831104  0.025822509           15 
 3569000   0.67776696   -6.2729881    1148.2016  0.026809601  0.025815171           12 
 3570000   0.66189836   -6.2834081    1147.2501  0.026779881  0.025807833           15 
 3571000   0.70163807   -6.2592092    1150.0029  0.026836621  0.025800528           11 
 3572000   0.68148568    -6.259549    1148.2222  0.026787566  0.025793188           11 
 3573000    0.6846225   -6.2834593    1146.9257  0.026749829  0.025785872           13 
 3574000   0.68754603   -6.2424495     1149.086  0.026792715  0.025778565           13 
 3575000   0.68150322   -6.2668405    1147.8563  0.026756557  0.025771251           28 
 3576000   0.68652131   -6.2759502     1145.461  0.026693255  0.025763906           20 
 3577000    0.6763659   -6.2792839    1147.3218  0.026729143  0.025756535           21 
 3578000   0.68380561   -6.2900073    1146.6462  0.026705939  0.025749141           15 
 3579000   0.67980979   -6.2745317    1151.4936  0.026811344  0.025741769           19 
 3580000   0.69558031   -6.2487999    1149.2557  0.026751762  0.025734454           18 
 3581000   0.66389347   -6.2836586    1147.3387  0.026699682  0.025727116           30 
 3582000   0.66795522   -6.2811267    1147.4375  0.026694525  0.025719783           15 
 3583000   0.67679432   -6.2715375    1149.4724  0.026734404  0.025712459           11 
 3584000   0.66733569   -6.2812811    1145.4431  0.026633256  0.025705103           16 
 3585000   0.68492681   -6.2787891    1149.1101  0.026711068  0.025697728           15 
 3586000    0.6760053   -6.2695992    1151.6819  0.026763382  0.025690366           13 
 3587000   0.68332448   -6.2882273    1148.1086  0.026672907  0.025683024           30 
 3588000   0.66976674   -6.2699665    1148.3594  0.026671298  0.025675662           16 
 3589000   0.66741948    -6.294878    1149.3876  0.026687741   0.02566832           15 
 3590000   0.68187938   -6.2504725    1147.5087  0.026636691  0.025660975           10 
 3591000   0.67373405   -6.3162737    1146.4512  0.026604734  0.025653624           14 
 3592000   0.68202462   -6.2855717    1145.4143  0.026573271  0.025646258           19 
 3593000   0.68480643   -6.2763058    1145.8419  0.026575793  0.025638892           25 
 3594000   0.65956148   -6.3077103    1145.7826  0.026567023  0.025631497           10 
 3595000   0.66904623   -6.2948256    1145.3882  0.026550492   0.02562415           12 
 3596000   0.67834357   -6.3097185    1145.9984  0.026557248  0.025616794           22 
 3597000   0.67659907    -6.306217    1148.4661  0.026607035  0.025609436           22 
 3598000   0.67725038   -6.2645196    1149.9784  0.026634666  0.025602126           14 
 3599000   0.67782461   -6.2734507    1144.7643  0.026506536   0.02559482           22 
 3600000   0.66296835   -6.2833707    1149.5257  0.026609391  0.025587467           13 
 3601000   0.66853613    -6.301595    1147.0219   0.02654406  0.025580107           26 
 3602000    0.6752582    -6.315809    1144.1159  0.026469459  0.025572719           13 
 3603000   0.68245502   -6.2894724    1147.9741  0.026551348   0.02556534           18 
 3604000   0.69097071   -6.3104805    1147.5332  0.026533786  0.025557994            8 
 3605000   0.67313009   -6.3171612     1144.204  0.026449469   0.02555061           10 
 3606000   0.67266216   -6.2954041    1146.4247  0.026493452  0.025543237           17 
 3607000   0.67201459   -6.2833462    1149.3318  0.026553271  0.025535917           16 
 3608000   0.68347974   -6.2899062    1149.2372  0.026543728  0.025528606           20 
 3609000   0.66791026   -6.2970104     1148.097  0.026510043    0.0255213           22 
 3610000   0.67614414   -6.2866771    1147.9511  0.026499332  0.025514015           12 
 3611000   0.66571343   -6.3022132    1145.7534  0.026441277   0.02550672           13 
 3612000   0.67823838   -6.2985662    1152.7208  0.026594702  0.025499394            6 
 3613000   0.68269555   -6.2863396    1151.9495  0.026569552  0.025492114            7 
 3614000   0.68396486    -6.290696      1148.55  0.026483812  0.025484832            6 
 3615000   0.66921232   -6.2999565    1150.0056  0.026510041  0.025477536           18 
 3616000    0.6754452   -6.2927799    1147.9479   0.02645529  0.025470232           25 
 3617000   0.68719369   -6.3062545    1151.6279   0.02653276   0.02546293           61 
 3618000   0.67810013   -6.3042324    1149.5915  0.026478521  0.025455657           31 
 3619000   0.66923374   -6.3016245    1147.5961  0.026425257  0.025448342           13 
 3620000   0.67134854   -6.2975189    1149.1578  0.026453908  0.025441037           28 
 3621000    0.6803232   -6.2701712    1149.8742   0.02646309  0.025433771           13 
 3622000   0.67401621   -6.3184853    1147.2877  0.026396274  0.025426492           19 
 3623000   0.67414378   -6.3133723    1147.2471  0.026388057  0.025419117           36 
 3624000   0.65869252   -6.2867589    1150.8107  0.026462718  0.025411782           10 
 3625000   0.67308027   -6.3079126    1148.4828  0.026401904  0.025404455           10 
 3626000   0.67340698   -6.2812366    1148.0292  0.026384196  0.025397146           22 
 3627000   0.65631665   -6.3293404    1147.0748  0.026354995   0.02538983           32 
 3628000   0.67546253   -6.3202463    1145.8091  0.026318658  0.025382486           33 
 3629000   0.68048661   -6.2926846    1151.2464  0.026436263  0.025375191           13 
 3630000    0.6778227   -6.3064675    1148.9867  0.026377106  0.025367939           28 
 3631000   0.66751904   -6.3201655    1148.9676  0.026369403  0.025360681           26 
 3632000   0.67256192   -6.3240667    1150.8813   0.02640605   0.02535345           30 
 3633000   0.66835245   -6.3011821    1152.4664   0.02643514  0.025346223           12 
 3634000   0.67313454   -6.3236537     1151.942  0.026415842  0.025338984           13 
 3635000   0.66696794   -6.3120245    1151.0128  0.026387271  0.025331755           17 
 3636000   0.67451522    -6.299828    1151.0201  0.026380182  0.025324529           32 
 3637000   0.66506869   -6.3077207    1151.8269  0.026391414  0.025317335           12 
 3638000   0.67142365   -6.3327097    1148.8771  0.026316592  0.025310148           22 
 3639000   0.67895778   -6.2988834    1151.0228  0.026358496  0.025302956           12 
 3640000    0.6793736   -6.3088798    1152.5611  0.026386473  0.025295785           22 
 3641000   0.68610841   -6.3241633     1150.518  0.026332463  0.025288584           22 
 3642000   0.65808881   -6.2952956    1152.1795  0.026363251  0.025281442           27 
 3643000   0.66688246   -6.3176085      1155.17  0.026424422  0.025274289           31 
 3644000   0.67748414   -6.2947128    1152.4321  0.026354558  0.025267106           24 
 3645000   0.67982164   -6.3009532    1151.6488   0.02632942  0.025259939           30 
 3646000   0.66829789   -6.3060778    1152.4051  0.026339485  0.025252757           40 
 3647000   0.64781824   -6.3118509    1153.4952  0.026357171   0.02524557           28 
 3648000   0.67196666   -6.3370819    1149.8376  0.026266392  0.025238399           33 
 3649000   0.68376702   -6.3222893    1150.5457  0.026275366  0.025231212           33 
 3650000   0.67388535   -6.2822259    1154.5352   0.02635925  0.025224058           12 
 3651000    0.6641036   -6.3158377    1153.0389   0.02631788  0.025216889           10 
 3652000    0.6634321    -6.325158    1150.3978  0.026250406  0.025209682           20 
 3653000   0.66277881   -6.3129952    1150.2702   0.02624031  0.025202493           16 
 3654000   0.66510938   -6.3012345    1154.6502  0.026333019  0.025195327           21 
 3655000   0.65935869   -6.3012786    1153.2138  0.026293064   0.02518817           23 
 3656000   0.66254921   -6.3221778    1149.8251  0.026208631  0.025180991           13 
 3657000   0.66332258   -6.3277539    1148.4504  0.026170139  0.025173827           39 
 3658000   0.67388819   -6.3243957    1150.6698  0.026213547  0.025166622           41 
 3659000   0.67161887   -6.3138353    1150.2789  0.026197478  0.025159417           28 
 3660000   0.65894145   -6.3119083    1151.5444  0.026219134  0.025152238           40 
 3661000   0.66148712   -6.2940249     1151.707  0.026215675  0.025145074           24 
 3662000   0.67238065   -6.3208277    1152.8406  0.026234311  0.025137905           20 
 3663000   0.66564671   -6.3444348    1154.2508  0.026259232  0.025130766           28 
 3664000    0.6526988   -6.3354172    1153.4795  0.026234522  0.025123629           34 
 3665000   0.66280433   -6.3145173    1154.9027  0.026259724  0.025116501           13 
 3666000   0.66286152   -6.3231227    1151.3236  0.026171204   0.02510937           14 
 3667000   0.68334083   -6.3176216    1151.6202  0.026170808  0.025102209           12 
 3668000   0.68259171   -6.2974836    1156.3633   0.02627143  0.025095082           46 
 3669000   0.65983219   -6.3286845    1153.1632  0.026191586  0.025087934           17 
 3670000   0.68465787   -6.3142349    1151.6024   0.02614901  0.025080781           11 
 3671000   0.65543151   -6.2947922    1155.3743  0.026227511  0.025073642            8 
 3672000   0.66455976   -6.3159774    1153.1317  0.026169475   0.02506653           13 
 3673000    0.6744114   -6.3132364    1149.1356  0.026071686  0.025059429           16 
 3674000   0.65436313   -6.3067683    1153.5647   0.02616505  0.025052322           18 
 3675000     0.666429   -6.2997065    1154.6901  0.026183448  0.025045251            7 
 3676000    0.6511736   -6.3212001    1153.8679  0.026157688  0.025038191            7 
 3677000   0.66832407   -6.3109716    1152.3582  0.026116359  0.025031087            8 
 3678000   0.65348981   -6.3227637    1153.7071  0.026139821  0.025023989           13 
 3679000   0.66693706   -6.3472724    1149.7546  0.026043188  0.025016834           18 
 3680000   0.67009525   -6.3282398    1153.0081  0.026109785  0.025009665           12 
 3681000   0.66178678   -6.3465821    1149.8305  0.026030754  0.025002526           45 
 3682000   0.66310706   -6.3163628    1152.6173  0.026086757  0.024995362           17 
 3683000   0.66360103   -6.3194382    1152.2769  0.026071972  0.024988217           42 
 3684000   0.66013857   -6.3287132    1152.9242  0.026079538  0.024981103           27 
 3685000   0.66288174   -6.3356883    1154.5078  0.026108273  0.024973988           23 
 3686000    0.6615214   -6.3184702    1157.0063  0.026157676  0.024966878           13 
 3687000   0.66569517     -6.31412    1152.9524  0.026058956  0.024959763           31 
 3688000   0.66838632   -6.3356673    1151.1531  0.026011231  0.024952591           35 
 3689000   0.66264874   -6.3334143    1152.0359  0.026024123  0.024945443           46 
 3690000   0.65227585   -6.3475874    1149.9576  0.025970136  0.024938256           61 
 3691000   0.68293295   -6.3505805    1151.7695  0.026004007  0.024931096           32 
 3692000   0.66410319   -6.3500189    1151.3366  0.025987193  0.024923932           24 
 3693000   0.65590964   -6.3135021    1149.0176  0.025927828  0.024916789           12 
 3694000   0.67196105    -6.317378    1150.5691  0.025955809  0.024909639           31 
 3695000   0.66121317   -6.3210314    1149.0972  0.025915588  0.024902479           23 
 3696000   0.66237149   -6.3744685    1150.6629  0.025943878  0.024895298           27 
 3697000   0.68025612   -6.3568729    1149.1826  0.025903494  0.024888117           19 
 3698000   0.64901522    -6.360178    1152.6311    0.0259742  0.024880949           12 
 3699000   0.65849562   -6.3285405    1150.8259  0.025926509  0.024873784           15 
 3700000   0.67002814     -6.33739    1152.3619  0.025954097  0.024866639           16 
 3701000   0.65462073   -6.3313362    1152.7108  0.025954941  0.024859505           13 
 3702000   0.67177031   -6.3598948    1149.0344  0.025865172  0.024852374           17 
 3703000   0.65214559   -6.3308206    1151.4776   0.02591317  0.024845217            9 
 3704000   0.64017748   -6.3582344    1152.2109  0.025922672  0.024838065           36 
 3705000   0.66510463   -6.3314363    1151.7748  0.025905865  0.024830908           19 
 3706000   0.65136566   -6.3177583    1153.0415  0.025927359  0.024823793           17 
 3707000   0.65359377   -6.3279127    1153.5905  0.025932705  0.024816662           16 
 3708000   0.65629779   -6.3185251    1153.8476  0.025931489  0.024809533            7 
 3709000   0.65858074   -6.3286061    1153.1964  0.025909869  0.024802388           13 
 3710000   0.64682256   -6.3297995    1152.2713  0.025882105  0.024795261           12 
 3711000   0.66087953   -6.3450197    1153.8376  0.025910303  0.024788151           16 
 3712000   0.65252362   -6.3524474    1150.8028  0.025835193  0.024781032           32 
 3713000   0.65955406   -6.3462915    1153.5004  0.025888779  0.024773904           19 
 3714000   0.66767845   -6.3218788    1155.0782  0.025917209  0.024766764           11 
 3715000   0.66250872   -6.3731894     1148.596  0.025764828  0.024759623            7 
 3716000   0.65916272   -6.3234489     1154.988  0.025901237    0.0247525           11 
 3717000   0.65443035     -6.34252    1152.1279  0.025830148  0.024745415           15 
 3718000   0.65113397   -6.3631895    1148.7993  0.025748595  0.024738284           24 
 3719000    0.6592206   -6.3773997     1151.844  0.025809895  0.024731121           25 
 3720000   0.64705853   -6.3501561    1152.3135  0.025813474  0.024723997           14 
 3721000   0.65206646   -6.3309079    1151.7745  0.025794466  0.024716868            7 
 3722000   0.65397238   -6.3491054    1152.7243  0.025808801  0.024709749           18 
 3723000   0.66722696     -6.35131    1150.7658  0.025758031  0.024702639           15 
 3724000    0.6499039   -6.3453857    1153.4043  0.025810158  0.024695493           30 
 3725000   0.65337826     -6.34764    1153.1891  0.025798414  0.024688353           21 
 3726000   0.64359748   -6.3507849    1151.0475  0.025743593  0.024681234           19 
 3727000   0.66802619   -6.3485171    1156.4103  0.025856594  0.024674116           18 
 3728000   0.65954789   -6.3571646    1150.3705  0.025714649  0.024666956           15 
 3729000   0.65659797   -6.3469712    1150.1423  0.025702652  0.024659788           17 
 3730000   0.64988596   -6.3659246    1151.4479   0.02572493  0.024652635           22 
 3731000   0.64856941   -6.3365978    1153.7146  0.025768664  0.024645521           36 
 3732000   0.65319034   -6.3336211    1152.5377  0.025735478  0.024638428           14 
 3733000   0.65989794   -6.3410677     1152.307  0.025723435  0.024631348           11 
 3734000   0.65656711    -6.337951    1153.2219  0.025736965  0.024624265            9 
 3735000   0.65699269    -6.354754    1151.5836  0.025693521  0.024617174           10 
 3736000   0.64595989    -6.352564     1151.629  0.025687656  0.024610094           15 
 3737000   0.65456171   -6.3590242    1151.0743  0.025668414  0.024603038           16 
 3738000    0.6602098   -6.3462259    1149.8451  0.025634142  0.024595972           20 
 3739000   0.65349982   -6.3413909    1154.1832  0.025723973  0.024588905            6 
 3740000   0.67138257   -6.3407326    1153.4748   0.02570131  0.024581856           23 
 3741000   0.64969735   -6.3530609    1153.8283  0.025702315  0.024574795           24 
 3742000   0.67035655   -6.3483483    1151.4227  0.025641874  0.024567715           22 
 3743000   0.64685684   -6.3407018    1154.6462   0.02570679   0.02456065           15 
 3744000   0.65181639   -6.3234145    1151.9636  0.025640215   0.02455357           16 
 3745000   0.65434173   -6.3240478    1151.6457  0.025626296  0.024546492           43 
 3746000   0.65391343   -6.3611626     1151.088  0.025607048  0.024539384           45 
 3747000    0.6495958    -6.328711    1154.8587  0.025684073  0.024532275           15 
 3748000   0.65789373   -6.3512105     1154.916  0.025678495  0.024525232           14 
 3749000   0.63086011   -6.3302121    1153.1356  0.025632071  0.024518156           20 
 3750000   0.65176368   -6.3539574    1154.1776  0.025648392  0.024511082           30 
 3751000    0.6565316    -6.358134    1151.7255  0.025587077  0.024503991           30 
 3752000   0.62276385   -6.3681702    1149.1006  0.025521956  0.024496854           23 
 3753000   0.65011286   -6.3488204     1152.027  0.025580136  0.024489707           12 
 3754000   0.65034211    -6.364113      1151.91  0.025570724  0.024482588           22 
 3755000   0.65840312   -6.3352806    1154.1139  0.025612826  0.024475498           17 
 3756000   0.64886475   -6.3659659    1153.0819   0.02558311  0.024468423           22 
 3757000   0.65825709   -6.3886834    1152.9353  0.025573049  0.024461345           14 
 3758000   0.64533274    -6.359174    1151.6798  0.025538402  0.024454256            9 
 3759000   0.64397161   -6.3406324    1152.9462  0.025559683  0.024447187            7 
 3760000   0.63557046   -6.3616282    1152.4625  0.025542166  0.024440115           10 
 3761000   0.64897265   -6.3344335    1153.2933  0.025553782  0.024433051           11 
 3762000   0.64243309   -6.3638589    1152.8718  0.025537652  0.024425973           12 
 3763000    0.6316293   -6.3431119    1154.1288  0.025558703  0.024418887            7 
 3764000   0.65243171   -6.3452303    1151.1454  0.025485861  0.024411832           13 
 3765000    0.6460186   -6.3464493    1153.8278  0.025538464  0.024404807           15 
 3766000   0.64071171   -6.3634688    1152.8453  0.025509941  0.024397732           13 
 3767000   0.64594445   -6.3710037    1152.7973  0.025502107  0.024390652           13 
 3768000   0.65219451   -6.3560991    1151.9203  0.025475945   0.02438356           30 
 3769000   0.64351371   -6.3524186    1153.0185  0.025493466  0.024376456            8 
 3770000   0.64565263   -6.3521017    1155.8024  0.025548241  0.024369405           16 
 3771000   0.64756993   -6.3497506    1154.1245  0.025504388  0.024362333           33 
 3772000   0.63365808   -6.3344795    1154.9196  0.025515191  0.024355254           10 
 3773000   0.64002953   -6.3430375    1152.6128  0.025457479  0.024348191            8 
 3774000   0.64858155   -6.3358768    1152.9821  0.025458888  0.024341152           10 
 3775000   0.64848263   -6.3413922    1151.8467   0.02542708  0.024334125           16 
 3776000   0.65436291   -6.3347134    1153.0862    0.0254477  0.024327055           19 
 3777000   0.63263037   -6.3634283    1151.2799   0.02540111  0.024320007           18 
 3778000   0.64748609   -6.3744681    1152.0589  0.025411569  0.024312953            8 
 3779000   0.63643423   -6.3628614    1154.7319  0.025463788  0.024305875           15 
 3780000   0.66710748   -6.3640656    1153.9644  0.025440133  0.024298809           22 
 3781000   0.63811462   -6.3587784    1154.6287  0.025448045  0.024291768           23 
 3782000   0.64034676   -6.3539476    1152.8855  0.025402906  0.024284715           17 
 3783000   0.66261808   -6.3527262    1152.8957  0.025396417  0.024277674           22 
 3784000   0.65026654   -6.3586054    1153.8119  0.025409881  0.024270659           13 
 3785000   0.63783808   -6.3444588    1155.4876  0.025440062  0.024263667           18 
 3786000   0.65571181    -6.345769    1152.9053  0.025376503  0.024256647           13 
 3787000    0.6462219   -6.3445664    1155.2253  0.025420855  0.024249663           11 
 3788000   0.66098805   -6.3386659    1154.6084  0.025400573  0.024242689           12 
 3789000   0.64893363   -6.3698102    1150.1221  0.025295199  0.024235697            9 
 3790000   0.65291041    -6.366345    1151.4944  0.025318699  0.024228655           10 
 3791000   0.65379414   -6.4001128    1155.2959  0.025395583  0.024221636           16 
 3792000   0.62726249   -6.3822681    1152.2562  0.025322086  0.024214572           14 
 3793000   0.64218409    -6.388762    1151.8973  0.025307525  0.024207508           14 
 3794000   0.64037701   -6.3745464    1153.2815  0.025331257  0.024200473           10 
 3795000   0.64811183    -6.367556    1151.3176  0.025281459  0.024193423           18 
 3796000   0.63944267   -6.3591438    1152.6616  0.025304304  0.024186367           10 
 3797000   0.64316075    -6.373198    1151.9613  0.025282268  0.024179321           35 
 3798000   0.65662315   -6.3602092    1153.4035  0.025307256  0.024172236           45 
 3799000   0.63453964   -6.3930778     1151.214  0.025252567  0.024165175           15 
 3800000   0.65626977   -6.3819001    1152.4074  0.025272092  0.024158109           18 
 3801000   0.63724211    -6.381725    1154.5338  0.025312062  0.024151033           13 
 3802000   0.65321946   -6.3822895     1153.055  0.025272993  0.024143989           15 
 3803000   0.62661621   -6.3687399    1153.6373  0.025279107  0.024136965           21 
 3804000    0.6475465   -6.3589551    1153.3264  0.025265651  0.024129921           24 
 3805000   0.63995242   -6.3656081    1152.1573  0.025233405  0.024122893           34 
 3806000   0.64466196   -6.3728156    1154.0443  0.025268093  0.024115858           16 
 3807000   0.63697504   -6.3938275    1152.6111  0.025230083  0.024108806           17 
 3808000    0.6414549   -6.3968686    1150.2665  0.025172148  0.024101716           17 
 3809000   0.65372633   -6.3941279    1151.0845  0.025183436  0.024094634           30 
 3810000   0.62849885   -6.4005599    1152.2434  0.025202173  0.024087557           18 
 3811000   0.64928459   -6.4002972    1151.4349  0.025177881  0.024080492           14 
 3812000   0.63949396   -6.3930057    1153.5143  0.025216734  0.024073445           11 
 3813000   0.62957895   -6.3879872    1152.4516  0.025186895  0.024066386           15 
 3814000   0.62211885    -6.385331    1148.7794  0.025100056  0.024059313           24 
 3815000   0.65520552   -6.3801325    1153.4439  0.025195368  0.024052256           13 
 3816000   0.62778118   -6.3880556    1153.9961  0.025200824  0.024045207           21 
 3817000   0.63574462   -6.3819761    1151.7289  0.025144724   0.02403816           16 
 3818000   0.63475867   -6.4012678    1152.3123  0.025150871  0.024031115           24 
 3819000   0.63054596   -6.3958137    1152.1183  0.025140052  0.024024109           20 
 3820000   0.63415423   -6.3867751    1153.1846  0.025156731   0.02401709           11 
 3821000   0.63135789   -6.3770797    1152.6985  0.025139547  0.024010084           14 
 3822000   0.62791233   -6.3668329    1153.1459  0.025142724  0.024003072           16 
 3823000   0.63744582   -6.3716986    1152.6638  0.025125638  0.023996033           18 
 3824000   0.64329028   -6.4054594    1147.9126  0.025015529  0.023989003           22 
 3825000   0.64091234   -6.3824356    1149.6578  0.025047011  0.023981945           17 
 3826000    0.6319544   -6.3949006    1149.3412  0.025033569  0.023974887           17 
 3827000   0.65125126   -6.4002303    1151.4287  0.025072482  0.023967792           18 
 3828000   0.63727221   -6.3879635    1152.3814  0.025086674  0.023960747           19 
 3829000   0.63645155   -6.3826414    1153.7677  0.025110292  0.023953697           15 
 3830000   0.63144698   -6.3802036    1152.3197  0.025072231  0.023946656           14 
 3831000   0.64319908   -6.3803569     1150.287  0.025021469  0.023939653           26 
 3832000   0.64045458   -6.3851234    1154.2276  0.025100636  0.023932627           20 
 3833000   0.64600434   -6.3878564    1152.2725   0.02505158  0.023925585           20 
 3834000   0.64465208   -6.3862859    1149.1453  0.024977076   0.02391858           29 
 3835000   0.65300814   -6.3720365    1153.5524  0.025066327  0.023911565           14 
 3836000    0.6342724   -6.4024881    1152.2937   0.02503245  0.023904563           15 
 3837000   0.64686882   -6.3764304    1151.9164  0.025017732  0.023897564           18 
 3838000   0.63028128   -6.3901969    1153.4417  0.025044331  0.023890584           33 
 3839000   0.64554787   -6.3908105    1151.9116  0.025004592  0.023883587           22 
 3840000   0.63322296   -6.3737879    1154.0507  0.025044503  0.023876577           47 
 3841000   0.64747466   -6.4001545    1151.3969  0.024980406  0.023869572           90 
 3842000   0.63845245   -6.3657938    1155.8939  0.025071445  0.023862591           42 
 3843000   0.63879558   -6.4005481    1151.1134  0.024961259  0.023855615           23 
 3844000   0.65427709   -6.3856101    1152.0477   0.02497502  0.023848651           18 
 3845000   0.62912819   -6.4104228    1151.5806    0.0249584  0.023841696           42 
 3846000   0.63764964   -6.3787832    1154.1387  0.025007339  0.023834732           24 
 3847000   0.65605639   -6.3795749    1154.8836  0.025016973  0.023827766           27 
 3848000   0.63115575   -6.3773763    1154.8859  0.025010524  0.023820837           51 
 3849000   0.63208974   -6.3998732    1152.7354  0.024957464  0.023813873           40 
 3850000   0.64594926   -6.3809773    1152.2061  0.024939526  0.023806896           13 
 3851000    0.6457891   -6.3993037    1152.5571  0.024940645  0.023799911           56 
 3852000   0.64745406   -6.3836557    1152.6878  0.024936999  0.023792962           28 
 3853000   0.62261974    -6.416622    1150.8166  0.024890056  0.023786001           42 
 3854000   0.62904731   -6.3792738    1150.7035  0.024881152  0.023779029           33 
 3855000   0.63366934   -6.4050609    1149.9037  0.024857408  0.023772038           28 
 3856000   0.64732673    -6.393212    1149.8703  0.024850239  0.023765044           21 
 3857000    0.6317151   -6.4302581    1151.0501  0.024869288  0.023758032           22 
 3858000   0.63087503   -6.4279597    1151.5821  0.024874333   0.02375106           15 
 3859000   0.64907265   -6.4080418    1151.6755  0.024869903  0.023744077           17 
 3860000   0.63001235   -6.4039871     1151.187  0.024852914    0.0237371           20 
 3861000   0.64196547    -6.405745    1151.4326  0.024851778  0.023730134           15 
 3862000   0.62494568   -6.4077042    1152.2107  0.024862132  0.023723166           11 
 3863000   0.62950724   -6.4016243    1153.0483  0.024873765  0.023716175           17 
 3864000   0.63275174   -6.4176874    1153.5828  0.024878855   0.02370919           14 
 3865000   0.63589335   -6.4061031     1154.107   0.02488372  0.023702211            9 
 3866000   0.64988812   -6.4150639    1153.3304  0.024860545   0.02369524           21 
 3867000   0.63661915   -6.3852439    1154.3488  0.024876062  0.023688265           48 
 3868000   0.64853392   -6.3800796    1152.3219  0.024825963  0.023681323           36 
 3869000   0.64077462   -6.4202655    1153.4241  0.024843286   0.02367435           21 
 3870000   0.62150318   -6.4073415    1152.0025  0.024806255   0.02366737           21 
 3871000   0.63179642   -6.4018576    1151.8707   0.02479701  0.023660399           19 
 3872000   0.63311726   -6.3983735    1154.4992  0.024847175  0.023653424           33 
 3873000   0.63440071   -6.3943535    1152.5304    0.0247984  0.023646464           24 
 3874000   0.64762217   -6.4076469    1154.4091   0.02483241  0.023639506           34 
 3875000   0.62164882   -6.3882258     1154.018  0.024817592  0.023632554           37 
 3876000   0.63796772   -6.4021111    1151.8149  0.024763822  0.023625611           14 
 3877000    0.6317159   -6.4269465    1151.2177  0.024744599  0.023618665           36 
 3878000    0.6265062   -6.4070036    1153.1851  0.024780495   0.02361172            5 
 3879000   0.64166952   -6.4164545    1155.2119  0.024817648  0.023604798           19 
 3880000   0.63584211   -6.3998806    1153.1326  0.024766594  0.023597884           21 
 3881000   0.62962347   -6.4043042    1152.4906  0.024746426  0.023590966           59 
 3882000   0.63281073   -6.4048484    1153.7083  0.024766192  0.023584049           31 
 3883000   0.62863483   -6.3920988     1157.039  0.024831296   0.02357714           20 
 3884000   0.63553761   -6.4125444    1152.0234  0.024717289  0.023570244           18 
 3885000   0.63392293   -6.4003629    1155.5001  0.024785503  0.023563319           11 
 3886000    0.6359023   -6.4264857    1153.2621  0.024731131    0.0235564           28 
 3887000   0.62351008   -6.4284484    1150.6745  0.024669293  0.023549472           29 
 3888000   0.64337951   -6.4129567    1153.3218  0.024719688  0.023542545           36 
 3889000   0.62614261   -6.3992926    1151.9027  0.024682923  0.023535641           67 
 3890000   0.62926524   -6.4032663    1151.5496  0.024669015  0.023528747           85 
 3891000   0.63252193   -6.4153705    1149.9301  0.024627991  0.023521831           22 
 3892000   0.63835524   -6.4024309    1153.1814  0.024691276  0.023514914           49 
 3893000   0.62466607   -6.4215802    1153.9596  0.024701592  0.023508004           46 
 3894000   0.61985778   -6.3989803    1152.7871  0.024670157  0.023501081           35 
 3895000   0.64407094   -6.4373617    1149.5854  0.024595323  0.023494156           49 
 3896000   0.62637742   -6.4238803    1150.2412  0.024603038  0.023487223           23 
 3897000   0.63042787   -6.4256498    1150.9834  0.024612594  0.023480291           26 
 3898000   0.61761759   -6.4176986    1152.4963  0.024638625  0.023473352           10 
 3899000   0.62165221    -6.392302    1153.5111  0.024653994  0.023466441           14 
 3900000   0.63302107   -6.4232606    1152.7914  0.024632296  0.023459527           18 
 3901000   0.63054573   -6.3960127    1150.6937  0.024581169  0.023452626           15 
 3902000   0.64567906   -6.4137958    1154.1625   0.02464895  0.023445726           47 
 3903000   0.63204655   -6.4061207    1154.7782  0.024655783  0.023438826           14 
 3904000   0.64017326   -6.4056233     1153.067  0.024612941  0.023431929           13 
 3905000   0.64003333   -6.4018209    1152.7967  0.024600869  0.023425041           63 
 3906000   0.64465693   -6.4408916     1151.239  0.024561336  0.023418168           36 
 3907000   0.61424964   -6.4175386    1154.5133   0.02462489  0.023411277           36 
 3908000   0.62543467   -6.4223248    1154.1442  0.024610717  0.023404375           19 
 3909000    0.6260697   -6.4193475    1153.2218  0.024584757  0.023397483           16 
 3910000   0.61985803   -6.4210366    1152.8944  0.024571491  0.023390602           24 
 3911000    0.6303892   -6.4346121    1153.2374  0.024572517  0.023383709           20 
 3912000   0.64061298    -6.428871    1154.0867  0.024584328  0.023376798           17 
 3913000   0.62055502   -6.4648051    1151.6845  0.024526886  0.023369864           11 
 3914000   0.62084116   -6.4445596     1151.039  0.024506878  0.023362919           16 
 3915000    0.6265557    -6.429518    1151.4954  0.024510333  0.023355998           18 
 3916000   0.62466355   -6.4600308    1152.6235   0.02452808  0.023349097           21 
 3917000   0.63297562   -6.4369119    1151.8981  0.024506385  0.023342222           16 
 3918000   0.63021322   -6.4478899    1150.2948  0.024466028  0.023335336          105 
 3919000   0.62290955   -6.4403132    1153.8095  0.024534522  0.023328431           20 
 3920000   0.62379747   -6.4319647    1151.7793  0.024485105  0.023321534           25 
 3921000   0.63729718   -6.4559899     1154.158  0.024529413  0.023314632           37 
 3922000   0.63005785   -6.4394985    1150.8777  0.024453462  0.023307694           51 
 3923000    0.6229154   -6.4339851    1151.0627  0.024451159  0.023300753           34 
 3924000   0.62714794   -6.4374034    1152.5555  0.024476629  0.023293848           33 
 3925000   0.62563623   -6.4270511    1151.2472  0.024442616   0.02328694           37 
 3926000   0.63475473   -6.4318643    1152.8267  0.024469916  0.023280063           19 
 3927000   0.62240824   -6.4585824    1152.2063   0.02445052  0.023273175           28 
 3928000   0.62386686     -6.43582    1150.8057  0.024414582  0.023266282           30 
 3929000   0.61919647   -6.4111513    1155.5672  0.024509359   0.02325945           44 
 3930000   0.62889873   -6.4349131    1150.3185  0.024391825  0.023252605           43 
 3931000   0.61437371   -6.4446005    1150.5084  0.024389647   0.02324572           35 
 3932000   0.60974278   -6.4176996    1154.0551   0.02445861  0.023238848           18 
 3933000   0.63695413   -6.4447394    1152.1035  0.024411041  0.023231954           39 
 3934000    0.6256331   -6.4212539    1151.4788  0.024391604  0.023225068           23 
 3935000   0.62120161   -6.4355706    1148.5397  0.024323162  0.023218196           35 
 3936000   0.61682464   -6.4371586    1150.8876  0.024366693  0.023211306           20 
 3937000   0.60468825   -6.4579055     1151.145  0.024365951  0.023204386           25 
 3938000   0.62328204   -6.4439474    1150.5506  0.024347186  0.023197462           22 
 3939000   0.62166927   -6.4634732    1151.5994  0.024363193  0.023190533           37 
 3940000   0.62652827   -6.4392786    1150.7239  0.024338492  0.023183631           52 
 3941000   0.63089134   -6.4468477    1151.0691  0.024339616  0.023176709           40 
 3942000   0.63090261   -6.4366474    1150.5741  0.024322976  0.023169788           56 
 3943000    0.6166658   -6.4240115    1149.5301  0.024294744  0.023162886           19 
 3944000   0.62654439   -6.4295051    1150.1181  0.024301008  0.023155987           31 
 3945000   0.63973593    -6.457339    1150.3689  0.024300145  0.023149089           54 
 3946000   0.60983381   -6.4414726    1150.3103  0.024292751  0.023142195           21 
 3947000   0.61456625   -6.4385076    1152.7516  0.024338138  0.023135287           87 
 3948000   0.62943817   -6.4501712    1149.6015  0.024265483  0.023128375           48 
 3949000   0.61582291   -6.4486443    1150.5006  0.024278311  0.023121477           55 
 3950000   0.62766255   -6.4461956    1150.5446  0.024273093   0.02311459           22 
 3951000   0.63313614   -6.4346116    1151.2542  0.024281917  0.023107717           25 
 3952000   0.62175032   -6.4410856     1152.449  0.024300966  0.023100836           43 
 3953000   0.62413976    -6.441185    1149.9506  0.024242149  0.023093963           18 
 3954000   0.61733809   -6.4164422      1151.89  0.024276893  0.023087091           37 
 3955000   0.60302493   -6.4566193    1150.2401  0.024235991  0.023080184           15 
 3956000   0.62122185   -6.4615906    1148.5393  0.024194036  0.023073292           30 
 3957000   0.63068462   -6.4488195    1150.8019  0.024235572  0.023066392           25 
 3958000   0.62288227   -6.4417615    1150.6167  0.024225549  0.023059494           73 
 3959000   0.61609175   -6.4386552    1150.0196  0.024206862  0.023052617           17 
 3960000   0.62259325    -6.448174    1152.2539  0.024247768  0.023045752           46 
 3961000   0.61360009   -6.4408714    1149.9827  0.024193862  0.023038881           42 
 3962000   0.61876716     -6.44751    1151.6514  0.024222856  0.023032014           49 
 3963000   0.61412371   -6.4445703    1152.4716  0.024233989  0.023025145           38 
 3964000   0.61643399   -6.4376044    1154.6934  0.024274583   0.02301832           61 
 3965000   0.62996063   -6.4722624     1151.451  0.024200315  0.023011477           49 
 3966000   0.61396373   -6.4419139    1153.6377   0.02424016  0.023004642           87 
 3967000   0.60716357   -6.4674016    1150.4839  0.024167799  0.022997792           52 
 3968000   0.61484436   -6.4595308    1149.7987  0.024147319  0.022990936           43 
 3969000   0.60453582   -6.4585667    1148.0508  0.024104534  0.022984063           79 
 3970000   0.62549346   -6.4619261     1150.819   0.02415657   0.02297719          108 
 3971000   0.61894691   -6.4682579      1150.76  0.024149248  0.022970343           40 
 3972000   0.59661179   -6.4721354     1150.317  0.024133874  0.022963488           29 
 3973000   0.61748477   -6.4275996    1154.3401  0.024212184  0.022956669           36 
 3974000   0.61655777   -6.4362241    1151.6569  0.024149827  0.022949841           46 
 3975000   0.61587519   -6.4329678    1151.0568  0.024131171  0.022943044           32 
 3976000    0.6117949   -6.4301426    1150.2392  0.024107964  0.022936211           20 
 3977000    0.6103488    -6.441319    1151.0057  0.024117964  0.022929378           13 
 3978000   0.61503141    -6.444691    1149.6863  0.024084262  0.022922554           36 
 3979000   0.61735752   -6.4440673    1152.2147  0.024131162  0.022915722           33 
 3980000   0.61586117   -6.4314687     1149.569  0.024069703  0.022908916           34 
 3981000   0.61277055   -6.4552736    1152.1915  0.024118554  0.022902114           21 
 3982000   0.60347158   -6.4645579    1153.8106   0.02414638  0.022895307           27 
 3983000   0.61764837   -6.4446487    1153.7773   0.02413962  0.022888527           19 
 3984000   0.61547466   -6.4523854    1152.9976  0.024117252  0.022881713           24 
 3985000   0.61344406   -6.4584998     1154.615  0.024145023  0.022874924           24 
 3986000   0.59911672    -6.440265     1154.575  0.024138129  0.022868151           15 
 3987000   0.61351165   -6.4595852    1154.0706  0.024121533  0.022861367           17 
 3988000   0.58996079   -6.4661112    1151.6367  0.024064626  0.022854573           21 
 3989000   0.62101306   -6.4427229     1153.652  0.024100694  0.022847787           18 
 3990000   0.60846081   -6.4362405    1154.2944  0.024108069   0.02284104           22 
 3991000   0.62059217   -6.4353044     1152.222  0.024058758   0.02283429           46 
 3992000   0.63327208   -6.4549421    1152.9158  0.024067213  0.022827528           31 
 3993000   0.63145368   -6.4478288    1150.7242  0.024015448  0.022820769           19 
 3994000   0.61860701   -6.4533565    1152.4977  0.024046438  0.022813987           45 
 3995000   0.60298226   -6.4604835    1150.6919  0.024002752  0.022807193           29 
 3996000   0.62914204   -6.4419683    1154.4869  0.024075886  0.022800413           48 
 3997000   0.61143601   -6.4554759    1153.2266  0.024043586  0.022793659           53 
 3998000    0.6181159   -6.4546501     1153.614  0.024045648  0.022786882           64 
 3999000   0.61841694   -6.4693033    1149.7326  0.023958751  0.022780079           34 
 4000000   0.62331292   -6.4371552    1151.7896  0.023995617  0.022773307           23 
 4001000   0.62747526   -6.4562126      1152.22  0.023998583  0.022766529           28 
 4002000   0.62118907   -6.4575353    1152.4317  0.023996996  0.022759748           20 
 4003000   0.62003752   -6.4670295    1152.2314   0.02398683   0.02275298           22 
 4004000   0.63532613   -6.4830718    1150.9102  0.023953342  0.022746191           22 
 4005000   0.60659756   -6.4532257    1153.9062    0.0240097  0.022739406           39 
 4006000   0.62094076   -6.4521348    1153.2893  0.023990874  0.022732637          102 
 4007000   0.61347851   -6.4449249    1156.7701  0.024057277    0.0227259           49 
 4008000   0.59224983   -6.4698031    1150.6749  0.023924545  0.022719168           25 
 4009000   0.61436834   -6.4483853    1151.6977  0.023939838  0.022712404           34 
 4010000   0.61046297   -6.4641188    1150.1904  0.023902544  0.022705669           60 
 4011000   0.58915065   -6.4695976    1152.3088  0.023940597    0.0226989           23 
 4012000   0.60612194   -6.4655119    1151.8608  0.023925323  0.022692145           44 
 4013000   0.61240389   -6.4744437    1149.4963   0.02387026  0.022685396           60 
 4014000   0.62053604   -6.4580542    1151.2334  0.023900377  0.022678653           76 
 4015000   0.61587603   -6.4490463    1149.8415  0.023865536  0.022671891           37 
 4016000   0.60214948   -6.4505172    1152.0285  0.023904975  0.022665142           31 
 4017000   0.59569906   -6.4776235    1153.3434  0.023926301  0.022658397           17 
 4018000   0.60643338   -6.4867937    1152.8472  0.023910055  0.022651625           29 
 4019000   0.61087506   -6.4764983    1151.6084   0.02387842  0.022644867           33 
 4020000   0.60273418   -6.4906146    1152.1874  0.023884483  0.022638106           27 
 4021000   0.61534818   -6.4890674    1152.1516  0.023877799  0.022631339           16 
 4022000   0.60964648    -6.457055    1153.8013  0.023906043  0.022624593           22 
 4023000    0.6139538   -6.4734075    1152.8737  0.023880888   0.02261784           32 
 4024000    0.6110968   -6.4924749    1151.0645  0.023837486  0.022611077           15 
 4025000   0.61876211   -6.4944473    1151.9309    0.0238495  0.022604322           44 
 4026000   0.61142815    -6.499023    1149.5746  0.023794804  0.022597559           20 
 4027000   0.61682602   -6.4858701    1149.6299   0.02379004  0.022590795           23 
 4028000   0.58959455   -6.4811063    1150.5303  0.023802762  0.022584035           24 
 4029000    0.5956016   -6.4661077    1152.0179  0.023827623  0.022577282           25 
 4030000   0.62003535   -6.4809278    1153.1127  0.023844349   0.02257055           40 
 4031000   0.60793937   -6.4738114    1153.6961  0.023850494  0.022563836           40 
 4032000   0.61515525   -6.4788372    1152.5745  0.023821398  0.022557097           70 
 4033000   0.59610054   -6.4858152      1151.51  0.023793494  0.022550355           39 
 4034000   0.60790657   -6.4822249    1150.8019   0.02377297  0.022543634           21 
 4035000   0.60805161   -6.4769609    1153.1733  0.023816052  0.022536916           28 
 4036000   0.61310678   -6.4762337    1150.8894  0.023762995  0.022530188           70 
 4037000   0.60389831    -6.481646    1154.7079  0.023835933  0.022523462           35 
 4038000   0.61914535   -6.4932138    1152.0547  0.023775274   0.02251674           38 
 4039000   0.62184292   -6.4798174     1151.328  0.023754395  0.022510014           50 
 4040000   0.60007094     -6.46467    1152.7031  0.023776879  0.022503325           32 
 4041000   0.61314678   -6.4808369    1155.0544  0.023819483   0.02249663           92 
 4042000   0.60979657   -6.4652552    1151.3159  0.023736515  0.022489936           12 
 4043000   0.60626413   -6.4701158    1154.0131  0.023786237  0.022483259           33 
 4044000   0.59321041   -6.4844409    1153.2641  0.023764921  0.022476588           31 
 4045000   0.60836949    -6.469994    1152.3455  0.023740123  0.022469889           64 
 4046000   0.60589662   -6.4776077    1153.2511  0.023752905  0.022463189           64 
 4047000   0.59698231   -6.4737133    1152.8314  0.023738394  0.022456483          103 
 4048000   0.59503761   -6.4818515     1152.962  0.023735218  0.022449783           61 
 4049000   0.59863389   -6.5038846    1150.3617   0.02367584  0.022443069           61 
 4050000   0.60299554    -6.484458    1151.6153  0.023695788  0.022436343           22 
 4051000   0.60504931   -6.4878327     1152.581  0.023709805  0.022429619           40 
 4052000   0.61291385   -6.4824955     1149.142  0.023633227  0.022422895           46 
 4053000   0.59284677   -6.4888113    1153.4257  0.023715473  0.022416183           43 
 4054000   0.60963772   -6.4889787    1151.7216  0.023674592   0.02240948           34 
 4055000   0.60454524   -6.4959333    1151.4999  0.023664198  0.022402752           33 
 4056000   0.59699148    -6.487404    1150.8134   0.02364426  0.022396044           53 
 4057000   0.59473352   -6.4845246    1152.5746  0.023674608   0.02238935           32 
 4058000   0.60346052   -6.5000805    1151.1046  0.023638586  0.022382654           47 
 4059000   0.61011769   -6.4959442    1151.5534  0.023641976  0.022375972           31 
 4060000   0.60420521   -6.4861727    1151.4806  0.023634658  0.022369266           24 
 4061000   0.59289212   -6.4849866    1151.9217  0.023637891   0.02236257           46 
 4062000   0.60698589   -6.4909656    1149.9582   0.02359179  0.022355858           36 
 4063000   0.59272148   -6.4979312    1153.0604   0.02364961  0.022349147           28 
 4064000   0.58261713   -6.4960211    1150.9008  0.023599508   0.02234246           73 
 4065000   0.60593675   -6.4855603    1150.5514   0.02358654  0.022335779           22 
 4066000    0.6050162   -6.4928708    1152.0805  0.023612077  0.022329102           49 
 4067000   0.59897597   -6.4826512    1152.3831  0.023612471  0.022322418           48 
 4068000   0.60013199   -6.4914011    1152.5922  0.023610952   0.02231574           58 
 4069000   0.60959938   -6.4939156    1151.7508  0.023587916  0.022309075           71 
 4070000   0.60130929   -6.5036414     1152.406  0.023595536   0.02230239           39 
 4071000   0.61342148   -6.4723538    1151.9501  0.023580409  0.022295727           32 
 4072000   0.59612297   -6.4683071    1154.5641  0.023628113  0.022289075           38 
 4073000   0.58542746   -6.4945493    1150.3486  0.023536062  0.022282441           31 
 4074000   0.58838085   -6.4927632    1151.9376  0.023562789  0.022275769           18 
 4075000    0.5932947   -6.4827915    1152.1063  0.023560456  0.022269091           18 
 4076000   0.58818717    -6.501751    1149.8474  0.023508493  0.022262421           22 
 4077000   0.60014577   -6.5259424    1148.6092  0.023477419  0.022255756           61 
 4078000   0.59017909   -6.5014817    1151.1404  0.023523386  0.022249087           52 
 4079000   0.59417898    -6.521215    1148.3523  0.023460658  0.022242406           68 
 4080000   0.58560723   -6.4850929    1149.9352  0.023487238  0.022235725           54 
 4081000   0.59504947   -6.4798704    1151.6547  0.023516595  0.022229042           38 
 4082000    0.6099816   -6.4962428    1152.5389  0.023528885  0.022222376           49 
 4083000   0.59197595   -6.5057203    1152.5002  0.023522333  0.022215715          103 
 4084000   0.59145935   -6.4899112    1150.8812  0.023483538  0.022209065          105 
 4085000   0.57695484   -6.4888894    1152.1649  0.023503976  0.022202419           97 
 4086000   0.59133012   -6.5049659    1153.1577  0.023518472  0.022195759           98 
 4087000   0.58715929   -6.4946958    1151.4009  0.023476897  0.022189099           60 
 4088000   0.61117745   -6.5232474    1149.0841  0.023423926  0.022182457          185 
 4089000   0.60358166   -6.4936561    1151.0497  0.023458256  0.022175825          138 
 4090000   0.60403738   -6.4916402     1152.309  0.023478179   0.02216921          111 
 4091000   0.60944314   -6.5080539    1152.5106  0.023476546  0.022162585           78 
 4092000   0.59433839   -6.4816941    1150.6644  0.023433212  0.022155956          146 
 4093000   0.58888489   -6.5022937     1149.872  0.023411352  0.022149329           53 
 4094000   0.58276783   -6.5232692    1150.5015  0.023418448  0.022142679           81 
 4095000   0.59297913   -6.5241448    1150.2564  0.023407741  0.022136032          110 
 4096000   0.58496689   -6.5108322    1150.1802  0.023400475  0.022129384          100 
 4097000   0.59672325   -6.5137718     1150.241  0.023396002  0.022122744          124 
 4098000   0.59343335    -6.505186    1153.2525  0.023451532  0.022116108          106 
 4099000    0.5972594    -6.509113    1151.6441  0.023413111  0.022109494           65 
 4100000   0.61011708   -6.5273196    1151.2973  0.023400351  0.022102868           65 
 4101000   0.59941221   -6.5068068    1150.6681  0.023381861  0.022096224           60 
 4102000   0.59836505   -6.4828373    1152.5159  0.023413699  0.022089582           73 
 4103000   0.58074894    -6.481506    1149.3128  0.023342937  0.022082939           74 
 4104000   0.60151487   -6.5147639    1151.3379  0.023378369   0.02207633          127 
 4105000   0.60070334   -6.4932689      1150.84  0.023362566  0.022069685           78 
 4106000   0.60025048   -6.5157185     1149.173  0.023323043  0.022063052           71 
 4107000    0.5958923   -6.5089396    1150.9876  0.023354185  0.022056406           55 
 4108000   0.59966398   -6.5263354    1149.8204  0.023324822  0.022049744          130 
 4109000   0.59925505   -6.5052259    1152.2926  0.023369282  0.022043097          171 
 4110000   0.60392386   -6.5292778    1151.6942  0.023351464  0.022036473          161 
 4111000   0.58474396   -6.5297481    1151.4168  0.023340161   0.02202984          108 
 4112000   0.59201984   -6.5166711    1150.2094  0.023310015  0.022023195           79 
 4113000   0.59004105   -6.5210068    1150.1092  0.023302318  0.022016536          154 
 4114000   0.59267731    -6.527312    1151.9037  0.023333003  0.022009871          123 
 4115000   0.60054689   -6.5416059    1150.8494  0.023305983  0.022003212           84 
 4116000   0.58254864   -6.5199336    1152.4225  0.023332169  0.021996551           96 
 4117000   0.60202808   -6.5099971    1152.0013  0.023317976  0.021989927          117 
 4118000   0.57771131    -6.508111    1148.8136  0.023247806  0.021983302          135 
 4119000   0.58176555   -6.5340686    1152.4716  0.023316169  0.021976685          135 
 4120000   0.60035169   -6.5159316    1152.8891  0.023318955  0.021970053          100 
 4121000   0.58331126   -6.5255503    1151.2377  0.023279902  0.021963427          128 
 4122000   0.58966185   -6.5303797    1149.7681  0.023244544   0.02195677          168 
 4123000   0.57755505   -6.5350375    1148.5417  0.023214117  0.021950139           90 
 4124000   0.59372486   -6.5340406    1149.7683  0.023233274  0.021943497          121 
 4125000   0.59169429   -6.5198942    1150.1655  0.023235666  0.021936885          150 
 4126000   0.60072753   -6.5233179    1150.1947  0.023230625  0.021930273           99 
 4127000   0.58790895   -6.5223668    1149.7799   0.02321662  0.021923657          176 
 4128000   0.58434088   -6.5183517    1151.6993  0.023249743  0.021917052          137 
 4129000   0.58597769   -6.5284685     1150.435  0.023218597  0.021910431          154 
 4130000   0.59736908   -6.5149783    1150.4008  0.023212285   0.02190382          249 
 4131000   0.58687113   -6.5311089    1152.8934  0.023256947  0.021897205          150 
 4132000   0.58587934   -6.5313115     1152.092  0.023235156  0.021890583          198 
 4133000   0.58102632   -6.5289897    1149.8725  0.023184783  0.021883958          188 
 4134000    0.5959307   -6.5418324    1149.0078  0.023161743  0.021877346          124 
 4135000   0.59531479   -6.5382802    1149.6341  0.023168765  0.021870749          171 
 4136000    0.5947106   -6.5164416    1150.2846   0.02317627  0.021864145          169 
 4137000   0.57474948   -6.5385321    1150.4057  0.023173107  0.021857557          193 
 4138000   0.58685021   -6.5359306    1148.8278   0.02313573  0.021850965          220 
 4139000   0.59253929   -6.5295785    1148.8864  0.023131319  0.021844363          226 
 4140000   0.58264183   -6.5295325    1149.8637  0.023145404  0.021837749          206 
 4141000    0.5882576   -6.5435029    1147.3847  0.023089928  0.021831146          238 
 4142000   0.58216543   -6.5507261    1148.5727  0.023108256   0.02182454          278 
 4143000    0.5959654   -6.5299521    1148.7399   0.02310604   0.02181793          281 
 4144000   0.58428688    -6.528758    1150.0828   0.02312747  0.021811316          167 
 4145000   0.59656106   -6.5521691    1150.6421  0.023133134  0.021804688          174 
 4146000    0.5821981   -6.5516365    1150.1735  0.023118135  0.021798079          206 
 4147000   0.57695414   -6.5599216    1148.2611  0.023074131  0.021791459          283 
 4148000   0.59240241   -6.5425566    1150.0559  0.023104626  0.021784847          369 
 4149000   0.58510575   -6.5534327     1149.491  0.023087711  0.021778223          351 
 4150000   0.58443754   -6.5740391    1146.4073  0.023020228  0.021771585          474 
 4151000   0.58982205   -6.5526955     1145.546   0.02299739  0.021764943          434 
 4152000   0.58425695   -6.5372238    1148.6555  0.023054262  0.021758323          445 
 4153000   0.58445807   -6.5555059    1148.7302  0.023050209  0.021751707          420 
 4154000   0.58756574   -6.5556525    1149.9668  0.023069468  0.021745081          280 
 4155000   0.59052462    -6.557937    1147.9157  0.023022777  0.021738454          339 
 4156000   0.59199036   -6.5383663    1148.5021  0.023028997  0.021731824          458 
 4157000   0.57942491   -6.5590563    1147.7056  0.023007489  0.021725211          492 
 4158000   0.59509169   -6.5453834    1146.3562  0.022974911  0.021718586          400 
 4159000   0.59394502   -6.5657501    1148.2104   0.02300654  0.021711964          425 
 4160000   0.58103677   -6.5540284    1147.1259  0.022979285  0.021705357          356 
 4161000   0.60207646   -6.5534946    1150.5238  0.023041813  0.021698753          368 
 4162000   0.59175636   -6.5539008    1147.6937  0.022979611  0.021692168          394 
 4163000   0.59240437   -6.5469076     1147.496  0.022970135  0.021685576          386 
 4164000   0.58912279   -6.5319507     1147.567  0.022966039  0.021678969          336 
 4165000   0.59900724   -6.5497199    1148.8943   0.02298708  0.021672363          399 
 4166000   0.58334319   -6.5538149    1146.4112  0.022931894  0.021665752          453 
 4167000   0.58425917   -6.5659207    1145.8274  0.022914715  0.021659161          373 
 4168000   0.59076442    -6.565535    1147.6465  0.022945588   0.02165256          449 
 4169000    0.5846445   -6.5637508    1148.6602  0.022960346  0.021645937          391 
 4170000   0.58242206    -6.584603    1146.8769  0.022919204  0.021639311          476 
 4171000   0.57348278   -6.5625112    1146.7545  0.022911262  0.021632669          532 
 4172000   0.58363564    -6.577745    1146.6934  0.022904551  0.021626035          542 
 4173000   0.57895321   -6.5434581    1148.3115  0.022931375  0.021619406          496 
 4174000   0.58368579   -6.5565622    1147.6937  0.022913545  0.021612784          446 
 4175000   0.58982332   -6.5694191    1146.3045  0.022880329   0.02160617          492 
 4176000   0.58891873   -6.5701577    1146.1186  0.022871141  0.021599544          491 
 4177000   0.57928694   -6.5644684    1147.1594  0.022886429  0.021592941          456 
 4178000   0.58667932   -6.5838371    1145.9038  0.022855909  0.021586345          433 
 4179000   0.58182887     -6.57414    1147.4664  0.022881598  0.021579742          451 
 4180000   0.57962011    -6.585046    1144.3673  0.022814341  0.021573121          481 
 4181000    0.5917709   -6.5714711    1145.8489  0.022838414  0.021566504          414 
 4182000   0.58680533   -6.5582116    1147.0708  0.022857301  0.021559908          406 
 4183000   0.58296835   -6.5574125    1145.9035  0.022828582  0.021553324          408 
 4184000   0.58339899   -6.5672224    1145.2063  0.022809239  0.021546735          377 
 4185000    0.5845181   -6.5545826    1146.3174  0.022825915  0.021540138          398 
 4186000   0.58455405   -6.5660596     1146.922  0.022832497  0.021533563          361 
 4187000   0.58203584   -6.5644973    1148.8938  0.022866288  0.021527003          475 
 4188000   0.58212731   -6.5491783    1148.3112  0.022849237  0.021520424          421 
 4189000   0.58271316   -6.5719436     1145.502  0.022787898  0.021513866          459 
 4190000   0.57927973   -6.5728494     1146.961  0.022811477  0.021507294          439 
 4191000    0.5662774   -6.5688229    1145.4407  0.022775803  0.021500714          468 
 4192000   0.58649556   -6.5731809    1146.3074  0.022787599  0.021494118          490 
 4193000   0.58899673   -6.5879998    1144.7019  0.022750257   0.02148753          378 
 4194000   0.58032185    -6.606146     1146.237  0.022775334  0.021480945          388 
 4195000   0.57723839   -6.5796967    1149.6284  0.022837275  0.021474368          387 
 4196000   0.58175132    -6.574652    1149.6833  0.022832922  0.021467796          376 
 4197000   0.57700888   -6.5726862    1150.7077  0.022847822  0.021461237          431 
 4198000   0.59145969   -6.5645375     1147.375  0.022776223   0.02145468          461 
 4199000   0.57457064   -6.5644698    1146.8759  0.022760894  0.021448131          361 
 4200000   0.58249894   -6.5566911    1146.9063  0.022756078  0.021441591          385 
 4201000   0.57680331   -6.5721744    1146.4288  0.022741188  0.021435045          376 
 4202000   0.57184797   -6.5638385    1143.5388  0.022678463  0.021428484          418 
 4203000   0.59091599   -6.5798349    1147.3917  0.022749459  0.021421927          416 
 4204000   0.58816965   -6.5702408    1145.0459  0.022697548  0.021415372          456 
 4205000    0.5777525   -6.5681342    1147.7093  0.022744933  0.021408831          438 
 4206000   0.57572758   -6.5607458    1148.2082   0.02274941  0.021402285          476 
 4207000   0.59022721   -6.5584018    1149.5376  0.022770336  0.021395757          477 
 4208000   0.58527287   -6.5647483    1147.4894  0.022724362  0.021389227          346 
 4209000    0.5905034   -6.5692478    1144.3058  0.022655931  0.021382675          454 
 4210000   0.58061128    -6.565563    1147.7589  0.022718901  0.021376147          513 
 4211000   0.57583438   -6.5591674    1147.2766  0.022703961  0.021369609          455 
 4212000    0.5767161   -6.5732212    1148.9769  0.022732211  0.021363072          566 
 4213000   0.59044754    -6.592376    1145.2327  0.022652754  0.021356526          391 
 4214000   0.57350494   -6.5764307    1148.4169  0.022710349  0.021349984          436 
 4215000   0.57916621   -6.5938686    1147.7727  0.022692224  0.021343468          487 
 4216000   0.57231123   -6.5711287    1147.4284  0.022680037   0.02133696          470 
 4217000   0.57305729   -6.5702709    1148.1019  0.022687967   0.02133046          549 
 4218000   0.57354672   -6.5589491    1149.9063  0.022718238  0.021323988          536 
 4219000   0.58620377   -6.5611126    1148.9522  0.022694008  0.021317494          552 
 4220000   0.57593072    -6.577441    1146.0329  0.022630981  0.021310987          484 
 4221000   0.55918315   -6.5739588    1147.4499  0.022653596  0.021304475          545 
 4222000   0.57507139   -6.5648466    1147.7694  0.022654536  0.021297961          523 
 4223000   0.58164016   -6.5844569    1146.9951  0.022633892  0.021291467          638 
 4224000   0.58107137   -6.5780836     1145.425  0.022597558  0.021284976          628 
 4225000   0.58069923   -6.5700116    1147.3101   0.02262939  0.021278474          505 
 4226000   0.57332825   -6.5602124    1147.3893  0.022625598   0.02127196          429 
 4227000   0.57698621   -6.5805593    1150.6793  0.022685106   0.02126545          457 
 4228000   0.56368624   -6.5850799    1145.3822  0.022575334  0.021258939          458 
 4229000   0.59130024   -6.5322403    1145.5036  0.022572389  0.021252434          423 
 4230000   0.57987619   -6.5597884     1147.978    0.0226158  0.021245923          463 
 4231000   0.57052462    -6.578125    1147.3239  0.022597571  0.021239419          447 
 4232000   0.58046718   -6.5462675    1145.6141  0.022558564  0.021232924          464 
 4233000    0.5820404   -6.5652723    1147.4726  0.022589822  0.021226417          437 
 4234000   0.56958404   -6.5589139     1148.061  0.022596068  0.021219917          438 
 4235000   0.56443691   -6.5809252    1145.6285  0.022542868  0.021213418          502 
 4236000   0.58488548   -6.5971774    1148.4807  0.022593655  0.021206908          457 
 4237000   0.57382407   -6.5807319    1145.7548  0.022534709  0.021200405          441 
 4238000   0.57399668   -6.5821554    1146.3495  0.022541087  0.021193903          546 
 4239000   0.56038836   -6.5870434     1144.902  0.022507313  0.021187399          501 
 4240000   0.58086579   -6.5908671    1146.6368    0.0225361  0.021180897          529 
 4241000   0.56348094   -6.5771421    1146.5585  0.022529248  0.021174399          469 
 4242000   0.59386103    -6.563961    1147.5177   0.02254278  0.021167905          464 
 4243000   0.56808918   -6.5939078    1146.0424  0.022508492  0.021161421          399 
 4244000   0.57093259   -6.5787406    1145.2651  0.022487926  0.021154912          490 
 4245000   0.56993316   -6.5910819    1147.9695  0.022535718  0.021148418          483 
 4246000   0.58020569   -6.5856634    1146.5605  0.022502758  0.021141903          485 
 4247000   0.57808477   -6.5778625    1146.4105  0.022494515   0.02113539          460 
 4248000   0.57021075   -6.5921377    1148.3352  0.022526977  0.021128886          528 
 4249000   0.57568152   -6.5856985    1146.1421  0.022478663  0.021122386          529 
 4250000   0.57008832   -6.6043372    1145.8101  0.022466865  0.021115888          525 
 4251000   0.57598465   -6.5934905     1145.511  0.022455717  0.021109383          536 
 4252000   0.57169871   -6.5658586    1147.1553  0.022482661  0.021102878          549 
 4253000   0.57666709   -6.5798644    1146.5642  0.022465793  0.021096372          510 
 4254000   0.56464808   -6.5852061    1146.4681  0.022458629  0.021089856          469 
 4255000   0.56975002   -6.5658799    1145.4253  0.022432929  0.021083359          526 
 4256000    0.5711341   -6.5921527    1146.8468   0.02245549  0.021076872          412 
 4257000   0.58015842   -6.5545583    1145.5444  0.022424719  0.021070404          461 
 4258000   0.55035264     -6.58311    1144.4677  0.022398382  0.021063927          460 
 4259000   0.56861426   -6.5812274    1143.0871  0.022366109  0.021057458          454 
 4260000    0.5667075   -6.5870978    1145.4291  0.022406672  0.021050977          440 
 4261000   0.56055376   -6.5783461    1147.7802  0.022447396  0.021044504          420 
 4262000   0.55705043   -6.6016398    1143.8965  0.022366192  0.021038005          543 
 4263000   0.57173057   -6.5899355    1146.7336  0.022416405  0.021031497          505 
 4264000   0.56727451   -6.5796137    1144.8302  0.022373949  0.021025005          509 
 4265000   0.58131455   -6.5867351    1144.0694  0.022353837  0.021018522          580 
 4266000   0.57137905   -6.5886928    1144.8413  0.022363676  0.021012047          488 
 4267000   0.57734855   -6.5865401    1145.9732   0.02238054  0.021005558          558 
 4268000   0.57087473   -6.5914593    1143.5663  0.022328301  0.020999079          524 
 4269000   0.57908219   -6.5883743    1145.6119  0.022363002  0.020992607          516 
 4270000   0.56503497   -6.5897668    1147.6272  0.022397096  0.020986147          485 
 4271000   0.58004119    -6.614929    1144.4658  0.022330169  0.020979705          528 
 4272000   0.57358048   -6.6040285    1144.9484  0.022334356  0.020973239          574 
 4273000   0.57428935   -6.5953158     1144.488   0.02232015   0.02096677          474 
 4274000   0.57061999   -6.6046454    1146.7117  0.022358284  0.020960308          467 
 4275000   0.56672259   -6.5984688    1144.9327  0.022318376  0.020953836          519 
 4276000   0.57592325    -6.603455    1145.3928  0.022322124  0.020947355          601 
 4277000   0.57187264   -6.6123068    1143.8236   0.02228633   0.02094089          574 
 4278000    0.5677167   -6.5949514    1143.4483  0.022273809  0.020934421          660 
 4279000    0.5689986   -6.5989724    1146.4005  0.022326099   0.02092795          610 
 4280000   0.57389375   -6.5995978    1146.4717  0.022322269  0.020921484          527 
 4281000   0.56558993   -6.6179913    1146.2421  0.022312584  0.020915032          648 
 4282000   0.57008946   -6.6081153    1145.7477  0.022297751  0.020908587          608 
 4283000   0.58132849   -6.6175612      1143.59  0.022250564  0.020902143          576 
 4284000    0.5684037   -6.6236169    1146.6119  0.022304152  0.020895691          624 
 4285000   0.56918324   -6.6137856    1144.3532  0.022255021  0.020889238          555 
 4286000   0.55940695   -6.6095654    1144.3719  0.022250193  0.020882779          596 
 4287000   0.57409042    -6.600429    1145.2656  0.022262375  0.020876333          699 
 4288000   0.56322438   -6.6221516    1143.7018  0.022226793  0.020869887          623 
 4289000   0.56653966    -6.596641     1144.469  0.022236516  0.020863438          643 
 4290000   0.56600025   -6.6064077    1144.4293  0.022230561  0.020856993          609 
 4291000   0.56421357   -6.6228596    1145.0702  0.022237828  0.020850545          607 
 4292000    0.5588742   -6.5977039    1145.5212  0.022241402  0.020844111          813 
 4293000   0.57135101   -6.6179454    1145.4971  0.022235755  0.020837685          656 
 4294000    0.5622392   -6.6132568    1145.2347  0.022225483  0.020831257          706 
 4295000   0.57980854   -6.5971038    1145.3206  0.022221975  0.020824821          793 
 4296000   0.57819336   -6.6117861    1143.7798  0.022186914  0.020818377          830 
 4297000   0.57747722   -6.6173218    1143.1756  0.022170033  0.020811949          852 
 4298000    0.5642532   -6.6087696    1141.7935  0.022138077  0.020805518          950 
 4299000   0.55013003   -6.5983811    1144.0437  0.022176547  0.020799089          905 
 4300000     0.576704   -6.6038217    1145.8665  0.022206716  0.020792658          981 
 4301000   0.55474564   -6.6071044    1144.8179  0.022181235  0.020786232          970 
 4302000   0.54618857   -6.6250531    1143.5055  0.022150657  0.020779802          801 
 4303000   0.55452351    -6.612463    1145.7282  0.022188554   0.02077338          934 
 4304000    0.5586511   -6.6022071    1143.5299  0.022140837  0.020766967          910 
 4305000   0.56994168   -6.6022921    1145.0345  0.022164818  0.020760556          865 
 4306000   0.57518353   -6.6021291    1144.8348  0.022155806  0.020754147          834 
 4307000   0.56327286   -6.6366477    1143.7879  0.022130406   0.02074774          971 
 4308000   0.55473317   -6.6123054    1146.9514  0.022186464   0.02074132          977 
 4309000    0.5567876   -6.6343379    1143.5769  0.022116053  0.020734899         1016 
 4310000   0.56386019   -6.6363052    1143.0159  0.022100075  0.020728461         1009 
 4311000   0.56700578   -6.6322128    1141.4716  0.022065096  0.020722016         1021 
 4312000   0.56620644   -6.6332344    1142.2889  0.022075775  0.020715581          968 
 4313000   0.55229278   -6.6341358    1142.1045  0.022067094  0.020709152         1023 
 4314000   0.56082381   -6.6455784    1140.8603  0.022037945  0.020702716         1038 
 4315000   0.55996908   -6.6373897     1141.714  0.022049323  0.020696264         1215 
 4316000   0.55718186   -6.6473238    1142.2793   0.02205513  0.020689799         1134 
 4317000   0.57133667   -6.6239997    1144.0852  0.022084882   0.02068337         1110 
 4318000   0.54764012   -6.6179737    1142.4333  0.022047886  0.020676951         1226 
 4319000   0.56419928   -6.6473192    1141.8168  0.022030886   0.02067053         1344 
 4320000   0.56728362   -6.6264302    1142.8835  0.022046364   0.02066409         1205 
 4321000   0.57163101   -6.6194294    1141.5809   0.02201614  0.020657647         1230 
 4322000   0.57564225   -6.6386015     1140.337  0.021987063  0.020651212         1115 
 4323000   0.55283468   -6.6453781    1142.1731   0.02201737  0.020644779         1253 
 4324000    0.5629972   -6.6516771    1141.8891  0.022006806  0.020638344         1340 
 4325000   0.57542347   -6.6611064    1142.1981  0.022007671  0.020631913         1345 
 4326000   0.54171155   -6.6562521    1138.3196   0.02192787  0.020625466         1287 
 4327000   0.56820111   -6.6341492    1142.4369  0.022002097  0.020619019         1198 
 4328000   0.55493587   -6.6722473    1141.0413  0.021970141   0.02061258         1297 
 4329000   0.55354005   -6.6532809    1141.5546  0.021974947  0.020606134         1290 
 4330000   0.57865285   -6.6806475    1142.3568  0.021985311  0.020599694         1282 
 4331000   0.55311001   -6.6634675    1143.4645  0.022001548  0.020593246         1404 
 4332000   0.56573991   -6.6553259    1142.6044  0.021979925  0.020586805         1336 
 4333000   0.54964557   -6.6592973    1143.1446  0.021985242  0.020580368         1322 
 4334000   0.55845949    -6.682179    1141.0366  0.021939636   0.02057393         1353 
 4335000   0.56572309   -6.6555237     1143.093  0.021974106  0.020567483         1316 
 4336000   0.55806022   -6.6672435     1139.289   0.02189593  0.020561033         1337 
 4337000    0.5723496   -6.6733466    1140.5874   0.02191583   0.02055458         1326 
 4338000   0.55353194   -6.6720731    1140.2076   0.02190348  0.020548137         1369 
 4339000   0.55994027   -6.6807873    1141.7902  0.021928828    0.0205417         1453 
 4340000   0.55290271   -6.6650554    1139.2656  0.021875299  0.020535261         1459 
 4341000   0.54719786   -6.6605109    1139.9722  0.021883825  0.020528842         1386 
 4342000   0.55749804   -6.6609954    1139.1376  0.021862767  0.020522413         1353 
 4343000   0.57151123   -6.6280486    1141.6198  0.021905362   0.02051598         1401 
 4344000   0.55669984   -6.6473056    1141.2395  0.021893023  0.020509563         1429 
 4345000   0.54697685   -6.6591835    1142.1959  0.021906328   0.02050314         1447 
 4346000   0.55448388   -6.6600857    1141.2911  0.021883938  0.020496719         1443 
 4347000   0.55219545   -6.6804666    1139.4337  0.021843296  0.020490293         1478 
 4348000   0.54854678   -6.6577315    1142.2518  0.021892284  0.020483868         1456 
 4349000   0.55190909   -6.6653274    1141.4722  0.021872311   0.02047745         1478 
 4350000   0.56069923   -6.6560247    1140.3837  0.021846431  0.020471034         1492 
 4351000   0.55261288   -6.6686467    1139.4381  0.021823299  0.020464616         1581 
 4352000   0.55585032   -6.6662388    1142.0681  0.021868645  0.020458182         1548 
 4353000   0.56351905   -6.6736837    1140.8875  0.021841019  0.020451754         1543 
 4354000   0.54988178   -6.6597758    1139.2056  0.021803813  0.020445339         1476 
 4355000   0.55077608   -6.6635726    1139.8052  0.021810278  0.020438927         1488 
 4356000   0.56508462   -6.6592478    1140.9015  0.021826245  0.020432513         1420 
 4357000   0.56446425   -6.6601311     1140.839   0.02182004  0.020426104         1552 
 4358000   0.54544625    -6.685516    1140.5007  0.021808565   0.02041969         1643 
 4359000   0.54525582   -6.6740357    1139.9676   0.02179337  0.020413299         1538 
 4360000   0.55347276    -6.681939    1137.1014  0.021733589  0.020406892         1505 
 4361000   0.55768397   -6.6674429    1143.5361  0.021851566  0.020400485         1519 
 4362000   0.56432397   -6.6539509    1140.5713  0.021789915  0.020394088         1629 
 4363000   0.55478446   -6.6660285    1141.4949  0.021802562  0.020387696         1543 
 4364000   0.55755666   -6.6713752    1140.9918  0.021787958  0.020381285         1631 
 4365000   0.54957107   -6.6841395    1138.7034  0.021739278  0.020374877         1520 
 4366000     0.551326   -6.6923126    1138.0407  0.021721649  0.020368466         1648 
 4367000   0.54439869   -6.6885717    1139.5978  0.021746389  0.020362041         1696 
 4368000   0.55259798   -6.6691443    1139.0935   0.02173179  0.020355616         1629 
 4369000   0.54607305   -6.6744651    1138.4282  0.021714126  0.020349208         1588 
 4370000   0.54603538   -6.7072205    1137.8754  0.021698616  0.020342785         1733 
 4371000   0.55216695   -6.6862901    1138.9277  0.021713713  0.020336367         1706 
 4372000   0.55101699   -6.6769686    1137.8074  0.021687392  0.020329956         1589 
 4373000   0.55294535   -6.6922595    1139.2257  0.021709461  0.020323561         1571 
 4374000    0.5653374   -6.6941201    1139.1874  0.021703768  0.020317145         1674 
 4375000   0.53140586   -6.6713049    1139.7095  0.021708752  0.020310732         1522 
 4376000   0.54887448   -6.6775765    1137.6101  0.021663813  0.020304329         1635 
 4377000    0.5539362   -6.6657955    1136.9781  0.021646829  0.020297931         1629 
 4378000   0.54235311   -6.6962269    1137.4601  0.021651061  0.020291533         1731 
 4379000   0.55553068   -6.7080884    1136.5748  0.021629268  0.020285115         1839 
 4380000   0.55653072   -6.6943918     1136.418  0.021621347  0.020278707         1746 
 4381000    0.5578845   -6.6924203    1139.8174  0.021681074  0.020272305         1759 
 4382000   0.53903573   -6.6796603    1136.2813   0.02160888  0.020265894         1861 
 4383000   0.55191263   -6.7024535    1139.2552  0.021660491  0.020259487         1760 
 4384000   0.54574371   -6.7021167    1137.9596  0.021630923  0.020253082         1774 
 4385000   0.54630369   -6.6920929    1134.9134  0.021568099  0.020246675         1886 
 4386000   0.54825958   -6.7079402    1135.6902  0.021577941  0.020240264         1824 
 4387000   0.54898601   -6.6949719    1136.5687   0.02158971  0.020233857         1912 
 4388000    0.5445468   -6.6995354    1137.6249  0.021604848   0.02022746         1948 
 4389000   0.55863596   -6.7143905    1135.2543  0.021554916  0.020221056         1957 
 4390000   0.55345061   -6.7111033    1138.3678  0.021609108  0.020214658         1907 
 4391000   0.54177838   -6.7252977    1137.6182  0.021589961   0.02020824         2068 
 4392000   0.55383407   -6.7222668    1135.7737  0.021550047  0.020201824         2101 
 4393000   0.55757659   -6.7072915    1135.8899  0.021547346  0.020195402         2054 
 4394000   0.54840592   -6.7144181    1136.7956  0.021559618  0.020188975         2197 
 4395000    0.5388395   -6.7340625    1135.3762    0.0215278  0.020182561         2288 
 4396000   0.55290384   -6.7259448    1135.0305  0.021516351  0.020176131         2352 
 4397000   0.54912542   -6.7320475    1135.9219  0.021528351  0.020169706         2255 
 4398000   0.55362273   -6.7228962    1135.2191   0.02151014  0.020163283         2348 
 4399000   0.54984454   -6.7071153    1135.5036  0.021510638  0.020156866         2293 
 4400000   0.54368943   -6.7140687    1135.9424  0.021514061  0.020150435         2401 
 4401000   0.55981113   -6.7341162    1137.3962    0.0215367  0.020144027         2455 
 4402000   0.55690322   -6.7281998    1135.4767   0.02149547  0.020137607         2476 
 4403000   0.53610266   -6.7202892    1137.1433  0.021522131  0.020131182         2483 
 4404000   0.54086899   -6.7230495    1138.2811  0.021538773  0.020124767         2571 
 4405000   0.55667806   -6.7176525    1134.5746  0.021463765  0.020118351         2551 
 4406000   0.55174459   -6.7335994    1134.0755  0.021449453  0.020111927         2469 
 4407000   0.54587044   -6.7325403    1135.2969  0.021467682  0.020105504         2521 
 4408000   0.54736323   -6.7304487     1135.388  0.021464534  0.020099071         2548 
 4409000   0.54042781   -6.7316588    1135.8382  0.021468175  0.020092652         2477 
 4410000   0.54596337   -6.7529829    1133.1501  0.021412511  0.020086225         2451 
 4411000    0.5425561   -6.7221352    1133.6864  0.021417789  0.020079806         2525 
 4412000    0.5357408   -6.7374353    1132.1459  0.021383837  0.020073381         2543 
 4413000   0.53806868   -6.7590158    1131.8659  0.021373705  0.020066956         2622 
 4414000   0.54570819   -6.7335219    1135.2557   0.02143286  0.020060526         2547 
 4415000   0.54581561   -6.7259725    1134.2417  0.021408866  0.020054106         2573 
 4416000   0.54549398   -6.7657075    1132.0142  0.021361983  0.020047675         2593 
 4417000   0.55370471   -6.7675357    1132.5051  0.021366408  0.020041254         2644 
 4418000   0.54215552   -6.7445811    1129.8932  0.021312305  0.020034831         2540 
 4419000   0.53899426   -6.7674737    1133.5041  0.021375578  0.020028395         2573 
 4420000   0.53412513   -6.7505088    1133.3105  0.021367092  0.020021979         2540 
 4421000   0.54442188   -6.7378411    1134.4667  0.021384051  0.020015562         2650 
 4422000   0.54930034   -6.7510341    1134.4297  0.021378519  0.020009135         2605 
 4423000   0.54775324   -6.7588261    1133.9043  0.021363786  0.020002715         2667 
 4424000   0.53416333   -6.7562758    1133.1136  0.021344062   0.01999629         2634 
 4425000   0.55257949   -6.7550871    1134.4762  0.021364899  0.019989874         2682 
 4426000   0.53649324   -6.7651617    1133.1841  0.021335744  0.019983454         2674 
 4427000   0.54073815   -6.7625706    1134.4827  0.021355371  0.019977029         2684 
 4428000   0.53365935   -6.7727462    1132.1779  0.021307172  0.019970609         2725 
 4429000   0.53242431   -6.7680066    1132.6798  0.021311804  0.019964188         2655 
 4430000   0.55057938   -6.7585479     1131.389  0.021282713  0.019957781         2720 
 4431000   0.54197745    -6.755578    1133.2908  0.021313676   0.01995138         2723 
 4432000    0.5438039   -6.7558951    1136.1407  0.021362453  0.019944968         2718 
 4433000   0.54733158   -6.7623284      1133.11  0.021300662  0.019938557         2786 
 4434000   0.53723856   -6.7516655    1132.4182  0.021282856  0.019932154         2629 
 4435000   0.54588548   -6.7714713    1132.3254  0.021276313  0.019925733         2693 
 4436000   0.55841358   -6.7613387    1130.9615  0.021245896  0.019919326         2678 
 4437000   0.55143388   -6.7664753    1132.9303  0.021278084  0.019912926         2716 
 4438000   0.52618479    -6.766885    1134.9012  0.021310297  0.019906527         2744 
 4439000   0.54447646   -6.7809047    1131.6599  0.021244647  0.019900131         2712 
 4440000   0.55185823   -6.7524517    1132.9693  0.021264439  0.019893741         2756 
 4441000   0.53301869   -6.7698683    1134.1013  0.021280892  0.019887344         2793 
 4442000   0.53900664   -6.7622736    1134.6815  0.021286987  0.019880936         2857 
 4443000   0.52934451   -6.7596688    1131.4949  0.021222426  0.019874533         2829 
 4444000   0.55416619   -6.7753538    1131.5863  0.021219364  0.019868142         2787 
 4445000    0.5507163   -6.7583115    1131.2049  0.021207442   0.01986175         2837 
 4446000   0.54408603   -6.7727759    1132.5336  0.021227576  0.019855358         2875 
 4447000   0.53025558   -6.7812864     1131.277  0.021199254  0.019848966         2974 
 4448000   0.54708263   -6.7741467    1131.9777  0.021207617  0.019842571         2923 
 4449000   0.53188326   -6.7832709    1132.0366  0.021203952  0.019836187         2942 
 4450000   0.54137412    -6.762121    1132.0324  0.021199109  0.019829803         2941 
 4451000   0.54335284   -6.7983081    1132.1841  0.021197187  0.019823411         3008 
 4452000   0.54390046   -6.7994666    1131.4571  0.021178817  0.019817019         2988 
 4453000   0.53853076   -6.7814239    1129.5259  0.021137921  0.019810628         3109 
 4454000   0.53067672   -6.7829271    1130.5869  0.021153026  0.019804232         3137 
 4455000   0.54008108   -6.7915892    1133.3839  0.021200596  0.019797839         3027 
 4456000   0.53398606   -6.7966027    1130.6206  0.021144162  0.019791444         3037 
 4457000   0.55597041   -6.7748951    1131.8466   0.02116234  0.019785058         3128 
 4458000    0.5322845   -6.7791606    1132.4967  0.021169746   0.01977867         3139 
 4459000   0.53555474   -6.7803681    1131.0703   0.02113834  0.019772279         3125 
 4460000   0.54006607   -6.7929184    1130.7902  0.021128366  0.019765884         3133 
 4461000   0.53333883   -6.7739245    1131.4536  0.021136023  0.019759501         3073 
 4462000   0.55014225   -6.7753584    1131.5188  0.021132504  0.019753116         3111 
 4463000   0.53737246    -6.783439    1132.0089   0.02113692  0.019746744         3169 
 4464000   0.53769565   -6.7822911    1131.5018  0.021122719  0.019740361         3073 
 4465000   0.53516374   -6.7801455    1130.2037   0.02109376  0.019733983         3129 
 4466000   0.53666557    -6.789541    1128.2766  0.021053079  0.019727612         3156 
 4467000   0.52078215    -6.777354    1130.6336  0.021092336  0.019721237         3244 
 4468000   0.53282856    -6.780595    1131.5436  0.021104589  0.019714868         3221 
 4469000   0.53687393   -6.8006508    1129.4829  0.021061441  0.019708503         3285 
 4470000   0.52268192   -6.7674004    1131.4886  0.021094121  0.019702136         3250 
 4471000   0.53804164   -6.7741867    1132.7594  0.021113089   0.01969578         3226 
 4472000   0.52742025   -6.7990199    1129.6035  0.021049559  0.019689422         3258 
 4473000   0.54176075   -6.8096616    1130.8112  0.021067352  0.019683059         3224 
 4474000   0.54628089   -6.7828217    1130.0105  0.021047729  0.019676706         3211 
 4475000   0.53125727    -6.800934    1130.2765  0.021047979  0.019670356         3285 
 4476000   0.54047253   -6.7960515    1130.6417  0.021050077  0.019663991         3250 
 4477000   0.52340553   -6.7954601    1129.9182  0.021031907  0.019657634         3340 
 4478000   0.53584379   -6.8024066    1127.5465  0.020983074  0.019651273         3362 
 4479000   0.53313864   -6.7961785    1129.7498  0.021019383  0.019644916         3304 
 4480000   0.53706436    -6.801863     1129.936  0.021018154  0.019638553         3444 
 4481000   0.52916062   -6.8120631    1129.2969   0.02100158  0.019632191         3400 
 4482000   0.53816462   -6.8095521     1131.616  0.021040011  0.019625815         3412 
 4483000   0.53587088   -6.8077404    1128.7878  0.020982746  0.019619455         3410 
 4484000   0.53553244   -6.8036304    1131.5425  0.021029261    0.0196131         3405 
 4485000   0.51734201   -6.8061091    1129.3847  0.020984479  0.019606736         3480 
 4486000    0.5390607   -6.8013593    1128.2837   0.02095935  0.019600378         3410 
 4487000   0.52914204   -6.7911313    1129.3536  0.020974549   0.01959402         3432 
 4488000   0.53985068   -6.8174705    1129.1674  0.020966418  0.019587672         3460 
 4489000   0.53138249   -6.7994972    1129.1644  0.020961692  0.019581326         3425 
 4490000   0.53334665   -6.8044827    1129.2107  0.020957882  0.019574977         3402 
 4491000   0.54855929   -6.8162426    1128.6771  0.020943315  0.019568631         3440 
 4492000   0.53362727   -6.8167993    1128.4945  0.020935265  0.019562288         3538 
 4493000   0.52993752   -6.8032471    1130.2253  0.020962707  0.019555945         3438 
 4494000   0.53680277   -6.8201785    1127.9027  0.020914974  0.019549601         3460 
 4495000   0.53167326   -6.8134916    1128.0761  0.020913536   0.01954326         3471 
 4496000    0.5371209   -6.8286812    1130.9185  0.020961567  0.019536912         3438 
 4497000   0.53232498   -6.8259462    1126.1782  0.020869064  0.019530557         3545 
 4498000   0.52900771   -6.8250944    1128.7638  0.020912328  0.019524204         3529 
 4499000    0.5417069   -6.8094638    1129.0203  0.020912431  0.019517862         3481 
 4500000   0.53657507   -6.8276666    1129.9872  0.020925688  0.019511516         3571 
 4501000   0.53420053   -6.8307936    1128.0322  0.020884843  0.019505172         3543 
 4502000   0.53021519   -6.8236871    1128.6276  0.020891226   0.01949883         3572 
 4503000   0.53577403    -6.817422     1130.164  0.020915019  0.019492484         3524 
 4504000   0.53636026   -6.8360954    1130.0091  0.020907511  0.019486145         3580 
 4505000   0.53135063   -6.8232293    1128.7366   0.02087933  0.019479793         3541 
 4506000   0.52805757    -6.827224    1130.4241  0.020905905  0.019473452         3541 
 4507000   0.51960059   -6.8188425    1127.7195  0.020851259  0.019467113         3540 
 4508000   0.51996373   -6.8200392    1126.6861  0.020827531  0.019460769         3605 
 4509000   0.52740903   -6.8209011    1126.9969  0.020828656  0.019454413         3652 
 4510000   0.52129042   -6.8085366    1128.0486   0.02084347  0.019448071         3602 
 4511000   0.53301986   -6.8244872    1128.0514  0.020838901  0.019441732         3671 
 4512000   0.51745783   -6.8276476    1130.3012  0.020875835  0.019435394         3628 
 4513000   0.53470347   -6.8407314    1126.0763  0.020793196  0.019429055         3657 
 4514000   0.53456601   -6.8328964    1127.5597  0.020815975  0.019422718         3647 
 4515000   0.52601031   -6.8207337    1126.5564  0.020792847  0.019416387         3664 
 4516000   0.53425949   -6.8346717    1128.2863  0.020820163  0.019410054         3625 
 4517000   0.53231905   -6.8175506    1125.6781  0.020767437  0.019403716         3724 
 4518000   0.53616331   -6.8377945    1127.5422  0.020797222  0.019397385         3706 
 4519000   0.52631992   -6.8477315     1125.553  0.020755937  0.019391054         3687 
 4520000   0.54306157   -6.8251482    1127.8997  0.020794612  0.019384731         3696 
 4521000    0.5295527   -6.8230921    1127.3363  0.020779627  0.019378411         3712 
 4522000   0.53699041   -6.8531636    1125.4477  0.020740228  0.019372087         3734 
 4523000   0.52910326   -6.8254322    1124.9971   0.02072734  0.019365758         3738 
 4524000   0.53134117   -6.8250403    1124.9056  0.020721073  0.019359438         3753 
 4525000   0.52244751   -6.8214822    1126.1962  0.020740261  0.019353123         3688 
 4526000   0.51969491   -6.8306047    1126.7558  0.020745982  0.019346809         3721 
 4527000   0.53239046   -6.8305975    1127.5046  0.020755184  0.019340496         3723 
 4528000   0.52772264   -6.8402604    1126.5904  0.020733775   0.01933418         3763 
 4529000   0.52597851   -6.8460396    1126.4868   0.02072729  0.019327868         3664 
 4530000   0.53122742   -6.8566958    1127.3331  0.020738283  0.019321563         3718 
 4531000   0.52355404   -6.8244377    1128.8429  0.020761475  0.019315254         3714 
 4532000    0.5265843   -6.8421679    1126.3632  0.020711298   0.01930895         3769 
 4533000   0.52127391   -6.8382972    1125.2164  0.020685645  0.019302645         3721 
 4534000   0.51807761   -6.8441518    1128.7013  0.020745134  0.019296349         3680 
 4535000   0.51875525   -6.8600312    1126.5395  0.020700837  0.019290053         3744 
 4536000   0.52654026    -6.843141    1125.7655  0.020682052  0.019283757         3699 
 4537000   0.51602302   -6.8296461    1128.7315  0.020731972  0.019277461         3727 
 4538000   0.52872208   -6.8358553    1126.3142  0.020683015  0.019271163         3746 
 4539000   0.52498328    -6.836656    1127.8829  0.020707257  0.019264865         3705 
 4540000   0.53346508    -6.831925    1126.4328  0.020676079  0.019258572         3709 
 4541000   0.52185554   -6.8571764    1128.8132  0.020715209  0.019252282         3684 
 4542000   0.52916504    -6.846568    1127.0127  0.020677614  0.019245998         3712 
 4543000   0.51606598   -6.8425518    1126.1098  0.020656501  0.019239712         3703 
 4544000    0.5304525    -6.842917    1125.2758  0.020636659  0.019233428         3735 
 4545000   0.51909722   -6.8365383    1126.8387  0.020660776  0.019227144         3748 
 4546000   0.53124151   -6.8324381     1127.944  0.020676493  0.019220865         3717 
 4547000   0.52583312   -6.8368541     1128.735  0.020686441  0.019214601         3654 
 4548000   0.52414886   -6.8332192    1125.3421  0.020619724  0.019208325         3740 
 4549000   0.51686972   -6.8276488    1124.2358  0.020594926  0.019202056         3751 
 4550000   0.50823532   -6.8430265    1126.6382  0.020634399  0.019195785         3762 
 4551000   0.52976146   -6.8421159    1127.5465  0.020646498  0.019189515         3697 
 4552000   0.52064845   -6.8318618    1125.8627  0.020611136  0.019183249         3723 
 4553000   0.51829896   -6.8233793    1127.5788   0.02063802   0.01917698         3728 
 4554000   0.51715184   -6.8372255    1128.6086  0.020652332  0.019170716         3704 
 4555000   0.51815221   -6.8491455    1125.1253   0.02058407  0.019164454         3762 
 4556000   0.52587462   -6.8542776    1125.1201  0.020579457  0.019158195         3698 
 4557000   0.52554227   -6.8399683    1126.9642  0.020608665  0.019151938         3671 
 4558000   0.52318015   -6.8497355    1123.8257  0.020546762  0.019145683         3740 
 4559000    0.5278636   -6.8561617    1125.5372   0.02057354  0.019139429         3748 
 4560000   0.52520074   -6.8418488    1126.8384  0.020592808  0.019133185         3736 
 4561000    0.5242414   -6.8534643    1124.2747  0.020541452  0.019126946         3732 
 4562000   0.52128459   -6.8389865    1123.8234  0.020528704  0.019120696         3691 
 4563000   0.52207974   -6.8541953    1125.3009  0.020551189  0.019114456         3762 
 4564000   0.52894073   -6.8480412     1125.235  0.020545482  0.019108214         3706 
 4565000   0.51129438   -6.8499556    1126.9244  0.020571822  0.019101982         3741 
 4566000   0.52525429   -6.8416704    1126.0106  0.020550638  0.019095748         3746 
 4567000   0.52828714   -6.8581377    1126.9422  0.020563138  0.019089518         3712 
 4568000   0.50408129   -6.8461598    1124.2602  0.020509709  0.019083286         3691 
 4569000   0.51698451   -6.8418689    1125.5272  0.020528328   0.01907706         3726 
 4570000   0.51737614    -6.853475    1124.0659  0.020497189  0.019070829         3676 
 4571000   0.51674983   -6.8370952    1126.0592  0.020529046  0.019064605         3671 
 4572000   0.52626423   -6.8657152     1124.084  0.020488554  0.019058379         3745 
 4573000   0.52406088   -6.8408535    1124.4553   0.02049084  0.019052158         3634 
 4574000   0.52813613   -6.8585071    1127.0582  0.020533782  0.019045955         3714 
 4575000   0.52626085   -6.8635552    1126.4232  0.020517727  0.019039738         3696 
 4576000   0.52042437   -6.8426261    1125.7803  0.020501536  0.019033522         3705 
 4577000   0.51495392   -6.8517254    1124.4852  0.020473477  0.019027306         3714 
 4578000   0.51984746   -6.8488688    1126.1712  0.020499694  0.019021094         3695 
 4579000   0.52291178   -6.8482514     1126.895   0.02050839  0.019014885         3676 
 4580000   0.50940075    -6.856982    1124.8172  0.020466107  0.019008678         3737 
 4581000   0.52302714   -6.8607222    1125.0979  0.020466744  0.019002473         3731 
 4582000   0.52451177   -6.8592141    1125.1052  0.020462411  0.018996266         3700 
 4583000   0.52006788   -6.8651612    1124.2385  0.020442186  0.018990068         3743 
 4584000    0.5079874   -6.8710873    1125.0385   0.02045227  0.018983859         3752 
 4585000   0.52346934   -6.8561673    1125.4037  0.020454447  0.018977653         3723 
 4586000   0.52889124   -6.8723574    1126.9669  0.020478393  0.018971449         3730 
 4587000   0.51286358   -6.8562552    1124.1759  0.020423223  0.018965247         3707 
 4588000   0.51270088   -6.8536379     1123.397  0.020404624  0.018959049         3717 
 4589000   0.53163686   -6.8466972    1122.2883  0.020380045  0.018952855         3754 
 4590000   0.53111198      -6.8643    1125.4589  0.020433169  0.018946665         3762 
 4591000   0.52041396   -6.8459402    1124.1532  0.020405017  0.018940475         3791 
 4592000   0.51591429   -6.8639743    1122.6694  0.020373646  0.018934289         3778 
 4593000   0.51013991   -6.8654982    1123.8648    0.0203909  0.018928101         3734 
 4594000   0.50997177   -6.8660353    1126.2645   0.02042999  0.018921905         3762 
 4595000   0.51767798   -6.8691405    1124.8221  0.020399385   0.01891573         3775 
 4596000   0.50779822   -6.8708644    1125.3216  0.020404003  0.018909548         3760 
 4597000   0.52107039   -6.8636435    1122.6284  0.020350744  0.018903365         3816 
 4598000   0.52260861   -6.8643182    1125.0294  0.020389833  0.018897191         3758 
 4599000   0.50788544    -6.872891    1124.2268  0.020370856  0.018891015         3751 
 4600000   0.49917099   -6.8720311    1121.4957  0.020316952  0.018884833         3778 
 4601000   0.52465525   -6.8744655    1123.3893  0.020346833  0.018878661         3747 
 4602000   0.51976504   -6.8637882    1121.3902  0.020306211  0.018872493         3762 
 4603000   0.50935523   -6.8648431    1122.4372  0.020320754  0.018866325         3753 
 4604000   0.51756342   -6.8605685    1126.1166  0.020382938  0.018860156         3748 
 4605000   0.51194878   -6.8506126    1124.6024  0.020351111  0.018853992         3751 
 4606000   0.52410208   -6.8736773    1123.9065  0.020334102  0.018847827         3769 
 4607000   0.50254424    -6.854001    1126.0202  0.020367923  0.018841671         3758 
 4608000   0.51304611   -6.8517576    1124.3852  0.020333934   0.01883551         3739 
 4609000   0.51906007   -6.8719002    1126.0587  0.020359779  0.018829354         3782 
 4610000   0.52673917   -6.8565342    1125.0259  0.020336694  0.018823203         3758 
 4611000   0.50634842    -6.864551    1125.3761  0.020338612  0.018817055         3777 
 4612000   0.50391855   -6.8791931    1123.0914  0.020292921  0.018810905         3770 
 4613000   0.51163375   -6.8705416    1124.1958  0.020308472  0.018804754         3778 
 4614000   0.50233666   -6.8615401    1125.6641   0.02033059  0.018798613         3696 
 4615000   0.51328389   -6.8602622    1123.4559  0.020286311   0.01879247         3750 
 4616000   0.51118666   -6.8608837    1123.2657  0.020278482  0.018786334         3763 
 4617000   0.50551539   -6.8563331     1124.443   0.02029534  0.018780195         3818 
 4618000   0.52129435   -6.8965848    1123.2748  0.020269865  0.018774058         3788 
 4619000   0.51366491   -6.8781029    1122.7363   0.02025576  0.018767929         3748 
 4620000   0.50671986   -6.8608452     1123.095  0.020257847    0.0187618         3772 
 4621000   0.51709726   -6.8686873    1124.2823  0.020274873  0.018755672         3747 
 4622000   0.50725834   -6.8763192    1124.5853  0.020275951  0.018749544         3794 
 4623000   0.52778747   -6.8774862    1123.3762   0.02024977  0.018743421         3741 
 4624000   0.51871628   -6.8682059    1122.9955  0.020238528  0.018737295         3753 
 4625000   0.50745682   -6.8586889    1123.4142  0.020241698   0.01873118         3779 
 4626000   0.51985287   -6.8652321     1123.623  0.020241083  0.018725055         3715 
 4627000   0.50272063   -6.8667736    1122.5044  0.020216562  0.018718943         3735 
 4628000   0.50869963   -6.8586795     1125.196  0.020260659   0.01871283         3753 
 4629000   0.51150022   -6.8743411    1123.3548  0.020223136  0.018706719         3743 
 4630000   0.51337826   -6.8785609    1125.2357  0.020252622  0.018700616         3743 
 4631000   0.50190412   -6.8710748    1120.8633  0.020169568  0.018694512         3767 
 4632000   0.51596245   -6.8826024    1124.5886  0.020232236  0.018688408         3783 
 4633000   0.50924046   -6.8650066    1121.8903  0.020179335    0.0186823         3740 
 4634000   0.52975936   -6.8902737    1125.1401  0.020233421  0.018676197         3761 
 4635000   0.51632543   -6.8774039    1123.5276  0.020200064  0.018670102         3770 
 4636000   0.51470553   -6.8746182    1124.0577  0.020205236  0.018664003         3756 
 4637000   0.51171974   -6.8761096    1121.4805  0.020154562  0.018657909         3770 
 4638000    0.5103984   -6.8826391    1123.6403  0.020189024  0.018651823         3757 
 4639000   0.50720543   -6.8722581    1126.7961  0.020241362  0.018645732         3711 
 4640000   0.50706701   -6.8835248    1124.0294   0.02018731  0.018639648         3754 
 4641000   0.51632548   -6.8823102    1122.3097  0.020152081  0.018633571         3738 
 4642000   0.50859977    -6.874602    1122.1464  0.020144809  0.018627496         3751 
 4643000   0.52058233   -6.8772585    1124.1032   0.02017559  0.018621427         3725 
 4644000   0.51041929   -6.8783383    1122.3402  0.020139609  0.018615355         3817 
 4645000   0.49437033   -6.8797762    1124.1667  0.020168044  0.018609278         3801 
 4646000   0.51248933   -6.8792024    1123.2843  0.020147874  0.018603209         3775 
 4647000   0.50926301    -6.890936    1123.3379    0.0201445  0.018597147         3813 
 4648000   0.51220333   -6.8843769    1126.0772  0.020189279  0.018591087         3731 
 4649000   0.50687786   -6.8774816    1123.9619  0.020147019  0.018585027         3705 
 4650000    0.5157731   -6.8658812    1123.8967  0.020141518  0.018578967         3721 
 4651000   0.50519161   -6.8832712    1125.5397  0.020166625   0.01857291         3762 
 4652000   0.51507054   -6.8872875    1123.2235  0.020120799  0.018566855         3741 
 4653000   0.50916941   -6.8811634    1122.6297   0.02010584  0.018560801         3730 
 4654000   0.51031635   -6.8824514    1123.7371  0.020121349  0.018554747         3737 
 4655000   0.50013939     -6.89151    1124.1557  0.020124521  0.018548694         3742 
 4656000   0.50092675   -6.8856112    1123.7865  0.020113591  0.018542653         3739 
 4657000   0.50950432   -6.8752532    1122.4346  0.020085079  0.018536603         3777 
 4658000   0.51690535    -6.886609    1124.2546  0.020113329  0.018530561         3773 
 4659000   0.50905508   -6.8785158    1123.8101  0.020101061  0.018524512         3771 
 4660000   0.50344683    -6.883438    1123.2976  0.020087582  0.018518472         3777 
 4661000   0.51010062   -6.9009227    1123.7987  0.020092232  0.018512434         3762 
 4662000    0.5066567   -6.8855353    1122.9785   0.02007326  0.018506394         3743 
 4663000   0.50818451   -6.8885594    1122.9053  0.020067648  0.018500362         3792 
 4664000   0.50913015   -6.8729357    1124.6039  0.020093695  0.018494327         3805 
 4665000   0.49460843   -6.8944726    1123.4318   0.02006845  0.018488293         3744 
 4666000   0.50808322   -6.8715236    1121.5552  0.020030633  0.018482261         3774 
 4667000   0.50544476   -6.8886671    1122.6433  0.020045771  0.018476229         3787 
 4668000   0.51065674   -6.8912989    1122.0318   0.02003056  0.018470207         3730 
 4669000   0.50855247     -6.88494    1121.2298  0.020011955  0.018464182         3726 
 4670000   0.50568505   -6.8708961    1121.1592  0.020006409  0.018458156         3752 
 4671000   0.49863065   -6.9182457    1121.1809  0.020002515  0.018452136         3737 
 4672000   0.49670637   -6.8726236    1123.3105  0.020036217  0.018446109         3734 
 4673000   0.50197448   -6.8833545    1123.0625  0.020027508  0.018440099         3747 
 4674000   0.49678084   -6.8987607    1122.6194  0.020015323  0.018434081         3773 
 4675000     0.504785   -6.8708449     1123.623   0.02002893   0.01842807         3784 
 4676000   0.50050603   -6.8922489     1123.629  0.020024754  0.018422061         3755 
 4677000    0.5029741   -6.8876232    1122.6965  0.020003857  0.018416058         3796 
 4678000   0.49546468   -6.8851134    1121.5223  0.019978664  0.018410053         3791 
 4679000   0.50500305   -6.8894967    1122.7456  0.019996181  0.018404049         3750 
 4680000   0.50946981    -6.895161    1122.8613  0.019993969  0.018398045         3798 
 4681000   0.50266154   -6.8874184    1122.0267  0.019974841   0.01839205         3801 
 4682000    0.4930478   -6.8908014    1120.5736  0.019944711  0.018386056         3760 
 4683000   0.50691443   -6.9006079    1122.5097  0.019974904  0.018380056         3814 
 4684000    0.5084373   -6.8889204    1125.3268  0.020020758  0.018374064         3815 
 4685000   0.50544172   -6.9004475    1121.6013  0.019950219  0.018368075         3815 
 4686000   0.50857817   -6.8896817    1123.8388  0.019985752  0.018362082         3782 
 4687000   0.49801749   -6.8950552    1121.1133  0.019933029  0.018356091         3765 
 4688000   0.51048373    -6.902298    1124.2764  0.019985004  0.018350112         3784 
 4689000   0.49712719   -6.8892609    1122.4469  0.019948228   0.01834413         3768 
 4690000   0.49775806   -6.8944753    1123.0183  0.019954127  0.018338153         3796 
 4691000    0.5107598   -6.8836427    1122.3894  0.019938701  0.018332182         3809 
 4692000   0.49945404   -6.8932946    1122.1154  0.019929587   0.01832621         3782 
 4693000   0.50149826   -6.8888549    1123.7373  0.019954138  0.018320237         3774 
 4694000   0.50238675    -6.898696    1119.9749  0.019883094  0.018314271         3806 
 4695000   0.51410817   -6.9074789    1120.7981   0.01989347  0.018308304         3765 
 4696000   0.50058665   -6.8918113    1121.9273  0.019909271  0.018302333         3824 
 4697000   0.50409116   -6.8856402    1121.8323  0.019903348  0.018296374         3781 
 4698000   0.50571725   -6.9072772    1123.2636  0.019924499  0.018290415         3783 
 4699000   0.49808839   -6.8936464    1124.5375  0.019942851  0.018284456         3793 
 4700000   0.49916411    -6.896738    1120.4715  0.019866517  0.018278496         3773 
 4701000   0.50350424   -6.8848059    1122.6158  0.019900302  0.018272541         3791 
 4702000   0.49432734   -6.8908379    1123.6416  0.019914248  0.018266589         3813 
 4703000    0.4934195   -6.8904044    1122.8949  0.019896785  0.018260645         3787 
 4704000   0.49164762   -6.8870261    1124.8181  0.019926624    0.0182547         3777 
 4705000   0.52448806   -6.9025607    1121.6337  0.019865988  0.018248758         3789 
 4706000    0.4963464   -6.8820476    1122.5724   0.01987839  0.018242817         3759 
 4707000   0.49596047   -6.8971187    1120.0034  0.019828685  0.018236871         3808 
 4708000   0.49843218   -6.9068234    1121.4522  0.019850116  0.018230929         3797 
 4709000   0.49570934   -6.8909284    1123.0113  0.019873492  0.018224987         3804 
 4710000   0.49723236   -6.9102429    1124.6573  0.019898396  0.018219061         3779 
 4711000   0.49811627   -6.8988699    1121.0145  0.019829734  0.018213123         3810 
 4712000    0.5011121   -6.9074171     1122.574  0.019853105  0.018207191         3806 
 4713000   0.49611876   -6.8904914    1122.2387  0.019842964  0.018201262         3763 
 4714000   0.49616187   -6.9008331    1119.4991  0.019790325  0.018195331         3791 
 4715000   0.48961582   -6.8957856     1120.834   0.01980972  0.018189399         3797 
 4716000   0.49966159   -6.8921521    1122.5407  0.019835678  0.018183478         3761 
 4717000   0.49171675   -6.8999256    1120.5924  0.019797052  0.018177552         3780 
 4718000   0.49733438   -6.8963639    1122.5972  0.019828268  0.018171629         3796 
 4719000    0.4932139   -6.9042867      1122.22  0.019817405  0.018165707         3793 
 4720000   0.50452935   -6.9054271    1123.9263  0.019843331  0.018159795         3732 
 4721000   0.49061104   -6.8893715    1121.2085  0.019791155  0.018153883         3787 
 4722000    0.4925986   -6.9159699    1119.8735  0.019763403  0.018147966         3767 
 4723000   0.49004249   -6.8832337     1121.789  0.019793017  0.018142047         3762 
 4724000   0.48671825   -6.9225709    1119.5079  0.019748586  0.018136143         3765 
 4725000   0.50514171    -6.914976    1122.7706   0.01980195  0.018130238         3776 
 4726000   0.49902106   -6.9078856    1123.1682  0.019804771   0.01812434         3767 
 4727000   0.49567616   -6.9008657    1123.2494  0.019802014  0.018118437         3825 
 4728000   0.48658529   -6.9043906    1122.4489  0.019783717  0.018112543         3837 
 4729000   0.50487138   -6.9020847    1121.4291  0.019761562  0.018106647         3821 
 4730000   0.49283778   -6.9082703    1121.9021  0.019765716  0.018100759         3799 
 4731000    0.4893534   -6.9076838    1121.1305  0.019747948  0.018094861         3815 
 4732000   0.49269432   -6.9172068    1120.6222  0.019734823  0.018088968         3795 
 4733000   0.48997464   -6.9021507    1122.8617  0.019770085  0.018083077         3801 
 4734000   0.50053322   -6.9078875    1121.6899   0.01974528  0.018077191         3802 
 4735000    0.4972935   -6.8913831    1124.9781  0.019798981   0.01807131         3786 
 4736000    0.4936746   -6.9171869    1123.3975  0.019766989  0.018065435         3780 
 4737000   0.49227663   -6.9118707    1120.0956  0.019704729  0.018059558         3779 
 4738000   0.49467268   -6.8840144    1121.5533  0.019726209  0.018053685         3786 
 4739000    0.4891798   -6.9174612    1122.3181  0.019735495   0.01804781         3812 
 4740000   0.48939002   -6.9099254    1121.4098  0.019715362  0.018041944         3755 
 4741000   0.49157882   -6.9219248    1120.6395  0.019697664  0.018036073         3815 
 4742000   0.49244258   -6.8816039    1121.5385  0.019709308  0.018030209         3752 
 4743000   0.48565485   -6.9104467    1122.0161  0.019713545   0.01802435         3828 
 4744000   0.49828012   -6.8954111     1122.048  0.019709949   0.01801849         3790 
 4745000   0.50353877   -6.9152037    1122.0449  0.019705742  0.018012638         3823 
 4746000   0.49281733   -6.9144921    1123.5637  0.019728258  0.018006779         3776 
 4747000    0.4975179   -6.9086036    1122.2078  0.019700298   0.01800092         3744 
 4748000   0.49411396   -6.8991895    1121.5284  0.019684224  0.017995066         3754 
 4749000   0.48733782   -6.8953031    1122.6965  0.019700577  0.017989219         3736 
 4750000   0.47883637   -6.9084083     1122.703  0.019696544  0.017983369         3781 
 4751000   0.49274854   -6.9311206    1120.5515   0.01965466  0.017977522         3805 
 4752000   0.49877451   -6.8947664    1119.8372  0.019637999  0.017971676         3800 
 4753000   0.50352613    -6.915057    1122.5776  0.019681913  0.017965833         3802 
 4754000   0.48243676   -6.9079084    1121.0947  0.019651779  0.017959997         3756 
 4755000   0.48684131   -6.9213055    1122.2876  0.019668552  0.017954156         3794 
 4756000   0.49325665   -6.9117187    1121.2615  0.019646439  0.017948326         3806 
 4757000   0.48474164   -6.9271809    1121.0796  0.019639122  0.017942492         3822 
 4758000   0.48312019   -6.8988853    1120.9666  0.019633015  0.017936657         3793 
 4759000    0.4905485    -6.918155    1122.4786  0.019655366  0.017930831         3804 
 4760000   0.49918983   -6.8907651    1120.7517  0.019621004  0.017925002         3777 
 4761000   0.48251233   -6.9062795    1120.5846  0.019613957  0.017919178         3791 
 4762000   0.49071454   -6.8980645    1120.3223  0.019605248  0.017913352         3789 
 4763000    0.4887603   -6.9078854    1121.8971  0.019628684  0.017907534         3775 
 4764000   0.48859997   -6.9164247    1119.8873  0.019589408  0.017901721         3825 
 4765000   0.50358493   -6.8965839    1120.7195  0.019599851  0.017895908         3767 
 4766000   0.49069763   -6.9236923    1120.8486  0.019597996  0.017890099         3808 
 4767000   0.50080203   -6.9133148    1120.1033  0.019580857   0.01788429         3812 
 4768000   0.49444692   -6.9057294    1120.6932   0.01958706  0.017878476         3783 
 4769000   0.48645923   -6.9090686    1122.6778   0.01961763  0.017872671         3775 
 4770000   0.49375325   -6.9158988    1120.5403  0.019576175  0.017866868         3809 
 4771000   0.48958659   -6.9265554     1119.072  0.019546426  0.017861067         3771 
 4772000   0.49723587   -6.9068633    1123.4132  0.019618141  0.017855262         3794 
 4773000    0.4872859   -6.9142972    1120.8214  0.019568779  0.017849471         3810 
 4774000   0.48707554    -6.921123    1122.0119  0.019585461  0.017843675         3807 
 4775000   0.50008086   -6.9038377    1120.7636  0.019559575  0.017837879         3772 
 4776000   0.47889608   -6.9228308    1122.1286  0.019579296   0.01783209         3788 
 4777000   0.48640085   -6.9144287    1120.0008  0.019538079  0.017826299         3809 
 4778000   0.48997398   -6.9077993    1121.6291  0.019562388  0.017820511         3817 
 4779000   0.47874782    -6.931081    1121.6941  0.019559428  0.017814724         3775 
 4780000   0.49283306   -6.9159979    1119.3076  0.019513731  0.017808949         3808 
 4781000   0.48803191   -6.9181467    1122.2141  0.019560309  0.017803171         3827 
 4782000    0.4903823   -6.9084875    1121.7852  0.019548744  0.017797394         3811 
 4783000   0.48479767   -6.9204804    1123.0407  0.019566533  0.017791618         3826 
 4784000   0.48875827   -6.9091601    1120.4253  0.019516884  0.017785841         3778 
 4785000   0.47539167   -6.9328306    1121.6886  0.019534807  0.017780063         3845 
 4786000   0.48974376   -6.9186521     1119.003  0.019483964  0.017774284         3806 
 4787000   0.49043436   -6.9198672    1120.3156  0.019502743   0.01776852         3813 
 4788000   0.48929309   -6.9253233    1120.7909  0.019506943  0.017762752         3831 
 4789000   0.49696068   -6.9174082    1120.7668   0.01950245  0.017756986         3832 
 4790000   0.48392816    -6.926614    1120.7778  0.019498571  0.017751221         3827 
 4791000   0.46833878   -6.9119086    1121.3242  0.019504005  0.017745458         3796 
 4792000   0.48190851   -6.9106988    1121.6041  0.019504801  0.017739698         3809 
 4793000   0.48833583   -6.9217181    1120.7179  0.019485324  0.017733935         3853 
 4794000   0.48216559   -6.9141438    1121.3112  0.019491573  0.017728178         3793 
 4795000   0.48428405   -6.9393916    1120.4591  0.019472699  0.017722419         3802 
 4796000   0.47863685   -6.9344589    1120.5518   0.01947025  0.017716661         3866 
 4797000   0.49092032   -6.9348781    1120.8921  0.019472102  0.017710907         3830 
 4798000    0.4716059   -6.9097548    1117.5279  0.019409614  0.017705156         3838 
 4799000   0.47629722   -6.9108265    1120.4118  0.019455646  0.017699401         3844 
 4800000   0.48590822   -6.9302017    1119.2412  0.019431271  0.017693646         3826 
 4801000   0.48082281   -6.9236143    1121.7516  0.019470798  0.017687898         3803 
 4802000   0.48451679   -6.9290568    1121.2569  0.019458157  0.017682151         3823 
 4803000    0.4697233   -6.9357414    1122.6817  0.019478827   0.01767641         3849 
 4804000   0.48234954   -6.9311327    1121.0152  0.019445864  0.017670671         3852 
 4805000   0.47902583   -6.9501417    1119.3612  0.019413132  0.017664931         3828 
 4806000   0.48170332   -6.9204379    1120.1683  0.019423088  0.017659189         3832 
 4807000    0.4775745   -6.9294611    1119.8994  0.019414384  0.017653457         3818 
 4808000   0.48858158   -6.9332227    1118.4613  0.019385422  0.017647725         3824 
 4809000   0.48037826   -6.9325565    1117.9652  0.019372793  0.017641997         3859 
 4810000   0.47782897   -6.9334605    1121.4822  0.019429699  0.017636265         3805 
 4811000   0.48587846   -6.9324774    1121.0102  0.019417485  0.017630538         3803 
 4812000   0.48159475   -6.9332962    1119.3235  0.019384239  0.017624819         3832 
 4813000   0.48678614   -6.9179049    1122.8184  0.019440723  0.017619099         3827 
 4814000   0.47921197   -6.9248761    1120.3705  0.019394309  0.017613384         3807 
 4815000   0.48677499   -6.9203181    1120.3143  0.019389309  0.017607667         3833 
 4816000   0.48341693    -6.921867    1119.7466   0.01937546  0.017601954         3808 
 4817000   0.47410104   -6.9407638    1120.8829  0.019391096  0.017596246         3824 
 4818000   0.48380611   -6.9195436    1121.0926  0.019390697   0.01759054         3816 
 4819000   0.47666002   -6.9341166    1122.4093  0.019409444  0.017584831         3835 
 4820000    0.4876118   -6.9329294    1119.9755  0.019363339  0.017579125         3857 
 4821000   0.47669271   -6.9179685    1119.1756  0.019345495  0.017573426         3838 
 4822000   0.47493502   -6.9079724    1120.0644  0.019356844  0.017567731         3831 
 4823000    0.4768265    -6.929177    1118.6764  0.019328848  0.017562036         3848 
 4824000   0.47951481   -6.9315332    1119.0187  0.019330754  0.017556341         3841 
 4825000   0.47954452   -6.9417835    1122.8196  0.019392394  0.017550649         3806 
 4826000   0.47740442   -6.9285238    1120.2508  0.019344018  0.017544955         3840 
 4827000   0.47750057   -6.9197959     1120.919  0.019351548  0.017539265         3857 
 4828000   0.47403817   -6.9229771    1118.1474    0.0192997  0.017533578         3837 
 4829000   0.48593406   -6.9209355    1118.8732  0.019308229  0.017527891         3823 
 4830000   0.46634255   -6.9290903    1120.6054  0.019334116  0.017522215         3815 
 4831000   0.48013984   -6.9424672    1118.8486   0.01929981  0.017516538         3818 
 4832000   0.48304185   -6.9311126    1120.4664  0.019323717  0.017510862         3828 
 4833000   0.47511303   -6.9472216     1118.569  0.019287002  0.017505182         3837 
 4834000    0.4857626    -6.944409    1121.5459  0.019334332  0.017499509         3850 
 4835000   0.47605647    -6.942704    1119.5374  0.019295715  0.017493839         3870 
 4836000   0.48080271   -6.9281012    1119.7914  0.019296101  0.017488171         3799 
 4837000   0.47755841   -6.9227134    1119.4058  0.019285469  0.017482506         3821 
 4838000   0.47694083   -6.9353243    1120.2279  0.019295643  0.017476838         3847 
 4839000   0.47751333   -6.9370263    1118.5609  0.019262948  0.017471175         3839 
 4840000   0.47659232   -6.9312706     1120.089   0.01928528   0.01746551         3804 
 4841000    0.4706665   -6.9340822    1119.9263  0.019278495  0.017459853         3821 
 4842000   0.48165805    -6.933767    1119.2891  0.019263546  0.017454192         3822 
 4843000   0.48180857   -6.9373191    1119.0496  0.019255448  0.017448537         3855 
 4844000   0.48369931   -6.9424806    1118.9102  0.019249074  0.017442881         3829 
 4845000   0.49227657   -6.9421351    1119.1795  0.019249733  0.017437235         3784 
 4846000   0.47882258   -6.9368064     1119.659  0.019254007  0.017431588         3852 
 4847000   0.47520361   -6.9386151    1120.9903  0.019272924  0.017425937         3822 
 4848000   0.48506212   -6.9364752    1118.7855  0.019231049  0.017420292         3831 
 4849000   0.47428873   -6.9356349    1118.8887  0.019228857  0.017414653         3841 
 4850000   0.47458352   -6.9268786    1120.7836  0.019257451  0.017409011         3836 
 4851000   0.48747136   -6.9356238    1118.8489  0.019220246  0.017403377         3837 
 4852000   0.47960964   -6.9446858    1119.3032  0.019224086  0.017397742         3858 
 4853000   0.47200783   -6.9325775    1118.9304  0.019213723  0.017392108         3827 
 4854000   0.48011386   -6.9420957    1119.3025  0.019216154  0.017386478         3822 
 4855000   0.47119491   -6.9252163     1118.848  0.019204395  0.017380851         3801 
 4856000   0.47160628   -6.9513804    1119.2677  0.019207642  0.017375226         3852 
 4857000    0.4717044   -6.9386306     1118.945  0.019198151  0.017369597         3861 
 4858000   0.46571716   -6.9412599    1118.4618  0.019185911  0.017363978         3832 
 4859000   0.47055295   -6.9378259    1120.0242  0.019208757  0.017358357         3842 
 4860000   0.47450135   -6.9389975    1117.0103  0.019153125   0.01735274         3855 
 4861000   0.48478196   -6.9279512    1120.0099  0.019200608  0.017347131         3809 
 4862000   0.48189553   -6.9197744    1120.0514  0.019197371  0.017341528         3775 
 4863000   0.47404698   -6.9512524    1119.1063  0.019177228   0.01733592         3828 
 4864000   0.48340694    -6.934522    1120.6138  0.019199113  0.017330312         3822 
 4865000    0.4650777   -6.9460272    1116.8158   0.01913011  0.017324705         3868 
 4866000   0.47242556   -6.9350259    1117.4964  0.019137834    0.0173191         3841 
 4867000   0.47299934   -6.9604734    1120.2637  0.019181283  0.017313497         3836 
 4868000   0.47043863     -6.96047    1120.5827  0.019182805  0.017307898         3820 
 4869000   0.47616611   -6.9518986    1118.8492  0.019149195  0.017302301         3825 
 4870000   0.47853606   -6.9319763    1117.7961  0.019127243  0.017296709         3833 
 4871000   0.47805871    -6.953268    1118.5991  0.019137054  0.017291114         3805 
 4872000   0.47923279   -6.9478797    1119.0599  0.019141009   0.01728552         3828 
 4873000    0.4768459   -6.9524618    1118.6143   0.01912946  0.017279931         3858 
 4874000   0.47010745   -6.9315588    1119.3729  0.019138506  0.017274336         3844 
 4875000   0.46899043   -6.9653652    1118.1674  0.019113973  0.017268754         3831 
 4876000    0.4778083   -6.9431365    1118.6529  0.019118349  0.017263166         3820 
 4877000   0.46754064   -6.9451049    1120.3116  0.019142773  0.017257588         3827 
 4878000    0.4733904   -6.9432974    1119.5549  0.019125921  0.017252006         3827 
 4879000   0.47017806   -6.9360354    1118.5271  0.019104445  0.017246432         3814 
 4880000   0.46802407   -6.9591177      1119.31    0.0191139  0.017240856         3829 
 4881000   0.46622966   -6.9495275    1118.2487  0.019091864  0.017235285         3853 
 4882000     0.461841   -6.9322083    1119.9403  0.019116829  0.017229711         3818 
 4883000   0.46781793   -6.9533242    1119.1239  0.019098981  0.017224143         3816 
 4884000   0.47684212   -6.9463247    1119.7374  0.019105538  0.017218581         3832 
 4885000   0.47213744   -6.9531239     1118.945  0.019088111  0.017213016         3804 
 4886000   0.47433991   -6.9588066    1117.3429  0.019056879  0.017207457         3864 
 4887000   0.47766451   -6.9534215    1119.1781  0.019084273  0.017201898         3831 
 4888000    0.4651044   -6.9419348    1117.4422  0.019050774  0.017196336         3847 
 4889000   0.46956163   -6.9435707    1118.5117  0.019065107  0.017190774         3847 
 4890000   0.46478017   -6.9343937    1115.0956  0.019002992  0.017185221         3826 
 4891000   0.46879617   -6.9516191    1117.7355  0.019044086  0.017179668         3835 
 4892000   0.47024428   -6.9546725     1118.312  0.019050013  0.017174119         3868 
 4893000   0.46948151    -6.939987    1120.3237  0.019080382  0.017168569         3831 
 4894000   0.47028956   -6.9489211    1117.8062  0.019033617  0.017163024         3827 
 4895000   0.47416129   -6.9570401    1119.1845  0.019053191  0.017157479         3829 
 4896000   0.47827861   -6.9504631    1119.1522   0.01904875  0.017151942         3814 
 4897000   0.47075421   -6.9597464    1118.9082  0.019040708  0.017146401         3859 
 4898000   0.47305545   -6.9593742    1119.0766  0.019039686  0.017140862         3816 
 4899000   0.46889584   -6.9343115    1118.3502  0.019023444  0.017135327         3806 
 4900000   0.46704547   -6.9494898    1119.1478  0.019033126  0.017129798         3854 
 4901000   0.47603775     -6.94648    1119.7546  0.019039561  0.017124268         3832 
 4902000   0.46495777   -6.9629092    1118.8827  0.019020853  0.017118741         3811 
 4903000   0.45927201   -6.9365134    1119.9596  0.019035277  0.017113215         3840 
 4904000   0.46822008    -6.956337    1119.3543  0.019021111  0.017107691         3847 
 4905000   0.47313308   -6.9501315    1117.4849  0.018985472  0.017102172         3852 
 4906000   0.46537924   -6.9490435    1119.6795   0.01901888   0.01709665         3864 
 4907000   0.47765826   -6.9513389    1118.7527  0.018999265  0.017091133         3856 
 4908000   0.47037071   -6.9493473    1117.3312  0.018971258  0.017085616         3850 
 4909000   0.45311037   -6.9535405     1116.097  0.018946442  0.017080104         3820 
 4910000   0.45641279   -6.9289245    1116.5487  0.018950249  0.017074588         3861 
 4911000   0.46619898   -6.9448869    1118.1834   0.01897413  0.017069078         3820 
 4912000   0.46865825   -6.9583243    1117.7498  0.018962911  0.017063572         3845 
 4913000   0.46278417   -6.9382978    1117.4126  0.018953332  0.017058071         3842 
 4914000   0.45843497   -6.9307409    1118.9504  0.018975553   0.01705257         3837 
 4915000   0.46752244   -6.9519776    1118.8008  0.018969155  0.017047075         3835 
 4916000   0.45738756   -6.9477839    1116.1594  0.018920521  0.017041575         3843 
 4917000   0.46305016   -6.9401799    1118.9342  0.018963701  0.017036076         3802 
 4918000   0.45840792   -6.9672186     1115.105  0.018894961  0.017030579         3840 
 4919000    0.4701301   -6.9578164    1118.1011  0.018941877  0.017025084         3836 
 4920000   0.47335971   -6.9555736    1116.4318  0.018909752  0.017019594         3843 
 4921000   0.47160873   -6.9680744    1119.0735  0.018950645  0.017014105         3819 
 4922000   0.46810637   -6.9383788    1119.8683  0.018960252  0.017008619         3810 
 4923000   0.46623651    -6.963155    1116.2021  0.018894341  0.017003134         3841 
 4924000   0.46284673    -6.955172    1118.3248  0.018926429   0.01699765         3846 
 4925000   0.45838273   -6.9714022     1118.595  0.018927157  0.016992172         3823 
 4926000   0.46701978   -6.9561426    1117.0799  0.018897685  0.016986692         3846 
 4927000   0.46557033   -6.9697658    1117.5571  0.018901919  0.016981215         3847 
 4928000   0.46742865   -6.9591097    1118.6606  0.018916744  0.016975746         3845 
 4929000   0.46034145    -6.955331     1117.565  0.018894384  0.016970272         3861 
 4930000   0.47388187   -6.9541403    1118.5204  0.018906701  0.016964805         3840 
 4931000    0.4705133   -6.9602556      1117.96  0.018893396  0.016959339         3810 
 4932000   0.45723577   -6.9556147    1119.6429  0.018918001  0.016953877         3796 
 4933000   0.46387903   -6.9583315     1117.252  0.018873775  0.016948417         3850 
 4934000   0.46171847   -6.9615655    1118.4093  0.018889497  0.016942959         3819 
 4935000   0.46203987   -6.9536461    1115.5514   0.01883741  0.016937494         3865 
 4936000   0.46051052   -6.9578016      1118.46  0.018882698  0.016932039         3831 
 4937000   0.46187129   -6.9640736    1118.9701  0.018887484  0.016926581         3819 
 4938000   0.45870113   -6.9564964    1116.6885  0.018845155  0.016921124         3869 
 4939000   0.46551146   -6.9583427    1118.7954  0.018876888  0.016915676         3846 
 4940000   0.46174841   -6.9639723    1115.7754  0.018822122  0.016910222         3847 
 4941000   0.46058736   -6.9619044    1118.4029  0.018862628  0.016904775         3839 
 4942000   0.46224642   -6.9553011    1116.9602  0.018834483  0.016899324         3860 
 4943000   0.45390844   -6.9644088    1116.2733  0.018819093   0.01689388         3830 
 4944000   0.47550136   -6.9623905    1118.6858   0.01885595  0.016888441         3840 
 4945000   0.45095137   -6.9720373    1118.3449  0.018846393  0.016882999         3851 
 4946000   0.47437496   -6.9632243    1116.1017  0.018804787  0.016877561         3876 
 4947000   0.46734104   -6.9708965    1118.4304  0.018840212  0.016872128         3812 
 4948000   0.45907003   -6.9555188     1117.681  0.018823783  0.016866697         3817 
 4949000    0.4487349   -6.9492088    1116.9502  0.018807674  0.016861264         3839 
 4950000   0.46478206   -6.9676936    1116.6439  0.018798719  0.016855838         3852 
 4951000   0.46780915   -6.9797941    1116.7499  0.018796705  0.016850416         3832 
 4952000   0.45926332   -6.9513896    1116.5403  0.018789383  0.016844989         3866 
 4953000   0.46033942     -6.96726    1117.6454  0.018804182  0.016839572         3827 
 4954000   0.45600358   -6.9572447    1116.1443  0.018775136   0.01683415         3852 
 4955000   0.46561891   -6.9457807     1119.206  0.018822839  0.016828733         3821 
 4956000   0.45983476   -6.9698411    1115.8222  0.018762143  0.016823321         3832 
 4957000    0.4645722   -6.9660812    1118.6622  0.018806102  0.016817908         3839 
 4958000   0.45333429   -6.9639771    1118.5613  0.018800613  0.016812495         3813 
 4959000   0.46616803   -6.9563677    1116.2253  0.018757567  0.016807083         3831 
 4960000   0.46759172   -6.9597682    1118.7249  0.018795782  0.016801677         3853 
 4961000    0.4597393   -6.9734969    1116.8567   0.01876061  0.016796273         3825 
 4962000   0.46008602   -6.9749493    1116.6042   0.01875259  0.016790872         3882 
 4963000   0.45886818   -6.9777596    1116.9519   0.01875465  0.016785467         3846 
 4964000   0.45483797   -6.9472129     1117.249  0.018755859  0.016780069         3829 
 4965000   0.45850774    -6.962282    1115.4975  0.018722684  0.016774671         3841 
 4966000   0.46678611   -6.9636557    1118.8289  0.018774817  0.016769273         3854 
 4967000   0.45409974   -6.9847832    1117.8748  0.018755029   0.01676388         3844 
 4968000   0.45060439   -6.9584082    1117.7536  0.018749222  0.016758491         3883 
 4969000   0.44028626   -6.9746445    1117.1283  0.018734962  0.016753099         3839 
 4970000   0.45448786   -6.9682366    1117.4623  0.018736792  0.016747709         3832 
 4971000   0.45341065   -6.9744139    1116.8536  0.018722819   0.01674233         3858 
 4972000   0.45044451   -6.9555062    1117.1319  0.018723717  0.016736949         3863 
 4973000    0.4453293   -6.9638278    1115.8622  0.018698676   0.01673157         3829 
 4974000   0.45701902   -6.9703355    1117.1545  0.018716568  0.016726195         3833 
 4975000    0.4550968   -6.9723156    1116.5938  0.018703413  0.016720823         3845 
 4976000   0.46258116   -6.9622494    1117.4465  0.018713936  0.016715451         3836 
 4977000   0.45340952   -6.9622791    1117.4439  0.018710131  0.016710083         3874 
 4978000   0.45281866   -6.9593457    1118.0119  0.018715882  0.016704716         3869 
 4979000   0.45247314   -6.9751698    1118.2961  0.018716879  0.016699348         3836 
 4980000    0.4492505   -6.9691669    1117.6765  0.018702753  0.016693982         3832 
 4981000    0.4513504   -6.9655937    1116.7747  0.018683911  0.016688618         3845 
 4982000   0.46294425   -6.9606064    1115.8449  0.018664607  0.016683262         3858 
 4983000   0.45051522   -6.9580655    1117.6065  0.018690323  0.016677903         3853 
 4984000   0.46123126   -6.9724553    1116.2833  0.018664448  0.016672549         3851 
 4985000   0.46234626    -6.990489    1115.9442  0.018655034  0.016667191         3846 
 4986000    0.4603668   -6.9559009    1115.5194  0.018644193  0.016661838         3827 
 4987000   0.44722436   -6.9681812    1118.4919  0.018690126  0.016656487         3861 
 4988000   0.45065837   -6.9757866    1117.5703  0.018670983  0.016651143         3831 
 4989000   0.46092335    -6.974584    1115.9684  0.018640482  0.016645798         3832 
 4990000   0.44747309   -6.9621006    1116.3743  0.018643525  0.016640455         3878 
 4991000   0.45130503   -6.9738461    1117.3748  0.018656495  0.016635116         3841 
 4992000   0.45843011   -6.9744204    1117.3917   0.01865304  0.016629779         3851 
 4993000   0.46263556   -6.9702294    1116.2056  0.018629509  0.016624443         3845 
 4994000    0.4629535   -6.9747435    1117.5608  0.018648391  0.016619106         3859 
 4995000   0.46257611   -6.9687136    1117.3289  0.018640788  0.016613776         3866 
 4996000   0.44496917   -6.9822011    1117.1337  0.018633802  0.016608447         3849 
 4997000   0.45157096   -6.9748194     1115.671  0.018605681  0.016603122         3860 
 4998000   0.45899302   -6.9724349    1117.2211  0.018627802  0.016597797         3891 
 4999000   0.45517539   -6.9800608    1117.0228  0.018620772   0.01659247         3839 
 5000000   0.44226073    -6.977651    1117.3491  0.018622485  0.016587149         3854 
 5001000   0.43824769   -6.9543207    1116.3717  0.018602475  0.016581833         3831 
 5002000   0.45219309   -6.9773448    1117.1772  0.018612176  0.016576514         3883 
 5003000   0.44871008    -6.965956    1116.2151  0.018592429  0.016571199         3835 
 5004000   0.45297975   -6.9777312    1115.9963   0.01858507  0.016565886         3856 
 5005000   0.44709834   -6.9807047    1116.4724  0.018589283  0.016560571         3871 
 5006000   0.45921454    -6.984331    1117.5653  0.018603764  0.016555261         3853 
 5007000   0.44671509   -6.9784485    1115.0396  0.018558012  0.016549954         3836 
 5008000   0.45630456   -6.9689023    1117.3697  0.018593079  0.016544646         3859 
 5009000   0.45006807   -6.9865113    1115.6713  0.018561112  0.016539342         3856 
 5010000   0.44657091   -6.9705834     1116.549  0.018572006   0.01653404         3848 
 5011000   0.44642801   -6.9888045    1116.3867  0.018565601  0.016528738         3850 
 5012000   0.45237927   -6.9747218    1117.1921  0.018575288  0.016523441         3842 
Loop time of 12933.7 on 48 procs for 5000000 steps with 4000 atoms

Performance: 66801.975 tau/day, 386.586 timesteps/s
99.4% CPU use with 48 MPI tasks x no OpenMP threads

MPI task timing breakdown:
Section |  min time  |  avg time  |  max time  |%varavg| %total
---------------------------------------------------------------
Pair    | 951.57     | 1021.4     | 1092.6     | 109.5 |  7.90
Neigh   | 89.01      | 92.602     | 96.5       |  20.8 |  0.72
Comm    | 827.97     | 899.49     | 974.89     | 117.7 |  6.95
Output  | 15.607     | 15.612     | 15.731     |   0.4 |  0.12
Modify  | 10767      | 10787      | 10807      |   8.9 | 83.40
Other   |            | 118        |            |       |  0.91

Nlocal:        83.3333 ave          88 max          78 min
Histogram: 1 0 4 7 4 9 7 8 5 3
Nghost:        2425.69 ave        2441 max        2409 min
Histogram: 2 1 3 6 9 13 5 5 0 4
Neighs:        16728.7 ave       18989 max       14742 min
Histogram: 6 3 8 1 8 3 7 4 5 3
FullNghs:      33455.1 ave       35457 max       31336 min
Histogram: 1 2 11 2 3 9 8 8 2 2

Total # of neighbors = 1605845
Ave neighs/atom = 401.46125
Neighbor list builds = 268027
Dangerous builds = 0

#clear
#
#next RN
#
#jump SELF
Total wall time: 3:35:37
