
units lj                  # Use reduced LJ style units
atom_style atomic         # Uncharged point particles
atom_modify map hash      # Needed for indexing of clusters etc
                          # Used to be able to find where atoms are in relation to each other.

lattice fcc 1.0 spacing 1 1 1
Lattice spacing in x,y,z = 1.5874011 1.5874011 1.5874011
region box block 0 10 0 10 0 10 units lattice
create_box 2 box
Created orthogonal box = (0.0000000 0.0000000 0.0000000) to (15.874011 15.874011 15.874011)
  3 by 4 by 4 MPI processor grid
create_atoms 1 box
Created 4000 atoms
  using lattice units in orthogonal box = (0.0000000 0.0000000 0.0000000) to (15.874011 15.874011 15.874011)
  create_atoms CPU = 0.002 seconds
set type 1 type/fraction 2 0.44 78393
Setting atom values ...
  1760 settings made for type/fraction
mass 1 1.0
mass 2 1.0
pair_style lj/cut  3.5
pair_modify tail  yes
pair_coeff 1  1  1.0  1.0   # Intearaction between 1 and 1 set with epsilon = 1 and sigma = 1
pair_coeff 1  2  1.5  0.8
pair_coeff 2  2  0.5  0.88

write_data data.0
System init for write_data ...
Neighbor list info ...
  update every 1 steps, delay 10 steps, check yes
  max neighbors/atom: 2000, page size: 100000
  master list distance cutoff = 3.8
  ghost atom cutoff = 3.8
  binsize = 1.9, bins = 9 9 9
  1 neighbor lists, perpetual/occasional/extra = 1 0 0
  (1) pair lj/cut, perpetual
      attributes: half, newton on
      pair build: half/bin/atomonly/newton
      stencil: half/bin/3d
      bin: standard
WARNING: Not all mixed pair coeffs generated from mixing. Use write_data with 'pair ij' option to store all pair coeffs. (../write_data.cpp:312)


#############################
#   M E L T   S Y S T E M   #
#############################

velocity all create 2.4 5300450 mom yes dist gaussian # Assign velocities
                                                    # Temperature 2.4, random number seed, zero linear momentum
                                                                                # Gaussian distribution

timestep 0.002   # simulation timestep
thermo 1000       # output thermodynamic data every 1000 steps bf 100

# Define a fix  in this case with index 1 applied to all
# particles in the simulation. This fix is for simulations
# in the anisotropic NPT ensemble. Note that we use the MTK
# correction.
fix 1 all npt temp 2.4 2.4 0.1 iso 5.68 5.68 0.5 mtk yes tchain 5 pchain 5 # Use NPT ensemble
                                                                         # Set temperature and pressure and damping
                                                                         # Numbers of thermostats in chain and in barostat
run 10000          # run for 10000 steps
Per MPI rank memory allocation (min/avg/max) = 3.642 | 3.644 | 3.648 Mbytes
Step Temp E_pair E_mol TotEng Press Volume 
       0          2.4   -5.6445478            0   -2.0454478   -4.2010474         4000 
    1000    2.3959777   -4.9817511            0    -1.388683    5.8277112     3807.184 
    2000    2.4314286   -5.0378957            0   -1.3916646    5.4202853    3819.5704 
    3000      2.41886   -5.0514607            0   -1.4240778    5.0681694    3841.4072 
    4000    2.3913832    -5.006332            0   -1.4201539    5.6012152    3821.8996 
    5000    2.4139918   -4.9873673            0   -1.3672849    5.7602208    3814.7146 
    6000     2.388289    -4.985301            0   -1.4037631    5.5423766    3826.4513 
    7000    2.4077354   -5.0190014            0   -1.4083012    5.7048096     3800.942 
    8000    2.3570516   -4.9700808            0   -1.4353874     5.824025    3813.3754 
    9000    2.3594829   -4.9670491            0   -1.4287095    5.6700736    3825.7734 
   10000    2.4064079   -5.0306736            0   -1.4219642    5.7512666    3787.1056 
Loop time of 2.55006 on 48 procs for 10000 steps with 4000 atoms

Performance: 677630.234 tau/day, 3921.471 timesteps/s
99.7% CPU use with 48 MPI tasks x no OpenMP threads

MPI task timing breakdown:
Section |  min time  |  avg time  |  max time  |%varavg| %total
---------------------------------------------------------------
Pair    | 1.1378     | 1.2057     | 1.2892     |   3.0 | 47.28
Neigh   | 0.20955    | 0.21786    | 0.22458    |   0.8 |  8.54
Comm    | 0.75848    | 0.8658     | 0.96874    |   4.2 | 33.95
Output  | 0.00024502 | 0.00024927 | 0.00031794 |   0.0 |  0.01
Modify  | 0.19782    | 0.24367    | 0.27903    |   5.0 |  9.56
Other   |            | 0.01675    |            |       |  0.66

Nlocal:        83.3333 ave          91 max          72 min
Histogram: 1 1 2 3 8 8 11 7 4 3
Nghost:        1699.83 ave        1734 max        1673 min
Histogram: 4 3 4 10 7 11 5 3 0 1
Neighs:        10069.8 ave       11385 max        8259 min
Histogram: 1 0 3 5 7 8 11 6 6 1

Total # of neighbors = 483352
Ave neighs/atom = 120.83800
Neighbor list builds = 905
Dangerous builds = 194

# Equilibrate just above the melting temperature to avoid step fn in T

fix 1 all npt temp 1.25 1.25 0.1 iso 5.68 5.68 0.5 mtk yes tchain 5 pchain 5
run 2000
Per MPI rank memory allocation (min/avg/max) = 3.643 | 3.645 | 3.649 Mbytes
Step Temp E_pair E_mol TotEng Press Volume 
   10000    2.4064079   -5.0306736            0   -1.4219642    5.7512666    3787.1056 
   11000    1.2631226   -7.0454488            0   -5.1512386    5.8064073    2996.7405 
   12000    1.2555736   -7.1250355            0   -5.2421461    5.1927866    3002.0955 
Loop time of 0.643926 on 48 procs for 2000 steps with 4000 atoms

Performance: 536707.345 tau/day, 3105.945 timesteps/s
99.7% CPU use with 48 MPI tasks x no OpenMP threads

MPI task timing breakdown:
Section |  min time  |  avg time  |  max time  |%varavg| %total
---------------------------------------------------------------
Pair    | 0.27138    | 0.30195    | 0.37609    |   3.8 | 46.89
Neigh   | 0.03871    | 0.041669   | 0.050044   |   1.1 |  6.47
Comm    | 0.17336    | 0.2519     | 0.28435    |   4.4 | 39.12
Output  | 5.008e-05  | 5.1314e-05 | 6.6655e-05 |   0.0 |  0.01
Modify  | 0.038991   | 0.043578   | 0.046865   |   1.0 |  6.77
Other   |            | 0.004784   |            |       |  0.74

Nlocal:        83.3333 ave          92 max          77 min
Histogram: 5 3 4 5 13 6 8 2 1 1
Nghost:        1988.40 ave        2013 max        1969 min
Histogram: 4 7 8 3 6 5 7 3 2 3
Neighs:        12708.6 ave       14240 max       11232 min
Histogram: 4 1 6 7 8 3 7 7 3 2

Total # of neighbors = 610015
Ave neighs/atom = 152.50375
Neighbor list builds = 141
Dangerous builds = 6

#############################
# L I N E A R  Q U E N C H  #
#############################

# Define solid atoms. This closely follows ten Wolde  Ruiz-Montero and Frenkel  Faraday Discuss  1996  104  93-110
# Compute components of the per-atom q6 vector
compute q6 all orientorder/atom degrees 1 6 components 6 nnn NULL cutoff 1.3 # compute the Q6 parameter.
                                                                             # Use all neighbours within 1.3 unit cell.

# get number of connections
compute coord_number all coord/atom orientorder q6 0.5

# An atom is solid if it has 8 or more connections (of a possible 14)
variable is_solid atom c_coord_number>=8
group solid dynamic all var is_solid    # Must be dynamic to update
dynamic group solid defined

# do clustering
compute cluster solid cluster/atom 1.3 # Create a cluster where all atoms within are solid and max 1.3 units from another member

# define chunks one chunk per cluster
compute clus_chunks solid chunk/atom c_cluster nchunk every compress yes  # Says which atoms are in which chunk

# count the size of each chunk
compute size_chunks solid property/chunk clus_chunks count


# Find the maximum entry in the vector of chunk sizes
variable max_n equal max(c_size_chunks)


# Thermo style which includes this variable
# thermo_style custom step temp pe vol v_max_n

thermo ${N}  # Print the thermo information every 100 steps
thermo 1000  

# Reset the npt fix at a lower temperature (below freezing)
fix 1  all npt temp  ${temp} ${temp}  0.1  iso  5.68  5.68  0.5  mtk yes tchain  5  pchain  5
fix 1  all npt temp  0.45 ${temp}  0.1  iso  5.68  5.68  0.5  mtk yes tchain  5  pchain  5
fix 1  all npt temp  0.45 0.45  0.1  iso  5.68  5.68  0.5  mtk yes tchain  5  pchain  5

dump dmp2 all dcd ${N} traj.dcd
dump dmp2 all dcd 1000 traj.dcd


compute msd all msd com yes
variable twopoint equal c_msd[4]/6/(step*dt+1.0e-6)
fix 9 all vector 10 c_msd[4]
variable fit equal slope(f_9)/6/(10*dt)
thermo_style custom step temp pe c_msd[4] v_twopoint v_fit v_max_n

fix 1 all npt temp 1.25 ${temp} 0.1 iso 5.68 5.68 0.5 mtk yes tchain 5 pchain 5
fix 1 all npt temp 1.25 0.45 0.1 iso 5.68 5.68 0.5 mtk yes tchain 5 pchain 5
run 500000 # 5000000  # Run for this many steps
Neighbor list info ...
  update every 1 steps, delay 10 steps, check yes
  max neighbors/atom: 2000, page size: 100000
  master list distance cutoff = 3.8
  ghost atom cutoff = 3.8
  binsize = 1.9, bins = 8 8 8
  4 neighbor lists, perpetual/occasional/extra = 1 3 0
  (1) pair lj/cut, perpetual
      attributes: half, newton on
      pair build: half/bin/atomonly/newton
      stencil: half/bin/3d
      bin: standard
  (2) compute orientorder/atom, occasional
      attributes: full, newton on
      pair build: full/bin/atomonly
      stencil: full/bin/3d
      bin: standard
  (3) compute coord/atom, occasional
      attributes: full, newton on
      pair build: full/bin/atomonly
      stencil: full/bin/3d
      bin: standard
  (4) compute cluster/atom, occasional
      attributes: full, newton on
      pair build: full/bin/atomonly
      stencil: full/bin/3d
      bin: standard
Per MPI rank memory allocation (min/avg/max) = 9.828 | 9.834 | 9.838 Mbytes
Step Temp PotEng c_msd[4] v_twopoint v_fit v_max_n 
   12000    1.2555736   -7.1250355 1.0590458e-30 7.3544842e-33 8.3333333e+20            4 
   13000    1.2400876   -7.1512039   0.45079914  0.002889738  0.036939272            1 
   14000    1.2278965    -7.129896   0.88183125 0.0052489953  0.035005069            1 
   15000    1.2168589   -7.1679174    1.2816602 0.0071203341   0.03523559            1 
   16000    1.2511022   -7.1332056      1.67733 0.0087360933  0.034249922            1 
   17000    1.2528363   -7.2008017    2.0717905  0.010155835  0.034096364            1 
   18000     1.242643   -7.2240169    2.4923717  0.011538758  0.034181555            2 
   19000    1.2263861   -7.1132284    2.9023737  0.012729709  0.034039922            1 
   20000    1.2220006   -7.1639356    3.3504204  0.013960085  0.034153758            2 
   21000    1.2337706   -7.1641048    3.7795887  0.014998367  0.034466398            1 
   22000    1.2574082   -7.1710466    4.1824484  0.015842607   0.03449064            1 
   23000     1.237247   -7.1904262    4.6271915  0.016765186  0.034548187            2 
   24000    1.2399022   -7.1922137    4.9896146   0.01732505  0.034621534            2 
   25000    1.2565141    -7.150606    5.3972726  0.017990908  0.034525224            1 
   26000    1.2508331   -7.1776068    5.7422235  0.018404562  0.034401049            2 
   27000    1.2298548   -7.1918477    6.1194269   0.01888712  0.034121509            1 
   28000     1.209408   -7.1707655    6.5143953  0.019388081  0.033941204            1 
   29000    1.2399657   -7.1999475    6.7875076  0.019504332  0.033741184            3 
   30000    1.2047372   -7.2413059    7.1079221  0.019744228  0.033440802            2 
   31000     1.211457   -7.1910492    7.5075203  0.020181506  0.033144106            1 
   32000    1.2181655   -7.2354948    7.8926297  0.020553723  0.032931233            1 
   33000    1.2155776   -7.2330412    8.3454201  0.021074293  0.032817209            1 
   34000     1.258769   -7.2115066    8.7252274  0.021385361  0.032731865            2 
   35000     1.185305   -7.2700289    9.0761817  0.021609956  0.032649867            2 
   36000    1.2051044   -7.2082455    9.3894906  0.021734932  0.032529315            1 
   37000    1.1948856   -7.2198672     9.700507  0.021847989  0.032383021            1 
   38000    1.2139662   -7.1940007    9.9825315  0.021891516  0.032200778            1 
   39000    1.2324231   -7.2504147    10.292991  0.021993571  0.031995365            1 
   40000    1.2046147     -7.23481    10.724302  0.022342296  0.031810224            1 
   41000     1.213536   -7.2736899    11.083539  0.022527519  0.031690424            1 
   42000    1.2201673   -7.2753909    11.446241  0.022710795  0.031576742            2 
   43000    1.1956626   -7.2448832    11.705088   0.02268428  0.031431252            4 
   44000    1.1983213   -7.2212478    12.135997  0.022984843   0.03131159            4 
   45000    1.1966588   -7.2340786     12.49342  0.023135963  0.031208318            2 
   46000    1.1772061   -7.2479314    12.665709  0.022945125  0.031076826            2 
   47000    1.2209916   -7.2324289    13.082789  0.023196434  0.030936763            2 
   48000    1.1783073   -7.2411924    13.417688  0.023294598  0.030827644            3 
   49000    1.1829023   -7.2605012    13.803458  0.023475268  0.030748254            2 
   50000    1.1915264   -7.2844468    14.118823  0.023531372  0.030665269            1 
   51000    1.1852558   -7.2799806    14.452697  0.023615517   0.03057989            2 
   52000    1.1855114   -7.2975901    14.718477  0.023587302  0.030487352            3 
   53000     1.205288     -7.29644    15.095849  0.023735611  0.030396605            2 
   54000    1.2058512   -7.2966684    15.523314  0.023955731  0.030326653            1 
   55000    1.1828546   -7.3301838    15.706656  0.023797964   0.03023683            3 
   56000    1.1646017   -7.2902769    16.191814  0.024094961  0.030162373            1 
   57000    1.1828525   -7.2700836    16.407441  0.023987486  0.030094095            4 
   58000    1.1868284   -7.3260339    16.830677  0.024182007  0.030025531            1 
   59000    1.1632598   -7.2977583    17.037687   0.02406453  0.029955557            2 
   60000    1.1554585   -7.2864511    17.306035   0.02403616  0.029868692            2 
   61000    1.1388612   -7.3619277    17.614907   0.02406408  0.029771976            1 
   62000    1.1668394   -7.3389671    17.981598  0.024168815  0.029681344            2 
   63000    1.1406583   -7.3491156    18.334918  0.024252537  0.029602034            1 
   64000    1.1291999   -7.3334048    18.661558  0.024298904   0.02952676            3 
   65000    1.1263088   -7.3443981    18.766444  0.024059543  0.029443131            2 
   66000    1.1740523   -7.3369751    19.040701  0.024041289  0.029343268            3 
   67000    1.1855403   -7.2889862    19.371457  0.024093852  0.029241667            1 
   68000    1.1669946   -7.3696884    19.584868  0.024001064  0.029141367            3 
   69000    1.1514167   -7.3811791    19.850729   0.02397431   0.02903063            2 
   70000    1.1480681   -7.4207983     20.07511  0.023898941  0.028917438            3 
   71000    1.1552924   -7.3651378    20.403701  0.023948005   0.02880407            3 
   72000     1.133177   -7.4160665    20.607812  0.023851634  0.028691152            3 
   73000    1.1200433    -7.374542    20.796777  0.023740613  0.028571306            1 
   74000    1.1301326   -7.3992686    21.074481  0.023732523   0.02844979            3 
   75000    1.1375418   -7.3602903    21.417666  0.023797406  0.028335787            4 
   76000    1.1572623   -7.3251918    21.792402  0.023895178  0.028234243            3 
   77000    1.1454879   -7.3967216    22.024856  0.023836424  0.028131089            2 
   78000    1.1417045     -7.37588     22.25673  0.023778558  0.028030081            2 
   79000    1.1206465   -7.3725338    22.568242  0.023806162  0.027927717            2 
   80000    1.1304865   -7.4023769    22.872061  0.023825063  0.027829861            2 
   81000    1.1196948   -7.4251217     23.20846  0.023877016  0.027740739            1 
   82000    1.1487204   -7.4215008    23.559305  0.023942383  0.027662181            1 
   83000    1.1262428   -7.4222017    23.932199  0.024028313  0.027594967            1 
   84000    1.1481164   -7.4646677    24.055873  0.023864953   0.02752712            1 
   85000    1.1428588   -7.4718369    24.322418  0.023845508  0.027453552            2 
   86000    1.1551091   -7.4034548    24.624341  0.023860795  0.027379062            2 
   87000    1.1224041   -7.4202642    24.904651   0.02385503  0.027307523            3 
   88000    1.1218681   -7.4556289    25.297856  0.023956303  0.027241098            1 
   89000     1.139797   -7.4828212    25.517987  0.023893246  0.027177903            1 
   90000    1.1307276   -7.4243292     25.80622  0.023894648  0.027108237            2 
   91000    1.1368575   -7.4463896    25.965034  0.023777503  0.027038675            1 
   92000    1.1262469   -7.4534252     26.43913  0.023948487  0.026974664            1 
   93000    1.1172603   -7.4338926    26.595364  0.023830971  0.026912491            5 
   94000    1.1015361   -7.4558494    26.882322  0.023831845  0.026844009            2 
   95000      1.10795   -7.4769641     27.16182  0.023826158   0.02678178            1 
   96000    1.0936424   -7.4614937    27.419199  0.023801388   0.02671979            3 
   97000     1.116334   -7.4740819    27.688268  0.023787172  0.026658683            1 
   98000    1.0916523   -7.4942146    27.847259  0.023679642  0.026593733            3 
   99000    1.1101058   -7.4416745    28.295713   0.02381794  0.026531326            6 
  100000    1.0828477   -7.4854686    28.552207  0.023793506    0.0264759            2 
  101000    1.1042427   -7.5093016    28.855344   0.02380804  0.026424473            3 
  102000    1.1001179   -7.4928799     29.10533  0.023778864  0.026372007            3 
  103000    1.0950204   -7.5353737    29.357528  0.023752045  0.026319383            2 
  104000     1.076639   -7.5553393    29.750099   0.02383822  0.026272664            2 
  105000    1.0908687   -7.5057338    30.074298  0.023868491  0.026228924            1 
  106000    1.1096587   -7.4845894    30.301193  0.023821693   0.02618425            4 
  107000    1.0961027   -7.5517529    30.531774   0.02377864  0.026136804            1 
  108000    1.1215624   -7.5520852    30.736558   0.02371648  0.026091648            7 
  109000    1.0826441   -7.4860657    31.467529  0.024057744  0.026055736            2 
  110000    1.0926878   -7.4972492    31.396762  0.023785426  0.026018843            2 
  111000    1.0941156   -7.4890968    31.591647  0.023717452  0.025976439            2 
  112000    1.0898101   -7.5212288    31.882033  0.023721751  0.025933725            3 
  113000    1.0877757   -7.5628731    32.132475  0.023696516   0.02589006            2 
  114000     1.070529   -7.5091882    32.378229  0.023668296  0.025846574            3 
  115000    1.0852133   -7.5003414    32.506357  0.023555331  0.025802643            3 
  116000    1.0933714   -7.5416758    32.807693  0.023568745  0.025753208            4 
  117000    1.0967413   -7.5612048    33.056448  0.023544478  0.025704789            4 
  118000     1.075647   -7.5684839     33.28392  0.023505593  0.025655067            1 
  119000    1.0847709   -7.5533627    33.423604  0.023405885  0.025603033            2 
  120000    1.0788769   -7.5761067    33.704685  0.023406031  0.025550199            2 
  121000    1.0827555   -7.5465149    33.897662  0.023345497  0.025498092            4 
  122000    1.0596571   -7.5831914    34.170477   0.02334049  0.025443993            2 
  123000    1.0595862   -7.5440242    34.469766    0.0233535  0.025393281            1 
  124000    1.0826075   -7.5871474    34.663966  0.023295676  0.025345847            1 
  125000    1.0671998   -7.6143252    34.749915   0.02316661  0.025295302            2 
  126000    1.0715177    -7.595148    35.095824  0.023211524  0.025238448            1 
  127000    1.0438512   -7.6598996    35.145603  0.023061419  0.025181751            2 
  128000    1.0655554   -7.6358267    35.358433  0.023019813  0.025121738            3 
  129000    1.0761465   -7.6128654    35.737336  0.023086134  0.025066288            2 
  130000    1.0589619   -7.5993243     35.95302  0.023046807   0.02501133            2 
  131000    1.0447456   -7.5893589    36.132121   0.02298481  0.024955233            2 
  132000    1.0543376   -7.5855199    36.301601  0.022917678  0.024896394            1 
  133000    1.0788077   -7.6238957    36.391508  0.022801697  0.024836216            1 
  134000     1.065535   -7.6017789    36.720293  0.022836003  0.024776596            2 
  135000    1.0435941   -7.6105053     36.80439  0.022718759  0.024715951            2 
  136000     1.071352   -7.6393406    37.040628  0.022696463  0.024656464            4 
  137000    1.0595741   -7.6102858      37.3653  0.022728284  0.024596235            2 
  138000    1.0525637   -7.6699288    37.567711  0.022685816  0.024537022            3 
  139000    1.0346088   -7.6411764    37.772577   0.02264543  0.024480794            2 
  140000    1.0127616   -7.6547356    38.017812   0.02262965  0.024424338            4 
  141000    1.0532995   -7.6282242    38.293313  0.022631981  0.024370632            3 
  142000    1.0423287   -7.6275695    38.475867  0.022579734   0.02431783            2 
  143000    1.0442512   -7.6285867    38.765994  0.022590905  0.024265567            5 
  144000    1.0289406   -7.6412951    38.995823  0.022567027  0.024215239            2 
  145000    1.0453894   -7.6320949    39.092002  0.022466668  0.024160737            3 
  146000    1.0429096   -7.6829819    39.279229  0.022419651  0.024106729            2 
  147000    1.0602302   -7.6629284    39.295006  0.022276081  0.024050654            2 
  148000    1.0346023    -7.703984    39.481515  0.022230583  0.023992743            6 
  149000    1.0287506   -7.6658964    39.589935  0.022142022  0.023931268            1 
  150000    1.0324991   -7.6795276    39.787752  0.022104306  0.023870114            4 
  151000    1.0623766   -7.6958873    39.922951  0.022032533  0.023806751            3 
  152000    1.0197234   -7.7151637    40.186519  0.022032083  0.023746438            4 
  153000    1.0251782   -7.7103764    40.544618  0.022083125  0.023688003            2 
  154000   0.98985774   -7.7617425     40.58825  0.021963339   0.02363075            3 
  155000    1.0330199   -7.7547581     40.69945  0.021881425  0.023571745            3 
  156000    1.0298245   -7.6958791     41.13219  0.021972324  0.023514346            3 
  157000    1.0071864   -7.7138349    40.965479  0.021743885  0.023454399            2 
  158000    1.0272788   -7.7822894    41.226731  0.021744056  0.023391936            2 
  159000    1.0250565   -7.7622717    41.579997  0.021792451  0.023331365            2 
  160000    1.0520567   -7.7318202    41.753208  0.021746462  0.023272276            3 
  161000    1.0292315   -7.7959853    41.769802   0.02161998  0.023213217            2 
  162000    1.0213687   -7.7405303    42.127468  0.021670508  0.023155871            1 
  163000    1.0005741   -7.7475199    42.120645  0.021534072  0.023096613            1 
  164000   0.98382108   -7.7963299    42.414022   0.02155184  0.023038719            4 
  165000   0.98848135   -7.7553308    42.861899  0.021647423  0.022982238            2 
  166000    1.0130404   -7.7083819    43.088362  0.021630704  0.022929882            6 
  167000    1.0198137   -7.7557701    43.266214  0.021589927  0.022878657            2 
  168000    1.0103485   -7.7459978    43.481456  0.021568183  0.022827522            1 
  169000    1.0105394   -7.7396304    43.695262  0.021545987  0.022776147            1 
  170000   0.99164638   -7.7866303    43.739092  0.021440731  0.022725177            3 
  171000   0.98368774   -7.7505175    44.003236  0.021444072  0.022673283            2 
  172000    1.0008592   -7.7782135    44.260547  0.021444063  0.022623803            3 
  173000   0.97128305   -7.7856003     44.39946  0.021387023  0.022575267            3 
  174000   0.99952199   -7.7951574     44.66777   0.02139261  0.022525783            2 
  175000   0.97779188   -7.8145408    44.682094  0.021277188  0.022476149            2 
  176000    1.0087908     -7.78055     44.88033  0.021250156  0.022424928            3 
  177000   0.99055167   -7.7996467    45.009732  0.021191023  0.022374172            2 
  178000   0.98104252   -7.8142417    45.194102  0.021158287  0.022323128            2 
  179000   0.98780327   -7.7652989    45.453256  0.021160734  0.022273499            3 
  180000   0.99046679   -7.8199034    45.365409  0.021002504  0.022222444            2 
  181000    0.9735165   -7.8061309    45.613013  0.021000466  0.022169232            3 
  182000   0.97991436   -7.8326302    45.578757  0.020869394  0.022113987            1 
  183000   0.97237669   -7.8137754    45.778406  0.020846268     0.022059            4 
  184000   0.96931183    -7.813375    45.895423  0.020785971  0.022004018            1 
  185000   0.98872418    -7.844514    45.803698  0.020632296  0.021946313            6 
  186000   0.97780372   -7.8914551    45.877467  0.020554421   0.02188663            2 
  187000   0.97267176   -7.8559944    46.109472  0.020547893  0.021828136            5 
  188000   0.96855982   -7.8459081    46.174833  0.020467568  0.021769297            2 
  189000   0.96812131   -7.8338873    46.246547  0.020390894  0.021709762            4 
  190000    0.9725454   -7.8664822    46.373086  0.020339073  0.021649186            5 
  191000   0.98280397   -7.8523892    46.495782  0.020286118  0.021587501            3 
  192000   0.95557564   -7.8342725    46.560422  0.020208517  0.021525851            2 
  193000   0.95774786   -7.8715763    46.720735  0.020173029  0.021464276            3 
  194000   0.97666442    -7.869617    46.978447  0.020179745  0.021404187            2 
  195000   0.97919949   -7.8858825    47.057268  0.020109943  0.021344198            4 
  196000   0.96123927   -7.8750552    47.129567  0.020038081  0.021283683            3 
  197000   0.93914642   -7.9272956    47.243675  0.019984634   0.02122249            1 
  198000   0.94930934   -7.9110618    47.292804  0.019904379  0.021161128            3 
  199000   0.96801169   -7.8769518    47.691234  0.019971203  0.021100927            3 
  200000    0.9471187   -7.9116926    47.722605  0.019884419  0.021041271            7 
  201000   0.94396922    -7.917555    47.869518    0.0198464  0.020981815            2 
  202000   0.97103423   -7.9180805    47.969007  0.019789194  0.020921403            1 
  203000   0.93371731   -7.8945223    47.928059  0.019674901  0.020860435            2 
  204000   0.94630529   -7.9349485     47.99867    0.0196073  0.020799564            5 
  205000   0.94691381   -7.9804246    47.920081  0.019479708  0.020737289            5 
  206000   0.91695526    -7.921544    48.181303  0.019490818  0.020674986            2 
  207000    0.9428994   -7.9423175    48.354591  0.019466421   0.02061279            4 
  208000   0.92613785   -7.9072375     48.59679  0.019469868  0.020550872            6 
  209000   0.94447143   -7.9734672    48.545775  0.019356369  0.020489778            4 
  210000   0.93117008   -7.9732223     48.69232  0.019322349  0.020429243            2 
  211000   0.94347616   -7.9828175    48.896951  0.019311592  0.020369145            4 
  212000   0.92009231   -7.9951816    48.916807  0.019228305  0.020309545            2 
  213000   0.91867913   -7.9601847    49.123634  0.019218949  0.020249398            3 
  214000   0.92138708   -7.9569343    49.124123  0.019129331  0.020189205            3 
  215000   0.93072064   -7.9673936    49.264962  0.019094947     0.020129            2 
  216000   0.92634473   -7.9695693    49.327748  0.019030767  0.020069039            4 
  217000    0.9269752   -7.9466031    49.349384  0.018951376  0.020007862            2 
  218000   0.91956684   -7.9352514    49.520027  0.018929674  0.019947933            2 
  219000   0.90045278   -7.9835814     49.68626  0.018906492  0.019888206            2 
  220000   0.90614674   -7.9962423    49.751826  0.018845388  0.019827796            2 
  221000   0.92619997   -8.0041798    49.818476  0.018785247  0.019767922            2 
  222000   0.91831665   -7.9791816    50.022598  0.018777252   0.01970867            1 
  223000   0.90069237   -8.0025097    49.971406  0.018673919  0.019649341            3 
  224000   0.92803737   -7.9832674    50.179909  0.018668121  0.019589527            2 
  225000    0.9021111   -8.0082507    50.289609  0.018625781  0.019530091            4 
  226000   0.91323633   -8.0009674    50.158465  0.018495009  0.019470644            1 
  227000   0.90175093   -8.0113921    50.316746  0.018471639  0.019410252            2 
  228000   0.91038903    -8.016007    50.302718  0.018385496  0.019349667            3 
  229000   0.90346173    -8.002326    50.361284  0.018326523  0.019288772            6 
  230000   0.91841648   -8.0224985    50.423266  0.018269299  0.019228322            3 
  231000   0.88858149   -8.0522084    50.359559  0.018167229  0.019165723            1 
  232000   0.88469468   -8.0603842    50.556189  0.018159551  0.019103296            5 
  233000    0.8796614   -8.0630719    50.404384  0.018027319  0.019040518            4 
  234000   0.89441204   -8.0707975    50.443682  0.017964274  0.018978444            3 
  235000   0.87686924   -8.0619055    50.652011  0.017961706  0.018915936            3 
  236000   0.88835594    -8.031592    50.666642  0.017890763  0.018853417            3 
  237000   0.88352448   -8.0511225     50.83273  0.017873674  0.018791653            2 
  238000   0.89002611   -8.0920724    50.831485  0.017798139  0.018729591            2 
  239000   0.87151197   -8.0761692    50.843995  0.017728032  0.018667616            5 
  240000   0.86936141   -8.0433413    51.104157  0.017744499  0.018605259            8 
  241000   0.88924251   -8.0807361    50.990105  0.017631433  0.018542828            2 
  242000   0.87682865   -8.0776187    51.073534  0.017587305  0.018480232            2 
  243000   0.88215667   -8.0936817     51.02446    0.0174981   0.01841813            3 
  244000   0.89401549   -8.0902981    51.335687   0.01753268  0.018356615            3 
  245000   0.86889783   -8.1038139    51.402082  0.017483701   0.01829595            9 
  246000   0.86742723   -8.1446534    51.388892  0.017408161  0.018235314            4 
  247000    0.8826551   -8.1315146    51.468246  0.017364456   0.01817447            4 
  248000   0.88719702   -8.1066855    51.543783   0.01731982  0.018114115            2 
  249000   0.85540479   -8.1192568     51.58166  0.017262938  0.018054074            2 
  250000   0.88188053   -8.1302598    51.600208  0.017200069  0.017994152            3 
  251000   0.86831236   -8.1031506    51.757151  0.017183649  0.017933977            6 
  252000   0.87284107    -8.103628    51.796565  0.017128494  0.017874054            2 
  253000   0.86292695   -8.1420107    51.829362  0.017071595   0.01781484            2 
  254000    0.8575452   -8.1429979    51.853965  0.017012456  0.017755249            3 
  255000    0.8609197   -8.1389285    51.977384  0.016986073  0.017696243            3 
  256000    0.8531795   -8.1584146    52.163951  0.016980453  0.017638232            6 
  257000   0.85163911   -8.1271353    52.215762  0.016931181  0.017580452            6 
  258000    0.8675201   -8.1240155    52.173532  0.016851916   0.01752286            4 
  259000   0.86554202   -8.1606424    52.258424  0.016814165  0.017464589            4 
  260000   0.86561749   -8.1418438    52.392437  0.016792448  0.017407032            3 
  261000   0.84625619   -8.1547078    52.370831   0.01672121  0.017349751            1 
  262000   0.85797669   -8.1348403    52.547005  0.016713424  0.017292666            3 
  263000   0.85703164   -8.1885415      52.4045  0.016604721  0.017236092            3 
  264000    0.8451039   -8.1967389    52.615275  0.016608357  0.017178972            9 
  265000   0.84237273   -8.1955232    52.648347  0.016556084  0.017122202            2 
  266000   0.81782271   -8.1718391    52.647345  0.016493529  0.017065429            5 
  267000   0.86976945   -8.2167067    52.823185  0.016486637  0.017009022            6 
  268000   0.84850343   -8.2088333    52.745507  0.016400966  0.016952914            7 
  269000   0.85512091   -8.2272955    52.952296  0.016404057  0.016896952           10 
  270000   0.83914974   -8.2027524    52.800822   0.01629655  0.016840927            2 
  271000   0.84406422   -8.2096905    52.908177  0.016269427  0.016784438            4 
  272000   0.83887329   -8.1912978    52.970079  0.016228578  0.016728239            3 
  273000     0.823562   -8.2119548    52.903739  0.016148882  0.016671967            2 
  274000   0.85053002   -8.2150273    53.002751  0.016120058  0.016616253           10 
  275000   0.82442911   -8.2094445    52.997986  0.016059996  0.016560214            2 
  276000   0.83555409   -8.2143528    53.035166  0.016013033  0.016504765            5 
  277000   0.83035131     -8.22105    53.105315  0.015976328  0.016449057            4 
  278000    0.8264063   -8.2440067    53.186633  0.015943235  0.016393172            1 
  279000   0.82076968   -8.2584137    53.061668  0.015848766  0.016336852            6 
  280000    0.8317891   -8.3040095    52.844568   0.01572755  0.016280321            6 
  281000   0.83026787    -8.305848    52.934934  0.015698379  0.016223449            6 
  282000   0.83190696   -8.2500436    53.135538  0.015701991  0.016167167            3 
  283000   0.81324074   -8.2656893    53.237921  0.015676655  0.016111468            7 
  284000   0.82734884   -8.2896662    53.248715  0.015624623   0.01605631            3 
  285000   0.80343009   -8.3156014    53.220072  0.015561424  0.016000873            7 
  286000   0.82195852   -8.3065029    53.330577  0.015539212  0.015945218            6 
  287000   0.80376556    -8.293754    53.364305  0.015494862  0.015890075            6 
  288000   0.80558899   -8.2713091    53.429775  0.015460004  0.015835091            3 
  289000    0.8112957   -8.3467098      53.3159  0.015373674  0.015780702            2 
  290000   0.80323364   -8.3082531    53.534316  0.015383424  0.015726345            6 
  291000   0.80973032   -8.3139885    53.423959  0.015298957  0.015672201            4 
  292000   0.80438254   -8.2838278      53.5058   0.01526992   0.01561826            7 
  293000   0.80684841   -8.3184499    53.649972  0.015258809  0.015564646           11 
  294000   0.79796041   -8.3282406    53.568575  0.015183836  0.015511149            4 
  295000   0.78623524   -8.3345089    53.612475  0.015144767  0.015457815            7 
  296000   0.79108134   -8.3330768    53.440643  0.015045226  0.015404097            3 
  297000   0.79117409   -8.3551636    53.474098  0.015003956  0.015350188            5 
  298000   0.78990264   -8.3732173    53.468869  0.014952144  0.015296141            5 
  299000   0.79591485   -8.3383116     53.42358  0.014889515  0.015241687            6 
  300000   0.79152676   -8.3524823    53.528162  0.014868934  0.015187558            4 
  301000    0.7997716   -8.3532611    53.340988  0.014767715  0.015132947            4 
  302000   0.78685102   -8.3717669    53.435299   0.01474484  0.015078692            4 
  303000   0.80276294   -8.3694147    53.341281  0.014670319  0.015024322            2 
  304000   0.76608081   -8.3791418    53.487597   0.01466217  0.014969713            3 
  305000   0.77562702   -8.3288902    53.460146  0.014606597  0.014915197            2 
  306000    0.7742985    -8.370587    53.500694  0.014569906   0.01486091            3 
  307000   0.76895916   -8.3749154     53.42624  0.014502237   0.01480667            2 
  308000   0.77380057   -8.3793217     53.39346  0.014446282  0.014752508            6 
  309000   0.78638602   -8.3715653    53.563425  0.014445368  0.014698787            5 
  310000    0.7616835   -8.3882786    53.613153  0.014412138  0.014645555            5 
  311000   0.78145439   -8.3951229     53.43035  0.014316814  0.014592565            6 
  312000   0.77317861   -8.3903851    53.508203  0.014291721  0.014539479            4 
  313000   0.75759087   -8.4112419    53.617417  0.014275138  0.014486669            6 
  314000   0.79047227   -8.4116969    53.631837  0.014233502  0.014434049            9 
  315000   0.76707647   -8.3983071    53.632572  0.014188511  0.014381266            9 
  316000   0.76072621   -8.4207711    53.545511  0.014120652  0.014328305            3 
  317000   0.75421825   -8.4169742    53.411668  0.014040922  0.014275285            2 
  318000    0.7524504   -8.4314103    53.442347  0.014004808  0.014222425            2 
  319000    0.7790785   -8.4230213     53.60321  0.014002928  0.014169851            4 
  320000   0.75937696   -8.4374069    53.537927  0.013942169   0.01411756            5 
  321000   0.77154634   -8.4494647    53.551003   0.01390213   0.01406577            6 
  322000   0.75303299   -8.4254475    53.523597  0.013851862   0.01401385            2 
  323000   0.75189037   -8.4433584     53.61097   0.01383152  0.013962118            3 
  324000   0.75155033   -8.4595111    53.614403  0.013789713  0.013910782            4 
  325000   0.75964878   -8.4704509    53.662498  0.013759615  0.013859561            3 
  326000   0.74367546   -8.4638577    53.577218  0.013695608  0.013808456            6 
  327000   0.72832414   -8.4503147     53.58273   0.01365513  0.013757217            4 
  328000   0.73697841   -8.4573065    53.654739  0.013631793  0.013706461            7 
  329000   0.74351758   -8.4379054    53.702657  0.013602497   0.01365607            4 
  330000   0.74163017   -8.4680366    53.713801  0.013564091  0.013605552            3 
  331000   0.72525488      -8.4706    53.531344  0.013477176  0.013554985            5 
  332000   0.74063787    -8.456564    53.643189  0.013464656  0.013504813            5 
  333000   0.76021641   -8.4937702     53.70801  0.013440443   0.01345466            3 
  334000   0.74388979   -8.4816138    53.759081  0.013412944  0.013404662            2 
  335000   0.73409917   -8.4885769    53.704157  0.013359243  0.013354922            5 
  336000   0.73208565   -8.5072192    53.661814  0.013308982  0.013305294            3 
  337000   0.74272901   -8.4917693    53.612395  0.013257269  0.013255895            2 
  338000   0.72998252   -8.4974316    53.632289  0.013222951  0.013206548            5 
  339000   0.73606365   -8.5071027    53.536851  0.013160485  0.013157773            3 
  340000   0.73796343   -8.5050177    53.697168  0.013161071  0.013108767            2 
  341000   0.72550265   -8.4884241    53.791722  0.013145582  0.013060226            3 
  342000   0.71766412   -8.5045063    53.783901  0.013105239  0.013011883            2 
  343000   0.72613583   -8.4986422    53.806919  0.013072624  0.012963941            5 
  344000   0.71321369   -8.5430193    53.691334  0.013006622  0.012916115            4 
  345000   0.71649038   -8.5385161    53.764765  0.012986658  0.012868366            4 
  346000   0.71994732   -8.5178204    53.769864  0.012950353  0.012820871            2 
  347000   0.71734467   -8.5604134    53.678122  0.012890999  0.012773295            5 
  348000   0.71098956   -8.5758149    53.734953  0.012867565  0.012726097            9 
  349000   0.71324369   -8.5331567    53.792743  0.012844495   0.01267914            3 
  350000   0.70776577   -8.5272043    53.762103  0.012800501   0.01263253            9 
  351000    0.7081231    -8.554829    53.793254  0.012771428  0.012586118            5 
  352000   0.68359842   -8.5321374    53.807879  0.012738608  0.012539899            2 
  353000   0.70638524   -8.5488735    53.807643  0.012702465  0.012493945            6 
  354000   0.68768499   -8.5225904    53.879782  0.012683565  0.012448227            4 
  355000   0.69565328   -8.5536441    53.711338  0.012608295  0.012402524            3 
  356000   0.70025277   -8.5449454    53.884884  0.012613503  0.012357142            3 
  357000   0.70092473   -8.5807189    53.818209  0.012562607  0.012311987            6 
  358000    0.6956304   -8.5810744    53.746442   0.01251081  0.012266744            4 
  359000   0.70078621   -8.5934933    53.917315  0.012515626  0.012221842            4 
  360000   0.68656015   -8.5704311    53.973681  0.012493908  0.012177194            7 
  361000   0.69170031   -8.5934637    53.957116  0.012455475  0.012132791            2 
  362000   0.69519289   -8.5741353     54.00447  0.012431968   0.01208867            6 
  363000   0.69860433   -8.5962412    54.022179  0.012401786  0.012044884           10 
  364000   0.69721587   -8.5991539     53.98993  0.012360332  0.012001398            4 
  365000   0.68282276   -8.6058545    53.944417  0.012316077  0.011958007            5 
  366000   0.69542547   -8.5893812     54.03735  0.012303586  0.011914797            3 
  367000   0.68554017    -8.608012    53.894321  0.012237584  0.011871728            5 
  368000   0.69606996   -8.6246387    53.988458  0.012225647  0.011828702            9 
  369000   0.68382664   -8.6280509    53.925327  0.012178258  0.011785904            9 
  370000    0.6903888   -8.6335165    53.889971  0.012137381  0.011743188            7 
  371000    0.6764929   -8.6360295    53.992152  0.012127617   0.01170061            4 
  372000   0.66897338   -8.6088111    53.985394  0.012093502  0.011658201            9 
  373000   0.67409373   -8.6423685    53.882004  0.012037981  0.011615903           16 
  374000   0.66691643   -8.6479779    53.897169  0.012009173  0.011573802           12 
  375000   0.66140834   -8.6630541    53.985663  0.011996814  0.011531943            6 
  376000   0.65891524   -8.6666805    53.885391  0.011942684  0.011490103           15 
  377000   0.65311532   -8.6582926    54.027823   0.01194249  0.011448634            6 
  378000    0.6734888   -8.6684588    54.009938  0.011906953   0.01140734            8 
  379000   0.65185638   -8.6502238    53.886164  0.011848321  0.011366241           11 
  380000   0.66144071   -8.6530178    54.097129  0.011863405  0.011325184            2 
  381000   0.66356668   -8.6833847    53.884442  0.011785748  0.011284171            5 
  382000   0.66267648   -8.6790816    53.887182  0.011755493  0.011243407            9 
  383000   0.65445796   -8.6728166    53.965218  0.011741779   0.01120282            5 
  384000   0.62839378   -8.6822561      53.9341  0.011704449  0.011162281            8 
  385000    0.6415187   -8.6773324    53.965485  0.011680841  0.011121942            5 
  386000   0.64548819   -8.6881835    53.920961  0.011640967  0.011081651            2 
  387000   0.65867137   -8.6898104    53.922479  0.011611214  0.011041571            8 
  388000   0.66173762    -8.701746    53.775497   0.01154972  0.011001596            6 
  389000   0.65145238   -8.7075618    53.779569  0.011520902  0.010961696            5 
  390000   0.64443156   -8.7183678    53.871309  0.011510963  0.010921868            5 
  391000   0.64809072   -8.7096461    53.732256  0.011451887  0.010882185            3 
  392000   0.63207536   -8.6949082    53.862757  0.011450416  0.010842725            8 
  393000   0.64823911   -8.7100077    53.828075  0.011413926  0.010803493            5 
  394000   0.64611841   -8.7484124    53.784956  0.011375837  0.010764339            3 
  395000   0.64073227   -8.7454563    53.801408  0.011350508  0.010725262            4 
  396000   0.63595538   -8.7411592    53.733869  0.011307632    0.0106864            4 
  397000   0.63425503    -8.732793    53.794842  0.011291948  0.010647636            4 
  398000   0.63396068   -8.7604598    53.697652  0.011243227  0.010608939            4 
  399000   0.63394537   -8.7413408    53.758993   0.01122786  0.010570484            5 
  400000   0.62868304   -8.7613128    53.740851  0.011196011  0.010532185            4 
  401000   0.64063969   -8.7574495    53.753936   0.01117081   0.01049398            3 
  402000   0.63101201   -8.7615644     53.83943  0.011160744  0.010456027            9 
  403000   0.64395775   -8.7839711    53.878466  0.011141122  0.010418295            4 
  404000   0.62129124   -8.7624882    53.784298  0.011094121  0.010380648            7 
  405000   0.62205043   -8.7783227    53.724621  0.011054449  0.010343253            3 
  406000   0.62190592   -8.7770134    53.825012  0.011047827  0.010306017            3 
  407000   0.62128303   -8.7769059    53.762769  0.011007938  0.010268855            4 
  408000   0.61800746   -8.7642989    53.770822  0.010982603   0.01023198            2 
  409000   0.61419976   -8.7893447    53.803594  0.010962427  0.010195103            4 
  410000   0.61198475   -8.7823236    53.812882  0.010937578  0.010158383            3 
  411000   0.61923789   -8.7708153     53.77908  0.010904112  0.010121887            9 
  412000   0.61874242   -8.7791052    53.736023  0.010868937  0.010085469            4 
  413000   0.59701857   -8.7997255    53.722432  0.010839877  0.010049201            5 
  414000   0.60127071   -8.8170685    53.652429  0.010799603  0.010012994            3 
  415000   0.59942749   -8.7909657    53.808089  0.010804837 0.0099769793            3 
  416000   0.59377006    -8.778364    53.678255  0.010752856 0.0099411693            6 
  417000    0.6100235   -8.7914655     53.81749  0.010754894 0.0099055318            8 
  418000   0.60258757   -8.8075421    53.681769  0.010702107 0.0098700933            7 
  419000   0.60668355   -8.8172179    53.703949  0.010680976 0.0098349307            3 
  420000   0.59314751   -8.8042977    53.777707   0.01067018 0.0097998558            9 
  421000   0.59253473   -8.8179844    53.729849  0.010635362 0.0097649457            5 
  422000   0.60654933   -8.8359963    53.589111  0.010582368 0.0097301851            5 
  423000   0.60094766    -8.821458    53.763987  0.010591802 0.0096955176            4 
  424000   0.59088318   -8.8190784    53.782857   0.01057053 0.0096609927            8 
  425000   0.58462795   -8.8254715    53.621383  0.010513997 0.0096265919            6 
  426000   0.58192997   -8.8160932    53.693265  0.010503377 0.0095922949            6 
  427000   0.59719391   -8.8240705    53.706476  0.010481358 0.0095581512            5 
  428000   0.58369942    -8.857347    53.607307   0.01043756 0.0095242215            6 
  429000   0.59721554   -8.8193798    53.671841  0.010425766 0.0094903779            7 
  430000   0.57665557   -8.8727421    53.751399  0.010416938 0.0094567444            4 
  431000   0.58184307   -8.8508542    53.663591  0.010375791  0.009423179            2 
  432000     0.574857   -8.8687267    53.637619  0.010346763 0.0093897736            3 
  433000   0.58498023   -8.8652443    53.518094  0.010299864 0.0093564277            1 
  434000   0.58272714   -8.8591362    53.630093  0.010297637 0.0093233767            5 
  435000   0.56619427   -8.8494175    53.650208  0.010277818 0.0092903808           11 
  436000   0.57284616   -8.8544138    53.611443  0.010246835 0.0092575348           13 
  437000   0.56501986   -8.8535252    53.584715   0.01021829 0.0092247782           12 
  438000   0.57345139   -8.8669413    53.592671  0.010196475 0.0091922242            9 
  439000   0.56421918   -8.8921084    53.680085  0.010189841 0.0091598355            5 
  440000   0.57286433   -8.8628841     53.50478  0.010133481 0.0091275313            6 
  441000   0.56113475    -8.868891     53.65039  0.010138018 0.0090953522           12 
  442000   0.56605192   -8.8819988     53.48525  0.010083946 0.0090633452            8 
  443000   0.55969111   -8.8920232    53.481127  0.010060408 0.0090313714            6 
  444000    0.5591116   -8.8695602    53.740349  0.010086402 0.0089996342           10 
  445000   0.55717738   -8.8948103    53.562583  0.010030446 0.0089680271            4 
  446000   0.56420652   -8.8957937     53.50916 0.0099979746 0.0089366234            4 
  447000   0.54861769   -8.8913044    53.544945 0.0099822792 0.0089052938           11 
  448000   0.56004184   -8.9171456    53.519838 0.0099553269 0.0088740744           10 
  449000   0.56333874   -8.8987882    53.613184 0.0099504796 0.0088429906            6 
  450000   0.53114223   -8.9060683    53.617855 0.0099292324 0.0088120123            2 
  451000   0.56358943   -8.9086508    53.428334 0.0098721978 0.0087811818           11 
  452000   0.55512136   -8.9151089    53.582034 0.0098786936 0.0087504432            8 
  453000   0.54477227   -8.9077867    53.568119 0.0098543265 0.0087198566            3 
  454000   0.53621729   -8.9242465    53.481532 0.0098167275  0.008689389            3 
  455000   0.53527317   -8.8971722    53.504422 0.0097993447 0.0086590113            3 
  456000   0.56128817   -8.9318274    53.461368 0.0097699868 0.0086288948            6 
  457000   0.53286173    -8.914067     53.50777 0.0097570697 0.0085988152            4 
  458000   0.54632746   -8.9299466    53.534313 0.0097405955 0.0085688796            5 
  459000   0.54162003   -8.9221742    53.504571 0.0097139744  0.008539136           10 
  460000   0.53977584   -8.9280815    53.531365  0.009697711  0.008509454            3 
  461000   0.52872371   -8.9505652    53.429304 0.0096582256   0.00847994            8 
  462000   0.52954371   -8.9414847    53.482586 0.0096469312 0.0084505704           11 
  463000    0.5275612   -8.9320394     53.47361 0.0096244799 0.0084212569            3 
  464000   0.52299293    -8.922301    53.447052 0.0095989677 0.0083920618            8 
  465000   0.53060878   -8.9231561    53.408329 0.0095713851 0.0083629756           14 
  466000   0.52845159   -8.9488699    53.458592  0.009559834 0.0083340387            8 
  467000   0.51873804   -8.9418573    53.391155 0.0095273296 0.0083052169           12 
  468000   0.52002729   -8.9533475    53.439559  0.009515591 0.0082765747            9 
  469000   0.51364882   -8.9485722    53.318491 0.0094737901 0.0082479993            6 
  470000   0.51149571   -8.9671995    53.337391 0.0094569843 0.0082195362           10 
  471000   0.52105943   -8.9590023    53.462417 0.0094590263  0.008191221            9 
  472000   0.50859059   -8.9577019    53.460311 0.0094386143 0.0081630836            6 
  473000   0.51433808   -8.9455983    53.392464 0.0094067061 0.0081349937            7 
  474000   0.50472232    -8.961083    53.393162 0.0093869834 0.0081070506            7 
  475000   0.50869726   -8.9761856    53.432689 0.0093741559 0.0080792573            4 
  476000   0.50281256   -8.9372831    53.389623 0.0093469228  0.008051546           11 
  477000   0.51116455    -8.972857    53.431207 0.0093345923 0.0080238756            5 
  478000   0.50751831   -8.9863019    53.349018 0.0093007354 0.0079964157            6 
  479000   0.51439543   -8.9693736    53.395227 0.0092893574 0.0079691005            8 
  480000    0.5070417   -8.9947633    53.286511 0.0092511304 0.0079419097           10 
  481000   0.50054271   -8.9824096    53.332939  0.009239941 0.0079147982           10 
  482000   0.49978395   -8.9809338    53.412627 0.0092345482 0.0078877825           14 
  483000   0.50085928   -8.9823521    53.388506 0.0092112675 0.0078609449           10 
  484000    0.4888961   -8.9860834    53.315402 0.0091796492 0.0078341612            6 
  485000   0.48973381   -9.0034618    53.244915 0.0091486108 0.0078075632            6 
  486000   0.50135416   -9.0067247    53.348765 0.0091475935 0.0077810478            7 
  487000   0.47987346   -8.9934997    53.328907 0.0091254119 0.0077546342            7 
  488000   0.48105658   -8.9911019    53.301056 0.0091019562 0.0077282922           14 
  489000   0.48619639   -9.0074737     53.33751 0.0090895552 0.0077021049           12 
  490000   0.48554062   -9.0047178    53.331525 0.0090699873 0.0076760494           12 
  491000   0.47827208   -9.0262152    53.249664 0.0090376211 0.0076500728            8 
  492000   0.48276802    -9.020307    53.206213 0.0090118925 0.0076242294            5 
  493000   0.48176255   -9.0276182    53.332831 0.0090150154 0.0075984784            5 
  494000   0.46987264   -9.0169217    53.252709 0.0089832505 0.0075728066            9 
  495000   0.47749947   -9.0105875    53.206177 0.0089572689 0.0075472844            5 
  496000   0.47711797   -9.0185516    53.288473 0.0089530364 0.0075218831           10 
  497000   0.47510573   -9.0054239    53.251031 0.0089287443 0.0074965868           10 
  498000   0.47254469    -9.015567    53.317796 0.0089219873 0.0074713991            9 
  499000   0.46670607   -9.0369047    53.241713 0.0088914016  0.007446301            7 
  500000   0.47437232   -9.0366411    53.220835 0.0088701391 0.0074213438           10 
  501000   0.46404493   -9.0374656    53.289393 0.0088638379 0.0073964818           10 
  502000   0.45821562   -9.0253869    53.226348 0.0088357151 0.0073717394            9 
  503000   0.46702977   -9.0353562    53.229184  0.008818619 0.0073471096            8 
  504000   0.46082156   -9.0586659    53.323154 0.0088166591 0.0073226082           11 
  505000   0.45628602   -9.0348852    53.229564 0.0087837564 0.0072981359           10 
  506000   0.47279008   -9.0545627    53.251775 0.0087700551 0.0072738147            9 
  507000   0.46812627   -9.0389934    53.276173 0.0087567675 0.0072495928            6 
  508000   0.45041277   -9.0481649    53.246143 0.0087346035 0.0072254721            9 
  509000   0.45437363   -9.0511898    53.224314 0.0087138693 0.0072014661           11 
  510000   0.45466844   -9.0521954    53.197044 0.0086923275  0.007177611            8 
  511000   0.45715104   -9.0521131    53.181441 0.0086727724 0.0071538027            6 
  512000   0.44891144   -9.0641748    53.265369 0.0086694936 0.0071300693            5 
Loop time of 1263 on 48 procs for 500000 steps with 4000 atoms

Performance: 68408.528 tau/day, 395.883 timesteps/s
99.4% CPU use with 48 MPI tasks x no OpenMP threads

MPI task timing breakdown:
Section |  min time  |  avg time  |  max time  |%varavg| %total
---------------------------------------------------------------
Pair    | 84.548     | 90.343     | 96.461     |  29.2 |  7.15
Neigh   | 8.3907     | 8.7284     | 9.0627     |   4.6 |  0.69
Comm    | 79.17      | 84.923     | 92.603     |  36.5 |  6.72
Output  | 0.86486    | 0.86568    | 0.88927    |   0.4 |  0.07
Modify  | 1062.3     | 1066.4     | 1070.4     |   6.1 | 84.44
Other   |            | 11.71      |            |       |  0.93

Nlocal:        83.3333 ave          88 max          78 min
Histogram: 3 3 3 5 5 6 3 5 7 8
Nghost:        2238.31 ave        2265 max        2202 min
Histogram: 2 1 1 4 8 7 11 6 7 1
Neighs:        15003.6 ave       16183 max       13499 min
Histogram: 2 1 6 4 8 3 9 7 4 4
FullNghs:      30007.7 ave       31634 max       27622 min
Histogram: 2 2 5 5 4 5 5 5 8 7

Total # of neighbors = 1440370
Ave neighs/atom = 360.09250
Neighbor list builds = 26648
Dangerous builds = 0

#clear
#
#next RN
#
#jump SELF
Total wall time: 0:21:06
