
units lj                  # Use reduced LJ style units
atom_style atomic         # Uncharged point particles
atom_modify map hash      # Needed for indexing of clusters etc
                          # Used to be able to find where atoms are in relation to each other.

lattice fcc 1.0 spacing 1 1 1
Lattice spacing in x,y,z = 1.5874011 1.5874011 1.5874011
region box block 0 10 0 10 0 10 units lattice
create_box 2 box
Created orthogonal box = (0.0000000 0.0000000 0.0000000) to (15.874011 15.874011 15.874011)
  3 by 4 by 4 MPI processor grid
create_atoms 1 box
Created 4000 atoms
  using lattice units in orthogonal box = (0.0000000 0.0000000 0.0000000) to (15.874011 15.874011 15.874011)
  create_atoms CPU = 0.014 seconds
set type 1 type/fraction 2 0.61 78393
Setting atom values ...
  2454 settings made for type/fraction
mass 1 1.0
mass 2 1.0
pair_style lj/cut  3.5
pair_modify tail  yes
pair_coeff 1  1  1.0  1.0   # Intearaction between 1 and 1 set with epsilon = 1 and sigma = 1
pair_coeff 1  2  1.5  0.8
pair_coeff 2  2  0.5  0.88

write_data data.0
System init for write_data ...
Neighbor list info ...
  update every 1 steps, delay 10 steps, check yes
  max neighbors/atom: 2000, page size: 100000
  master list distance cutoff = 3.8
  ghost atom cutoff = 3.8
  binsize = 1.9, bins = 9 9 9
  1 neighbor lists, perpetual/occasional/extra = 1 0 0
  (1) pair lj/cut, perpetual
      attributes: half, newton on
      pair build: half/bin/atomonly/newton
      stencil: half/bin/3d
      bin: standard
WARNING: Not all mixed pair coeffs generated from mixing. Use write_data with 'pair ij' option to store all pair coeffs. (../write_data.cpp:312)


#############################
#   M E L T   S Y S T E M   #
#############################

velocity all create 2.4 6583654 mom yes dist gaussian # Assign velocities
                                                    # Temperature 2.4, random number seed, zero linear momentum
                                                                                # Gaussian distribution

timestep 0.002   # simulation timestep
thermo 1000       # output thermodynamic data every 1000 steps bf 100

# Define a fix  in this case with index 1 applied to all
# particles in the simulation. This fix is for simulations
# in the anisotropic NPT ensemble. Note that we use the MTK
# correction.
fix 1 all npt temp 2.4 2.4 0.1 iso 5.68 5.68 0.5 mtk yes tchain 5 pchain 5 # Use NPT ensemble
                                                                         # Set temperature and pressure and damping
                                                                         # Numbers of thermostats in chain and in barostat
run 10000          # run for 10000 steps
Per MPI rank memory allocation (min/avg/max) = 3.642 | 3.644 | 3.648 Mbytes
Step Temp E_pair E_mol TotEng Press Volume 
       0          2.4   -4.6675525            0   -1.0684525   -4.0420614         4000 
    1000    2.3762215   -4.3840438            0  -0.82060263      5.73573    3624.3565 
    2000    2.3653407   -4.3801142            0  -0.83299015    5.6869604    3627.6624 
    3000    2.4026659   -4.5026893            0  -0.89959149    5.3482953    3590.5713 
    4000    2.4157654   -4.4479297            0  -0.82518754     5.521647    3601.8164 
    5000    2.4187961   -4.3242693            0  -0.69698219    5.8223793    3656.2181 
    6000    2.3859936   -4.4678926            0   -0.8897969     5.783945    3573.4348 
    7000     2.395557   -4.4433874            0  -0.85095023     5.606234    3600.7945 
    8000    2.3848647   -4.4480993            0  -0.87169662    5.9214283    3583.5703 
    9000    2.3657433   -4.4440983            0  -0.89637045    5.7756644     3579.679 
   10000     2.418976   -4.4304781            0   -0.8029212    5.4993771    3619.0531 
Loop time of 2.68857 on 48 procs for 10000 steps with 4000 atoms

Performance: 642721.384 tau/day, 3719.452 timesteps/s
99.6% CPU use with 48 MPI tasks x no OpenMP threads

MPI task timing breakdown:
Section |  min time  |  avg time  |  max time  |%varavg| %total
---------------------------------------------------------------
Pair    | 1.2349     | 1.2841     | 1.4163     |   3.0 | 47.76
Neigh   | 0.21695    | 0.22407    | 0.25059    |   1.1 |  8.33
Comm    | 0.79406    | 0.9085     | 1.0075     |   5.0 | 33.79
Output  | 0.00024445 | 0.00025475 | 0.0003194  |   0.0 |  0.01
Modify  | 0.21131    | 0.25587    | 0.29857    |   5.8 |  9.52
Other   |            | 0.0158     |            |       |  0.59

Nlocal:        83.3333 ave          90 max          74 min
Histogram: 1 1 2 5 3 15 6 5 9 1
Nghost:        1758.79 ave        1798 max        1725 min
Histogram: 1 4 4 8 12 9 5 2 2 1
Neighs:        10555.9 ave       11729 max        9253 min
Histogram: 1 1 4 9 9 4 8 9 1 2

Total # of neighbors = 506684
Ave neighs/atom = 126.67100
Neighbor list builds = 900
Dangerous builds = 168

# Equilibrate just above the melting temperature to avoid step fn in T

fix 1 all npt temp 1.25 1.25 0.1 iso 5.68 5.68 0.5 mtk yes tchain 5 pchain 5
run 2000
Per MPI rank memory allocation (min/avg/max) = 3.644 | 3.646 | 3.650 Mbytes
Step Temp E_pair E_mol TotEng Press Volume 
   10000     2.418976   -4.4304781            0   -0.8029212    5.4993771    3619.0531 
   11000    1.2536104   -6.4788521            0   -4.5989066    5.9186463    2758.8761 
   12000    1.2377823   -6.5351824            0   -4.6789732    5.3214194    2757.2255 
Loop time of 0.681604 on 48 procs for 2000 steps with 4000 atoms

Performance: 507039.120 tau/day, 2934.254 timesteps/s
99.6% CPU use with 48 MPI tasks x no OpenMP threads

MPI task timing breakdown:
Section |  min time  |  avg time  |  max time  |%varavg| %total
---------------------------------------------------------------
Pair    | 0.30753    | 0.32973    | 0.38481    |   2.3 | 48.38
Neigh   | 0.042123   | 0.04428    | 0.052815   |   0.8 |  6.50
Comm    | 0.19883    | 0.25663    | 0.27846    |   2.8 | 37.65
Output  | 5.297e-05  | 5.4867e-05 | 7.0777e-05 |   0.0 |  0.01
Modify  | 0.039702   | 0.045911   | 0.05092    |   1.6 |  6.74
Other   |            | 0.004999   |            |       |  0.73

Nlocal:        83.3333 ave          94 max          77 min
Histogram: 2 8 9 5 12 8 2 1 0 1
Nghost:        2119.73 ave        2135 max        2102 min
Histogram: 3 5 2 8 3 6 7 3 5 6
Neighs:        13855.4 ave       16684 max       12188 min
Histogram: 2 6 9 8 14 4 4 0 0 1

Total # of neighbors = 665060
Ave neighs/atom = 166.26500
Neighbor list builds = 143
Dangerous builds = 9

#############################
# L I N E A R  Q U E N C H  #
#############################

# Define solid atoms. This closely follows ten Wolde  Ruiz-Montero and Frenkel  Faraday Discuss  1996  104  93-110
# Compute components of the per-atom q6 vector
compute q6 all orientorder/atom degrees 1 6 components 6 nnn NULL cutoff 1.3 # compute the Q6 parameter.
                                                                             # Use all neighbours within 1.3 unit cell.

# get number of connections
compute coord_number all coord/atom orientorder q6 0.5

# An atom is solid if it has 8 or more connections (of a possible 14)
variable is_solid atom c_coord_number>=8
group solid dynamic all var is_solid    # Must be dynamic to update
dynamic group solid defined

# do clustering
compute cluster solid cluster/atom 1.3 # Create a cluster where all atoms within are solid and max 1.3 units from another member

# define chunks one chunk per cluster
compute clus_chunks solid chunk/atom c_cluster nchunk every compress yes  # Says which atoms are in which chunk

# count the size of each chunk
compute size_chunks solid property/chunk clus_chunks count


# Find the maximum entry in the vector of chunk sizes
variable max_n equal max(c_size_chunks)


# Thermo style which includes this variable
# thermo_style custom step temp pe vol v_max_n

thermo ${N}  # Print the thermo information every 100 steps
thermo 1000  

# Reset the npt fix at a lower temperature (below freezing)
fix 1  all npt temp  ${temp} ${temp}  0.1  iso  5.68  5.68  0.5  mtk yes tchain  5  pchain  5
fix 1  all npt temp  0.45 ${temp}  0.1  iso  5.68  5.68  0.5  mtk yes tchain  5  pchain  5
fix 1  all npt temp  0.45 0.45  0.1  iso  5.68  5.68  0.5  mtk yes tchain  5  pchain  5

dump dmp2 all dcd ${N} traj.dcd
dump dmp2 all dcd 1000 traj.dcd


compute msd all msd com yes
variable twopoint equal c_msd[4]/6/(step*dt+1.0e-6)
fix 9 all vector 10 c_msd[4]
variable fit equal slope(f_9)/6/(10*dt)
thermo_style custom step temp pe c_msd[4] v_twopoint v_fit v_max_n

fix 1 all npt temp 1.25 ${temp} 0.1 iso 5.68 5.68 0.5 mtk yes tchain 5 pchain 5
fix 1 all npt temp 1.25 0.45 0.1 iso 5.68 5.68 0.5 mtk yes tchain 5 pchain 5
run 2000000 # 5000000  # Run for this many steps
Neighbor list info ...
  update every 1 steps, delay 10 steps, check yes
  max neighbors/atom: 2000, page size: 100000
  master list distance cutoff = 3.8
  ghost atom cutoff = 3.8
  binsize = 1.9, bins = 8 8 8
  4 neighbor lists, perpetual/occasional/extra = 1 3 0
  (1) pair lj/cut, perpetual
      attributes: half, newton on
      pair build: half/bin/atomonly/newton
      stencil: half/bin/3d
      bin: standard
  (2) compute orientorder/atom, occasional
      attributes: full, newton on
      pair build: full/bin/atomonly
      stencil: full/bin/3d
      bin: standard
  (3) compute coord/atom, occasional
      attributes: full, newton on
      pair build: full/bin/atomonly
      stencil: full/bin/3d
      bin: standard
  (4) compute cluster/atom, occasional
      attributes: full, newton on
      pair build: full/bin/atomonly
      stencil: full/bin/3d
      bin: standard
Per MPI rank memory allocation (min/avg/max) = 9.847 | 9.852 | 9.856 Mbytes
Step Temp PotEng c_msd[4] v_twopoint v_fit v_max_n 
   12000    1.2377823   -6.5351824            0            0 8.3333333e+20            3 
   13000    1.2577255   -6.5518754   0.53266787 0.0034145375  0.043943215            2 
   14000    1.2442696   -6.5265373    1.0094477  0.006008617  0.041383639            7 
   15000    1.1925061   -6.5782414    1.4656048 0.0081422484  0.040119041            3 
   16000    1.2412375   -6.5260234    1.9721558  0.010271645  0.039966978            1 
   17000    1.2295358   -6.5145107    2.3745552  0.011639976  0.039345126            4 
   18000    1.2424784   -6.5433106    2.8431731  0.013162838  0.038926609            4 
   19000    1.2560692   -6.5650713     3.238398  0.014203499   0.03839014            3 
   20000    1.2558661   -6.5695523    3.6759325  0.015316385  0.037840923            3 
   21000    1.2512491    -6.559502    4.1778743  0.016578866   0.03772922            2 
   22000    1.2431891   -6.5715271    4.6306322  0.017540273  0.037826041            4 
   23000    1.2380133   -6.5397309    5.0271156  0.018214186  0.037729228            2 
   24000    1.2430133   -6.5517181    5.5217024  0.019172577  0.037659238            2 
   25000    1.2432432   -6.6060961     5.946065  0.019820216  0.037675179            3 
   26000    1.2581807   -6.5931836    6.3955151  0.020498445  0.037678225            2 
   27000    1.2168502   -6.5397722     6.827587  0.021072799  0.037608299            2 
   28000    1.2248608   -6.5457265     7.246005  0.021565491   0.03747968            3 
   29000     1.239429   -6.5831185    7.8249128  0.022485381  0.037508484            4 
   30000    1.2481153   -6.5898182    8.2618903  0.022949695  0.037576168            4 
   31000    1.2532165   -6.6208263    8.6533951  0.023261815  0.037627738            2 
   32000    1.2553462   -6.5969503    9.0816096  0.023650025   0.03759704            6 
   33000    1.2472746   -6.5504026    9.5163368  0.024031153   0.03753303            5 
   34000    1.2373558   -6.6060227    10.162549  0.024908208   0.03757271            2 
   35000    1.2277693   -6.5712746    10.531224  0.025074343  0.037675313            3 
   36000    1.2304499   -6.5648225     10.93062  0.025302362  0.037690312            2 
   37000    1.2499239   -6.5806619    11.390444  0.025654153  0.037673789            2 
   38000    1.2187795    -6.545688    11.865667    0.0260212  0.037673982            3 
   39000    1.2510011   -6.5692381    12.337338  0.026361833   0.03768793            2 
   40000    1.2616778   -6.5777017    12.791603  0.026649173  0.037714295            3 
   41000    1.2073692   -6.5832711    13.188768  0.026806439   0.03772572            2 
   42000    1.2415465    -6.589623    13.513691  0.026812878  0.037676538            2 
   43000    1.2282232   -6.6172622    14.052294  0.027233127   0.03762807            3 
   44000    1.2101198   -6.6179186    14.439774  0.027348057  0.037593595            3 
   45000    1.1968979   -6.5409713     14.92169   0.02763276  0.037568959            4 
   46000    1.2205572   -6.5809875    15.298489  0.027714653  0.037542135            2 
   47000    1.2547603   -6.6338968    15.820481  0.028050498  0.037515864            3 
   48000     1.237009   -6.5777771     16.27799  0.028260399   0.03750728            3 
   49000    1.2105916   -6.5712959    16.800193  0.028571756  0.037488899            4 
   50000    1.2409832   -6.6112194    17.310775  0.028851292  0.037505007            2 
   51000    1.2245952   -6.5725915    17.814323  0.029108371  0.037532166            1 
   52000    1.2337273   -6.6144035    18.091484  0.028992763  0.037548269            2 
   53000    1.2504568   -6.5617083    18.688228  0.029384006  0.037555608            4 
   54000    1.2410669   -6.5945686    19.083132  0.029449277  0.037564368            3 
   55000    1.2049155    -6.506879    19.643134  0.029762324  0.037579509            2 
   56000    1.2327678   -6.5829113    20.078167  0.029878224  0.037603617            5 
   57000    1.2502169   -6.5735297     20.51023  0.029985716  0.037633069            2 
   58000    1.2267653    -6.574797    21.087541  0.030298191  0.037658656            2 
   59000    1.2488837   -6.5964204    21.524781  0.030402233  0.037707157            3 
   60000    1.2441045   -6.5709851    21.854262  0.030353142  0.037732737            6 
   61000    1.2183458   -6.5912161    22.440762  0.030656779  0.037744852            1 
   62000    1.2382675   -6.5937494    22.717768  0.030534635  0.037760304            1 
   63000    1.2230653   -6.5845561    23.067759  0.030512909   0.03775479            2 
   64000    1.2287007   -6.5903119    23.450253  0.030534184  0.037737018            1 
   65000    1.2419338   -6.6611712    23.767271  0.030470861  0.037699051            2 
   66000    1.2084702   -6.5992616     23.99075  0.030291351  0.037638008            2 
   67000    1.2332349   -6.6328529    24.491466  0.030462022  0.037574296            3 
   68000    1.2370979   -6.5970301    24.846926  0.030449665  0.037517024            2 
   69000    1.2197649   -6.6392543    25.207896  0.030444318  0.037438328            2 
   70000    1.2230881   -6.5742006    25.754491  0.030660108  0.037369873            2 
   71000    1.2007771   -6.6188985    26.136597  0.030676756  0.037297988            3 
   72000    1.2055095   -6.6415004    26.501738  0.030673307  0.037225862            3 
   73000    1.2274665   -6.5745004    26.867005  0.030670096  0.037149538            2 
   74000    1.2534022   -6.5832377     27.24166  0.030677545  0.037075857            2 
   75000     1.247149   -6.6286967    27.729985  0.030811094  0.037006501            4 
   76000    1.2377911   -6.5997466    28.197123  0.030917898  0.036946938            4 
   77000    1.2281682   -6.6360646    28.502582   0.03084695  0.036889508            3 
   78000    1.2345368   -6.6098646    29.028404  0.031013252  0.036827928            3 
   79000    1.2156966   -6.6085051    29.447539  0.031062805  0.036778318            3 
   80000    1.1997526   -6.6269206     29.86914  0.031113688  0.036736552            2 
   81000    1.2318933   -6.5752672    30.055286  0.030921076  0.036684279            2 
   82000    1.2193381   -6.6081834     30.45257  0.030947733  0.036623273            2 
   83000    1.2109515   -6.6546744     30.66627  0.030789427  0.036550304            2 
   84000     1.227193   -6.5976374    31.240412  0.030992472  0.036480159            2 
   85000    1.2187918   -6.6021894    31.604264  0.030984572  0.036417888            4 
   86000    1.2183991   -6.6297019    32.047043  0.031053336  0.036362341            3 
   87000    1.2254975   -6.5914473     32.52491  0.031154128  0.036310614            2 
   88000     1.189191   -6.6136571    33.098223  0.031343014  0.036268034            2 
   89000    1.2329549   -6.6604215    33.619665  0.031479086  0.036238078            4 
   90000    1.1906852   -6.6087778    34.239349  0.031703101  0.036218971            2 
   91000    1.2305284   -6.6154413    34.542505   0.03163233  0.036204513            3 
   92000    1.2154033   -6.6506725    34.901787  0.031613938  0.036184752            4 
   93000    1.2374299   -6.5983576    35.304785  0.031635111  0.036156959            1 
   94000    1.2217388   -6.5823554    35.803276  0.031740492  0.036131335            3 
   95000    1.2104251   -6.6245661    36.189405  0.031745092  0.036108271            2 
   96000    1.2159338    -6.659147    36.392692  0.031590878  0.036075599            2 
   97000    1.2036034   -6.6439265     36.71232  0.031539794  0.036043744            3 
   98000    1.2319614   -6.6692303    37.010665  0.031471654  0.036009227            3 
   99000    1.2199037   -6.6514508     37.50964   0.03157377  0.035965931            1 
  100000    1.2302665   -6.6072521    38.074382  0.031728651  0.035929964            1 
  101000    1.2214053   -6.6550616    38.389288   0.03167433  0.035901793            4 
  102000    1.2416433   -6.6171942    38.851002  0.031741015  0.035866241            2 
  103000    1.2277204   -6.6594162    39.180887  0.031699746  0.035835458            2 
  104000    1.2392279   -6.6870371    39.580417  0.031715078  0.035807919            1 
  105000    1.2345533   -6.6157592    40.264639  0.031956063  0.035784383            3 
  106000    1.2310299    -6.600486    40.792455   0.03206954  0.035762051            3 
  107000    1.2068711   -6.6615886    41.108842  0.032016232  0.035747681            2 
  108000    1.2113653     -6.69848    41.258405  0.031835189  0.035728025            2 
  109000    1.2136594   -6.6699234    41.773551  0.031936966  0.035708429            2 
  110000    1.1968048   -6.6074896    42.651706  0.032311898  0.035701459            4 
  111000    1.2308119   -6.6623444    42.803418  0.032134698  0.035698598            3 
  112000    1.2344983   -6.6502779    43.652845  0.032479795  0.035697754            3 
  113000    1.1922674   -6.6626251    44.143431  0.032554152   0.03570111            7 
  114000    1.2177451   -6.6258202    44.653586   0.03264151  0.035715112            2 
  115000    1.2060526   -6.6357726     45.01622  0.032620449  0.035730418            2 
  116000    1.1980577   -6.6524086    45.382899  0.032602657  0.035740298            3 
  117000    1.2320985   -6.6674965    45.702419  0.032551581  0.035744588            4 
  118000     1.182863    -6.644542    46.081554   0.03254347  0.035747728            3 
  119000    1.2072741   -6.6391411    46.687539  0.032694355  0.035753074            5 
  120000     1.196896   -6.6574453    46.871592  0.032549717  0.035755136            2 
  121000    1.2081071   -6.6924397    47.277702  0.032560401  0.035751784            2 
  122000    1.2172643   -6.6984015    47.590568  0.032507219  0.035746358            4 
  123000    1.2107225   -6.6495422    48.330018  0.032743914  0.035742479            4 
  124000    1.1973955   -6.6860057    48.391303  0.032521037  0.035740591            1 
  125000    1.2061522   -6.6231958    49.108521  0.032739014   0.03573421            5 
  126000    1.2093798   -6.6505664    49.618246    0.0328163  0.035730823            2 
  127000    1.2087819   -6.6453762    49.956094  0.032779589  0.035730441            2 
  128000    1.2212375   -6.6857592    50.369739  0.032792798   0.03572921            2 
  129000    1.2397634   -6.6528784    51.092882  0.033005737  0.035733542            3 
  130000    1.1946649    -6.705195    51.181728    0.0328088  0.035740904            3 
  131000    1.2066185   -6.6344185     51.78803  0.032944039  0.035742001            1 
  132000    1.2050981   -6.6973658    51.696905  0.032636935  0.035741654            2 
  133000    1.2030087   -6.6981907    52.200425  0.032707033  0.035736047            2 
  134000    1.2187106     -6.68366    52.667668  0.032753525  0.035724243            3 
  135000    1.2156236   -6.6659918    53.040521  0.032741063  0.035713552            1 
  136000     1.199866   -6.6592806    53.503077  0.032783748  0.035700128            3 
  137000    1.1983292   -6.6925736    53.655975  0.032637454  0.035687822            5 
  138000    1.1925499   -6.6835418    54.300168  0.032789957  0.035677447            2 
  139000    1.1891133   -6.6732575    54.483938  0.032664231  0.035667061            2 
  140000    1.2155268   -6.6585909    54.936299  0.032700178  0.035654264            1 
  141000    1.2018103   -6.6556508    55.412752  0.032749854  0.035637752            3 
  142000    1.2266599   -6.7027059     55.70037  0.032688011  0.035618408            3 
  143000    1.2038505   -6.6634492    56.116573  0.032701965  0.035597772            3 
  144000    1.1882139   -6.6786065    56.662581  0.032790845  0.035584573            1 
  145000    1.2071454   -6.6794279     57.03021  0.032775983  0.035570017            2 
  146000    1.2024361   -6.6988499    57.328688  0.032721854  0.035557419            1 
  147000    1.2027573   -6.6854287    57.508896  0.032601415  0.035541103            3 
  148000    1.1808659   -6.6467835    57.986014  0.032649783  0.035522312            3 
  149000    1.2061708    -6.686616    58.676254  0.032816697  0.035503529            2 
  150000    1.2056948   -6.6428173     59.02843  0.032793572  0.035488683            3 
  151000    1.1978388   -6.6972018    59.605817  0.032895042   0.03547782            3 
  152000    1.2031774   -6.6903727    59.717253  0.032739722  0.035465098            2 
  153000    1.2026695   -6.7040733    59.873348  0.032610756   0.03544908            1 
  154000    1.1757968     -6.72958    60.160432  0.032554346   0.03542994            2 
  155000    1.1892165   -6.6697867    60.713192  0.032641501  0.035408559            6 
  156000    1.1896865   -6.6770247    61.162125  0.032672075   0.03538843            2 
  157000    1.1748387   -6.7268746    61.313493  0.032544317  0.035368086            3 
  158000     1.159562   -6.7039589    62.053766   0.03272878  0.035348998            9 
  159000    1.1637109   -6.6861671    62.515897  0.032765145  0.035330477            3 
  160000    1.1764317   -6.7221342    62.772807   0.03269417  0.035313606            7 
  161000    1.2101419   -6.7047996    63.572946  0.032905252  0.035296594            2 
  162000    1.1916354   -6.7250814    63.471413  0.032649903  0.035278971            3 
  163000    1.1807316   -6.7191419     63.80805  0.032621702   0.03525962            2 
  164000    1.1853815   -6.7033258    64.550405  0.032800003  0.035240849            3 
  165000     1.185125   -6.7089697    64.822708  0.032738742  0.035224042            3 
  166000    1.1974916   -6.7128981    65.363255  0.032812879  0.035206867            3 
  167000    1.1920389   -6.6655528    65.943729  0.032906053  0.035191645            2 
  168000    1.1771924   -6.7119009    65.892185  0.032684616  0.035177969            6 
  169000    1.1883861   -6.6675216    66.497584  0.032789736  0.035164091            2 
  170000    1.1812074   -6.7171764     66.68608  0.032689255  0.035150551            1 
  171000    1.1664196   -6.7352839    67.307755   0.03280105  0.035133365            5 
  172000    1.1637018   -6.6669133    67.967514  0.032929997  0.035119986            4 
  173000    1.1858692   -6.7397841     68.25116  0.032876281  0.035108863            2 
  174000    1.1888878   -6.7864076    68.546055  0.032828571  0.035099016            5 
  175000    1.2034432   -6.7239749    69.263979  0.032982847  0.035090643            3 
  176000    1.1900564   -6.6933706    69.878057  0.033086201  0.035085259            3 
  177000    1.1549061   -6.7093015    69.693526  0.032812395  0.035073504            5 
  178000    1.1845152   -6.6678875    70.051188    0.0327955  0.035056948            2 
  179000    1.1795394   -6.7069517    70.452229  0.032798989  0.035041524            2 
  180000    1.2029632   -6.7046048    70.644067  0.032705587   0.03502257            5 
  181000    1.1902316   -6.7308239    70.558055  0.032485292  0.035002705            1 
  182000    1.1814089   -6.7518393    70.722224  0.032381971  0.034979448            4 
  183000    1.1690215   -6.6888347    71.490825  0.032555021   0.03495237            3 
  184000    1.1867372   -6.7313852    71.692554  0.032469454  0.034926568            3 
  185000    1.1706069   -6.7302496    71.568756  0.032238178  0.034894684            2 
  186000    1.1785513   -6.6987908    72.200897  0.032348072  0.034862735            3 
  187000    1.1580468   -6.7490071    72.244776  0.032194642  0.034832044            3 
  188000    1.2003736   -6.7401916    72.797104   0.03226822  0.034801712            3 
  189000     1.179843   -6.7153432    73.252707  0.032298372  0.034771017            5 
  190000    1.1583208   -6.7474263     73.52879  0.032249469   0.03474182            2 
  191000    1.1799468   -6.6878676    73.805936  0.032201542   0.03471267            2 
  192000    1.1821229    -6.761158    74.221937  0.032214382  0.034683072            2 
  193000    1.1754104   -6.7538712    74.881473  0.032332242  0.034654409            2 
  194000    1.1946899   -6.7421957    75.180929  0.032294214  0.034628434            2 
  195000    1.1993343   -6.6994106    75.698924  0.032349968  0.034600364            3 
  196000    1.1643615   -6.7580721    75.938301  0.032286692  0.034575878            3 
  197000    1.1756462    -6.673562    76.742932  0.032463169  0.034551362            1 
  198000    1.1829286   -6.7088145    76.868976  0.032352262  0.034528136            2 
  199000     1.168608   -6.7275943     77.14345  0.032304627  0.034502843            2 
  200000    1.1539916   -6.7771614    77.441631  0.032267346  0.034478513            1 
  201000    1.1795424    -6.734588    77.825679  0.032266036  0.034455093            4 
  202000    1.1952209    -6.759738    78.018307   0.03218577   0.03443081            2 
  203000    1.1556604   -6.7381464    78.582276  0.032258734   0.03440543            2 
  204000    1.1766286   -6.7273246    78.894003  0.032227942  0.034381298            3 
  205000    1.1501961   -6.7683524     78.96987  0.032101573  0.034357167            4 
  206000    1.1665781   -6.7724753    79.464995  0.032146034  0.034329802            6 
  207000    1.1669945   -6.7351626    80.015109  0.032212202   0.03430587            3 
  208000    1.1733114   -6.7241154    80.490901  0.032247957  0.034282663            3 
  209000     1.184062   -6.7885016    80.324156  0.032027175  0.034256603            2 
  210000    1.1640503    -6.714571    81.144999  0.032200396  0.034231209            3 
  211000     1.157904   -6.7695321    80.915816  0.031957273  0.034205972            2 
  212000    1.1634567   -6.7498268    81.545017  0.032053859  0.034180433            5 
  213000    1.1655771   -6.7793194    81.776105  0.031993781  0.034152142            6 
  214000    1.2146168   -6.7791633    81.973103   0.03192099  0.034123621            1 
  215000    1.1673635   -6.7741677    82.386958  0.031932929  0.034094685            2 
  216000    1.1613157   -6.7686338    82.843147  0.031961091  0.034066198            6 
  217000    1.1779122   -6.7776576    83.307445  0.031992106  0.034037428            2 
  218000    1.1740923   -6.7543488    83.640636   0.03197272  0.034011217            2 
  219000     1.186471   -6.7504938    84.122556  0.032010105  0.033985701            1 
  220000    1.1963805   -6.7682456    84.038757  0.031832862  0.033956951            3 
  221000    1.1602443    -6.802665    83.955761  0.031657527  0.033927294            2 
  222000    1.1608329   -6.7685127    84.677766  0.031785948  0.033897177            2 
  223000    1.1803183   -6.7121192    85.346199  0.031893198  0.033868681            2 
  224000     1.140628   -6.7396992      85.5397  0.031822805  0.033839513            2 
  225000    1.1766395   -6.7500082    86.079563   0.03188132   0.03381249            4 
  226000    1.1946521   -6.7379064    86.022138  0.031719077  0.033783933            2 
  227000    1.1630375   -6.7824762    86.014863  0.031576675  0.033754669            4 
  228000     1.168192   -6.7921744    86.699246  0.031688321  0.033723264            7 
  229000    1.1558862   -6.7500329    86.872653  0.031613047  0.033692022            3 
  230000    1.1519872   -6.7479511    87.309155  0.031633752   0.03365985            4 
  231000    1.1409446   -6.7142204    87.588726  0.031597664  0.033627855            6 
  232000    1.1774096   -6.8033765     87.52804  0.031439669   0.03359596            2 
  233000    1.1704791   -6.7777726    87.998271  0.031472915  0.033562304            5 
  234000    1.1998749     -6.75522    88.301814  0.031446515  0.033530372            4 
  235000    1.1500733   -6.7906686    88.613213  0.031423125  0.033496718            3 
  236000    1.1288921   -6.7863901    88.679697  0.031313452  0.033462147            3 
  237000    1.1449153   -6.7431153    89.316095  0.031405096  0.033428679            2 
  238000    1.1503563   -6.8150676    89.321697  0.031275104  0.033394667            5 
  239000    1.1601047   -6.7306304    89.908046  0.031348691  0.033359691            2 
  240000     1.141854   -6.7717748    90.179847  0.031312447  0.033327909            3 
  241000    1.1299065   -6.7305836    90.956704  0.031451142  0.033296084            2 
  242000    1.1605079   -6.7828664    90.846488  0.031283226  0.033264253            6 
  243000    1.1513232   -6.7978938    91.797419  0.031480596  0.033236187            2 
  244000    1.1517592   -6.8026154    91.607812  0.031286821  0.033207447            2 
  245000    1.1451741   -6.8088724    91.981014  0.031286059  0.033178733            4 
  246000    1.1800884   -6.8218435    92.164789  0.031221134  0.033149605            5 
  247000    1.1670332   -6.7395511     92.93179  0.031353505  0.033120167            2 
  248000    1.1483446   -6.7849456    93.019485  0.031256547  0.033090008            3 
  249000    1.1616623   -6.7935502    93.395814  0.031256966  0.033060093            4 
  250000    1.1458507   -6.7531092    93.988453  0.031329484    0.0330325            3 
  251000    1.1395323    -6.789144     94.16768   0.03126417  0.033004945            3 
  252000    1.1332034   -6.8133264     94.55089  0.031266829  0.032977776            2 
  253000    1.1660609   -6.8344794    94.369468  0.031083487  0.032949556            3 
  254000    1.1248032   -6.7921411    95.040116   0.03118114  0.032920445            3 
  255000    1.1402679   -6.7427654     95.60591  0.031243761  0.032892698            4 
  256000    1.1565248   -6.7833627    95.590431  0.031116677  0.032863746            4 
  257000    1.1359746   -6.7501693    96.472384  0.031281577  0.032836331            7 
  258000    1.1454505   -6.7714695    96.749432  0.031249817  0.032810292            4 
  259000    1.1377325   -6.8223254     96.43088  0.031026667  0.032783013            3 
  260000    1.1603751   -6.8168858    96.795821  0.031024302  0.032754026            4 
  261000    1.1359805   -6.8374655    97.099906  0.031002524  0.032726741            2 
  262000    1.1439718   -6.7773759    97.686543  0.031070783  0.032700373            4 
  263000    1.1633018   -6.8206357    98.061054   0.03107131  0.032674821            1 
  264000    1.1226473   -6.7248552    99.322864  0.031351914  0.032651239            2 
  265000    1.1706905   -6.8103988    99.161411  0.031182834  0.032629105            2 
  266000    1.1532033   -6.7773512    99.622214  0.031209967  0.032607406            2 
  267000    1.1293331   -6.8053241    99.738805  0.031129465  0.032584476            4 
  268000     1.139811   -6.7939529    100.30812  0.031190335  0.032562244            3 
  269000    1.1592323   -6.8454022    100.36665  0.031092517  0.032539816            3 
  270000    1.1399516   -6.7767017    100.46134  0.031006586  0.032514982            3 
  271000     1.131644   -6.7612065    101.38277  0.031175512  0.032490722            4 
  272000    1.1260559   -6.8061989    101.18495  0.031000292  0.032466629            9 
  273000    1.1577551    -6.832515    101.48006  0.030976819  0.032442413            5 
  274000    1.1404216   -6.8102816    101.90583  0.030993258  0.032417714            4 
  275000    1.1443296   -6.8238217    102.09097  0.030936656  0.032392808            2 
  276000    1.1427511   -6.7621756    102.94632  0.031082825  0.032369255            1 
  277000     1.131389   -6.8297119    103.06683  0.031006867   0.03234694            2 
  278000    1.1333969   -6.8051526    103.43533  0.031005794    0.0323251            3 
  279000    1.1594822   -6.8135779    103.79614  0.031002431  0.032303898            5 
  280000    1.1428642   -6.7818684    104.13183  0.030991616  0.032281909            4 
  281000    1.1299477   -6.8407722    104.11249  0.030875589  0.032258617            6 
  282000    1.1402481    -6.833149    104.31311  0.030825388  0.032235097            6 
  283000    1.1382811   -6.7842371    104.81442  0.030864081  0.032211302            2 
  284000    1.1346674   -6.8331593    104.85177  0.030766363   0.03218813            4 
  285000    1.1458445    -6.825587    105.53244  0.030857439  0.032162916            2 
  286000    1.1307934   -6.8025726    106.06766  0.030905494  0.032138956            3 
  287000    1.1474698   -6.7681904    106.50858  0.030925837  0.032116872            3 
  288000    1.1505711   -6.7724341    106.99763  0.030959964  0.032096365            3 
  289000    1.1254719   -6.8867404    106.68129  0.030761619  0.032074181            3 
  290000    1.1258842   -6.8618495    106.96961  0.030738393  0.032050212            4 
  291000    1.1403514   -6.8715411     107.1497  0.030684336  0.032026044            2 
  292000    1.1497102   -6.7938656    107.93172  0.030802431  0.032003578            1 
  293000    1.1327868    -6.829359    108.12277  0.030751642  0.031982879            2 
  294000    1.1347895   -6.8922034    107.77304  0.030547914  0.031959923            2 
  295000    1.1298669   -6.8486696    108.60869  0.030680421  0.031936145            3 
  296000     1.144709    -6.804529    108.72718   0.03061013  0.031912842            3 
  297000    1.1450372   -6.8482124    108.64431  0.030483814  0.031887542            2 
  298000    1.1353203   -6.8486278    108.73348  0.030406453  0.031861679            3 
  299000    1.1226912   -6.8554289    109.37541  0.030483669  0.031835487            2 
  300000    1.1183395   -6.8371816     109.9008  0.030527999  0.031811261            2 
  301000    1.1587007   -6.7983793    110.26088  0.030526269  0.031787096            2 
  302000    1.1221871   -6.8718023    110.35541  0.030451271  0.031762175            4 
  303000    1.1194278   -6.8877867    110.42295  0.030369349  0.031736492            2 
  304000    1.1392564   -6.8344726    111.19144  0.030480109  0.031710642            3 
  305000    1.1278653   -6.8530418     110.8225  0.030279373  0.031684726            4 
  306000    1.1445044   -6.8630521    111.65497  0.030407126  0.031658955            4 
  307000    1.1187406   -6.8926059    111.39126  0.030236498   0.03163366            4 
  308000    1.1421371   -6.8910901    111.86503  0.030266514  0.031607297            5 
  309000    1.1489553   -6.8719887    111.92514  0.030184774   0.03157995            3 
  310000    1.1456555   -6.9056808    111.84722  0.030066456  0.031551266            5 
  311000    1.1314835   -6.9238257    112.23285  0.030073111  0.031523265            4 
  312000    1.1108134   -6.8435055    113.03732  0.030191591  0.031495867            3 
  313000    1.1183244   -6.8290041    112.96999  0.030077207  0.031468924            3 
  314000    1.1442468   -6.8213833    113.73693  0.030184961   0.03144228            1 
  315000    1.1263605   -6.8194216     114.1797  0.030206271  0.031415836            3 
  316000    1.1278885   -6.8343859    114.58225  0.030216837  0.031389985            2 
  317000    1.1252734   -6.8957365    114.43807  0.030083616  0.031363931            2 
  318000    1.1207158   -6.8602975    115.17043   0.03018093  0.031339092            3 
  319000    1.1533292   -6.8385637     115.6621  0.030214759  0.031315231            3 
  320000    1.1250957   -6.8982324    115.65898  0.030119526  0.031291481            3 
  321000    1.1185583   -6.8659734    116.05809  0.030129306  0.031267213            3 
  322000    1.1502584   -6.8413155    116.27328  0.030091429  0.031243791            3 
  323000    1.1199696   -6.8503971    116.95397  0.030173882  0.031219674            3 
  324000    1.1440864   -6.8202133    117.00063  0.030092755  0.031196131            2 
  325000    1.0834483   -6.8991239    117.06404   0.03001642  0.031171587            4 
  326000    1.1396681   -6.8770289    117.45576  0.030024477  0.031147693            2 
  327000    1.1372863   -6.8697549    118.19565  0.030121217  0.031124886            4 
  328000    1.1305445   -6.8526087    118.14309   0.03001603  0.031101424            7 
  329000     1.123835   -6.8688203    118.40582  0.029991344  0.031077937            3 
  330000    1.0977045    -6.885686     118.5169  0.029928509  0.031054461            3 
  331000    1.1307901   -6.8308968    118.97541  0.029953527  0.031031519            3 
  332000    1.1065318   -6.8980491    119.23089  0.029927432  0.031008972            3 
  333000    1.1139032   -6.8364971    119.91845  0.030009621  0.030986488            1 
  334000    1.1183992   -6.8838152     119.9181  0.029919684  0.030963647            4 
  335000    1.1073561   -6.8518658    120.29229  0.029923454  0.030941753            3 
  336000    1.1204609    -6.867679    120.28035  0.029831436  0.030919095            5 
  337000    1.1596743   -6.8702655     120.6593  0.029836622  0.030895645            3 
  338000    1.1145543   -6.8491302    120.78248  0.029778718  0.030871749            2 
  339000    1.1351069   -6.9214845    120.67373  0.029664143  0.030847366            2 
  340000    1.1282115   -6.8801868    121.07694   0.02967572  0.030822702            2 
  341000    1.1182851   -6.8852604     121.7869  0.029762195  0.030799851            4 
  342000     1.153865   -6.9021453    121.94815  0.029714461   0.03077588            4 
  343000    1.1156016   -6.9138666    121.83231  0.029599687  0.030751617            2 
  344000    1.1200514   -6.9224085    122.30068  0.029627102  0.030728189            3 
  345000    1.1066457   -6.9055406    122.52384  0.029595129  0.030704306            2 
  346000    1.1466834   -6.8641771     123.0889  0.029645689  0.030680045            2 
  347000    1.1363258   -6.8633025    123.84897  0.029742787  0.030656008            6 
  348000    1.1160341   -6.8741593    123.43423  0.029558005  0.030631291            3 
  349000    1.0683132   -6.8985631    123.95709   0.02959816  0.030606127            4 
  350000    1.1112734   -6.9159375    123.77485  0.029470203  0.030581872            5 
  351000    1.0962335     -6.89357    124.00649  0.029441237  0.030557731            3 
  352000    1.1253674   -6.9215075     123.8647  0.029324029  0.030532491            6 
  353000    1.1142035   -6.9086327    124.69653   0.02943733  0.030506856            2 
  354000    1.0939928    -6.912634    124.81679  0.029382484  0.030483114            2 
  355000    1.0888083    -6.885213    125.69059  0.029504832  0.030459565            4 
  356000    1.1153966    -6.897285    125.65495  0.029413611  0.030435499            4 
  357000    1.1127387   -6.8794492    125.99709  0.029411086  0.030412114            3 
  358000    1.1196544   -6.9148234    126.00746  0.029331345  0.030387947            3 
  359000    1.1205361    -6.880313    126.41709  0.029344728  0.030364157            1 
  360000    1.1178386   -6.9292305    126.49615  0.029281515  0.030339272            3 
  361000    1.0881534   -6.9457366    126.89102  0.029291555  0.030314499            5 
  362000    1.1130713   -6.9220082    127.38564  0.029324503  0.030290518            4 
  363000    1.0925656   -6.9211934    127.87752  0.029356639  0.030266485            2 
  364000    1.1189728   -6.9256962    127.95359  0.029293404  0.030242793            3 
  365000    1.0944906   -6.9038392    128.38106  0.029310745  0.030219539            3 
  366000    1.0919208   -6.8985256    128.28622  0.029209066  0.030196005            3 
  367000    1.1340658   -6.9343688     127.9989  0.029064238  0.030171167            4 
  368000    1.1065607    -6.967939     128.5275  0.029104959  0.030146127            2 
  369000    1.1054037    -6.937519    129.08233  0.029151385  0.030122387            2 
  370000    1.1278169   -6.9119852    129.33444  0.029129378  0.030098491            2 
  371000    1.1166479   -6.9494288    129.66961  0.029126147  0.030074905            3 
  372000    1.1037463   -6.9327865    130.47838  0.029229028  0.030051901            3 
  373000    1.0908764   -6.8552891      131.098  0.029289097  0.030030563            6 
  374000    1.1021076   -6.9772691    130.47923  0.029072912  0.030008794            6 
  375000    1.0926615   -6.8962762    131.25518  0.029167819  0.029986219            3 
  376000    1.1133296   -6.9170991    131.12912  0.029062306  0.029963007            4 
  377000    1.0961656   -6.9528921     131.2604  0.029014236  0.029940056            3 
  378000    1.1023344   -6.9395524    131.22787  0.028930306  0.029916896            5 
  379000    1.1053405   -6.9469682    131.59545  0.028934796  0.029892982            3 
  380000    1.1241859   -6.8817714    131.66156  0.028873148  0.029868194            5 
  381000    1.1302433   -6.9191624    132.41269  0.028961655  0.029844088            3 
  382000    1.1203368    -6.868299     132.8543  0.028982178    0.0298198            4 
  383000    1.0833018   -6.9547776    132.25236  0.028775536  0.029794611            8 
  384000    1.0861459   -6.9793507     132.5745  0.028770508  0.029769935            1 
  385000    1.1076698   -6.9786738    132.85565  0.028756634  0.029745127            5 
  386000     1.133989   -6.9319653    133.58235  0.028839023  0.029721598            3 
  387000     1.101581   -6.9086305    133.38933  0.028722939  0.029697576            5 
  388000    1.0558492    -6.977975    133.81893   0.02874118  0.029673359            2 
  389000    1.1134067   -6.9540649    133.95114  0.028695616  0.029648813            9 
  390000    1.0949217   -6.9657369    134.02534  0.028637894  0.029623778           11 
  391000    1.1227482   -6.9414513     134.3948  0.028643394  0.029598898            6 
  392000    1.0721063   -6.9173423    134.87034  0.028671417  0.029574714            4 
  393000    1.1214529   -6.9189357    135.34861  0.028699876  0.029551065            5 
  394000    1.1134669   -6.8838902    135.83039  0.028728931  0.029528253            3 
  395000    1.0925971   -6.9569963    135.54236  0.028595435  0.029505316            2 
  396000    1.0801989   -6.9181332    136.01957  0.028623647  0.029482668            4 
  397000    1.0858861   -6.9523892    136.28703  0.028607689  0.029459568            4 
  398000    1.1143229   -7.0124405    135.96748  0.028468902   0.02943591            4 
  399000    1.1112098   -6.9499293    136.72027  0.028554776   0.02941266            1 
  400000    1.0981273   -6.9732921    137.10799  0.028564165  0.029389334            3 
  401000    1.1051921   -6.9690423    136.97095  0.028464454   0.02936557            3 
  402000    1.1115664   -6.9835443    137.20968  0.028443134  0.029342464            5 
  403000    1.1182178   -6.9581814    137.57031  0.028447127  0.029319611            3 
  404000    1.0830943   -6.9376155    138.14657   0.02849558  0.029296806            3 
  405000    1.1011669   -6.9103758    138.62219  0.028523083  0.029274422            3 
  406000    1.0761539   -6.9840011     138.5237  0.028432616  0.029251904            4 
  407000    1.0804952   -6.9937227    139.10539  0.028481858  0.029229398            3 
  408000     1.086149   -6.9658082    139.44866   0.02848216  0.029206798           11 
  409000    1.0798195   -6.9872623    139.13848  0.028349323  0.029184506            4 
  410000    1.0928162    -6.949535    140.14583  0.028484925  0.029162354            4 
  411000    1.1015528   -6.9817474    139.97471  0.028380922  0.029140091            2 
  412000    1.0626976   -6.9594239     140.6372  0.028446035  0.029118311            3 
  413000    1.0820029   -6.9614587    140.70911  0.028391668  0.029096835            5 
  414000    1.1130206   -6.9516604    141.13544  0.028408904   0.02907502            3 
  415000    1.0797631   -7.0010769    140.62794  0.028238543   0.02905291            4 
  416000    1.0732527   -6.9846654    141.08557  0.028262334  0.029030137            5 
  417000    1.0705617   -7.0072595    141.10154  0.028197749  0.029007183            2 
  418000    1.0695754   -6.9993786    141.62474  0.028234597  0.028984533            2 
  419000    1.1007746   -7.0043677    141.97054  0.028235986  0.028961977            6 
  420000    1.0887715   -6.9374036    142.91899  0.028356943  0.028939759            3 
  421000    1.0959684   -6.9916593    142.64617  0.028235584  0.028917746            2 
  422000      1.07562   -7.0031197    142.28816  0.028097978  0.028895188            4 
  423000     1.099995   -6.9901997    142.56653  0.028086394  0.028872431            3 
  424000    1.0993056   -6.9488545    142.90704  0.028087075  0.028849433            4 
  425000    1.0968077   -6.9279696     143.3662  0.028111019   0.02882658            4 
  426000    1.0955832   -6.9595026    142.99894  0.027973189  0.028803417            2 
  427000    1.0811651   -6.9666867    143.48014  0.028001589   0.02878019            2 
  428000    1.0926541   -6.9695747    143.55951  0.027951618  0.028756472            3 
  429000    1.0516013   -6.9771682    144.04649  0.027981059  0.028733034            4 
  430000    1.0823153   -6.9671401    144.40632   0.02798572  0.028708952            3 
  431000     1.068047   -6.9893779    144.27707  0.027895798  0.028685565            4 
  432000    1.0817878   -6.9586773    145.10274  0.027990497   0.02866308            6 
  433000    1.0892767   -6.9628823    145.27517  0.027959039  0.028640617            3 
  434000     1.071186   -7.0143618    145.16218  0.027872922  0.028617876            2 
  435000    1.0794048   -6.9756819    145.76516   0.02792436  0.028595495            2 
  436000    1.0680004   -7.0476717    145.18686  0.027749783  0.028573345            3 
  437000    1.0654727   -6.9702794     146.2775  0.027894261  0.028551034            5 
  438000    1.0890777   -6.9895755    146.58751  0.027889556  0.028528891            4 
  439000    1.0851058   -7.0275353     146.2469  0.027761371  0.028507035            3 
  440000    1.0831558   -7.0081998    146.70674  0.027785368  0.028485043            2 
  441000    1.1230455   -6.9912215     146.7062   0.02772226  0.028463558            3 
  442000    1.0742386   -6.9507384    147.61624  0.027831115  0.028441839            2 
  443000    1.0824846   -7.0083916    147.53756  0.027753492  0.028419864            5 
  444000    1.0757756   -7.0023078    147.77757   0.02773603  0.028397793            2 
  445000    1.0597784   -7.0110665    148.16457  0.027746174  0.028375628            3 
  446000     1.079111   -6.9759882     148.7736  0.027797757  0.028353701            2 
  447000    1.0651171    -7.018843    148.64839  0.027712228  0.028331874            2 
  448000    1.0724849   -6.9632221    149.08051   0.02773075  0.028310386            6 
  449000    1.0839966   -6.9853846    149.11355   0.02767512  0.028288575            2 
  450000    1.0758475   -6.9964722    149.41637  0.027669699  0.028267151            3 
  451000    1.0771272   -7.0141516    149.33942  0.027594128  0.028245451            3 
  452000    1.0815975   -7.0104872    150.35648  0.027720589  0.028224221            6 
  453000    1.0770802   -6.9972452    151.16271  0.027807709  0.028203224            2 
  454000    1.0553992   -6.9864685    150.84828  0.027688745  0.028182645            3 
  455000    1.0749241   -7.0233546    151.17473   0.02768768  0.028161979            2 
  456000    1.0482997   -7.0219007    151.49951  0.027686315  0.028141407            5 
  457000    1.0821901   -7.0293022    151.18884  0.027569081   0.02812064            2 
  458000    1.0699512   -7.0032031      151.418  0.027550581  0.028099773            3 
  459000    1.0642687    -6.980665    152.27223  0.027645647  0.028079986            3 
  460000     1.054491   -6.9978154    152.28279  0.027587462  0.028060174            4 
  461000    1.0720827   -7.0221345    152.38996  0.027546992  0.028039327            6 
  462000     1.069049   -7.0284346    152.21902  0.027456533   0.02801836            6 
  463000    1.0673842   -7.0386497    152.19132  0.027392246    0.0279969            4 
  464000    1.0713082   -7.0189082    152.74335  0.027432354  0.027975198            3 
  465000      1.07559   -6.9994552    152.78783  0.027381332  0.027953462            3 
  466000    1.0725975   -7.0023936    153.14074  0.027385682  0.027932289            7 
  467000    1.0463143   -7.0498141    153.09955  0.027319692  0.027910523            4 
  468000    1.0751571   -7.0428549    153.61127  0.027352434  0.027888809            4 
  469000    1.0616947   -7.0708333    153.49457  0.027273377  0.027867244            4 
  470000    1.0650872   -7.0610173    153.10992  0.027147149  0.027845745            3 
  471000      1.07293   -6.9740825    154.38129  0.027314453  0.027824036            4 
  472000    1.0867748   -6.9956303    154.71357  0.027315249  0.027802579            2 
  473000    1.0413664   -7.0476884    153.88054  0.027110736  0.027780163            4 
  474000    1.0493419   -7.0423532    154.20183  0.027110026  0.027757487            3 
  475000    1.0506557   -7.0037599    154.64756  0.027131151  0.027735435            2 
  476000    1.0847089   -7.0328537    154.31709  0.027016297  0.027712867            4 
  477000    1.0477398   -7.0080217    155.09595  0.027095729  0.027690688            4 
  478000    1.0582197   -7.0434325    155.50067  0.027109601   0.02766852            5 
  479000     1.066358   -7.0519004     155.6843  0.027084952  0.027646675            7 
  480000    1.0588312   -7.0408413    155.85845  0.027058759  0.027624747            2 
  481000    1.0524727   -7.0359713    156.14838  0.027052734   0.02760361            3 
  482000     1.058281   -7.0622637    156.45089   0.02704891  0.027581781            4 
  483000     1.068784    -7.051483    156.59306  0.027017436  0.027559774            3 
  484000    1.0515179   -7.0302234    156.41475  0.026930914  0.027537501            2 
  485000    1.0468228   -7.0093646    157.21303  0.027012548  0.027515452            3 
  486000    1.0811923   -7.0100531    157.15425  0.026946887  0.027493186            3 
  487000    1.0778254   -7.0371885    157.14218  0.026889489  0.027471031            5 
  488000    1.0528594   -7.0693705    157.28567  0.026858892  0.027448984            4 
  489000    1.0825328   -7.0428058    157.95025  0.026917221  0.027427182            4 
  490000       1.0647   -7.0648327    158.33457  0.026927648     0.027406            5 
  491000    1.0845669   -7.0252223    158.56666  0.026912196  0.027385008            3 
  492000    1.0490574   -7.0469598    158.42266  0.026833106  0.027364238            4 
  493000    1.0644812   -7.0746199     158.5232  0.026795673  0.027342768            2 
  494000    1.0511397   -7.0719431    158.78756  0.026786026  0.027321122            4 
  495000    1.0548662   -7.0672854    158.85196  0.026742753  0.027298786            5 
  496000    1.0435613   -7.1015798    158.65846  0.026656327  0.027276497           12 
  497000    1.0613354   -7.0265861    159.19008   0.02669183  0.027253772            7 
  498000    1.0398795   -7.0928118     158.9375  0.026595968  0.027231265            5 
  499000    1.0459843   -7.0721869    159.38506  0.026617411  0.027208497            2 
  500000    1.0661988   -7.0542208    159.48237  0.026580396  0.027186042            3 
  501000    1.0651954   -7.0853608    159.61287  0.026549047  0.027162992            4 
  502000    1.0761853   -7.0735394    159.98046  0.026557181  0.027140117            7 
  503000    1.0744708   -7.0680073    160.57614  0.026603071  0.027117307            4 
  504000     1.047101   -7.0885335     159.6003  0.026388939  0.027094565            3 
  505000    1.0548859   -7.0773337    160.20755   0.02643689  0.027071634            4 
  506000    1.0591381   -7.0222017    160.99497  0.026514323  0.027048729            2 
  507000    1.0431627   -7.0509818    161.07084  0.026474497  0.027026586            2 
  508000     1.022092   -7.0293636    161.03002  0.026415686  0.027004027            3 
  509000    1.0496581   -7.0719521    160.82034   0.02632946  0.026981748            3 
  510000    1.0502918   -7.0680717    161.37449   0.02636838  0.026959396            6 
  511000    1.0451084   -7.1057878    161.21471  0.026290722  0.026936172            5 
  512000    1.0665813   -7.0775883    161.75681  0.026327606  0.026913296            3 
  513000    1.0531612   -7.0940826    162.26198  0.026358346  0.026890852            3 
  514000    1.0757949   -7.0866214    162.04455  0.026271815  0.026868662            3 
  515000    1.0422207   -7.0630284    162.19679  0.026245435  0.026846534            3 
  516000    1.0574342   -7.0660185     162.7862  0.026289761  0.026824108            6 
  517000    1.0542543   -7.0619211    163.78672  0.026400181  0.026802111            7 
  518000    1.0582232   -7.0794855    163.17771   0.02625124  0.026780044            5 
  519000    1.0406107    -7.080166    163.34991   0.02622831  0.026757849            3 
  520000    1.0513245   -7.0697427    163.25022  0.026161894  0.026735444            3 
  521000    1.0419058   -7.0915341    163.42804  0.026140122  0.026712866            6 
  522000    1.0554162   -7.0853101     163.7527  0.026141874  0.026690523            3 
  523000     1.048252   -7.0591136    164.24973  0.026171085  0.026668544            4 
  524000    1.0623786   -7.1207135    163.82618  0.026053782  0.026646485            7 
  525000    1.0581479   -7.0827941    164.23275  0.026068691  0.026623833            4 
  526000    1.0194798   -7.1209697    164.76086  0.026102797   0.02660139            3 
  527000    1.0371031   -7.0978983    164.04448  0.025939987  0.026579104            8 
  528000    1.0546752   -7.0724046    165.10846  0.026058785  0.026556622            4 
  529000    1.0554939   -7.0608483    165.72645  0.026106877  0.026534316            3 
  530000    1.0438566   -7.0972272    165.61613  0.026040271  0.026512355            3 
  531000    1.0458636   -7.1112795    165.52729  0.025977289  0.026490155            3 
  532000    1.0410824   -7.1053685    165.98236  0.025999743  0.026468059            4 
  533000    1.0022292   -7.1136107    166.16433  0.025979414  0.026446397           11 
  534000    1.0765156   -7.0768034     166.8326  0.026035051  0.026425205            3 
  535000    1.0567342   -7.1011004    166.55942  0.025943835  0.026403871            6 
  536000    1.0299177   -7.1443507    166.80791  0.025934066  0.026382697            4 
  537000    1.0378463   -7.0902219    167.82455  0.026043536  0.026361794           10 
  538000    1.0420869   -7.1185153    167.66736   0.02597078  0.026340927            2 
  539000    1.0336015   -7.1192002    167.97638  0.025970374  0.026320398            5 
  540000    1.0290018   -7.1354672    167.64624  0.025871333  0.026300176            6 
  541000    1.0265083   -7.0783916    168.64676  0.025977627  0.026279912            4 
  542000    1.0325961   -7.0733935    169.02289  0.025987529  0.026259629            2 
  543000    1.0303817   -7.1252254    168.24957  0.025820989  0.026239414            4 
  544000    1.0222554   -7.1261482    168.50029  0.025811932  0.026218756            5 
  545000    1.0323089   -7.1104102    168.88911  0.025824022  0.026197794            8 
  546000    1.0429097   -7.1564979    168.80647  0.025764113  0.026176696           13 
  547000    1.0158538    -7.102305    169.04012  0.025752608  0.026155894            5 
  548000    1.0185895   -7.1096661    169.80295  0.025821616  0.026135255            3 
  549000    1.0476565   -7.1143152    170.20421  0.025835491  0.026114851            2 
  550000    1.0381054   -7.1450391    169.36947   0.02566204  0.026094162            2 
  551000    1.0303975   -7.1338435     169.9381  0.025701468  0.026073418            4 
  552000     1.032067    -7.134546    170.26902  0.025704864  0.026052669            2 
  553000    1.0167118   -7.1621247    170.11317  0.025634896  0.026031825            4 
  554000    1.0242312    -7.099328    170.57944   0.02565876  0.026011237            3 
  555000    1.0342567    -7.107558    171.01062  0.025677271  0.025991262            5 
  556000     1.042745   -7.1280545    171.21661  0.025661962  0.025971545            6 
  557000     1.035834   -7.1514863    171.24934  0.025620786  0.025952016            2 
  558000    1.0251703   -7.1271294    172.03642  0.025692417  0.025932556            2 
  559000    1.0397659    -7.138928    171.57346  0.025577439  0.025912784            6 
  560000      1.00496   -7.1277927    172.10257  0.025610502  0.025893115            8 
  561000    1.0089399    -7.116325    172.63248  0.025643565  0.025873672            5 
  562000    1.0432864   -7.1294035    172.33789  0.025554253  0.025853785            3 
  563000    1.0371757   -7.1312979    172.31931  0.025506115  0.025833962            4 
  564000    1.0246979   -7.1575941    172.38549   0.02547067  0.025813748            3 
  565000    1.0529019   -7.1461132    172.70221  0.025472302  0.025793444            4 
  566000    1.0158907   -7.1217075    173.18282  0.025498059  0.025773746            2 
  567000    1.0191941   -7.1548746    173.23541  0.025460819  0.025753999            2 
  568000    1.0098725   -7.1294646     173.5479   0.02546184  0.025733949            6 
  569000    1.0421718   -7.1714416    173.04069  0.025342808  0.025714051            4 
  570000    1.0535003    -7.162674    173.02658  0.025296284  0.025693572            4 
  571000    1.0403101   -7.1299759    174.25181  0.025430795  0.025673449            3 
  572000    1.0288149   -7.1421286    173.98908   0.02534806  0.025653398            5 
  573000    1.0265111    -7.175997    174.37802  0.025360387  0.025633411            4 
  574000    1.0206906    -7.128789    174.76012  0.025371678  0.025613867            3 
  575000     1.016013    -7.173077    174.52911  0.025294074   0.02559378            6 
  576000    1.0519779   -7.1556203    174.77059  0.025285097  0.025573611            5 
  577000    1.0332201   -7.1491054    175.01252  0.025276215   0.02555344            4 
  578000     1.033993   -7.1127434    175.42386   0.02529179   0.02553323            5 
  579000    1.0093516   -7.1396649    174.80233  0.025158655   0.02551324            2 
  580000    1.0399509   -7.1432945    175.12529   0.02516168  0.025492901            6 
  581000    1.0288001   -7.1572505    175.44862  0.025164748  0.025472543            4 
  582000    1.0292671   -7.1725435     175.0805    0.0250688  0.025451743            5 
  583000    1.0061739   -7.1613194    175.61934  0.025102822  0.025430683            3 
  584000    1.0229639   -7.1811525    175.62272   0.02506032  0.025409959            4 
  585000    1.0375689   -7.1902049    175.78031  0.025039931  0.025389647            4 
  586000    1.0124474   -7.1912777    175.44043  0.024948867  0.025368633            5 
  587000    1.0155307   -7.1377699    176.39064  0.025041261  0.025347975            7 
  588000    1.0132474    -7.163554    176.01154  0.024944947  0.025327419            3 
  589000    1.0277976   -7.1590684    176.70538  0.025000762  0.025306479            5 
  590000    1.0432957   -7.1516697    176.82027  0.024974614  0.025285856            9 
  591000    1.0285873   -7.1925039     176.9888   0.02495612   0.02526525           10 
  592000   0.97814111   -7.1617949    176.98581  0.024913543  0.025244646            4 
  593000    1.0320368   -7.1620257    177.07104  0.024883508  0.025224215            3 
  594000     1.008253   -7.1770216    177.58581  0.024913834  0.025203813            4 
  595000    1.0231196   -7.1478672    177.33521  0.024836865  0.025183497           10 
  596000    1.0050814   -7.1482049    178.22015  0.024918925  0.025163111            3 
  597000    1.0238926   -7.1746014    178.06767  0.024855901  0.025142855            3 
  598000     1.025603   -7.1971545    178.14968  0.024825764  0.025122808            4 
  599000     1.019387   -7.2097962    178.60299  0.024847383  0.025102652            6 
  600000    1.0268271   -7.1572072     178.6341  0.024810292  0.025082562            2 
  601000    1.0060773   -7.1495599    178.72394  0.024781467  0.025062863            4 
  602000    1.0207635   -7.1961757    178.47673  0.024706081  0.025042644            6 
  603000    1.0177742   -7.1889734    178.83111  0.024714083   0.02502207            4 
  604000    1.0016794    -7.164142    179.59882  0.024779087  0.025001819            4 
  605000    1.0041825    -7.191999    179.93246  0.024784085    0.0249818            6 
  606000    1.0072488   -7.1591859    180.45064  0.024814444  0.024962049            5 
  607000     1.013623   -7.1768064    179.56534  0.024652023   0.02494232            6 
  608000    1.0246216   -7.1882673    180.24961  0.024705265  0.024922333            6 
  609000    1.0028834   -7.1754367     179.8568  0.024610947  0.024902331            4 
  610000    1.0209393   -7.1823553    180.54826  0.024665062   0.02488232            4 
  611000    1.0277408   -7.2089256     180.2155   0.02457931  0.024862067            4 
  612000    1.0042024   -7.1628173    180.93885  0.024637643  0.024841933            2 
  613000    1.0223345   -7.2171924    180.54842  0.024544375  0.024821793            4 
  614000    1.0297533    -7.187558    181.00932  0.024566954  0.024801908            7 
  615000    1.0126318   -7.1826728    181.61001  0.024608402  0.024781853            4 
  616000   0.99579618   -7.1864465    181.44001  0.024545456  0.024761794            3 
  617000    0.9900225   -7.2221272    180.68324  0.024403463  0.024741843            3 
  618000    1.0091046   -7.1746034    181.72339  0.024504233  0.024721901            5 
  619000   0.99168594   -7.1619857    181.88644  0.024486597  0.024701879            4 
  620000    1.0287237   -7.1609839     182.4437  0.024522002  0.024682617            2 
  621000    0.9986554   -7.1761879     181.9703  0.024418989  0.024663493            4 
  622000    1.0094629   -7.2008641    182.59403  0.024463294  0.024644222            5 
  623000     1.003916   -7.2233445    182.84029  0.024456968  0.024625237            2 
  624000    1.0195449   -7.2220886    182.67582   0.02439581  0.024605875            3 
  625000    1.0168231   -7.2167111     182.5027  0.024333694  0.024586487            6 
  626000    1.0035863   -7.1555966    183.95768  0.024488508  0.024567225            3 
  627000   0.99754179   -7.1866728    183.37523  0.024372041  0.024547849            2 
  628000     1.014172   -7.1605208    184.16081  0.024437475  0.024528804            6 
  629000    1.0008084   -7.1909259    183.98317  0.024375088  0.024509941            5 
  630000    1.0042628   -7.2465434    183.39895  0.024259121  0.024490684            2 
  631000    0.9907708    -7.235807    183.89083  0.024285636  0.024471484            9 
  632000    1.0131004   -7.2336227    183.83647  0.024240041  0.024451982            7 
  633000   0.97758684    -7.218833    184.95428  0.024348905   0.02443261            5 
  634000    1.0081847   -7.2249998    183.91511  0.024173911  0.024413218            3 
  635000    1.0044076   -7.2336686    184.48519  0.024210655  0.024394072            7 
  636000   0.99148885   -7.2140699    184.91054   0.02422832    0.0243748            7 
  637000   0.99428118   -7.2363402    184.49495  0.024135917  0.024355394            3 
  638000      1.00152   -7.2473451    184.86388  0.024146275  0.024336254            6 
  639000   0.99231889   -7.2146857    185.65743  0.024211976  0.024316809            4 
  640000   0.97849616   -7.1909221    185.82777  0.024196324  0.024297759            5 
  641000    0.9690763   -7.2275232    185.84006  0.024160174  0.024278638            6 
  642000   0.97819171   -7.2082063    185.91046   0.02413168  0.024259191            3 
  643000    1.0263163   -7.2446118    185.59842  0.024053709  0.024239962            5 
  644000    1.0143129   -7.2214953    186.23378  0.024098574  0.024220372            3 
  645000   0.98209116   -7.2040277    186.05389   0.02403797  0.024200882            3 
  646000   0.98673378   -7.2209182    186.48311  0.024056129  0.024181385            5 
  647000   0.97679553   -7.2323928    186.35522  0.024002476  0.024162246            3 
  648000    1.0151706   -7.1842757    186.98741  0.024046735  0.024143328            7 
  649000    1.0052503   -7.2377628    186.91398  0.024000254  0.024124251            3 
  650000     1.016246   -7.2050394    187.05723  0.023981696  0.024105198            5 
  651000   0.97497441   -7.2795832    187.29234  0.023974955  0.024086345            7 
  652000    1.0090954   -7.2452389    187.51488  0.023966626  0.024067399            6 
  653000    0.9833197   -7.2151871    188.14191  0.024009942  0.024048263            3 
  654000   0.98401225   -7.2525869    188.06909  0.023963951  0.024029286            4 
  655000     1.006492   -7.3115233    187.20366   0.02381726  0.024010117            3 
  656000    0.9869546   -7.2735049    187.81309  0.023858371  0.023990843            4 
  657000   0.98602444   -7.2031239     188.2142  0.023872933  0.023972203            5 
  658000    1.0070979   -7.2527903    187.97153  0.023805918  0.023953409            4 
  659000    0.9903199   -7.2044297    188.78084  0.023872134  0.023934618            5 
  660000   0.99595333   -7.2231454    188.40378  0.023788356  0.023915948            8 
  661000    1.0098788   -7.2198208    189.16221  0.023847984  0.023897402            2 
  662000   0.98798245   -7.2359273     189.2271  0.023820129  0.023878934            4 
  663000   0.98428073   -7.2755743    188.50279  0.023693162  0.023860192            5 
  664000   0.97723391   -7.2405959    189.46875  0.023778709  0.023841228            6 
  665000   0.99665902   -7.2524176    189.63894  0.023764278  0.023822395            3 
  666000    1.0023299   -7.2546708    190.16721  0.023794696  0.023803793            2 
  667000   0.96922827   -7.2930242    189.59109  0.023687043    0.0237853            4 
  668000   0.99047372   -7.2297891    190.16459  0.023723127  0.023766731            3 
  669000   0.98648882    -7.268916    190.01067  0.023668494  0.023748294            3 
  670000   0.98092608   -7.2756187    189.91046  0.023620705  0.023729678            5 
  671000     1.003249   -7.2632571    190.27081  0.023630255  0.023710981            3 
  672000    0.9854405   -7.2207995     191.0266  0.023688814   0.02369223            6 
  673000   0.99696035   -7.3152395    190.51903  0.023590766   0.02367375            3 
  674000   0.99894448   -7.2591863     190.9641  0.023610794  0.023655313            4 
  675000    1.0063286   -7.2649965    190.87073  0.023564288   0.02363697            3 
  676000   0.97319229   -7.2731504    190.77624  0.023517781  0.023618628            2 
  677000   0.98430446   -7.2375766     191.4639  0.023567688  0.023600116            7 
  678000   0.99350834    -7.234401    191.25652  0.023507439  0.023581716            2 
  679000   0.97330357   -7.2412033    191.90324   0.02355219  0.023563136            6 
  680000   0.98239369   -7.3054125    191.07659  0.023416249  0.023544135            6 
  681000   0.98247167   -7.2579401    191.42656  0.023424689  0.023524794            6 
  682000   0.97108971   -7.2301073    192.26678  0.023493008  0.023505741           11 
  683000   0.98687024   -7.2561794    191.47584  0.023362108  0.023486848            3 
  684000   0.97535918   -7.2782379    191.78014  0.023365026  0.023467778            4 
  685000   0.99877938   -7.2848176    191.91429  0.023347237  0.023448661            2 
  686000      1.00049   -7.2594488    192.43719  0.023376724   0.02342989            5 
  687000   0.99273162   -7.2637091    192.44235  0.023343323  0.023411237            3 
  688000   0.95598401   -7.2569871    192.56302  0.023324009  0.023392581           11 
  689000   0.99343727   -7.2485699    192.58664  0.023293015  0.023373592            5 
  690000   0.98073657   -7.2765859    192.68923  0.023271646  0.023354583            3 
  691000   0.99032519   -7.2773396    192.38661  0.023201473  0.023335508            3 
  692000   0.98755496   -7.3281869    192.26857   0.02315373  0.023316442            5 
  693000   0.98102489   -7.2866593    192.51006  0.023149358  0.023297093            3 
  694000   0.97285299    -7.267342    193.12317  0.023189622  0.023277842            9 
  695000   0.97464764   -7.3030973     192.5242  0.023084436   0.02325823            5 
  696000   0.97488718   -7.3119552    192.46629  0.023044336  0.023238522            4 
  697000   0.97748699    -7.313189    192.53834  0.023019888  0.023218667            3 
  698000   0.95682184   -7.3115889    192.60544  0.022994919  0.023199005            7 
  699000   0.96426055   -7.2884886    192.82985  0.022988775    0.0231793            3 
  700000   0.97442655   -7.2739927    194.08402  0.023105241  0.023160017            6 
  701000    0.9577217   -7.2809388    193.76167   0.02303396  0.023140973            6 
  702000   0.98102422   -7.2872783    193.89196  0.023016614   0.02312191            2 
  703000   0.96335715   -7.2981096    193.90444  0.022985354  0.023102863           11 
  704000   0.97005081   -7.2948544     193.4698  0.022901254  0.023083385            6 
  705000   0.97122434   -7.3079282     193.6473  0.022889752  0.023063904            5 
  706000   0.96251832   -7.2942332    194.24459  0.022927832  0.023044429            7 
  707000   0.97611902   -7.2915196    194.25982  0.022897197  0.023025041            6 
  708000   0.95242041     -7.29295    194.55127  0.022899161   0.02300566            5 
  709000   0.96945225   -7.2828265    195.10215  0.022931611  0.022986381            5 
  710000   0.98289725    -7.290086    195.22577  0.022913823  0.022967263           11 
  711000   0.95869686   -7.2992074    195.00972  0.022856273  0.022948235            2 
  712000   0.97747033   -7.3163002    195.07542  0.022831861  0.022929339            7 
  713000   0.95256771   -7.2913345    195.19301  0.022813582  0.022910543            4 
  714000   0.98491874   -7.2719457    195.55095  0.022823407  0.022891729            4 
  715000   0.98750337   -7.3025407    196.03154  0.022847499  0.022872994            4 
  716000   0.95650534   -7.3215328    196.13859  0.022828048  0.022854257            3 
  717000    0.9616195   -7.2522076    196.05681  0.022786705  0.022835623            2 
  718000   0.95742826   -7.2958901    196.43988  0.022799429  0.022816903            6 
  719000    0.9760821   -7.2915508     196.3993  0.022763016  0.022798257            7 
  720000   0.97841211    -7.314323    196.20233  0.022708603  0.022779631            5 
  721000   0.98923899   -7.3133259    196.77981  0.022743852  0.022761024            8 
  722000   0.97228489   -7.3060256    196.75528   0.02270952  0.022742709            5 
  723000   0.97806711   -7.3186214    196.49737  0.022648383  0.022724174            3 
  724000   0.94286337   -7.2990897    196.65538  0.022635287  0.022705491            2 
  725000   0.96666508   -7.3008391    197.07154  0.022651901  0.022686636            4 
  726000     0.978079   -7.3324238    197.15444  0.022630215  0.022667955            4 
  727000   0.95005587   -7.3241261     197.3248  0.022618616  0.022649484           12 
  728000   0.95452347   -7.3119124     197.4073  0.022596989  0.022630967            8 
  729000     0.933128   -7.3310869    197.48051  0.022574361  0.022612564            4 
  730000    0.9599652    -7.342245     197.2693  0.022519326  0.022593924           14 
  731000    0.9703903   -7.3297054    197.77673  0.022546366  0.022575459            8 
  732000   0.94647405   -7.2694627    198.73434  0.022624584  0.022557319            4 
  733000   0.97394242   -7.3032694    197.95285  0.022504871  0.022538893            7 
  734000   0.95262888   -7.3183243      198.675  0.022556199    0.0225206            2 
  735000   0.95983087   -7.3252498    198.46042  0.022501182  0.022502317            5 
  736000   0.95971961   -7.3518722    198.26638  0.022448639  0.022484019            2 
  737000   0.96363976    -7.339533    198.40938  0.022434348  0.022465689            3 
  738000   0.95619502   -7.3819961    198.18741  0.022378886  0.022447056           10 
  739000   0.97686759   -7.3496245    198.40617  0.022373271   0.02242808            6 
  740000   0.96540101   -7.3675031    197.79939  0.022274706  0.022409153            7 
  741000   0.95359197   -7.3720432    198.26157  0.022296623  0.022389872            3 
  742000   0.96912779   -7.3413347    197.85262  0.022220645  0.022370659            6 
  743000   0.94366331   -7.3551891    198.45811  0.022258648  0.022351273           13 
  744000   0.97098325   -7.3402001    198.62694  0.022247641  0.022332117            3 
  745000   0.96189749   -7.3952782    198.16072  0.022165629  0.022312945            5 
  746000   0.96917549   -7.3431688    198.76678  0.022203617  0.022293789            7 
  747000   0.94117191   -7.3208169    199.41146  0.022245812    0.0222748            6 
  748000   0.96597028   -7.3321866    199.48555  0.022224326  0.022255745            7 
  749000   0.96709258   -7.3760629    199.36709  0.022181474    0.0222366           12 
  750000   0.95912258   -7.3413136     198.9062  0.022100688  0.022217705            4 
  751000   0.95048802   -7.3624397    199.54146  0.022141751  0.022198774            4 
  752000   0.96356054    -7.352349    200.10479  0.022174733  0.022179871            3 
  753000   0.93522753   -7.3550271    199.21203  0.022046484  0.022160934            5 
  754000   0.93281125   -7.3939446    199.28719  0.022025551  0.022141889            7 
  755000   0.94735514   -7.3704882    199.58283   0.02202901   0.02212268            4 
  756000   0.92699071   -7.3676974    199.72242  0.022015258  0.022103535            4 
  757000   0.94802034   -7.3506445    200.24116   0.02204328   0.02208461            4 
  758000   0.96780156   -7.3538777    200.46585  0.022038901  0.022066051            3 
  759000   0.93920889   -7.3612741    200.58312   0.02202274  0.022047356           11 
  760000   0.95002299   -7.3808632     200.3867  0.021972226  0.022028648            2 
  761000   0.91724472   -7.3819643    200.68521  0.021976042  0.022010039            6 
  762000   0.96226228   -7.3919573    200.47508  0.021924221  0.021991296           10 
  763000   0.96236775   -7.3576192    200.79733  0.021930682  0.021972632            5 
  764000   0.95596654    -7.330844    201.34644  0.021961872  0.021954185            8 
  765000   0.94017431   -7.3604931    201.22717  0.021920172  0.021935673            2 
  766000   0.95552257   -7.3659687    201.23148  0.021892024  0.021917152            6 
  767000   0.96141956   -7.3586346    200.85698  0.021822792  0.021898535            6 
  768000   0.94192272   -7.3333342    201.77417  0.021893899  0.021879922            7 
  769000   0.95544197   -7.3552686    202.16622  0.021907913   0.02186164            2 
  770000   0.94394095   -7.3900336    201.38387  0.021794791    0.0218431            4 
  771000   0.94828471   -7.3340162     202.0707  0.021840759  0.021824411           10 
  772000   0.94423325   -7.3413912    201.73702  0.021776448  0.021805834            5 
  773000   0.93608109   -7.3613303    202.16475  0.021794389   0.02178736            3 
  774000   0.95472167   -7.3664314    202.45094  0.021797043   0.02176873            3 
  775000   0.94916151   -7.3388915    202.85809  0.021812698  0.021750386            3 
  776000   0.93757197   -7.4023967    202.07273   0.02170025  0.021731906            4 
  777000   0.92364327   -7.4036631     201.9061  0.021654451  0.021713585           11 
  778000   0.95605127   -7.4002198     202.7847  0.021720727  0.021695217            2 
  779000   0.96256247   -7.3696473    202.74643  0.021688749  0.021676842            6 
  780000   0.95419311   -7.3662723    203.18435   0.02170773  0.021658643            4 
  781000   0.96351972   -7.3813051    203.40339  0.021703306  0.021640452            3 
  782000   0.96927547    -7.335585    203.98412  0.021737438  0.021622472            5 
  783000   0.94718644   -7.3485306    203.34275  0.021641417   0.02160452            2 
  784000   0.93119433   -7.3847512    204.20668  0.021705642  0.021586459            4 
  785000    0.9572258   -7.4016842    203.54594  0.021607849  0.021568553            4 
  786000   0.95379398   -7.4000115     203.7717  0.021604294  0.021550695            4 
  787000   0.95568036   -7.3782655    203.98943  0.021599897  0.021532836            8 
  788000   0.95352047   -7.3916646    204.60631  0.021637724  0.021514915            2 
  789000   0.94002143     -7.36651    204.50605   0.02159971  0.021497139            4 
  790000    0.9299523   -7.3997351    204.42532  0.021563852   0.02147925            9 
  791000   0.92394893   -7.4061335    204.36903   0.02153066  0.021461241            8 
  792000   0.93291867   -7.3666814    204.85575  0.021554687  0.021443494            5 
  793000   0.92363753   -7.3824745    204.93948  0.021536306  0.021425554            8 
  794000   0.93162339   -7.4097774    204.52645  0.021465833  0.021407789            9 
  795000   0.96270582   -7.4110405    204.99965  0.021488432  0.021389954            3 
  796000    0.9279475   -7.3708691      205.185  0.021480842  0.021372305            6 
  797000   0.93733394   -7.4101805    204.80149   0.02141379   0.02135447            8 
  798000   0.92548694   -7.3822362    205.59915  0.021470254  0.021336511            5 
  799000    0.9071982   -7.4089141    205.25782  0.021407782  0.021318607            7 
  800000   0.94021082   -7.4230287    205.28117  0.021383455  0.021300818            8 
  801000   0.92619903   -7.3906323    205.36207  0.021365175  0.021282996            8 
  802000   0.94942787   -7.3876937    205.48386  0.021351191  0.021265436            5 
  803000   0.92118079   -7.4132224    205.20572  0.021295737  0.021247539            5 
  804000   0.94000291   -7.4125246    205.48325  0.021298016  0.021229497            4 
  805000   0.93397383    -7.423508    205.59017  0.021282626  0.021211622            4 
  806000   0.94387034   -7.4187835    205.82565  0.021280568  0.021193842            3 
  807000   0.93609728   -7.4251247    205.65078   0.02123614  0.021176168            5 
  808000   0.93690472   -7.3888667    205.53544  0.021197962  0.021158456            5 
  809000   0.91270478   -7.4293025    206.16457  0.021236564  0.021140587            6 
  810000   0.93043101   -7.3727871    206.52784   0.02124772  0.021122875            9 
  811000    0.9277213   -7.4188309    205.71282  0.021137774  0.021105134            7 
  812000     0.921308   -7.4285252    205.84897  0.021125715  0.021087152           12 
  813000   0.94834512   -7.4294684     206.3052  0.021146494  0.021069271            5 
  814000   0.94853177   -7.4619358    205.83801  0.021072687  0.021051307            4 
  815000   0.93250823   -7.4448348    206.47254  0.021111712  0.021033182           17 
  816000   0.92902853   -7.4141128    206.57858  0.021096669  0.021015254            8 
  817000   0.93172609      -7.4258    206.74639  0.021087964  0.020997403            4 
  818000   0.94202848   -7.4353234    206.30755  0.021017477  0.020979448            8 
  819000   0.92814806   -7.4183582    207.15967  0.021078518   0.02096174            4 
  820000   0.93181584   -7.4377257    207.14648  0.021051471  0.020944009            6 
  821000    0.9185195   -7.4529981    207.22273   0.02103357  0.020926273            6 
  822000   0.92149528   -7.4244221    207.20658  0.021006344  0.020908514            5 
  823000   0.93302798   -7.4219453    207.51271  0.021011818  0.020890854            9 
  824000    0.9141489   -7.4348705    207.19444  0.020954131  0.020873339            4 
  825000   0.93130711   -7.4380532    207.72354  0.020982176   0.02085582            7 
  826000   0.93476847   -7.4474794    207.58232  0.020942527  0.020838154            8 
  827000   0.91671055   -7.4392287    207.93395  0.020952635   0.02082047            5 
  828000   0.93520748   -7.4521039    207.88322  0.020922225  0.020802875            4 
  829000   0.91954041   -7.4786079    207.79505  0.020888123  0.020785361            6 
  830000    0.9235007   -7.4580908    208.23676  0.020907305  0.020767967            5 
  831000   0.91533738   -7.4994593    208.05783  0.020864202   0.02075025            9 
  832000    0.9116894   -7.4836408    208.46115  0.020879522  0.020732616            4 
  833000   0.91540032   -7.4653725    208.36306  0.020844644  0.020714975            7 
  834000   0.93735188   -7.4601428    208.72085    0.0208554  0.020697542           16 
  835000   0.92311024   -7.4428854    208.79131  0.020837456  0.020680086            7 
  836000   0.92592702   -7.4602745    208.54125  0.020787605    0.0206628            9 
  837000   0.90087908   -7.4805941    208.58305   0.02076693  0.020645266            3 
  838000   0.92417226   -7.4701008    208.02867   0.02068702  0.020627718            9 
  839000   0.92827736   -7.4813296    208.71988  0.020731017  0.020610185            7 
  840000   0.91840177   -7.4498863    209.19904  0.020753873  0.020592674            4 
  841000   0.91400631   -7.4432591    209.49051  0.020758077  0.020575485            3 
  842000    0.9207673   -7.4357613    209.31331  0.020715886   0.02055813            5 
  843000   0.92117185   -7.4594754    209.68386  0.020727942  0.020540806            7 
  844000   0.93573808   -7.4540106    209.12737  0.020648437  0.020523331            6 
  845000   0.90797203   -7.4770515    209.28966  0.020640006  0.020505875            9 
  846000   0.90045141   -7.4438115    209.61697   0.02064785  0.020488573            6 
  847000   0.92790617   -7.4680586    209.51272  0.020613215  0.020471086            4 
  848000   0.90547397   -7.4874124    209.77616  0.020614796  0.020453692            7 
  849000    0.9536595   -7.4763504    209.65905  0.020579019  0.020436286            7 
  850000   0.92468905     -7.49663    209.34219  0.020523744  0.020418759            6 
  851000   0.91509557   -7.5428765    208.94399  0.020460633  0.020401196            8 
  852000   0.89567205   -7.5288673    209.54339  0.020495245  0.020383572            9 
  853000   0.91191465   -7.5020119    210.15917  0.020531377  0.020366264            5 
  854000   0.92437451   -7.5285498     210.0621  0.020497863  0.020348855            4 
  855000   0.91639475   -7.5039959    209.95465  0.020463416  0.020331566            6 
  856000   0.91532281    -7.507467    210.25463  0.020468714  0.020314234            6 
  857000   0.89549136   -7.4860046    209.98665  0.020418772  0.020296828            9 
  858000   0.91373221   -7.4830136    210.54961  0.020449652  0.020279464           17 
  859000   0.89287785   -7.4771116    210.22211  0.020394073   0.02026209           17 
  860000    0.9234011    -7.530116    209.96257   0.02034521  0.020244714            9 
  861000   0.92613949   -7.5192423    210.22591  0.020347068  0.020227196           18 
  862000   0.91096851   -7.4884139    210.45137   0.02034526  0.020209664            6 
  863000   0.89862705   -7.5298184      210.743  0.020349846  0.020192379            7 
  864000   0.91546533    -7.515957    210.99409   0.02035051  0.020175024            4 
  865000   0.91207786   -7.4670632    211.96991  0.020420994   0.02015776            8 
  866000   0.91929898    -7.500565    210.82587  0.020287324  0.020140664            9 
  867000   0.89779801   -7.4959465    211.09197  0.020289501  0.020123493            6 
  868000   0.88348723   -7.5081556    210.96721  0.020254149  0.020106347            5 
  869000   0.88967045   -7.4976185    211.20836  0.020253966  0.020089187            6 
  870000    0.8943777   -7.4951756    211.55358  0.020263753  0.020072167            7 
  871000   0.93275182   -7.4943747    211.98276   0.02028155  0.020055162            9 
  872000    0.8904957   -7.4863491    211.95998  0.020256114  0.020038292            3 
  873000   0.91601195   -7.5262774    211.48969  0.020188019  0.020021217            6 
  874000   0.89626814   -7.5119312     211.5346  0.020169203   0.02000426            5 
  875000   0.91833635   -7.4937506    212.52665  0.020240633   0.01998736            4 
  876000   0.89561722   -7.5002902    211.99681  0.020167124  0.019970504            7 
  877000   0.91450841   -7.5016656    212.27871  0.020170915  0.019953701            8 
  878000   0.91344851   -7.4902146    212.84733   0.02020191  0.019936943            3 
  879000   0.91926798   -7.5406255    212.34773  0.020131563  0.019920058            5 
  880000   0.92154475   -7.5163283    212.98863  0.020169378  0.019903084            9 
  881000   0.89374667   -7.5365422    212.02681  0.020055506  0.019886153            4 
  882000   0.91474617   -7.4979236    212.86791  0.020112237  0.019869156            9 
  883000   0.88464741   -7.4986431    213.10792  0.020112111  0.019852308            9 
  884000   0.92135027   -7.5228863    211.91668  0.019977063  0.019835427            4 
  885000     0.885193   -7.5716942    212.32446  0.019992887  0.019818419            8 
  886000   0.90592133   -7.5197415    213.09343  0.020042648  0.019801382            4 
  887000   0.90235176   -7.5147157    212.31026  0.019946473  0.019784406           12 
  888000   0.89964958   -7.5159288    213.39727  0.020026021  0.019767613           10 
  889000   0.87990174   -7.4971503    213.46756  0.020010083  0.019750883            5 
  890000   0.89052558   -7.5110949    212.88932  0.019933457  0.019734096           12 
  891000   0.91599861   -7.5080075    213.04451  0.019925599   0.01971699            6 
  892000   0.92552138   -7.5159188    213.43156   0.01993942  0.019700035           12 
  893000   0.92384724    -7.525787    213.24979   0.01990013  0.019683106            8 
  894000   0.89507774   -7.5496019    213.49496  0.019900723  0.019666079           11 
  895000   0.87147196   -7.5073222     213.2588  0.019856499  0.019649053           12 
  896000   0.88115182   -7.5223828    213.36458  0.019844176  0.019631833           12 
  897000   0.92449091   -7.5152717      213.532  0.019837607  0.019614759           35 
  898000   0.90493709   -7.5581285     212.5788   0.01972706  0.019597627           27 
  899000   0.89589106   -7.5545929    213.21318  0.019763921  0.019580411            6 
  900000   0.90367755   -7.5509839    213.11883  0.019733225  0.019563112           19 
  901000   0.89013754   -7.5551297    212.97341  0.019697874  0.019545846           15 
  902000   0.88825499   -7.4997459    214.01409  0.019772181  0.019528685            9 
  903000   0.88988416   -7.5286825     213.6657  0.019718134  0.019511624            8 
  904000   0.89502296   -7.5435153    213.13534  0.019647432  0.019494398            7 
  905000   0.89134358   -7.5548353    212.88909  0.019603047  0.019477121            9 
  906000   0.88119446   -7.4983466    213.98735  0.019682427  0.019460015            8 
  907000   0.89023971   -7.5464948    212.91393  0.019562103  0.019442868            5 
  908000    0.9164822   -7.5716744    213.16806  0.019563882  0.019425714            8 
  909000   0.89382893   -7.5445888    213.48765  0.019571658  0.019408443            5 
  910000   0.88724603   -7.5571055    213.36659  0.019539065  0.019391257            9 
  911000   0.90050646   -7.5434265    214.08929  0.019583726  0.019374013           13 
  912000   0.88886045   -7.5488044    213.25871  0.019486359  0.019356877            5 
  913000   0.90145943   -7.5293166    214.01889    0.0195344  0.019339808            4 
  914000   0.89651535   -7.5242914     214.7981  0.019584072  0.019322825            7 
  915000   0.88655888   -7.5484145    214.06311  0.019495729  0.019306053            6 
  916000   0.88856518   -7.5436154    214.66945  0.019529608  0.019289238            7 
  917000   0.87728944   -7.5668797    214.15048  0.019461149  0.019272176            9 
  918000   0.86819657   -7.5536387    214.21206  0.019445539  0.019255054           13 
  919000   0.89416678   -7.5448309    214.84314  0.019481605  0.019238099            4 
  920000   0.88561698   -7.5357147    215.07966  0.019481854  0.019221164            5 
  921000   0.89431184    -7.539152    214.59197  0.019416574  0.019204219            2 
  922000   0.88149598    -7.562995    214.14275  0.019354913  0.019187253            7 
  923000   0.90174943   -7.5540535    214.45584   0.01936221  0.019170186           14 
  924000   0.89678987   -7.5869545    214.94722  0.019385572  0.019153269            5 
  925000   0.89110035   -7.5799927    214.90473  0.019360787  0.019136431            8 
  926000   0.87916396   -7.5795083     215.1794  0.019364597  0.019119619            6 
  927000   0.90089524    -7.543944    215.10034    0.0193366   0.01910271           15 
  928000   0.90309253   -7.5483124    214.71951  0.019281565  0.019086057            6 
  929000   0.90154422   -7.5470666    215.59702  0.019339524   0.01906938           16 
  930000   0.87415109   -7.5534046     214.8711  0.019253683    0.0190526           14 
  931000   0.87490648   -7.5423323    215.34526  0.019275444   0.01903586            3 
  932000   0.87004736   -7.6065566    214.61196  0.019189195  0.019019053            6 
  933000   0.86918952    -7.589096    215.05034  0.019207783  0.019002251            4 
  934000   0.86881148   -7.5456883    215.53127  0.019230127  0.018985485            4 
  935000   0.87329647   -7.5742815    215.36659  0.019194883  0.018968624            8 
  936000   0.86341957   -7.5625425    216.22065  0.019250414  0.018951885            8 
  937000   0.88068934   -7.6251685    215.04977  0.019125735  0.018935182            5 
  938000   0.87607593   -7.5923792    215.30685  0.019128185  0.018918325            7 
  939000   0.88044109   -7.5935896    216.11972  0.019179954  0.018901523            4 
  940000   0.88017952   -7.5780252    215.77479   0.01912897  0.018884778            9 
  941000   0.86928899   -7.6385615    215.44646  0.019079566  0.018867937            7 
  942000   0.88725437    -7.616475    215.14207  0.019032384   0.01885101            6 
  943000   0.87592239   -7.5838064     215.4826  0.019042294   0.01883407            5 
  944000   0.85612876   -7.6361696    215.75042  0.019045764  0.018817264           12 
  945000   0.85829268    -7.600922    216.22056  0.019067069  0.018800474            4 
  946000   0.88627374   -7.6112996    215.98281   0.01902597  0.018783851            3 
  947000   0.89006604   -7.6038905    216.04193  0.019011081  0.018767289            7 
  948000   0.88695335   -7.5881867    216.40855  0.019023255  0.018750652            8 
  949000    0.8749619    -7.607581    215.93442  0.018961575  0.018733871            7 
  950000   0.86125403   -7.6371278    216.14401  0.018960001  0.018717152           23 
  951000   0.86525557   -7.6230289    215.55954  0.018888849   0.01870036           12 
  952000   0.86439836   -7.6423544    216.30754  0.018934483  0.018683485           15 
  953000   0.86264005   -7.5915544    216.55171  0.018935966  0.018666677            8 
  954000   0.86010658    -7.618815    216.06138  0.018873286  0.018649989            8 
  955000   0.88708096   -7.6197175    216.72816  0.018911707  0.018633205            7 
  956000   0.88554278   -7.6478598     215.9773  0.018826473  0.018616486            9 
  957000   0.87695735   -7.6005115     216.3475  0.018839037  0.018599783            5 
  958000   0.88055491   -7.5949902    216.19811  0.018806377  0.018583186            7 
  959000   0.88128412   -7.5795804    217.16118  0.018870454  0.018566685           11 
  960000   0.87859073   -7.6191086    216.45704  0.018789674  0.018550133           26 
  961000   0.85547086   -7.6027979     217.1637    0.0188314  0.018533596           15 
  962000   0.89247772   -7.6051913     216.8587  0.018785403  0.018517122            7 
  963000   0.86485412    -7.603366    216.23772   0.01871216   0.01850047            6 
  964000   0.87937709   -7.5729579    217.19248  0.018775284  0.018483841            7 
  965000   0.85783131   -7.5893807    216.88684  0.018729433   0.01846719           18 
  966000   0.87422968   -7.6238377    216.43729  0.018671264  0.018450455           14 
  967000   0.86623154   -7.6259061    216.71653  0.018676019  0.018433862            4 
  968000   0.85848425   -7.6496323    216.28245  0.018619357  0.018417162            8 
  969000   0.85697114   -7.6348386    217.12133  0.018672285  0.018400538            7 
  970000   0.85467377   -7.6313464    216.35842  0.018587493   0.01838398           12 
  971000   0.86968095    -7.603909    217.14369  0.018635744  0.018367185           10 
  972000   0.87792498   -7.6711518    215.88745   0.01850887   0.01835034            9 
  973000    0.8737652   -7.6396507    216.94294  0.018580245  0.018333416           18 
  974000    0.8691429   -7.6546233    216.21567  0.018498945  0.018316577           14 
  975000     0.864328   -7.6392537    216.58736   0.01851174   0.01829966            9 
  976000   0.86476716   -7.6124341    217.38377  0.018560772  0.018282839            9 
  977000   0.86806711    -7.633085    216.92175  0.018502367  0.018266094           21 
  978000   0.87935189   -7.6302968    217.29487  0.018515242  0.018249379           18 
  979000   0.83694702   -7.6506108    217.32813   0.01849916  0.018232589            8 
  980000   0.85954366   -7.6486177    216.56128  0.018415075  0.018215795            7 
  981000    0.8523995   -7.6650542    216.75469  0.018412733  0.018198938            8 
  982000   0.85744987    -7.667198    216.43502  0.018366855   0.01818207            5 
  983000   0.86439606   -7.6675964    216.77496  0.018376989  0.018165206            8 
  984000   0.85880154    -7.654499    217.33216  0.018405501  0.018148396            6 
  985000   0.86658608   -7.6519746    217.21194  0.018376645    0.0181316           24 
  986000   0.85012175   -7.6546167    217.57583  0.018388762  0.018114935           15 
  987000   0.86705634   -7.6834407    217.02291  0.018323448  0.018098221           30 
  988000    0.8565914   -7.6444269    217.68568  0.018360803  0.018081466           15 
  989000     0.865369   -7.6453387     217.5007  0.018326652  0.018064844           17 
  990000   0.84960802   -7.6717905    217.38711  0.018298578  0.018048339           17 
  991000    0.8415279   -7.6781944    217.07078  0.018253513  0.018031704            7 
  992000   0.86832925    -7.692014    217.12094  0.018239326  0.018014965           10 
  993000   0.85645085   -7.6778134     217.7716  0.018275562   0.01799827           12 
  994000   0.83678848   -7.6746792    217.27463  0.018215512  0.017981626           10 
  995000   0.86520234   -7.6848037    217.58655   0.01822333  0.017964975            4 
  996000   0.85838573   -7.6378412    217.89772  0.018231068  0.017948386            4 
  997000   0.85024117    -7.674864    218.19895   0.01823796  0.017931803            4 
  998000   0.86157368   -7.6377784    217.87653  0.018192763  0.017915291           10 
  999000    0.8550145    -7.672539    217.21125  0.018119056  0.017898717           13 
 1000000     0.852759   -7.6510631    218.26066  0.018188388  0.017882161           12 
 1001000   0.88096915   -7.7024291    217.98221  0.018147037  0.017865591            8 
 1002000   0.84800037   -7.6698865     218.3327  0.018158076  0.017849075           16 
 1003000   0.85163266   -7.6654347    217.74322  0.018090996  0.017832623           14 
 1004000   0.84334011   -7.6551654      218.109  0.018103337  0.017816126           31 
 1005000     0.849588   -7.6708615    217.82013   0.01806137  0.017799523           31 
 1006000   0.85974402   -7.6795327    217.65867  0.018030042  0.017782905           22 
 1007000     0.859937   -7.6666934    217.72411  0.018017553  0.017766276           16 
 1008000   0.85382857   -7.7057577    217.63403  0.017992231   0.01774967           19 
 1009000   0.86372225   -7.7089372    217.64462  0.017975274  0.017732978           18 
 1010000   0.84444729    -7.714939    217.14584  0.017916324  0.017716304           23 
 1011000   0.85676837   -7.6902229    217.74434  0.017947935  0.017699731           31 
 1012000   0.85319505   -7.6851717    217.24936   0.01788944   0.01768307           28 
 1013000   0.84409552   -7.7176983    217.95265  0.017929635  0.017666473           16 
 1014000   0.85060918   -7.7047427     218.4568  0.017953386  0.017649896           22 
 1015000   0.83741465   -7.7262692    217.91006   0.01789081  0.017633375           20 
 1016000    0.8268817   -7.7211614     218.1699  0.017894513  0.017616938           20 
 1017000   0.87749778    -7.703735    218.51603   0.01790528  0.017600507           23 
 1018000   0.85921399   -7.7272943     218.1617  0.017858685  0.017584011           19 
 1019000   0.83933575   -7.7048615    218.09003  0.017835299  0.017567522           18 
 1020000   0.84114502   -7.6932285    218.16222  0.017823711  0.017550995           10 
 1021000   0.84411688   -7.7145341    218.75439  0.017854586  0.017534475           34 
 1022000   0.85851022   -7.7079202    218.24671   0.01779572  0.017518047            5 
 1023000   0.84521395   -7.7321747    218.24264  0.017777993  0.017501705           20 
 1024000    0.8530043   -7.7187773    218.03472  0.017743711  0.017485233           14 
 1025000    0.8507559   -7.7432951    217.83903   0.01771049  0.017468745            5 
 1026000   0.82193463   -7.7732319     218.3443  0.017734267  0.017452282           13 
 1027000   0.85533483   -7.7206839    218.57415   0.01773565  0.017435821            9 
 1028000   0.84126421   -7.7054519    218.91508  0.017746034  0.017419496            9 
 1029000   0.86084592   -7.7252029    217.94616  0.017650321  0.017403103            6 
 1030000   0.85500378    -7.733733     217.9675  0.017634911  0.017386712            8 
 1031000   0.85052197   -7.7520646    217.78455  0.017603019  0.017370251            7 
 1032000   0.85853528   -7.7535731    218.39356  0.017635139  0.017353869           10 
 1033000   0.84387951   -7.7054316    219.30385  0.017691501   0.01733756           17 
 1034000   0.84094211   -7.6743803    219.38078  0.017680592  0.017321384           10 
 1035000   0.84761014   -7.7075227    219.09664  0.017640631  0.017305214            7 
 1036000   0.83023375   -7.6951893    219.05843   0.01762053  0.017289093           14 
 1037000   0.84979336   -7.7137544    218.65073  0.017570776  0.017272982            9 
 1038000   0.82706282   -7.7040445     219.0712  0.017587604  0.017256966            7 
 1039000   0.83578577   -7.7280337    219.17277  0.017578823  0.017240932           13 
 1040000   0.83510048   -7.7144849     219.8712  0.017617885  0.017224932            5 
 1041000   0.83541476   -7.6900259    219.32609  0.017557324  0.017208925            6 
 1042000    0.8411468   -7.7141692    219.08503  0.017521196  0.017192814            8 
 1043000   0.82555313   -7.7468872    218.81044  0.017482458  0.017176725           11 
 1044000    0.8253879   -7.7279085     219.4253  0.017514791  0.017160663            8 
 1045000   0.85972367   -7.7425501    219.78104  0.017526398  0.017144704            9 
 1046000   0.82900054    -7.728021    219.23871  0.017466436  0.017128702           19 
 1047000    0.8502339   -7.6978483    219.90547  0.017502823  0.017112805           16 
 1048000    0.8320425   -7.7041592    220.15743  0.017506157   0.01709703           14 
 1049000   0.80941623   -7.7465945      219.787  0.017460042  0.017081244           35 
 1050000   0.84152877   -7.7314527    219.61776  0.017429981  0.017065415           20 
 1051000   0.82360441   -7.7495402    220.04754  0.017447474  0.017049577           26 
 1052000   0.84280228   -7.7500428    220.25636  0.017447431   0.01703378            6 
 1053000   0.83118323    -7.761691    219.20578  0.017347719  0.017017952           14 
 1054000   0.83256967   -7.7445648    219.71781  0.017371744    0.0170021           17 
 1055000    0.8127337    -7.788071    219.46134  0.017335019  0.016986143           14 
 1056000   0.82770514   -7.7457736    219.31728  0.017307234  0.016970165           11 
 1057000   0.83985402   -7.7458204    219.92635   0.01733888  0.016954251           11 
 1058000   0.81618296   -7.7901408    219.49266  0.017288331  0.016938309            9 
 1059000   0.82670161   -7.7478615     219.6483  0.017284254  0.016922437           12 
 1060000   0.85014688    -7.758367    220.20265  0.017311529  0.016906688            9 
 1061000    0.8357937   -7.7563371    220.03925  0.017282379  0.016890955            6 
 1062000   0.83172578   -7.7532983    219.55523  0.017228125  0.016875237            7 
 1063000   0.80841608   -7.7577989    219.69785  0.017223099  0.016859572           13 
 1064000   0.82427601   -7.7461505    220.23273  0.017248804  0.016843914           14 
 1065000   0.82453529   -7.7856601    219.46014  0.017172155  0.016828148           11 
 1066000   0.83290803   -7.7533634    220.38223  0.017228129  0.016812371           11 
 1067000   0.81306204   -7.7721791    219.94445  0.017177792  0.016796621           12 
 1068000   0.82189327   -7.7400528    220.68617  0.017219583  0.016780885            8 
 1069000   0.82290118   -7.7666738    220.32603    0.0171754  0.016765271           19 
 1070000   0.81979167   -7.7656881    219.93752   0.01712909  0.016749599           17 
 1071000   0.82174847    -7.773388    220.34904  0.017145116  0.016733923           29 
 1072000   0.83773408    -7.774463    219.97023  0.017099676   0.01671822           36 
 1073000   0.81255231   -7.7328552    220.52855  0.017127101  0.016702542           18 
 1074000   0.83981158   -7.7754546    220.25162  0.017089667  0.016686897           19 
 1075000    0.8528521   -7.7693779    220.48323  0.017091723  0.016671278           18 
 1076000   0.81907041   -7.7452413    220.46172  0.017074173   0.01665565           11 
 1077000   0.82703369   -7.7901851    220.00104  0.017022674  0.016640019           10 
 1078000   0.84205202   -7.7675238    220.55205  0.017049478  0.016624337           17 
 1079000   0.81010338   -7.7982875    220.28378  0.017012958  0.016608612            7 
 1080000   0.82419326   -7.7890751    220.35749  0.017002893  0.016592909           20 
 1081000    0.8353678   -7.8096906    220.52303  0.016999925  0.016577276           11 
 1082000    0.8218651   -7.7512933    220.60277  0.016990355   0.01656163           11 
 1083000   0.82631152   -7.7743227    220.55949  0.016971337  0.016546046           12 
 1084000   0.81193004   -7.7923835    220.35156  0.016939695  0.016530439            7 
 1085000   0.82664393   -7.7880278    220.56044  0.016940126  0.016514828           12 
 1086000   0.81630545    -7.802838    220.54286  0.016923179  0.016499285           29 
 1087000   0.81089697   -7.7758986    220.17216  0.016879191  0.016483752            8 
 1088000   0.82311336   -7.8194996    219.77651  0.016833373   0.01646818           38 
 1089000   0.81238935    -7.783226    220.33266  0.016860473  0.016452533           11 
 1090000   0.81241946    -7.826992    219.92989  0.016814211  0.016436851           22 
 1091000   0.81995916   -7.8106269    220.18984  0.016818655  0.016421204           17 
 1092000   0.79890347   -7.8226077    220.07305  0.016794342  0.016405554           26 
 1093000   0.81775527   -7.8007374    219.84183  0.016761347  0.016389901           26 
 1094000   0.82084913   -7.8271043    220.41777  0.016789897  0.016374295           14 
 1095000   0.80411077    -7.818743    220.55721  0.016785176  0.016358701           17 
 1096000   0.80157594   -7.7845814    221.39491  0.016833554  0.016343226           22 
 1097000   0.82630115   -7.7846815    220.76582  0.016770421  0.016327781           11 
 1098000     0.824842    -7.792419    220.94323  0.016768611  0.016312463           16 
 1099000   0.80121792   -7.8019752    220.52514  0.016721651   0.01629715           14 
 1100000   0.81705233   -7.8081448    221.45611  0.016776978  0.016281857           10 
 1101000   0.82540008   -7.8014004     221.2768  0.016748169  0.016266499           20 
 1102000   0.82173765   -7.7835614    220.95826  0.016708882  0.016251172           11 
 1103000   0.81332261   -7.8040095    220.73126  0.016676583  0.016235831           24 
 1104000   0.82121989    -7.791451    220.83733  0.016669485  0.016220471           16 
 1105000   0.81601802    -7.823057    221.24483  0.016685131  0.016205181           41 
 1106000   0.80568038   -7.7847301    221.46084   0.01668632  0.016189969           20 
 1107000   0.82000205   -7.7816697    221.12295  0.016645811  0.016174766           10 
 1108000   0.82492705    -7.807447    221.13907     0.016632  0.016159545           29 
 1109000   0.79464398   -7.8391141    220.54889  0.016572655   0.01614433           10 
 1110000     0.826686   -7.8272105    221.03879  0.016594504  0.016129037           22 
 1111000   0.79217922   -7.8232228     221.7617  0.016633791  0.016113785            8 
 1112000   0.82411109   -7.8440914    221.05985  0.016566236  0.016098523           23 
 1113000   0.80591297   -7.8389832    220.76112  0.016528985  0.016083241           26 
 1114000    0.8093149   -7.8264079    220.99743  0.016531824  0.016068006           34 
 1115000   0.80920974   -7.8452552    221.20721  0.016532676  0.016052723           32 
 1116000   0.81948549   -7.8362603    221.34829  0.016528397  0.016037477           11 
 1117000   0.80577263   -7.8587157     220.9554  0.016484288  0.016022242           10 
 1118000   0.80173317   -7.8621519    220.83688  0.016460709  0.016006972           19 
 1119000   0.79171416   -7.8443466    220.85593  0.016447418  0.015991772           25 
 1120000     0.809432   -7.8200015     221.5335  0.016483148  0.015976584            8 
 1121000   0.79659591   -7.8626052    221.59968  0.016473363  0.015961426            8 
 1122000   0.80985282   -7.8566264    220.98653  0.016413141  0.015946284            6 
 1123000   0.79793457   -7.8452072    220.47903  0.016360866  0.015931081            8 
 1124000   0.81235552   -7.8272466    221.31008  0.016407924  0.015915987            8 
 1125000     0.789659    -7.836629    220.83811  0.016358379   0.01590088            6 
 1126000   0.79605294    -7.857599    221.73184  0.016409994  0.015885739           11 
 1127000    0.8048095   -7.8944944    220.76258  0.016323764  0.015870549           10 
 1128000   0.81433393      -7.8326    222.38279  0.016428989   0.01585543           13 
 1129000   0.79230442   -7.8454164    221.48897  0.016348462  0.015840409            6 
 1130000   0.83294652   -7.8632168    221.00624  0.016298395  0.015825342            7 
 1131000    0.7947903   -7.8299524    222.03761  0.016359977  0.015810315           11 
 1132000   0.80798861   -7.8941076    221.19739  0.016283671  0.015795278           23 
 1133000   0.80745205   -7.8591953    221.72724   0.01630827   0.01578025           13 
 1134000   0.80668573   -7.8731118      221.316  0.016263668  0.015765182           13 
 1135000   0.79859166   -7.8849325    221.51547  0.016263984  0.015750153           26 
 1136000   0.78905336   -7.8361756    221.66489  0.016260629  0.015735132           13 
 1137000   0.77432113   -7.8723145    221.54796  0.016237757  0.015720109           12 
 1138000   0.79991137   -7.8565262    221.51248   0.01622089  0.015705071           32 
 1139000   0.80663201   -7.8934379    221.38196    0.0161971   0.01569007           13 
 1140000   0.79795109   -7.8750622    220.85425  0.016144317  0.015674994           25 
 1141000   0.81053658   -7.8684022    221.64723  0.016188083  0.015659984           13 
 1142000    0.7928748   -7.9033302    221.16408  0.016138652  0.015644921           12 
 1143000   0.79292706   -7.8531937    221.78372  0.016169708   0.01562985           24 
 1144000   0.79421423   -7.9070772    220.85193  0.016087699  0.015614789            6 
 1145000    0.7961508   -7.8555991    221.58387  0.016126919  0.015599758           37 
 1146000   0.79577875   -7.8827676    221.47802   0.01610515  0.015584761           15 
 1147000   0.82038804   -7.8669098    221.81345  0.016115479  0.015569804           14 
 1148000   0.78574491   -7.9018961    221.56536  0.016083432   0.01555487           19 
 1149000   0.80002713   -7.9239527    221.25812  0.016047151  0.015539862           11 
 1150000   0.79936452   -7.9245207     220.8826  0.016005985   0.01552487           28 
 1151000   0.80157054   -7.8770555    221.27168  0.016020249  0.015509893           17 
 1152000   0.78454774   -7.9048932    221.03205  0.015989008  0.015494929           10 
 1153000   0.80558167   -7.9132889    220.63649  0.015946551  0.015479955            9 
 1154000   0.80746341   -7.9016857    221.27276   0.01597868  0.015465016           21 
 1155000   0.79038602   -7.8819897    221.77106  0.016000798  0.015450074           22 
 1156000   0.79652496   -7.8904563    221.71784   0.01598312  0.015435186           11 
 1157000   0.77439468   -7.9242413    221.25336  0.015935852  0.015420242           12 
 1158000   0.80287437   -7.8795166    222.09861  0.015982917  0.015405355           65 
 1159000    0.7959475   -7.8938476    221.52034  0.015927548  0.015390527           34 
 1160000   0.78400268   -7.8444457    221.98315  0.015947065   0.01537575           26 
 1161000   0.80295417   -7.9117152    221.38304  0.015890256  0.015360977           34 
 1162000   0.77838261   -7.9051179    221.63647  0.015894756   0.01534612           12 
 1163000   0.79580392   -7.8879969    221.65541  0.015882445  0.015331275           18 
 1164000   0.78285259    -7.889033    221.72097  0.015873494  0.015316482           15 
 1165000     0.782111   -7.9018115    221.68164  0.015857056  0.015301669           38 
 1166000   0.78811058   -7.9065402    221.63655  0.015840234  0.015286877           76 
 1167000   0.79671929   -7.8971164    221.71928  0.015832568  0.015272195           25 
 1168000   0.78773178   -7.8980854    222.02058  0.015840509  0.015257532           23 
 1169000   0.78482472   -7.9035412    221.71689   0.01580531  0.015242884           57 
 1170000   0.78704215   -7.9422382    221.05944  0.015744974  0.015228178           32 
 1171000   0.78775654   -7.9324044    221.43724  0.015758415  0.015213512           51 
 1172000   0.77247851   -7.9302904    221.29488  0.015734846  0.015198812           29 
 1173000    0.7824377   -7.9212948    221.68474  0.015749129  0.015184184           20 
 1174000   0.77588026   -7.9132348    222.13654  0.015767784  0.015169529           66 
 1175000   0.79542275   -7.9107578    221.46087  0.015706444  0.015154922          126 
 1176000   0.78497931    -7.925608    221.70571  0.015710439  0.015140267           65 
 1177000   0.77850183   -7.9169538    221.27256  0.015666423  0.015125646           54 
 1178000   0.80603788   -7.9237733    221.71033  0.015684092   0.01511098           89 
 1179000   0.77056504   -7.9101242    221.97454  0.015689464  0.015096348           63 
 1180000    0.7717202   -7.8916379     221.6467  0.015653015  0.015081785           61 
 1181000   0.75466431   -7.9169346    221.73183  0.015645768   0.01506718           35 
 1182000   0.80188059   -7.9078341    222.03148  0.015653657  0.015052656           65 
 1183000   0.79715949   -7.9113872     221.8063  0.015624564  0.015038184           80 
 1184000   0.78362632   -7.9071925    222.01565  0.015626101  0.015023729           40 
 1185000   0.77458258   -7.9059827    221.74038  0.015593557  0.015009326           76 
 1186000   0.78847519   -7.9280015    221.86806   0.01558938  0.014994865           58 
 1187000    0.7852423   -7.9364868    221.75018  0.015567971  0.014980386           73 
 1188000    0.7772076   -7.9104418    222.14641   0.01558266  0.014965934           38 
 1189000   0.76652089   -7.9241594    221.91776   0.01555353  0.014951494           47 
 1190000    0.7711246   -7.8781721    221.95232   0.01554288  0.014937087           55 
 1191000   0.78651628   -7.9143817     221.7663  0.015516814  0.014922667           69 
 1192000    0.7740902   -7.8838943     221.7732  0.015504279  0.014908333           93 
 1193000   0.77848027   -7.9251623    222.07637   0.01551246  0.014894004           98 
 1194000   0.76011188   -7.8999195    222.19468  0.015507725  0.014879592           68 
 1195000   0.77556149   -7.9206053    222.18704  0.015494215  0.014865173           65 
 1196000   0.80775189   -7.9309285    221.60654  0.015440813  0.014850743          105 
 1197000   0.77012804   -7.9541706    221.87152   0.01544636  0.014836311          106 
 1198000   0.78066425   -7.9680051    221.66396  0.015419029   0.01482193           97 
 1199000   0.77252476   -7.9382392    221.89944  0.015422535  0.014807496           87 
 1200000   0.77797198   -7.9542495    222.06621  0.015421265  0.014793056           63 
 1201000   0.78256228   -7.9632674    221.57107  0.015374068  0.014778647           73 
 1202000   0.76290372   -7.9779466    221.51117  0.015357125  0.014764247           82 
 1203000   0.77622372    -7.977358     221.7466  0.015360668  0.014749844           89 
 1204000   0.77824957   -7.9539278    221.62133   0.01533924  0.014735452           79 
 1205000   0.76293563   -7.9473652    222.00622  0.015353127  0.014720997           69 
 1206000    0.7738993   -7.9814114    221.42002  0.015299891  0.014706604           60 
 1207000   0.78569719   -7.9534707    221.45113  0.015289363  0.014692198           29 
 1208000   0.77215049   -7.9307769    221.66598  0.015291527  0.014677805           54 
 1209000    0.7731381   -7.9565953    221.63091  0.015276462  0.014663431           84 
 1210000    0.7649882   -7.9421575    221.81551  0.015276551  0.014649096           71 
 1211000   0.76914723   -7.9552181    222.22589  0.015292175   0.01463478          146 
 1212000    0.7699393   -7.9396773    222.01254  0.015264888  0.014620468          135 
 1213000   0.77264219   -7.9688216    221.08111  0.015188315   0.01460615          135 
 1214000   0.78556627   -8.0120546    221.17974  0.015182574  0.014591819           51 
 1215000   0.76744765   -7.9512706    221.25524  0.015175257  0.014577483          181 
 1216000   0.75977649    -7.968902    221.84493  0.015203189  0.014563179          125 
 1217000   0.77136964   -7.9688141     221.3633  0.015157717  0.014548914          182 
 1218000    0.7486988   -7.9352358    221.61826  0.015162717  0.014534665           95 
 1219000   0.76081605   -7.9377907    222.45692   0.01520761  0.014520509          161 
 1220000    0.7735035   -7.9677177    221.74791  0.015146715  0.014506392          114 
 1221000   0.78491242   -7.9464947    221.40507  0.015110911  0.014492282           91 
 1222000   0.77425106   -7.9652308    222.35626  0.015163411  0.014478164          134 
 1223000   0.78520019   -7.9732617    221.27454  0.015077306  0.014463969          166 
 1224000   0.75839811   -7.9648976    221.93813  0.015110167  0.014449797          133 
 1225000   0.76315772   -7.9868072    221.14047  0.015043569  0.014435669           97 
 1226000   0.74863263   -7.9916188    221.51743  0.015056922  0.014421518          121 
 1227000   0.73297552   -7.9978187    221.94193  0.015073481  0.014407374          115 
 1228000   0.76461654   -7.9730568    222.21821  0.015079955   0.01439326          110 
 1229000   0.75322438   -7.9826888    221.81528  0.015040363  0.014379177           88 
 1230000   0.75291394   -8.0063504    221.91656  0.015034997  0.014365101           93 
 1231000   0.76674062   -7.9892884    222.04523  0.015031494  0.014351006          105 
 1232000   0.76538989   -7.9836877    221.49689  0.014982203  0.014336926          123 
 1233000   0.75214352   -7.9920493    222.18607  0.015016631  0.014322827          121 
 1234000   0.76370837   -7.9583379    222.35167  0.015015645   0.01430878          144 
 1235000   0.75906334   -7.9805746    221.53016  0.014948054  0.014294723          118 
 1236000   0.74295299   -8.0023833    221.68623  0.014946482  0.014280665          152 
 1237000   0.76539674    -8.017643    221.52476  0.014923522  0.014266583          123 
 1238000   0.76848145   -8.0107931    221.54853  0.014913068  0.014252518          140 
 1239000   0.76101954   -8.0298404    221.30231  0.014884471  0.014238454          127 
 1240000   0.77501136   -8.0032739    221.29354  0.014871878  0.014224488           98 
 1241000   0.77202764   -8.0129414    222.17019  0.014918761  0.014210478           99 
 1242000   0.74495032   -8.0028143    221.51304  0.014862657  0.014196487          111 
 1243000   0.75258057   -8.0178265     221.0824  0.014821829  0.014182497          189 
 1244000   0.76198146   -8.0036495    221.29796  0.014824354  0.014168474           97 
 1245000   0.75318637   -7.9920906    221.73849  0.014841934  0.014154505           92 
 1246000   0.75267316   -8.0100571     221.7897  0.014833447  0.014140613          123 
 1247000   0.75542097   -7.9991475    221.79504  0.014821909  0.014126745          144 
 1248000    0.7435047   -8.0332596    221.67781  0.014802204  0.014112858          144 
 1249000   0.75168136   -8.0296751    221.72382  0.014793422  0.014099008          155 
 1250000   0.75252727   -8.0491871    221.37074  0.014758049  0.014085125          169 
 1251000   0.77735357   -8.0465869    221.38963  0.014747511   0.01407124          179 
 1252000   0.76152454   -8.0313856     221.6895  0.014755691  0.014057329          157 
 1253000   0.73714638   -8.0216021    221.58683  0.014737086  0.014043454          182 
 1254000   0.76400129   -8.0153213    221.81365  0.014740407  0.014029619          141 
 1255000   0.76611489   -8.0272552    221.93085  0.014736444    0.0140158           79 
 1256000   0.73896031   -8.0306069    222.01045  0.014729993  0.014001967          116 
 1257000   0.74561701   -8.0269076    221.74161  0.014700452  0.013988158          173 
 1258000   0.74420046   -8.0053317     222.0425  0.014708697  0.013974428          129 
 1259000   0.73280133   -8.0100515    221.48823  0.014660327  0.013960687           96 
 1260000   0.76067406   -8.0334248    221.46137  0.014646916  0.013946946          149 
 1261000   0.73087565   -8.0204064    221.37074  0.014629311  0.013933195          159 
 1262000   0.75813125   -8.0260817    222.05695  0.014663032   0.01391946          147 
 1263000   0.75142749   -8.0294197    221.65841  0.014625126  0.013905712          193 
 1264000   0.74879684   -8.0362982    221.65711   0.01461347  0.013891967          173 
 1265000    0.7515928   -8.0567741    221.83047  0.014613338  0.013878217          208 
 1266000   0.74977052   -8.0318569    221.26578  0.014564625  0.013864524          214 
 1267000   0.74583806    -8.063346    221.71972  0.014582986   0.01385085          260 
 1268000   0.76810088   -8.0276624    221.89957  0.014583305  0.013837244          227 
 1269000   0.73313621   -8.0503085    221.95935  0.014575739  0.013823616          217 
 1270000   0.74759628   -8.0412023    221.77519  0.014552178  0.013809994          231 
 1271000    0.7633759   -8.0429547    221.77213  0.014540528  0.013796357          333 
 1272000    0.7410619   -8.0479075     221.7916  0.014530372  0.013782736          245 
 1273000   0.74885268   -8.0905243    221.13262   0.01447582  0.013769156          240 
 1274000     0.757473   -8.0832497    222.24921  0.014537494  0.013755607          232 
 1275000   0.75395891   -8.0679168    222.04882  0.014512995  0.013742109          248 
 1276000   0.75838377   -8.0590771    221.99768  0.014498281  0.013728593          222 
 1277000   0.74702776   -8.0788313    221.68776  0.014466703  0.013715097          224 
 1278000   0.75239254   -8.0537831    221.76647  0.014460516  0.013701582          239 
 1279000   0.76471728   -8.0470309    221.67462  0.014443225  0.013688096          169 
 1280000    0.7414401   -8.0382347    222.17053  0.014464227  0.013674641          203 
 1281000   0.74346211   -8.0715835    221.85024    0.0144321  0.013661223          249 
 1282000   0.73418707   -8.0906809    221.79719  0.014417394  0.013647844          246 
 1283000   0.74704222    -8.079157    221.79203  0.014405822  0.013634449          293 
 1284000    0.7247501   -8.0869777    221.51664  0.014376729   0.01362103          392 
 1285000   0.72972652   -8.0641253    222.24726  0.014412922  0.013607601          262 
 1286000   0.73970625   -8.0902714    221.60347  0.014359997  0.013594182          266 
 1287000   0.74559938   -8.0855401    221.83529  0.014363849  0.013580817          216 
 1288000   0.71669052   -8.0730126    221.75126  0.014347261  0.013567507          232 
 1289000   0.74815945   -8.0792975    221.68753   0.01433201  0.013554172          258 
 1290000   0.73850171    -8.079752    222.31479  0.014361421  0.013540839          315 
 1291000   0.73337607   -8.1063891    221.61641  0.014305216  0.013527477          290 
 1292000   0.72461027   -8.0906844    221.47832  0.014285238  0.013514162          331 
 1293000    0.7391997   -8.0911498    221.83667  0.014297284  0.013500833          360 
 1294000   0.73767582   -8.0764622    221.42854  0.014259952  0.013487474          300 
 1295000   0.73694067   -8.1154763    221.30031  0.014240689  0.013474113          456 
 1296000   0.74735687   -8.1114952    221.67677  0.014253908  0.013460729          537 
 1297000    0.7136355   -8.1020462    221.58908  0.014237283  0.013447385          535 
 1298000   0.73304436   -8.0891013    221.46769  0.014218522  0.013434056          580 
 1299000   0.72240906   -8.0981701    221.58955  0.014215393   0.01342078          539 
 1300000   0.73341633   -8.1133932    221.42525  0.014193926  0.013407532          358 
 1301000   0.73717908   -8.1058866    221.33461  0.014177211  0.013394272          395 
 1302000   0.73739267   -8.0934122    221.75959  0.014193522  0.013381006          513 
 1303000   0.73696924   -8.1416859     221.5752  0.014170837  0.013367776          564 
 1304000   0.73733149   -8.1071788    221.75833  0.014171672  0.013354532          551 
 1305000   0.74375998   -8.1326665    221.76264  0.014161088  0.013341278          428 
 1306000   0.74473328   -8.1069245    221.68982  0.014145598  0.013328043          682 
 1307000   0.72319731   -8.1432239    221.05163  0.014094085  0.013314802          616 
 1308000    0.7246392   -8.1113025    221.65692  0.014121873   0.01330153          600 
 1309000   0.72372232   -8.1323714    221.08284  0.014074538  0.013288263          425 
 1310000   0.73188717   -8.1322016    221.42482  0.014085549  0.013275029          416 
 1311000   0.72618548   -8.1546277    221.02718  0.014049528  0.013261792          533 
 1312000   0.73106786   -8.1273614    221.03524  0.014039332  0.013248578          576 
 1313000   0.73538302   -8.1409751    221.46645  0.014056007  0.013235377          470 
 1314000   0.71012204   -8.1137265    221.76469  0.014064224  0.013222203          408 
 1315000   0.70982864   -8.1376689    221.24124  0.014020357  0.013209048          520 
 1316000    0.7434561   -8.1337239    220.79228  0.013981274  0.013195911          458 
 1317000   0.74782051   -8.1395111     220.7624  0.013968768  0.013182785          483 
 1318000    0.7335854   -8.1343265    221.32136   0.01399351  0.013169659          481 
 1319000   0.72942214   -8.1401833    221.47201  0.013992419  0.013156491          418 
 1320000   0.72427681   -8.1506679    220.91593  0.013946713  0.013143331          501 
 1321000   0.72166042   -8.1384546    221.00415   0.01394172  0.013130183          440 
 1322000   0.74409728   -8.1645043    220.72878  0.013913816  0.013117008          505 
 1323000    0.7204311   -8.1912185    220.60707  0.013895633  0.013103878          478 
 1324000   0.71243472   -8.1387872    220.74979   0.01389412  0.013090722          478 
 1325000   0.71944164   -8.1404307    221.06504  0.013903461  0.013077583          461 
 1326000   0.71812851   -8.1484494    220.63585  0.013866004  0.013064445          473 
 1327000   0.72255589   -8.1538167    221.13716  0.013887036  0.013051361          471 
 1328000   0.72523221   -8.1527158    221.06616  0.013872123  0.013038301          505 
 1329000   0.72619758   -8.1370885    221.16407  0.013867825  0.013025224          501 
 1330000   0.73572285   -8.1523013    221.14123  0.013855967  0.013012197          531 
 1331000   0.72385558   -8.1360693    220.93546  0.013832673  0.012999133          725 
 1332000    0.7106126   -8.1727968     220.6915  0.013807026  0.012986097          841 
 1333000   0.71418625   -8.1619295    220.93977  0.013812189  0.012973063          779 
 1334000    0.7372171   -8.1452627     221.1224  0.013813243   0.01296003          677 
 1335000   0.71481299   -8.1749973    221.04385  0.013797993  0.012947038          577 
 1336000   0.70824216   -8.1681843    220.62781  0.013761715  0.012934043          707 
 1337000    0.7468103   -8.1574735    220.83253  0.013764181  0.012921083          746 
 1338000    0.7062408   -8.1968523    220.77594   0.01375037  0.012908152          742 
 1339000   0.72016826   -8.1921949    220.20584  0.013704621  0.012895191          644 
 1340000   0.70902567   -8.1703924     220.3361  0.013702494  0.012882261          875 
 1341000   0.73488491   -8.1857421    220.95925     0.013731  0.012869361          884 
 1342000   0.71886372   -8.1571676    220.98985  0.013722668  0.012856444          839 
 1343000   0.70291618   -8.2094349    220.78993  0.013700045  0.012843537          874 
 1344000   0.70751372   -8.2021703    220.73729  0.013686588  0.012830618          639 
 1345000   0.72118981   -8.1823947    220.93254  0.013688509  0.012817734          873 
 1346000   0.71604067   -8.2076705    220.68058   0.01366274  0.012804876          683 
 1347000   0.70938889   -8.2175847    220.07284  0.013614999  0.012791999          872 
 1348000   0.69903191   -8.2168228    220.68274  0.013642603  0.012779113          878 
 1349000   0.71462845   -8.1992015    220.21616  0.013603667  0.012766226          897 
 1350000   0.73058284   -8.1915356      220.629  0.013619074  0.012753358          847 
 1351000   0.71470396   -8.1807197    220.71778  0.013614469  0.012740512          805 
 1352000   0.70657981   -8.2185605     220.3249  0.013580184  0.012727665          916 
 1353000   0.72569029   -8.2103646    220.62131  0.013588403  0.012714832          830 
 1354000   0.71583152   -8.2245874    220.46348  0.013568653  0.012702019          864 
 1355000    0.7157161   -8.2124645    220.37453  0.013553169   0.01268917          847 
 1356000   0.72438415   -8.2132405    220.25268  0.013535686  0.012676375          829 
 1357000     0.706689   -8.2089338    220.81456  0.013560216  0.012663592          867 
 1358000   0.72112153   -8.1981791    220.70061  0.013543238  0.012650854          907 
 1359000   0.71296453   -8.2028738    220.64443  0.013529827  0.012638101          925 
 1360000   0.72013204   -8.2199196    220.27487  0.013497234  0.012625352         1009 
 1361000   0.70738711   -8.2053511    220.44221  0.013497564    0.0126126          973 
 1362000   0.71015964     -8.21708    220.47138  0.013489439  0.012599887          939 
 1363000   0.70667655   -8.2372688    220.51054  0.013481936  0.012587177          952 
 1364000   0.70981211   -8.2556813    220.16019  0.013450647  0.012574453          848 
 1365000   0.72380633   -8.2530331    220.01758  0.013432087  0.012561724         1007 
 1366000    0.7094672   -8.2457394     220.5858  0.013456918  0.012548996          911 
 1367000   0.71796513    -8.222221    220.11657  0.013418469  0.012536305          999 
 1368000   0.69733459   -8.2388793    220.05129  0.013404684  0.012523611          958 
 1369000   0.71213231   -8.2453199    220.35358  0.013413293  0.012510956         1019 
 1370000    0.6881868   -8.2465935    219.96312  0.013379752  0.012498286         1073 
 1371000   0.71078554   -8.2411166    220.26834  0.013388545  0.012485653         1011 
 1372000   0.70084269    -8.234198    220.47659  0.013391435  0.012473043          820 
 1373000   0.70319299   -8.2263764    220.29092  0.013370413  0.012460457         1079 
 1374000   0.71822664   -8.2372206    220.01078  0.013343691  0.012447859         1026 
 1375000    0.7033847   -8.2237623    220.48884   0.01336296   0.01243527         1044 
 1376000   0.70740665   -8.2571356     219.9122  0.013318326  0.012422688         1069 
 1377000   0.69574609   -8.2142956    220.07162  0.013318302  0.012410103         1083 
 1378000      0.68476   -8.2403973    220.26433  0.013320291  0.012397535         1095 
 1379000   0.70088185   -8.2643687    220.14178  0.013303225  0.012384995         1129 
 1380000   0.69848207   -8.2530316    219.77169  0.013271237  0.012372445         1094 
 1381000   0.69472867   -8.2603976    220.08973  0.013280819  0.012359899         1158 
 1382000   0.68972294   -8.2725413    220.33781  0.013286168  0.012347351         1201 
 1383000   0.69529844   -8.2444466    219.90737  0.013250625  0.012334804         1139 
 1384000   0.69214084   -8.2529103    219.98599  0.013245785  0.012322284         1146 
 1385000   0.71023468   -8.2783196    219.41717  0.013201996  0.012309777         1180 
 1386000   0.71833677   -8.2604495    219.82375  0.013216916  0.012297275         1130 
 1387000   0.69107354   -8.2507922    219.87047  0.013210194  0.012284802         1131 
 1388000    0.6995757   -8.2682112    219.66558  0.013188375  0.012272349         1194 
 1389000   0.69586663   -8.2873248    219.68873   0.01318027  0.012259883         1123 
 1390000   0.70746147    -8.268933    219.95123  0.013186524  0.012247446         1260 
 1391000   0.69217169   -8.2583368    219.96924  0.013178123   0.01223503         1227 
 1392000   0.71106769   -8.2699871    219.70755   0.01315299  0.012222622         1178 
 1393000   0.69595362   -8.2818761    220.18883   0.01317234  0.012210215         1194 
 1394000   0.70266388   -8.2792176    220.10431  0.013157838  0.012197831         1221 
 1395000   0.70406003   -8.2789579    219.58995  0.013117679  0.012185457         1243 
 1396000   0.69500914   -8.2473565    220.00711  0.013133184  0.012173094         1301 
 1397000   0.68994249   -8.2798924    219.53714  0.013095749  0.012160722         1343 
 1398000    0.6780416   -8.2732234    219.65504   0.01309341  0.012148361         1333 
 1399000   0.70536971    -8.270782     219.8611  0.013096325  0.012136023         1248 
 1400000   0.69030315    -8.280571    219.80562  0.013083668  0.012123706         1304 
 1401000   0.69478451   -8.2686155    220.00677  0.013086294  0.012111403         1303 
 1402000   0.70878315   -8.2851487    219.55736  0.013050247  0.012099088         1281 
 1403000    0.6931935   -8.2934036    219.60867  0.013043993  0.012086799         1247 
 1404000   0.69147281   -8.3215406    219.33897  0.013018695  0.012074518         1316 
 1405000   0.69567388   -8.3145571    219.64643  0.013027665  0.012062265         1372 
 1406000   0.70093891   -8.2938143    219.63772  0.013017883  0.012050016         1335 
 1407000   0.70988564   -8.3064341    219.25303  0.012985846  0.012037774         1308 
 1408000   0.67792934    -8.296686    219.66829  0.013001201  0.012025551         1370 
 1409000   0.68103232   -8.3055348    219.57309  0.012986343  0.012013323         1526 
 1410000   0.68357904   -8.3007539    219.57251  0.012977099  0.012001118         1484 
 1411000   0.68779964   -8.2981643    219.31569  0.012952734  0.011988919         1410 
 1412000   0.69572766    -8.298623    220.14538  0.012992527  0.011976773         1422 
 1413000   0.70192508   -8.2980234    219.42052  0.012940582  0.011964613         1462 
 1414000   0.69163956   -8.3161214    219.71817  0.012948973  0.011952453         1480 
 1415000    0.7013268   -8.2945102     219.4235  0.012922468  0.011940311         1511 
 1416000   0.67619843   -8.2915828    219.60864  0.012924238  0.011928176         1485 
 1417000   0.68327181   -8.2821311    219.57819  0.012913326  0.011916056         1415 
 1418000   0.68962828   -8.3294622    218.97066  0.012868516  0.011903962         1518 
 1419000   0.69146451   -8.3037392    219.47886  0.012889292  0.011891866         1561 
 1420000   0.69020261   -8.3216759    219.01014  0.012852708  0.011879791         1557 
 1421000   0.69301262   -8.2939986    219.89365  0.012895475  0.011867713         1465 
 1422000   0.67195519   -8.3079742    219.41901  0.012858592  0.011855647         1580 
 1423000   0.69041442   -8.3060741    219.51247  0.012855029  0.011843622         1570 
 1424000   0.67663293   -8.3155992    219.62999  0.012852879  0.011831601         1537 
 1425000   0.69189158   -8.3249329    219.16432  0.012816627  0.011819573         1558 
 1426000   0.68620036   -8.3242193    219.31178  0.012816257  0.011807538         1567 
 1427000    0.6860437   -8.3111056    218.87754  0.012781916   0.01179554         1466 
 1428000   0.68313192   -8.3234816    219.18715  0.012791033  0.011783558         1549 
 1429000   0.69682083   -8.3266235     219.5508  0.012803289  0.011771588         1609 
 1430000   0.69799071   -8.3002165    219.07033  0.012766336  0.011759656         1560 
 1431000   0.68298204   -8.3602871    219.01553  0.012754224  0.011747706         1674 
 1432000   0.68556611   -8.3327687    220.14179  0.012810858  0.011735771         1650 
 1433000   0.66472818   -8.3588736    219.07224  0.012739721  0.011723868         1703 
 1434000   0.67391599   -8.3274028    219.12322  0.012733799  0.011711938         1710 
 1435000   0.67448714    -8.331996    218.75385  0.012703475  0.011700029         1699 
 1436000   0.68262786   -8.3533336    219.10903  0.012715241  0.011688143         1575 
 1437000   0.66454177   -8.3230806    219.53513  0.012731103  0.011676241         1691 
 1438000   0.67379981   -8.3444307    219.65584  0.012729244  0.011664358         1563 
 1439000   0.67827053   -8.3639847     219.0819  0.012687161  0.011652482         1635 
 1440000   0.69168458   -8.3285824    219.13209  0.012681255  0.011640634         1622 
 1441000    0.6645408   -8.3670601    219.50023  0.012693745  0.011628792         1675 
 1442000   0.67785719    -8.388729    218.93488   0.01265227  0.011616945         1654 
 1443000   0.67433991   -8.3506757    219.57508  0.012680473  0.011605114         1639 
 1444000   0.67974704   -8.3711995      218.964  0.012636427  0.011593319         1623 
 1445000   0.68405252   -8.3758393    219.14298  0.012638003  0.011581533         1702 
 1446000   0.67910702    -8.361172    218.66277  0.012601589  0.011569767         1714 
 1447000   0.66664292    -8.349372    218.78412  0.012599869  0.011558009         1659 
 1448000   0.66686481   -8.3427194    219.06419  0.012607285  0.011546257         1603 
 1449000   0.68521195   -8.3586777    218.87526  0.012587719  0.011534509         1610 
 1450000   0.68383005   -8.3707946     218.8951  0.012580178  0.011522762         1648 
 1451000   0.69028657    -8.371628    218.46525  0.012546821  0.011511061         1642 
 1452000   0.66897825   -8.3633483     219.1615   0.01257814  0.011499365         1625 
 1453000   0.67513231   -8.3699418    218.79752  0.012548607  0.011487666         1558 
 1454000   0.67649572    -8.379234      219.322  0.012570036  0.011475985         1654 
 1455000   0.67012383   -8.3662953     219.2045  0.012554668  0.011464311         1588 
 1456000    0.6797379   -8.3742961    218.70117  0.012517237  0.011452644         1667 
 1457000   0.67762178   -8.3688905    219.49377  0.012553979  0.011441013         1640 
 1458000   0.68710576   -8.4012444    218.77576   0.01250433  0.011429377         1666 
 1459000   0.68668988   -8.3725861    218.87708  0.012501547  0.011417751         1613 
 1460000   0.67979206   -8.3656174    218.91046  0.012494889  0.011406154         1632 
 1461000   0.68475324   -8.3678245    218.49245  0.012462494  0.011394564         1648 
 1462000   0.66503384   -8.3989243    218.78302  0.012470532  0.011382981         1764 
 1463000   0.67212927   -8.3861422    218.74573  0.012459885  0.011371406         1691 
 1464000   0.68027196   -8.3772139    218.88665  0.012459395  0.011359861         1573 
 1465000   0.66421693   -8.3648616    219.02683  0.012458864  0.011348331         1653 
 1466000   0.68024064   -8.3909235    218.66296  0.012429682  0.011336807         1623 
 1467000   0.66925975    -8.354667    218.77917   0.01242781  0.011325284         1654 
 1468000   0.67475378   -8.3850601    219.10766  0.012437991  0.011313784         1659 
 1469000   0.67291485   -8.3836216    218.79625  0.012411859  0.011302309         1637 
 1470000    0.6590193   -8.3969938    218.35804  0.012378574  0.011290813         1774 
 1471000   0.66905817   -8.3984687    218.45364  0.012375575  0.011279327         1716 
 1472000   0.67059093   -8.3839026    218.84879  0.012389537  0.011267843         1643 
 1473000   0.66873109   -8.3919227    218.95526   0.01238715  0.011256373         1691 
 1474000   0.65376689   -8.3940283    218.77623  0.012368625  0.011244913         1727 
 1475000   0.65200545   -8.3964005    218.39667  0.012338795  0.011233453         1786 
 1476000   0.66653841   -8.4137596    218.19713   0.01231917  0.011222022         1745 
 1477000   0.66969806   -8.4176119    218.49794  0.012327801  0.011210615         1720 
 1478000   0.66881096   -8.3992873    218.35612  0.012311464  0.011199213         1637 
 1479000   0.66156668   -8.3761957    218.25344  0.012297354  0.011187823         1666 
 1480000   0.65517216   -8.4080674    218.44061  0.012299584  0.011176451         1657 
 1481000   0.66007709   -8.3797243    218.51067  0.012295221  0.011165078         1702 
 1482000   0.66057791   -8.4032999    218.49106  0.012285822  0.011153721         1691 
 1483000   0.65533992   -8.3952714     218.4766  0.012276725  0.011142377         1756 
 1484000   0.67537829   -8.4314134      218.245  0.012255447  0.011131041         1728 
 1485000   0.67648771   -8.4134659    218.67347  0.012271239  0.011119731         1841 
 1486000   0.66130264   -8.4184223    218.67715  0.012263187  0.011108446         1716 
 1487000   0.65018208   -8.3832005    219.04725  0.012275681  0.011097179         1696 
 1488000   0.66319468   -8.4260189    218.27379  0.012224114  0.011085916         1819 
 1489000   0.64918146   -8.3854076    218.99072  0.012256029  0.011074682         1745 
 1490000    0.6591221   -8.4204884    218.65812  0.012229201  0.011063441         1853 
 1491000   0.66313473   -8.3973462    218.42225  0.012207816  0.011052218         1832 
 1492000   0.65223684   -8.4136745    218.32534  0.012194222  0.011041001         1779 
 1493000   0.65355386   -8.4152602    218.16556  0.012177136    0.0110298         1823 
 1494000   0.65801881   -8.4049052    218.81393   0.01220515  0.011018616         1725 
 1495000   0.65281751   -8.4096109    218.54673  0.012182092  0.011007433         1777 
 1496000   0.67109391   -8.4066172    218.81678  0.012188991  0.010996285         1834 
 1497000   0.63917532   -8.3921216    218.97722   0.01218978  0.010985157         1736 
 1498000   0.66117856   -8.4123896    218.07617  0.012131518  0.010974027         1773 
 1499000   0.67297978   -8.3958849    218.52983  0.012148645  0.010962931         1741 
 1500000   0.66595104   -8.4051806     218.7503  0.012152794  0.010951834         1795 
 1501000   0.65336781   -8.4108708    218.45406  0.012128251  0.010940752         1795 
 1502000   0.64494164   -8.3985064     218.4019  0.012117283  0.010929697         1770 
 1503000   0.64441944   -8.4001135    218.31699  0.012104512  0.010918666         1819 
 1504000   0.64257829   -8.4112745    218.70636  0.012118039  0.010907626         1752 
 1505000   0.64804048   -8.4253582    218.60483  0.012104365  0.010896583         1851 
 1506000   0.66096318   -8.4045198    218.47557  0.012089175  0.010885571         1781 
 1507000   0.64674458   -8.4245314    218.69998  0.012093562  0.010874578         1855 
 1508000   0.65090528   -8.4268629    218.11244  0.012053074  0.010863566         1861 
 1509000   0.65082643   -8.4355444    218.17461  0.012048521  0.010852546         1821 
 1510000   0.66071546   -8.4241218    218.10359  0.012036622   0.01084156         1829 
 1511000    0.6654208   -8.4301478     218.0925  0.012028044  0.010830606         1871 
 1512000    0.6617219   -8.4322054     218.3856  0.012036244  0.010819649         1852 
 1513000   0.64978781   -8.4139586    218.22604    0.0120195  0.010808701         1872 
 1514000   0.65991303   -8.4071482     218.3412  0.012017899  0.010797771         1885 
 1515000   0.63566493    -8.428169    218.02205  0.011992412  0.010786857         1968 
 1516000   0.64021187   -8.4563379     218.0692  0.011987093  0.010775946         1950 
 1517000    0.6558612   -8.4319316    218.67355   0.01201239  0.010765029         1954 
 1518000   0.64099023   -8.4493166    218.07951  0.011971866  0.010754138         2006 
 1519000    0.6352641   -8.4224204    218.00888   0.01196011  0.010743246         1940 
 1520000   0.65263723   -8.4404375    217.88528  0.011945465  0.010732387         2016 
 1521000   0.63915414   -8.4624435    217.80067  0.011932976  0.010721516         1918 
 1522000   0.65042854   -8.4276673    218.19482  0.011946716  0.010710677         1977 
 1523000    0.6404501   -8.4348238     217.9243   0.01192407  0.010699853         1961 
 1524000   0.63852468   -8.4499126    217.71546  0.011904826   0.01068903         1949 
 1525000   0.64164385    -8.441078    218.11571  0.011918891  0.010678214         1944 
 1526000   0.66144306   -8.4573498    217.75643  0.011891461  0.010667415         2029 
 1527000   0.64372108   -8.4612577    217.82523  0.011887428  0.010656641         2044 
 1528000   0.65003615   -8.4546177    217.98424   0.01188832  0.010645885         2054 
 1529000   0.64532869   -8.4652987    218.29155  0.011897294  0.010635129         1980 
 1530000   0.64057254   -8.4467558     217.6546  0.011854826  0.010624374         1957 
 1531000   0.62788986   -8.4663907    217.93133  0.011862145  0.010613615         2032 
 1532000   0.63975198   -8.4515023    217.83985  0.011849426  0.010602877         2052 
 1533000   0.64463129   -8.4599837     217.8949  0.011844689  0.010592152         2160 
 1534000   0.63635217   -8.4685836     217.4277  0.011811587  0.010581433         2018 
 1535000   0.64369197    -8.462677    217.66824  0.011816951  0.010570749         2057 
 1536000   0.64418314   -8.4510881     217.9223  0.011823041  0.010560071         2067 
 1537000   0.65892689   -8.4643757    218.01245  0.011820237  0.010549422         2093 
 1538000   0.64950161   -8.4526269    218.20893  0.011823198   0.01053876         2006 
 1539000   0.63987192   -8.4557809    217.51312  0.011777838  0.010528107         2003 
 1540000   0.64112647   -8.4484774    218.13436  0.011803807  0.010517481         2087 
 1541000   0.63645723    -8.459272    217.64479  0.011769673  0.010506846         2125 
 1542000   0.64690966   -8.4688047    217.38479  0.011747989  0.010496234         2124 
 1543000   0.64591772   -8.4447053     217.8478  0.011765381  0.010485641         1997 
 1544000   0.63418958   -8.4696383    217.52015  0.011740077   0.01047507         2079 
 1545000   0.63127124   -8.4766328    217.45271  0.011728841  0.010464497         2127 
 1546000   0.63797373   -8.4885342    217.71844  0.011735578   0.01045392         2235 
 1547000    0.6226123   -8.4844916    217.38875  0.011710232  0.010443354         2113 
 1548000    0.6339849   -8.4840216    218.04713   0.01173811  0.010432818         2120 
 1549000   0.62745453   -8.4926259    217.40646  0.011696065  0.010422267         2133 
 1550000   0.63492691   -8.4681802    217.87449  0.011713682  0.010411731         2183 
 1551000   0.63280983   -8.4921654    217.63466  0.011693244  0.010401212         2159 
 1552000   0.63077567   -8.4844252    217.84346  0.011696921  0.010390708         2186 
 1553000   0.63842745   -8.4897068    217.70913  0.011682181   0.01038022         2129 
 1554000   0.62426284   -8.4656856    217.51901  0.011664469  0.010369726         2135 
 1555000   0.62747716   -8.4956417    217.33375  0.011647039  0.010359264         2193 
 1556000   0.62908483   -8.4933673    217.77708  0.011663297    0.0103488         2167 
 1557000   0.63073787   -8.4890511    217.17141   0.01162339   0.01033836         2191 
 1558000   0.64021288   -8.5018095    217.39177  0.011627716   0.01032792         2198 
 1559000   0.62779918   -8.4923852     217.4881  0.011625406  0.010317508         2185 
 1560000   0.62324132   -8.4834867    217.85034  0.011637304  0.010307097         2221 
 1561000   0.64678052   -8.4768454    217.66842  0.011620138  0.010296694         2195 
 1562000   0.63041528    -8.486385     217.1294  0.011583942  0.010286317         2219 
 1563000   0.62928846   -8.4826163    217.43391  0.011592765  0.010275951         2143 
 1564000    0.6240594   -8.5046875     216.9152  0.011557715  0.010265583         2264 
 1565000   0.63213445   -8.5048824    217.30031  0.011570837  0.010255225         2248 
 1566000   0.63434244   -8.4875795    217.74432  0.011587075  0.010244875         2194 
 1567000    0.6162354   -8.4975416    217.65459  0.011574909  0.010234544         2267 
 1568000   0.63017512   -8.4742066    217.48478  0.011558502  0.010224218         2314 
 1569000   0.63542259   -8.5106079    217.17829  0.011534857  0.010213912         2228 
 1570000   0.61363074   -8.5113617    217.12447  0.011524653  0.010203612         2229 
 1571000    0.6272062    -8.502065    216.76258  0.011498121  0.010193321         2250 
 1572000   0.62817444    -8.519701    217.21369  0.011514721  0.010183048         2297 
 1573000   0.62160229    -8.494651    217.13632  0.011503301  0.010172788         2196 
 1574000   0.62626977   -8.4889745    217.09449  0.011493779  0.010162534         2310 
 1575000   0.63442914    -8.497721    217.27449  0.011496005  0.010152296         2256 
 1576000   0.61055244   -8.4964886    217.78252  0.011515573  0.010142079         2337 
 1577000   0.63543248   -8.4934421    217.15964  0.011475356  0.010131881         2305 
 1578000   0.62071427   -8.5039626    217.30266  0.011475637  0.010121677         2253 
 1579000   0.62459442   -8.5114862    216.87155  0.011445617  0.010111496         2400 
 1580000   0.62639343   -8.5271994    217.26896  0.011459333  0.010101326         2286 
 1581000   0.61886377   -8.5217676    217.16458  0.011446583  0.010091161         2308 
 1582000   0.61916115   -8.5000659    217.34365  0.011448781  0.010081009         2294 
 1583000   0.62538555   -8.5044687    217.07853  0.011427592  0.010070871         2330 
 1584000   0.61506648   -8.5079257    217.28375  0.011431174  0.010060755         2293 
 1585000   0.63683416   -8.4913433    217.38554  0.011429313  0.010050637         2321 
 1586000   0.62828691   -8.5062921    217.54095  0.011430273  0.010040541         2371 
 1587000   0.62181622   -8.4986699     217.4779   0.01141976  0.010030476         2247 
 1588000   0.60180076   -8.5004788    217.13495  0.011394571  0.010020416         2304 
 1589000   0.61208571   -8.5032167    216.94383  0.011377377  0.010010371         2277 
 1590000   0.61415005   -8.5141809    217.03162  0.011374823  0.010000329         2359 
 1591000   0.61800822   -8.5231904    217.06048  0.011369185 0.0099902931         2289 
 1592000   0.63139252   -8.5271206    217.19153  0.011368904  0.009980271         2328 
 1593000   0.62669217    -8.516356    217.26874  0.011365806 0.0099702618         2304 
 1594000   0.63206829   -8.5231271    217.14075  0.011351984 0.0099602664         2414 
 1595000   0.62233782   -8.5191268    216.82532  0.011328387 0.0099502808         2335 
 1596000    0.6151354   -8.5264486    217.25136  0.011343534 0.0099403068         2332 
 1597000   0.62116613   -8.5051179    217.33577  0.011340835 0.0099303456         2332 
 1598000   0.61487874   -8.4960107    216.97128  0.011314731 0.0099203976         2349 
 1599000   0.61309676   -8.4990174    217.70259  0.011345768 0.0099104695         2378 
 1600000   0.62028891    -8.510288    217.16573  0.011310715 0.0099005619         2329 
 1601000   0.61322403   -8.5268201     217.3083  0.011311071 0.0098906501         2280 
 1602000   0.61125273   -8.5111383    217.26572  0.011301796  0.009880756         2314 
 1603000   0.60664048   -8.5298879    216.87638  0.011274505 0.0098708769         2378 
 1604000   0.61425258   -8.5299983    217.19379  0.011283967 0.0098609979         2406 
 1605000   0.62151342   -8.5342635    216.83413  0.011258262 0.0098511145         2392 
 1606000   0.60980654    -8.525868     216.8204   0.01125054 0.0098412481         2338 
 1607000   0.60532393   -8.5115113    216.73031  0.011238867 0.0098313967         2386 
 1608000   0.60527365   -8.5302644    216.93088  0.011242272 0.0098215492         2385 
 1609000   0.62527625   -8.5359998    217.09645   0.01124386 0.0098117109         2352 
 1610000   0.61345233   -8.5039611    217.10149  0.011237137 0.0098019049         2312 
 1611000   0.60976205   -8.5020393    217.20152  0.011235336 0.0097921039         2306 
 1612000   0.61385724    -8.530265    216.71047  0.011202981  0.009782326         2343 
 1613000   0.61736547   -8.5483481    216.62403   0.01119157 0.0097725457         2363 
 1614000   0.59760841     -8.53966    217.12043  0.011210266 0.0097627827         2309 
 1615000   0.60985083   -8.5305324    217.03572  0.011198954 0.0097530425         2328 
 1616000   0.59945678   -8.5377955    216.81425  0.011180603 0.0097433018         2436 
 1617000    0.6246474   -8.5294223    216.76509  0.011171155 0.0097335676         2332 
 1618000   0.60884406   -8.5386688    216.82934   0.01116756 0.0097238487         2406 
 1619000   0.61413664   -8.5362186    217.01135   0.01117003 0.0097141397         2328 
 1620000   0.61079385   -8.5387177     216.9398  0.011159455 0.0097044455         2346 
 1621000   0.60164893   -8.5458349    217.11523  0.011161589  0.009694764         2419 
 1622000   0.60822977   -8.5256678    216.90101  0.011143702 0.0096850886         2367 
 1623000   0.59003663   -8.5328735    216.86384  0.011134927 0.0096754412         2296 
 1624000   0.60017994   -8.5303515    216.47152  0.011107939 0.0096657952         2339 
 1625000   0.61273455   -8.5331414    216.65781  0.011110657 0.0096561682         2434 
 1626000   0.61740093   -8.5468897    217.04862  0.011123853 0.0096465535         2413 
 1627000   0.60334371   -8.5283434    216.91454  0.011110149 0.0096369551         2361 
 1628000    0.6014978   -8.5518905    216.48317  0.011081243 0.0096273477         2442 
 1629000   0.60721602   -8.5516326    216.82678  0.011092019 0.0096177506         2404 
 1630000   0.61159311   -8.5407032    216.68874  0.011078157  0.009608168         2457 
 1631000   0.59269661   -8.5422503    216.81148  0.011077635 0.0095986004         2426 
 1632000   0.60175527   -8.5683267    216.35273  0.011047423 0.0095890256         2427 
 1633000   0.61459438   -8.5387615    217.34048  0.011091063 0.0095794801         2393 
 1634000   0.58872689   -8.5522951    216.47969  0.011040376  0.009569948         2457 
 1635000   0.61079947   -8.5459788    216.44084  0.011031643 0.0095604238         2471 
 1636000   0.59968621   -8.5186035    216.61187  0.011033612 0.0095509151         2470 
 1637000   0.60725925   -8.5488175    216.67918  0.011030298 0.0095414082         2471 
 1638000   0.60393258   -8.5434434    216.61011   0.01102005 0.0095319143         2470 
 1639000    0.5958654   -8.5421293    216.19805  0.010992376 0.0095224296         2485 
 1640000   0.60013513   -8.5656678    216.13123  0.010982278 0.0095129415         2462 
 1641000   0.59269673    -8.552719    216.37434  0.010987931 0.0095034758         2480 
 1642000   0.60481825   -8.5388438    216.83309  0.011004521 0.0094940275         2381 
 1643000   0.58759044   -8.5473726    216.58093  0.010985034 0.0094845969         2463 
 1644000   0.60378727   -8.5647678    216.58388  0.010978502 0.0094751699         2498 
 1645000   0.59333603   -8.5376074    216.63526  0.010974431 0.0094657539         2526 
 1646000   0.58456386   -8.5447711    216.04741  0.010938002 0.0094563469         2477 
 1647000   0.59397531   -8.5553761    216.26166  0.010942201 0.0094469461         2474 
 1648000   0.60171715   -8.5548776    217.03958  0.010974898 0.0094375638         2513 
 1649000   0.60060854   -8.5843614    216.35021  0.010933405 0.0094281944         2567 
 1650000   0.59368562   -8.5610051    216.43016  0.010930816 0.0094188302         2579 
 1651000   0.60164521    -8.549376    216.49651  0.010927545 0.0094094849         2665 
 1652000   0.58793954   -8.5712142    216.75643  0.010934041 0.0094001487         2480 
 1653000   0.58990391   -8.5461486    216.21779  0.010900272 0.0093908251         2578 
 1654000     0.585994   -8.5906089    216.59765   0.01091282 0.0093815131         2489 
 1655000   0.60106154   -8.5403191    216.04734  0.010878517 0.0093722128         2562 
 1656000   0.58346587   -8.5702396    216.48849  0.010894147  0.009362909         2527 
 1657000   0.58666328    -8.581205    216.44168  0.010885218 0.0093536191         2541 
 1658000   0.58470675   -8.5762412    216.45889  0.010879518 0.0093443407         2545 
 1659000   0.59736438   -8.5572914    216.57835   0.01087896 0.0093350772         2546 
 1660000   0.58813658   -8.5912441    216.03796  0.010845279 0.0093258236         2542 
 1661000   0.59224478   -8.5708694    216.40755  0.010857292 0.0093165806         2585 
 1662000   0.59566299   -8.5726152    216.39348  0.010850054 0.0093073455         2531 
 1663000   0.59757176   -8.5694187     216.7852  0.010863159 0.0092981267         2492 
 1664000   0.59994514   -8.5800457    216.07514  0.010821071 0.0092889221         2537 
 1665000   0.60146871   -8.5807272    216.27069  0.010824359 0.0092797276         2667 
 1666000   0.59008073   -8.5777858    216.09538  0.010809093 0.0092705312         2648 
 1667000   0.57604876   -8.5638041    216.38962  0.010817318 0.0092613484         2666 
 1668000   0.60200605   -8.5913317    216.11294  0.010797009 0.0092521795         2591 
 1669000   0.59418037   -8.5824697    216.75549  0.010822623 0.0092430302         2495 
 1670000   0.59184302   -8.5684833    216.55421  0.010806098 0.0092338908         2541 
 1671000    0.5763882   -8.5713857    215.84479  0.010764252 0.0092247516         2483 
 1672000    0.5836167    -8.596052    216.35099  0.010783044 0.0092156295         2583 
 1673000   0.58912717   -8.5681847    216.12341  0.010765263 0.0092065228         2595 
 1674000   0.58887727   -8.5770779    216.01184  0.010753277 0.0091974252         2611 
 1675000    0.5887873   -8.5700655    215.99899  0.010746218 0.0091883478         2593 
 1676000   0.57585894   -8.5790507    215.99116  0.010739417  0.009179275         2521 
 1677000   0.57796113    -8.599486    216.15498  0.010741154 0.0091702079         2582 
 1678000   0.60638907   -8.5664381    216.00612   0.01072736 0.0091611518         2495 
 1679000   0.58718263   -8.5980904    216.22255  0.010731713  0.009152106         2607 
 1680000   0.59435911   -8.5956031    216.02224  0.010715389 0.0091430728         2582 
 1681000   0.57883782   -8.5943693    215.77528  0.010696772 0.0091340505         2604 
 1682000   0.58022999   -8.5774846    216.19997  0.010711453 0.0091250396         2571 
 1683000   0.57795538    -8.582155    216.21779  0.010705971 0.0091160408         2609 
 1684000   0.58648528   -8.6069133    216.13171  0.010695354 0.0091070638         2639 
 1685000   0.57823041   -8.5951673    216.22928  0.010693832 0.0090980836         2686 
 1686000   0.57804964    -8.583922    216.12392  0.010682282 0.0090891212         2615 
 1687000   0.58634904   -8.6011244    216.09811  0.010674675 0.0090801713         2634 
 1688000   0.55953501   -8.6061246    215.61661   0.01064458 0.0090712306         2605 
 1689000   0.57494051   -8.5781141    216.18213  0.010666179  0.009062297         2568 
 1690000   0.59602921   -8.5889014    216.06512  0.010654099 0.0090533782         2617 
 1691000    0.5834168   -8.5814305    216.19533  0.010654215 0.0090444671         2652 
 1692000   0.58159435   -8.6070036    215.92188  0.010634451 0.0090355656         2588 
 1693000   0.58064487   -8.5931811    216.16987  0.010640376 0.0090266768         2728 
 1694000   0.56664752   -8.6000743    216.35095  0.010643002 0.0090178082         2700 
 1695000   0.58259529   -8.5983736     215.9188  0.010615477 0.0090089358         2640 
 1696000   0.58238087   -8.6065741     216.0138  0.010613886 0.0090000769         2631 
 1697000   0.57178798   -8.6184534    215.89865  0.010601977 0.0089912203         2657 
 1698000   0.57849522   -8.6149071    216.18096  0.010609588 0.0089823866         2692 
 1699000   0.57294739   -8.6051689    215.81548  0.010585417 0.0089735477         2625 
 1700000   0.58652954   -8.5985249    215.82523  0.010579668 0.0089647309         2654 
 1701000   0.57929918    -8.606626    215.98784  0.010581415 0.0089559175         2694 
 1702000   0.58330357   -8.6095411    215.77885  0.010564965 0.0089471083         2737 
 1703000   0.58367511   -8.6177629     215.6545  0.010552677 0.0089383154         2716 
 1704000    0.5700417   -8.6151615    215.97403   0.01056211   0.00892954         2609 
 1705000   0.56758932   -8.6225991    215.74896  0.010544915 0.0089207723         2698 
 1706000   0.57181008   -8.6046858    215.64837   0.01053382 0.0089120139         2683 
 1707000   0.58238183   -8.5869653    215.71087    0.0105307  0.008903271         2651 
 1708000   0.58062676   -8.6090675    215.82839  0.010530269 0.0088945409         2767 
 1709000   0.56512769   -8.6246671    215.89812  0.010527507 0.0088858188         2776 
 1710000   0.57180302   -8.6288331       215.83  0.010518031  0.008877103         2747 
 1711000   0.56886767   -8.6337964    215.92171  0.010516351 0.0088683947         2825 
 1712000   0.56812544   -8.6216496    215.55212  0.010492218 0.0088596926         2789 
 1713000   0.56379236   -8.6294033    215.93383  0.010504662 0.0088510056         2811 
 1714000   0.56927574   -8.6317557    216.28985  0.010515843 0.0088423363         2773 
 1715000   0.57020029   -8.6022176    215.63675  0.010477976 0.0088336766         2811 
 1716000   0.54755168   -8.6094046    215.85992  0.010482708 0.0088250213         2849 
 1717000   0.56525571   -8.6082485    216.07875  0.010487223 0.0088163848         2827 
 1718000   0.56289467   -8.6384614    215.80181  0.010467686 0.0088077467         2786 
 1719000   0.57218474   -8.6193647    215.90425  0.010466562 0.0087991184         2788 
 1720000   0.57120999   -8.6238673    215.64923  0.010448122 0.0087905063         2815 
 1721000   0.56394786   -8.6325038    215.58113  0.010438753 0.0087819065         2770 
 1722000   0.56805752   -8.6280886    215.80731  0.010443637 0.0087733144         2816 
 1723000    0.5706643   -8.6205224    215.50549  0.010422978 0.0087647298         2738 
 1724000   0.56019986   -8.6236172    215.61008  0.010421988 0.0087561604         2841 
 1725000   0.57268425   -8.6297042    215.75847  0.010423115 0.0087476038         2799 
 1726000    0.5602914   -8.6315523    216.22241  0.010439475 0.0087390608         2802 
 1727000   0.57573659   -8.6326224    215.68907  0.010407695 0.0087305285         2765 
 1728000   0.56570753   -8.6198801    215.54814  0.010394876 0.0087220043         2763 
 1729000   0.55849717   -8.6472151    215.69085  0.010395742 0.0087134991         2750 
 1730000   0.55331581   -8.6353551    215.91785  0.010400667 0.0087050015         2800 
 1731000   0.56346904   -8.6374259    215.58712  0.010378737 0.0086965101         2830 
 1732000   0.56096273   -8.6110961    215.80596  0.010383273 0.0086880298         2714 
 1733000    0.5635681   -8.6455143    215.66311  0.010370413   0.00867955         2788 
 1734000   0.56233471   -8.6536553    215.77742  0.010369926 0.0086710784         2845 
 1735000   0.56795175   -8.6256377     215.6294   0.01035684 0.0086626302         2830 
 1736000   0.56006427   -8.6397926    215.92132  0.010364887 0.0086541936         2848 
 1737000   0.57247968   -8.6397141    215.70079  0.010348339 0.0086457611         2807 
 1738000   0.55909454   -8.6462392    215.39454  0.010327702 0.0086373339         2865 
 1739000   0.57641144   -8.6374014    215.89638  0.010345811 0.0086289171         2817 
 1740000   0.56434741   -8.6395447    215.43068  0.010317561 0.0086205195         2823 
 1741000   0.56031947   -8.6530407    215.44409  0.010312277 0.0086121264         2835 
 1742000   0.56158148   -8.6475594    215.28245  0.010298625 0.0086037479         2830 
 1743000   0.55104597   -8.6399166    215.52952  0.010304529 0.0085953888         2908 
 1744000   0.55531163   -8.6277163    215.54077  0.010299158 0.0085870313         2801 
 1745000   0.56188492   -8.6577799    215.26073  0.010279882 0.0085786882         2857 
 1746000   0.56224508   -8.6518108     215.2801  0.010274919 0.0085703524         2843 
 1747000   0.55628912   -8.6590239    215.21774  0.010266063  0.008562021         2829 
 1748000    0.5598332   -8.6461135    215.20971  0.010259807  0.008553696         2794 
 1749000   0.54419808   -8.6428089    215.23914  0.010255343 0.0085453825         2862 
 1750000   0.55655446   -8.6673003    215.31102  0.010252906 0.0085370796         2846 
 1751000   0.55941857    -8.638414    215.09055  0.010236558  0.008528785         2849 
 1752000   0.55596681   -8.6425366    215.58922  0.010254434 0.0085205073         2828 
 1753000    0.5593303   -8.6430659    215.30007  0.010234839 0.0085122349         2827 
 1754000   0.54693185   -8.6423374    215.30556  0.010229265 0.0085039731         2752 
 1755000   0.56000805   -8.6493179    215.51129  0.010233204 0.0084957239         2843 
 1756000   0.56283297   -8.6427027    215.83944   0.01024295 0.0084874851         2837 
 1757000   0.54003465    -8.654597    215.54457  0.010223135 0.0084792537         2872 
 1758000    0.5530838     -8.65696    215.16932  0.010199532 0.0084710361         2884 
 1759000   0.53974006   -8.6840725    215.23041  0.010196627 0.0084628142         2843 
 1760000   0.54683272   -8.6513045    215.30275  0.010194259 0.0084546134         2831 
 1761000   0.55128182   -8.6688626    215.09784  0.010178773 0.0084464177         2866 
 1762000   0.54325306   -8.6621893    214.94725  0.010165874 0.0084382348         2900 
 1763000   0.55415426   -8.6494739      215.329  0.010178153 0.0084300647         2856 
 1764000   0.55011516   -8.6504199     215.8119  0.010195196 0.0084219047         2783 
 1765000   0.54949449   -8.6576754    215.56405  0.010177717 0.0084137578         2857 
 1766000    0.5513206   -8.6592321    215.34925  0.010161818 0.0084056174         2865 
 1767000   0.55377746   -8.6542967    215.31343  0.010154378 0.0083974873         2870 
 1768000    0.5480735   -8.6706207    215.18072  0.010142379 0.0083893691         2844 
 1769000    0.5535093   -8.6674959      215.209  0.010137978 0.0083812488         2951 
 1770000   0.54295614   -8.6673205    215.33851  0.010138348 0.0083731541         2836 
 1771000   0.54666562   -8.6776058    215.36208  0.010133732 0.0083650631         2860 
 1772000   0.54346235   -8.6651222    215.35576  0.010127717 0.0083569842         2886 
 1773000   0.54252357   -8.6758494    215.31248   0.01011997 0.0083489143         2855 
 1774000   0.53001752   -8.6493859    215.67745  0.010131409 0.0083408448         2950 
 1775000   0.55614427   -8.6817849    215.05455  0.010096458 0.0083327994         2930 
 1776000   0.54542109   -8.6721393    215.15622  0.010095543 0.0083247597         2914 
 1777000   0.55210744   -8.6850049    214.66232  0.010066701 0.0083167236         2946 
 1778000   0.54407686    -8.656349    215.20987  0.010086702 0.0083086981         2922 
 1779000   0.51741212   -8.6681138    215.19747  0.010080451 0.0083006852         2908 
 1780000   0.55195379   -8.6791509    215.42174  0.010085288 0.0082926836         2918 
 1781000   0.53597509   -8.6700642    215.22286  0.010070319 0.0082846874         2864 
 1782000   0.54656411   -8.6603395    215.19746   0.01006348 0.0082766992         2861 
 1783000   0.54301614   -8.6709834    215.24915  0.010060252 0.0082687306         2899 
 1784000   0.52794861   -8.6677977    215.19327  0.010052003 0.0082607737         2900 
 1785000   0.54120026   -8.6821748    214.76569  0.010026409 0.0082528178         2914 
 1786000   0.55166337   -8.6963848    215.02719  0.010032997 0.0082448718         2923 
 1787000   0.54413294   -8.6741865    215.06828  0.010029299 0.0082369389         2897 
 1788000   0.54065078    -8.676616    215.08677  0.010024551  0.008229013         2882 
 1789000   0.54441086   -8.6693618    214.94727   0.01001245 0.0082211019         2868 
 1790000   0.54386603    -8.680264    215.20698  0.010018947 0.0082131946         2965 
 1791000   0.52981676   -8.6670767    215.31916  0.010018573 0.0082052995         2903 
 1792000   0.53749278   -8.6744181    214.87164 0.0099921709 0.0081974172         2883 
 1793000   0.52911485   -8.6789746    215.17161   0.01000054 0.0081895361         2939 
 1794000   0.53079133   -8.6990241    215.12967 0.0099930171  0.008181677         2940 
 1795000    0.5484102   -8.6860716    214.91969 0.0099777014 0.0081738196         2919 
 1796000    0.5389884   -8.6775514    214.83453 0.0099681948 0.0081659731         2977 
 1797000   0.52423511   -8.6918791    214.86677 0.0099641424 0.0081581383         2973 
 1798000   0.53246997   -8.6861336    214.79801 0.0099554139 0.0081503098         2957 
 1799000   0.54916506   -8.6938084    214.93878 0.0099564006 0.0081424867         2935 
 1800000   0.54158173   -8.6962651    214.91007 0.0099495405  0.008134677         2970 
 1801000   0.53918359   -8.6928847    214.51634 0.0099257979 0.0081268775         2950 
 1802000   0.53812482   -8.6896603    214.92469 0.0099391736  0.008119085         2979 
 1803000    0.5416688   -8.6863198    214.79698 0.0099277586 0.0081113027         2904 
 1804000   0.54137664   -8.6894186     215.1947 0.0099406274 0.0081035315         2874 
 1805000   0.53215087   -8.6798422    215.13271 0.0099322582 0.0080957763         2937 
 1806000   0.52498807   -8.6988549    214.86878 0.0099145803 0.0080880269         2931 
 1807000   0.53132669   -8.7073662    215.09245 0.0099194082 0.0080802859         2897 
 1808000   0.53922919   -8.6869453    214.99681 0.0099095135 0.0080725554         2829 
 1809000   0.52521974   -8.6825366    215.07448 0.0099076136  0.008064827         2952 
 1810000   0.51716396   -8.7079095    214.81365  0.009890131  0.008057112         2990 
 1811000   0.53737781   -8.6899118    215.18335 0.0099016821 0.0080494045         2863 
 1812000   0.53151159    -8.696809    214.80003 0.0098785884 0.0080417102         2913 
 1813000    0.5455576    -8.697231    214.97767 0.0098813049 0.0080340253         2943 
 1814000   0.54700752    -8.704074    214.51129 0.0098544329 0.0080263447         2943 
 1815000   0.52998962   -8.6951379    214.97074 0.0098700982 0.0080186704         2972 
 1816000   0.53150293    -8.687759    214.98003 0.0098650896 0.0080110035         2922 
 1817000   0.52336878   -8.6932016    215.17356  0.009868536 0.0080033452         2843 
 1818000   0.51697653   -8.7041805    215.18707  0.009863727 0.0079957011         2885 
 1819000   0.53195006   -8.6955208    214.82227 0.0098415922 0.0079880552         2892 
 1820000     0.523183   -8.7029374    214.74759 0.0098327649 0.0079804288         2880 
 1821000   0.53477433   -8.6970115    214.74135 0.0098270799 0.0079728072         2931 
 1822000    0.5309307   -8.7153966    214.45825 0.0098087381 0.0079652046         2930 
 1823000   0.51794237   -8.6799886      214.562 0.0098081002 0.0079576059         2903 
 1824000   0.52330711   -8.7175917    214.72645  0.009810236 0.0079500244         2855 
 1825000   0.51626983   -8.7233492    214.54375 0.0097965184 0.0079424432         2936 
 1826000   0.53788685   -8.7007684    214.88162 0.0098065727  0.007934868         2855 
 1827000   0.52934358   -8.7221819    214.45661 0.0097818194 0.0079273099         2923 
 1828000   0.52288133   -8.7296995    214.43247 0.0097753677 0.0079197591         2943 
 1829000   0.53149111   -8.6980353    214.29162 0.0097636057 0.0079122169         2946 
 1830000   0.51906255   -8.7250122    214.68132 0.0097760163 0.0079046812         2977 
 1831000   0.50748237    -8.710077    214.90714  0.009780955 0.0078971588         2871 
 1832000   0.52466254   -8.7315105    214.72462 0.0097673133 0.0078896446         2893 
 1833000    0.5062323   -8.7241596    214.43626 0.0097488751 0.0078821382         2969 
 1834000   0.51920571   -8.7185838    214.44483 0.0097439489  0.007874638         2902 
 1835000    0.5316005   -8.6960293    214.82924 0.0097560965 0.0078671569         2962 
 1836000   0.51356563   -8.7121662    214.58788 0.0097398274 0.0078596843         2984 
 1837000   0.51507056   -8.7122773    214.25558 0.0097194509 0.0078522144         2972 
 1838000   0.50567805   -8.7147868    214.48372 0.0097245067 0.0078447541         2981 
 1839000   0.53105394   -8.7176787    214.72791 0.0097302842 0.0078373109         2959 
 1840000   0.52477603   -8.7160162    214.38942 0.0097096659 0.0078298758         2985 
 1841000   0.50670727   -8.7191535    214.49202 0.0097090357  0.007822443         2947 
 1842000    0.5237805   -8.7141913    214.41008  0.009700058 0.0078150248         2958 
 1843000   0.52206631   -8.7312691    214.39134 0.0096939472 0.0078076169         3003 
 1844000   0.52146939   -8.7246734    214.52658  0.009694802 0.0078002252         2984 
 1845000   0.52235528   -8.7081499    214.62467 0.0096939778 0.0077928299         2892 
 1846000   0.53885744   -8.7324209    214.83397 0.0096981749  0.007785449         2979 
 1847000   0.52154345   -8.7336803    214.51853 0.0096786918 0.0077780756         2968 
 1848000    0.5111613   -8.6955824    214.25426 0.0096615377 0.0077707101         2962 
 1849000   0.52542346   -8.7102859    214.24623 0.0096559507 0.0077633517         2978 
 1850000   0.51509593   -8.7139939    214.47069 0.0096608417 0.0077560023         2983 
 1851000   0.51742757   -8.7319264    214.64586 0.0096635088 0.0077486655         2999 
 1852000   0.50821366   -8.7118379    214.57507 0.0096551059 0.0077413325         2935 
 1853000   0.50178849   -8.7160762     214.3876 0.0096414643 0.0077340083         2912 
 1854000   0.51076457   -8.7231877    214.18161 0.0096270053 0.0077266994         2986 
 1855000   0.50985574    -8.735814    214.36561 0.0096300812 0.0077194004         2989 
 1856000   0.51073978   -8.7200888    214.47682  0.009629886 0.0077121058         2955 
 1857000   0.50690626   -8.7359789    214.95175 0.0096460131 0.0077048246         2985 
 1858000   0.51561459   -8.7338218    214.31117 0.0096120907   0.00769755         2964 
 1859000   0.51917232   -8.7205351     214.5469  0.009617487 0.0076902848         2919 
 1860000    0.5169162   -8.7317861    214.29353 0.0096009644 0.0076830305         2997 
 1861000   0.51051261   -8.7222797      214.374 0.0095994089 0.0076757788         3022 
 1862000   0.50003558   -8.7197818     214.6164 0.0096051019 0.0076685339         3040 
 1863000   0.51341709   -8.7210752    214.11028 0.0095773073 0.0076613073         3018 
 1864000   0.50329816    -8.733718    214.30149 0.0095807177 0.0076540846         3006 
 1865000   0.49696692   -8.7262771    214.44636 0.0095820538 0.0076468743         2968 
 1866000   0.50898349   -8.7151954    214.41435  0.009575489 0.0076396729         3010 
 1867000   0.51018426   -8.7397092    214.60791 0.0095789996 0.0076324782         2993 
 1868000   0.49164249   -8.7338958     214.1194 0.0095520787 0.0076252959         2917 
 1869000   0.51857282    -8.708922    214.53885 0.0095656702 0.0076181213         3005 
 1870000    0.5243649   -8.7340958    214.26567 0.0095483811 0.0076109543         3050 
 1871000   0.50286498   -8.7359992    214.55586 0.0095562027 0.0076037969         3070 
 1872000   0.51931535   -8.7372602    214.68405 0.0095568041 0.0075966518         2975 
 1873000    0.5004156   -8.7363239    214.14906 0.0095278993 0.0075895048         3037 
 1874000   0.50336279   -8.7489328    214.30904 0.0095299289 0.0075823692         3046 
 1875000   0.50781636   -8.7393625    214.76805 0.0095452466 0.0075752442         3026 
 1876000   0.51214616   -8.7607237    214.42901 0.0095250984 0.0075681336         2968 
 1877000   0.50015896   -8.7333155    213.94187 0.0094983961 0.0075610281         3015 
 1878000   0.48910586   -8.7260609    213.99585 0.0094957336 0.0075539344         2951 
 1879000   0.51388498   -8.7396657    214.29025 0.0095037365 0.0075468483         2971 
 1880000   0.51116639   -8.7379231    214.26005 0.0094973425 0.0075397696         2909 
 1881000   0.50455779   -8.7439145     214.3973 0.0094983742 0.0075326984         3022 
 1882000   0.50612246   -8.7190661    214.18551 0.0094839491 0.0075256377         2990 
 1883000   0.50788284   -8.7434151    214.86262 0.0095088785 0.0075185832         2947 
 1884000    0.5021304   -8.7354772    214.43759 0.0094850316 0.0075115423         2960 
 1885000   0.49963545    -8.729846    214.21397 0.0094701138 0.0075045079         2979 
 1886000   0.50558413   -8.7467842    214.34252 0.0094707725 0.0074974842         3002 
 1887000   0.50865518   -8.7543535    214.33305 0.0094653353 0.0074904713         2982 
 1888000    0.5004141    -8.754364    214.46988 0.0094663613 0.0074834623         2925 
 1889000    0.5053148   -8.7346109     214.1858 0.0094488178 0.0074764657         2960 
 1890000   0.49756385   -8.7590352    214.18038 0.0094435792 0.0074694715         2995 
 1891000   0.50160879   -8.7425558    214.17045 0.0094381478 0.0074624912         2939 
 1892000    0.4996954   -8.7421583    214.35938 0.0094414806 0.0074555153         2985 
 1893000    0.5036186   -8.7516227     214.0966  0.009424925 0.0074485495         3054 
 1894000    0.4972611   -8.7385469    214.20422 0.0094246842 0.0074415978         3031 
 1895000   0.50918089   -8.7591202    214.64147  0.009438939  0.007434652         3051 
 1896000   0.50081467   -8.7416654    214.35971 0.0094215766  0.007427714         2959 
 1897000   0.48953756   -8.7496487    214.07557 0.0094041282  0.007420784         2962 
 1898000   0.50147849   -8.7682362    214.58001 0.0094213212 0.0074138645         3027 
 1899000   0.49366392   -8.7684011     214.0436 0.0093928207 0.0074069497         3029 
 1900000   0.49855619   -8.7355167    214.29139 0.0093987452 0.0074000471         3038 
 1901000   0.50267248   -8.7518442    214.22454 0.0093908706 0.0073931474         3006 
 1902000   0.49037964    -8.739009    214.34272  0.009391111 0.0073862581         3030 
 1903000   0.48966399   -8.7627536    214.17973 0.0093790386 0.0073793784         2981 
 1904000   0.49591193   -8.7497599    214.20862 0.0093753774 0.0073725083         2938 
 1905000   0.49595277   -8.7517925    213.94556 0.0093589482 0.0073656429         2952 
 1906000    0.4854202   -8.7494823    213.91518 0.0093527098 0.0073587892         3020 
 1907000     0.493997   -8.7421389    213.73931   0.00934012 0.0073519486         2956 
 1908000   0.48740875   -8.7555318    214.07295 0.0093497971 0.0073451184         2952 
 1909000   0.48759518   -8.7583685    214.14635 0.0093481034 0.0073382993         3028 
 1910000   0.48747646   -8.7608864    214.23004 0.0093468603  0.007331481         2967 
 1911000   0.49610903   -8.7557166    214.16269 0.0093390322 0.0073246719         2975 
 1912000   0.48471632   -8.7598579    214.06653 0.0093299568 0.0073178676         2986 
 1913000   0.48194928   -8.7603062    213.99162 0.0093218164 0.0073110772         3010 
 1914000   0.47787415   -8.7579702    214.25529 0.0093284259 0.0073042891         2969 
 1915000   0.48509387   -8.7608601     214.0473 0.0093145037 0.0072975109         3016 
 1916000   0.47277513   -8.7625994    214.15856 0.0093144816 0.0072907385         3023 
 1917000   0.48586859   -8.7778603    214.06029 0.0093053507 0.0072839719         2962 
 1918000   0.48451077   -8.7696709    214.20886 0.0093069543 0.0072772166         2909 
 1919000   0.48927633   -8.7563667     214.0006 0.0092930608 0.0072704728         2958 
 1920000   0.48371205   -8.7724384     213.9842 0.0092875086  0.007263734         3008 
 1921000   0.47663411   -8.7704301    214.16915 0.0092906973 0.0072570075         3061 
 1922000   0.48744912    -8.764794    214.09159 0.0092825006 0.0072502853         2974 
 1923000   0.47451305   -8.7579209    214.11282 0.0092785935 0.0072435742         3015 
 1924000   0.48963756   -8.7547709    214.01578 0.0092695679 0.0072368686         3020 
 1925000    0.4787198   -8.7735454    214.36235 0.0092797554 0.0072301797         3074 
 1926000   0.47517192   -8.7625879    214.00355 0.0092594127 0.0072234914         3067 
 1927000   0.48501388   -8.7685409    214.31216 0.0092679538 0.0072168154         2964 
 1928000    0.4816704   -8.7603817    214.22674 0.0092594545 0.0072101531         2987 
 1929000   0.48619182   -8.7764047    213.93161 0.0092419045 0.0072034899         3040 
 1930000   0.49126943   -8.7658609    214.16109 0.0092470246 0.0071968406         2955 
 1931000   0.48628959    -8.771909    214.15211 0.0092418484 0.0071901992         3000 
 1932000   0.48741469   -8.7852909    214.02945  0.009231774 0.0071835626         2944 
 1933000   0.48873395   -8.7555521    214.03093 0.0092270621 0.0071769331         2980 
 1934000   0.49003353   -8.7714962    213.73125 0.0092093782 0.0071703134         2976 
 1935000   0.48296038    -8.768948    213.82981 0.0092088634 0.0071637039         3008 
 1936000   0.46835574   -8.7608999    214.03688   0.00921302 0.0071571023         2954 
 1937000   0.47367313   -8.7733839    213.71796  0.009194543 0.0071505076         3035 
 1938000   0.48057834   -8.7760118    213.94193 0.0091994296 0.0071439178         3030 
 1939000   0.47798465   -8.7827932    214.09334 0.0092011921 0.0071373341         3002 
 1940000   0.47322786   -8.7636022    214.20378 0.0092011934 0.0071307667         3000 
 1941000   0.47695709   -8.7754445    213.96053 0.0091860095 0.0071242023         3030 
 1942000   0.48053085   -8.7797054    213.80192 0.0091744731 0.0071176392         3040 
 1943000   0.48040993    -8.777474     213.9459 0.0091759265 0.0071110902         3017 
 1944000   0.47896264   -8.7686063    214.01454 0.0091741486 0.0071045474         2987 
 1945000   0.46755341   -8.7736923    213.90699  0.009164824  0.007098016         2979 
 1946000   0.47246593   -8.7857975    214.09248 0.0091680574 0.0070914935         2992 
 1947000   0.46664485   -8.7820522    213.75113 0.0091487388 0.0070849804         3032 
 1948000    0.4714811   -8.7895218    214.08066 0.0091581392 0.0070784784         2956 
 1949000   0.46359615   -8.7878404    213.82096 0.0091423364 0.0070719799         2901 
 1950000   0.46683123   -8.7836335    214.23904 0.0091555145 0.0070654865         2994 
 1951000   0.47888089   -8.7909443    213.76559 0.0091305992  0.007059005         3049 
 1952000   0.47559114   -8.7845575    213.54517 0.0091165116 0.0070525276         2960 
 1953000   0.47385103   -8.7715139    214.03289 0.0091326546 0.0070460614         3004 
 1954000   0.47748503   -8.7839571    213.84218 0.0091198472 0.0070395982         2958 
 1955000   0.47949417   -8.7705299    213.71115 0.0091095972 0.0070331438         2982 
 1956000   0.47904942   -8.7860247    214.01705 0.0091179724  0.007026702         3010 
 1957000   0.47589816   -8.7806151    213.90541 0.0091085593 0.0070202648         2973 
 1958000   0.46804611   -8.7912966    213.98849 0.0091074435 0.0070138333         2987 
 1959000   0.47343521   -8.7894354    213.69158 0.0090901641 0.0070074113         2966 
 1960000   0.48183964   -8.7803015    213.75201 0.0090880957 0.0070010005         3011 
 1961000   0.48177353   -8.7757862    213.97317 0.0090928595 0.0069945981         3025 
 1962000   0.46922694   -8.7910959    213.50148 0.0090681905 0.0069882028         3025 
 1963000    0.4686794   -8.7931254    213.86011 0.0090787958 0.0069818153         2983 
 1964000   0.48754281   -8.7979876     213.7958 0.0090714445 0.0069754318         3011 
 1965000   0.47065384   -8.7927892     213.5947 0.0090582996 0.0069690585         2987 
 1966000   0.47721473   -8.8047028    213.62422 0.0090549432  0.006962695         2995 
 1967000   0.46253334   -8.8089155    213.71615 0.0090542344 0.0069563352         3107 
 1968000   0.47324843   -8.7841407    213.36764 0.0090348763 0.0069499832         3042 
 1969000   0.47865776   -8.7960188    213.69468  0.009044129 0.0069436377         2982 
 1970000   0.47871617   -8.7952271    213.62228 0.0090364755 0.0069373044         3035 
 1971000   0.47005042   -8.7979027    213.86961 0.0090423476 0.0069309739         2974 
 1972000   0.45311383   -8.8137467    213.63134 0.0090276935 0.0069246534         3057 
 1973000   0.46070774   -8.7865895    213.66373 0.0090244859 0.0069183392         2981 
 1974000    0.4672737   -8.7929297    213.92979 0.0090311463 0.0069120358         3037 
 1975000   0.46845195    -8.788597    213.72603 0.0090179758 0.0069057311         3035 
 1976000   0.46762383   -8.7977385    213.86216  0.009019153 0.0068994438         3020 
 1977000   0.45952613    -8.806801    214.10821 0.0090249625 0.0068931645         3009 
 1978000    0.4514302   -8.8020233    213.80441 0.0090076008 0.0068868924         3046 
 1979000    0.4666059   -8.7951346    213.94517 0.0090089765 0.0068806227         3047 
 1980000   0.46397148   -8.7967138    214.12118 0.0090118341 0.0068743621         3084 
 1981000   0.47338423   -8.8052789    213.76151 0.0089921549 0.0068681075         3057 
 1982000   0.46911992   -8.8006143    213.50507 0.0089768361 0.0068618587         3003 
 1983000   0.47123924   -8.7943667    213.66684 0.0089791076 0.0068556205         2937 
 1984000   0.45823706   -8.7974831    213.46875 0.0089662613 0.0068493907         3006 
 1985000   0.45300971   -8.8186962    213.42693 0.0089599885 0.0068431645         3032 
 1986000   0.47354967   -8.7921878    213.76842 0.0089698061 0.0068369481         3038 
 1987000   0.47002321    -8.803527    213.28878 0.0089451761 0.0068307392         3008 
 1988000   0.45487591    -8.801219    213.91245 0.0089668198 0.0068245404         3017 
 1989000   0.45695251   -8.8123792    213.53804 0.0089466246 0.0068183434         2988 
 1990000   0.45679503   -8.8130533    213.49707 0.0089404132 0.0068121582         3008 
 1991000   0.45677946   -8.7932329    213.49513 0.0089358416 0.0068059775         2986 
 1992000   0.46251218   -8.8048707    213.76433 0.0089426175 0.0067998097         2988 
 1993000   0.46144188   -8.8114135    213.79867 0.0089395662 0.0067936458         3013 
 1994000   0.46272399   -8.8001077    213.59798 0.0089266959  0.006787489         2991 
 1995000   0.46326693   -8.8200653     213.5135 0.0089186925   0.00678134         3000 
 1996000    0.4534615   -8.8152515    213.49802  0.008913578 0.0067751942         2967 
 1997000   0.45612202   -8.8034808    213.53349 0.0089105948 0.0067690564         3050 
 1998000   0.46039222   -8.8120153    213.24651 0.0088941653   0.00676293         2985 
 1999000   0.44964727   -8.8198972    213.40183 0.0088961909 0.0067568043         3035 
 2000000   0.46332912   -8.8216325     213.5088 0.0088962002 0.0067506901         3012 
 2001000   0.45074158   -8.7999706    213.58347 0.0088948637 0.0067445846         3055 
 2002000   0.45152817   -8.8102208    213.42587 0.0088838608 0.0067384906         3027 
 2003000   0.44967372   -8.8381958     213.2176 0.0088707604 0.0067323984         3011 
 2004000   0.44858967   -8.8297355     213.4559 0.0088762432 0.0067263151         3075 
 2005000   0.44024969   -8.8135161    213.50809 0.0088739853 0.0067202409         3021 
 2006000   0.45205932    -8.820647    213.44471  0.008866929 0.0067141714         3033 
 2007000   0.46374138   -8.8205485    213.74866 0.0088751313 0.0067081148         3024 
 2008000   0.45090185   -8.8124659    213.55022  0.008862476 0.0067020612         3043 
 2009000    0.4493394   -8.7988639     213.3824 0.0088511033 0.0066960174         3008 
 2010000    0.4565627   -8.8308889    213.72449 0.0088608827  0.006689974         3013 
 2011000   0.44638628   -8.8280999    213.44263 0.0088447964 0.0066839437         3057 
 2012000   0.45916867   -8.8202369    213.30708 0.0088347864 0.0066779192         3016 
Loop time of 5220.42 on 48 procs for 2000000 steps with 4000 atoms

Performance: 66201.548 tau/day, 383.111 timesteps/s
99.4% CPU use with 48 MPI tasks x no OpenMP threads

MPI task timing breakdown:
Section |  min time  |  avg time  |  max time  |%varavg| %total
---------------------------------------------------------------
Pair    | 373.56     | 404.76     | 427.04     |  62.6 |  7.75
Neigh   | 37.112     | 38.502     | 40.01      |  12.0 |  0.74
Comm    | 334.32     | 363.69     | 395.38     |  70.8 |  6.97
Output  | 5.8664     | 5.869      | 5.9248     |   0.3 |  0.11
Modify  | 4333.8     | 4355.1     | 4379.1     |  14.8 | 83.43
Other   |            | 52.46      |            |       |  1.00

Nlocal:        83.3333 ave          91 max          77 min
Histogram: 3 2 10 5 8 10 3 1 2 4
Nghost:        2447.69 ave        2479 max        2418 min
Histogram: 4 3 8 5 6 5 5 5 3 4
Neighs:        16963.1 ave       19134 max       14707 min
Histogram: 6 3 7 2 5 5 3 6 6 5
FullNghs:      33926.8 ave       37522 max       31171 min
Histogram: 2 5 9 7 10 6 2 1 2 4

Total # of neighbors = 1628485
Ave neighs/atom = 407.12125
Neighbor list builds = 106490
Dangerous builds = 0

#clear
#
#next RN
#
#jump SELF
Total wall time: 1:27:04
