
units lj                  # Use reduced LJ style units
atom_style atomic         # Uncharged point particles
atom_modify map hash      # Needed for indexing of clusters etc
                          # Used to be able to find where atoms are in relation to each other.

lattice fcc 1.0 spacing 1 1 1
Lattice spacing in x,y,z = 1.5874011 1.5874011 1.5874011
region box block 0 10 0 10 0 10 units lattice
create_box 2 box
Created orthogonal box = (0.0000000 0.0000000 0.0000000) to (15.874011 15.874011 15.874011)
  3 by 4 by 4 MPI processor grid
create_atoms 1 box
Created 4000 atoms
  using lattice units in orthogonal box = (0.0000000 0.0000000 0.0000000) to (15.874011 15.874011 15.874011)
  create_atoms CPU = 0.004 seconds
set type 1 type/fraction 2 0.39 78393
Setting atom values ...
  1580 settings made for type/fraction
mass 1 1.0
mass 2 1.0
pair_style lj/cut  3.5
pair_modify tail  yes
pair_coeff 1  1  1.0  1.0   # Intearaction between 1 and 1 set with epsilon = 1 and sigma = 1
pair_coeff 1  2  1.5  0.8
pair_coeff 2  2  0.5  0.88

write_data data.0
System init for write_data ...
Neighbor list info ...
  update every 1 steps, delay 10 steps, check yes
  max neighbors/atom: 2000, page size: 100000
  master list distance cutoff = 3.8
  ghost atom cutoff = 3.8
  binsize = 1.9, bins = 9 9 9
  1 neighbor lists, perpetual/occasional/extra = 1 0 0
  (1) pair lj/cut, perpetual
      attributes: half, newton on
      pair build: half/bin/atomonly/newton
      stencil: half/bin/3d
      bin: standard
WARNING: Not all mixed pair coeffs generated from mixing. Use write_data with 'pair ij' option to store all pair coeffs. (../write_data.cpp:312)


#############################
#   M E L T   S Y S T E M   #
#############################

velocity all create 2.4 6583654 mom yes dist gaussian # Assign velocities
                                                    # Temperature 2.4, random number seed, zero linear momentum
                                                                                # Gaussian distribution

timestep 0.002   # simulation timestep
thermo 1000       # output thermodynamic data every 1000 steps bf 100

# Define a fix  in this case with index 1 applied to all
# particles in the simulation. This fix is for simulations
# in the anisotropic NPT ensemble. Note that we use the MTK
# correction.
fix 1 all npt temp 2.4 2.4 0.1 iso 5.68 5.68 0.5 mtk yes tchain 5 pchain 5 # Use NPT ensemble
                                                                         # Set temperature and pressure and damping
                                                                         # Numbers of thermostats in chain and in barostat
run 10000          # run for 10000 steps
Per MPI rank memory allocation (min/avg/max) = 3.642 | 3.644 | 3.648 Mbytes
Step Temp E_pair E_mol TotEng Press Volume 
       0          2.4   -5.9084669            0   -2.3093669   -4.1681406         4000 
    1000    2.4441985   -5.0486176            0   -1.3832364    5.5309043     3910.179 
    2000    2.3954208   -5.0553724            0   -1.4631396    5.5193009    3920.1489 
    3000    2.3933525   -5.0619033            0    -1.472772    5.4155882    3916.0769 
    4000    2.4404437   -5.0433078            0   -1.3835573    5.5384955    3923.1493 
    5000    2.3886736   -5.0519189            0   -1.4698043    5.3053364    3932.0269 
    6000    2.4053181   -5.0732737            0   -1.4661985    5.9306678    3871.0959 
    7000    2.4323419   -5.0260484            0   -1.3784477    5.3554124    3949.2182 
    8000    2.3455004   -5.0501719            0   -1.5328009     5.256158    3921.4285 
    9000    2.3546143   -5.0024097            0   -1.4713712    5.4910676    3927.9134 
   10000    2.4123889   -5.0266144            0   -1.4089357    5.9336659     3889.409 
Loop time of 2.64528 on 48 procs for 10000 steps with 4000 atoms

Performance: 653240.066 tau/day, 3780.324 timesteps/s
99.5% CPU use with 48 MPI tasks x no OpenMP threads

MPI task timing breakdown:
Section |  min time  |  avg time  |  max time  |%varavg| %total
---------------------------------------------------------------
Pair    | 1.0856     | 1.1704     | 1.2605     |   3.2 | 44.24
Neigh   | 0.20297    | 0.21563    | 0.22475    |   1.1 |  8.15
Comm    | 0.75934    | 0.90166    | 1.0048     |   5.3 | 34.09
Output  | 0.00024914 | 0.00025441 | 0.00033041 |   0.0 |  0.01
Modify  | 0.28944    | 0.3422     | 0.39502    |   5.2 | 12.94
Other   |            | 0.01517    |            |       |  0.57

Nlocal:        83.3333 ave          91 max          74 min
Histogram: 1 4 3 2 7 14 3 9 2 3
Nghost:        1674.73 ave        1698 max        1647 min
Histogram: 2 0 2 10 7 9 7 2 7 2
Neighs:        9812.12 ave       10907 max        8415 min
Histogram: 1 2 7 2 4 9 9 6 6 2

Total # of neighbors = 470982
Ave neighs/atom = 117.74550
Neighbor list builds = 907
Dangerous builds = 223

# Equilibrate just above the melting temperature to avoid step fn in T

fix 1 all npt temp 1.25 1.25 0.1 iso 5.68 5.68 0.5 mtk yes tchain 5 pchain 5
run 2000
Per MPI rank memory allocation (min/avg/max) = 3.643 | 3.645 | 3.649 Mbytes
Step Temp E_pair E_mol TotEng Press Volume 
   10000    2.4123889   -5.0266144            0   -1.4089357    5.9336659     3889.409 
   11000    1.2510891   -7.0225938            0   -5.1464293    5.8223595    3103.5662 
   12000     1.261234   -7.0336159            0   -5.1422379    5.9937038    3092.8319 
Loop time of 0.601945 on 48 procs for 2000 steps with 4000 atoms

Performance: 574139.269 tau/day, 3322.565 timesteps/s
99.6% CPU use with 48 MPI tasks x no OpenMP threads

MPI task timing breakdown:
Section |  min time  |  avg time  |  max time  |%varavg| %total
---------------------------------------------------------------
Pair    | 0.26613    | 0.29065    | 0.33152    |   2.2 | 48.29
Neigh   | 0.039048   | 0.041196   | 0.045567   |   0.6 |  6.84
Comm    | 0.17804    | 0.22187    | 0.25179    |   2.8 | 36.86
Output  | 5.2231e-05 | 5.3212e-05 | 6.8485e-05 |   0.0 |  0.01
Modify  | 0.038663   | 0.043399   | 0.047153   |   1.1 |  7.21
Other   |            | 0.004772   |            |       |  0.79

Nlocal:        83.3333 ave          89 max          76 min
Histogram: 1 2 0 8 11 3 13 4 0 6
Nghost:        1953.85 ave        1985 max        1925 min
Histogram: 1 1 9 5 8 9 9 3 1 2
Neighs:        12354.5 ave       13486 max       11039 min
Histogram: 1 2 4 8 6 7 6 10 1 3

Total # of neighbors = 593014
Ave neighs/atom = 148.25350
Neighbor list builds = 143
Dangerous builds = 13

#############################
# L I N E A R  Q U E N C H  #
#############################

# Define solid atoms. This closely follows ten Wolde  Ruiz-Montero and Frenkel  Faraday Discuss  1996  104  93-110
# Compute components of the per-atom q6 vector
compute q6 all orientorder/atom degrees 1 6 components 6 nnn NULL cutoff 1.3 # compute the Q6 parameter.
                                                                             # Use all neighbours within 1.3 unit cell.

# get number of connections
compute coord_number all coord/atom orientorder q6 0.5

# An atom is solid if it has 8 or more connections (of a possible 14)
variable is_solid atom c_coord_number>=8
group solid dynamic all var is_solid    # Must be dynamic to update
dynamic group solid defined

# do clustering
compute cluster solid cluster/atom 1.3 # Create a cluster where all atoms within are solid and max 1.3 units from another member

# define chunks one chunk per cluster
compute clus_chunks solid chunk/atom c_cluster nchunk every compress yes  # Says which atoms are in which chunk

# count the size of each chunk
compute size_chunks solid property/chunk clus_chunks count


# Find the maximum entry in the vector of chunk sizes
variable max_n equal max(c_size_chunks)


# Thermo style which includes this variable
# thermo_style custom step temp pe vol v_max_n

thermo ${N}  # Print the thermo information every 100 steps
thermo 1000  

# Reset the npt fix at a lower temperature (below freezing)
fix 1  all npt temp  ${temp} ${temp}  0.1  iso  5.68  5.68  0.5  mtk yes tchain  5  pchain  5
fix 1  all npt temp  0.45 ${temp}  0.1  iso  5.68  5.68  0.5  mtk yes tchain  5  pchain  5
fix 1  all npt temp  0.45 0.45  0.1  iso  5.68  5.68  0.5  mtk yes tchain  5  pchain  5

dump dmp2 all dcd ${N} traj.dcd
dump dmp2 all dcd 1000 traj.dcd


compute msd all msd com yes
variable twopoint equal c_msd[4]/6/(step*dt+1.0e-6)
fix 9 all vector 10 c_msd[4]
variable fit equal slope(f_9)/6/(10*dt)
thermo_style custom step temp pe c_msd[4] v_twopoint v_fit v_max_n

fix 1 all npt temp 1.25 ${temp} 0.1 iso 5.68 5.68 0.5 mtk yes tchain 5 pchain 5
fix 1 all npt temp 1.25 0.45 0.1 iso 5.68 5.68 0.5 mtk yes tchain 5 pchain 5
run 500000 # 5000000  # Run for this many steps
Neighbor list info ...
  update every 1 steps, delay 10 steps, check yes
  max neighbors/atom: 2000, page size: 100000
  master list distance cutoff = 3.8
  ghost atom cutoff = 3.8
  binsize = 1.9, bins = 8 8 8
  4 neighbor lists, perpetual/occasional/extra = 1 3 0
  (1) pair lj/cut, perpetual
      attributes: half, newton on
      pair build: half/bin/atomonly/newton
      stencil: half/bin/3d
      bin: standard
  (2) compute orientorder/atom, occasional
      attributes: full, newton on
      pair build: full/bin/atomonly
      stencil: full/bin/3d
      bin: standard
  (3) compute coord/atom, occasional
      attributes: full, newton on
      pair build: full/bin/atomonly
      stencil: full/bin/3d
      bin: standard
  (4) compute cluster/atom, occasional
      attributes: full, newton on
      pair build: full/bin/atomonly
      stencil: full/bin/3d
      bin: standard
Per MPI rank memory allocation (min/avg/max) = 9.824 | 9.829 | 9.835 Mbytes
Step Temp PotEng c_msd[4] v_twopoint v_fit v_max_n 
   12000     1.261234   -7.0336159 1.0420853e-30 7.2367029e-33 8.3333333e+20            1 
   13000    1.2465719   -7.0137329   0.46002904  0.002948904  0.036791226            1 
   14000    1.2440839   -7.0873068   0.90268252 0.0053731101  0.037202848            4 
   15000    1.2372944   -7.1425313    1.2769157 0.0070939757  0.035626107            1 
   16000    1.2541715   -7.1201195    1.7228803 0.0089733348  0.034945699            2 
   17000    1.2553973   -7.0751177    2.1494368  0.010536454  0.035079875            1 
   18000    1.2573608   -7.0910733    2.5938824  0.012008714  0.035232582            2 
   19000    1.2367565   -7.0931134    3.0233991  0.013260522  0.035299474            2 
   20000    1.2149936   -7.1316268    3.4311226  0.014296344   0.03541504            1 
   21000    1.2441421   -7.1395686    3.8433705   0.01525147   0.03530621            3 
   22000    1.2150603   -7.1472336     4.257713    0.0161277  0.035307605            1 
   23000    1.2419009    -7.153023    4.6687954  0.016915925  0.035193739            1 
   24000    1.2318107   -7.1529907    5.0305408  0.017467155  0.035087434            1 
   25000    1.2202854   -7.0786267    5.4308878  0.018102959  0.034857321            3 
   26000    1.2083064   -7.1435341    5.7828324  0.018534719  0.034603313            2 
   27000    1.2391765   -7.0912491    6.1185397  0.018884382  0.034325122            1 
   28000    1.2143001   -7.1416905    6.4492065  0.019194067  0.034012275            1 
   29000    1.2122835   -7.1332799    6.9150297  0.019870775  0.033745964            1 
   30000    1.2175505   -7.1678812    7.3181824  0.020328284   0.03357832            1 
   31000     1.245418   -7.1886614    7.6783778    0.0206408  0.033525224            2 
   32000     1.231337   -7.1405136    8.0734206  0.021024532  0.033390013            1 
   33000    1.1888309    -7.089219    8.4649433  0.021376119   0.03329116            1 
   34000    1.2213897   -7.1253782    8.8688666  0.021737418  0.033180932            4 
   35000    1.2259106   -7.2188008    9.2946454  0.022130108  0.033132249            2 
   36000     1.193902   -7.1708706    9.7466769  0.022561752  0.033125334            2 
   37000    1.1951292   -7.1529692    10.168265  0.022901497  0.033144922            1 
   38000    1.2336664   -7.1774818    10.609831  0.023267172  0.033192313            1 
   39000    1.2087037   -7.1829175    10.937184  0.023370052  0.033228948            1 
   40000    1.1989254   -7.1912765    11.196094  0.023325196  0.033190368            6 
   41000    1.2172135   -7.1857136    11.568431  0.023513071  0.033104903            2 
   42000    1.1708409   -7.2059988    11.779763  0.023372546  0.032973476            1 
   43000    1.1936331   -7.1749706    12.266314  0.023771926  0.032848961            1 
   44000    1.1950577   -7.1943187    12.652781  0.023963599  0.032773013            2 
   45000    1.2080542   -7.2233438    12.970448  0.024019348  0.032684783            2 
   46000    1.1886095   -7.2354918    13.324053  0.024137776  0.032609596            2 
   47000     1.184345   -7.2202439    13.602024  0.024117064  0.032501366            2 
   48000    1.1746407    -7.214303    13.988326  0.024285287  0.032418043            2 
   49000    1.1822308   -7.2225949    14.441111  0.024559712  0.032331023            2 
   50000    1.1763287   -7.2514158    14.734507  0.024557512  0.032256874            2 
   51000    1.1789684   -7.1859252    15.028133  0.024555772   0.03216159            1 
   52000    1.1903597   -7.2217249    15.261445  0.024457444  0.032023709            2 
   53000    1.1847456   -7.2295704    15.718325  0.024714347  0.031915253            4 
   54000    1.1824435   -7.2474628    16.022845  0.024726613  0.031799093            1 
   55000    1.1969657   -7.2157287    16.379795  0.024817871  0.031697222            3 
   56000    1.1599668   -7.2597965     16.64124   0.02476375  0.031578106            2 
   57000    1.1707099   -7.2677869    16.880874   0.02467964  0.031442965            2 
   58000     1.191923    -7.241388    17.119345   0.02459676  0.031302742            4 
   59000    1.1579049   -7.2631287    17.498667  0.024715631  0.031157053            3 
   60000    1.1600066   -7.2442068    17.797411  0.024718626  0.031021392            1 
   61000    1.1875414   -7.2718175    17.965486  0.024543013   0.03088433            5 
   62000    1.1516765   -7.2923106     18.34832   0.02466172  0.030744672            5 
   63000    1.1763101   -7.2855204    18.690004  0.024722227  0.030626338            3 
   64000    1.1679295   -7.2952637    19.042972  0.024795536  0.030518901            1 
   65000    1.1602943   -7.2750994    19.442693  0.024926529  0.030411492            2 
   66000     1.163535   -7.2839202    19.788201  0.024985102  0.030313887            1 
   67000    1.1896811    -7.324864    20.214847  0.025142845  0.030237131            3 
   68000    1.1802999   -7.2718155      20.5555  0.025190563  0.030174513            1 
   69000    1.1846548     -7.33078    20.853586   0.02518549  0.030115149            2 
   70000    1.1419249   -7.3000181    21.145542  0.025173264  0.030049267            1 
   71000    1.1502315   -7.2850094    21.500098  0.025234857  0.029976398            3 
   72000    1.1490388   -7.2979432    21.809571  0.025242559  0.029915059            1 
   73000    1.1591263   -7.3207285    22.196211   0.02533814  0.029850548            2 
   74000    1.1383926   -7.2545343    22.745578  0.025614389  0.029805775            1 
   75000     1.150774   -7.3236887    22.987347  0.025541497  0.029773006            1 
   76000    1.1595743   -7.3267234    23.188168  0.025425622  0.029729574            2 
   77000    1.1441966   -7.3140658    23.535941  0.025471797  0.029681573            2 
   78000    1.1326676    -7.318132    24.060882  0.025706071  0.029639505            3 
   79000    1.1629163   -7.3369574    24.384145  0.025721672  0.029611917            2 
   80000    1.1509315   -7.3007795    24.579157  0.025603288  0.029582825            2 
   81000    1.1797651   -7.3291322     24.86459  0.025580854  0.029544007            2 
   82000     1.148798   -7.3680776    25.128693   0.02553729  0.029496988            4 
   83000    1.1228758   -7.3917043     25.28865   0.02539021  0.029440981            1 
   84000    1.1437135   -7.3955375    25.665299  0.025461606  0.029379536            3 
   85000    1.1242276   -7.3354084    26.064468    0.0255534  0.029327308            1 
   86000    1.1183921   -7.3631778    26.374772  0.025556949  0.029280351            2 
   87000    1.1430031   -7.3125415    26.722897  0.025596645  0.029231642            1 
   88000    1.1560663   -7.3026075    27.074064  0.025638318  0.029180303            2 
   89000    1.1169157   -7.3595082    27.216978  0.025484061  0.029132354            1 
   90000    1.1193821   -7.3772998    27.577684  0.025534892  0.029079399            1 
   91000    1.1121393   -7.3946254    27.811838  0.025468716  0.029025733            3 
   92000    1.1221786   -7.3999925    28.062768  0.025419174  0.028967816            4 
   93000     1.114383   -7.3768988    28.406266  0.025453643  0.028908707            1 
   94000    1.1116912   -7.4013373    28.583755  0.025340208  0.028847571            2 
   95000    1.1173178   -7.4017093    28.931619  0.025378613  0.028786871            1 
   96000    1.1337867   -7.3687028    29.386143  0.025508805  0.028732355            2 
   97000    1.1055911   -7.4022424    29.419825  0.025274763  0.028671946            2 
   98000    1.0984318   -7.4003296    29.777838  0.025321291  0.028607582            2 
   99000    1.1254782   -7.4493991    29.995885  0.025249062  0.028546119            2 
  100000    1.1307835   -7.4380719    30.399482  0.025332902  0.028490035            2 
  101000    1.0970491    -7.459124    30.564972  0.025218624  0.028433784            3 
  102000    1.1231889   -7.4034097    30.868994  0.025219766  0.028373375            2 
  103000    1.0970728   -7.4273293    31.042804  0.025115537  0.028307922            2 
  104000    1.0997811   -7.3973526    31.407762  0.025166476  0.028247239            1 
  105000    1.0918599   -7.4244885    31.664407  0.025130482  0.028188696            2 
  106000    1.1322169   -7.4831819    31.629938  0.024866303  0.028119806            5 
  107000    1.1019531   -7.4444173    31.796923  0.024763959  0.028046398            1 
  108000    1.1057757   -7.4666461    32.172255  0.024824271  0.027968652            2 
  109000     1.095418   -7.4350839    32.308621   0.02470078  0.027888686            1 
  110000    1.0903245   -7.4416423    32.592079  0.024690969  0.027809267            2 
  111000    1.0986543   -7.4573013    32.739087  0.024578894  0.027728406            2 
  112000     1.100637   -7.4514546    33.045914  0.024587734  0.027648696            1 
  113000    1.0809161   -7.4613042    33.231606  0.024507084  0.027564283            1 
  114000    1.0658647   -7.4557654    33.422381  0.024431565  0.027479021            3 
  115000    1.0961295   -7.4213963    33.744863  0.024452799  0.027398929            1 
  116000    1.0851566   -7.4446821    34.114165  0.024507302  0.027318413            1 
  117000    1.0788265   -7.4994987    34.223562  0.024375756  0.027237529            3 
  118000    1.0846687   -7.4603617    34.475225   0.02434691  0.027159343            1 
  119000    1.0928762   -7.4821653    34.705488  0.024303563  0.027082897            1 
  120000    1.0559602   -7.4803028    34.865718  0.024212304  0.027001389            2 
  121000    1.0506135   -7.4889012    34.933728  0.024059041  0.026916676            2 
  122000    1.0538402      -7.4646    35.166325  0.024020714  0.026832486            2 
  123000     1.060356   -7.4997424    35.442541  0.024012562  0.026749739            3 
  124000     1.057526   -7.5096861    35.598834  0.023923948  0.026668497            2 
  125000    1.0797953   -7.5202947    36.035041  0.024023361  0.026590409            1 
  126000    1.0535494   -7.5332868    36.205718   0.02394558  0.026512094            1 
  127000    1.0816786   -7.5091754    36.409034  0.023890442  0.026433533            1 
  128000    1.0636176   -7.5016297    36.624995  0.023844398  0.026356218            4 
  129000    1.0897045   -7.5293675    37.184919  0.024021265   0.02628539            3 
  130000    1.0626394   -7.5433904    37.271307  0.023891864  0.026218319            1 
  131000    1.0494574   -7.5166202    37.557747  0.023891697  0.026149955            1 
  132000    1.0474677   -7.5579948     37.68624  0.023791818  0.026083121            4 
  133000    1.0672441   -7.5371775    37.980644  0.023797396  0.026014814            1 
  134000    1.0527545   -7.5371301    38.132893  0.023714486  0.025945108            2 
  135000    1.0637339   -7.5468662    38.294576  0.023638627  0.025876444            2 
  136000    1.0462126   -7.5330533    38.713642  0.023721594  0.025808301            2 
  137000    1.0489788   -7.5741543    38.847001  0.023629562  0.025740354            4 
  138000    1.0412184   -7.5599518    39.031873  0.023569972  0.025673191            3 
  139000    1.0344577   -7.5232933    39.364361  0.023599737  0.025606863            1 
  140000    1.0300506   -7.5589577    39.549521  0.023541381  0.025543785            3 
  141000    1.0399076    -7.584317    39.736532  0.023484948   0.02548055            2 
  142000    1.0387211   -7.5688999    39.893206  0.023411506  0.025416094            2 
  143000    1.0218468   -7.5964505    40.202408  0.023427976  0.025352488            1 
  144000    1.0105949   -7.5218463    40.640339  0.023518715  0.025290651            2 
  145000    1.0296093   -7.5744451    40.673853  0.023375777  0.025230857            2 
  146000    1.0283029   -7.5692335    40.833722  0.023306919  0.025170761            2 
  147000    1.0394732   -7.6060807    41.040585  0.023265638  0.025109727            1 
  148000    1.0511198   -7.6011531    41.533692  0.023386088  0.025050967            1 
  149000    1.0320468   -7.5776994    41.669672  0.023305186  0.024993579            2 
  150000    1.0312426   -7.5791391    41.900894  0.023278274  0.024935881            1 
  151000    1.0400376   -7.6541412    42.010488  0.023184596  0.024877713            3 
  152000     1.024057   -7.5970005    42.260698  0.023169242  0.024816846            2 
  153000    1.0214984   -7.6467514    42.493241  0.023144467  0.024759523            2 
  154000    1.0079298   -7.6630267    42.566603  0.023033876  0.024701724            1 
  155000    1.0104319    -7.615637     42.77194  0.022995667  0.024642404            1 
  156000    1.0154258   -7.6486292    42.890765  0.022911733  0.024580445            2 
  157000     1.004868   -7.6566033    43.298547  0.022982243  0.024521052            2 
  158000    1.0072401   -7.6723537     43.41511  0.022898265  0.024464632            3 
  159000    1.0135737   -7.6556849    43.626916   0.02286526  0.024406908            1 
  160000     1.025085   -7.6626338    43.877198  0.022852707  0.024350407            4 
  161000    1.0139153   -7.6278116    43.918861   0.02273233  0.024292656            2 
  162000    1.0101712   -7.6746747    44.040319  0.022654485  0.024231072            1 
  163000    1.0113743   -7.7091711    44.034247  0.022512396   0.02416816            2 
  164000    1.0423884   -7.7247164    44.016041  0.022365875  0.024102498            2 
  165000    1.0088939   -7.6402467    44.403323  0.022425921  0.024035779            2 
  166000    1.0044852   -7.6647485     44.66302  0.022421195  0.023969691            2 
  167000   0.99327589   -7.6625844    44.740635  0.022325666  0.023904526            1 
  168000   0.98698287   -7.6692112    44.869922  0.022256906  0.023839318            3 
  169000   0.99451593   -7.6754155    45.295097   0.02233486  0.023776611            2 
  170000    1.0099189   -7.7237333    45.337652  0.022224339  0.023713995            5 
  171000   0.99971503   -7.6830628    45.601548  0.022222977  0.023652184            3 
  172000   0.98949533   -7.6746418    45.786195  0.022183234  0.023591055            2 
  173000   0.98318311   -7.7301385    45.927461  0.022123054  0.023531732            2 
  174000   0.98873648    -7.715088    46.206174  0.022129394  0.023472878            1 
  175000    0.9834659   -7.7409994    46.140796  0.021971808  0.023414171            3 
  176000   0.98263794   -7.7286596    46.305774  0.021925082  0.023353409            1 
  177000   0.97247446   -7.7395546    46.556973  0.021919479  0.023291366            2 
  178000   0.99245519   -7.7490486    46.643589  0.021836886  0.023229663            4 
  179000   0.99050614   -7.7707034    46.736178  0.021757997  0.023168587            4 
  180000   0.97402945   -7.7226226    47.072733  0.021792932  0.023107034            3 
  181000   0.98004398   -7.7426391    47.144398  0.021705524  0.023046911            2 
  182000   0.97302426   -7.7311291    47.353349  0.021681936  0.022986012            3 
  183000   0.97256381   -7.7671689    47.279339  0.021529754  0.022924059            2 
  184000   0.97976147   -7.7663928    47.532015  0.021527181  0.022861743            2 
  185000   0.96977488    -7.823637    47.620488   0.02145067  0.022798657            1 
  186000   0.96716887   -7.7739993    47.909118  0.021464659    0.0227366            2 
  187000    0.9972392   -7.7985297    47.872688   0.02133364  0.022674979            3 
  188000   0.97230445   -7.7782544    47.862859  0.021215806  0.022611389            2 
  189000   0.97771744   -7.7414572    48.225301   0.02126336  0.022548287            4 
  190000    0.9517379    -7.775884    48.310946  0.021189011  0.022485745            2 
  191000   0.93832106   -7.7906083    48.459095  0.021142711   0.02242331            4 
  192000   0.96461859   -7.7742671     48.63177  0.021107539  0.022360157            2 
  193000   0.96375146   -7.7861062    48.724864   0.02103837  0.022297349            3 
  194000   0.95226983   -7.7820528    49.009007  0.021051979  0.022234543            1 
  195000   0.93970634   -7.7747297     49.11453  0.020989115  0.022172802            1 
  196000    0.9493549    -7.793029    49.164633   0.02090333  0.022110593            4 
  197000   0.95716233   -7.8120696    49.265523    0.0208399  0.022048059            3 
  198000   0.95398968   -7.8419829    49.424964  0.020801752  0.021985166            2 
  199000   0.96786193    -7.865743    49.456967  0.020710623  0.021922412            1 
  200000   0.94058799   -7.8473815    49.526197  0.020635915  0.021857615            1 
  201000   0.95532883    -7.801123    49.823637  0.020656566  0.021793794            1 
  202000   0.96702159   -7.7848015    49.861257  0.020569826  0.021730333            3 
  203000   0.94822457   -7.8565698    49.913952  0.020490128  0.021666264            2 
  204000   0.94154183   -7.8384674    49.882377  0.020376788  0.021602237            2 
  205000   0.94021413    -7.837547    50.036626  0.020340092  0.021537855            3 
  206000   0.93301123   -7.8187151    50.341389  0.020364639  0.021474138            2 
  207000    0.9222175    -7.841542    50.351092  0.020270166  0.021410016            3 
  208000   0.94102005   -7.8327345    50.584465  0.020266212  0.021346992            1 
  209000   0.91706021   -7.8610799    50.745725  0.020233543  0.021283388            5 
  210000    0.9383513   -7.8305316    50.774566  0.020148637  0.021219807            3 
  211000   0.93873795   -7.8476935    50.725889  0.020033922  0.021155955            2 
  212000   0.93269555   -7.8461803    50.794466  0.019966378   0.02109188            3 
  213000   0.94738429   -7.8685723    51.095738  0.019990508  0.021027217            1 
  214000   0.92156961   -7.8956116     50.90389  0.019822387  0.020962238            3 
  215000   0.92972592    -7.857839    51.132403  0.019818761  0.020898592            3 
  216000   0.92262749   -7.8929429    51.155915  0.019736078  0.020834429            2 
  217000   0.94000651   -7.8830659     51.27089  0.019689282  0.020770137            2 
  218000   0.90542637   -7.8931584    51.437385  0.019662609  0.020705944            2 
  219000   0.93570168   -7.8818513    51.587106  0.019629797  0.020643251            2 
  220000    0.9122951   -7.8774944    51.675356  0.019573998   0.02058055            4 
  221000    0.9318011   -7.8856906    51.890104  0.019566404  0.020518351            1 
  222000   0.92378391   -7.9018757    51.891223  0.019478687  0.020456409            2 
  223000   0.91097273   -7.9042115    51.951926  0.019414023  0.020394201            3 
  224000    0.8942688   -7.8904261    52.131421   0.01939413  0.020330802            1 
  225000   0.90275481   -7.9114023    52.099441  0.019296089  0.020267985            4 
  226000   0.88914472   -7.9567905    52.127143  0.019220923  0.020205067            2 
  227000   0.90599796   -7.9177513    52.242628  0.019178645  0.020142046            2 
  228000   0.88599399   -7.9715556    52.378538  0.019144203  0.020079639            5 
  229000   0.90441255   -7.9320772    52.659135  0.019162713  0.020017585            2 
  230000   0.89574085   -7.9372316     52.78677  0.019125641  0.019955805            4 
  231000   0.91109166   -7.9263987    52.783773  0.019041765  0.019894874            2 
  232000   0.91703523   -7.9648548    52.950787  0.019019679  0.019833555            3 
  233000   0.88461852   -7.9554664    52.950724  0.018938027  0.019772885            4 
  234000   0.89767972   -7.9529718    53.054987  0.018894226  0.019712125            2 
  235000   0.88590039   -7.9395065    53.164916  0.018852807  0.019651895            2 
  236000   0.89181349   -7.9688898    53.364768  0.018843492  0.019591993            2 
  237000   0.87661263    -7.971039    53.223511  0.018714315  0.019530911            1 
  238000   0.86320264   -7.9540125    53.274421  0.018653509  0.019469412            1 
  239000   0.88000987   -7.9568196    53.446719  0.018635537  0.019408392            1 
  240000   0.87545222   -7.9824457    53.454939  0.018560743  0.019348026            2 
  241000   0.88688931   -7.9957619    53.579042   0.01852664  0.019287467            2 
  242000   0.88885898    -8.000125    53.599564   0.01845715  0.019226456            4 
  243000    0.8745948   -8.0232433    53.678747  0.018408349  0.019165268            3 
  244000   0.87275446    -8.000887     53.73223  0.018351171  0.019103871            1 
  245000   0.87061573   -7.9599711      53.8399  0.018312891  0.019043264            2 
  246000   0.89074073   -8.0295115    53.692448  0.018188499  0.018982384            1 
  247000   0.87580083   -8.0353777    53.859306  0.018171156  0.018921618            1 
  248000   0.87753053   -8.0221535    53.881558  0.018105362  0.018861012            7 
  249000   0.87534328   -8.0019277     54.02707  0.018081349  0.018799948            1 
  250000   0.88499812   -8.0258105    53.988547  0.017996182  0.018738721            2 
  251000    0.8632985    -8.052915     54.02498   0.01793658  0.018677117            3 
  252000   0.86749228   -8.0631362    53.932736  0.017834899  0.018615494            2 
  253000   0.88147186   -8.0561933    54.204795  0.017854017  0.018553954            1 
  254000    0.8753562   -8.0926669    54.156427  0.017767857  0.018492914            4 
  255000   0.85969147   -8.0539449    54.297176  0.017744175  0.018431491            3 
  256000   0.86960196   -8.0379859    54.415836  0.017713488  0.018370819            2 
  257000    0.8516179   -8.0641279    54.233842  0.017585552  0.018309884            1 
  258000   0.83915428   -8.0719112    54.380047  0.017564615  0.018249114            1 
  259000   0.83383793   -8.0503572    54.481696  0.017529503  0.018188295            1 
  260000   0.85677945   -8.0656256    54.566428   0.01748924  0.018128294            2 
  261000   0.86308382   -8.0357449    54.786666   0.01749255  0.018068044            1 
  262000   0.84873135   -8.0892093    54.623362  0.017373843  0.018007758            2 
  263000   0.85000339   -8.0829722    54.661873  0.017319985  0.017947277            1 
  264000    0.8496279   -8.0736721    54.620493  0.017241317  0.017886901            2 
  265000    0.8622802   -8.0942565    54.700267  0.017201342  0.017826687            2 
  266000   0.84550614   -8.0775078    54.880923  0.017193271  0.017766308            1 
  267000   0.82847484   -8.0719583    54.893446  0.017132786  0.017706555            1 
  268000   0.82840247   -8.1105745    54.919295  0.017076895  0.017647013            2 
  269000    0.8359969   -8.0970571    55.006763  0.017040509   0.01758762            3 
  270000    0.8459624   -8.1050653    55.034056   0.01698582  0.017528329            1 
  271000   0.83898183   -8.1052407    55.141054  0.016956044  0.017469794            4 
  272000    0.8338983   -8.1216934    55.305118   0.01694397  0.017412044            2 
  273000   0.81596544   -8.1164227    55.288708  0.016876895  0.017354148            3 
  274000   0.83761936    -8.131922    55.318395  0.016824329  0.017295756            2 
  275000   0.80847535   -8.1428705    55.234179   0.01673763  0.017237916            5 
  276000   0.81486456   -8.1400772    55.378824  0.016720659  0.017180205            1 
  277000   0.83046728    -8.138199    55.479184  0.016690489  0.017122802           10 
  278000   0.83434414   -8.1041185    55.637908   0.01667803  0.017066211            2 
  279000    0.8420172     -8.12587     55.61996  0.016612891   0.01700961            1 
  280000   0.83276771   -8.1617265     55.72353  0.016584384  0.016953124            5 
  281000    0.8216229   -8.1621494    55.498709  0.016458692   0.01689669            2 
  282000   0.82835445   -8.1759773    55.504348  0.016401994    0.0168403            2 
  283000   0.81051679   -8.2091328    55.674674  0.016394191  0.016784074            3 
  284000   0.81688408   -8.1689552    55.814472  0.016377486  0.016727853            1 
  285000   0.82822656   -8.1703772     55.87896  0.016338877    0.0166723            1 
  286000    0.7977036   -8.1920288    55.767476  0.016249265  0.016616887            1 
  287000   0.83133736   -8.1920577    56.037861  0.016271156   0.01656148            1 
  288000   0.79672278   -8.2206414    56.049606  0.016218057  0.016506162            3 
  289000   0.81394196   -8.2428808    55.960979  0.016136384  0.016450955            1 
  290000   0.78244629   -8.1773152    56.186755  0.016145619  0.016395832            2 
  291000   0.81071345   -8.1781114    56.076315  0.016058509  0.016341147            3 
  292000   0.80138151   -8.1903623    56.212548  0.016042394  0.016286529            1 
  293000   0.79930906   -8.2070149    56.300247  0.016012584  0.016232727            1 
  294000   0.79406072   -8.2035776    56.175895  0.015922873  0.016178227            4 
  295000   0.79099571   -8.2073117     56.18281   0.01587085  0.016123626            4 
  296000   0.80135334   -8.2365758    56.252567  0.015836871  0.016069101            2 
  297000   0.79989298   -8.2737634    56.191354  0.015766373   0.01601478            5 
  298000   0.78782186   -8.2486433    56.248049   0.01572932   0.01596078            3 
  299000   0.78652384   -8.2376477    56.408787  0.015721513  0.015906802            2 
  300000   0.79340873    -8.238249    56.440829  0.015678008  0.015853152            2 
  301000   0.78372977   -8.2509846    56.406651  0.015616459  0.015799991            2 
  302000   0.79582807   -8.2604764    56.417656  0.015567786  0.015746806            3 
  303000   0.79774026   -8.2426216    56.786958  0.015617975  0.015694024            3 
  304000   0.78852684   -8.2347469    56.731738  0.015551463   0.01564192            1 
  305000   0.78260145   -8.2547788    56.647667  0.015477505  0.015589338            3 
  306000   0.76896443   -8.2689601     56.50854  0.015389036  0.015536995            2 
  307000   0.75385339   -8.2739692    56.511004  0.015339578   0.01548488            2 
  308000   0.78657901   -8.2810693     56.64502  0.015326034  0.015432485            1 
  309000    0.7561562   -8.2958729      56.6673  0.015282443  0.015380283            1 
  310000   0.76016715   -8.2702609     56.63103  0.015223395  0.015327876            1 
  311000   0.75897731   -8.2993241    56.670996  0.015185154  0.015275881            3 
  312000   0.76696729   -8.2893213    56.766147  0.015161898  0.015223887            2 
  313000   0.76381552   -8.3217862    56.649231   0.01508233  0.015171944            2 
  314000   0.76798208   -8.2681663    56.692049   0.01504566  0.015119915            8 
  315000   0.76410071   -8.3356585      56.6719  0.014992566  0.015068264            3 
  316000   0.76019488   -8.3190803    56.780876   0.01497386   0.01501656            1 
  317000   0.76715629   -8.3145044    56.679889  0.014900076  0.014964697            3 
  318000   0.74226364   -8.3656342    56.601583    0.0148327  0.014913231            1 
  319000   0.75778189   -8.3260435    56.706073  0.014813499  0.014861703            3 
  320000   0.77338337   -8.3101401    56.776133  0.014785451  0.014810679            3 
  321000   0.75448693   -8.3228467    56.776428  0.014739467  0.014759929            2 
  322000   0.74868619   -8.3136586    56.785707  0.014696094  0.014709223            3 
  323000   0.74348481   -8.3186799     56.83394  0.014663039  0.014658729            4 
  324000   0.75298091   -8.3521753    57.001452  0.014660867  0.014608815            2 
  325000   0.72238426   -8.3496008    56.986321  0.014611877  0.014559113            2 
  326000   0.74217499   -8.3626796    56.935002  0.014553937  0.014509524            2 
  327000   0.76590978   -8.3593063    57.051944  0.014539231  0.014460019            5 
  328000   0.72412697    -8.365418    57.011006  0.014484503    0.0144108            2 
  329000   0.74893228   -8.3655004    57.067842  0.014454874  0.014361783            1 
  330000   0.74219599   -8.3858776    57.048813  0.014406266  0.014312874            2 
  331000   0.73650035   -8.3659222    57.214474   0.01440445  0.014264331            3 
  332000   0.74521166   -8.3936014    57.158173  0.014346931  0.014216049            3 
  333000   0.72399687   -8.3647257     57.17354  0.014307693  0.014167842            3 
  334000   0.72433989    -8.351621    57.211509  0.014274329  0.014119957            6 
  335000   0.71215378   -8.4258933    57.149377  0.014216263  0.014072075            3 
  336000   0.72924699   -8.3912715    57.153223  0.014174907  0.014024102            7 
  337000   0.72049953   -8.4444125    57.101555  0.014120068  0.013976096            6 
  338000   0.71833218   -8.4168248    57.208844  0.014104745  0.013928267            2 
  339000   0.72504108   -8.4069207    57.036934  0.014020878  0.013880546            4 
  340000   0.72282093   -8.4630925    57.122785  0.014000683  0.013832905            3 
  341000   0.72248552   -8.4294094    57.167718  0.013970606  0.013785604            6 
  342000   0.72663847   -8.4044606    57.291946  0.013960026  0.013738487            2 
  343000   0.72249571   -8.4274628    57.309339  0.013923552  0.013691749            2 
  344000   0.70965856   -8.4349522    57.244908  0.013867468  0.013645114            2 
  345000   0.72319356   -8.4357287    57.303385  0.013841397  0.013598553            1 
  346000   0.71175746   -8.4472871    57.315192  0.013804237   0.01355237            4 
  347000   0.70781932   -8.4646304    57.164453  0.013728255  0.013505967            3 
  348000   0.71011351   -8.4529547    57.230699  0.013704669  0.013459658            5 
  349000   0.70848503   -8.4719065    57.170286  0.013650976  0.013413547            5 
  350000   0.71484075   -8.4293901    57.264713  0.013634455  0.013367314            4 
  351000   0.71326392   -8.4759196    57.301232  0.013604281  0.013321497           16 
  352000   0.69320582   -8.4714595    57.345186  0.013576038   0.01327589            3 
  353000   0.70462772   -8.4639893    57.285673   0.01352353  0.013230458            3 
  354000   0.69797468   -8.4955211     57.30543  0.013489979  0.013185195            2 
  355000   0.69047657   -8.4831927    57.246448  0.013438133  0.013140114            4 
  356000   0.71237579   -8.4790487    57.320671   0.01341776  0.013094995            3 
  357000   0.68950051    -8.485331    57.384165  0.013394997  0.013050032            2 
  358000   0.69756694   -8.4888879    57.222418   0.01331993  0.013005013            3 
  359000   0.69944923   -8.4887289    57.340273  0.013310184  0.012960213           10 
  360000   0.69667098    -8.504867     57.33848  0.013272796  0.012915348            1 
  361000   0.70618078   -8.4931168    57.276793   0.01322179  0.012870621            2 
  362000   0.69006712   -8.5010143     57.22901  0.013174266  0.012826253            1 
  363000   0.69100749   -8.5132977    57.350322  0.013165822  0.012782036            3 
  364000   0.68365147   -8.4843387    57.258839  0.013108709  0.012737961            3 
  365000   0.67232552   -8.4980704    57.334754  0.013090127  0.012693976            3 
  366000   0.68043098   -8.5122936    57.358426  0.013059751   0.01265009            4 
  367000   0.66933834   -8.5221093    57.365869  0.013025856  0.012606548            3 
  368000   0.68138352   -8.5257724    57.235254  0.012960882  0.012563082            3 
  369000   0.67738275    -8.532524    57.308058  0.012942199  0.012519465            2 
  370000   0.67654672   -8.5403305    57.265307  0.012897592     0.012476            1 
  371000   0.66151571   -8.5465634    57.306792  0.012872146  0.012432827            1 
  372000    0.6624805   -8.5589263    57.239645  0.012822501  0.012389814            3 
  373000   0.69186139   -8.5135918    57.197187  0.012778639  0.012346948            5 
  374000   0.68248982    -8.537908    57.454674  0.012801843  0.012304258            3 
  375000   0.67370554    -8.552463    57.309102  0.012735356  0.012261761            4 
  376000   0.65305388   -8.5531486    57.509623  0.012745927  0.012219424            2 
  377000   0.65896706   -8.5477013    57.245295   0.01265369  0.012176893            2 
  378000   0.66043535   -8.5558606    57.318283  0.012636306  0.012134415            2 
  379000   0.67346055   -8.5660704    57.310474  0.012601248  0.012092204            4 
  380000   0.66932595   -8.5517512    57.226916  0.012549762  0.012050145            2 
  381000   0.65792307   -8.5711922    57.254057   0.01252276  0.012008077            3 
  382000   0.66199698   -8.5729789    57.238749  0.012486638  0.011966185            2 
  383000    0.6527817   -8.5601982    57.172479  0.012439617  0.011924378            2 
  384000   0.64719575   -8.5820755     57.13824  0.012399792  0.011882749            2 
  385000   0.65140341   -8.5893205     57.21379  0.012383937  0.011841346            7 
  386000     0.661099   -8.5987951    57.132568  0.012334319  0.011800154            2 
  387000   0.66496833   -8.6035618    57.156147  0.012307525  0.011758881            1 
  388000   0.65146909   -8.5791898     57.18655  0.012282335  0.011717871            1 
  389000   0.64545668   -8.5950152    57.150232   0.01224298  0.011677097            1 
  390000   0.64884675   -8.6170166    57.072828  0.012195049  0.011636257            3 
  391000   0.63721105    -8.614641    57.270277  0.012205941  0.011595517            2 
  392000   0.65262836   -8.6160483    57.061633  0.012130449   0.01155487            5 
  393000   0.64211775   -8.6088679    57.121689  0.012112317  0.011514424            2 
  394000   0.62298763   -8.6303625    57.067189  0.012070048  0.011474064            4 
  395000   0.64788574   -8.6374255    57.014235   0.01202832  0.011433809            2 
  396000   0.63824985   -8.6296906    57.051249  0.012005734  0.011393669            4 
  397000    0.6357617   -8.6403088    57.006081  0.011966012  0.011353682            4 
  398000   0.63396597    -8.629662    56.872628  0.011908004  0.011313801            6 
  399000   0.62014903   -8.6635524    57.078943   0.01192125  0.011274099            3 
  400000   0.64522207   -8.6495404    57.103749  0.011896614  0.011234626            4 
  401000   0.62319711   -8.6405168    57.151933   0.01187696  0.011195236            3 
  402000   0.61463554   -8.6546474    57.003444  0.011816634   0.01115602            3 
  403000   0.62534447   -8.6809657    57.070916  0.011801265   0.01111694            2 
  404000   0.63121194   -8.6641681    57.188464    0.0117963   0.01107806            4 
  405000   0.61487422   -8.6583826     57.00975  0.011730401  0.011039301            2 
  406000   0.61230749   -8.6676808    57.108287  0.011721734  0.011000703            2 
  407000   0.62068091   -8.6631363    57.002469  0.011671267  0.010962252            4 
  408000   0.59722033   -8.6822285    57.016628  0.011645553   0.01092394            3 
  409000   0.61932764   -8.6772855     57.03959  0.011621758  0.010885843            3 
  410000   0.61994767   -8.6660815     57.06507  0.011598592   0.01084783            3 
  411000   0.61745062   -8.6728303    57.031031  0.011563469  0.010810012            2 
  412000   0.60213865   -8.6640344    57.067052  0.011542689  0.010772327            4 
  413000   0.59919098   -8.7140402    56.947513   0.01149062  0.010734774            1 
  414000   0.60739357   -8.6886564    57.077091  0.011488947  0.010697356            2 
  415000   0.60471259   -8.6786619    57.036012  0.011453014  0.010660064            3 
  416000   0.61353702   -8.6948957    56.972614  0.011412783  0.010622934            1 
  417000   0.60456785   -8.6846308    56.985449  0.011387979  0.010585865            2 
  418000   0.60029415   -8.6922583    56.925859  0.011348855   0.01054901            3 
  419000   0.59790165    -8.673142    56.992541  0.011335032  0.010512243            4 
  420000   0.59048363   -8.7153785    56.792058  0.011268265  0.010475614            2 
  421000   0.60611146   -8.7108446    56.999197  0.011282501     0.010439            3 
  422000   0.60592091   -8.7223427    56.876449  0.011231526   0.01040261            2 
  423000   0.58213473   -8.7237965    56.857205  0.011201183  0.010366335            1 
  424000   0.59346749   -8.7131858    56.885155  0.011180258  0.010330168            3 
  425000   0.58285938   -8.7334983    56.847354   0.01114654  0.010294156            4 
  426000    0.5877078    -8.739586    56.873422  0.011125474  0.010258282            2 
  427000   0.59159962    -8.735727    56.902368  0.011105068   0.01022253            2 
  428000    0.5755766   -8.7346928    56.939899  0.011086429  0.010186903            3 
  429000    0.5872337   -8.7272853    56.989185   0.01107016  0.010151413            2 
  430000   0.58631101   -8.7311491    56.875587  0.011022401  0.010116109            1 
  431000   0.55810963   -8.7376341    56.924326   0.01100625   0.01008102            3 
  432000   0.57930785   -8.7473126    56.883241  0.010972847  0.010045963            3 
  433000   0.57372663   -8.7431382    56.851676  0.010941431  0.010011033            5 
  434000   0.56950842   -8.7440683    56.894366  0.010924417 0.0099761686            3 
  435000    0.5723093   -8.7697596    56.754835  0.010872574 0.0099414369            5 
  436000   0.57496116   -8.7615281    56.804257  0.010857083 0.0099068804            1 
  437000   0.56457167   -8.7548183    56.867269  0.010844254 0.0098725052            3 
  438000   0.58353957   -8.7545517    56.847913  0.010815813 0.0098382813            4 
  439000   0.57539699    -8.764386    56.733102  0.010769382 0.0098041253            7 
  440000   0.56311269   -8.7667963     56.72587  0.010743536 0.0097701309            3 
  441000   0.57085378   -8.7757421    56.771867  0.010727866 0.0097362783            4 
  442000   0.55945754   -8.7710727    56.810589  0.010710895 0.0097025432            3 
  443000    0.5584389   -8.7765282    56.727017  0.010670996 0.0096690247            4 
  444000   0.55302225   -8.7877869    56.736648   0.01064877 0.0096356283            2 
  445000   0.55434627   -8.7805993    56.763546  0.010629877 0.0096024039            5 
  446000   0.55385925   -8.7862789    56.742031  0.010602024 0.0095692838            3 
  447000   0.55344044   -8.8001762    56.864213  0.010601084 0.0095363119            4 
  448000   0.55111776   -8.7975972    56.726419  0.010551789  0.009503479            4 
  449000   0.55526198   -8.7731395     56.77884  0.010538018 0.0094707886            7 
  450000   0.55123171   -8.7978858    56.764193  0.010511888 0.0094381856            1 
  451000   0.54358918   -8.8000036    56.814125  0.010497806 0.0094057381            2 
  452000   0.53945241    -8.796281    56.705158  0.010454491 0.0093733486            7 
  453000   0.54681688   -8.7983449    56.736635  0.010437203  0.009341113            3 
  454000   0.55232087   -8.8138949    56.815324  0.010428657 0.0093091147            2 
  455000   0.54608422   -8.8038308    56.729069  0.010389939 0.0092772256            4 
  456000   0.54380994   -8.8064874     56.73877  0.010368927 0.0092454689            5 
  457000   0.54766222   -8.8068425    56.675622  0.010334723 0.0092138063            3 
  458000   0.53754637    -8.811858     56.67765  0.010312527 0.0091823335            3 
  459000   0.53137283   -8.8156072    56.645335  0.010284193 0.0091510266            6 
  460000   0.53022587   -8.8279183    56.739472   0.01027889 0.0091199003            2 
  461000   0.53032973   -8.8275496    56.734474  0.010255689 0.0090888857            2 
  462000   0.52904403   -8.8312211    56.616002  0.010212122 0.0090579973            2 
  463000   0.53503733   -8.8386141    56.706971  0.010206438 0.0090272032            1 
  464000   0.53138588   -8.8419852    56.614415  0.010167819 0.0089965546            2 
  465000   0.52836278   -8.8524764    56.587215  0.010141078 0.0089660058            3 
  466000   0.52698585   -8.8322699    56.554019   0.01011338 0.0089354902            1 
  467000   0.52315629   -8.8442375    56.682233  0.010114603  0.008905184            3 
  468000    0.5170314   -8.8470668    56.725727  0.010100735 0.0088750391            3 
  469000   0.51180663   -8.8669697     56.68925  0.010072717 0.0088449975            3 
  470000   0.52118305   -8.8502196    56.659922  0.010046085 0.0088150216            5 
  471000   0.51745611   -8.8611488    56.656366  0.010024127  0.008785244            3 
  472000    0.4941426   -8.8414411    56.648976  0.010001585 0.0087555777            2 
  473000   0.51167535   -8.8615462    56.645798 0.0099798799 0.0087260253            4 
  474000   0.51621348   -8.8745817    56.574205 0.0099462386 0.0086965708            2 
  475000   0.50369479   -8.8387938    56.571501 0.0099248248 0.0086672216            8 
  476000   0.50065496   -8.8729349     56.50461 0.0098922637 0.0086380368            3 
  477000    0.5056593   -8.8707038    56.405703 0.0098542459 0.0086088615            4 
  478000   0.51438104   -8.8669911    56.535619 0.0098562795 0.0085798279            2 
  479000   0.51293088   -8.8824055    56.549071  0.009838043 0.0085509179            4 
  480000   0.51445151   -8.8771825    56.552346 0.0098181156 0.0085221475            4 
  481000   0.49779566   -8.8767838    56.505931 0.0097896624 0.0084935245            4 
  482000   0.48654604    -8.888756    56.562978 0.0097792146 0.0084650137            4 
  483000   0.50247958   -8.8895682    56.496332 0.0097474693 0.0084366403            2 
  484000   0.50389998   -8.8924571    56.524551 0.0097321885 0.0084083795            4 
  485000   0.49556835   -8.8778639    56.574168 0.0097206474  0.008380224            8 
  486000   0.49302748   -8.8888126    56.450756  0.009679485 0.0083521624            2 
  487000   0.49752785   -8.8850372    56.416732 0.0096537872 0.0083242441            5 
  488000   0.49999176   -8.8891682    56.518408 0.0096513675 0.0082963975            3 
  489000   0.47336316   -8.8951158    56.479444 0.0096249904  0.008268668            2 
  490000   0.49308271   -8.9037233    56.503979 0.0096095202 0.0082410516            4 
  491000   0.48345158   -8.8999274     56.53552 0.0095953021 0.0082135412            4 
  492000   0.47710888   -8.9024631    56.448824 0.0095611151 0.0081861345            4 
  493000   0.47323257    -8.913175    56.473079 0.0095458213 0.0081588753            5 
  494000   0.48567203   -8.9300397    56.469901 0.0095259616 0.0081317186            2 
  495000   0.47905225   -8.9172155     56.38277 0.0094920489 0.0081046567            3 
  496000   0.47175641   -8.9229636    56.380421 0.0094725169 0.0080777218            2 
  497000   0.47599627    -8.913329    56.397473 0.0094563167 0.0080508762            2 
  498000   0.46961625   -8.9357908    56.488289  0.009452525  0.008024138            3 
  499000    0.4651728   -8.9240291    56.377204 0.0094150307 0.0079975182            4 
  500000   0.45325496   -8.9383724    56.421966  0.009403661 0.0079710026            3 
  501000   0.45407471    -8.920964    56.404289 0.0093819509 0.0079445938            2 
  502000   0.46276289   -8.9346256    56.364429 0.0093566449 0.0079183385            4 
  503000   0.46987259   -8.9328624    56.345049 0.0093348326 0.0078921974            4 
  504000   0.45776214   -8.9266045    56.329248 0.0093136985 0.0078661425            2 
  505000   0.45584882   -8.9514495    56.412808 0.0093090442 0.0078402075            3 
  506000   0.44697417   -8.9409793    56.382229 0.0092856108 0.0078143699            4 
  507000   0.45610156   -8.9403214    56.299781 0.0092537444 0.0077886589            3 
  508000   0.44460685   -8.9383645    56.320271 0.0092388897 0.0077630167            3 
  509000   0.45780289   -8.9543001    56.357771 0.0092268781 0.0077375239            3 
  510000    0.4606836   -8.9456443    56.370108  0.009210802 0.0077121191            2 
  511000   0.45256032     -8.96617    56.360002 0.0091911288 0.0076868119            2 
  512000     0.452086   -8.9503298    56.341419 0.0091701528 0.0076616506            2 
Loop time of 1227.87 on 48 procs for 500000 steps with 4000 atoms

Performance: 70365.736 tau/day, 407.209 timesteps/s
99.4% CPU use with 48 MPI tasks x no OpenMP threads

MPI task timing breakdown:
Section |  min time  |  avg time  |  max time  |%varavg| %total
---------------------------------------------------------------
Pair    | 78.758     | 85.725     | 90.457     |  31.3 |  6.98
Neigh   | 8.2197     | 8.4961     | 8.9692     |   5.7 |  0.69
Comm    | 78.287     | 84.009     | 92.407     |  36.6 |  6.84
Output  | 0.91585    | 0.91633    | 0.92719    |   0.2 |  0.07
Modify  | 1033.8     | 1037.4     | 1039.9     |   4.5 | 84.48
Other   |            | 11.36      |            |       |  0.93

Nlocal:        83.3333 ave          92 max          77 min
Histogram: 5 2 5 4 16 4 10 0 0 2
Nghost:        2179.27 ave        2194 max        2161 min
Histogram: 1 2 4 7 4 6 14 4 3 3
Neighs:        14433.2 ave       15830 max       12891 min
Histogram: 4 1 6 5 8 4 6 5 4 5
FullNghs:      28866.2 ave       31778 max       26607 min
Histogram: 4 4 4 8 9 9 6 2 0 2

Total # of neighbors = 1385577
Ave neighs/atom = 346.39425
Neighbor list builds = 26717
Dangerous builds = 0

#clear
#
#next RN
#
#jump SELF
Total wall time: 0:20:31
