
units lj                  # Use reduced LJ style units
atom_style atomic         # Uncharged point particles
atom_modify map hash      # Needed for indexing of clusters etc
                          # Used to be able to find where atoms are in relation to each other.

lattice fcc 1.0 spacing 1 1 1
Lattice spacing in x,y,z = 1.5874011 1.5874011 1.5874011
region box block 0 10 0 10 0 10 units lattice
create_box 2 box
Created orthogonal box = (0.0000000 0.0000000 0.0000000) to (15.874011 15.874011 15.874011)
  3 by 4 by 4 MPI processor grid
create_atoms 1 box
Created 4000 atoms
  using lattice units in orthogonal box = (0.0000000 0.0000000 0.0000000) to (15.874011 15.874011 15.874011)
  create_atoms CPU = 0.067 seconds
set type 1 type/fraction 2 0.69 78393
Setting atom values ...
  2781 settings made for type/fraction
mass 1 1.0
mass 2 1.0
pair_style lj/cut  3.5
pair_modify tail  yes
pair_coeff 1  1  1.0  1.0   # Intearaction between 1 and 1 set with epsilon = 1 and sigma = 1
pair_coeff 1  2  1.5  0.8
pair_coeff 2  2  0.5  0.88

write_data data.0
System init for write_data ...
Neighbor list info ...
  update every 1 steps, delay 10 steps, check yes
  max neighbors/atom: 2000, page size: 100000
  master list distance cutoff = 3.8
  ghost atom cutoff = 3.8
  binsize = 1.9, bins = 9 9 9
  1 neighbor lists, perpetual/occasional/extra = 1 0 0
  (1) pair lj/cut, perpetual
      attributes: half, newton on
      pair build: half/bin/atomonly/newton
      stencil: half/bin/3d
      bin: standard
WARNING: Not all mixed pair coeffs generated from mixing. Use write_data with 'pair ij' option to store all pair coeffs. (../write_data.cpp:312)


#############################
#   M E L T   S Y S T E M   #
#############################

velocity all create 2.4 6229865 mom yes dist gaussian # Assign velocities
                                                    # Temperature 2.4, random number seed, zero linear momentum
                                                                                # Gaussian distribution

timestep 0.002   # simulation timestep
thermo 1000       # output thermodynamic data every 1000 steps bf 100

# Define a fix  in this case with index 1 applied to all
# particles in the simulation. This fix is for simulations
# in the anisotropic NPT ensemble. Note that we use the MTK
# correction.
fix 1 all npt temp 2.4 2.4 0.1 iso 5.68 5.68 0.5 mtk yes tchain 5 pchain 5 # Use NPT ensemble
                                                                         # Set temperature and pressure and damping
                                                                         # Numbers of thermostats in chain and in barostat
run 10000          # run for 10000 steps
Per MPI rank memory allocation (min/avg/max) = 3.642 | 3.644 | 3.648 Mbytes
Step Temp E_pair E_mol TotEng Press Volume 
       0          2.4    -4.227286            0  -0.62818599   -3.7882121         4000 
    1000     2.371997    -3.895372            0  -0.33826607    5.3330198    3663.1689 
    2000    2.4054973   -3.8623726            0  -0.25502864    5.7344652     3648.343 
    3000    2.3275282   -3.8799415            0  -0.38952205    5.4113304    3650.5386 
    4000    2.4317259   -3.8592234            0  -0.21254641    6.3048838    3604.6156 
    5000    2.3847881   -3.8146183            0   -0.2383305    6.0220588    3648.9594 
    6000    2.4110779   -3.8393238            0  -0.22361118    5.6965398    3654.3584 
    7000    2.3876921    -3.855315            0  -0.27467226    5.9463047     3627.459 
    8000    2.4071081   -3.9119314            0  -0.30217187    5.2965394    3657.1588 
    9000    2.4117846   -3.8904959            0  -0.27372345    5.6491682     3637.543 
   10000    2.4277593   -3.9034725            0  -0.26274408    5.8157161    3621.4712 
Loop time of 2.69759 on 48 procs for 10000 steps with 4000 atoms

Performance: 640570.893 tau/day, 3707.007 timesteps/s
99.6% CPU use with 48 MPI tasks x no OpenMP threads

MPI task timing breakdown:
Section |  min time  |  avg time  |  max time  |%varavg| %total
---------------------------------------------------------------
Pair    | 1.1721     | 1.2711     | 1.4875     |   4.4 | 47.12
Neigh   | 0.21763    | 0.22741    | 0.25947    |   1.6 |  8.43
Comm    | 0.73388    | 0.92427    | 1.0486     |   6.1 | 34.26
Output  | 0.00025168 | 0.00025754 | 0.00032512 |   0.0 |  0.01
Modify  | 0.19599    | 0.25901    | 0.33301    |   8.1 |  9.60
Other   |            | 0.01554    |            |       |  0.58

Nlocal:        83.3333 ave          89 max          74 min
Histogram: 1 0 5 1 7 4 9 7 8 6
Nghost:        1756.40 ave        1789 max        1732 min
Histogram: 4 4 7 6 7 12 1 5 1 1
Neighs:        10546.8 ave       11572 max        9153 min
Histogram: 2 1 3 5 7 5 11 3 6 5

Total # of neighbors = 506245
Ave neighs/atom = 126.56125
Neighbor list builds = 912
Dangerous builds = 231

# Equilibrate just above the melting temperature to avoid step fn in T

fix 1 all npt temp 1.25 1.25 0.1 iso 5.68 5.68 0.5 mtk yes tchain 5 pchain 5
run 2000
Per MPI rank memory allocation (min/avg/max) = 3.644 | 3.646 | 3.650 Mbytes
Step Temp E_pair E_mol TotEng Press Volume 
   10000    2.4277593   -3.9034725            0  -0.26274408    5.8157161    3621.4712 
   11000    1.2870993   -5.6495517            0   -3.7193854    5.8959798     2794.615 
   12000    1.2565308   -5.7668913            0   -3.8825663    5.5185353    2771.4182 
Loop time of 0.669146 on 48 procs for 2000 steps with 4000 atoms

Performance: 516479.104 tau/day, 2988.884 timesteps/s
99.6% CPU use with 48 MPI tasks x no OpenMP threads

MPI task timing breakdown:
Section |  min time  |  avg time  |  max time  |%varavg| %total
---------------------------------------------------------------
Pair    | 0.30613    | 0.32496    | 0.3806     |   2.6 | 48.56
Neigh   | 0.041898   | 0.044094   | 0.050166   |   0.7 |  6.59
Comm    | 0.19322    | 0.24893    | 0.27412    |   3.4 | 37.20
Output  | 5.3097e-05 | 5.486e-05  | 7.0236e-05 |   0.0 |  0.01
Modify  | 0.038482   | 0.046035   | 0.052121   |   2.0 |  6.88
Other   |            | 0.005072   |            |       |  0.76

Nlocal:        83.3333 ave          90 max          77 min
Histogram: 2 2 6 11 7 3 8 4 2 3
Nghost:        2108.29 ave        2132 max        2085 min
Histogram: 3 3 2 6 11 5 8 7 1 2
Neighs:        13778.5 ave       15182 max       12495 min
Histogram: 3 7 0 7 8 11 4 1 5 2

Total # of neighbors = 661369
Ave neighs/atom = 165.34225
Neighbor list builds = 143
Dangerous builds = 15

#############################
# L I N E A R  Q U E N C H  #
#############################

# Define solid atoms. This closely follows ten Wolde  Ruiz-Montero and Frenkel  Faraday Discuss  1996  104  93-110
# Compute components of the per-atom q6 vector
compute q6 all orientorder/atom degrees 1 6 components 6 nnn NULL cutoff 1.3 # compute the Q6 parameter.
                                                                             # Use all neighbours within 1.3 unit cell.

# get number of connections
compute coord_number all coord/atom orientorder q6 0.5

# An atom is solid if it has 8 or more connections (of a possible 14)
variable is_solid atom c_coord_number>=8
group solid dynamic all var is_solid    # Must be dynamic to update
dynamic group solid defined

# do clustering
compute cluster solid cluster/atom 1.3 # Create a cluster where all atoms within are solid and max 1.3 units from another member

# define chunks one chunk per cluster
compute clus_chunks solid chunk/atom c_cluster nchunk every compress yes  # Says which atoms are in which chunk

# count the size of each chunk
compute size_chunks solid property/chunk clus_chunks count


# Find the maximum entry in the vector of chunk sizes
variable max_n equal max(c_size_chunks)


# Thermo style which includes this variable
# thermo_style custom step temp pe vol v_max_n

thermo ${N}  # Print the thermo information every 100 steps
thermo 1000  

# Reset the npt fix at a lower temperature (below freezing)
fix 1  all npt temp  ${temp} ${temp}  0.1  iso  5.68  5.68  0.5  mtk yes tchain  5  pchain  5
fix 1  all npt temp  0.45 ${temp}  0.1  iso  5.68  5.68  0.5  mtk yes tchain  5  pchain  5
fix 1  all npt temp  0.45 0.45  0.1  iso  5.68  5.68  0.5  mtk yes tchain  5  pchain  5

dump dmp2 all dcd ${N} traj.dcd
dump dmp2 all dcd 1000 traj.dcd


compute msd all msd com yes
variable twopoint equal c_msd[4]/6/(step*dt+1.0e-6)
fix 9 all vector 10 c_msd[4]
variable fit equal slope(f_9)/6/(10*dt)
thermo_style custom step temp pe c_msd[4] v_twopoint v_fit v_max_n

fix 1 all npt temp 1.25 ${temp} 0.1 iso 5.68 5.68 0.5 mtk yes tchain 5 pchain 5
fix 1 all npt temp 1.25 0.45 0.1 iso 5.68 5.68 0.5 mtk yes tchain 5 pchain 5
run 2000000 # 5000000  # Run for this many steps
Neighbor list info ...
  update every 1 steps, delay 10 steps, check yes
  max neighbors/atom: 2000, page size: 100000
  master list distance cutoff = 3.8
  ghost atom cutoff = 3.8
  binsize = 1.9, bins = 8 8 8
  4 neighbor lists, perpetual/occasional/extra = 1 3 0
  (1) pair lj/cut, perpetual
      attributes: half, newton on
      pair build: half/bin/atomonly/newton
      stencil: half/bin/3d
      bin: standard
  (2) compute orientorder/atom, occasional
      attributes: full, newton on
      pair build: full/bin/atomonly
      stencil: full/bin/3d
      bin: standard
  (3) compute coord/atom, occasional
      attributes: full, newton on
      pair build: full/bin/atomonly
      stencil: full/bin/3d
      bin: standard
  (4) compute cluster/atom, occasional
      attributes: full, newton on
      pair build: full/bin/atomonly
      stencil: full/bin/3d
      bin: standard
Per MPI rank memory allocation (min/avg/max) = 9.847 | 9.851 | 9.853 Mbytes
Step Temp PotEng c_msd[4] v_twopoint v_fit v_max_n 
   12000    1.2565308   -5.7668913 4.1425058e-30  2.87674e-32 8.3333333e+20            1 
   13000    1.2402728   -5.6805319   0.62403493 0.0040002238  0.051400479            2 
   14000    1.2561265   -5.7553352    1.2779875 0.0076070681  0.053851555            5 
   15000     1.284885   -5.7127444    1.9243662  0.010690923  0.053241135            1 
   16000    1.2125939   -5.7131193    2.4848314   0.01294183   0.05255124            2 
   17000    1.2505787   -5.7477268    3.1295679  0.015341019  0.051958816            2 
   18000    1.2592564   -5.7350553    3.6333196  0.016820924  0.051153635            3 
   19000    1.2506043   -5.7335183    4.2230479  0.018522139  0.050483572            3 
   20000    1.2384013   -5.7571228    4.7679591  0.019866496  0.049774402            1 
   21000    1.2841676   -5.7660672    5.3265558  0.021137125  0.049243678            2 
   22000    1.2549156    -5.781339    5.9062461  0.022372144  0.048961529            5 
   23000    1.2516729   -5.7714035    6.5517385  0.023738182  0.048775746            2 
   24000    1.2411811   -5.7953458     7.097187   0.02464301  0.048754001            5 
   25000    1.2388461   -5.7765363    7.7089662  0.025696554  0.048720291            7 
   26000    1.2396184   -5.7577812    8.3342921  0.026712474  0.048788619            3 
   27000    1.2306097   -5.7884092    8.8697434  0.027375751   0.04892659            3 
   28000    1.2498766   -5.7449952    9.4759526  0.028202239  0.048919356            1 
   29000    1.2492394   -5.7520762    10.047035   0.02887079  0.048869495            5 
   30000    1.2604996   -5.7925872    10.476571  0.029101585  0.048698523            2 
   31000    1.2275141   -5.7568866    10.991331  0.029546588  0.048460674            2 
   32000    1.2660296   -5.7781161    11.393634  0.029670922  0.048155299            1 
   33000    1.2406482   -5.8166106    11.976489   0.03024366   0.04781967            2 
   34000    1.2227319   -5.8206948    12.508056     0.030657  0.047510983            2 
   35000    1.2675248   -5.8012871    13.069438   0.03111771  0.047268868            1 
   36000    1.2637191   -5.7848332    13.616542  0.031519774  0.047121577            1 
   37000    1.2578895   -5.7132285    14.315171  0.032241376  0.047024133            2 
   38000    1.2402899   -5.7508701     14.84402  0.032552676  0.046975957            2 
   39000    1.2206269   -5.7534423    15.623095   0.03338268   0.04697537            2 
   40000    1.2218831   -5.7765815    16.283874  0.033924738  0.047083194            3 
   41000     1.228298   -5.7817309    16.857517  0.034263245  0.047236307            2 
   42000    1.2687441   -5.7539119      17.4699    0.0346625  0.047390314            1 
   43000    1.2294775   -5.8114418    18.123615  0.035123284  0.047520503            3 
   44000    1.2653818   -5.7869212    18.774491  0.035557747  0.047624997            2 
   45000    1.2143218   -5.8455295    19.213509  0.035580572  0.047762191            4 
   46000    1.2558874   -5.7722706    19.610994  0.035527163  0.047804219            2 
   47000    1.2293504   -5.7861521    20.187122   0.03579277  0.047798276            3 
   48000    1.2350434   -5.7360427    20.951381  0.036373925  0.047806362            3 
   49000    1.2380667    -5.755941    21.490078  0.036547751  0.047846842            2 
   50000    1.1908395   -5.7563685    22.028479  0.036714131  0.047854071            6 
   51000     1.228466   -5.7772194    22.390011  0.036584985  0.047817748            2 
   52000    1.2449347   -5.8196628    22.973849  0.036817065  0.047790753            2 
   53000    1.2445824   -5.7781315    23.637943  0.037166576  0.047780314            2 
   54000    1.2166585   -5.7595957    24.121868  0.037225105  0.047763984            3 
   55000    1.2151671   -5.7477571    24.730229  0.037470044  0.047746419            4 
   56000    1.2453473   -5.7796813    25.406355  0.037807075  0.047741982            3 
   57000    1.2386681   -5.7715892    25.805363  0.037727138  0.047732128            4 
   58000    1.2277889   -5.7661356    26.348412  0.037856914  0.047715773            1 
   59000    1.2408822   -5.7703682    26.830148  0.037895689  0.047672622            4 
   60000    1.2426763   -5.7859325    27.199287  0.037776787  0.047591953            2 
   61000    1.2447413   -5.7551572    27.932793  0.038159553  0.047522247            2 
   62000    1.2399278    -5.792797    28.561907   0.03838966   0.04748013            4 
   63000     1.221001   -5.8232698    28.999197  0.038358726  0.047437254            6 
   64000     1.257464   -5.7840028    29.414394  0.038299992  0.047383186            3 
   65000    1.2270177   -5.8054509    30.023154  0.038491223  0.047318949            2 
   66000    1.2171966   -5.8003722    30.532982  0.038551744  0.047250434            5 
   67000    1.2333086    -5.827131    30.991536  0.038546686  0.047175344            3 
   68000    1.2246628   -5.7520392    31.768714  0.038932247  0.047122611            2 
   69000    1.2402888   -5.7319381    32.667257  0.039453208  0.047099612            4 
   70000    1.2391983   -5.8460632    32.863391  0.039123084  0.047090179            5 
   71000    1.2107568   -5.7960214    33.748625  0.039611062  0.047090562            6 
   72000     1.231628   -5.7812749    34.388346  0.039801326  0.047117922            2 
   73000    1.2299574   -5.8033582    34.703909  0.039616335  0.047116115            2 
   74000    1.1903029   -5.7905842     35.24504   0.03969036  0.047104492            3 
   75000    1.2476827    -5.802812    35.906739  0.039896377  0.047095386            2 
   76000    1.2268447   -5.8131954    36.482578  0.040002826  0.047083103            1 
   77000    1.2204937    -5.819933    37.158933  0.040215296  0.047088578            2 
   78000    1.2082991   -5.8094984    37.650145  0.040224514  0.047094931            4 
   79000    1.2335693    -5.805202    38.216055  0.040312294  0.047109077            5 
   80000    1.2075381   -5.8208756    38.716111  0.040329282   0.04711935            3 
   81000    1.2314199   -5.8212355    39.236833  0.040367112  0.047122817            3 
   82000    1.2306311   -5.7894757    40.063499  0.040714938  0.047138302            3 
   83000    1.2279891   -5.7847725    40.697445  0.040860888   0.04715538            3 
   84000    1.2193047   -5.8152758    41.141543  0.040815023  0.047174038            4 
   85000    1.2461084   -5.8139117     41.71876  0.040900745  0.047189075            1 
   86000    1.2129391   -5.8728134    42.288437  0.040977167  0.047206715            4 
   87000    1.2247152   -5.8282492     43.25905  0.041435871   0.04723195            2 
   88000    1.2271902   -5.8286286    43.498406  0.041191673  0.047263942            6 
   89000    1.2004565   -5.8011064    44.066402  0.041260676  0.047284793            3 
   90000    1.1980736   -5.8092296     44.68998  0.041379611  0.047289744            1 
   91000    1.2341294    -5.823829    45.276503  0.041461999  0.047300366            2 
   92000    1.2207224   -5.8102235    45.704865  0.041399334  0.047308104            3 
   93000    1.2386906   -5.7914467    46.181936  0.041381663  0.047313416            2 
   94000    1.2155933   -5.8140314    46.875794  0.041556555    0.0473104            2 
   95000    1.2001682   -5.8274986     47.36379  0.041547184   0.04730249            3 
   96000    1.2153157   -5.8414836    47.704274   0.04140996  0.047288862            3 
   97000     1.218799   -5.8091183    48.075921  0.041302338  0.047279517            2 
   98000    1.2070593   -5.8299389    48.689073  0.041402272  0.047258542            2 
   99000    1.2070801   -5.8265086    49.316299  0.041512036  0.047234094            2 
  100000    1.2092637   -5.8525749    49.580531  0.041317109  0.047208229            3 
  101000    1.2037552   -5.8102596    50.185821  0.041407443  0.047181224            1 
  102000    1.2442717   -5.8403916    50.800689   0.04150383  0.047160429            3 
  103000    1.2192077   -5.8089706    51.398523  0.041584566  0.047132193            1 
  104000    1.1844064   -5.8603484    51.517987  0.041280438  0.047093684            3 
  105000    1.1753534   -5.8408756    52.096376   0.04134633  0.047043299            6 
  106000    1.2217166   -5.7963789    52.875611  0.041568877  0.046999816            4 
  107000    1.2103326   -5.8180573    53.539687  0.041697575   0.04697226            3 
  108000    1.2000655   -5.8775977    53.961171  0.041636706  0.046952301            2 
  109000    1.2027141   -5.8214501     54.47974  0.041651177  0.046932005            3 
  110000    1.2016316   -5.8783251    54.939964  0.041621185  0.046899685            4 
  111000    1.1899135   -5.8702997     55.38836  0.041582853  0.046869088            1 
  112000     1.231359   -5.8369262    55.924518  0.041610504  0.046834998            1 
  113000    1.2033265   -5.7937326    56.618878  0.041754334  0.046797507            5 
  114000    1.2268684   -5.8583664    56.653296  0.041413228  0.046764588            3 
  115000    1.2072902   -5.8506875    57.490298  0.041659636  0.046730802            2 
  116000    1.1885655   -5.8657201    58.162263  0.041783235  0.046700892            2 
  117000    1.1954647   -5.8608305    58.581331  0.041724595  0.046674105            3 
  118000    1.2390308   -5.7821611    59.473704  0.042001203  0.046650188            2 
  119000    1.1830615   -5.8346806    59.708065  0.041812371  0.046626212            3 
  120000    1.2083769   -5.8105778    60.530968  0.042035394  0.046603707            2 
  121000    1.2076999   -5.8512143    60.970958  0.041991018  0.046582054            6 
  122000    1.2077484   -5.8618233    61.723953   0.04216117  0.046564372            3 
  123000    1.2008454   -5.8488554    62.216833  0.042152325  0.046554848            4 
  124000    1.2317865   -5.8674651    62.912638  0.042279998  0.046538981            3 
  125000    1.1954156    -5.818986    63.398832  0.042265888  0.046525729            3 
  126000    1.1982355   -5.7904842    64.095147   0.04239097  0.046513124            4 
  127000    1.2045376   -5.8462812    64.364135  0.042233684  0.046500135            2 
  128000     1.207107   -5.8586585    65.038802   0.04234297  0.046484749            2 
  129000     1.221126   -5.8899572    65.476763  0.042297651  0.046475488            3 
  130000    1.1867245   -5.8477793    66.131426   0.04239194  0.046469382            2 
  131000    1.2065686   -5.8239137    66.896337  0.042554921  0.046468257            3 
  132000    1.1870791   -5.8140119     67.57782  0.042662765  0.046467976            3 
  133000    1.1845196   -5.8580021    68.105436  0.042672579  0.046469034            2 
  134000      1.18764   -5.8328078    68.784866  0.042776658  0.046469994            4 
  135000    1.1905688   -5.8641467    68.953369  0.042563808  0.046471565            2 
  136000    1.1969617   -5.8827424    69.361791  0.042501097  0.046466322            1 
  137000    1.1737062   -5.8352956    69.942599   0.04254416  0.046460641            1 
  138000    1.1985861   -5.8588932    70.610546  0.042639219  0.046447532            1 
  139000    1.2159714   -5.8311331    71.094777  0.042622768  0.046440173            1 
  140000    1.1816586   -5.8604631    71.866245  0.042777527  0.046431117            2 
  141000    1.2015322   -5.8836695    71.954843  0.042526503   0.04642228            2 
  142000    1.1711705   -5.8414939    72.832434  0.042742038   0.04641047            2 
  143000    1.1852639   -5.8303919    73.002707   0.04254237  0.046393349            2 
  144000    1.2043443   -5.8903168    73.198961  0.042360509  0.046372191            3 
  145000    1.1915861   -5.8656202    73.909646  0.042476808  0.046352154            4 
  146000    1.2061882   -5.9143715    73.814755  0.042131709  0.046325568            2 
  147000    1.1927788   -5.8997054    74.638657  0.042312164  0.046299975            2 
  148000    1.2265177   -5.8811062    74.914151  0.042181391   0.04627445            2 
  149000    1.1943929   -5.8761188    75.711663   0.04234433  0.046243311            3 
  150000    1.1823675   -5.8488908    76.230835  0.042350464  0.046212655            4 
  151000    1.2219626   -5.8617713    76.422466  0.042175754  0.046181913            2 
  152000    1.1969654   -5.8461247    76.720251  0.042061541  0.046150051            2 
  153000    1.1791152   -5.8580904    77.356359  0.042133093  0.046113846            3 
  154000    1.1751631   -5.8561341    77.903817  0.042155745   0.04608246            5 
  155000    1.1897732   -5.8648352    78.555438  0.042234106  0.046052131            5 
  156000    1.1975811   -5.8834293    78.552965  0.041962054  0.046020731            1 
  157000    1.2093439   -5.8451449    79.213783  0.042045532  0.045984351            2 
  158000    1.1831739   -5.8661859    79.888101  0.042135074  0.045948919            1 
  159000    1.1749246   -5.8805365    80.236678  0.042052766  0.045915094            4 
  160000    1.1828088   -5.8980939    80.765137  0.042065175  0.045876726            5 
  161000    1.2036786   -5.9065069    81.127036  0.041991219  0.045840556            4 
  162000    1.1772627   -5.8846115    81.681123  0.042017038  0.045800825            2 
  163000     1.187821   -5.9356581    82.119195  0.041983228  0.045765703            3 
  164000    1.1603512   -5.9138928    82.755727  0.042050674  0.045729053            2 
  165000    1.1809371   -5.9150674    83.264356  0.042052705  0.045696477            3 
  166000    1.2129565   -5.8949088    84.271286  0.042304862  0.045664386            2 
  167000    1.1907253   -5.8158648    84.837643  0.042334153  0.045636272            5 
  168000    1.1584871   -5.8543956    85.225943  0.042274773  0.045610404            3 
  169000    1.1803408   -5.9052763    85.323261  0.042072614  0.045581904            2 
  170000    1.1779658   -5.9262827    85.432993  0.041878918  0.045548404            3 
  171000    1.1919408   -5.8903723    85.974144  0.041897731    0.0455132            1 
  172000    1.1645491   -5.8922199    87.177037  0.042236937  0.045479123            4 
  173000    1.1767979   -5.8783149     87.63953  0.042215573   0.04545416            2 
  174000    1.1784426   -5.8511621    88.136508  0.042210971  0.045425218            3 
  175000    1.1934026    -5.878363    88.577166  0.042179603  0.045398446            2 
  176000    1.1843049   -5.8937903    89.161307  0.042216528  0.045372132            2 
  177000    1.1827412   -5.9026217     89.80784   0.04228241  0.045347978            2 
  178000      1.18767   -5.9028087    90.060377  0.042163098  0.045324497            4 
  179000    1.1813054   -5.8941129     90.52905   0.04214574  0.045298505            3 
  180000    1.1678725   -5.9144722    90.690406  0.041986299  0.045270792            2 
  181000    1.1651054   -5.8799235    92.007699  0.042360819  0.045248378            3 
  182000    1.1756466   -5.8891706    92.306758  0.042264999  0.045225736            2 
  183000    1.1654552   -5.9076913    92.398442  0.042075793  0.045201533            1 
  184000    1.1766995   -5.8821748    92.869169  0.042060312  0.045173771            2 
  185000    1.1662614   -5.9241122    93.125119  0.041948252  0.045141585            2 
  186000    1.1640967   -5.8832493    93.807376  0.042028394  0.045112767            4 
  187000    1.1794679   -5.9431298    94.002904  0.041890777  0.045081662            2 
  188000    1.1941224   -5.8915414    94.372052  0.041831583  0.045051492            4 
  189000    1.1709148    -5.913964    95.079168  0.041922032  0.045017844            4 
  190000    1.1701145   -5.8914173    95.790961  0.042013579  0.044984207            4 
  191000    1.1606858   -5.8942123    96.009376  0.041888907  0.044955756            3 
  192000     1.173735   -5.9047713    96.477107  0.041873744  0.044927023            4 
  193000    1.2040374   -5.9194325    96.555014   0.04169042  0.044896495            5 
  194000    1.1960676   -5.9206215    98.019189  0.042104463  0.044867103            4 
  195000    1.1753075   -5.9127445    98.109459  0.041927119  0.044837716            2 
  196000    1.1775546   -5.9136053    98.470182  0.041866574   0.04480797            3 
  197000    1.1882537    -5.890327    99.349883  0.042026177  0.044779177            2 
  198000    1.1958911   -5.9252824    99.429275  0.041847338  0.044751401            4 
  199000    1.1893328   -5.9163116    100.11365   0.04192364  0.044720731            2 
  200000    1.1588475   -5.8972812    100.59373  0.041914056  0.044693081            5 
  201000    1.2003855   -5.9092571    100.85009  0.041811812  0.044662983            4 
  202000    1.1652263   -5.9182468    101.15747  0.041731629  0.044632627            4 
  203000    1.1803514   -5.8820363    101.89637  0.041829379  0.044601815            3 
  204000    1.1635842   -5.9208395    102.02069  0.041675119  0.044571204            4 
  205000    1.1691191   -5.9209316    102.95896  0.041853234   0.04453841            2 
  206000    1.2027024   -5.9154418    103.15237  0.041728307  0.044508996            3 
  207000    1.1771846   -5.9439674    103.63907  0.041722652  0.044480737            4 
  208000    1.1819552   -5.9826196    104.34931  0.041806616  0.044449916            3 
  209000    1.1786679   -5.9183806    104.50799  0.041669851  0.044419515            7 
  210000    1.1652631   -5.9372317    105.00221  0.041667544  0.044388398            4 
  211000    1.1599199   -5.9303221    105.26209  0.041572704  0.044352245            3 
  212000    1.1358505   -5.9142596    105.57795  0.041500766  0.044318213            3 
  213000    1.1941719   -5.9277668    106.32816  0.041599435  0.044286473            3 
  214000    1.1648354   -5.9514374    106.92566  0.041637718  0.044257644            1 
  215000    1.1497951   -5.9270866    107.10618  0.041514022  0.044226665            2 
  216000     1.173607   -5.9757297    107.68325  0.041544463  0.044196124            3 
  217000    1.1605333   -5.9293324    108.61974  0.041712649  0.044165606            2 
  218000    1.1473535   -5.9780719    108.61611  0.041519919  0.044136803            3 
  219000    1.1858146   -5.9209934    109.08628  0.041509238  0.044109794            2 
  220000    1.1842204    -5.921233    110.19257  0.041739611  0.044085991            1 
  221000    1.1535604   -5.9706025    110.26083  0.041576482  0.044060163            2 
  222000    1.1682047   -5.9135001    111.13689   0.04171805  0.044036118            2 
  223000    1.1730413   -5.9015758    111.89747  0.041815199   0.04401348            2 
  224000    1.1753537   -5.9544186    111.96844  0.041654925  0.043990037            2 
  225000    1.1785061   -5.9536278    112.53095  0.041678131  0.043967595            4 
  226000    1.1597811   -5.9198004    113.42476  0.041823289  0.043945867            3 
  227000    1.1507622   -5.9120453    113.34818  0.041610931  0.043922853            1 
  228000    1.1532782   -5.9194211    113.50433  0.041485502  0.043897558            3 
  229000    1.1592003   -5.9251034    114.78507  0.041770404  0.043872501            3 
  230000    1.1869388   -5.9578434    114.46037  0.041471149  0.043849354            2 
  231000    1.1605677   -5.9562561    115.32172  0.041602352  0.043824465            2 
  232000    1.1517597   -5.9319115    116.12718  0.041712349  0.043800809            4 
  233000     1.162308   -5.9139549    116.48528  0.041661401  0.043778769            4 
  234000    1.1638504   -5.9576857     116.2914  0.041414316  0.043754567            4 
  235000    1.1706827   -5.9402794    117.06407   0.04151208  0.043728133            3 
  236000    1.1560128    -5.976809     117.1965  0.041382945  0.043700988            3 
  237000    1.1585294   -5.9583734    117.82425   0.04142906  0.043671684            3 
  238000     1.165001   -5.9390133    118.41877  0.041463155  0.043643582            4 
  239000    1.1567261   -5.9357329    118.63712  0.041365802  0.043617496            2 
  240000    1.1960239   -5.9743678    118.78028  0.041243154  0.043592211            3 
  241000     1.137298   -5.9037053    120.08041  0.041521579  0.043567377            3 
  242000    1.1555242   -5.9508256    120.07532   0.04134825  0.043543992            2 
  243000    1.1302233   -5.9391865    121.13865  0.041542746   0.04351771            2 
  244000    1.1404978   -5.9376618    121.12886  0.041369146  0.043492798            2 
  245000    1.1561189   -5.9561905    122.05701  0.041515988  0.043470019            2 
  246000    1.1637792   -5.9367724    122.68486  0.041559911  0.043448863            2 
  247000    1.1070929   -5.9618883    122.68804  0.041392726  0.043427365            5 
  248000    1.1587504   -5.9741181    123.01381  0.041335285  0.043404098            3 
  249000    1.1482161   -5.9266813    123.41723  0.041304294   0.04337962            3 
  250000    1.1666777   -6.0050612    123.24838  0.041082795  0.043351186            3 
  251000    1.1676395    -5.971518    123.50873  0.041005555  0.043322207            4 
  252000    1.1621705   -5.9643162    124.32147  0.041111596   0.04329359            3 
  253000    1.1354099   -6.0255314    124.44431  0.040989562   0.04326553            1 
  254000    1.1596856   -5.9588915    124.80904  0.040947848   0.04323417            4 
  255000    1.1626225   -5.9715296    125.35508  0.040965711  0.043202393            3 
  256000     1.160477   -5.9581922    125.80039  0.040950648  0.043169955            3 
  257000    1.1596614   -5.9894807    125.79463   0.04078944  0.043137492            7 
  258000    1.1666642   -5.9778029    126.37242  0.040817967   0.04310576            2 
  259000    1.1644256   -5.9402782    126.51942  0.040707664  0.043073358            1 
  260000    1.1470696   -5.9847231    127.39252  0.040830937     0.043042            2 
  261000    1.1606548    -5.989618    127.33262  0.040655371  0.043011536            5 
  262000     1.141769   -5.9381474    128.83101  0.040976786  0.042980969            6 
  263000    1.1492555   -5.9477181     128.6839  0.040774367  0.042950724            4 
  264000     1.152669    -5.925877    130.30613  0.041131986  0.042919493            5 
  265000    1.1326812   -5.9436942    129.62998  0.040764144  0.042890626            4 
  266000    1.1362279   -5.9730435    130.17928  0.040782982  0.042860614            4 
  267000    1.1383751   -5.9661246    130.54577  0.040744622  0.042830089            2 
  268000     1.156021   -5.9395256    130.81623  0.040676688  0.042799291            5 
  269000    1.1342149   -5.9882054    130.90048  0.040551573   0.04276895            2 
  270000    1.1515071    -5.975828    131.45422   0.04057229  0.042737445            3 
  271000    1.1248975   -5.9472262    132.35798  0.040700486  0.042705646            3 
  272000    1.1505649    -5.955514    132.71058  0.040658877  0.042672538            3 
  273000    1.1354861   -5.9857654    132.14063  0.040335966  0.042640723            3 
  274000    1.1817176   -5.9293863    133.90187  0.040724413  0.042608726            3 
  275000    1.1373165   -5.9790938    133.50274  0.040455375  0.042577079            5 
  276000    1.1408577   -5.9779734    133.56896  0.040328793  0.042544897            3 
  277000    1.1414663   -5.9868815    134.62044   0.04049953  0.042511421            4 
  278000    1.1599766   -5.9914444    134.50962   0.04032063   0.04247903            3 
  279000    1.1391077   -5.9946806    135.15008  0.040367406  0.042444451            2 
  280000    1.1285426   -5.9683008    135.10861  0.040210895  0.042408414            1 
  281000    1.1546736   -5.9724374    134.91774  0.040011192  0.042373036            3 
  282000    1.1140015   -5.9897877    135.49413  0.040039636   0.04233623            4 
  283000    1.1008646   -5.9671605    136.00018  0.040047168   0.04229808            4 
  284000     1.131827   -6.0174588    135.80055   0.03984758  0.042259005            2 
  285000    1.1342161   -5.9730632    136.07739  0.039788709  0.042219431            8 
  286000    1.1586981   -5.9766648    136.46567  0.039762724  0.042180761            3 
  287000    1.1197766   -6.0030281    137.08594  0.039804279  0.042140679            2 
  288000     1.142036   -6.0226178    137.84404  0.039885427  0.042103338            3 
  289000    1.1485196   -6.0208796    138.30907  0.039881509  0.042063766            3 
  290000     1.141636   -6.0325205    138.12016  0.039689702  0.042025226            2 
  291000    1.1300791   -6.0009552    139.30799  0.039893469  0.041987591            3 
  292000    1.1460761    -5.991437    139.36011  0.039771719  0.041950181            3 
  293000    1.1614778   -5.9654443    140.39212  0.039929498  0.041914486            2 
  294000    1.1169882   -5.9670861    141.24902  0.040036569   0.04188007            2 
  295000    1.1217011   -6.0273469    140.78134   0.03976874  0.041845635            6 
  296000    1.1493682   -5.9975547    140.91876  0.039673073  0.041810252            2 
  297000    1.1025701   -6.0126161     141.6102  0.039733502  0.041774114            5 
  298000    1.1361626   -6.0534916     141.6521  0.039611885  0.041737148            5 
  299000    1.1246255   -5.9968817    142.10992  0.039607002   0.04170145            3 
  300000    1.1533179   -5.9849236    142.74971  0.039652696  0.041665969            3 
  301000    1.1253778   -6.0339637    142.51457  0.039455861  0.041629389            3 
  302000    1.1365743   -6.0038836    143.56892  0.039616148  0.041593239            4 
  303000    1.1345305   -6.0080145    143.86775  0.039567587  0.041557921            4 
  304000    1.1272125   -5.9966463    144.55796  0.039626635  0.041524316            1 
  305000    1.1021991   -6.0047485    145.18299  0.039667483  0.041491536            2 
  306000    1.1191686   -6.0183264    145.48997   0.03962145  0.041458209            2 
  307000    1.1278758   -5.9998452    145.97059  0.039622852  0.041425468            2 
  308000    1.1391458   -5.9943652    146.77808  0.039712685  0.041394415            2 
  309000    1.1536319   -5.9861499    147.15552  0.039685956   0.04136307            2 
  310000    1.1196234     -6.00913    147.56399   0.03966774  0.041332306            6 
  311000    1.1246323   -5.9967439    148.01499  0.039661037  0.041302076            2 
  312000    1.1153395   -5.9984878     148.5722  0.039682744  0.041272093            2 
  313000    1.1374135   -6.0122958    148.03734  0.039413562  0.041241011            2 
  314000    1.1334831   -6.0565325    149.03332  0.039552367  0.041208111            2 
  315000    1.0940615   -5.9822418    149.32449  0.039503833  0.041176001            3 
  316000    1.1175423   -6.0287607     149.3108  0.039375211  0.041144861            3 
  317000    1.1256022   -6.0128209    150.25839  0.039500104  0.041113295            2 
  318000    1.1522908   -6.0156915    150.37994   0.03940774  0.041082163            6 
  319000    1.1493818   -6.0128941    150.49077  0.039313157  0.041050747            3 
  320000    1.1385598    -6.013095    150.47714  0.039186756  0.041018449            5 
  321000    1.1188134   -6.0456245    151.85316    0.0394219  0.040986969            4 
  322000    1.1314529   -6.0116944     152.5164  0.039471117  0.040957642            2 
  323000    1.1277651    -6.044315    153.18472  0.039521341   0.04092883            3 
  324000    1.1331315   -6.0164714    153.67498  0.039525457  0.040901245            6 
  325000    1.1357199   -5.9775169    154.30166  0.039564528  0.040875371            4 
  326000    1.1398831   -6.0278258    154.22591  0.039423801  0.040848443            3 
  327000    1.1472258   -6.0158236    155.01865  0.039505262  0.040821271            2 
  328000    1.1447051   -6.0536445    155.08617  0.039401973  0.040795117            2 
  329000     1.120439    -6.049483    154.96655  0.039251912  0.040769321            1 
  330000    1.1037401    -6.029279    155.68881  0.039315355  0.040743606            2 
  331000    1.1342651   -6.0124678    156.38872  0.039372788  0.040718089            2 
  332000    1.1289321   -6.0306452    156.21926  0.039211661   0.04069104            3 
  333000    1.1331917   -6.0548759    156.94603  0.039275783  0.040663301            3 
  334000    1.0944693     -6.02928    157.21877  0.039226239  0.040635032            5 
  335000    1.1201192   -6.0081479    158.09172    0.0393263  0.040607917            2 
  336000    1.1207664   -6.0169731    157.91189  0.039164655  0.040580679            5 
  337000    1.1331941    -5.967898    159.01222  0.039320529  0.040554146            5 
  338000    1.1108979   -6.0462527    159.29588  0.039274132  0.040528363            5 
  339000    1.1219039   -6.0448781    159.78507  0.039278532  0.040504259            2 
  340000    1.1234725   -6.0446468    160.07045  0.039232952  0.040479273            3 
  341000     1.120565   -6.0446816    160.69376  0.039270224  0.040455216            3 
  342000    1.1089616   -6.0845806    160.67963  0.039151957  0.040431984            3 
  343000    1.1240911   -6.0449955    161.42696  0.039219379  0.040408508            3 
  344000    1.1052653   -6.0486802    162.15525  0.039281795  0.040386157            2 
  345000    1.1163759   -6.0641034    162.48466  0.039247501  0.040363014            2 
  346000    1.1291535   -6.0678967     162.4684  0.039130154  0.040339361            4 
  347000     1.110718    -6.044071    162.82195  0.039102292  0.040315528            4 
  348000    1.0902724   -6.0540722    163.64817  0.039187779  0.040291243            5 
  349000    1.1020741     -6.04264    163.73523  0.039096282  0.040267356            4 
  350000    1.1103284   -6.0918448    163.39877  0.038904469  0.040244485            2 
  351000    1.0984746    -6.051237    164.85336  0.039138974  0.040221171            3 
  352000    1.1292067   -5.9934564    165.49166  0.039178897  0.040198216            2 
  353000    1.1215733    -6.085051    165.11221   0.03897833  0.040174416            3 
  354000    1.1144357   -6.0303845    165.93492  0.039061892  0.040150107            5 
  355000    1.0899721   -6.0517352    166.09119  0.038988541   0.04012589            4 
  356000    1.1364618   -6.0552292    166.64047    0.0390076  0.040102146            3 
  357000    1.1244159   -6.0267996    166.97985  0.038977556  0.040077987            3 
  358000    1.0958064   -6.0647881    167.28102  0.038938784  0.040053007            2 
  359000    1.0829876    -6.073766    166.97343  0.038758921  0.040028079            5 
  360000    1.1002184   -6.0576923    167.89941  0.038865604    0.0400038            4 
  361000    1.1263128   -6.0471105    168.31468  0.038853803  0.039980159            4 
  362000    1.0999775   -6.0598007    167.91136  0.038653628  0.039956228            9 
  363000    1.1091112   -6.0654058     169.2332  0.038850597  0.039931564            2 
  364000    1.0959691   -6.0855769    168.99474  0.038689272  0.039907245            6 
  365000    1.1083535   -6.0474193    169.71108  0.038746823  0.039882448            5 
  366000    1.1060351   -6.0329803     170.2126  0.038755145  0.039859763            6 
  367000    1.1033543   -6.0659268    170.90623  0.038807045  0.039836252            2 
  368000    1.1007396   -6.0426602    171.47766  0.038830992  0.039812982            2 
  369000    1.0906275   -6.0792346    171.38357   0.03870451  0.039788886            2 
  370000    1.1017581   -6.0757588    170.91279  0.038493872  0.039765143            2 
  371000     1.114193   -6.1048976    171.27989  0.038472572  0.039739583            2 
  372000    1.1208937   -6.0287611    172.35079  0.038609048  0.039714435            4 
  373000    1.0908533   -6.0881718    172.12411  0.038454896  0.039688993            9 
  374000    1.1220304   -6.0772926    172.95506  0.038537224  0.039664125            2 
  375000    1.1094653    -6.064905    173.19696  0.038488213  0.039638094            2 
  376000    1.1079387    -6.045462    174.27422  0.038624605  0.039613372            5 
  377000    1.1208297   -6.1089297    174.02043  0.038466055  0.039589357            5 
  378000    1.1088492   -6.0994084    174.36397  0.038440029  0.039563746            4 
  379000    1.1038737   -6.0633792    174.50527  0.038369672  0.039537335            6 
  380000    1.0944439   -6.0465638    175.68643  0.038527725  0.039513299            2 
  381000    1.1060384   -6.0605003    176.21529  0.038542276   0.03948985            3 
  382000    1.1206956   -6.0690937    176.62508  0.038530777  0.039465706            2 
  383000    1.0817236   -6.0766824    176.55744  0.038415457  0.039441893            5 
  384000    1.0762353    -6.113113    176.86311  0.038381752  0.039417131            3 
  385000    1.1025566   -6.0822517    177.29655  0.038375877  0.039392461            4 
  386000    1.0995867   -6.0957646    177.41675  0.038302408  0.039368663            3 
  387000    1.1107935   -6.0770697    178.18077  0.038367952  0.039345253            3 
  388000    1.0928369   -6.1161731    178.14075  0.038260469  0.039321003            4 
  389000    1.0883443   -6.0970477    179.22969  0.038395391  0.039297819            6 
  390000    1.0893729   -6.0978621    178.88175  0.038222597  0.039274974            3 
  391000    1.0883112   -6.0830548    179.47064  0.038250349  0.039251615            5 
  392000    1.1044603   -6.0913173    180.29124  0.038327219   0.03922747            1 
  393000    1.0869689   -6.0773132    180.02987  0.038174272  0.039203241            3 
  394000    1.1016111   -6.0698622      180.621  0.038202412  0.039178827            3 
  395000    1.1030975   -6.1535925    180.02304  0.037979544  0.039154388            4 
  396000    1.0824823   -6.1284296    180.74332  0.038035211  0.039129627            3 
  397000    1.1108224   -6.1173359    181.71509  0.038143385  0.039104915            2 
  398000    1.0731085   -6.0602089    182.08181  0.038124332  0.039080268            4 
  399000    1.1025763   -6.0818822    182.28814  0.038071874  0.039056421            5 
  400000    1.0978292    -6.107871    182.62157  0.038046161  0.039032113            5 
  401000    1.1009351   -6.1491077    182.25057  0.037874183  0.039007582            3 
  402000    1.0978663   -6.1134984    183.06522  0.037948844  0.038983823           10 
  403000    1.0763043   -6.1410743    183.23078  0.037888913  0.038958729            5 
  404000    1.1113682   -6.1296979    183.17975  0.037784601  0.038934327            3 
  405000    1.0826035   -6.0961619    184.36855  0.037935915  0.038909825            3 
  406000    1.0803751   -6.1207571    184.53348   0.03787633  0.038884355            2 
  407000    1.1001914    -6.115488    184.55935  0.037788564  0.038857905            4 
  408000    1.1062077   -6.0973994    184.96563  0.037778928  0.038831353            3 
  409000    1.0977738   -6.1061362    184.73507  0.037639581  0.038804533            8 
  410000    1.1157058   -6.1214488    184.61435  0.037523242  0.038777591            3 
  411000    1.0888105   -6.0918919     185.7586  0.037663949  0.038750756            4 
  412000    1.1004242    -6.088478    185.61126   0.03754273  0.038722407            3 
  413000    1.0822529   -6.0594637    186.66217  0.037663877  0.038695293            4 
  414000    1.0737404   -6.0889044    186.14728  0.037469258  0.038668287            3 
  415000    1.1079992   -6.1473022    186.68392   0.03748673  0.038640675            2 
  416000    1.0990933   -6.1247271    186.67716  0.037395264  0.038613511            4 
  417000    1.0871789   -6.1417887     186.9938  0.037368864  0.038586017            6 
  418000    1.0921065    -6.106308    188.09827  0.037499655  0.038559462            4 
  419000    1.0921875   -6.1119915    188.03546  0.037397664  0.038532118            4 
  420000    1.0812868   -6.1114353    188.37025   0.03737505  0.038504886            3 
  421000    1.0997717   -6.0718263    188.70439  0.037352413  0.038477647            3 
  422000    1.0799731   -6.1004228    189.09425  0.037340887  0.038449836            2 
  423000    1.0851358   -6.1149587    188.62393  0.037159954  0.038420537            3 
  424000    1.0851467   -6.1010715    189.69174  0.037282182  0.038392028            3 
  425000    1.0882798   -6.1256457    190.04344   0.03726342  0.038362321            2 
  426000    1.0944462   -6.1405985    189.24913  0.037020566  0.038332576            2 
  427000    1.0846696   -6.1426232    189.44005  0.036971126  0.038302591            4 
  428000    1.0780555   -6.1616412    188.98348   0.03679585  0.038271431            3 
  429000    1.0800267   -6.1417723    189.96574  0.036900881  0.038240912            2 
  430000    1.1009521   -6.1596833    189.83807  0.036790324  0.038210659            3 
  431000    1.1078598   -6.1288291    190.92597  0.036915308  0.038180366            3 
  432000    1.0903627   -6.1409319    190.69032  0.036784397  0.038149661            4 
  433000    1.0885574   -6.0868453    192.07823  0.036966557  0.038119901            2 
  434000    1.0601842   -6.1016741    192.00103  0.036866557  0.038090546            3 
  435000     1.092189   -6.1347909     192.5612  0.036889119  0.038061886            4 
  436000    1.0725311   -6.1300678    192.29483  0.036753598  0.038032374            4 
  437000    1.0857881   -6.1099205    192.91036  0.036786872  0.038002829            4 
  438000    1.0743832   -6.1836606     192.1291  0.036554243  0.037972743            3 
  439000    1.0816414   -6.1531065    193.81463  0.036790932  0.037942661            4 
  440000    1.0922386   -6.1326206    193.60719  0.036668028  0.037912582            2 
  441000    1.0963867   -6.1289575    193.44722  0.036554653  0.037883006           10 
  442000    1.0630681   -6.1501907    193.90882  0.036558979  0.037853768            4 
  443000    1.0930343   -6.1046992      194.964  0.036674944  0.037824621            3 
  444000    1.1046562   -6.1279339    195.06566  0.036611423  0.037794979            2 
  445000    1.0767891   -6.1928724    195.17894  0.036550364  0.037764245            6 
  446000    1.0905638   -6.1416163    195.32553  0.036495801   0.03773368            6 
  447000    1.0903531   -6.1723279    195.11324  0.036374579  0.037703085            6 
  448000    1.0479669   -6.1477836    195.31073  0.036330121  0.037672772            5 
  449000    1.0687595   -6.1710218    195.43552  0.036272368  0.037642385            3 
  450000    1.0937216   -6.1632849    196.48872    0.0363868  0.037611513            4 
  451000    1.0850649   -6.1281568    197.29584  0.036455255  0.037581393            1 
  452000    1.1060273   -6.1400725    197.34336  0.036383362  0.037551626            3 
  453000    1.0703043    -6.182261    197.27268  0.036290044  0.037521648            4 
  454000    1.0896827   -6.1770437    198.16808  0.036374464  0.037493145            4 
  455000    1.0585652    -6.168984    198.73166  0.036397739  0.037464055            3 
  456000    1.0966324   -6.1351936    199.73808  0.036501843  0.037436438            2 
  457000      1.08501    -6.129134    200.51475  0.036563595  0.037409456            3 
  458000    1.0659146   -6.1586536    200.50461  0.036481916  0.037381746            2 
  459000    1.0713618   -6.1466917    200.60471  0.036420608  0.037354106            4 
  460000    1.0748116   -6.1941744    200.41351  0.036306796  0.037327262            6 
  461000    1.0847231   -6.1540735    201.03681   0.03634071  0.037299902            5 
  462000    1.0782075    -6.169079    201.69759  0.036381238  0.037272158            5 
  463000    1.0704981   -6.1782223    201.32425  0.036235465  0.037244541            6 
  464000    1.0761515   -6.2014763    201.97964  0.036275079  0.037217943            3 
  465000    1.0340134   -6.1339265    202.08017  0.036215085  0.037190923            5 
  466000    1.0688413   -6.1009958    203.08474  0.036317013  0.037164028            2 
  467000     1.078456   -6.1696581    202.35093  0.036108302  0.037136907            4 
  468000    1.0619856    -6.150806    203.55121  0.036244874  0.037108991            2 
  469000    1.0704203   -6.1535296    203.07053  0.036082184  0.037081405            4 
  470000    1.0460328   -6.1645006    203.62471  0.036103671  0.037054233            6 
  471000    1.0531476    -6.176285    203.49954  0.036004873  0.037026483            5 
  472000    1.0360862   -6.1444359    204.60693  0.036124105  0.036999374            4 
  473000    1.0593182   -6.1738014    204.75624  0.036074038   0.03697229            2 
  474000    1.0467991   -6.1604382    204.98147   0.03603753  0.036944494            6 
  475000    1.0626914    -6.190709    204.64179  0.035902069  0.036916717            3 
  476000    1.0746182   -6.1452309    205.33639  0.035948247  0.036888221            5 
  477000    1.0658958   -6.2056239    205.78417  0.035951112  0.036861629            3 
  478000    1.0574994   -6.1983859    205.53762  0.035832918  0.036833036            2 
  479000    1.0714913   -6.1562789    206.31184  0.035892804  0.036804766            1 
  480000    1.0490876   -6.1710737    206.70378  0.035886073  0.036776579            3 
  481000    1.0578467   -6.2083586    206.91191  0.035847524  0.036749263           13 
  482000    1.0767027   -6.1878934    207.18718  0.035820744  0.036721907            3 
  483000    1.0543648   -6.2254602    206.46476   0.03562194  0.036694767            6 
  484000    1.0507984   -6.1943553    206.60826  0.035573047  0.036667329            4 
  485000    1.0583085   -6.1747867    207.94707  0.035729738  0.036639941            2 
  486000    1.0253927   -6.1921615    208.26917  0.035711449  0.036612504            1 
  487000      1.06986   -6.1767558     208.7607  0.035722227  0.036585424            2 
  488000    1.0624791   -6.1880331    209.10333  0.035707535  0.036558433            2 
  489000     1.057509   -6.1492228    210.18737  0.035819251  0.036532567            1 
  490000    1.0455184   -6.1711516    210.33666  0.035771541  0.036506097            2 
  491000    1.0624243   -6.2082096    209.84845  0.035615827  0.036480637            3 
  492000    1.0564683   -6.1474182    211.12429  0.035759534  0.036454555            3 
  493000    1.0749668   -6.1661293    210.70482  0.035616096  0.036428378            2 
  494000    1.0582052   -6.2567561    210.72141  0.035546796  0.036401962            7 
  495000    1.0805244   -6.1753503    211.77936   0.03565309  0.036375818            4 
  496000    1.0491831   -6.1759309    212.08386  0.035632369  0.036350148            4 
  497000    1.0540646   -6.2109276    212.00219   0.03554698  0.036324527            3 
  498000    1.0454723   -6.2178847    212.42788  0.035546833  0.036299433            4 
  499000    1.0512087   -6.1880003    213.01338  0.035573376  0.036273809            3 
  500000    1.0533123    -6.182102    212.84396  0.035473994  0.036247966            4 
  501000    1.0409403   -6.1975037    213.77862  0.035558652  0.036222609            5 
  502000    1.0575483   -6.2019869    212.79574  0.035324658  0.036197088            2 
  503000    1.0752567   -6.2226731    213.16008  0.035314792  0.036170388            3 
  504000    1.0595686   -6.2040502    213.82902  0.035355328  0.036144066            4 
  505000    1.0450737   -6.2028428    214.20449  0.035347275   0.03611851            4 
  506000    1.0423029    -6.258971    214.26467   0.03528733  0.036092271            4 
  507000    1.0335809   -6.2005896    215.18848  0.035369572  0.036065774            4 
  508000    1.0406582    -6.203665    215.78364  0.035397579  0.036040174            2 
  509000    1.0613015   -6.2133876     215.2523  0.035241045  0.036014502            2 
  510000    1.0583613   -6.1697431    216.41087  0.035361254  0.035988823            2 
  511000    1.0558657   -6.1828934    216.14037   0.03524794  0.035962268            3 
  512000    1.0700415    -6.222298    215.13463  0.035015401  0.035936269           12 
  513000    1.0498939   -6.1924061    216.74201  0.035208253  0.035909888            3 
  514000    1.0246531   -6.2222989    215.95978  0.035012934  0.035883027            4 
  515000    1.0645568   -6.1860675    217.48981  0.035192526  0.035856596            2 
  516000    1.0425618   -6.1959412    217.39576  0.035109134    0.0358308            4 
  517000     1.053405   -6.2198604    217.37518  0.035037907   0.03580393            3 
  518000    1.0462422   -6.2179127    217.00431  0.034910604  0.035776935            2 
  519000    1.0528133   -6.2308575    217.69057  0.034953527  0.035749248            7 
  520000    1.0293058    -6.238649     217.2878  0.034821763  0.035722016            4 
  521000    1.0444117   -6.1984593    217.85529  0.034845695  0.035694425            3 
  522000     1.045675   -6.1950047    218.59845  0.034897582  0.035666948            3 
  523000    1.0165613   -6.1867285    218.82706  0.034867282  0.035640629            3 
  524000    1.0301831   -6.2080731    219.00054  0.034828331  0.035613392            3 
  525000     1.057105   -6.1978418    219.39012  0.034823829  0.035585922            2 
  526000    1.0619189   -6.2422267    219.24405  0.034734482  0.035558733            2 
  527000     1.035581    -6.246724    219.50941  0.034710533  0.035531711            2 
  528000    1.0364186    -6.235479    219.13661  0.034585955  0.035504604            3 
  529000    1.0249446   -6.2494291    220.58932   0.03474942  0.035478099            5 
  530000    1.0362413   -6.2504368    221.17734  0.034776312  0.035451551            3 
  531000    1.0448179   -6.2327102    221.19338  0.034713336  0.035425271            2 
  532000     1.032848   -6.2507743    221.12669   0.03463764  0.035399037            6 
  533000    1.0466881   -6.2412234    221.64756   0.03465409  0.035373078            5 
  534000    1.0247556   -6.2424068    222.21262  0.034677375  0.035347076            5 
  535000    1.0370979    -6.229062    221.85819   0.03455735  0.035321152            4 
  536000    1.0432019   -6.2046344    222.78747  0.034637356  0.035295631            3 
  537000    1.0400011   -6.1993209    223.00793  0.034607065  0.035269911            8 
  538000    1.0443244   -6.2026205    223.52434  0.034622729  0.035244061           10 
  539000    1.0412851   -6.2404273    223.59139   0.03456886  0.035218485            3 
  540000    1.0502576   -6.2279321    223.79993  0.034537026  0.035192727            3 
  541000    1.0424935   -6.1960277    224.13344  0.034524559  0.035167108            3 
  542000    1.0241004   -6.2501383    224.21656  0.034473641  0.035141706            4 
  543000    1.0430381   -6.2133604     224.3015  0.034423189  0.035115626            4 
  544000    1.0638218   -6.2252349    224.44647  0.034382119  0.035089529            2 
  545000    1.0518829   -6.2468623    224.62979  0.034347062  0.035063104            3 
  546000    1.0342819    -6.224841    225.20659  0.034372189  0.035036994            3 
  547000    1.0521652   -6.2347309    225.67919  0.034381351  0.035011056            2 
  548000     1.049029   -6.2250894    226.40323  0.034428716  0.034985328            2 
  549000    1.0334328   -6.2754245    225.82738  0.034278594  0.034959964            8 
  550000    1.0283648   -6.2512324     226.1552  0.034265939  0.034933865            3 
  551000    1.0429659   -6.2483323    226.17813  0.034207219   0.03490777            1 
  552000    1.0602551   -6.2932216    226.08855  0.034131725  0.034880783            2 
  553000    1.0278272    -6.227409    226.95866  0.034201124  0.034853557            5 
  554000    1.0362855   -6.2072467    226.88177  0.034127824  0.034827252            9 
  555000    1.0153359   -6.1851409    228.47462  0.034305499  0.034801661            3 
  556000    1.0553952   -6.2668506    228.10199  0.034187949  0.034775875            6 
  557000    1.0387853   -6.2204648      228.666  0.034210951  0.034750369            4 
  558000    1.0335774   -6.2186547    229.16011  0.034223433  0.034725217            5 
  559000    1.0332195   -6.2824949    228.28486  0.034031732  0.034699989            3 
  560000    1.0370697    -6.270968    228.67595   0.03402916   0.03467403            8 
  561000    1.0403118   -6.2320225     228.6906  0.033970678  0.034647843            8 
  562000    1.0133901   -6.2580674    228.43412  0.033872201  0.034621995            8 
  563000    1.0464133   -6.2593356    228.98696  0.033893867  0.034595474            3 
  564000    1.0102511   -6.2675625    229.07127  0.033846229  0.034569134            6 
  565000    1.0145112   -6.2524412    229.37732  0.033831464  0.034542616            3 
  566000    1.0099428   -6.1912472    230.60949  0.033953105  0.034516311            3 
  567000    1.0189437   -6.2239988    230.43147   0.03386706  0.034489438            3 
  568000    1.0284799   -6.2697164    229.95745  0.033737889  0.034462448            6 
  569000    1.0141386    -6.288907    230.30038  0.033728819   0.03443569            4 
  570000   0.99902895   -6.2901028    230.73405  0.033733048  0.034408971            5 
  571000    1.0209341   -6.2546456    230.95659  0.033706449   0.03438236            7 
  572000    1.0211004   -6.2972434    230.83708  0.033630111  0.034356212            4 
  573000    1.0322365   -6.3044759    231.40231  0.033653623  0.034330078            2 
  574000     1.041128   -6.2997488    231.71931  0.033641015  0.034303313            5 
  575000    1.0298205   -6.2628333    232.44719  0.033687999  0.034277032            8 
  576000    1.0056821   -6.2625187    232.36033  0.033616946   0.03425063            3 
  577000    1.0095275   -6.2989148    231.56708   0.03344412  0.034224698            6 
  578000    1.0372852    -6.256177    233.36913  0.033646068  0.034199303            4 
  579000    1.0202443   -6.3188948    233.19448  0.033562821  0.034173814            3 
  580000   0.99858169   -6.3041996    233.04074  0.033482865   0.03414838            5 
  581000    1.0148183   -6.2599819    234.15807  0.033585495  0.034122852            2 
  582000    1.0196479    -6.273037    233.89005  0.033489411  0.034097661            6 
  583000    1.0349941   -6.2529426    235.42004  0.033650664  0.034071754            2 
  584000   0.99232844   -6.2546675    234.36564  0.033442585  0.034045916            3 
  585000    1.0132515   -6.3065035    233.75935  0.033299052  0.034020114            2 
  586000     1.017107    -6.279335    234.74467  0.033382347  0.033994145            3 
  587000   0.98231442   -6.3151919    234.15521  0.033241795  0.033967455            8 
  588000    1.0320537   -6.2862506    235.67934  0.033401266  0.033941199            5 
  589000    1.0056205   -6.2621818    236.32618  0.033436076  0.033915752            5 
  590000    1.0060114   -6.3232436    234.79882  0.033163675  0.033890182            7 
  591000     1.040739   -6.2721299    236.68379  0.033373349  0.033863955            3 
  592000    1.0168544   -6.2868999    236.33398  0.033267734  0.033838234            2 
  593000    1.0204765    -6.277821    236.48339  0.033232629  0.033813072            2 
  594000    1.0251604   -6.3351277    235.85299  0.033088243  0.033787204            2 
  595000    1.0171363   -6.3164993    236.97261  0.033189441  0.033761189           10 
  596000   0.99490023   -6.2600319    237.14937  0.033158469  0.033735067            8 
  597000    1.0188948   -6.2785169    237.27422  0.033120355  0.033708796            3 
  598000     1.023476   -6.2692985    237.28035  0.033065823  0.033682453            7 
  599000    1.0018168   -6.2637788    238.52888  0.033184318  0.033656643            8 
  600000    1.0110008   -6.2601051    238.38155  0.033108549   0.03363085            3 
  601000    1.0055419   -6.2987771    238.88205  0.033122857  0.033605413            2 
  602000    0.9986649   -6.2890565    238.88424   0.03306814  0.033580524            3 
  603000    1.0150476   -6.3109298    239.04405  0.033035385  0.033555422            3 
  604000    1.0109752   -6.2875453    239.00362  0.032975113  0.033529961            4 
  605000    1.0095832   -6.2903345    239.24431  0.032953762   0.03350455            3 
  606000    1.0010892   -6.2652009    240.25829  0.033038819  0.033479212            2 
  607000   0.99771141   -6.3062978    239.57437  0.032890496  0.033454235            8 
  608000    1.0092987   -6.3320901    240.31517  0.032937934  0.033429157            2 
  609000    1.0029493   -6.3244382    241.01507   0.03297962  0.033404153            4 
  610000     1.011079   -6.3070098    240.91031  0.032911244  0.033379498            3 
  611000    1.0044816   -6.3101023    241.06064  0.032877883   0.03335472            3 
  612000   0.99266904   -6.2527483    242.86461    0.0330698  0.033330298            1 
  613000    1.0233234   -6.2981846    241.57683  0.032840787  0.033306381            4 
  614000    1.0043304   -6.3087801    242.54843  0.032919168  0.033282212            6 
  615000   0.99857411   -6.2802747    243.30127  0.032967651   0.03325765            3 
  616000   0.99856118   -6.2868131    243.24082  0.032905955  0.033233379            6 
  617000    1.0246463   -6.3231094    242.36662  0.032734552  0.033208569            3 
  618000   0.99413378   -6.2888603    243.03432  0.032771618  0.033183918            4 
  619000    1.0072003   -6.3036842    243.37135  0.032764049  0.033159798            4 
  620000   0.99448789   -6.3082774     242.7668  0.032629946  0.033135595            4 
  621000   0.99109276   -6.3032004    243.95795  0.032737245  0.033111311            3 
  622000    1.0154205   -6.3073132    244.17153  0.032713228  0.033087203            4 
  623000    1.0185508    -6.299473    244.72668  0.032734977  0.033062846            5 
  624000   0.99696839   -6.3263526    243.94272   0.03257782  0.033038278            7 
  625000    1.0078975   -6.3450282    244.35892  0.032581189  0.033014228            2 
  626000    1.0014091    -6.329707    245.17769  0.032638137  0.032989751            5 
  627000    1.0128084   -6.3555419    245.57993  0.032639545  0.032965702            5 
  628000    1.0048537   -6.3259006     246.1011  0.032656727  0.032941796            5 
  629000    1.0017678   -6.2962138    245.97014  0.032587459  0.032918149            5 
  630000   0.99781613   -6.3573791    246.16038  0.032560897  0.032894586            2 
  631000    1.0076348    -6.325038    246.94859   0.03261339  0.032870801            5 
  632000    1.0218373   -6.3357562    246.93926  0.032560557  0.032847699            5 
  633000   0.99184659   -6.3310714    246.85352   0.03249783  0.032824334            5 
  634000   0.99492233   -6.3126238    248.29025  0.032635416  0.032801029            3 
  635000    1.0211923   -6.3379203     247.1537  0.032434869   0.03277775            7 
  636000   0.99713376    -6.317147    248.01919  0.032497273  0.032753868            4 
  637000   0.99352685   -6.3694394    247.79023  0.032416304  0.032730723            4 
  638000    1.0065863   -6.3186539    248.33379  0.032436493  0.032707808            2 
  639000    1.0071624   -6.3558152    248.84952  0.032452989  0.032685112            3 
  640000    1.0033806   -6.3362906    248.82544  0.032399146  0.032661853            3 
  641000   0.98587176   -6.3212149    249.93422  0.032492748   0.03263878            3 
  642000    1.0176996   -6.3300821    249.53779  0.032390678  0.032615856            2 
  643000   0.98117882    -6.369549    249.68713   0.03235966  0.032592606            2 
  644000   0.97450028   -6.3450904    250.32679  0.032392182  0.032569961            3 
  645000    0.9915374   -6.3221697    250.56748  0.032373059  0.032547422            2 
  646000   0.99732439   -6.3355357    251.03894  0.032383764  0.032524604            5 
  647000    1.0038538   -6.3236857    251.15104  0.032348151  0.032502126            3 
  648000    1.0080685   -6.3270048    251.30148  0.032317577  0.032479097            2 
  649000    1.0017349   -6.3424041    251.08482  0.032239961  0.032455883            6 
  650000    1.0237492   -6.3411612    251.45094    0.0322373  0.032433429            3 
  651000    1.0040423   -6.3699764    250.99101  0.032128905  0.032410527            5 
  652000   0.97804813   -6.3417333    251.92049  0.032198426  0.032387733            6 
  653000   0.98430216   -6.3315475    252.30981  0.032198801   0.03236535            8 
  654000    1.0069913    -6.349398    253.08851   0.03224879  0.032343319            6 
  655000    1.0110265   -6.3482916    253.31807  0.032228762  0.032321244            4 
  656000   0.99718564   -6.3606836    253.10506  0.032152574   0.03229892            2 
  657000   0.97836099   -6.3485148    253.45126  0.032147547  0.032276439            7 
  658000   0.98971696   -6.3727298    253.00516  0.032042194  0.032253847            3 
  659000   0.99834611   -6.3547109    253.49352  0.032055326  0.032231153            8 
  660000   0.98927008   -6.3445497    254.47382  0.032130533  0.032209253            3 
  661000   0.97117695   -6.3841797    254.50582  0.032085958  0.032187096           11 
  662000   0.97971329   -6.3968759    254.12251  0.031989238  0.032164715            3 
  663000   0.98910354   -6.3388139    255.52671  0.032117485  0.032142886            3 
  664000    1.0015129   -6.3497091    254.78803   0.03197641   0.03212136            6 
  665000   0.99103438   -6.3707678    254.68201  0.031915039  0.032099354            5 
  666000   0.99718821   -6.3691795     255.4724  0.031966016  0.032077412            6 
  667000   0.94418132   -6.3791057    255.03848  0.031863878  0.032055607            4 
  668000   0.99662448   -6.3625118    255.59253  0.031885295  0.032033515            2 
  669000   0.99691595   -6.3346602    256.55818  0.031957919  0.032011136           14 
  670000    0.9962367   -6.3773477    255.39393  0.031765414  0.031988818            7 
  671000   0.96736328   -6.3507838    256.59358  0.031867062  0.031966237            3 
  672000   0.97478381   -6.3638645    256.75256  0.031839355   0.03194363            2 
  673000   0.98560266   -6.3975838    256.29017  0.031734791   0.03192112            4 
  674000   0.99744074   -6.3642185    256.90252  0.031763418  0.031898278            4 
  675000   0.98665919   -6.3677719    257.56438  0.031798071  0.031875768            4 
  676000   0.99242725   -6.3506789    257.49212  0.031742125  0.031853516            3 
  677000    1.0022427   -6.3340814    257.29133  0.031670523  0.031831201            4 
  678000   0.98767928   -6.3518565    257.12064  0.031602831  0.031809124            5 
  679000   0.98494736    -6.385448    258.04587  0.031669841  0.031786941            7 
  680000   0.99482068   -6.3677871    258.50453  0.031679476  0.031764951            8 
  681000   0.97587053   -6.3783776     259.0851  0.031704002  0.031743282            4 
  682000   0.98518447   -6.3604152    259.73793  0.031737284  0.031721643            4 
  683000    0.9916387   -6.4045892    259.12088   0.03161553  0.031700143            8 
  684000   0.97587365   -6.3887656    258.77339  0.031526973  0.031678196            6 
  685000   0.99546987    -6.378368    259.97729  0.031627408  0.031656569            4 
  686000   0.96621129   -6.3693386    260.31693  0.031622561  0.031635633            3 
  687000   0.98111129   -6.3761267    260.47132  0.031595259  0.031614545            6 
  688000   0.96886138   -6.3936072    260.91352  0.031602897  0.031593233            9 
  689000   0.96393292   -6.3701818    260.22478  0.031473728  0.031571694            3 
  690000   0.96657919   -6.4050999    261.24383  0.031551187  0.031550613            3 
  691000   0.99139295   -6.4195775    260.77971  0.031449555  0.031529516            3 
  692000   0.97664112   -6.3976093    262.01455  0.031552812  0.031508438            4 
  693000   0.97871762   -6.3943196     261.9255  0.031496573  0.031487612            8 
  694000   0.98368449   -6.3570613    263.20867  0.031605268  0.031466658           18 
  695000   0.99631934   -6.4371834    262.68538  0.031497048  0.031446302            2 
  696000    1.0031494   -6.4317288    262.94464  0.031482835   0.03142595            6 
  697000   0.97915899   -6.3814388    263.96445  0.031559594  0.031405959            5 
  698000   0.98209526   -6.4254004    264.18041  0.031540164   0.03138659            3 
  699000   0.97561837   -6.4032316    264.24772  0.031503066  0.031366237            5 
  700000   0.97488323   -6.3755189    264.12134  0.031443016  0.031346069            5 
  701000   0.97663929   -6.4013824    264.08569  0.031393924  0.031326099           12 
  702000   0.97054617   -6.4021523    264.65563   0.03141686  0.031305854            3 
  703000   0.97344898   -6.4192616    265.14455  0.031430127  0.031285963            8 
  704000   0.98235179   -6.3829983    266.68569  0.031567908  0.031266375            4 
  705000   0.98823243   -6.4079862    265.56567  0.031390741  0.031246622            4 
  706000     1.000497   -6.3862038    265.97227  0.031394272  0.031227123            3 
  707000    0.9839133   -6.3589209    266.11548  0.031366747  0.031207221            3 
  708000   0.99160287   -6.3980363    266.24305  0.031337459  0.031187378            3 
  709000    0.9803547   -6.4234583    266.01913   0.03126694  0.031167282           12 
  710000   0.96472794   -6.3879327    266.33495   0.03125997  0.031147487            4 
  711000   0.98460936   -6.3975324    266.92953  0.031285693  0.031127634           11 
  712000   0.96642683   -6.4248343    267.20859  0.031274414  0.031107981            4 
  713000   0.99236961   -6.3905456    267.00829   0.03120714  0.031088326            3 
  714000   0.97244224   -6.4151106    267.40524  0.031209762  0.031068602            3 
  715000   0.97006593   -6.4193595    267.69875   0.03120032  0.031049103            5 
  716000    0.9603627   -6.4289061    267.97053  0.031188376  0.031029834            3 
  717000   0.96817845   -6.3923946    269.00107  0.031264653  0.031010251            5 
  718000   0.97111669   -6.3977375    268.95716  0.031216012  0.030990974            6 
  719000   0.96541343    -6.409772    267.87556  0.031047237  0.030971795            8 
  720000   0.96391929   -6.4357753    268.00216  0.031018768  0.030952017            6 
  721000   0.97202665   -6.4114146    269.14481  0.031107814  0.030931977            3 
  722000   0.96566392   -6.3994137    269.30438  0.031083147  0.030911987            2 
  723000   0.98097495   -6.3822033    270.38372   0.03116456  0.030892114            6 
  724000   0.97834305   -6.4003915    269.94467  0.031070979   0.03087272            5 
  725000   0.98598437   -6.4356854    270.08823  0.031044625  0.030853425            5 
  726000   0.96317625   -6.4099419    270.48972  0.031047948  0.030833924            6 
  727000   0.96315043   -6.4135184    270.56355  0.031013703  0.030814494            6 
  728000   0.94477688   -6.4446461    270.52429  0.030966608  0.030794818            4 
  729000   0.95461893   -6.4187766    270.61435  0.030934425  0.030775199            7 
  730000   0.96532948   -6.3901147    271.64275  0.031009447  0.030756345            3 
  731000   0.98139707     -6.46334    270.67233  0.030856399   0.03073722            3 
  732000   0.95572907   -6.4158694    272.31105  0.031000802  0.030717642            6 
  733000   0.94422351   -6.4340206    272.12016  0.030936808  0.030698469            8 
  734000   0.96795063   -6.4431707    271.83919   0.03086276  0.030679257            3 
  735000   0.96107263   -6.4226899    272.10243  0.030850615  0.030660003            4 
  736000   0.95353645   -6.4558341    272.54054  0.030858304  0.030641574            4 
  737000    0.9427926   -6.4657967    273.29939  0.030902238  0.030622732            5 
  738000   0.93839943   -6.4386025    273.55902  0.030889681   0.03060428            7 
  739000   0.95807942    -6.391335    274.44218  0.030947471  0.030585809            5 
  740000   0.96517562   -6.4112929    274.51843  0.030914238  0.030567417            8 
  741000   0.95543332   -6.4548023    273.83354  0.030795494  0.030549048            3 
  742000   0.95181131   -6.4476017     274.8915  0.030872809  0.030530656            2 
  743000   0.94871171   -6.4491101    274.55363  0.030793364  0.030512344            2 
  744000   0.95702944   -6.4438549    275.15745  0.030819607  0.030494282            6 
  745000   0.96409664   -6.4318831    275.02134  0.030763014  0.030476192            7 
  746000   0.95073283   -6.3951019    275.59707  0.030786089  0.030458004           14 
  747000   0.96761659   -6.4461714    275.85064  0.030773164  0.030439967            5 
  748000   0.96883147   -6.4613176    275.12722  0.030651428  0.030421706            3 
  749000   0.97031965   -6.4565668    275.74435  0.030679167  0.030403085            3 
  750000   0.96783402    -6.436714    275.71773  0.030635303  0.030384342            5 
  751000   0.97927718   -6.4465943    275.84731  0.030608889  0.030365693            8 
  752000   0.95738412   -6.4243941    276.09665  0.030595817   0.03034682            3 
  753000   0.96286339   -6.4611086    275.90758  0.030534261  0.030327598            8 
  754000   0.96145732    -6.449118    275.66806  0.030467292   0.03030888           10 
  755000   0.93721764   -6.3976317    277.93468  0.030677117  0.030290046            3 
  756000    0.9670347   -6.4559325    276.68286  0.030498552  0.030271211            7 
  757000   0.94646279    -6.448452    277.30867  0.030527154  0.030252084            4 
  758000   0.94358628   -6.4217019    277.28283   0.03048404  0.030233211            3 
  759000   0.96233245   -6.4234141    277.54857  0.030473054  0.030214031            3 
  760000   0.94450458   -6.4484425    277.54173  0.030432208   0.03019487            3 
  761000   0.96267832   -6.4637675    277.14815  0.030349118    0.0301757            5 
  762000   0.94845553    -6.453239    278.22508  0.030427064  0.030156349            5 
  763000   0.95144062    -6.472212    277.49598  0.030307556  0.030136858            3 
  764000   0.95927342   -6.4198322     278.6151  0.030389954   0.03011747            3 
  765000   0.95492914   -6.4656629    276.94621  0.030168433   0.03009798           10 
  766000   0.96181673   -6.4656239    278.18001  0.030263273  0.030078388            3 
  767000   0.93334326   -6.4637206     278.0559  0.030210332   0.03005884            7 
  768000   0.94953254   -6.4813686    278.23864  0.030190825  0.030039257            3 
  769000   0.94681536   -6.4583706    279.06553  0.030241171  0.030019903            3 
  770000   0.98117034   -6.4595823    279.07332   0.03020274  0.030000481            3 
  771000   0.94315467   -6.4813714    279.00451  0.030156129  0.029981242            4 
  772000   0.96543276   -6.4666145    279.32207  0.030151346  0.029962207            3 
  773000   0.93226398   -6.4734215    280.14956  0.030201548  0.029942933            6 
  774000   0.95422176   -6.4286341    279.97481  0.030143713  0.029923534            7 
  775000    0.9505448   -6.4552212    279.94745  0.030101877  0.029904075            5 
  776000   0.94566512    -6.477623    279.80716   0.03004802  0.029884248            8 
  777000   0.94860202   -6.4663147     280.1312  0.030044102  0.029864938            6 
  778000    0.9319194   -6.4695773    280.83783  0.030081172  0.029845571            5 
  779000    0.9550852   -6.4956402    281.02737  0.030062834  0.029826348            4 
  780000   0.92562604   -6.4960194    280.84064  0.030004341  0.029806831            3 
  781000   0.93602278   -6.4431062    282.15372  0.030106031  0.029787617            4 
  782000   0.93885389   -6.4736992    281.77647  0.030027331  0.029768442            3 
  783000   0.92621037   -6.4517942    281.70695  0.029981583  0.029749648            4 
  784000    0.9271499   -6.5212873    280.72237  0.029838688  0.029730589            3 
  785000    0.9707014   -6.4908552     281.3357  0.029865785  0.029710886            7 
  786000   0.92660349   -6.5152884    281.22981  0.029816562   0.02969151            4 
  787000   0.95811347   -6.4676669    282.41553  0.029904228  0.029672291            4 
  788000   0.94008731   -6.4586294    283.25637    0.0299552  0.029653267            4 
  789000   0.92998228   -6.4636906     282.7619  0.029865008  0.029634329            8 
  790000   0.92221627   -6.4759049    282.38561  0.029787512  0.029615146            4 
  791000   0.93475044    -6.472839    282.89561  0.029803583  0.029595861            4 
  792000   0.93514955   -6.4704226    283.74121  0.029854926  0.029577144            5 
  793000   0.93919143   -6.4789103    284.05692  0.029850454  0.029558138            5 
  794000   0.94002459   -6.4978968    283.62859  0.029767904  0.029539121            4 
  795000   0.93410707   -6.4979934    283.50914  0.029717939  0.029520145            3 
  796000   0.94799984   -6.4709816    284.60989  0.029795843  0.029501332            5 
  797000   0.94970698    -6.550357    283.19083  0.029610082  0.029482204            5 
  798000   0.96247252   -6.4985887    284.25329  0.029683927   0.02946298            8 
  799000   0.92710586   -6.5268443    284.70375  0.029693758  0.029443787           12 
  800000   0.96511808    -6.507358    284.27371  0.029611845  0.029424661            4 
  801000   0.93408381   -6.4843269    285.65691   0.02971878  0.029405821            4 
  802000    0.9328685   -6.4745432    284.88091  0.029601092  0.029386908            3 
  803000   0.92610068   -6.5173862    283.90814  0.029463277  0.029367826            6 
  804000   0.94002921     -6.51365    285.43225  0.029584603  0.029348798            5 
  805000   0.94138947   -6.5262941    284.67947  0.029469924  0.029328953            5 
  806000   0.92949939   -6.5474043    284.99385  0.029465865   0.02930916            6 
  807000   0.92630271   -6.5262814    285.47802  0.029479349  0.029289225            6 
  808000    0.9292474   -6.5181408    284.81962  0.029374961  0.029269656           10 
  809000   0.92509886    -6.524356    285.66326  0.029425552  0.029250503            7 
  810000   0.94177155   -6.5299903    285.31905  0.029353812  0.029231222            9 
  811000    0.9104834   -6.4952725    287.31063  0.029522259   0.02921197           10 
  812000   0.91853688   -6.5192356    285.69576  0.029320172  0.029192557            6 
  813000   0.92471013   -6.5224171    286.19971  0.029335764  0.029173205            4 
  814000   0.92310451    -6.493503    286.31258   0.02931128  0.029153881            4 
  815000   0.95115683   -6.4801686    286.82045  0.029327245  0.029134618            5 
  816000   0.93066323    -6.523278    287.77593  0.029388882  0.029115257            5 
  817000   0.90497886   -6.5013948    286.22607  0.029194825  0.029095984            6 
  818000   0.92878763   -6.4896386    287.43159  0.029281947   0.02907666           19 
  819000   0.92845146   -6.5228765    287.07084  0.029209487  0.029057206            9 
  820000   0.93696077   -6.5135125    287.27547  0.029194661  0.029037603            7 
  821000   0.91852857   -6.5115285    288.16803  0.029249698  0.029017978            7 
  822000   0.94140722   -6.5542762    288.10165  0.029207385   0.02899845            6 
  823000   0.93796762   -6.5191066    287.99441  0.029161038  0.028979116            4 
  824000   0.92454375   -6.5244785    288.38214   0.02916486  0.028959639            5 
  825000   0.93860518   -6.5354802    288.08615  0.029099611  0.028940192            5 
  826000   0.91981377   -6.4825323    289.43268   0.02920023  0.028920722            3 
  827000   0.92849826   -6.5437064    289.70463  0.029192325  0.028901383            5 
  828000   0.93978232   -6.5339772    288.87796  0.029073868  0.028882042            7 
  829000   0.92007727   -6.5145355    289.65828  0.029117238  0.028863185            3 
  830000   0.90793294    -6.539621    290.45348  0.029161996  0.028844459            4 
  831000   0.92112404   -6.5270793    290.25304  0.029106803   0.02882551            5 
  832000   0.93786521   -6.5228213    290.74847  0.029121442  0.028806817            4 
  833000   0.91431393   -6.5202343    290.54891  0.029066518  0.028788286            4 
  834000    0.9240601   -6.5302858    290.71401  0.029048162  0.028769513            5 
  835000   0.91775749   -6.5611939    290.93871    0.0290358  0.028750709           13 
  836000   0.92105257   -6.5625161    291.29111  0.029036195  0.028731611            5 
  837000   0.91885096   -6.5440727    292.20146  0.029092141  0.028712867            3 
  838000   0.93320828   -6.5253891    291.69302  0.029006863  0.028694142            3 
  839000   0.93116332     -6.53216    291.94306  0.028997125  0.028675637            5 
  840000   0.91415446   -6.5220254    292.05311  0.028973523  0.028656843            7 
  841000   0.91831866   -6.5308538    290.98096  0.028832834  0.028638178            7 
  842000   0.91807454   -6.5366128     292.2298  0.028922189   0.02861976            6 
  843000   0.92500522   -6.5277922    292.15257  0.028880246  0.028600979            6 
  844000   0.91910517   -6.5445535    291.69318  0.028800669  0.028582319            7 
  845000   0.93206533   -6.5670597    292.16498  0.028813114  0.028563545           10 
  846000   0.92103031   -6.5538227    292.33158  0.028795467   0.02854475            6 
  847000   0.91177458   -6.5370901    293.78657  0.028904621  0.028526323            3 
  848000   0.90752621    -6.524845    293.10813  0.028803865  0.028507807            6 
  849000   0.92213721   -6.5554582    293.24769  0.028783637  0.028489399            7 
  850000   0.90428862   -6.5105733    294.24513  0.028847561  0.028471057           10 
  851000   0.89956631    -6.550021    293.81894  0.028771929  0.028452761            6 
  852000   0.90833175   -6.5970076     293.4486  0.028701937  0.028433938            9 
  853000   0.88972116   -6.5537171    293.21453  0.028645421   0.02841524            4 
  854000    0.8968633   -6.5660609    293.26935  0.028617227  0.028396325           20 
  855000   0.92613777   -6.5570227    294.46575  0.028700365  0.028377697           12 
  856000    0.9137781     -6.55228     294.0907  0.028630326  0.028359174            4 
  857000   0.92505026   -6.5294927    295.40601  0.028724816  0.028340841            5 
  858000   0.89623804   -6.5510649    294.77651  0.028630197  0.028322439            5 
  859000   0.89904719   -6.5591581    295.53901  0.028670839  0.028304155            4 
  860000   0.91067094   -6.5319215    295.96124  0.028678415  0.028286162            3 
  861000    0.9111231   -6.5306125    296.77745  0.028724105  0.028268138            4 
  862000   0.91707154   -6.5539745    295.57649   0.02857468  0.028250334            9 
  863000   0.91139145   -6.5897839     295.1748  0.028502781  0.028232317            4 
  864000   0.92597722   -6.5704814    296.86321  0.028632639  0.028214189            3 
  865000   0.90013538   -6.5885122    295.12364   0.02843195   0.02819594            4 
  866000   0.91146205   -6.5726889    296.42233  0.028524089  0.028177731            4 
  867000   0.91495811   -6.5713324    296.71028  0.028518866  0.028159664           14 
  868000   0.89942858   -6.5748261      297.424  0.028554531  0.028141621            4 
  869000   0.91155441   -6.6003737    297.00207  0.028481211   0.02812352            7 
  870000    0.8932326   -6.5400195    297.02401  0.028450576   0.02810533            7 
  871000   0.90771382   -6.5318279    298.70585  0.028578822  0.028087568            3 
  872000   0.90906993   -6.5400362    299.00554  0.028574689  0.028070084            6 
  873000   0.93417827   -6.5462156    299.72233  0.028610379  0.028052605            5 
  874000    0.9157384   -6.5877034    299.43978  0.028550704  0.028035218            3 
  875000    0.8938052   -6.5754244    298.46903  0.028425622  0.028017625            4 
  876000   0.89470299   -6.5943281    298.53784  0.028399718  0.027999781            4 
  877000   0.90563066   -6.5926264    298.49879  0.028363625  0.027982038            4 
  878000   0.88519609   -6.5629251    298.55908  0.028337042  0.027964345            5 
  879000   0.91413975   -6.5590723    298.46821   0.02829619  0.027946761            6 
  880000    0.9012427   -6.5921376     299.3883  0.028351165   0.02792911            6 
  881000   0.91965539   -6.5739881    300.24111  0.028399651  0.027911433            4 
  882000   0.87250939   -6.5936335    300.03872   0.02834833  0.027893934           11 
  883000   0.91426894   -6.5735327    299.69022  0.028283335  0.027876452            7 
  884000   0.89398807   -6.5933021    299.53014   0.02823625  0.027858889            7 
  885000   0.88993433   -6.6013157    299.86321  0.028235707  0.027841275           11 
  886000   0.89450765   -6.5983883    300.50891   0.02826457  0.027823907            5 
  887000   0.89662621   -6.6065566     300.3528  0.028218039  0.027806248           12 
  888000   0.89735503    -6.609058    300.52299  0.028202232  0.027788506            7 
  889000    0.8963971   -6.5921173    300.66346  0.028183677   0.02777102            4 
  890000   0.87060777   -6.5696392    301.03512  0.028186809  0.027753471            6 
  891000   0.90671127   -6.5572551    301.61169    0.0282091  0.027735948            6 
  892000   0.89783227   -6.5755773    300.74303  0.028096322  0.027718208            7 
  893000   0.90555939   -6.6253437    300.22331  0.028016359  0.027700634            4 
  894000   0.89269462   -6.5813841    301.44647  0.028099037  0.027683075            5 
  895000   0.88651587   -6.6032027      301.834  0.028103724  0.027665567            8 
  896000   0.89820025   -6.5914628    302.03051  0.028090635  0.027648202            5 
  897000    0.9059449   -6.6087676     301.6559  0.028024517  0.027630688            6 
  898000   0.89319131   -6.6123947    303.04085  0.028121831  0.027613099            7 
  899000   0.89834551    -6.637978    301.91854  0.027986517  0.027595569            6 
  900000   0.87524932   -6.6202293    302.16953   0.02797866  0.027577622            8 
  901000   0.90014416   -6.6188722    301.32322  0.027869332  0.027559761           14 
  902000   0.89483612   -6.5890542    302.08255  0.027908587  0.027542032            7 
  903000    0.9019885   -6.5851507    303.53817  0.028012013   0.02752439            7 
  904000   0.88302004   -6.6172196    303.04593   0.02793565  0.027506693            8 
  905000   0.88248545   -6.6048336    302.57663  0.027861568  0.027489187            5 
  906000   0.87716596   -6.6278981    303.21014  0.027889086  0.027471485            5 
  907000   0.89122802   -6.5861248    304.09989  0.027940085  0.027453891            5 
  908000    0.8924354   -6.6229746    303.47266  0.027851749  0.027436234            5 
  909000   0.88680851   -6.6138321    303.21429  0.027797423  0.027418719            7 
  910000   0.88902333    -6.600618     303.9739  0.027836438  0.027401249           15 
  911000   0.88434506   -6.6203392     304.2871  0.027834531  0.027383854            8 
  912000   0.88556802   -6.6041731    304.93888  0.027863567   0.02736653            5 
  913000   0.89749263   -6.6258169    304.85683  0.027825559  0.027349222           13 
  914000   0.88887339   -6.6234013    304.06569  0.027722984  0.027332084            6 
  915000   0.90473059   -6.6222815    305.42758  0.027816719  0.027314802            4 
  916000   0.89682848   -6.6258075    304.35208  0.027688508  0.027297569           12 
  917000   0.88723193   -6.6683243    304.37069  0.027660005  0.027280031            5 
  918000   0.89235935   -6.6121112    306.14926  0.027791327  0.027262598            3 
  919000   0.87155862   -6.6059986    306.39868  0.027783703  0.027245374            6 
  920000   0.88324142   -6.6324382    305.57616     0.027679  0.027228004            5 
  921000   0.88182523    -6.618933    305.70857  0.027660927  0.027210486            4 
  922000   0.90053117   -6.6375696    304.95927  0.027563203  0.027192981            8 
  923000   0.89154402   -6.6292882    305.98147  0.027625629  0.027175227            4 
  924000   0.86687958   -6.6538104    305.83091  0.027582152  0.027157377            5 
  925000   0.89482423   -6.6084463    306.59577   0.02762124  0.027139634            6 
  926000   0.90749148   -6.6513404    305.10253  0.027457031  0.027121971            6 
  927000   0.87336229   -6.6212917    305.96957  0.027505355   0.02710435            6 
  928000   0.89066087   -6.6340946     306.6309  0.027535103  0.027086713            5 
  929000   0.88137468   -6.6722892    305.52528  0.027406286  0.027069033           10 
  930000   0.88924705   -6.6700881    306.23071  0.027440028  0.027051172            8 
  931000   0.89883439   -6.6172864    306.73209  0.027455433  0.027033577           11 
  932000   0.86957042   -6.6478347    307.32276  0.027478788  0.027016011            8 
  933000   0.89037734   -6.6431948    307.01369   0.02742173   0.02699856            6 
  934000    0.8755217   -6.6744521    306.29324  0.027328091  0.026980782            5 
  935000   0.89027353   -6.6559747     307.0965  0.027370455  0.026962618           11 
  936000   0.86950721   -6.6636123    306.97781  0.027330645  0.026944602            5 
  937000   0.88376172   -6.6325856    306.34065  0.027244811   0.02692684            7 
  938000   0.86896134   -6.6218407    307.97383  0.027360859  0.026909337            7 
  939000   0.88491092   -6.6372775    306.52347  0.027203006   0.02689166            5 
  940000   0.87107338   -6.6577051      307.023  0.027218351  0.026873866           11 
  941000   0.88015953   -6.6063679    308.48878  0.027319233   0.02685603            6 
  942000   0.86745206   -6.6659151    307.33611  0.027188262  0.026838326            5 
  943000   0.90168692   -6.6521407    307.05989   0.02713502  0.026820533            9 
  944000   0.86530438   -6.6703004    307.69354  0.027162212  0.026802631           12 
  945000   0.89189068   -6.6376087    307.51663  0.027117868  0.026784544            7 
  946000   0.88016046   -6.6493341    308.16767  0.027146553  0.026766531            7 
  947000   0.86160138   -6.6678698    307.85519   0.02709039  0.026748555            4 
  948000   0.86853202   -6.6486458    308.13019  0.027085988   0.02673074            4 
  949000   0.87082815   -6.6507107    307.72227  0.027021625  0.026712891            4 
  950000   0.88036552   -6.6734365    308.47512  0.027059221  0.026694886            5 
  951000   0.88422909   -6.6307969    308.83979  0.027062722  0.026677009            6 
  952000   0.88628996   -6.6224086     309.8271  0.027120719  0.026659275           13 
  953000   0.85278436   -6.6524126    308.73659  0.026996904  0.026641632            9 
  954000   0.87171279   -6.6392938     308.5277  0.026950358  0.026623735            9 
  955000   0.86942719   -6.6648324    308.77739  0.026943926  0.026605943            5 
  956000   0.87339455   -6.6485277    307.95523  0.026844075  0.026587786            6 
  957000   0.88645974   -6.6306694     308.6112  0.026873145  0.026569568            4 
  958000   0.87607991   -6.6862063    308.52297  0.026837419  0.026551499            9 
  959000   0.87348409   -6.6801012    308.47594  0.026805347  0.026533387           10 
  960000   0.86204534    -6.665867    308.72078  0.026798678  0.026515094            9 
  961000   0.87848829   -6.6567071    309.35118  0.026825458  0.026496724            3 
  962000   0.87339951   -6.6704771    308.42063  0.026716964  0.026478387            8 
  963000   0.87850566   -6.6594398    309.43463  0.026776967  0.026459968           10 
  964000   0.87225211   -6.6529092    309.46519  0.026751831  0.026441698            4 
  965000   0.87714231   -6.6644862    309.74783  0.026748517  0.026423484           20 
  966000   0.86703426   -6.6470999    310.53203  0.026788477  0.026405391           12 
  967000   0.86169631   -6.6412451     310.8724  0.026790107  0.026387362            6 
  968000   0.87518143   -6.6545304    310.06696  0.026693093  0.026369177            6 
  969000   0.87802052   -6.6810379    310.43694  0.026697364  0.026350956            7 
  970000   0.87429271   -6.6407801     310.8018  0.026701185  0.026332903            4 
  971000   0.86383061   -6.6707788    311.36188  0.026721754  0.026314886            6 
  972000   0.88639743   -6.6564488    310.83629  0.026649202  0.026296956           12 
  973000   0.89082054   -6.6825995    310.97914  0.026634047  0.026279137            2 
  974000   0.84512421   -6.6701575    310.93233  0.026602698  0.026261263            9 
  975000   0.85222476   -6.7015967    310.89724  0.026572414  0.026243232           16 
  976000   0.85211948   -6.7009853    311.37033  0.026585582  0.026225291            6 
  977000   0.86013578   -6.6835404    311.57059  0.026575451  0.026207356            6 
  978000   0.87792943   -6.6896779    311.78052  0.026566166  0.026189514            4 
  979000   0.88943401   -6.6839655    311.96438   0.02655468  0.026171676            6 
  980000   0.86894054   -6.7043726    311.75452  0.026509738  0.026153724            6 
  981000   0.84763217   -6.6706352    311.87264  0.026492749  0.026135892            9 
  982000   0.85768802   -6.6780879     312.7865  0.026543322  0.026118114            7 
  983000   0.85558839   -6.6742536    312.75267  0.026513451  0.026100321            5 
  984000   0.86086162   -6.6845845    313.37875  0.026539529   0.02608267            9 
  985000   0.85547409   -6.6960007     312.4937  0.026437707   0.02606493            5 
  986000   0.85580327   -6.6821918    312.46266  0.026408271  0.026047069            6 
  987000    0.8421315   -6.7067853    312.59899  0.026393025  0.026029032            7 
  988000   0.87054422    -6.672173    312.41676  0.026350941  0.026010893            8 
  989000   0.86165737   -6.7089894    313.07885  0.026380085  0.025992813            8 
  990000   0.85283885    -6.670214    313.26337   0.02636897  0.025974868            4 
  991000   0.83740235   -6.6925404    312.77073  0.026300936  0.025956687            6 
  992000   0.84518075   -6.6859874    312.29645  0.026234581  0.025938675            3 
  993000   0.83374953   -6.6656182    312.86855  0.026256172  0.025920494            9 
  994000   0.85653439    -6.723777    312.78778  0.026222986  0.025902477            5 
  995000   0.86070349   -6.7132278    312.79491  0.026197229  0.025884406            8 
  996000   0.84772153   -6.6965312     313.1133  0.026197565  0.025866377            9 
  997000   0.87029971   -6.7165545    312.31174  0.026104291  0.025848118            5 
  998000   0.86106486   -6.7195393     312.9591  0.026132189  0.025829718            9 
  999000    0.8441335   -6.6876084    313.32576  0.026136617    0.0258117           18 
 1000000   0.84547661   -6.7312226     313.4866  0.026123883  0.025793621            4 
 1001000   0.86745607   -6.7277577    312.87703  0.026047039  0.025775515            9 
 1002000   0.84410602   -6.7059733    314.22255  0.026132947  0.025757512            4 
 1003000   0.85686441   -6.7151614    313.44187   0.02604203  0.025739435            7 
 1004000   0.85926916   -6.7089624     313.2981  0.026004158  0.025721159            5 
 1005000   0.88809759   -6.7289485    313.71247  0.026012643  0.025702964            9 
 1006000   0.83317435   -6.7013341    313.92175  0.026004121  0.025684774            8 
 1007000   0.83791505   -6.7204949    313.25244  0.025922909  0.025666727            5 
 1008000   0.83751021   -6.7165353    313.17859  0.025891087  0.025648713            4 
 1009000    0.8437762   -6.7240241     313.9734  0.025931071  0.025630621            7 
 1010000   0.84173926   -6.7232917     314.3866  0.025939488  0.025612667            5 
 1011000   0.83987114   -6.6743671     314.5122  0.025924184  0.025594648            6 
 1012000   0.83726999   -6.7249044    314.04176  0.025859829  0.025576536           10 
 1013000   0.83366034   -6.7369695    314.61508  0.025881464  0.025558337           10 
 1014000   0.84171048    -6.730775    314.68901  0.025862016  0.025540143            7 
 1015000   0.84369926   -6.7408012    315.08834  0.025869322  0.025521956           15 
 1016000   0.86381868   -6.7306299    315.26827  0.025858618  0.025503879           11 
 1017000   0.85225383   -6.6998045    315.99655  0.025892867  0.025485799            5 
 1018000   0.84521263   -6.7291827    315.88119  0.025857989  0.025467833           14 
 1019000   0.84781785   -6.7400987    315.00687  0.025761112  0.025449862            5 
 1020000   0.85584674   -6.7448455    314.58855  0.025701679  0.025431664           11 
 1021000   0.85380489   -6.7416042    314.72857  0.025687934   0.02541354            3 
 1022000   0.83700128   -6.7702243    315.00796   0.02568558  0.025395252           22 
 1023000   0.84344571   -6.7023954     316.3834  0.025772515  0.025377317            3 
 1024000   0.84776127   -6.7163228    316.78837  0.025780303  0.025359656           22 
 1025000   0.83915244   -6.7557916    315.82178  0.025676568  0.025341866            8 
 1026000    0.8505352   -6.7479022    316.19204  0.025681615  0.025324098            4 
 1027000   0.84247097   -6.7164753    317.05373  0.025726528  0.025306285            6 
 1028000   0.85615959   -6.7356656    316.85126  0.025685089  0.025288457            7 
 1029000   0.85439681   -6.7183583    317.18156  0.025686877  0.025270711            7 
 1030000   0.83914889   -6.7562152    316.00618  0.025566843  0.025253025            9 
 1031000   0.83537184   -6.7526706    316.23209  0.025560305  0.025235151           11 
 1032000   0.83988018   -6.7401144    317.19657  0.025613418  0.025217489            8 
 1033000   0.86897683    -6.757945    318.16075  0.025666405  0.025199764           13 
 1034000   0.82103006   -6.7799795    316.45437   0.02550406  0.025181974           10 
 1035000   0.83788671   -6.7048682    318.26422  0.025625139  0.025164259            5 
 1036000   0.85046675   -6.7657101    317.31341  0.025523923  0.025146562           10 
 1037000   0.84077482   -6.7241907      317.789  0.025537528  0.025129056            6 
 1038000   0.83984965   -6.7489296    318.04201  0.025533238  0.025111561            6 
 1039000   0.85246418    -6.770913    317.86256   0.02549427  0.025094007            8 
 1040000   0.83951277   -6.7522723       318.22  0.025498398  0.025076423            4 
 1041000   0.82500934   -6.7388656     318.5097  0.025497094  0.025058677            7 
 1042000   0.81719935   -6.7460771    319.10191  0.025519986  0.025040925            7 
 1043000   0.84019652   -6.7170578    318.21846  0.025424933  0.025023195           11 
 1044000    0.8438633   -6.7899182    317.45766  0.025339851  0.025005545            7 
 1045000    0.8248148   -6.8093018    318.04025  0.025362061  0.024987774           20 
 1046000   0.83659846    -6.769606    318.94099  0.025409575   0.02497016            7 
 1047000   0.85188736   -6.7823048    318.76985  0.025371685  0.024952677           10 
 1048000   0.83787381   -6.7683228    318.89474  0.025357406  0.024935099            6 
 1049000   0.84576829   -6.7958714    318.71876  0.025319253  0.024917641           11 
 1050000   0.83300992   -6.7438247    319.61925  0.025366607  0.024900152            5 
 1051000   0.81864983   -6.7807814    320.15264  0.025384764   0.02488263           15 
 1052000   0.81259189   -6.7743829    319.21468  0.025286334  0.024865237            3 
 1053000   0.83861564   -6.7687566    319.68055  0.025299189   0.02484778            5 
 1054000   0.82022759   -6.7812166    319.19617  0.025236889  0.024830379           30 
 1055000    0.8208791   -6.7788634    320.85222  0.025343777  0.024813128            9 
 1056000   0.83349083   -6.7706897    320.94844   0.02532737  0.024796016           10 
 1057000   0.81829552   -6.7800994    320.65796  0.025280507  0.024778992            6 
 1058000   0.82228364   -6.7489264     320.8805  0.025274142  0.024761842            6 
 1059000   0.83753209   -6.7762667    320.10305  0.025189098  0.024744554            2 
 1060000   0.82697354   -6.7731092    321.08477  0.025242513  0.024727119            9 
 1061000    0.8158198   -6.7948806    320.04283  0.025136886  0.024709826            7 
 1062000   0.83177563   -6.7489432    321.54767  0.025231298  0.024692669            7 
 1063000   0.82896428   -6.7814844    319.90574  0.025078844  0.024675427            9 
 1064000   0.82306285   -6.7737388    320.65381  0.025113863  0.024658159            8 
 1065000   0.82369618    -6.768717    321.50377   0.02515679  0.024641115            9 
 1066000   0.82927726   -6.7530744    321.78464  0.025155147   0.02462405            4 
 1067000   0.82081121   -6.7665029    321.40676  0.025102059  0.024606873            6 
 1068000   0.82957229   -6.7983469    320.78718  0.025030211  0.024589632            7 
 1069000   0.82238708   -6.7547717    321.56007  0.025067046  0.024572481            5 
 1070000   0.81801418   -6.7397452    322.53075  0.025119217  0.024555399           10 
 1071000   0.84901986    -6.798526    320.85971  0.024965741  0.024538221            7 
 1072000   0.83217764    -6.778053    321.98895  0.025030235  0.024521263            7 
 1073000   0.81195143   -6.7559529    323.56554  0.025129353  0.024504497           12 
 1074000   0.81655817    -6.746329    322.56309  0.025028173  0.024487518            7 
 1075000   0.81839713   -6.7939944    321.80893  0.024946429  0.024470424            9 
 1076000   0.82652767   -6.7841123    321.89616      0.02493   0.02445326            4 
 1077000   0.81778775   -6.7913569    321.91916  0.024908632  0.024435988           16 
 1078000   0.81344797   -6.8047095     321.0764  0.024820377  0.024418641           12 
 1079000    0.8138477   -6.7701114     322.3866  0.024898563  0.024401289           10 
 1080000   0.80721499   -6.7924928    321.82546  0.024832211  0.024383987            5 
 1081000   0.82001583   -6.7840857    321.82997  0.024809587  0.024366518            5 
 1082000   0.81167361   -6.8075424    321.14172  0.024733651  0.024349021            5 
 1083000   0.83369705   -6.8065955    320.58915  0.024668294  0.024331536            6 
 1084000   0.83513756   -6.7671546    321.58561  0.024722141  0.024314263           15 
 1085000   0.83823837   -6.7999282    322.30262  0.024754426  0.024296941            3 
 1086000   0.80056077   -6.7978797    322.56536  0.024751792  0.024279621           18 
 1087000    0.8165737    -6.810782    322.53485  0.024726682  0.024262278            7 
 1088000   0.83104759   -6.8223067    322.77134   0.02472207  0.024244953            7 
 1089000   0.80386109   -6.8027565    323.43072  0.024749826  0.024227501           10 
 1090000   0.81457402   -6.8411242    321.58292   0.02458585  0.024210127            8 
 1091000   0.79968906   -6.8123977    322.39118  0.024625052   0.02419275           10 
 1092000   0.80626396   -6.8453938    321.66314  0.024546943  0.024175368            7 
 1093000   0.81598175   -6.8105925    322.91849  0.024620196  0.024157876            7 
 1094000    0.8258544   -6.8157155    322.35506  0.024554773  0.024140439           12 
 1095000   0.82096246   -6.8426313     321.5972  0.024474673  0.024122823           14 
 1096000   0.82013237   -6.8431362    322.81689   0.02454508  0.024105466            5 
 1097000   0.81733064   -6.8149423     323.3041  0.024559716  0.024088123            8 
 1098000    0.8054221   -6.8084215    323.65856   0.02456425  0.024070975            7 
 1099000   0.81674593   -6.7934283    322.81103  0.024477633  0.024053754            5 
 1100000   0.81854738   -6.8081078    323.41618  0.024501226  0.024036465           12 
 1101000   0.81491544   -6.7997166    323.96446  0.024520471  0.024019343            6 
 1102000   0.79684546   -6.8431109    323.04797  0.024428915  0.024001975            8 
 1103000   0.80973938   -6.8537299    323.22259   0.02441996  0.023984652           14 
 1104000   0.80459856   -6.8511043    323.57042  0.024424096  0.023967381            6 
 1105000   0.80737034   -6.8301613    323.90132  0.024426947  0.023950107           17 
 1106000   0.79338758   -6.8030676    324.33071  0.024437214  0.023932854            6 
 1107000   0.81484244    -6.807702    324.17542  0.024403449  0.023915818            9 
 1108000   0.79969342   -6.8203215    324.49927  0.024405782  0.023898743            6 
 1109000   0.81596148   -6.8123373    323.79398  0.024330777  0.023881869           13 
 1110000   0.79181773    -6.819221    325.44146  0.024432542  0.023864981           10 
 1111000   0.79989007   -6.8374064    324.43629  0.024335155  0.023848148           17 
 1112000   0.81387792   -6.8158209    324.54784  0.024321631  0.023831169            9 
 1113000   0.81929406   -6.8308641    323.62748  0.024230868  0.023814202           12 
 1114000   0.81011746   -6.8594748    324.00425  0.024237301  0.023797242           19 
 1115000   0.80860099   -6.8397708     325.1451   0.02430083  0.023780301           17 
 1116000   0.80209168   -6.8074374    325.58071  0.024311582   0.02376346            8 
 1117000   0.81609069   -6.8413368    326.15181  0.024332424  0.023746741            5 
 1118000   0.80008375   -6.8168184    326.16632  0.024311742  0.023729919            9 
 1119000   0.80877272   -6.8394605    324.94547  0.024199097  0.023713027            9 
 1120000   0.79784237   -6.8477195    325.14579  0.024192395  0.023696026           14 
 1121000    0.8141616   -6.8618938    324.99722  0.024159769  0.023678845            8 
 1122000   0.79212282    -6.838594    325.22739  0.024155332  0.023661738            9 
 1123000   0.81576911   -6.8455706    324.50709  0.024080372  0.023644614            7 
 1124000   0.79008637   -6.8383192    325.42363    0.0241269  0.023627503           15 
 1125000    0.8083539   -6.8806094    325.30519   0.02409668  0.023610334           10 
 1126000   0.82612582   -6.8796101    324.57983  0.024021598  0.023593101            9 
 1127000   0.79688429   -6.8475617    325.44015  0.024063897  0.023576041           12 
 1128000   0.79567193   -6.8670496    326.09208  0.024090727  0.023559112            7 
 1129000   0.80265827   -6.8554396    325.39236  0.024017741  0.023542328            6 
 1130000   0.80009439   -6.8585292    325.85531  0.024030628  0.023525464            5 
 1131000   0.78173693    -6.843896    326.43996  0.024052458  0.023508644           12 
 1132000   0.80931423   -6.8402242    326.37335  0.024026307  0.023491928           15 
 1133000    0.8096722   -6.8555375    326.67967  0.024027631  0.023475085            5 
 1134000   0.79531104   -6.8369112    325.81628  0.023942995  0.023458303            6 
 1135000   0.81209812    -6.851372     327.0664  0.024013686  0.023441531            5 
 1136000   0.80435373   -6.8633732    326.87884  0.023978788    0.0234248           10 
 1137000   0.81482083   -6.8365231    326.79074  0.023951241  0.023408198            8 
 1138000   0.81059086   -6.8345827     327.1215  0.023954416   0.02339157            7 
 1139000   0.78807612   -6.8696749    326.59945   0.02389519  0.023374906            9 
 1140000   0.80003095   -6.8537177    326.70592  0.023882012  0.023358108            7 
 1141000   0.79710503   -6.8697434    326.67374  0.023858731  0.023341324           10 
 1142000   0.79150501   -6.8777154    326.50646  0.023825632    0.0233245            7 
 1143000    0.7780968   -6.8868827    327.26838  0.023860337  0.023307683           15 
 1144000   0.78978508   -6.8530384    327.48508  0.023855265  0.023290928            9 
 1145000   0.78643942   -6.8541001    327.46295   0.02383282  0.023274221            7 
 1146000   0.78269287   -6.8384809    328.65591  0.023898772  0.023257508            7 
 1147000   0.79741454   -6.8730444    327.36007  0.023783789  0.023240703            7 
 1148000   0.78725464   -6.9007372    327.17411  0.023749572  0.023224007           27 
 1149000   0.78826113   -6.8713634    327.82226  0.023775911  0.023207406           11 
 1150000   0.79521262   -6.8586167    327.60516  0.023739504  0.023190792            5 
 1151000   0.79307004   -6.8718911    327.89073  0.023739554  0.023174161            5 
 1152000   0.79145975    -6.854714    327.57743  0.023696284  0.023157486            8 
 1153000   0.79315673   -6.8862318    327.41057  0.023663672  0.023140825            5 
 1154000   0.79554502   -6.8739666    328.17668  0.023698489  0.023124269            5 
 1155000   0.79019597   -6.8699778    328.55645  0.023705372   0.02310773            8 
 1156000    0.7923505   -6.8625296    328.45624  0.023677641  0.023091223           10 
 1157000    0.7778301   -6.8946121    328.13562  0.023634084   0.02307467            8 
 1158000   0.80389849   -6.8635653    328.40776  0.023633258  0.023058044           28 
 1159000   0.79630461   -6.8903184    328.08222   0.02358946  0.023041418           13 
 1160000   0.80501435   -6.9028724    327.44241  0.023523162   0.02302479           15 
 1161000   0.78036194   -6.8699638    328.43455  0.023574114   0.02300814            6 
 1162000   0.78080086   -6.8689804    328.59267  0.023565166  0.022991495           15 
 1163000   0.79138104   -6.9107037    327.88027  0.023493857  0.022974865            9 
 1164000   0.78775132    -6.909996    328.17057  0.023494456  0.022958166           11 
 1165000    0.7821563   -6.9086049    328.03864  0.023464853  0.022941472           12 
 1166000   0.78008546   -6.9110607    328.29205  0.023462839  0.022924755            7 
 1167000   0.80117895   -6.8913517    328.85119  0.023482662  0.022908174            7 
 1168000   0.79346665   -6.9171375    328.55954  0.023441748  0.022891368            6 
 1169000   0.80065006   -6.9040813    327.78559  0.023366523  0.022874709            5 
 1170000   0.78898265   -6.8871996    328.47123  0.023395387  0.022857984           11 
 1171000   0.77461356   -6.9295513    328.96439  0.023410503  0.022841245           13 
 1172000   0.77549115    -6.907856    328.64467  0.023367795  0.022824622           10 
 1173000   0.78718817   -6.9020257    328.83797  0.023361606  0.022807983            6 
 1174000   0.78747188   -6.9120904    328.98588  0.023352206   0.02279132            7 
 1175000     0.787502   -6.9172678    328.91088  0.023327012  0.022774712           16 
 1176000   0.77573981    -6.919575     329.0201  0.023314917  0.022758124           13 
 1177000   0.76136746    -6.888307    328.98349  0.023292515   0.02274162           12 
 1178000    0.7832799   -6.9320534    327.46081  0.023165026  0.022725005            8 
 1179000   0.78515887   -6.9228069    328.79687  0.023239813  0.022708362            8 
 1180000   0.77483696   -6.8866659     329.2251   0.02325036  0.022691786           10 
 1181000   0.79599236   -6.9306432    328.81192  0.023201518  0.022675273            6 
 1182000   0.78269051   -6.9036398    329.26211  0.023213628  0.022658817            7 
 1183000   0.77523262   -6.9339776    328.57147  0.023145355   0.02264231           10 
 1184000   0.76813088   -6.8979591    329.63782   0.02320086  0.022625751           11 
 1185000   0.77303832   -6.8979634    330.23415  0.023223217  0.022609241            7 
 1186000   0.77936204   -6.9138096    328.81502  0.023103922  0.022592701           14 
 1187000   0.77522776   -6.9045755    329.29555  0.023118194  0.022576065           16 
 1188000   0.76103942   -6.8974221    329.84708  0.023137422  0.022559396            6 
 1189000   0.78642435    -6.954094    329.10649  0.023066056   0.02254272            4 
 1190000   0.78094407   -6.9222552    329.18056   0.02305186  0.022526199            7 
 1191000   0.78034533   -6.9292199    330.09558  0.023096528  0.022509541            9 
 1192000   0.76446998   -6.9407064    329.44515   0.02303168  0.022492917           13 
 1193000   0.77848222   -6.9290586    330.03951  0.023053891  0.022476416            6 
 1194000   0.76978047   -6.9027054    331.25747  0.023119589  0.022460009           12 
 1195000    0.7743258   -6.9029117    330.60801  0.023054952  0.022443724            9 
 1196000   0.76771504   -6.9267743    330.07904  0.022998818  0.022427373            6 
 1197000    0.7683184   -6.9443375    329.86084  0.022964414   0.02241103           11 
 1198000    0.7774616   -6.9419318    329.55687    0.0229241  0.022394683            6 
 1199000   0.77016416   -6.9497321    329.98007  0.022934395  0.022378229            6 
 1200000   0.78796477   -6.9477003    330.05975  0.022920816  0.022361787           21 
 1201000   0.78086221   -6.9308241    331.50637  0.023002107  0.022345359            8 
 1202000   0.76538625    -6.949353    330.39725  0.022906077  0.022328921           10 
 1203000   0.77558486   -6.9021681    331.11065  0.022936454  0.022312583           16 
 1204000   0.77978494   -6.9354445     330.1175  0.022848664  0.022296181           15 
 1205000   0.76426073   -6.9654137    330.00176  0.022821699  0.022279668           22 
 1206000    0.7862218   -6.9404061    329.73809  0.022784556  0.022263118           10 
 1207000   0.76755573   -6.9145891    330.92939  0.022847928  0.022246632           13 
 1208000   0.76562098   -6.9432591    330.10753  0.022772319  0.022230037           11 
 1209000    0.7602738   -6.9287121    329.75535  0.022729208  0.022213446           14 
 1210000   0.75470079   -6.9503074    330.18997  0.022740356  0.022196878            8 
 1211000   0.75399334   -6.9466583    330.77849  0.022762076  0.022180279           10 
 1212000   0.78450656   -6.9601732    329.72063   0.02267056  0.022163615           13 
 1213000   0.77665252   -6.9589773    329.95027  0.022667647  0.022146865            9 
 1214000    0.7724888   -6.9437606    330.14028  0.022662018  0.022130352            4 
 1215000   0.76384219   -6.9837558     330.3719  0.022659253  0.022113821           18 
 1216000    0.7430337   -6.9625983    330.17107  0.022626855  0.022097244           12 
 1217000   0.77465121   -6.9629134    330.72232  0.022646009  0.022080682           11 
 1218000   0.77067837   -6.9949668    330.34558  0.022601641  0.022064108           28 
 1219000   0.75673592   -7.0067945    331.01569   0.02262891  0.022047521           24 
 1220000   0.75663648   -6.9597585    330.86392  0.022599995  0.022031009            7 
 1221000   0.78963475   -6.9643304     332.0231  0.022660599  0.022014604           26 
 1222000   0.75288783   -6.9686412    331.28807  0.022591931  0.021998175           26 
 1223000   0.76620031   -6.9586495    331.76534  0.022605979  0.021981812           12 
 1224000   0.77214809   -6.9524315    331.64919  0.022579602  0.021965474           30 
 1225000   0.77075108   -6.9571064    330.86524  0.022507839  0.021949163            7 
 1226000   0.76434182   -6.9547753    331.48014  0.022531277  0.021932738           16 
 1227000   0.77285987   -6.9775287    330.69878  0.022459846  0.021916305           35 
 1228000   0.76155307    -7.000064    330.75035  0.022445057  0.021899861           20 
 1229000   0.75970522   -6.9753327    331.24145  0.022460093  0.021883462           23 
 1230000   0.74596154   -7.0026378    330.89705  0.022418499  0.021866986           13 
 1231000   0.76119905   -6.9714747    330.46599  0.022371107   0.02185053           16 
 1232000   0.75321592   -7.0134694     330.4772  0.022353707  0.021833959           13 
 1233000   0.75671378   -6.9981334    330.25768  0.022320741  0.021817348            9 
 1234000   0.74451684    -6.980271    331.65165  0.022396789  0.021800898            4 
 1235000   0.74857759   -6.9588767    331.39146  0.022361097  0.021784527           24 
 1236000   0.75072025    -6.966266    331.28473   0.02233581  0.021768111           16 
 1237000   0.75209374   -6.9244149    331.85057  0.022355873  0.021751716           13 
 1238000   0.76816413   -6.9219482       333.02  0.022416532  0.021735476            6 
 1239000   0.76423985   -6.9574261    331.15048  0.022272699  0.021719185           12 
 1240000   0.75246868   -6.9728725    331.07105  0.022249398  0.021702956           24 
 1241000   0.75441477   -6.9701391    331.89627  0.022286884  0.021686691           11 
 1242000   0.74595055   -6.9697779    331.67536  0.022254117  0.021670324            8 
 1243000   0.76916274   -7.0053936    330.62277  0.022165646  0.021653961           10 
 1244000    0.7674379   -6.9856036    331.39076  0.022199274  0.021637507            9 
 1245000   0.76242261    -7.017033    331.59617  0.022195192  0.021620991            9 
 1246000   0.75622106   -7.0141824    330.82306  0.022125673  0.021604452           10 
 1247000   0.75561182    -6.975293    331.94015  0.022182582  0.021588071            7 
 1248000   0.75472147   -6.9794374    331.67859  0.022147342   0.02157166           14 
 1249000   0.74456893   -7.0111369    332.24717  0.022167545  0.021555278           11 
 1250000   0.74503684   -6.9826253    331.24108  0.022082739  0.021538911           12 
 1251000   0.76410994   -6.9580716    332.88375   0.02217451  0.021522678            9 
 1252000   0.74482196   -6.9871039     332.1458  0.022107681  0.021506417            9 
 1253000   0.76008242   -6.9867315    332.76847  0.022131449  0.021490193            9 
 1254000   0.76241072   -6.9923445    331.56504  0.022033827  0.021473834           18 
 1255000   0.74978318   -6.9792934     332.8232  0.022099814  0.021457545            5 
 1256000   0.74420886   -6.9898894    332.87714  0.022085798  0.021441169            8 
 1257000   0.75358317   -6.9741044    332.31795  0.022031156  0.021424846            7 
 1258000   0.76125774   -7.0087032     332.4778  0.022024232  0.021408505            8 
 1259000   0.76351696    -7.008642    331.96189   0.02197259  0.021392134           12 
 1260000   0.72342471   -7.0125147    331.63575  0.021933582  0.021375784           11 
 1261000   0.75083714   -7.0136186    331.92497    0.0219353  0.021359396           12 
 1262000   0.75945592   -7.0531751    331.04643  0.021859907  0.021342946           21 
 1263000   0.74357248     -6.99402    333.26334  0.021988872  0.021326557           15 
 1264000   0.75523706   -7.0552228    331.53187  0.021857323  0.021310133           13 
 1265000   0.75196205   -7.0077359    332.07797  0.021876019  0.021293781           14 
 1266000   0.74813739   -7.0364158    331.65753  0.021831064  0.021277429           16 
 1267000   0.75168078   -7.0182792    331.98913  0.021835644  0.021261141           13 
 1268000   0.75186613   -6.9836309    332.78911  0.021870998  0.021244886           32 
 1269000   0.76039529   -7.0199322     332.1968  0.021814867  0.021228552           27 
 1270000   0.74506063   -7.0597937    331.54645  0.021755016   0.02121217           11 
 1271000   0.74257668   -7.0199769    331.65747  0.021745179   0.02119577            9 
 1272000   0.72599026   -7.0420974    331.44584  0.021714219  0.021179402           12 
 1273000   0.73950507   -7.0075105    333.04696  0.021801975  0.021163089           13 
 1274000   0.72631629   -7.0200319    332.28592  0.021735081  0.021146805           14 
 1275000   0.72478202   -6.9969811    331.59024  0.021672565  0.021130574           25 
 1276000   0.73320836   -7.0212502     331.6567  0.021659921  0.021114269           11 
 1277000   0.75112714   -7.0143138    332.43414  0.021693692  0.021098014           13 
 1278000   0.75954318   -7.0035503    332.99367  0.021713202  0.021081676           11 
 1279000   0.75803432   -7.0129022    332.72541  0.021678747  0.021065418            7 
 1280000   0.74959687   -7.0232939    332.44063   0.02164327  0.021049108           19 
 1281000   0.73360334   -7.0156675    332.29973  0.021617209  0.021032804           11 
 1282000   0.73952535   -7.0102122    331.83418  0.021570085   0.02101649            9 
 1283000   0.74116575   -7.0174469    332.08328  0.021569452  0.021000155           10 
 1284000   0.74364313   -7.0369349    332.39952  0.021573178  0.020983764           21 
 1285000   0.74997647   -7.0198007    332.39896  0.021556352  0.020967513           10 
 1286000   0.74943071   -7.0446853    332.56391  0.021550279  0.020951196           12 
 1287000   0.75032311   -7.0349521    332.08785   0.02150271  0.020934893           10 
 1288000   0.73328789   -6.9800741    333.36512  0.021568654  0.020918671           10 
 1289000   0.74261988   -7.0487073    332.78185  0.021514214  0.020902521           19 
 1290000    0.7516333   -7.0133587    332.99865  0.021511541  0.020886212           10 
 1291000    0.7342247   -7.0317584     332.4522  0.021459605  0.020870005           34 
 1292000    0.7574391   -7.0381427    332.20971  0.021427355  0.020853726           12 
 1293000   0.72037895   -7.0492925    332.61497  0.021436902  0.020837435           13 
 1294000   0.73161732   -7.0440477    332.37458  0.021404855  0.020821181            9 
 1295000   0.74286939   -7.0291608    332.45905  0.021393761  0.020804928           14 
 1296000   0.73441051   -7.0436392    332.22407  0.021362144  0.020788673           29 
 1297000   0.75206472   -7.0362374    332.98522  0.021394578  0.020772378            9 
 1298000   0.72306887   -7.0440787    332.17965  0.021326377  0.020756081           16 
 1299000   0.71818637   -7.0347765    332.39664   0.02132388   0.02073978           22 
 1300000   0.74053473   -7.0361158    332.82292  0.021334802  0.020723578           14 
 1301000    0.7307155   -7.0355454    332.52938  0.021299602  0.020707392            6 
 1302000   0.73964831   -7.0621684    332.33586  0.021270857  0.020691104           11 
 1303000   0.74013679   -7.0517431    332.15611  0.021243036  0.020674755           20 
 1304000   0.75147874   -7.0612934    332.45436  0.021245805  0.020658456           20 
 1305000    0.7188872   -7.0069521    332.33508  0.021221908  0.020642148            9 
 1306000   0.72980201   -7.0745876    332.13179  0.021192687   0.02062584           12 
 1307000   0.72814688   -7.0553008     332.3252  0.021188804  0.020609547            9 
 1308000   0.73593237   -7.0755579    332.11277  0.021159071  0.020593256            8 
 1309000    0.7284143   -7.0582154    331.93169  0.021131378  0.020576936           12 
 1310000   0.73831522   -7.1040762    332.34824  0.021141745  0.020560539           13 
 1311000    0.7233213   -7.0528053    333.03693  0.021169395  0.020544201            8 
 1312000   0.74930235   -7.0675706    331.71903  0.021069552  0.020527887            8 
 1313000   0.73683339   -7.0682801    332.53657  0.021105393  0.020511621           10 
 1314000   0.73359667   -7.0604468    332.46671    0.0210849  0.020495373            5 
 1315000   0.72268007   -7.0675197     333.1703  0.021113454  0.020479091           17 
 1316000   0.73075549   -7.0778808    332.75059  0.021070833  0.020462866            9 
 1317000    0.7005712   -7.0955866    332.48781  0.021038206  0.020446544           10 
 1318000    0.7116449   -7.1020364    331.95517  0.020988567  0.020430219            9 
 1319000   0.72009154   -7.1087438    331.28686  0.020930431  0.020413904            9 
 1320000   0.71284995   -7.0997109    331.70484  0.020940962   0.02039763           14 
 1321000   0.73790222   -7.0660133    332.96647  0.021004698  0.020381461           17 
 1322000   0.72684313   -7.0788894    332.06237  0.020931819  0.020365302           15 
 1323000   0.72741067   -7.0824983    332.16422  0.020922412  0.020349144           26 
 1324000   0.72391986   -7.0913227    332.70651  0.020940742  0.020332956           15 
 1325000    0.7364316   -7.0765577    333.01214   0.02094416  0.020316883           24 
 1326000   0.71491308   -7.0978535     331.6831   0.02084484  0.020300684           31 
 1327000   0.75072811   -7.0794665    332.11208  0.020856071  0.020284496           15 
 1328000   0.73831216   -7.0928032    332.50279  0.020864884  0.020268215           54 
 1329000   0.73604877   -7.0679392    332.62629  0.020856928  0.020252032           22 
 1330000   0.72083836   -7.0626671      332.547  0.020836278  0.020235845           13 
 1331000   0.73174551    -7.115386    331.87208  0.020778367  0.020219646           33 
 1332000   0.74304428   -7.0806016    332.09286   0.02077658  0.020203436           15 
 1333000   0.73316697   -7.0850807    332.07214  0.020759699  0.020187229           33 
 1334000   0.72783111    -7.110121    332.02098  0.020740941  0.020171018           26 
 1335000   0.71114414   -7.1301084    332.72526  0.020769367  0.020154823           30 
 1336000    0.7206756   -7.0998863    331.92562  0.020703943   0.02013865           60 
 1337000   0.74030111   -7.1177915     332.7073  0.020737179  0.020122505           17 
 1338000   0.70813592   -7.1109203    332.10832  0.020684374  0.020106341           41 
 1339000   0.71254353    -7.108359    332.41755  0.020688172  0.020090191           23 
 1340000   0.71440539   -7.1236358    332.47777  0.020676478  0.020074063           35 
 1341000   0.73041249   -7.1229131    332.60115  0.020668727  0.020057915           32 
 1342000   0.71828655   -7.0944771    332.25666  0.020631934  0.020041776           33 
 1343000   0.71489203   -7.1416947    331.50171  0.020569726  0.020025567           67 
 1344000   0.72456752   -7.1161822     333.0113  0.020648022  0.020009388           41 
 1345000   0.70840277   -7.1159708    332.18303  0.020581353  0.019993161           55 
 1346000   0.72005608   -7.1008025    331.70334  0.020536363  0.019976982           42 
 1347000   0.71316036   -7.1121307    332.08669  0.020544834  0.019960823           89 
 1348000   0.71813001   -7.1038786    332.27572  0.020541278  0.019944623           56 
 1349000   0.72608255   -7.1390334    332.01635  0.020510029  0.019928397           53 
 1350000   0.72317327   -7.1491107    331.70276  0.020475479  0.019912154           39 
 1351000    0.7043278   -7.1178786    331.66818   0.02045819  0.019895958           48 
 1352000    0.7219474   -7.1224206    332.76981   0.02051096  0.019879779           39 
 1353000   0.71441903   -7.1432707    332.61245  0.020486108  0.019863685           34 
 1354000   0.69757272   -7.1191684    332.46398   0.02046184  0.019847583           21 
 1355000   0.70215739   -7.1202222    332.54054  0.020451448  0.019831509           26 
 1356000   0.71409102   -7.1419853    332.27711  0.020420176  0.019815441           24 
 1357000   0.70155644   -7.1149935    332.13914  0.020396655   0.01979943           16 
 1358000   0.72324442   -7.0991791    332.68618  0.020415205  0.019783441           36 
 1359000   0.71057782   -7.1074894    333.06272  0.020423272  0.019767425           32 
 1360000   0.72411167   -7.1136912    332.44839  0.020370612  0.019751403           49 
 1361000   0.73684229    -7.139732    332.10518   0.02033463  0.019735358           75 
 1362000   0.70499629   -7.1339721    332.36284  0.020335465  0.019719268           36 
 1363000   0.70593927   -7.1278205    331.39691  0.020261489  0.019703141           33 
 1364000    0.7212035   -7.1221188    332.14517  0.020292349  0.019687148           20 
 1365000   0.70942829   -7.1495773     332.2409  0.020283327  0.019671121           65 
 1366000   0.71692914   -7.1377939    332.19232  0.020265515  0.019655063           18 
 1367000   0.70735405   -7.1451942     331.7669  0.020224756  0.019638975           20 
 1368000    0.7057767   -7.1644579    332.02309  0.020225578  0.019622868           63 
 1369000   0.70539854   -7.1468434     331.9309  0.020205192  0.019606804           38 
 1370000   0.69717018   -7.1329165    333.07393  0.020259971  0.019590863           50 
 1371000   0.70196453   -7.1200684    332.84554  0.020231312  0.019574896           57 
 1372000   0.71601514   -7.1566566    331.94021  0.020161577  0.019558893           68 
 1373000   0.71489347   -7.1258924    331.87766  0.020143097  0.019542853           51 
 1374000   0.69985282   -7.1375635    331.71452  0.020118542  0.019526864           45 
 1375000   0.70085228   -7.1377555     331.9155  0.020116091  0.019510854           51 
 1376000   0.70409411   -7.1475277    332.52742  0.020138531  0.019494831           19 
 1377000   0.71252411   -7.1578439    331.63972  0.020070184  0.019478868           22 
 1378000   0.69690516    -7.164563    331.96598  0.020075349  0.019462854           31 
 1379000    0.7105025   -7.1688394    332.18787  0.020074201  0.019446836           39 
 1380000   0.69806094   -7.1460035     332.6686  0.020088683  0.019430948           44 
 1381000   0.71573009   -7.1544778    332.08989  0.020039216  0.019415043           35 
 1382000   0.70142869   -7.1580963    332.41756  0.020044474  0.019399185           59 
 1383000   0.69396467   -7.1613834    332.07922  0.020009594  0.019383269           54 
 1384000   0.69594788   -7.1613408    332.62197  0.020027816  0.019367366           34 
 1385000   0.70712807   -7.1659152    332.66782  0.020016114  0.019351452           71 
 1386000   0.69099848   -7.1468989    331.94255  0.019958066  0.019335572           55 
 1387000   0.70022698   -7.1456605     332.3577  0.019968619  0.019319738           23 
 1388000   0.69461249    -7.133054    333.07576  0.019997344  0.019303998           20 
 1389000   0.71083847   -7.1320643     332.8422  0.019968935  0.019288196           32 
 1390000   0.69216056   -7.1327508    332.92292  0.019959407  0.019272384           20 
 1391000     0.711849   -7.1509327    332.10094  0.019895815  0.019256511           30 
 1392000   0.67640899   -7.1534249    332.49417  0.019905063  0.019240692           23 
 1393000   0.68370997   -7.1214463    332.70337  0.019903288  0.019224842           17 
 1394000   0.69768525   -7.1484064    332.60824  0.019883324  0.019208988           24 
 1395000   0.68813679   -7.1369238     332.7409  0.019876995  0.019193159           18 
 1396000   0.70022436    -7.151542    331.48188    0.0197876  0.019177311           15 
 1397000   0.69874429    -7.173678    331.87953  0.019797156   0.01916146           19 
 1398000   0.69060137   -7.1851683    332.04988   0.01979315   0.01914565           35 
 1399000   0.69531918   -7.1692333     332.2227  0.019789296  0.019129871           14 
 1400000   0.68479763   -7.1626016    332.89802  0.019815358  0.019114115           27 
 1401000   0.69269341    -7.139024    332.58919  0.019782845  0.019098416           35 
 1402000    0.6995437   -7.1630616    332.57315  0.019767781  0.019082684           29 
 1403000   0.68516842   -7.1912426    332.44891  0.019746312  0.019067001           27 
 1404000   0.68695368   -7.1899893    332.08704  0.019710769  0.019051195           44 
 1405000   0.70356259    -7.201404    331.96865  0.019689718  0.019035415           29 
 1406000   0.70068035   -7.2088762    331.72614  0.019661341  0.019019643           37 
 1407000   0.68531047    -7.193868    332.71804  0.019706115  0.019003945           58 
 1408000   0.68767549   -7.1933174     332.0973   0.01965538  0.018988181           27 
 1409000   0.67530254   -7.2038347    331.47311  0.019604513  0.018972348           40 
 1410000   0.70669981    -7.202228    332.64279  0.019659739  0.018956568           27 
 1411000   0.70388621    -7.208053    331.96953  0.019606044  0.018940854           53 
 1412000   0.68838429   -7.1962493    331.95416  0.019591251  0.018925198           27 
 1413000   0.70350141    -7.196712     331.4665  0.019548626   0.01890953           23 
 1414000   0.68437931   -7.2251814    331.98996  0.019565651  0.018893786           31 
 1415000   0.67714797   -7.2126004    332.58311  0.019586755  0.018878062           35 
 1416000   0.68159409   -7.2004141    331.31674  0.019498396  0.018862365           16 
 1417000   0.69088943   -7.2234363    330.79815  0.019454137  0.018846651           24 
 1418000   0.67348222   -7.2126873    331.32694  0.019471494   0.01883097           60 
 1419000   0.69096519   -7.2216675    332.01568  0.019498219  0.018815273           43 
 1420000   0.67814549   -7.2078616    332.37951   0.01950584  0.018799688           37 
 1421000   0.68801816   -7.2153894    332.36515  0.019491271  0.018784098           49 
 1422000   0.68670111   -7.1867772    332.58311  0.019490337  0.018768547           38 
 1423000   0.68365731   -7.1975511    331.79451  0.019430459  0.018753032           57 
 1424000   0.68142546   -7.1843229    331.81799  0.019418188  0.018737484           81 
 1425000   0.66994426   -7.2032699    333.07109  0.019477842  0.018721953           38 
 1426000    0.6789818   -7.2213685    332.21661  0.019414248   0.01870641           31 
 1427000   0.68545749   -7.2275603    332.45501  0.019414565  0.018690898           37 
 1428000   0.68876683    -7.225971     331.8386  0.019364998  0.018675412           59 
 1429000   0.68060586   -7.2330744    332.30972   0.01937892  0.018659914           27 
 1430000   0.67107656   -7.2357525    332.83329  0.019395879  0.018644418           49 
 1431000   0.67222803   -7.2104623    332.34738  0.019354029  0.018629003           35 
 1432000   0.67300009   -7.2176743    331.91448  0.019315321  0.018613557           41 
 1433000   0.67785469    -7.206936    332.72271  0.019348844  0.018598143           23 
 1434000   0.68712089   -7.2407459    331.96946  0.019291577  0.018582703           46 
 1435000   0.67767074   -7.2150912    332.55648  0.019312223  0.018567288           25 
 1436000   0.67723228   -7.2280885    332.55058  0.019298432  0.018551909           25 
 1437000   0.67663543    -7.215634    332.31909  0.019271578  0.018536543          115 
 1438000    0.6895314   -7.2104191    332.41352  0.019263648  0.018521145           30 
 1439000   0.66983333   -7.2117153    332.23503  0.019239925  0.018505794           20 
 1440000   0.68234461    -7.255085    331.59413  0.019189475  0.018490421           29 
 1441000   0.67418518   -7.2512686    332.19212   0.01921074  0.018475062           33 
 1442000   0.68597894    -7.247543      331.944  0.019183079  0.018459643           32 
 1443000   0.67537211    -7.245547     332.3839   0.01919519  0.018444293           23 
 1444000   0.66792856    -7.258977    332.26691  0.019175145  0.018428926           22 
 1445000   0.68249512   -7.2222395    331.94204   0.01914314  0.018413524           22 
 1446000   0.70360027   -7.2195114    332.29234  0.019150089  0.018398158           23 
 1447000   0.67065434   -7.2461075    331.61651  0.019097933  0.018382798           39 
 1448000   0.67944834   -7.2340917    332.19797  0.019118207   0.01836744           18 
 1449000   0.67682187   -7.2539806    331.65676  0.019073888   0.01835209           38 
 1450000   0.67546924    -7.235125    332.56541  0.019112954  0.018336764           71 
 1451000   0.67832517   -7.2584869    331.67109   0.01904842   0.01832149           36 
 1452000   0.68103649    -7.235306    332.50456  0.019083136  0.018306227           39 
 1453000   0.67835392   -7.2569477    332.05803  0.019044393  0.018290979           35 
 1454000   0.67984962   -7.2517057    332.09555  0.019033445  0.018275696           40 
 1455000    0.6696464   -7.2569678    331.71626  0.018998641  0.018260454           27 
 1456000   0.66946892   -7.2772287    331.90351  0.018996309  0.018245154           23 
 1457000    0.6646705   -7.2632635    331.55387  0.018963273  0.018229902           40 
 1458000   0.66962758   -7.2536809    331.75868  0.018961973  0.018214591           39 
 1459000    0.6725983   -7.2466596    331.82666  0.018952859  0.018199299           61 
 1460000   0.66890245   -7.2647394     332.0624  0.018953333  0.018184046           27 
 1461000   0.65713281   -7.2637856     331.3079  0.018897325    0.0181688           56 
 1462000   0.66710113    -7.285672     332.3975  0.018946506  0.018153565           65 
 1463000   0.67765386   -7.2620905    331.36318   0.01887464  0.018138361           72 
 1464000   0.65898622   -7.2625621     331.6854  0.018880089  0.018123109           40 
 1465000   0.65868465   -7.2698503    331.66916  0.018866278   0.01810788           39 
 1466000   0.66179149   -7.2813914    331.45352   0.01884115  0.018092646           41 
 1467000   0.65603986   -7.2747154    331.81657   0.01884893    0.0180774           55 
 1468000    0.6787899    -7.272223    331.49005  0.018817555  0.018062166           39 
 1469000   0.67605999   -7.2575277    331.46717  0.018803448   0.01804694           49 
 1470000   0.67267544   -7.2750708    331.22718  0.018777051  0.018031743           46 
 1471000   0.67119547   -7.2884541    331.07205  0.018755498  0.018016508           40 
 1472000   0.65845063   -7.2770739    331.41119  0.018761956  0.018001329           49 
 1473000   0.66106709   -7.2538608    331.29574  0.018742687  0.017986164           70 
 1474000   0.66180935   -7.2794817    331.90039  0.018764156  0.017971008           25 
 1475000   0.67060287   -7.2544933    331.22686  0.018713382  0.017955893           49 
 1476000   0.66552482   -7.2665279    331.90205  0.018738824  0.017940752           75 
 1477000   0.65663589   -7.2806029    331.48838  0.018702797   0.01792559           93 
 1478000   0.65933375   -7.2810302    331.58954  0.018695847  0.017910473           82 
 1479000   0.65482462   -7.2836632    332.17997  0.018716473  0.017895324           55 
 1480000      0.66378   -7.2730562    331.19189  0.018648192  0.017880221           63 
 1481000     0.652336   -7.2835196    331.34559  0.018644249  0.017865142           81 
 1482000   0.67018446   -7.2796704     332.0382  0.018670614  0.017850069           23 
 1483000   0.66382592     -7.25891    332.21126  0.018667749  0.017835103           70 
 1484000   0.65890669   -7.2744601    331.39249  0.018609192   0.01782008           32 
 1485000    0.6684099   -7.2778797    332.22471  0.018643362   0.01780504           49 
 1486000    0.6514915   -7.2878418    331.12076  0.018568907  0.017790013           53 
 1487000    0.6545653   -7.2798649    331.08185  0.018554239  0.017774959           31 
 1488000   0.66519922   -7.3017321    331.12229  0.018544035  0.017759961           76 
 1489000    0.6595063   -7.2741297    331.67923  0.018562751  0.017744893           45 
 1490000   0.64877748   -7.2759367    331.85276  0.018559998  0.017729863          126 
 1491000   0.66008575    -7.280577    331.79675  0.018544419  0.017714891          135 
 1492000   0.65913214   -7.2763238    331.71261  0.018527291  0.017699924           48 
 1493000   0.65209606   -7.2890494    331.92485  0.018526728  0.017684997          128 
 1494000   0.65124786   -7.2795583    331.40747  0.018485468  0.017670072           93 
 1495000   0.65058712   -7.2644144    331.55006  0.018481051  0.017655137           73 
 1496000   0.66206142   -7.2726781    332.65622  0.018530315  0.017640248           55 
 1497000   0.64215201   -7.2872769    331.43842  0.018450146   0.01762539           54 
 1498000   0.65121532   -7.2903968    332.29693  0.018485588   0.01761051           85 
 1499000   0.64467495   -7.2842095    330.75959  0.018387791  0.017595614           32 
 1500000   0.64637458   -7.2948661    332.12149  0.018451194  0.017580695          116 
 1501000   0.66187414   -7.2939539    331.09002  0.018381635  0.017565827           53 
 1502000   0.66090521   -7.2978929    331.03143  0.018366147  0.017550959           97 
 1503000   0.64837219    -7.309671    331.10526  0.018358021  0.017536055           65 
 1504000   0.64871705   -7.3142631     331.9272  0.018391356  0.017521163           47 
 1505000   0.66003852   -7.3176013    330.97588   0.01832646   0.01750625           91 
 1506000   0.64970395   -7.3001791    331.66777  0.018352577  0.017491401           71 
 1507000   0.65430687   -7.2957079    330.77199  0.018290864  0.017476572          116 
 1508000   0.65916205    -7.318572    330.72196   0.01827597   0.01746166           87 
 1509000   0.65082378   -7.3073949    331.16131  0.018288122  0.017446784          110 
 1510000   0.65976204   -7.3140774    330.98411  0.018266231  0.017431992          132 
 1511000   0.64132237   -7.3182397    330.70995  0.018239022  0.017417151          114 
 1512000   0.66870161   -7.3293781    330.37387  0.018208437  0.017402286           67 
 1513000   0.66565341   -7.3199107    331.32674  0.018248884  0.017387434           41 
 1514000   0.64943871   -7.3263735    331.06988  0.018222693  0.017372593           93 
 1515000   0.65281509   -7.3001288    331.07819  0.018211122  0.017357784           56 
 1516000   0.65203909   -7.3091799    331.50374  0.018222501  0.017343016           62 
 1517000   0.67720028   -7.3257832    330.47865  0.018154178  0.017328224           80 
 1518000   0.65098828   -7.3228171    330.08495  0.018120605  0.017313439          122 
 1519000   0.64574347   -7.3136622    330.91943  0.018154456  0.017298674           67 
 1520000   0.64093802   -7.3197619    330.95224  0.018144312    0.0172839           59 
 1521000   0.62867442   -7.3138559    331.11509  0.018141305  0.017269143           94 
 1522000   0.66608586   -7.3008295    330.40296  0.018090394  0.017254389           97 
 1523000   0.62845537   -7.3284517    330.47143  0.018082262  0.017239623           97 
 1524000   0.64354375   -7.3461313    330.33689  0.018063041  0.017224839          129 
 1525000   0.63950728   -7.3287311    330.63542  0.018067509  0.017210058          106 
 1526000   0.63385737   -7.3116109    330.91934  0.018071174  0.017195345           83 
 1527000    0.6404438   -7.3347541    330.96351   0.01806175  0.017180625          113 
 1528000   0.64186591   -7.3491508    330.45607  0.018022255   0.01716594           98 
 1529000   0.65105346   -7.3309598    330.46548  0.018010981  0.017151237          153 
 1530000   0.63482225   -7.3461366    330.71136  0.018012601  0.017136529          105 
 1531000   0.63842407   -7.3361968    330.33486  0.017980343  0.017121841           97 
 1532000   0.64325587   -7.3592113    330.27406  0.017965299   0.01710717          133 
 1533000   0.64245854   -7.3400395    330.69528  0.017976478  0.017092551          131 
 1534000   0.65723747   -7.3174466    329.90678  0.017921924  0.017077925          102 
 1535000   0.63504561   -7.3566244    330.16831  0.017924447  0.017063298          109 
 1536000   0.63416977   -7.3514905    330.25231  0.017917335  0.017048658          110 
 1537000   0.63361022   -7.3308089    331.21888  0.017958083  0.017034049           95 
 1538000   0.65053971   -7.3906187    330.21905  0.017892233   0.01701946          119 
 1539000   0.63140266   -7.3539589    330.86827  0.017915761  0.017004869          122 
 1540000   0.64231061   -7.3378094    330.82899  0.017902001  0.016990306          141 
 1541000   0.64648271   -7.3503875    330.92951   0.01789582  0.016975744          134 
 1542000   0.62527551    -7.357175    330.55406  0.017863925  0.016961187          111 
 1543000   0.63898517   -7.3758904    329.71937  0.017807268  0.016946679          237 
 1544000   0.63030049   -7.3444915    330.51041  0.017838429  0.016932159          252 
 1545000   0.64193613   -7.3632505    331.36151  0.017872789  0.016917668          224 
 1546000   0.62490752   -7.3559145    329.78833   0.01777643  0.016903201          249 
 1547000   0.64370739   -7.3590145    330.36448  0.017795975  0.016888744          170 
 1548000   0.63237068   -7.3650127    330.51583  0.017792627  0.016874273          113 
 1549000   0.63084846   -7.3869132    330.55551  0.017783275  0.016859826          228 
 1550000   0.62990959   -7.3319218    330.95756  0.017793417  0.016845397          110 
 1551000   0.63028337   -7.3619389     330.4393  0.017754099  0.016830975          102 
 1552000   0.63134177     -7.37221    330.23068  0.017731458  0.016816553          113 
 1553000   0.64160694   -7.3523226    330.45125  0.017731877  0.016802156          115 
 1554000   0.63073585   -7.3621618    331.29863  0.017765907  0.016787812          133 
 1555000   0.64107574   -7.3656928    330.84482  0.017730162   0.01677348          148 
 1556000   0.64790684   -7.3559572    330.66066  0.017708904  0.016759155          128 
 1557000    0.6289201    -7.374057    331.16703  0.017724632  0.016744829          157 
 1558000   0.63069855   -7.3454518    330.61207  0.017683573  0.016730546          131 
 1559000   0.63103114   -7.3536534    330.53299  0.017668002  0.016716288          186 
 1560000   0.63978023   -7.3672527    330.65999  0.017663461  0.016702018          299 
 1561000   0.63014809   -7.3870282    330.64058  0.017651109  0.016687735          144 
 1562000   0.62330114    -7.357619    331.01152  0.017659599  0.016673488          107 
 1563000   0.64062886   -7.3902033    330.25731  0.017608089  0.016659215          253 
 1564000   0.63391376    -7.378685    330.88647  0.017630353  0.016644949          112 
 1565000   0.62387309   -7.4069724    330.41224  0.017593836  0.016630682          149 
 1566000   0.62214549    -7.370012    330.38679  0.017581247  0.016616459          149 
 1567000   0.63865664   -7.4005032      330.306  0.017565731  0.016602225          151 
 1568000   0.62231601   -7.4001099    329.85834  0.017530736  0.016588006          160 
 1569000    0.6313319   -7.3779461     330.1299  0.017533986   0.01657376          352 
 1570000   0.61578848   -7.3850385    330.83132  0.017560049  0.016559569          397 
 1571000   0.62680561   -7.3928296    330.82731  0.017548658  0.016545396          360 
 1572000   0.63144075    -7.375706    331.23951  0.017559346  0.016531235          190 
 1573000   0.62958654   -7.3784266    330.67289  0.017518165  0.016517073          295 
 1574000   0.61562423   -7.3769388    329.51541  0.017445755  0.016502879          256 
 1575000   0.62942658   -7.3962151    330.04743  0.017462827   0.01648873          414 
 1576000   0.63279058     -7.39179    330.06087  0.017452457  0.016474557          450 
 1577000   0.62490182   -7.4007437     330.4757  0.017463311  0.016460401          386 
 1578000   0.63288885   -7.4054042    329.71818   0.01741224  0.016446265          489 
 1579000   0.61684752   -7.4027658    330.88947  0.017463029  0.016432154          364 
 1580000   0.62240665   -7.4115246    330.24454  0.017417961   0.01641803          533 
 1581000   0.61958825   -7.3873947    330.23311  0.017406341  0.016403955          354 
 1582000   0.62584259   -7.4079389    329.97733  0.017381866  0.016389827          553 
 1583000   0.60726079   -7.4219668    330.16598  0.017380816  0.016375732          583 
 1584000   0.62755272   -7.4049729     330.1498  0.017368992  0.016361671          502 
 1585000   0.63250051   -7.4068236    330.27369  0.017364547  0.016347617          378 
 1586000   0.61307124   -7.4337516    330.02519  0.017340542   0.01633358          270 
 1587000   0.61098702   -7.4075066     330.0753  0.017332246  0.016319587          494 
 1588000   0.61470956   -7.3917914    330.13212  0.017324314  0.016305619          361 
 1589000   0.61661378   -7.4213469    330.39362  0.017327125  0.016291617          193 
 1590000   0.59845257   -7.4030904    329.83591  0.017286998  0.016277679          178 
 1591000   0.61699734   -7.3948271    330.66894  0.017319764  0.016263753          408 
 1592000   0.62803841    -7.406559    330.16139  0.017282317  0.016249837          413 
 1593000   0.62764759    -7.425781    329.86693  0.017256064  0.016235932          439 
 1594000   0.59174941   -7.4195942    330.04533  0.017254565  0.016222022          191 
 1595000   0.62061419   -7.4145002    329.71613  0.017226548   0.01620807          396 
 1596000   0.61974301   -7.4336511    329.69082  0.017214433  0.016194151          376 
 1597000   0.62919154   -7.4069276    330.27912  0.017234352  0.016180233          499 
 1598000   0.60749871   -7.4304474    329.29961  0.017172487  0.016166309          348 
 1599000   0.61414942      -7.4117    329.97186  0.017196782    0.0161524          401 
 1600000   0.60615583   -7.4098088    329.75035  0.017174497  0.016138496          530 
 1601000   0.61975195   -7.4571348    330.19967  0.017187157  0.016124608          453 
 1602000   0.62081269   -7.4064459    329.28303  0.017128747  0.016110748          473 
 1603000    0.6205715   -7.4331691      329.552  0.017132044  0.016096875          568 
 1604000   0.62752448   -7.4284307    329.14134  0.017100028  0.016083006          454 
 1605000   0.60262495   -7.4192325    329.98208  0.017133026  0.016069162          262 
 1606000   0.62081722    -7.430946    329.60242  0.017102658  0.016055335          328 
 1607000   0.61200359   -7.4266731     329.6309  0.017093492  0.016041499          429 
 1608000   0.61472792   -7.4414212    329.51678  0.017076947  0.016027671          527 
 1609000   0.60118662   -7.4422259    329.08391  0.017043915  0.016013838          545 
 1610000   0.61516432   -7.4519624    328.96957   0.01702741  0.016000037          464 
 1611000   0.60910971   -7.4183319    329.56968  0.017047884  0.015986223          554 
 1612000   0.61630471   -7.4460654    329.19643  0.017018013  0.015972434          422 
 1613000    0.6232738   -7.4333296    329.88151  0.017042856  0.015958648          239 
 1614000   0.60512958   -7.4363723    328.92904  0.016983119  0.015944891          468 
 1615000   0.59883169   -7.4395711    329.84503  0.017019868  0.015931154          476 
 1616000   0.61296606    -7.424316    330.13014  0.017024038  0.015917439          456 
 1617000   0.60688459   -7.4459375    328.77147  0.016943489  0.015903714          497 
 1618000   0.60435027   -7.4502704    329.11891  0.016950912  0.015890011          408 
 1619000   0.61220919   -7.4199864     329.5959  0.016964994  0.015876301          576 
 1620000   0.59249462   -7.4530063    329.85709  0.016967957  0.015862581          572 
 1621000    0.5961479   -7.4312629    329.25681   0.01692663  0.015848866          398 
 1622000   0.59955552   -7.4411987    329.71029  0.016939493  0.015835156          440 
 1623000   0.60772648   -7.4822785    328.61646  0.016872893  0.015821467          180 
 1624000   0.60359006   -7.4438003     329.5311  0.016909437  0.015807812          333 
 1625000   0.60628147   -7.4380141    329.14388  0.016879173  0.015794161          575 
 1626000   0.60804368   -7.4428228    329.82896  0.016903903  0.015780536          335 
 1627000   0.60077934   -7.4484639    329.04338  0.016853277   0.01576689          351 
 1628000    0.5995837   -7.4357727    329.21886  0.016851907  0.015753268          537 
 1629000    0.6091081   -7.4403767    328.81625  0.016820966  0.015739675          540 
 1630000   0.59378105   -7.4599468    328.93554  0.016816745  0.015726072          389 
 1631000    0.5924107   -7.4515932    329.29982  0.016825047  0.015712478          558 
 1632000   0.59027022    -7.465002    328.85597  0.016792074  0.015698906          481 
 1633000   0.60033421   -7.4533891    328.71895  0.016774798  0.015685366          379 
 1634000   0.60860376   -7.4625319    329.08121  0.016783007  0.015671801          452 
 1635000   0.59222544   -7.4776047    328.62817  0.016749652  0.015658233          622 
 1636000   0.59877016   -7.4770357    328.74449  0.016745339  0.015644671          221 
 1637000   0.60844605   -7.4580209    329.27685   0.01676221  0.015631114          615 
 1638000   0.59488258   -7.4660904    328.78939  0.016727177  0.015617624          566 
 1639000   0.60906655   -7.4821371    328.84102  0.016719597  0.015604095          540 
 1640000   0.60032414   -7.4636401    328.73266  0.016703895  0.015590582          582 
 1641000   0.59431488   -7.4721365    329.11375  0.016713069  0.015577128          468 
 1642000   0.60436109   -7.4469304    328.61476  0.016677566   0.01556364          421 
 1643000   0.59593502   -7.4630295    329.20046  0.016697122   0.01555019          559 
 1644000   0.59708734   -7.4540699    328.57601  0.016655313  0.015536734          425 
 1645000   0.58776221   -7.4760574    328.57943  0.016645361  0.015523298          535 
 1646000   0.60499369   -7.4676549     328.2519  0.016618666  0.015509866          569 
 1647000   0.59340435   -7.4810308    328.35109  0.016613595   0.01549645          698 
 1648000   0.58712829   -7.4368204    328.42193  0.016607096  0.015483045          534 
 1649000    0.5951792   -7.4675527    329.07519  0.016630038  0.015469642          447 
 1650000   0.58750204    -7.450844    328.25113   0.01657834  0.015456251          494 
 1651000   0.59818815   -7.4659558    327.78004  0.016544521  0.015442872          548 
 1652000   0.60295798   -7.4528689    328.82311  0.016587122  0.015429489          430 
 1653000     0.592517   -7.4785624    328.36475   0.01655398  0.015416109          578 
 1654000   0.59013844   -7.4677132    328.55676  0.016553646  0.015402743          647 
 1655000    0.5978436   -7.4687902     328.4743  0.016539491  0.015389406          607 
 1656000     0.595984   -7.4616788    328.35456  0.016523478  0.015376083          597 
 1657000   0.59252545   -7.4798918    328.88837  0.016540353  0.015362798          546 
 1658000   0.60118291   -7.4699377    329.26946  0.016549531  0.015349526          510 
 1659000   0.58932374   -7.4734183    328.75753   0.01651384  0.015336259          501 
 1660000    0.5978024   -7.4829729    328.30197  0.016481022  0.015322976          341 
 1661000    0.5844452   -7.4756413    328.25939  0.016468964  0.015309703          619 
 1662000   0.59559541   -7.4706679    328.75858  0.016484084  0.015296462          539 
 1663000     0.586467   -7.4758702    328.46177  0.016459299   0.01528322          349 
 1664000   0.58305939   -7.4836954    328.58816  0.016455737  0.015269988          680 
 1665000   0.58172115   -7.4707806    327.97857  0.016415344  0.015256731          319 
 1666000   0.59500704   -7.5025619    327.66989   0.01639005  0.015243504          668 
 1667000   0.59070924   -7.4818556    328.74107  0.016433767  0.015230273          557 
 1668000   0.58494609   -7.4869473    327.96885  0.016385334  0.015217048          601 
 1669000   0.58379734   -7.4929279    328.36223  0.016395158  0.015203873          507 
 1670000   0.58913714   -7.5198803    328.10456  0.016372483  0.015190678          681 
 1671000   0.58410646   -7.4908979    328.57535  0.016386164  0.015177502          544 
 1672000   0.58469732   -7.4738053    328.67318  0.016381239  0.015164341          492 
 1673000   0.59706522   -7.4969733    328.42727  0.016359199  0.015151199          639 
 1674000   0.58785681   -7.5014226    328.00878  0.016328593  0.015138048          685 
 1675000   0.58045917   -7.4797608    328.19298  0.016328009  0.015124898          667 
 1676000   0.59230812   -7.4994098    328.06796   0.01631205  0.015111754          676 
 1677000   0.59217072   -7.4976131     328.2689  0.016312309  0.015098666          597 
 1678000   0.57491489   -7.4868009    328.42791  0.016310484  0.015085593          570 
 1679000   0.58135011    -7.488246    328.46585  0.016302653  0.015072533          534 
 1680000   0.58497252   -7.4862335    328.18881  0.016279207  0.015059456          663 
 1681000    0.5835654   -7.4939574    328.75121  0.016297403  0.015046412          615 
 1682000   0.56880697   -7.5012005    327.91905  0.016246485  0.015033378          671 
 1683000   0.59434021   -7.4864321     328.1801  0.016249757  0.015020363          607 
 1684000   0.58264647   -7.5084964    327.47547  0.016205239  0.015007359          624 
 1685000   0.57287213   -7.4993156    328.32006  0.016237392  0.014994356          541 
 1686000   0.58881313   -7.5149668    327.78004  0.016201069  0.014981362          460 
 1687000   0.59264612   -7.4865229    328.63182  0.016233542    0.0149684          703 
 1688000    0.5725799   -7.5115571    328.56282  0.016220519  0.014955482          634 
 1689000   0.57155132   -7.4812403    328.60666  0.016213078  0.014942548          624 
 1690000   0.59280081   -7.5095412    328.04235  0.016175658  0.014929632          602 
 1691000   0.57109143   -7.5156437    327.98856  0.016163442  0.014916718          685 
 1692000   0.58664169    -7.509425    328.43328  0.016175792  0.014903795          496 
 1693000   0.57463645    -7.513465    327.68984  0.016129644  0.014890902          492 
 1694000   0.58805582   -7.5175805    328.01397  0.016136067  0.014878031          451 
 1695000   0.57169791   -7.5128393    328.19868  0.016135629  0.014865166          607 
 1696000   0.55974939   -7.5079739    327.84307  0.016108642  0.014852306          542 
 1697000    0.5670137   -7.5124638    327.36871  0.016075855  0.014839457          653 
 1698000   0.58584036   -7.5139874    328.62732  0.016128157  0.014826623          485 
 1699000   0.58072257   -7.5198231    327.73587   0.01607494  0.014813808          521 
 1700000   0.57698762   -7.4917206    327.54359  0.016056058  0.014800985          733 
 1701000   0.58203883   -7.4975958    327.99923  0.016068942  0.014788186          495 
 1702000   0.57765881   -7.5025853    327.46495  0.016033341  0.014775407          675 
 1703000   0.57549715   -7.5266983    328.11298  0.016055636  0.014762617          687 
 1704000   0.56797957   -7.5239834    327.11154  0.015997239  0.014749848          590 
 1705000   0.55638195   -7.5460951    327.70749  0.016016984  0.014737081          600 
 1706000   0.56380841   -7.5313656     328.1802  0.016030686  0.014724338          294 
 1707000   0.57219049   -7.5041901    328.06987  0.016015909  0.014711596          759 
 1708000   0.57381797    -7.530557    326.94925  0.015951857  0.014698886          879 
 1709000   0.56221486   -7.5057645    327.81448  0.015984712  0.014686173          769 
 1710000   0.57071522   -7.5276691    327.90087  0.015979575  0.014673484          664 
 1711000   0.58288583   -7.5150325    327.39048  0.015945377  0.014660793          678 
 1712000    0.5623994   -7.5184367    328.17883  0.015974437  0.014648112          746 
 1713000   0.57348301   -7.5234326    327.22825  0.015918868  0.014635441          669 
 1714000   0.56285951   -7.5125409    328.11669  0.015952776  0.014622783          675 
 1715000    0.5611857   -7.5398499    327.72526  0.015924454  0.014610126          686 
 1716000   0.57116114   -7.5170513    327.80389  0.015918992  0.014597501          653 
 1717000   0.56361125    -7.524418    327.36061  0.015888206  0.014584869          693 
 1718000   0.55872446   -7.5238675    327.45889  0.015883726  0.014572248          727 
 1719000   0.57539438    -7.536732    327.71211  0.015886761  0.014559634          759 
 1720000   0.56466493   -7.5186335    327.45707  0.015865168   0.01454702          753 
 1721000   0.56788854   -7.5338364    327.60551  0.015863137  0.014534413          812 
 1722000   0.56867552   -7.5262671    327.64447  0.015855811  0.014521831          785 
 1723000   0.56966057   -7.5262323    327.61389  0.015845129  0.014509254          776 
 1724000   0.58569619   -7.5576673    327.17699   0.01581482  0.014496716          719 
 1725000   0.56982901   -7.5493963    327.09361  0.015801624  0.014484155          701 
 1726000   0.55983183   -7.5325602    326.94435  0.015785262  0.014471614          694 
 1727000   0.55664282   -7.5531375    327.57525  0.015806565  0.014459101          855 
 1728000   0.55882235   -7.5329421     327.2328  0.015780903  0.014446591          750 
 1729000   0.55871363   -7.5326287    327.22884  0.015771585   0.01443408          803 
 1730000   0.57086482   -7.5424079    327.29154  0.015765489  0.014421593          720 
 1731000    0.5701694   -7.5353622     327.5628   0.01576944  0.014409103          686 
 1732000   0.55907301   -7.5418545    327.24068  0.015744836   0.01439662          700 
 1733000   0.54511324   -7.5289676    327.21511  0.015734522  0.014384178          772 
 1734000   0.57189755    -7.543547    327.32983  0.015730961  0.014371733          688 
 1735000   0.57356471    -7.551369     327.1955  0.015715442  0.014359297          662 
 1736000   0.56167706   -7.5553862    327.48169  0.015720127  0.014346889          667 
 1737000   0.56156763   -7.5330078    327.71183  0.015722118  0.014334497          663 
 1738000   0.56867919   -7.5478345    327.11057  0.015684243  0.014322127          636 
 1739000   0.55789713   -7.5367647    327.35849  0.015687104  0.014309755          693 
 1740000   0.55501772   -7.5606017    327.02132   0.01566194  0.014297392          670 
 1741000   0.54626755   -7.5436577    327.68533  0.015684728  0.014285046          598 
 1742000   0.56627131   -7.5498959    326.16695  0.015603088  0.014272711          629 
 1743000   0.55621481   -7.5544139      327.494  0.015657583  0.014260395          684 
 1744000   0.56433927   -7.5549594     327.1064  0.015630084  0.014248091          747 
 1745000   0.55052805   -7.5630159    327.24435  0.015627715    0.0142358          622 
 1746000   0.56132634   -7.5395197    327.06911    0.0156104  0.014223526          583 
 1747000   0.55375242   -7.5510397    327.22158  0.015608738  0.014211237          680 
 1748000   0.55534876   -7.5421238     327.4648  0.015611404  0.014198981          695 
 1749000   0.54723464   -7.5518134    326.97339  0.015579064  0.014186729          591 
 1750000   0.56289556   -7.5416122    327.30817  0.015586103  0.014174501          631 
 1751000   0.54996652   -7.5440206    327.50787  0.015586706  0.014162284          686 
 1752000   0.54202028   -7.5369063    327.05531  0.015556284  0.014150076          737 
 1753000   0.55657354   -7.5441975    327.35167  0.015561498  0.014137881          727 
 1754000    0.5476937   -7.5490193    326.72159   0.01552269  0.014125695          753 
 1755000   0.53902052   -7.5464415    327.17605  0.015535425    0.0141135          597 
 1756000   0.53390549   -7.5544336    327.00962   0.01551868  0.014101331          785 
 1757000   0.55242617   -7.5518283    325.98415   0.01546121  0.014089178          773 
 1758000   0.55224188   -7.5800072    326.98747  0.015499975  0.014077022          801 
 1759000   0.55847287   -7.5708039    327.51192  0.015516009  0.014064896          807 
 1760000   0.56766965   -7.5661683    327.02469  0.015484124  0.014052758          755 
 1761000   0.55397145   -7.5598365    326.59879  0.015455177  0.014040629          783 
 1762000   0.54255953   -7.5560444     326.4355  0.015438682  0.014028503          844 
 1763000   0.55531013   -7.5840799    326.92308  0.015452972  0.014016408          771 
 1764000   0.53550535   -7.5602113    327.27317  0.015460751  0.014004313          782 
 1765000   0.56186987   -7.5531937    326.90009  0.015434376  0.013992248          762 
 1766000   0.55365911   -7.5686289    326.98506  0.015429646  0.013980181          750 
 1767000   0.55223173   -7.5785679    327.08702  0.015425722  0.013968125          820 
 1768000   0.54025569    -7.571892    326.59649  0.015393877  0.013956071          849 
 1769000   0.55335871   -7.5773217    327.09966  0.015408878  0.013944018          756 
 1770000   0.53855255   -7.5691037    326.70322  0.015381507  0.013931986          872 
 1771000   0.54341402   -7.5775089     326.5305  0.015364695  0.013919982          726 
 1772000   0.54687364   -7.5803935    326.47664  0.015353491  0.013907979          809 
 1773000   0.54683508   -7.5908439    326.44984  0.015343572  0.013895995          753 
 1774000   0.54295121   -7.5767795    326.13051  0.015319923  0.013884036          828 
 1775000    0.5446579   -7.5872148    326.10283  0.015309992  0.013872067          648 
 1776000   0.55327564   -7.5720532    326.59475  0.015324453  0.013860102          687 
 1777000   0.53759838   -7.5813727    326.98559  0.015334158   0.01384816          735 
 1778000   0.54186723   -7.5883943    326.92857  0.015322862  0.013836243          696 
 1779000   0.54835761   -7.5680229    326.98243  0.015316771  0.013824328          753 
 1780000   0.55033759   -7.5700624     327.0273  0.015310267  0.013812435          673 
 1781000   0.53401652   -7.5651237    326.94749  0.015297936  0.013800555          706 
 1782000   0.55673174   -7.5803425    326.83117  0.015283912  0.013788695          751 
 1783000   0.53330325   -7.5996858     326.0452  0.015238605  0.013776821          717 
 1784000   0.55320424    -7.587687    326.30176  0.015242048  0.013764959          768 
 1785000   0.54609852   -7.5880975    326.25746  0.015231441  0.013753121          756 
 1786000   0.53284414   -7.5784129     326.5586  0.015236964  0.013741278          700 
 1787000   0.53598541   -7.5831619    326.44358  0.015223073  0.013729459          790 
 1788000   0.54833421   -7.5852253    326.19129  0.015202801  0.013717649          741 
 1789000    0.5332098    -7.596355    326.34793  0.015201599  0.013705859          785 
 1790000   0.54204029   -7.5892791    326.29105  0.015190459  0.013694047          796 
 1791000   0.53036288   -7.5903704    326.29684  0.015182246   0.01368226          738 
 1792000   0.53855574   -7.5965362    326.05201  0.015162389  0.013670483          837 
 1793000   0.53174774   -7.5898502     326.1928  0.015160476  0.013658715          815 
 1794000   0.53257433    -7.597063    326.17969  0.015151416  0.013646979          804 
 1795000   0.53524039   -7.5971014    326.45349  0.015155686  0.013635246          839 
 1796000   0.53222224   -7.5932797    326.38013  0.015143844  0.013623522          830 
 1797000   0.53654177   -7.5879296    326.56471  0.015143976  0.013611807          762 
 1798000   0.53833402   -7.6073164    326.54703  0.015134734  0.013600117          837 
 1799000   0.52889786   -7.5892411    326.27215  0.015113589  0.013588439          758 
 1800000    0.5428521   -7.5964045    327.08856  0.015142989  0.013576764          833 
 1801000   0.53177774   -7.6069004     326.1845  0.015092749  0.013565092          808 
 1802000   0.53736504   -7.6031494    325.86659  0.015069672  0.013553441          738 
 1803000   0.52959769   -7.5980056    326.23467  0.015078326  0.013541795          817 
 1804000    0.5357441   -7.5997044    326.06748  0.015062245   0.01353016          795 
 1805000    0.5291319   -7.5930111    326.26172  0.015062868  0.013518544          710 
 1806000   0.52366703    -7.607824    325.96081  0.015040643   0.01350692          845 
 1807000   0.52446125   -7.5875421    326.18644  0.015042725  0.013495324          874 
 1808000   0.53023299   -7.6037366    326.14353  0.015032427  0.013483739          869 
 1809000   0.53276224   -7.5878108    326.01013  0.015017971  0.013472149          713 
 1810000    0.5202283   -7.5992851    326.09395  0.015013534  0.013460594          792 
 1811000   0.52531646   -7.6095689    326.54631  0.015026059  0.013449051          828 
 1812000   0.53043704   -7.6022745    326.08824    0.0149967  0.013437517          843 
 1813000   0.52736125   -7.6059902     326.1509  0.014991308   0.01342598          806 
 1814000   0.52476809   -7.6049084    325.85687  0.014969536  0.013414466          762 
 1815000   0.54751532   -7.5926959    326.66608  0.014998443  0.013402969          764 
 1816000   0.53135224    -7.615877    326.34017  0.014975228  0.013391481          847 
 1817000   0.52741706   -7.6102348    326.18838  0.014960025  0.013380007          890 
 1818000    0.5347725   -7.6173315    326.03398  0.014944719  0.013368542          869 
 1819000   0.53002418   -7.6162576    325.83579  0.014927423  0.013357088          702 
 1820000   0.53468704   -7.6124211    326.29286  0.014940149  0.013345651          765 
 1821000   0.52685582   -7.6309136      324.997  0.014872643  0.013334221          730 
 1822000   0.49476172   -7.6014738    326.33551    0.0149257  0.013322797          821 
 1823000   0.52618374   -7.6248441    325.64233  0.014885826  0.013311404          804 
 1824000    0.5329275    -7.610512    325.94102  0.014891311  0.013300017          812 
 1825000   0.51912971   -7.5945534    326.67642  0.014916731  0.013288649          769 
 1826000   0.53137936   -7.6069404    325.83616  0.014870215  0.013277298          784 
 1827000   0.53185082   -7.6081519    326.11435  0.014874765  0.013265946          818 
 1828000   0.52645011   -7.6127081    325.83932   0.01485409  0.013254605          843 
 1829000   0.52273622   -7.6084203    326.12203   0.01485885  0.013243276          800 
 1830000   0.51291946   -7.6195141    326.44208  0.014865304  0.013231966          786 
 1831000   0.50760909   -7.6039273    325.58946  0.014818381   0.01322067          815 
 1832000   0.52358488   -7.6108296    325.55988  0.014808947   0.01320937          841 
 1833000   0.51709992   -7.6206409    325.93691  0.014818008  0.013198101          856 
 1834000   0.53158761   -7.6317104    326.15094  0.014819654  0.013186827          878 
 1835000   0.51318609   -7.6247803    325.43112  0.014778888  0.013175558          783 
 1836000   0.52017383   -7.6299147    326.04859  0.014798865  0.013164304          814 
 1837000   0.51812453   -7.6059482    325.83656   0.01478119  0.013153046          830 
 1838000   0.52064925   -7.6254317    325.33668  0.014750484  0.013141821          785 
 1839000   0.51646417   -7.6157788    325.82582  0.014764628  0.013130601          809 
 1840000   0.52350059   -7.6292893    326.58075  0.014790795  0.013119393          827 
 1841000   0.51830144   -7.6335931    325.85064  0.014749712  0.013108184          826 
 1842000   0.51757155   -7.6173115    325.91661  0.014744689  0.013096971          830 
 1843000   0.52511513   -7.6093705    325.92065  0.014736872  0.013085798          851 
 1844000   0.52631589   -7.6181675    325.67814   0.01471792  0.013074622          853 
 1845000   0.51118292   -7.6363505     325.0969   0.01468369  0.013063457          830 
 1846000   0.51669668   -7.6175616    325.46401  0.014692308  0.013052306          848 
 1847000    0.5181569   -7.6401231    325.45411  0.014683907  0.013041165          918 
 1848000   0.51653355   -7.6382791    325.89305  0.014695754  0.013030047          909 
 1849000   0.51857927   -7.6428266    325.47111   0.01466879  0.013018928          910 
 1850000   0.51022916   -7.6263023    325.80911  0.014676086  0.013007821          833 
 1851000   0.51386699   -7.6166736    325.69942  0.014663219  0.012996734          884 
 1852000   0.51820618   -7.6390357    325.43722  0.014643503   0.01298565          825 
 1853000   0.51636226   -7.6146922    325.50288  0.014638554  0.012974579          930 
 1854000   0.51263738   -7.6458115    325.85244   0.01464637  0.012963511          898 
 1855000   0.51731494   -7.6293982    325.24197   0.01461105  0.012952455          905 
 1856000   0.51217465   -7.6296329    325.94387  0.014634693  0.012941414          822 
 1857000   0.51860086   -7.6414748    325.82465  0.014621462  0.012930378          835 
 1858000   0.51712606   -7.6383899    325.29379  0.014589783  0.012919366          844 
 1859000   0.51443095   -7.6420073     325.3746  0.014585557  0.012908368          898 
 1860000   0.51234993   -7.6492632    325.56075  0.014586055  0.012897379          807 
 1861000   0.49590707   -7.6355141       325.34  0.014568332  0.012886394          760 
 1862000   0.50818524   -7.6422056    325.38872  0.014562689  0.012875423          812 
 1863000   0.51038829   -7.6524708    325.43101  0.014556764  0.012864476          856 
 1864000   0.51383957   -7.6389872    325.54965  0.014554258  0.012853531          840 
 1865000   0.50805668   -7.6223836      325.426  0.014540929  0.012842592          879 
 1866000   0.49750171   -7.6351797    325.71397  0.014545997  0.012831658          877 
 1867000   0.51331184   -7.6423507    325.23977   0.01451704   0.01282074          774 
 1868000   0.50807509   -7.6451919    325.47801  0.014519897  0.012809828          784 
 1869000   0.51408779   -7.6459248    325.57469  0.014516439  0.012798934          774 
 1870000   0.49358477   -7.6435319    325.44614  0.014502947  0.012788051          880 
 1871000   0.51520518   -7.6593122    324.97749  0.014474323   0.01277717          860 
 1872000   0.50010564   -7.6452637    325.16336  0.014474865  0.012766303          821 
 1873000    0.5094159   -7.6436055    325.43664  0.014479295   0.01275545          812 
 1874000   0.50262286     -7.64239    325.66216  0.014481597  0.012744598          790 
 1875000   0.49821472   -7.6459701    324.34718   0.01441543  0.012733762          906 
 1876000   0.50564741   -7.6339141    325.42179  0.014455481  0.012722945          785 
 1877000   0.49656814    -7.662221    325.54766  0.014453368  0.012712135          844 
 1878000   0.50298074   -7.6575172     324.3224  0.014391303  0.012701326          855 
 1879000   0.49337198   -7.6599445    324.99544  0.014413493  0.012690535          896 
 1880000   0.51185564   -7.6630282    325.40226  0.014423859  0.012679753          844 
 1881000   0.51220157   -7.6422987     325.9221  0.014439221  0.012668983          852 
 1882000   0.49277975   -7.6659569    325.19913  0.014399536  0.012658222          880 
 1883000   0.50222485   -7.6603504    324.64611  0.014367415  0.012647468          868 
 1884000   0.50464009   -7.6405811    325.07658   0.01437883  0.012636738          853 
 1885000   0.50963213   -7.6691463    325.18218   0.01437587  0.012626016          842 
 1886000   0.49166717   -7.6460173    325.40472  0.014378081  0.012615304          814 
 1887000   0.49864839   -7.6633439      325.098  0.014356916  0.012604601          837 
 1888000   0.49608474   -7.6458447    324.96478  0.014343431  0.012593909          871 
 1889000   0.50147585   -7.6454922    325.07799  0.014340833   0.01258324          858 
 1890000   0.50208967   -7.6602498    324.86504  0.014323856   0.01257257          870 
 1891000   0.49318761    -7.666019     324.6971   0.01430888  0.012561911          899 
 1892000   0.49553173   -7.6488534    325.20458  0.014323669  0.012551264          886 
 1893000   0.49360517   -7.6617647    324.82475  0.014299382  0.012540628          861 
 1894000   0.49820184    -7.656747    324.77873  0.014289807  0.012530008          838 
 1895000   0.47865123   -7.6507742    324.99022  0.014291567  0.012519405          861 
 1896000   0.50275022    -7.665725    324.62635  0.014268036  0.012508807          849 
 1897000   0.49071645   -7.6645059    325.03197  0.014278333  0.012498226          910 
 1898000   0.50300009    -7.659395    325.34836  0.014284701   0.01248765          851 
 1899000   0.49382946   -7.6761037    324.65895  0.014246926  0.012477085          886 
 1900000   0.47762678   -7.6551044    325.13149  0.014260153  0.012466522          756 
 1901000   0.49348603   -7.6728812     325.1412  0.014253077  0.012455965          892 
 1902000   0.49520751   -7.6651573    324.88853  0.014234513  0.012445422          837 
 1903000   0.49080018    -7.660977    324.51263  0.014210573  0.012434884          959 
 1904000   0.50385146   -7.6819146    324.50517  0.014202782  0.012424356          937 
 1905000   0.48900521   -7.6770366    324.80524  0.014208453  0.012413835          888 
 1906000   0.49602704   -7.6686975     325.1501  0.014216076  0.012403338          867 
 1907000   0.50274186   -7.6660575    324.30218  0.014171569  0.012392841          797 
 1908000   0.49347828   -7.6561453    325.14372  0.014200896   0.01238236          883 
 1909000    0.4998221    -7.692911    324.47966  0.014164469  0.012371889          899 
 1910000    0.4977148   -7.6680463    325.10417  0.014184301  0.012361423          790 
 1911000   0.48283074   -7.6866942    324.50878  0.014150915  0.012350966          839 
 1912000   0.48736303    -7.668542     324.7003  0.014151861  0.012340523          904 
 1913000   0.47478472   -7.6877769    325.08455  0.014161202  0.012330096          855 
 1914000   0.49877727   -7.6699477    324.43801  0.014125654  0.012319675          856 
 1915000   0.48680678   -7.6722167    324.47271  0.014119787  0.012309257          845 
 1916000   0.48523419   -7.6812665     324.9509  0.014133216  0.012298867          900 
 1917000     0.499011   -7.6644539    325.00316  0.014128115  0.012288484          847 
 1918000   0.48683401   -7.6788514    324.42809  0.014095763  0.012278119          822 
 1919000    0.4902994   -7.6760084    324.31178  0.014083367  0.012267762          900 
 1920000   0.48244363    -7.681833    325.00346  0.014106053  0.012257423          863 
 1921000   0.48611054   -7.6844942    324.49512  0.014076658  0.012247094          877 
 1922000   0.48623262   -7.6736413    324.82544  0.014083656  0.012236766          901 
 1923000   0.49409333   -7.6668942    324.58127  0.014065751  0.012226445          857 
 1924000   0.48316711   -7.6859914     324.4091  0.014050983  0.012216146          870 
 1925000   0.48701547   -7.6906125    324.33666  0.014040548  0.012205857          810 
 1926000   0.48192843   -7.6976422    324.47601  0.014039287  0.012195567          895 
 1927000   0.48886086   -7.7059687    324.32945  0.014025664  0.012185279          957 
 1928000   0.47898503   -7.6882692    324.74438  0.014036323   0.01217501          872 
 1929000   0.48902695   -7.6845236    324.14201  0.014003024  0.012164753          921 
 1930000   0.47989149   -7.6861326     324.5199  0.014012085  0.012154502          863 
 1931000   0.48493857   -7.6879454    324.22311  0.013992021  0.012144261          934 
 1932000   0.48856476   -7.6862424    324.63584  0.014002581  0.012134039          889 
 1933000   0.48065881   -7.6832197    324.25404  0.013978877   0.01212382          881 
 1934000   0.48161131   -7.6876445     324.0277  0.013961897  0.012113615          941 
 1935000   0.47481786   -7.6921665    324.31332  0.013966982  0.012103416          908 
 1936000   0.48375949   -7.6825498    324.30298  0.013959322  0.012093248          937 
 1937000   0.47180838   -7.6688553    324.48602   0.01395999  0.012083074          910 
 1938000   0.47927577   -7.7033746    324.72557  0.013963088  0.012072928          816 
 1939000    0.4785332   -7.6880722    324.31358   0.01393818  0.012062771          837 
 1940000   0.47229179   -7.6905189    324.92379  0.013957207  0.012052622          812 
 1941000   0.48229171   -7.6876224    324.50941  0.013932226  0.012042502          897 
 1942000   0.48458033   -7.7201782    324.46335  0.013923075  0.012032382          903 
 1943000   0.48214942   -7.6921161    324.44842  0.013915269  0.012022281          819 
 1944000   0.47677758   -7.6770904    324.70148  0.013918959  0.012012182          852 
 1945000    0.4708772   -7.6921201    324.62785  0.013908648  0.012002101          842 
 1946000   0.47860536   -7.7014128    324.27093  0.013886217  0.011992029          857 
 1947000   0.46944577   -7.6933293    324.12527   0.01387285   0.01198196          804 
 1948000   0.49151832   -7.6915307    324.64789  0.013888086  0.011971904          908 
 1949000    0.4772142   -7.6934912     324.1184  0.013858321  0.011961861          861 
 1950000   0.47534451   -7.7058122    324.45203  0.013865471  0.011951834          886 
 1951000   0.48200672   -7.7051728    324.05206  0.013841281  0.011941802          933 
 1952000   0.47548515   -7.6948608    324.57615  0.013856564  0.011931783          823 
 1953000   0.46750654   -7.6827676    324.27934  0.013836804  0.011921793          758 
 1954000   0.46090761   -7.6992435    324.35389  0.013832902  0.011911806          871 
 1955000   0.47463145   -7.6884438      324.164  0.013817732  0.011901835          848 
 1956000   0.47626214   -7.7051037    323.86941  0.013798117  0.011891865          901 
 1957000   0.47856598   -7.6861801    324.43707  0.013815239  0.011881899          909 
 1958000   0.47254692   -7.7138122    324.35785  0.013804812  0.011871958          893 
 1959000   0.47865792   -7.7062126     324.0277   0.01378372  0.011862022          865 
 1960000   0.47699326   -7.6996426    324.05184  0.013777714  0.011852095          920 
 1961000   0.46519567   -7.7109912    323.99669  0.013768345  0.011842187          882 
 1962000   0.46880465    -7.710561    324.10845  0.013766074  0.011832284          883 
 1963000   0.46785049   -7.7026481    323.92159  0.013751129  0.011822396          866 
 1964000   0.47349838   -7.7046613    324.26902  0.013758869  0.011812513          881 
 1965000   0.47164638   -7.7022215    324.24247  0.013750741  0.011802633          921 
 1966000   0.46347529   -7.7117318    324.13471  0.013739179  0.011792766          895 
 1967000   0.46628494   -7.7184085    323.83068  0.013719314   0.01178291          808 
 1968000   0.46591689   -7.7138948    323.90442  0.013715465  0.011773065          809 
 1969000   0.47697199   -7.7195165    324.46033  0.013732027  0.011763225          849 
 1970000   0.46584142   -7.7041199    323.77938  0.013696251  0.011753394          860 
 1971000   0.46603066   -7.6894338    324.15533  0.013705197  0.011743583          837 
 1972000   0.46833506   -7.7096673    324.27848  0.013703452  0.011733773          940 
 1973000   0.46871583   -7.7172564     324.3231  0.013698391   0.01172398          850 
 1974000   0.46246168   -7.6854817     323.9397  0.013675266  0.011714195          925 
 1975000   0.46021061   -7.7146483    323.93482  0.013668136  0.011704415          861 
 1976000   0.46239847   -7.7009713     323.8064  0.013655803  0.011694642          854 
 1977000    0.4665914    -7.728116    323.82207  0.013649556  0.011684887          901 
 1978000   0.47303254   -7.7064037    323.48707  0.013628542   0.01167513          842 
 1979000   0.46214288    -7.715906    323.28249  0.013613041  0.011665385          963 
 1980000   0.46821643   -7.7184192    324.14821  0.013642602  0.011655657          801 
 1981000   0.46405262    -7.710175    323.69775  0.013616765  0.011645942          764 
 1982000   0.45440515   -7.7122186    323.66855  0.013608667  0.011636234          808 
 1983000   0.45033046   -7.7097368    324.48079  0.013635938  0.011626536          877 
 1984000    0.4567903   -7.7179805    323.54938  0.013589944   0.01161684          952 
 1985000   0.46614231   -7.7230535    323.83018  0.013594886  0.011607164          875 
 1986000   0.45268331   -7.6884271    323.87309  0.013589841  0.011597495          805 
 1987000   0.45183148   -7.7132999    324.09078  0.013592131  0.011587832          825 
 1988000   0.46445162   -7.7295555     324.2402  0.013591558  0.011578187          858 
 1989000   0.46650412    -7.708924    324.40605  0.013591673  0.011568545          862 
 1990000   0.46478934   -7.7309804    323.86863  0.013562338   0.01155891          836 
 1991000   0.46380116   -7.7334313     323.8392  0.013554294  0.011549281          929 
 1992000   0.45574753   -7.7304182    324.37382  0.013569855   0.01153966          912 
 1993000   0.45269207   -7.7260782    323.44932   0.01352439  0.011530042          913 
 1994000   0.45101561   -7.7174024    324.25206  0.013551156  0.011520448          845 
 1995000   0.45445718   -7.7229847    323.87988  0.013528817  0.011510859          865 
 1996000   0.46313961   -7.7266812    323.56254   0.01350879   0.01150129          847 
 1997000   0.45380711   -7.7376376    323.03241  0.013479904  0.011491727          905 
 1998000   0.45671073   -7.7226282    323.95246  0.013511531  0.011482173          849 
 1999000   0.46659054      -7.7102    323.78692   0.01349787  0.011472635          816 
 2000000   0.44525437   -7.7295066    323.86262  0.013494276  0.011463101          851 
 2001000   0.44790594   -7.7299798    323.99459  0.013493028  0.011453576          862 
 2002000   0.46785735   -7.7274809    323.76136   0.01347658  0.011444064          889 
 2003000   0.45615126   -7.7270963    323.69619   0.01346714   0.01143456          804 
 2004000   0.44252939   -7.7333613    323.42334  0.013449074  0.011425065          941 
 2005000   0.45671485    -7.724846    323.14702  0.013430882  0.011415573          798 
 2006000   0.45492517   -7.7318149     323.8805  0.013454657  0.011406099          868 
 2007000   0.46196545   -7.7389986    323.79011    0.0134442  0.011396634          869 
 2008000   0.44782566   -7.7244546    323.09729  0.013408752  0.011387176          868 
 2009000   0.45168964   -7.7296135    324.02468  0.013440546  0.011377741          897 
 2010000    0.4580817   -7.7355257    323.16904  0.013398385  0.011368303          876 
 2011000   0.45720562   -7.7441648    324.01783  0.013426895  0.011358883          898 
 2012000   0.44254175   -7.7366186    323.28229  0.013389757  0.011349462          930 
Loop time of 5217.74 on 48 procs for 2000000 steps with 4000 atoms

Performance: 66235.525 tau/day, 383.307 timesteps/s
99.4% CPU use with 48 MPI tasks x no OpenMP threads

MPI task timing breakdown:
Section |  min time  |  avg time  |  max time  |%varavg| %total
---------------------------------------------------------------
Pair    | 395.47     | 422.54     | 448.61     |  68.3 |  8.10
Neigh   | 36.255     | 37.858     | 39.351     |  11.3 |  0.73
Comm    | 336.43     | 365.27     | 396.61     |  73.6 |  7.00
Output  | 5.1245     | 5.1266     | 5.179      |   0.3 |  0.10
Modify  | 4320.9     | 4337.8     | 4353.8     |  11.8 | 83.14
Other   |            | 49.14      |            |       |  0.94

Nlocal:        83.3333 ave          91 max          77 min
Histogram: 4 5 7 2 2 19 3 1 2 3
Nghost:        2429.15 ave        2457 max        2414 min
Histogram: 6 7 7 9 8 3 5 1 1 1
Neighs:        16820.7 ave       19019 max       14339 min
Histogram: 2 4 4 5 9 6 4 4 5 5
FullNghs:      33641.6 ave       36987 max       31167 min
Histogram: 4 8 4 4 11 9 3 0 2 3

Total # of neighbors = 1614798
Ave neighs/atom = 403.69950
Neighbor list builds = 106822
Dangerous builds = 0

#clear
#
#next RN
#
#jump SELF
Total wall time: 1:27:01
