
units lj                  # Use reduced LJ style units
atom_style atomic         # Uncharged point particles
atom_modify map hash      # Needed for indexing of clusters etc
                          # Used to be able to find where atoms are in relation to each other.

lattice fcc 1.0 spacing 1 1 1
Lattice spacing in x,y,z = 1.5874011 1.5874011 1.5874011
region box block 0 10 0 10 0 10 units lattice
create_box 2 box
Created orthogonal box = (0.0000000 0.0000000 0.0000000) to (15.874011 15.874011 15.874011)
  3 by 4 by 4 MPI processor grid
create_atoms 1 box
Created 4000 atoms
  using lattice units in orthogonal box = (0.0000000 0.0000000 0.0000000) to (15.874011 15.874011 15.874011)
  create_atoms CPU = 0.002 seconds
set type 1 type/fraction 2 0.96 78393
Setting atom values ...
  3848 settings made for type/fraction
mass 1 1.0
mass 2 1.0
pair_style lj/cut  3.5
pair_modify tail  yes
pair_coeff 1  1  1.0  1.0   # Intearaction between 1 and 1 set with epsilon = 1 and sigma = 1
pair_coeff 1  2  1.5  0.8
pair_coeff 2  2  0.5  0.88

write_data data.0
System init for write_data ...
Neighbor list info ...
  update every 1 steps, delay 10 steps, check yes
  max neighbors/atom: 2000, page size: 100000
  master list distance cutoff = 3.8
  ghost atom cutoff = 3.8
  binsize = 1.9, bins = 9 9 9
  1 neighbor lists, perpetual/occasional/extra = 1 0 0
  (1) pair lj/cut, perpetual
      attributes: half, newton on
      pair build: half/bin/atomonly/newton
      stencil: half/bin/3d
      bin: standard
WARNING: Not all mixed pair coeffs generated from mixing. Use write_data with 'pair ij' option to store all pair coeffs. (../write_data.cpp:312)


#############################
#   M E L T   S Y S T E M   #
#############################

velocity all create 2.4 3143649 mom yes dist gaussian # Assign velocities
                                                    # Temperature 2.4, random number seed, zero linear momentum
                                                                                # Gaussian distribution

timestep 0.002   # simulation timestep
thermo 1000       # output thermodynamic data every 1000 steps bf 100

# Define a fix  in this case with index 1 applied to all
# particles in the simulation. This fix is for simulations
# in the anisotropic NPT ensemble. Note that we use the MTK
# correction.
fix 1 all npt temp 2.4 2.4 0.1 iso 5.68 5.68 0.5 mtk yes tchain 5 pchain 5 # Use NPT ensemble
                                                                         # Set temperature and pressure and damping
                                                                         # Numbers of thermostats in chain and in barostat
run 10000          # run for 10000 steps
Per MPI rank memory allocation (min/avg/max) = 3.642 | 3.644 | 3.648 Mbytes
Step Temp E_pair E_mol TotEng Press Volume 
       0          2.4   -2.8820212            0   0.71707882   -2.0430313         4000 
    1000    2.3788354    -1.718777            0     1.848584    5.7117292    4164.1384 
    2000    2.4813107   -1.7104736            0     2.010562    5.7280894    4178.0015 
    3000    2.3691192   -1.7607594            0     1.792031     5.554117    4158.8363 
    4000    2.4426398   -1.7374708            0    1.9255728    5.6550331    4157.4907 
    5000    2.4190701   -1.7345029            0     1.893195    5.9334539    4118.9618 
    6000    2.4375119   -1.7360727            0    1.9192811    5.6068572    4174.8795 
    7000    2.4087815   -1.6871808            0    1.9250882      5.69069    4204.1779 
    8000    2.3782987   -1.6845152            0     1.882041    5.7474832    4199.1098 
    9000    2.3511418    -1.715643            0     1.810188    5.7120823    4147.1425 
   10000    2.4074438   -1.7446563            0    1.8656066    5.6438499     4147.385 
Loop time of 2.45816 on 48 procs for 10000 steps with 4000 atoms

Performance: 702964.510 tau/day, 4068.082 timesteps/s
99.6% CPU use with 48 MPI tasks x no OpenMP threads

MPI task timing breakdown:
Section |  min time  |  avg time  |  max time  |%varavg| %total
---------------------------------------------------------------
Pair    | 1.0749     | 1.1227     | 1.2299     |   3.3 | 45.67
Neigh   | 0.20857    | 0.21488    | 0.23522    |   1.3 |  8.74
Comm    | 0.72832    | 0.85673    | 0.91625    |   4.1 | 34.85
Output  | 0.0002467  | 0.00025397 | 0.00033913 |   0.0 |  0.01
Modify  | 0.22672    | 0.24862    | 0.28149    |   2.5 | 10.11
Other   |            | 0.015      |            |       |  0.61

Nlocal:        83.3333 ave          92 max          75 min
Histogram: 4 3 8 3 5 8 6 4 4 3
Nghost:        1606.42 ave        1625 max        1582 min
Histogram: 1 0 5 5 4 13 9 5 1 5
Neighs:        9208.94 ave       10227 max        7887 min
Histogram: 2 3 4 5 2 10 6 9 1 6

Total # of neighbors = 442029
Ave neighs/atom = 110.50725
Neighbor list builds = 914
Dangerous builds = 254

# Equilibrate just above the melting temperature to avoid step fn in T

fix 1 all npt temp 1.25 1.25 0.1 iso 5.68 5.68 0.5 mtk yes tchain 5 pchain 5
run 2000
Per MPI rank memory allocation (min/avg/max) = 3.643 | 3.645 | 3.649 Mbytes
Step Temp E_pair E_mol TotEng Press Volume 
   10000    2.4074438   -1.7446563            0    1.8656066    5.6438499     4147.385 
   11000    1.2527275   -2.6288219            0  -0.75020042    5.6672764    3252.2958 
   12000    1.2748708   -2.6280055            0  -0.71617733    5.5612453    3260.8525 
Loop time of 0.589597 on 48 procs for 2000 steps with 4000 atoms

Performance: 586163.443 tau/day, 3392.150 timesteps/s
99.6% CPU use with 48 MPI tasks x no OpenMP threads

MPI task timing breakdown:
Section |  min time  |  avg time  |  max time  |%varavg| %total
---------------------------------------------------------------
Pair    | 0.26151    | 0.28397    | 0.30989    |   1.9 | 48.16
Neigh   | 0.03946    | 0.041564   | 0.043694   |   0.4 |  7.05
Comm    | 0.19052    | 0.21467    | 0.23987    |   2.3 | 36.41
Output  | 5.4331e-05 | 5.6044e-05 | 7.1364e-05 |   0.0 |  0.01
Modify  | 0.040822   | 0.044599   | 0.047947   |   0.9 |  7.56
Other   |            | 0.00474    |            |       |  0.80

Nlocal:        83.3333 ave          89 max          76 min
Histogram: 3 2 4 4 5 5 11 6 1 7
Nghost:        1881.83 ave        1902 max        1862 min
Histogram: 3 0 3 12 9 3 9 3 4 2
Neighs:        11717.6 ave       13141 max       10278 min
Histogram: 2 3 5 6 7 9 7 6 1 2

Total # of neighbors = 562445
Ave neighs/atom = 140.61125
Neighbor list builds = 145
Dangerous builds = 19

#############################
# L I N E A R  Q U E N C H  #
#############################

# Define solid atoms. This closely follows ten Wolde  Ruiz-Montero and Frenkel  Faraday Discuss  1996  104  93-110
# Compute components of the per-atom q6 vector
compute q6 all orientorder/atom degrees 1 6 components 6 nnn NULL cutoff 1.3 # compute the Q6 parameter.
                                                                             # Use all neighbours within 1.3 unit cell.

# get number of connections
compute coord_number all coord/atom orientorder q6 0.5

# An atom is solid if it has 8 or more connections (of a possible 14)
variable is_solid atom c_coord_number>=8
group solid dynamic all var is_solid    # Must be dynamic to update
dynamic group solid defined

# do clustering
compute cluster solid cluster/atom 1.3 # Create a cluster where all atoms within are solid and max 1.3 units from another member

# define chunks one chunk per cluster
compute clus_chunks solid chunk/atom c_cluster nchunk every compress yes  # Says which atoms are in which chunk

# count the size of each chunk
compute size_chunks solid property/chunk clus_chunks count


# Find the maximum entry in the vector of chunk sizes
variable max_n equal max(c_size_chunks)


# Thermo style which includes this variable
# thermo_style custom step temp pe vol v_max_n

thermo ${N}  # Print the thermo information every 100 steps
thermo 1000  

# Reset the npt fix at a lower temperature (below freezing)
fix 1  all npt temp  ${temp} ${temp}  0.1  iso  5.68  5.68  0.5  mtk yes tchain  5  pchain  5
fix 1  all npt temp  0.45 ${temp}  0.1  iso  5.68  5.68  0.5  mtk yes tchain  5  pchain  5
fix 1  all npt temp  0.45 0.45  0.1  iso  5.68  5.68  0.5  mtk yes tchain  5  pchain  5

dump dmp2 all dcd ${N} traj.dcd
dump dmp2 all dcd 1000 traj.dcd


compute msd all msd com yes
variable twopoint equal c_msd[4]/6/(step*dt+1.0e-6)
fix 9 all vector 10 c_msd[4]
variable fit equal slope(f_9)/6/(10*dt)
thermo_style custom step temp pe c_msd[4] v_twopoint v_fit v_max_n

fix 1 all npt temp 1.25 ${temp} 0.1 iso 5.68 5.68 0.5 mtk yes tchain 5 pchain 5
fix 1 all npt temp 1.25 0.45 0.1 iso 5.68 5.68 0.5 mtk yes tchain 5 pchain 5
run 2000000 # 5000000  # Run for this many steps
Neighbor list info ...
  update every 1 steps, delay 10 steps, check yes
  max neighbors/atom: 2000, page size: 100000
  master list distance cutoff = 3.8
  ghost atom cutoff = 3.8
  binsize = 1.9, bins = 8 8 8
  4 neighbor lists, perpetual/occasional/extra = 1 3 0
  (1) pair lj/cut, perpetual
      attributes: half, newton on
      pair build: half/bin/atomonly/newton
      stencil: half/bin/3d
      bin: standard
  (2) compute orientorder/atom, occasional
      attributes: full, newton on
      pair build: full/bin/atomonly
      stencil: full/bin/3d
      bin: standard
  (3) compute coord/atom, occasional
      attributes: full, newton on
      pair build: full/bin/atomonly
      stencil: full/bin/3d
      bin: standard
  (4) compute cluster/atom, occasional
      attributes: full, newton on
      pair build: full/bin/atomonly
      stencil: full/bin/3d
      bin: standard
Per MPI rank memory allocation (min/avg/max) = 9.814 | 9.819 | 9.823 Mbytes
Step Temp PotEng c_msd[4] v_twopoint v_fit v_max_n 
   12000    1.2748708   -2.6280055            0            0 8.3333333e+20            2 
   13000    1.2585859   -2.6627447    1.1137181 0.0071392184  0.095379993            2 
   14000    1.2704459   -2.6424667    2.3530039  0.014005975  0.098519592            1 
   15000    1.2422427   -2.6236416    3.5754513  0.019863617   0.10127939            3 
   16000    1.2265847   -2.5934627    4.6884657  0.024419091  0.099866848            2 
   17000     1.248776    -2.613799    5.8919908  0.028882307  0.099212273            2 
   18000    1.2262945   -2.6214739    7.0139919  0.032472184  0.098783634            2 
   19000    1.2554186   -2.6542106    8.1744762  0.035852965  0.098309882            1 
   20000    1.2498532   -2.6450259    9.3233563  0.038847317  0.097651804            3 
   21000    1.2423364   -2.6160159    10.474392  0.041565045  0.097166905            2 
   22000    1.2389273   -2.6647173    11.697815  0.044309904  0.097302213            1 
   23000    1.2505768    -2.638923    13.037372  0.047236854   0.09761539            1 
   24000    1.2529419   -2.6427866    14.319024  0.049718833  0.098389144            1 
   25000    1.2270019   -2.6273507     15.55635    0.0518545  0.099045108            3 
   26000     1.247846   -2.6533564    16.757631  0.053710355  0.099582646            2 
   27000    1.2405146   -2.6062058    17.967857  0.055456349  0.099907874            2 
   28000    1.2502208    -2.633701     19.18899  0.057110087   0.10009911            2 
   29000    1.2411243   -2.6154174    20.176345  0.057978002   0.10005362            1 
   30000    1.2172662   -2.6348025     21.65169  0.060143582   0.10010581            1 
   31000    1.2454445   -2.6068299    22.690446  0.060995821   0.10015743            2 
   32000    1.2357065   -2.6265514    23.889393  0.062211959   0.10015066            2 
   33000    1.2030661   -2.6441398    25.199874  0.063636044   0.10020351            2 
   34000    1.2381905   -2.6315135    26.602724  0.065202755   0.10039613            3 
   35000      1.25822   -2.6192536    27.867399  0.066350949   0.10056465            2 
   36000    1.2140224   -2.6464878    28.951616   0.06701763   0.10076891            1 
   37000    1.2480583   -2.6403526    30.652676  0.069037558   0.10111784            1 
   38000    1.2313931   -2.6458681    31.840104  0.069824788   0.10143366            2 
   39000    1.2486128   -2.6684248    33.165843  0.070867185   0.10180948            3 
   40000    1.2330932   -2.6458032    34.234441  0.071321752   0.10206163            1 
   41000     1.219539   -2.6159942    35.542527  0.072240908   0.10226053            1 
   42000    1.2546967   -2.6262731    36.691823  0.072801236   0.10236838            2 
   43000    1.2114954   -2.6131676    38.181781  0.073995699   0.10249375            1 
   44000    1.2554642   -2.6442228    39.545443  0.074896671   0.10270627            1 
   45000    1.2825239   -2.6584778    40.499906  0.074999825   0.10284994            1 
   46000    1.2072878   -2.6577456    41.819547  0.075760049   0.10290764            2 
   47000    1.2052767   -2.6461702    42.961002  0.076171989   0.10299166            2 
   48000    1.2169129   -2.6789472    44.214712  0.076761652   0.10302101            2 
   49000    1.2358431   -2.6475542    45.229495  0.076920908   0.10304965            1 
   50000     1.231908   -2.6413495     46.36142  0.077269033   0.10310014            3 
   51000    1.2350432   -2.6510683    47.962174  0.078369565   0.10312956            3 
   52000    1.2627368   -2.6520854    48.971091  0.078479312   0.10316887            1 
   53000    1.2474173   -2.6479163    50.785661  0.079851667   0.10324839            2 
   54000    1.2310034   -2.6213182    52.048412  0.080321623   0.10336793            2 
   55000    1.2198678   -2.6532048    53.654573  0.081294808   0.10355036            2 
   56000    1.2591323   -2.6473924    55.273234  0.082251835   0.10373944            1 
   57000    1.2294996   -2.6556106    56.376024  0.082421087   0.10395965            1 
   58000    1.2322894   -2.6434726    57.656796  0.082840223    0.1041728       -1e+20 
   59000    1.2191618   -2.6675945    59.205376  0.083623411   0.10437896            1 
   60000    1.2277823   -2.6626297    60.562481  0.084114556   0.10454078            2 
   61000    1.2278712   -2.6481057    61.241502  0.083663254   0.10467962            1 
   62000    1.2406329   -2.6394869    62.346258  0.083798733   0.10477977            3 
   63000    1.2502235   -2.6573457    63.984897  0.084636106   0.10484876            2 
   64000    1.2013549   -2.6816033    65.402348  0.085159307   0.10491998            2 
   65000     1.230377   -2.6645014    65.928741  0.084524027   0.10495954            1 
   66000     1.225542   -2.6464392    67.186568  0.084831524   0.10496992            1 
   67000    1.2072925   -2.6366067    68.698467  0.085445854   0.10500732            1 
   68000    1.2124211   -2.6799901    69.763438  0.085494409    0.1050257            2 
   69000    1.2419685   -2.6862547     71.06221  0.085823925   0.10507426            1 
   70000    1.2190227   -2.6545508    72.450292  0.086250347   0.10510834            3 
   71000     1.244379   -2.6577759    73.288674   0.08601957   0.10511245            1 
   72000    1.2183873   -2.6625232      74.7083  0.086467939    0.1050766            1 
   73000     1.224828   -2.6876532    76.414239  0.087230865   0.10508287            1 
   74000    1.2227832   -2.6813255    77.703813  0.087504293   0.10510153            3 
   75000    1.2292003     -2.66635    78.953011  0.087725567   0.10512274            2 
   76000    1.2316451   -2.6504603    79.857358  0.087562892   0.10513978            2 
   77000    1.2181798   -2.6449757    81.280118  0.087965496   0.10515288            1 
   78000    1.2297468   -2.6375071    82.940142  0.088611262    0.1051717            1 
   79000    1.2120411   -2.6695456    83.948025  0.088552768   0.10519084            3 
   80000    1.1893768   -2.6389679    85.255817  0.088808142   0.10519478            2 
   81000     1.204716    -2.611801    86.750513  0.089249498   0.10520448            1 
   82000    1.2418529   -2.6431526    87.499887  0.088922648   0.10520609            1 
   83000    1.2494988    -2.658046    88.429392   0.08878453   0.10518267            2 
   84000    1.1832399    -2.691957    89.462102  0.088752085   0.10515933            3 
   85000    1.2195655   -2.6291242    90.862618  0.089080998   0.10511721            1 
   86000    1.2397957   -2.6636152    92.371398  0.089507168   0.10508868            3 
   87000    1.2049319   -2.6812453    93.559695  0.089616566   0.10504772            1 
   88000    1.2207994   -2.6452243    95.915882  0.090829433   0.10505549            2 
   89000    1.2062765   -2.6805873    96.926487  0.090755137   0.10506654            2 
   90000    1.2117652   -2.6414947    97.933868  0.090679507   0.10507874            2 
   91000    1.2198266   -2.6732873    98.646783  0.090335882   0.10508516            2 
   92000    1.2279334   -2.6511094     100.3055  0.090856429   0.10507864            1 
   93000     1.186068   -2.6570463    101.11857  0.090608037   0.10507236            1 
   94000    1.2148464    -2.646555    102.48026   0.09085129   0.10507395            2 
   95000    1.2025554    -2.664657    103.60406  0.090880757   0.10506474            1 
   96000    1.2238684   -2.6789099    104.50682  0.090717728   0.10505573            2 
   97000    1.2113468   -2.6663799    106.56972  0.091554745   0.10504922            1 
   98000    1.2423664   -2.6826966    107.27982  0.091224339    0.1050594            2 
   99000    1.2276547   -2.6814694    108.65404  0.091459629   0.10505295            2 
  100000    1.2143658   -2.6635465    110.27346  0.091894551   0.10504658            1 
  101000    1.1970724   -2.6646505    110.90582  0.091506453   0.10501376            3 
  102000    1.2037725   -2.6517549     111.8053  0.091344197   0.10498541            1 
  103000    1.2365523   -2.6434672    113.17877  0.091568582    0.1049601            1 
  104000     1.194817   -2.6555207    114.78323  0.091973745   0.10494692            3 
  105000    1.2268614      -2.6913    116.13738   0.09217252   0.10494376            3 
  106000    1.2242678    -2.685097    117.78428    0.0925977    0.1049344            1 
  107000    1.2312128   -2.6695097    118.36188  0.092182148   0.10492159       -1e+20 
  108000    1.2024013   -2.6519764    119.63154  0.092308289   0.10492288            2 
  109000    1.2275279   -2.6830884    121.31396  0.092747677   0.10490392            3 
  110000    1.2142761   -2.6866937    122.03242  0.092448804   0.10488134            1 
  111000     1.206663   -2.6505694    122.91889  0.092281447   0.10485616            1 
  112000    1.2100821   -2.6756974    124.07298  0.092316203   0.10482101            1 
  113000     1.212907   -2.6767592    125.44863  0.092513741   0.10478037            2 
  114000    1.2096373   -2.6561693    127.35124  0.093093012     0.104736            2 
  115000     1.213372   -2.6855031    127.41739  0.092331439   0.10467777            1 
  116000    1.2097909   -2.6311231    128.71713  0.092469202   0.10463087            4 
  117000     1.195198   -2.7132347    129.89673  0.092519035   0.10458423            3 
  118000    1.2047012   -2.6588569    131.45458  0.092835157   0.10453151            1 
  119000    1.2147829   -2.6883848    132.13934  0.092534551   0.10446795            2 
  120000    1.2214959   -2.6504193    132.97653  0.092344814   0.10440462            1 
  121000    1.2024902   -2.6554747    134.44933  0.092595956   0.10433702            2 
  122000    1.1909673    -2.652224    135.78061  0.092746315   0.10428489            3 
  123000    1.1972207   -2.6859487     136.8377  0.092708465   0.10423723            2 
  124000    1.2103494   -2.6795417    138.06326   0.09278445   0.10418196            2 
  125000    1.2327099   -2.6694872    139.71684  0.093144557   0.10413628            1 
  126000     1.204742    -2.699964    140.75372  0.093091083   0.10410074            1 
  127000    1.1751851   -2.6687694    141.79734  0.093042874   0.10404819            2 
  128000    1.2081238   -2.7048839    143.26946  0.093274385   0.10399245            1 
  129000    1.2071445   -2.6484023    145.28115   0.09385087   0.10394041            2 
  130000    1.2281764   -2.6934241    145.11567  0.093022862   0.10389783            1 
  131000    1.2142795   -2.6884808    147.02891  0.093529842   0.10386782            2 
  132000    1.1743642   -2.7019713    147.69483  0.093241687   0.10382686            2 
  133000    1.2093033   -2.6677066    148.90121  0.093296495   0.10377722            2 
  134000    1.1994609    -2.681675    150.11096  0.093352586   0.10371909            1 
  135000     1.228762   -2.6755046    150.80673  0.093090574   0.10366103            3 
  136000    1.1905915    -2.660355     152.1234  0.093212866   0.10360114            1 
  137000    1.1927758    -2.690522    153.16884  0.093168392   0.10353555            3 
  138000    1.1944249   -2.6690236    154.74431   0.09344463   0.10347974            2 
  139000    1.1861875   -2.6521335    155.87337  0.093449261   0.10341656            1 
  140000    1.2270761    -2.675652    156.21089   0.09298267   0.10333863            2 
  141000    1.1655459   -2.6585057    157.52492  0.093099832   0.10326771            1 
  142000    1.2242915   -2.6868939    157.77973  0.092593741    0.1031955            1 
  143000    1.1822512   -2.6969854    159.41907  0.092901554   0.10310836            1 
  144000    1.2076899    -2.684356     160.5326  0.092900811   0.10303029            2 
  145000    1.1803832     -2.71784    161.91179  0.093052752   0.10295469            3 
  146000    1.1841544   -2.6726451    163.08039  0.093082416   0.10288953            1 
  147000     1.193012   -2.6734937    163.33937  0.092596015    0.1028162            3 
  148000    1.2142612   -2.6756166    164.56113  0.092658296   0.10273463            1 
  149000    1.2003111   -2.6720519    165.98548  0.092833044   0.10265025            2 
  150000    1.1862166   -2.7111052    166.61843  0.092565793   0.10256567            2 
  151000    1.1962795   -2.6420989    168.65335  0.093075798   0.10248681            1 
  152000    1.1923449   -2.6656247    169.39324  0.092869098   0.10239869            2 
  153000    1.1745613   -2.6889335    169.16216  0.092136252   0.10229858            1 
  154000    1.1841116   -2.6721727    170.49957  0.092261672   0.10219153            1 
  155000     1.214774   -2.6880293     171.7617  0.092344998   0.10208551            2 
  156000    1.1952937   -2.7051748    171.70939  0.091725103   0.10197674            1 
  157000    1.1898392   -2.7197478    173.14054    0.0919005   0.10186311            1 
  158000    1.2003327   -2.7110224    175.74695  0.092693538   0.10174782            1 
  159000    1.1790006   -2.6719272    176.16254  0.092328376   0.10164063            1 
  160000    1.1827717    -2.690223     176.9157  0.092143596   0.10154034            2 
  161000    1.1877229   -2.7011653    176.83896  0.091531552   0.10143896            1 
  162000    1.1881478   -2.6852075    180.38913  0.092792761   0.10134743            1 
  163000    1.1791881    -2.683468    181.96508  0.093029179   0.10127353            2 
  164000    1.1706261   -2.6633906    183.77434  0.093381269   0.10120506            2 
  165000    1.2114199   -2.6844008     184.1902  0.093025352   0.10113907            1 
  166000    1.2121775   -2.7090636    186.41714  0.093582903   0.10109066            2 
  167000    1.1733943    -2.700807    185.89052  0.092759739   0.10103918            2 
  168000    1.2102648   -2.6817829    188.82284  0.093662122     0.100996            1 
  169000    1.1807226   -2.7041903    189.10077  0.093244954   0.10094529            3 
  170000    1.2001386   -2.7072545    190.12132  0.093196726   0.10090043            2 
  171000      1.20182   -2.7446901    191.24344  0.093198559   0.10085638            1 
  172000    1.1953226   -2.7283443    192.12202  0.093082375   0.10080466            3 
  173000     1.186196   -2.6908871    192.68152  0.092813835   0.10074388            4 
  174000    1.1947097   -2.7251764    193.06713  0.092465103   0.10067182            2 
  175000    1.1841914   -2.7138098    193.71958  0.092247417   0.10059015            1 
  176000    1.1752976   -2.6684257    195.60018   0.09261372   0.10051363            1 
  177000    1.1832448   -2.7397352    196.55285  0.092539005   0.10043857            2 
  178000    1.2119031   -2.6833131     198.0395   0.09271512   0.10036738            2 
  179000    1.1934373   -2.7111891    199.22747  0.092750217   0.10030111            2 
  180000    1.1891384   -2.7132991    199.59201  0.092403709   0.10023226            1 
  181000     1.179103    -2.691446    201.75872  0.092890755   0.10017312            3 
  182000    1.2013996   -2.7035913    202.90693  0.092906101   0.10011165            1 
  183000    1.1742291   -2.7025178    203.21894  0.092540502   0.10004576            1 
  184000    1.1686397    -2.727454    203.82803   0.09231342  0.099988997            2 
  185000    1.1762025   -2.7106881    206.25794  0.092908981  0.099930191            2 
  186000     1.172158   -2.6983618    207.90499  0.093147396  0.099876136            3 
  187000    1.1672073   -2.7000886    208.30579   0.09282789   0.09982112            2 
  188000    1.1765633   -2.7183639    210.53889  0.093323975  0.099765366            1 
  189000    1.1555496   -2.6787686    210.55969   0.09283937    0.0997134            2 
  190000    1.1751727   -2.6786805     212.6282  0.093257982  0.099669993            2 
  191000    1.1913112   -2.7203217    213.17707  0.093009193  0.099627819            1 
  192000    1.1859321   -2.6911526    214.58708  0.093136751  0.099576593            2 
  193000    1.1774387   -2.7253971    214.80387  0.092747784  0.099525653            1 
  194000    1.1960903   -2.7303091    216.33343  0.092926732  0.099474591            1 
  195000    1.1885802   -2.6930745    216.95695  0.092716645  0.099430462            2 
  196000    1.1642522   -2.7154667    218.79214  0.093023867  0.099382839            2 
  197000    1.1543033   -2.6751866    218.97309  0.092628212  0.099330353            1 
  198000    1.1510821   -2.7232625    220.69758  0.092886187  0.099279476            7 
  199000      1.17932   -2.7455271    221.02154  0.092555083  0.099226785            3 
  200000    1.1588089   -2.7056229    223.47966  0.093116523  0.099180045            2 
  201000    1.1982601    -2.706951    223.85801  0.092810121  0.099136746            2 
  202000    1.1557438   -2.7128794    225.37093  0.092974805  0.099090537            1 
  203000    1.1833251   -2.7102066    226.68942  0.093058053  0.099045449            1 
  204000    1.1721437   -2.7443525    227.09939  0.092769358  0.099003978            1 
  205000    1.1945487   -2.7279448    228.38705  0.092840263  0.098955498            1 
  206000    1.2029783     -2.71679    229.06382  0.092663359  0.098911445            1 
  207000    1.1940552   -2.7176577    230.07935  0.092624537  0.098857833            1 
  208000    1.1638624   -2.7264714    232.22824  0.093040161  0.098807657            1 
  209000    1.1761395    -2.736188    232.77263  0.092812055  0.098763485            2 
  210000    1.1585122   -2.7251767    234.05304   0.09287819  0.098721813            1 
  211000    1.1450273   -2.7545569    234.98551  0.092806282  0.098677949            1 
  212000    1.1508235   -2.6892328    235.66069  0.092633918  0.098635277            3 
  213000    1.1791181   -2.6862711    238.15834   0.09317619  0.098603455            1 
  214000    1.1730261   -2.7164319    240.61065  0.093695737  0.098572988            1 
  215000    1.1732623   -2.7163333    240.85748   0.09335561   0.09854272            3 
  216000    1.1834045   -2.7183174    240.64261  0.092840512  0.098508107            1 
  217000    1.1787412   -2.7206451    241.52293   0.09275074  0.098468813            1 
  218000    1.1894156   -2.6958371    243.25258  0.092986458  0.098432238            1 
  219000    1.1466018   -2.6924991    244.39677  0.092997248  0.098393755            1 
  220000    1.1571493   -2.7280823    244.81803  0.092734102  0.098346987            1 
  221000    1.1829187   -2.7165881    245.59443  0.092607252  0.098297302            2 
  222000     1.189777   -2.7174624    247.40163  0.092868478  0.098251187            2 
  223000    1.1582891   -2.7416348    246.64535  0.092169415  0.098200508            2 
  224000    1.1530914    -2.733391    247.87207  0.092214312    0.0981503            1 
  225000    1.1654468   -2.7329941    250.08261  0.092623187  0.098101493            2 
  226000    1.1778954   -2.7246258    251.73313  0.092821952  0.098060432            1 
  227000    1.1693492   -2.7089609     252.7141  0.092773166  0.098024319            1 
  228000    1.1858035   -2.7207177    253.32672  0.092590175  0.097987547            2 
  229000    1.1481479    -2.711666    255.94806  0.093139759  0.097949969            1 
  230000    1.1916871   -2.7070194    256.54988  0.092952854  0.097912912            2 
  231000     1.161604   -2.7186624    257.79956  0.093001284  0.097877525            2 
  232000    1.1768235   -2.7281683    257.87481  0.092627447  0.097839314            2 
  233000    1.1502107   -2.7171539    259.30328  0.092740801  0.097797667            2 
  234000    1.1707647   -2.7244487    261.45178  0.093109606  0.097758807            2 
  235000    1.1833585   -2.7160781     261.3621  0.092681597  0.097725066            1 
  236000     1.145529   -2.6990579    264.33211  0.093337608  0.097694234            2 
  237000    1.1540936   -2.7336087    262.33626  0.092242003  0.097656762            2 
  238000    1.1477949    -2.703685    265.24158  0.092871702  0.097624558            2 
  239000    1.1562017   -2.7366595    266.71057  0.092995317  0.097592824            1 
  240000    1.1583014   -2.7251958     266.6114  0.092573402  0.097554097            1 
  241000    1.1516736   -2.7519823     268.4671  0.092830949  0.097521424            2 
  242000    1.1383992   -2.7305497     269.7825  0.092900309  0.097491379            1 
  243000     1.147591   -2.7233941    270.69609  0.092831306  0.097462948            2 
  244000    1.1777426   -2.7500732    272.51882  0.093073367  0.097437728            1 
  245000     1.144879   -2.7256159    273.50721  0.093029662  0.097411842            4 
  246000    1.1706901   -2.7235683     274.0723  0.092842921  0.097381484            1 
  247000    1.1324652   -2.7273831     276.0427  0.093131814  0.097349717            1 
  248000    1.1861898   -2.7200093    276.49265  0.092907476  0.097318571            1 
  249000    1.1462355   -2.7556907    277.89394  0.093003327  0.097287095            3 
  250000    1.1670453   -2.7265261     277.8193  0.092606435  0.097258678            2 
  251000    1.1623658   -2.7132288    279.35923  0.092748749  0.097235909            2 
  252000    1.1327415   -2.7318487    281.31785  0.093028389  0.097208311            2 
  253000    1.1740801   -2.7320333    282.63516  0.093094584  0.097187138            1 
  254000    1.1284775   -2.7414078    284.68038  0.093399076  0.097164956            1 
  255000    1.1301137   -2.7239749    285.54801  0.093316345  0.097146377            1 
  256000    1.1500258   -2.7161976    285.76502  0.093022469   0.09712845            1 
  257000    1.1475076   -2.7457798    285.67848  0.092632451  0.097104201            3 
  258000     1.153068   -2.7459889    288.39348   0.09315035  0.097076028            3 
  259000    1.1399795   -2.7704773    288.74714  0.092904485  0.097048525            2 
  260000    1.1642513   -2.7413561    289.46654  0.092777736  0.097020241            1 
  261000    1.1545826   -2.7367209    289.68872  0.092493206  0.096989202            3 
  262000     1.146669   -2.7633462    289.57618  0.092104384   0.09695368            3 
  263000    1.1342935   -2.7065023     291.5189  0.092369741  0.096915682            2 
  264000    1.1422812   -2.7399513    291.15366  0.091904564  0.096879895            2 
  265000    1.1437161   -2.7524704    295.00246  0.092768069  0.096848217            2 
  266000     1.171988   -2.7460078    296.53342   0.09289894  0.096818206            2 
  267000    1.1285597   -2.7829278    295.72971  0.092300159  0.096786569            1 
  268000    1.1562951   -2.7426854    297.32909  0.092453074  0.096750779            3 
  269000    1.1067476   -2.7488915    297.34376  0.092113928  0.096711168            1 
  270000    1.1547488   -2.7312967    299.49585   0.09243699  0.096669985            1 
  271000    1.1476486   -2.7491432    299.91622   0.09222516  0.096630269            3 
  272000    1.1380717   -2.7503452    300.27834  0.091997039  0.096594688            2 
  273000    1.1529332   -2.7462288    302.40729  0.092309916  0.096557949            1 
  274000    1.1245479    -2.730283    303.66314  0.092354969  0.096519123            2 
  275000    1.1633066   -2.7251813    304.99559  0.092422906   0.09648253            5 
  276000    1.1399374   -2.7588764    305.04194  0.092102034   0.09644831            1 
  277000    1.1321533   -2.7455577    306.89528  0.092327099  0.096408934            1 
  278000    1.1171556   -2.7432898    306.29103  0.091813857  0.096371656            2 
  279000    1.1425345   -2.7495322    308.05724  0.092012318  0.096333423            1 
  280000    1.1513163   -2.7341207    308.75641  0.091891789  0.096291837            1 
  281000    1.1399627   -2.7643967    309.78737  0.091870514   0.09625402            2 
  282000    1.1287507   -2.7242458    312.15943  0.092245696  0.096218122            3 
  283000     1.121537   -2.7703701     311.1807  0.091631538  0.096181476            2 
  284000    1.1429344   -2.7535352    314.20877  0.092197408  0.096142918            3 
  285000    1.1558926    -2.735032    314.89842  0.092075561  0.096108667            1 
  286000    1.1252538   -2.7469571    315.99608   0.09207345  0.096075958            2 
  287000     1.124484   -2.7301648    318.68555   0.09253355  0.096046028            1 
  288000    1.1383203   -2.7565756    320.06424   0.09261118  0.096019023            1 
  289000    1.1441332   -2.7509047    319.82037  0.092220407   0.09599119            2 
  290000    1.1401362   -2.7266717    319.41097   0.09178476   0.09596111            2 
  291000    1.1228203   -2.7619125    321.67633  0.092118078  0.095929934            4 
  292000    1.1598238   -2.7810292    321.86708  0.091857042  0.095895325            2 
  293000     1.147565   -2.7336114    322.83556  0.091818986  0.095862245            4 
  294000    1.1432694    -2.744173    325.39035  0.092230824  0.095827966            1 
  295000     1.127392   -2.7544264     325.0145  0.091812005  0.095792079            3 
  296000    1.1292243   -2.7414182    325.69658  0.091693857  0.095755122            2 
  297000    1.1325883   -2.7330465    327.65394  0.091934327  0.095714911            1 
  298000    1.1249981   -2.7721181    326.82401  0.091393739  0.095672759            2 
  299000    1.1264421   -2.7527099    329.27496  0.091771171  0.095630712            3 
  300000    1.1285561   -2.7520808     329.8723  0.091631196  0.095593441            3 
  301000    1.1329968   -2.7756152    331.39857  0.091749327  0.095555795            2 
  302000    1.1376151   -2.7730482     332.6942  0.091803035  0.095518065            2 
  303000    1.1572221   -2.7643271    333.17619  0.091632617  0.095481878            2 
  304000    1.1345176   -2.7720979    333.76585  0.091492832  0.095444408            4 
  305000    1.0992852   -2.7782391    335.81893  0.091753807  0.095408962            1 
  306000    1.1336706   -2.7494413    336.93115  0.091756848  0.095372131            2 
  307000     1.125964   -2.7424114    336.59192  0.091365885  0.095330555            1 
  308000    1.1371611     -2.75899    337.14388  0.091218581  0.095289238            1 
  309000    1.1261129   -2.7616721    337.92097  0.091132947  0.095247535            2 
  310000    1.1531374   -2.7742595    340.51182  0.091535435  0.095204474            2 
  311000    1.1179393    -2.769711    338.76279  0.090772453  0.095158419            2 
  312000    1.1115182   -2.7697085    341.61812  0.091244156  0.095112731            2 
  313000    1.1107747   -2.7696953    341.78351  0.090996673  0.095070771            1 
  314000    1.1555637   -2.7743662    342.74937  0.090963208  0.095026212            2 
  315000    1.1334156   -2.7574544    343.25108  0.090807165   0.09498444            4 
  316000    1.1105702   -2.7483559    345.93073  0.091226458  0.094941546            2 
  317000    1.1292106   -2.7574127    347.43347   0.09133372  0.094898086            2 
  318000    1.1380646   -2.7849175    345.92967  0.090652428  0.094855993            2 
  319000    1.0892907   -2.7405143    349.86678  0.091396756  0.094812859            1 
  320000    1.1296534   -2.7926044    349.14666   0.09092361  0.094774062            1 
  321000    1.1072896   -2.7596688    350.62068  0.091023021  0.094738431            3 
  322000    1.1375915   -2.7442166    350.37469   0.09067668  0.094698907            1 
  323000     1.131163   -2.7935978    351.91003  0.090792062  0.094657006            1 
  324000    1.1143966   -2.7759437     352.8212  0.090746194  0.094614133            1 
  325000    1.1288002   -2.7682732    351.98835  0.090253423  0.094572757            1 
  326000     1.110394   -2.7874373    354.40851  0.090595222  0.094531712            2 
  327000    1.1189357    -2.734768    357.58812  0.091128471  0.094494626            3 
  328000    1.1151891    -2.754178    358.22829  0.091013285  0.094456563            1 
  329000    1.0956211   -2.7684679    358.39563  0.090779034  0.094416927            3 
  330000    1.1201226   -2.7531722    362.11402  0.091442933  0.094379085            1 
  331000    1.1263819   -2.7857402    360.96736  0.090877985  0.094346391            1 
  332000    1.1258606   -2.7682005    363.55845  0.091254631  0.094315269            1 
  333000    1.1294496   -2.7791506    363.88713  0.091062845  0.094282234            2 
  334000    1.1035519   -2.7836965     364.8283  0.091025025  0.094250585            2 
  335000    1.1510807   -2.7513656    365.21623  0.090849808   0.09421619            1 
  336000    1.1235367   -2.7897607    366.38035  0.090868143  0.094185508            3 
  337000    1.1026251   -2.7726533    367.14099  0.090786594  0.094152955            4 
  338000    1.0991044   -2.7747634    367.91963  0.090709968  0.094118724            2 
  339000    1.1022504   -2.7721048    370.20517  0.091004221  0.094087024            1 
  340000    1.1217928   -2.7684804    369.22425  0.090496139  0.094052063            1 
  341000    1.1067786   -2.7646932    373.30927  0.091229049  0.094019633            1 
  342000    1.1289665    -2.801645    373.32326  0.090965707  0.093989068            2 
  343000    1.0919895   -2.7677722    373.69155  0.090789978   0.09395896            2 
  344000    1.0920741   -2.7778898    375.90907  0.091063245  0.093927288            1 
  345000    1.1219797   -2.7831255    375.53483  0.090708895  0.093896497            2 
  346000    1.1266066   -2.7839282    378.53566  0.091169476  0.093867673            1 
  347000    1.0884945   -2.7818577    378.56868  0.090914668  0.093840259            2 
  348000    1.1094311   -2.8017168    379.37954  0.090847592  0.093810467            1 
  349000     1.132528   -2.7899102    379.35191  0.090580685  0.093785259            1 
  350000    1.1091787   -2.7852637    382.95239  0.091179139  0.093758124            3 
  351000    1.1144255   -2.7899245    382.79609  0.090882262  0.093730358            2 
  352000    1.1249467    -2.761103     382.9939  0.090670905  0.093704101            2 
  353000    1.1058515    -2.792306    383.98093  0.090647056  0.093677948            2 
  354000    1.1195901   -2.7611603    387.86021  0.091304191  0.093652843            2 
  355000    1.1249469   -2.7912388    387.68746  0.091006445  0.093625392            1 
  356000    1.1112205   -2.7725622    388.18648  0.090867621  0.093598568            1 
  357000    1.1232049   -2.7687897    386.95063  0.090324609  0.093570793            3 
  358000    1.0998023   -2.8137392    390.24733  0.090839696   0.09354148            3 
  359000    1.0994989   -2.7822214    389.75218  0.090471722  0.093511416            3 
  360000    1.1001403   -2.7767942    391.15926  0.090546125   0.09348115            1 
  361000    1.0900175   -2.7888093    394.80096  0.091135955  0.093450252            1 
  362000    1.1204566   -2.8062552    392.57179  0.090371037  0.093418244            1 
  363000    1.1204429   -2.8000273    396.08883  0.090929483  0.093384947            2 
  364000    1.1110382   -2.7910274    395.88396  0.090632775  0.093355229            2 
  365000    1.0795409   -2.8051339    397.94836  0.090855789  0.093325209            2 
  366000    1.0952041    -2.789182    396.73339  0.090330917   0.09329311            1 
  367000    1.1007551   -2.8013092    398.01283  0.090375302  0.093260697            2 
  368000    1.0822033   -2.8135157    399.27596  0.090415752   0.09322944            2 
  369000    1.1146168    -2.787025    401.30638  0.090629263  0.093200073            4 
  370000    1.1236689   -2.7814211    401.16824  0.090353206  0.093167627            1 
  371000    1.1150515   -2.7839656    401.12083  0.090099018  0.093135629            3 
  372000    1.1162002   -2.8022357    402.91198  0.090258059  0.093102171            1 
  373000    1.1036275   -2.7552584    404.97828  0.090477721  0.093070574            2 
  374000    1.1027794   -2.8123046    405.33685  0.090315697  0.093039858            3 
  375000    1.0919699   -2.7768926    405.80008  0.090177796  0.093007035            2 
  376000    1.1143029   -2.8074528     407.5411  0.090323824  0.092974898            1 
  377000    1.1126576   -2.8072033    407.87514  0.090158076  0.092944726            2 
  378000    1.1233988    -2.751898    409.27878  0.090229008  0.092914084            1 
  379000    1.0974475    -2.807772    409.55462  0.090051587  0.092882324            2 
  380000     1.099909   -2.7972072    409.88179  0.089886358  0.092852157            1 
  381000     1.118276   -2.7784754    410.95369  0.089884884  0.092817761            2 
  382000    1.1323763   -2.7625709    413.81758   0.09027434  0.092785762            2 
  383000    1.0966639   -2.8021057    414.53443  0.090194609  0.092755637            1 
  384000    1.1377784   -2.8100304    413.87426  0.089816462  0.092724267            4 
  385000    1.1155182   -2.7939418    416.67813   0.09019007  0.092691894            1 
  386000    1.0925734   -2.8122808    416.21646  0.089856748   0.09266074            6 
  387000    1.0737614   -2.8025262    418.10437  0.090031087  0.092629857            2 
  388000    1.1101132   -2.8029958    417.06118  0.089574996  0.092597181            1 
  389000    1.0830465   -2.7844377     422.2699  0.090460561  0.092565215            2 
  390000    1.1199112   -2.7972691    418.65101  0.089455344  0.092534073            1 
  391000     1.092651   -2.8060405    421.64218  0.089864061  0.092501749            4 
  392000    1.0870195   -2.8016947    422.10949   0.08973416  0.092468555            3 
  393000    1.0996568   -2.7966308    421.22852  0.089319024  0.092436078            3 
  394000    1.0946893   -2.8000616    425.37224  0.089968748  0.092403659            2 
  395000    1.0739291   -2.7964676    424.85769  0.089632425  0.092374263            3 
  396000    1.1118165   -2.7804707     426.9416  0.089844612  0.092341799            2 
  397000    1.1206253   -2.7895693    429.28257  0.090109692   0.09231193            1 
  398000      1.09464   -2.8054122    428.70133  0.089761585  0.092280291            1 
  399000    1.1214373   -2.7902545    429.52188  0.089707995  0.092246145            3 
  400000    1.1053717    -2.814563    429.35533  0.089449027  0.092212425            4 
  401000    1.1018725   -2.8093962    428.59017  0.089066952  0.092177355            1 
  402000    1.1107144   -2.8006647    432.10918  0.089574871   0.09214217            2 
  403000    1.1107209    -2.804683    430.92234  0.089107184  0.092105192            2 
  404000    1.1107076   -2.7873049      433.597  0.089438325  0.092069173            1 
  405000     1.105282   -2.7993412     434.1092  0.089322882  0.092034937            2 
  406000    1.0677274   -2.8212153    435.54688  0.089397964   0.09200234            3 
  407000    1.0762835   -2.7978172    436.25545  0.089323392  0.091970744            3 
  408000    1.0977189   -2.7852121    439.70651  0.089809337  0.091939043            2 
  409000    1.1013726   -2.7640498    439.11812   0.08946987  0.091910941            1 
  410000    1.0970183   -2.7798161    439.22433  0.089273237  0.091879428            3 
  411000    1.0879527    -2.827394    440.47922  0.089310466  0.091847813            2 
  412000    1.0715526   -2.8169826    440.03581  0.089004008  0.091814755            1 
  413000    1.0950313   -2.8009242     442.8401  0.089354338  0.091781456            3 
  414000     1.079975   -2.8054347    441.15176  0.088798663  0.091746743            2 
  415000    1.0731384   -2.8202318    442.41711  0.088838776  0.091710994            3 
  416000    1.0870346   -2.8012384    444.36926  0.089016277  0.091676814            3 
  417000    1.0832561   -2.8201741    444.08497  0.088745998  0.091641578            2 
  418000    1.0816306   -2.7927778    446.03205   0.08892186  0.091608712            2 
  419000    1.1225418   -2.8184206    447.20643  0.088943204  0.091573381            3 
  420000    1.0850711   -2.8284426    449.27835   0.08914253  0.091539318            3 
  421000    1.1069837   -2.7981518    449.95348  0.089064425  0.091504332            1 
  422000    1.1011972   -2.8024126    449.19486  0.088703566  0.091466395            1 
  423000     1.081889   -2.8012705    448.11462  0.088281053  0.091428542            1 
  424000    1.0810356   -2.8060221    451.11474  0.088662488  0.091389112            3 
  425000      1.05762   -2.8320259    451.34531   0.08849908  0.091347856            2 
  426000    1.0857109   -2.8128845    450.72709  0.088170401  0.091307001            3 
  427000    1.0935423   -2.8172283     451.8251    0.0881782  0.091265553            2 
  428000    1.0639123   -2.8035606      453.649  0.088327298  0.091223408            5 
  429000    1.0942395   -2.8291825    452.78685  0.087953934  0.091184055            1 
  430000    1.0552031   -2.8443316    454.23346   0.08802974  0.091143087            2 
  431000    1.0983133   -2.8241842    455.61976  0.088093535  0.091102596            2 
  432000    1.0759105   -2.8241388    456.24015  0.088009288  0.091062378            2 
  433000    1.0750373   -2.8446403    455.93365  0.087747046  0.091022742            4 
  434000    1.0614084   -2.8201518    459.26673  0.088184855  0.090982232            1 
  435000     1.068792    -2.840506    460.48693  0.088215886  0.090944983            1 
  436000     1.103399   -2.8311717    462.93579  0.088481611  0.090907228            1 
  437000      1.07961   -2.8280493    463.47844  0.088382617  0.090870388            1 
  438000    1.0909405   -2.8114356    465.11162  0.088491557  0.090834009            1 
  439000    1.0705007   -2.8425593    466.24575  0.088505267  0.090798837            1 
  440000    1.0837116   -2.8352255    465.00023  0.088068225  0.090764213            1 
  441000    1.0786588   -2.8248177    465.62543  0.087986665  0.090727881            1 
  442000    1.0663712   -2.8336011    465.82401   0.08782504  0.090689224            3 
  443000    1.0799152   -2.8493615    466.49867    0.0877537  0.090649508            3 
  444000    1.0851265   -2.7950463      471.557  0.088505443  0.090608512            3 
  445000    1.0867517   -2.7959645    470.83535  0.088171414  0.090570759            6 
  446000    1.0812735   -2.8299156    469.05899  0.087641814  0.090530087            2 
  447000    1.0757423   -2.8410869    470.25036  0.087667852  0.090490189            1 
  448000    1.0829673   -2.8220715    469.38366  0.087310948  0.090451155            1 
  449000    1.0869218   -2.8344097    473.16952  0.087819139  0.090411284            2 
  450000    1.0638383   -2.8352172    472.31589  0.087465906  0.090370561            3 
  451000    1.0626377   -2.8180871    473.12691  0.087421824  0.090329171            4 
  452000    1.0717581   -2.8294061    475.18969  0.087608718  0.090291138            5 
  453000    1.0835227   -2.8115423    476.49634  0.087655691  0.090252003            1 
  454000    1.0875778   -2.8453286    474.46432  0.087089632  0.090211699            1 
  455000    1.0656267    -2.837163    478.04049  0.087553204  0.090170201            4 
  456000    1.0557946   -2.8601679    478.87637  0.087513957  0.090128951            5 
  457000    1.0748849   -2.8176934    479.37032  0.087412532  0.090087886            1 
  458000    1.0750686   -2.8245219    479.30527  0.087209839   0.09004822            2 
  459000    1.0506952   -2.8116348    481.43497  0.087406494  0.090006809            2 
  460000    1.0652334   -2.8282574    480.41673  0.087032016  0.089966637            3 
  461000    1.0663938   -2.8333178    481.78453  0.087090479  0.089925397            2 
  462000    1.0638889   -2.8366275    483.03467  0.087127465  0.089882658            1 
  463000    1.0607083   -2.8341713    483.16644  0.086963002  0.089843201            3 
  464000    1.0404149   -2.8496959    486.66619  0.087404129  0.089803921            3 
  465000    1.0803864   -2.8190731    485.71227   0.08704521  0.089765224            3 
  466000    1.0422241   -2.8262858    487.85879  0.087242273  0.089727018            2 
  467000    1.0745679   -2.8253105    490.02043   0.08744119  0.089689628            1 
  468000    1.0799399    -2.865869    489.12194  0.087094362  0.089650875            2 
  469000    1.0553464   -2.8215629    489.31857  0.086943598  0.089611483            1 
  470000    1.0871872   -2.8287749    490.53962  0.086975109  0.089571981            2 
  471000    1.0885002    -2.834183    490.43037  0.086771119  0.089531013            3 
  472000    1.0404211   -2.8032899    492.52692  0.086957437   0.08949225            2 
  473000    1.0817955   -2.8429901    495.58826  0.087312942  0.089453633            1 
  474000    1.0747033   -2.8597448    493.40376  0.086744684  0.089413162            3 
  475000    1.0608427   -2.8365094    492.56827  0.086415487  0.089372315            1 
  476000    1.0668667   -2.8314428    495.91544   0.08681993  0.089330523            2 
  477000    1.0501762   -2.8401892     494.4123  0.086375314  0.089287212            4 
  478000    1.0322102   -2.8489783    496.63022  0.086581279  0.089245652            2 
  479000    1.0935028   -2.8471558    498.55843  0.086735983  0.089204609            2 
  480000    1.0611873    -2.842883    498.54321  0.086552641  0.089164294            2 
  481000    1.0613814   -2.8286213    500.69741  0.086745913  0.089123486            1 
  482000    1.0302089   -2.8240258    500.92618  0.086605495  0.089081851            4 
  483000    1.0696679   -2.8491841    501.27612  0.086486564  0.089039819            2 
  484000    1.0575902   -2.8459562    501.14664  0.086285579  0.088997339            2 
  485000    1.0694569   -2.8291908    501.25421  0.086126152  0.088952176            1 
  486000    1.0505316   -2.8126662    504.10322  0.086437452  0.088909948            3 
  487000    1.0513301   -2.8194672    505.03257  0.086418988   0.08886812            1 
  488000    1.0665835   -2.8434081    503.83385  0.086037202  0.088825221            1 
  489000    1.0962151   -2.8625378    504.55866  0.085984774  0.088783666            4 
  490000    1.0619718    -2.840191     506.7116  0.086175442  0.088742234            1 
  491000    1.0572789   -2.8381149    507.56943  0.086145524   0.08870048            2 
  492000    1.0484179   -2.8219155     507.4368  0.085947968  0.088659063            2 
  493000    1.0518932    -2.848822    510.46007  0.086284663  0.088619659            5 
  494000    1.0793632   -2.8208122     511.8969  0.086352379  0.088581079            2 
  495000    1.0495122   -2.8265339    513.77368  0.086493886  0.088541465            3 
  496000    1.0434104   -2.8603095    512.29566  0.086071179   0.08850199            1 
  497000    1.0374089   -2.8145746    511.78096  0.085811698  0.088462912            2 
  498000    1.0493702   -2.8522775    514.80268  0.086145026  0.088423697            2 
  499000    1.0465107   -2.8576755     513.0697  0.085682983  0.088383793            1 
  500000    1.0620865    -2.851154    515.41006  0.085901676   0.08834349            5 
  501000    1.0591663   -2.8558583    516.25944  0.085871497  0.088303105            2 
  502000    1.0594671   -2.8793901    516.57131  0.085752209  0.088264817            3 
  503000    1.0290518   -2.8523595    518.08849  0.085833083  0.088224609            2 
  504000     1.051264   -2.8767188     515.1198  0.085171924  0.088184933            3 
  505000    1.0497458   -2.8562361    518.90997  0.085628707  0.088144397            2 
  506000    1.0550171    -2.854448     520.8319  0.085776004  0.088103245            2 
  507000    1.0701888   -2.8286488    522.06574  0.085809622  0.088063808            2 
  508000    1.0332008   -2.8538908    524.72628  0.086077146  0.088026893            1 
  509000    1.0382786   -2.8146856    525.31817   0.08600494  0.087988065            1 
  510000    1.0713379   -2.8702415    524.23413  0.085659172  0.087951293            1 
  511000     1.038673   -2.8808461    524.63069  0.085556211  0.087914231            3 
  512000    1.0548949   -2.8452992    527.45023  0.085848019  0.087876014            2 
  513000    1.0726241   -2.8497751    527.83716  0.085743528  0.087838621            3 
  514000    1.0193348    -2.857392     526.8327  0.085413862  0.087800522            4 
  515000    1.0236869   -2.8567718    528.65235  0.085542451  0.087761446            3 
  516000    1.0602463   -2.8543955    528.97281  0.085428426  0.087722827            2 
  517000    1.0399318   -2.8670657    530.89409  0.085572871  0.087682892            1 
  518000    1.0460292    -2.861175    533.38607   0.08580857  0.087644858            4 
  519000    1.0489507   -2.8593097    529.66962  0.085046504   0.08760654            1 
  520000    1.0273998    -2.863662    532.02864  0.085260999  0.087567344            1 
  521000    1.0405343   -2.8527008    533.41017  0.085318325  0.087526511            3 
  522000    1.0261655   -2.8455991    531.65613  0.084874861  0.087486183            4 
  523000    1.0168548   -2.8410061    537.13864  0.085586144  0.087447827            2 
  524000    1.0335903   -2.8561013    533.61661  0.084862692  0.087408655            2 
  525000     1.048973   -2.8432071    539.03772  0.085561542  0.087372461            2 
  526000    1.0378469   -2.8667773    537.03376  0.085081395  0.087335577            5 
  527000    1.0297115   -2.8632621    539.19606  0.085261869  0.087296833            2 
  528000    1.0638664   -2.8526686    540.21807   0.08526169  0.087259517            2 
  529000    1.0447598    -2.850433    541.22957  0.085259857  0.087223719            2 
  530000    1.0455635   -2.8927818    542.63026  0.085319223  0.087189079            2 
  531000    1.0491538   -2.8868923    542.75564  0.085178224  0.087152948            3 
  532000    1.0364271   -2.8750167    544.05572  0.085221761  0.087116114            3 
  533000    1.0548431    -2.837629    543.07541  0.084908601  0.087078014            1 
  534000    1.0422713   -2.8570067    541.77733  0.084547024  0.087040731            1 
  535000     1.018451     -2.85944    545.99954  0.085046657  0.087002909            2 
  536000    1.0450838   -2.8770675    544.60996  0.084671947  0.086965535            1 
  537000    1.0236142   -2.8624272    547.57742  0.084974771  0.086928378            1 
  538000    1.0268427     -2.88619    547.24831  0.084765847  0.086892064            1 
  539000    1.0303303   -2.8563709    550.63219  0.085131755  0.086855848            2 
  540000     1.042255   -2.8540191    551.56521  0.085118088  0.086821421            3 
  541000     1.043904   -2.8530319    551.49866  0.084950501  0.086785996            5 
  542000    1.0311866   -2.8629445    551.94755  0.084862784  0.086749971            2 
  543000    1.0493068   -2.8770917    552.09438  0.084729033  0.086713081            5 
  544000    1.0221596   -2.9095187     552.6247  0.084654518  0.086676759            1 
  545000    1.0347285   -2.8875792    551.71222  0.084359667   0.08663921            2 
  546000    1.0214867    -2.889745    552.89742  0.084386053  0.086600256            3 
  547000    1.0539565   -2.8713985    553.52783  0.084327822   0.08656068            2 
  548000    1.0299876   -2.8635868    555.65144  0.084496874  0.086520657            2 
  549000    1.0268485   -2.8885981    556.44701  0.084463723  0.086482487            1 
  550000    1.0476798   -2.8726776    557.53945  0.084475674   0.08644318            2 
  551000    1.0352457   -2.8571802    557.25961  0.084280038  0.086404458            3 
  552000    1.0559953   -2.8583583    558.39834  0.084299266  0.086366485            3 
  553000     1.044521   -2.8755031    559.84116  0.084364249  0.086329651            1 
  554000    1.0394767   -2.8705021    562.78108  0.084654194   0.08629281            3 
  555000    1.0150716   -2.8621182    562.46183  0.084453729  0.086257163            2 
  556000    1.0425298   -2.8819911    562.27311  0.084273547  0.086221026            2 
  557000    1.0201983   -2.8681631     564.1325  0.084400433  0.086185092            2 
  558000    1.0386272   -2.8863748    564.28995  0.084272692   0.08614953            1 
  559000    1.0383726   -2.8743701    565.23949   0.08426349  0.086113867            5 
  560000    1.0377979   -2.8795045    565.71354  0.084183563  0.086079449            1 
  561000    1.0291405   -2.8739756    567.01831  0.084227319  0.086044467            1 
  562000     1.045501   -2.8937458    570.08024  0.084531471  0.086010981            2 
  563000    1.0286899   -2.8749224    571.10399  0.084532859  0.085977875            5 
  564000    1.0592354    -2.870399    572.46017  0.084583358  0.085944453            2 
  565000    1.0125104   -2.8874878    572.73407  0.084474052  0.085912446            4 
  566000    1.0296217   -2.8801877    571.09709  0.084083788  0.085879045            3 
  567000    1.0280002   -2.8706917    574.53388  0.084440605  0.085847084            3 
  568000    1.0363398   -2.8881676    575.70605  0.084463916  0.085816023            2 
  569000    1.0328642   -2.8628269    577.21615  0.084536636  0.085784784            3 
  570000    1.0243726   -2.8933266    577.00695  0.084357742  0.085753634            2 
  571000    1.0342236   -2.8767672    576.93861  0.084200031  0.085719773            3 
  572000    1.0183551   -2.8704966    572.92136  0.083467564  0.085686628            3 
  573000    1.0268864   -2.9171093    577.48647  0.083985815   0.08565244            3 
  574000    1.0250242   -2.8987301    577.41027  0.083828436  0.085617678            2 
  575000    1.0257802   -2.8560407    583.13336   0.08451208  0.085583982            2 
  576000      1.01321   -2.8921382     582.3731  0.084255367  0.085552775            2 
  577000    1.0216468   -2.8879375    583.62409  0.084290018  0.085522367            3 
  578000    1.0108841   -2.8941808    583.69192  0.084153967   0.08549058            2 
  579000    1.0194154   -2.8836989    584.61063   0.08414085  0.085457713            1 
  580000    1.0207517   -2.8674662    583.70395  0.083865511   0.08542629            1 
  581000    1.0407698   -2.8938115    586.40467   0.08410853  0.085395099            1 
  582000    1.0385464   -2.9314825    585.96618  0.083901229  0.085364056            2 
  583000    1.0434948   -2.9182814    586.51082  0.083835166  0.085332993            2 
  584000    1.0204873   -2.8872818    588.24387  0.083938909  0.085301629            2 
  585000    1.0150852   -2.8728074    589.92152  0.084034405  0.085271666            6 
  586000    1.0303071   -2.8843361    590.22802  0.083934588  0.085242676            2 
  587000    1.0253386   -2.8780407    592.81357  0.084158655  0.085212682            1 
  588000    1.0321756   -2.8956746    590.22824  0.083649127  0.085183575            1 
  589000    1.0183978   -2.8847224    593.27698  0.083938452   0.08515191            2 
  590000    1.0216809   -2.8829015    592.12715  0.083633779   0.08512036            2 
  591000    1.0155833   -2.8933075    596.58962  0.084121492  0.085089332            4 
  592000    1.0121319   -2.8860277    595.90138  0.083882514  0.085058462            1 
  593000     1.019604   -2.9057549    596.08601  0.083767006  0.085029566            3 
  594000    1.0298757   -2.8865012    596.93925  0.083745686  0.084998285            1 
  595000    1.0246258   -2.9020015    598.80208  0.083865838  0.084965998            1 
  596000    1.0073034   -2.9047024    595.70452  0.083292019  0.084933916            3 
  597000    1.0160581   -2.8864048    597.85105  0.083452129  0.084901639            3 
  598000    1.0390725   -2.8989917    597.75372  0.083299013  0.084869422            1 
  599000    1.0141177   -2.8651139    600.55748  0.083550011   0.08483651            4 
  600000      1.01298    -2.894262    598.91305  0.083182368  0.084803274            2 
  601000    1.0322786   -2.8787108    602.69119  0.083567829  0.084771484            3 
  602000    1.0361106   -2.9053728    603.37613  0.083523828  0.084739032            1 
  603000    1.0000629   -2.9061006    605.50975  0.083680176  0.084707198            2 
  604000    1.0185127   -2.8883326    606.65578  0.083699749   0.08467686            1 
  605000    1.0098255   -2.8902484    605.42729  0.083392189  0.084645754            2 
  606000    1.0275941   -2.9121497    604.96787  0.083191401  0.084613369            2 
  607000    1.0055316   -2.8960258    608.96614  0.083603259  0.084580212            2 
  608000    1.0120936    -2.881493    607.05473  0.083203773  0.084548605            2 
  609000    1.0366965   -2.9061368    608.17143  0.083219955  0.084515719            1 
  610000    1.0300181     -2.93694    607.14317  0.082943056  0.084483073            3 
  611000    1.0146176   -2.8828398    612.37457  0.083520809  0.084451258            2 
  612000    1.0137743   -2.9031021    609.21603  0.082954252  0.084418585            2 
  613000    1.0070374   -2.8792737    611.60886  0.083144216  0.084386261            2 
  614000     1.007379   -2.9020757    615.01372  0.083470918  0.084354266            2 
  615000    1.0294279   -2.9274055     613.2236  0.083092629   0.08432243            4 
  616000    1.0144458   -2.9183678    614.27019  0.083099322  0.084290059            3 
  617000   0.98071172   -2.9008805    614.43748  0.082987234  0.084257031            2 
  618000    1.0207883    -2.922542    617.33916  0.083244223  0.084225725            1 
  619000    1.0110028   -2.9104925     615.4687   0.08285793  0.084194258            2 
  620000   0.98814644   -2.8922303    617.07195  0.082939778  0.084162195            3 
  621000   0.99997218   -2.8984214    617.84476  0.082909925   0.08413069            2 
  622000    1.0104328   -2.9243949    619.68904  0.083023719  0.084099717            1 
  623000    1.0028261   -2.8876591    620.57906  0.083009505  0.084068253            2 
  624000   0.98845272   -2.9142527     619.3959  0.082718469  0.084038518            5 
  625000   0.99160428   -2.9132798    623.11083  0.083081443  0.084008493            2 
  626000   0.99584726   -2.9114191    623.83959  0.083045738  0.083979092            1 
  627000   0.98592201    -2.917275    622.67001  0.082757842  0.083949376            2 
  628000    1.0140549   -2.9171356    623.07985  0.082680447  0.083918815            2 
  629000   0.98487472   -2.9102213    626.15647  0.082956607  0.083888881            3 
  630000    1.0181185    -2.902977    623.70491  0.082500649  0.083857976            2 
  631000    1.0454582   -2.9101997    626.64623   0.08275835  0.083826633            2 
  632000   0.97718786   -2.9275725    623.66912  0.082234853  0.083794327            4 
  633000   0.97611056   -2.9157133    627.89245  0.082660934  0.083761542            7 
  634000   0.99545009   -2.9234711    627.23531  0.082444178  0.083729022            1 
  635000   0.99358428   -2.9039285    627.84264  0.082394047  0.083695938            2 
  636000   0.99544184   -2.9253607     623.7508  0.081728354  0.083662148            3 
  637000    1.0068495   -2.9128843    627.32587  0.082067748  0.083627198            1 
  638000   0.99210389   -2.9124387    629.97864  0.082285611  0.083592781            2 
  639000    1.0176037   -2.8928544    630.74474  0.082256748  0.083559042            2 
  640000   0.99048694   -2.9546172    631.17755  0.082184577  0.083525683            3 
  641000   0.99442635   -2.8917179     633.9704  0.082419449  0.083491497            4 
  642000   0.99793717   -2.9004366    632.31776  0.082076553  0.083459484            4 
  643000   0.99287411    -2.920905    631.72486  0.081872066  0.083426052            4 
  644000   0.97682388   -2.9330059     633.6548  0.081994669  0.083390433            3 
  645000   0.99809275   -2.9145692    633.11982  0.081798426  0.083356358            2 
  646000    1.0038013   -2.9188327    636.35487  0.082089121  0.083323518            3 
  647000    1.0037365   -2.9284749    634.59485  0.081735555  0.083290393            2 
  648000   0.97503158   -2.9458073    638.27975  0.082083301  0.083256511            7 
  649000   0.99764164   -2.9327073    637.46415  0.081852099  0.083223628            2 
  650000   0.99122738    -2.919514    641.95126  0.082301444   0.08319067            3 
  651000    1.0002807   -2.8986977    642.73874  0.082275825  0.083158275            3 
  652000   0.98016004   -2.9050958    641.30933  0.081966939  0.083125614            3 
  653000   0.99435494   -2.9464604    642.34932  0.081974135  0.083093405            3 
  654000    1.0126181   -2.9344475    642.17308  0.081826335  0.083061182            2 
  655000   0.99713242   -2.9216899    641.34481  0.081596032  0.083029411            7 
  656000   0.99205911   -2.9291597     642.0368  0.081559552  0.082997056            1 
  657000   0.99382997   -2.9241508     645.3073  0.081850241  0.082963477            2 
  658000   0.97976591   -2.9242682    646.64315  0.081895029  0.082931998            4 
  659000    0.9982657   -2.8868578     650.3454  0.082238923  0.082900786            4 
  660000    1.0111648   -2.9239174    649.20875  0.081970801  0.082870373            2 
  661000   0.98722478   -2.9277581    645.75245   0.08141105  0.082838824            2 
  662000   0.98245547   -2.9411305    645.86015  0.081301631  0.082806415            2 
  663000   0.99255228   -2.9432864    649.48999  0.081635242  0.082774796            3 
  664000    1.0122184   -2.9369627    650.95887  0.081696646  0.082744213            3 
  665000   0.98796736   -2.9119012    656.83671  0.082310364  0.082714422            2 
  666000    0.9783096   -2.9191612     654.6167  0.081908997  0.082685103            2 
  667000    1.0064544   -2.9350402    655.93973  0.081951491  0.082656015            3 
  668000   0.98759045   -2.9443928      655.575  0.081783308  0.082626347            2 
  669000   0.98871373   -2.9352992    655.46359  0.081647184  0.082596946            4 
  670000   0.96801196   -2.9405554    657.57418  0.081787833  0.082568577            2 
  671000   0.98966734   -2.9226754    656.73812  0.081562112  0.082540061            2 
  672000   0.98920265   -2.9393303    657.81673  0.081574495   0.08251104            2 
  673000   0.98370468   -2.9656265     656.8393  0.081332256  0.082481331            2 
  674000    0.9675196   -2.9379446    657.94665  0.081348497   0.08245234            1 
  675000   0.98457902   -2.9513214    660.21868  0.081508478  0.082421534            2 
  676000   0.99202205   -2.9359081    659.76898  0.081332468  0.082391487            1 
  677000   0.99009166   -2.9635759    662.37696  0.081533353   0.08236154            3 
  678000   0.96622783   -2.9434152    663.08318  0.081499899  0.082331914            2 
  679000    1.0100377   -2.9347181    663.70564  0.081456263   0.08230243            3 
  680000   0.99154066   -2.9334762    663.78572  0.081346289  0.082273187            5 
  681000   0.99201651   -2.9243608     662.8253  0.081109312   0.08224213            5 
  682000    1.0022382   -2.9543698    663.35709  0.081055363  0.082212239            2 
  683000   0.99456076   -2.9440711    666.23492  0.081287814  0.082182421            3 
  684000   0.97281427   -2.9456963    668.00907   0.08138512  0.082152202            1 
  685000   0.98136156   -2.9383894    668.39122  0.081312801  0.082122125            2 
  686000   0.98131341   -2.9227733    669.08812  0.081278927  0.082092675            2 
  687000   0.95770517   -2.9253608    670.90773  0.081381335  0.082063947            2 
  688000   0.97114157   -2.9547261    668.04562  0.080916378  0.082033258            3 
  689000   0.97700543   -2.9685243    669.99867  0.081035156  0.082003196            1 
  690000   0.97200744   -2.9256595    672.01342  0.081161041  0.081973679            2 
  691000   0.99243773   -2.9533292    671.05805   0.08092837  0.081943097            4 
  692000   0.97687052    -2.965959    674.29107  0.081200755  0.081912993            2 
  693000     0.977151   -2.9405886    672.88966  0.080915063  0.081883238            2 
  694000   0.98285334   -2.9512278    675.50038  0.081111957  0.081852455            3 
  695000   0.98730098   -2.9480992    676.01245  0.081056648  0.081821946            5 
  696000   0.97204354   -2.9254286    675.65511  0.080897403  0.081792255            2 
  697000   0.98806686   -2.9395976    676.46758  0.080878477  0.081762044            2 
  698000   0.98320412   -2.9474567     677.6965  0.080909324  0.081730913            2 
  699000   0.98633556   -2.9412624    677.43664  0.080762594   0.08170036            2 
  700000   0.96187779   -2.9578779    681.19863  0.081095074  0.081669928            5 
  701000   0.97673026   -2.9257774    677.50117  0.080539844   0.08163983            4 
  702000   0.97370906   -2.9427717    678.25787  0.080514942  0.081609183            3 
  703000   0.99032245   -2.9458079    680.88862   0.08071226  0.081578289            5 
  704000   0.97868175   -2.9495607    679.64284  0.080450147  0.081547158            4 
  705000   0.95229595   -2.9838561    678.59136  0.080211745  0.081516228            3 
  706000   0.96503519   -2.9291759    683.78778  0.080711494  0.081484903            4 
  707000   0.96364902   -2.9303109    683.06391  0.080512012  0.081453875            3 
  708000   0.96835658     -2.97676    683.41672  0.080439821  0.081421998            2 
  709000   0.97748953   -2.9629877    683.01849  0.080279559  0.081389684            4 
  710000    1.0037885   -2.9786612    684.30743  0.080317773  0.081357541            9 
  711000   0.97395394   -2.9669628    685.19831  0.080309226  0.081324698            4 
  712000   0.96533607   -2.9684242    687.00538  0.080407933  0.081292346            3 
  713000   0.96582693   -2.9373252    688.33027  0.080450008   0.08126036            2 
  714000   0.96728396     -2.94035    686.09867  0.080076876  0.081228519            2 
  715000   0.96628961   -2.9495396    686.21826  0.079978818   0.08119562            4 
  716000   0.98150858   -2.9357515    687.93526  0.080066953  0.081162965            4 
  717000   0.96644195   -2.9649316    689.90471  0.080184183  0.081130303            2 
  718000   0.96109218   -2.9386194    690.77047  0.080172989  0.081097905            3 
  719000   0.95810266   -2.9551922      690.764  0.080060732  0.081065274            3 
  720000   0.96168091   -2.9480765    690.40787  0.079908318  0.081032777            4 
  721000    0.9409185   -2.9642264    693.04617  0.080102423  0.081000081            3 
  722000    0.9706874   -2.9750702    690.42034  0.079688404  0.080967063            3 
  723000   0.95853442   -2.9603118    693.20574  0.079899233  0.080933361            5 
  724000   0.96951749   -2.9570039    690.56665  0.079485112   0.08089957            2 
  725000   0.97662438   -2.9661202    691.26878  0.079456181  0.080866124            3 
  726000   0.97002553   -2.9394942    695.50785  0.079833316  0.080832944            6 
  727000   0.97578062   -2.9646352    695.23612  0.079692356  0.080799419            3 
  728000   0.97361976   -2.9777966    696.03999  0.079674907  0.080766498            2 
  729000   0.95820063   -2.9635694    695.73187  0.079530392  0.080733477            3 
  730000   0.98061572   -2.9278546     696.0723  0.079460308  0.080700801            3 
  731000    0.9584284   -2.9733311    695.77514  0.079317732  0.080667589            5 
  732000   0.95121399   -2.9671813    696.01924  0.079237163  0.080633722            4 
  733000    0.9398775   -2.9718288    701.29391   0.07972873   0.08060162            3 
  734000   0.97619989   -2.9536563    700.50175  0.079530171  0.080570175            3 
  735000   0.95409854   -2.9836195    702.20767  0.079615382  0.080538947            3 
  736000    0.9510738   -2.9472009    702.79624  0.079573849  0.080508497            2 
  737000   0.95277678   -2.9974679    701.78406  0.079351432  0.080476436            3 
  738000    0.9506678   -2.9608868    702.40548  0.079314078  0.080444672            3 
  739000   0.93720428    -2.999076     704.7211  0.079467873  0.080412751            5 
  740000   0.94036293   -2.9490598    704.31604  0.079314869  0.080381482            2 
  741000    0.9966311   -2.9841772    707.29418  0.079542755  0.080351164            3 
  742000   0.96620263    -2.984731    704.18024  0.079085831  0.080320699            6 
  743000   0.94823614   -2.9637995    708.61357  0.079476623  0.080289571            3 
  744000   0.97130557    -2.969226    708.23569  0.079327474  0.080257794            6 
  745000    0.9616732   -2.9614265    709.22445  0.079331594  0.080226269            1 
  746000   0.95672142   -2.9635811    709.76774  0.079285941  0.080194913            2 
  747000   0.95572081    -2.976903     711.3398  0.079355176  0.080162736            3 
  748000   0.96283319    -2.974597    705.52932  0.078601751  0.080130546            2 
  749000   0.93581623   -2.9832259    708.53892  0.078831656  0.080096728            2 
  750000   0.95186061   -2.9897885     709.7043  0.078856033  0.080062732            1 
  751000   0.94961304   -2.9790611    710.17752  0.078803542   0.08002962            2 
  752000   0.95029982   -2.9871141    710.28757  0.078710945  0.079996568            3 
  753000   0.96573465   -2.9603781     712.8862  0.078894001  0.079962292            4 
  754000   0.96668268   -2.9699742    711.85513  0.078675412  0.079928619            4 
  755000   0.95494217   -2.9494346    712.13014  0.078601561  0.079894908            7 
  756000    0.9541642   -2.9648848     714.8074  0.078792702  0.079862119            4 
  757000   0.96534577   -2.9992164    712.24125  0.078406126  0.079830038            3 
  758000    0.9630172   -2.9950945     718.7138   0.07901427  0.079797845            5 
  759000   0.95528703   -3.0031863    715.15942  0.078519918  0.079765052            2 
  760000   0.95860869     -2.97837    717.48678  0.078671796  0.079732032            3 
  761000   0.92965607   -2.9709635    720.76336  0.078927219    0.0796984            1 
  762000   0.95151258   -2.9786319    719.60189  0.078696619  0.079666394            2 
  763000   0.92941662   -2.9773915    719.29146  0.078559574  0.079634144            3 
  764000   0.94217875   -3.0083068    719.70537  0.078501894  0.079602024            2 
  765000   0.93152845    -2.967229    719.98811  0.078430078  0.079569633            2 
  766000   0.95730034   -2.9662151    722.56385  0.078607904  0.079537306            3 
  767000   0.96490581   -2.9650335    721.86784  0.078429796  0.079505375            2 
  768000   0.93889827   -2.9883652    722.93397  0.078443356  0.079473709            1 
  769000   0.93915713   -2.9523002    724.67915  0.078530467  0.079440595            2 
  770000   0.95643872   -2.9971924    722.55178  0.078198244  0.079407927            2 
  771000   0.95187374   -2.9989616    725.23955  0.078387327  0.079375205            1 
  772000   0.94698804   -2.9825006    722.26326  0.077964514  0.079340708            3 
  773000   0.95376172   -2.9783874     726.8945  0.078362926  0.079306679            3 
  774000   0.94874721   -2.9841779    725.88533  0.078153028  0.079273649            4 
  775000   0.93025951   -2.9856974    727.08395   0.07818107   0.07924086            5 
  776000   0.92086249   -3.0080481    724.95948  0.077852177  0.079207389            3 
  777000   0.94865838   -2.9809763    727.53577   0.07802829  0.079173076            2 
  778000   0.93337721   -3.0003523    727.77633  0.077953763  0.079138726            2 
  779000   0.93873559   -2.9810272    729.18537  0.078004425  0.079104472            3 
  780000   0.94246938   -3.0022594    727.73904  0.077749898  0.079069746            3 
  781000   0.93923417   -2.9909046    729.86891  0.077877605  0.079035664            4 
  782000   0.93951104   -2.9929683    727.22512  0.077496283  0.079000873            3 
  783000   0.93943159   -2.9838888    730.55626  0.077751837  0.078966071            2 
  784000   0.94349603   -3.0103662    729.16279  0.077504548  0.078930067            2 
  785000   0.92948933   -2.9785881    728.55041  0.077340808  0.078894064            2 
  786000   0.92778709   -2.9955549    731.14365  0.077517351  0.078858132            4 
  787000    0.9305318   -3.0016489     730.9506  0.077398412  0.078821636            3 
  788000   0.94149452   -3.0222292    727.61913  0.076947878  0.078784161            2 
  789000   0.94063923   -3.0039561    731.16321  0.077224673   0.07874675            4 
  790000    0.9293458   -2.9939686     733.7921   0.07740423  0.078710175            4 
  791000   0.93958436   -2.9799159    733.22206  0.077246319  0.078673473            6 
  792000   0.94210332   -2.9719102    736.14827  0.077456678  0.078636398            2 
  793000   0.95080208   -2.9930425    731.49894  0.076870423  0.078599163            4 
  794000   0.95356644   -2.9926004    735.49917  0.077193448  0.078562524            1 
  795000   0.93578893   -2.9984302      733.384  0.076874633  0.078525281            5 
  796000   0.93211239   -2.9955421    737.21195  0.077178805  0.078488285            3 
  797000   0.93863508   -3.0230179    734.20221  0.076767274   0.07845041            2 
  798000   0.96700068    -3.001961    735.83379  0.076841456  0.078413048            3 
  799000   0.92370813   -3.0089431    735.82614  0.076744487  0.078375585            8 
  800000   0.93224906   -2.9671099    741.36784  0.077225817  0.078338902            3 
  801000   0.94036222   -2.9810221    738.26009  0.076806085  0.078303095            5 
  802000   0.91269218   -2.9930347    739.87848  0.076878478  0.078267178            3 
  803000    0.9419796   -3.0177838    743.66414  0.077175606  0.078230976           10 
  804000   0.92835551   -3.0411076    738.70453   0.07656556  0.078195076            4 
  805000   0.91848524   -3.0261769    741.64459  0.076774803  0.078159401            4 
  806000   0.94603084   -3.0163811    742.69625   0.07678828  0.078123818            2 
  807000   0.94274328   -3.0133178    743.95363  0.076822969  0.078088617            3 
  808000   0.93732281   -2.9958307    746.21741  0.076961367  0.078053278            3 
  809000    0.9235185   -2.9940384    746.31268  0.076876049  0.078018294            3 
  810000   0.92031439   -2.9974779    746.63811   0.07681462  0.077982728            2 
  811000    0.9137157   -3.0049429    745.05307  0.076557036  0.077947492            2 
  812000   0.93783541   -3.0256783    746.79807  0.076641838  0.077911976            2 
  813000   0.93803359   -3.0044172    748.07243  0.076678191  0.077876614            4 
  814000   0.92177711   -3.0133729    745.86775  0.076358288  0.077840819            3 
  815000    0.9407111   -3.0082962    747.45685  0.076427081  0.077805106            4 
  816000   0.92803262   -3.0246558    750.11341  0.076604719  0.077769268            3 
  817000   0.93166473   -3.0250973    750.13738  0.076513401  0.077733727            2 
  818000   0.93951144   -3.0235904    749.82236  0.076387771  0.077698155            6 
  819000   0.93717391    -3.008429    752.11697  0.076527979  0.077663158            2 
  820000   0.92561641   -3.0188556    750.82585   0.07630344  0.077627546            2 
  821000   0.92937826   -3.0119104    754.31599  0.076564757  0.077592364            5 
  822000   0.94291166   -3.0052754    752.21764  0.076258885  0.077557967            3 
  823000   0.93374901   -3.0279217    752.66745  0.076211771    0.0775233            2 
  824000   0.93865408   -3.0185037    753.09653  0.076162675  0.077487948            3 
  825000   0.91159074   -3.0278455     752.4638  0.076006444  0.077452699            3 
  826000   0.91979163   -2.9984936    755.92076  0.076263192  0.077418224            3 
  827000   0.93584755   -3.0136734     757.2059  0.076300473  0.077383929            3 
  828000   0.91240635   -3.0155182     758.3273  0.076321186  0.077349486            3 
  829000   0.92569354   -3.0250991    758.03475  0.076199713  0.077315284            2 
  830000   0.92058789   -2.9802621    757.59847  0.076064103  0.077280826            3 
  831000   0.93218911     -3.00584    757.62395  0.075975126  0.077246896            5 
  832000   0.95147218   -3.0027969    759.73201  0.076094953  0.077212477            6 
  833000   0.91421023   -3.0434737     758.8153  0.075911894  0.077177478            2 
  834000   0.91159859   -3.0004528     761.9415  0.076133243  0.077142497            3 
  835000   0.92017061   -3.0250162    761.15039  0.075963112  0.077108254            1 
  836000   0.91392982   -3.0429566    759.26897  0.075684706  0.077073273            4 
  837000   0.92761529   -3.0610847    759.66026   0.07563324  0.077038192            3 
  838000   0.89882088    -3.047608    761.57131  0.075733026     0.077003            2 
  839000   0.91351537   -3.0192335    764.14785  0.075898674  0.076967524            3 
  840000   0.91097703   -3.0146832     763.8843  0.075782172  0.076932706            5 
  841000    0.9136725   -3.0194593    765.52088  0.075854229  0.076897681            3 
  842000   0.90557969   -3.0379089    761.67615  0.075383625  0.076862518            1 
  843000   0.91739571    -3.043085    766.52941  0.075773963  0.076827678            2 
  844000   0.89101036   -3.0443539    765.78298  0.075610484  0.076792742            1 
  845000   0.91477879   -3.0337148    765.23814  0.075467272  0.076757746            3 
  846000   0.91531958   -3.0469059    766.15688  0.075468566  0.076722912            3 
  847000   0.90341826   -3.0384571     767.7739  0.075538558  0.076687295            6 
  848000   0.92851144   -3.0459605    765.44353  0.075220472  0.076651556            3 
  849000   0.91984123    -3.038741    766.25244  0.075211272  0.076615942            2 
  850000   0.90157942   -3.0225681    768.65078   0.07535792  0.076579843            3 
  851000   0.93495083   -3.0093095    769.31079  0.075333998  0.076543637            3 
  852000   0.91438736    -3.036198    768.32882  0.075149533  0.076506882            2 
  853000   0.92346391   -3.0018064    770.07214  0.075231744  0.076470694            3 
  854000   0.91368232   -3.0242419    770.01678  0.075138249  0.076433592            2 
  855000   0.91505231   -3.0382595    771.15385  0.075161194   0.07639725            3 
  856000   0.92566236   -3.0380393    769.91526   0.07495281  0.076360359            2 
  857000   0.91783845    -3.022398    771.64566  0.075033611  0.076323065            3 
  858000   0.91334463   -3.0167459    773.04239  0.075081818  0.076286543            3 
  859000   0.90620047   -3.0160385    772.42046  0.074934076  0.076249963            2 
  860000   0.90391999   -3.0444174    769.30723  0.074545275  0.076214069            4 
  861000   0.91538116   -3.0626061    772.45765  0.074763613  0.076177992            2 
  862000   0.93642337   -3.0411038    775.20068  0.074942061  0.076142053            2 
  863000   0.90790524    -3.018655     777.6847  0.075095085  0.076105784            2 
  864000   0.91887469   -3.0283663    773.47606  0.074602243  0.076069091            3 
  865000   0.91304869   -3.0527716    770.25148  0.074205344  0.076032259            4 
  866000   0.91364745   -3.0265595    774.06791  0.074486905  0.075995489            2 
  867000   0.91082998   -3.0355959    781.22394  0.075088806  0.075959479            4 
  868000   0.90818627    -3.055222    775.73431   0.07447526  0.075923284            3 
  869000   0.90469578   -3.0368148    780.15184   0.07481318  0.075885861            2 
  870000   0.92618345   -3.0420485    779.61984   0.07467623  0.075848392            3 
  871000   0.91821817   -3.0556311    777.73987  0.074410627  0.075811139            1 
  872000   0.89943549   -3.0314337    778.79169  0.074425812   0.07577452            2 
  873000   0.90418806   -3.0657258    777.57373  0.074224296    0.0757371            2 
  874000   0.90852486   -3.0546967    778.25295  0.074204134  0.075698984            2 
  875000   0.90137778   -3.0149701    781.74674   0.07445207  0.075661587            4 
  876000   0.90114194   -3.0176879    778.78106  0.074084957  0.075623849            2 
  877000   0.90221012    -3.030402    779.46013  0.074065007  0.075586211            2 
  878000   0.91346787   -3.0264555    777.30705  0.073776296  0.075547943            1 
  879000   0.90616801   -3.0317769    780.90735  0.074033689  0.075511002            6 
  880000   0.88938321    -3.050478    784.03706  0.074245934  0.075473502            6 
  881000   0.92454135   -3.0756633    781.57685  0.073928949  0.075436062            4 
  882000   0.89622011   -3.0517356    783.65828  0.074041787  0.075399061            2 
  883000   0.88769671   -3.0582897    787.35132  0.074306467  0.075362792            4 
  884000   0.89986392   -3.0575268    783.50937  0.073860235  0.075325681            2 
  885000   0.89494803   -3.0437538    785.33369  0.073948559  0.075289405            3 
  886000   0.88334765   -3.0731844    785.86512  0.073915079  0.075252003            6 
  887000   0.88423137   -3.0495544      788.982  0.074124577  0.075215381            4 
  888000   0.88141278   -3.0716023    787.89524  0.073939118  0.075178832            2 
  889000   0.88619506    -3.057039    792.38324  0.074276644  0.075143048            4 
  890000   0.89583034   -3.0319163    790.30573  0.073998663  0.075107446            8 
  891000   0.89604041   -3.0539362    790.76759  0.073958809  0.075071714            5 
  892000    0.8946087   -3.0537094     790.8009  0.073879008  0.075035694            4 
  893000   0.91269256   -3.0850329    789.98412  0.073720056  0.074999913            2 
  894000   0.89854308   -3.0758316     793.7352  0.073987248  0.074963963            2 
  895000   0.90438324   -3.0491496    792.77645  0.073815312  0.074928328            4 
  896000    0.8920905   -3.0453887    794.52355  0.073895419  0.074892593            4 
  897000   0.88948341   -3.0426405     794.2374  0.073786455  0.074856688            3 
  898000   0.88305755   -3.0305856    792.72345  0.073563795  0.074820442            4 
  899000   0.90965996   -3.0327312    796.94082  0.073872898  0.074785244            4 
  900000   0.89344435   -3.0470366    796.82351  0.073779955  0.074750235            4 
  901000   0.89768972    -3.029235    796.68527  0.073685282  0.074714824            5 
  902000   0.90060935   -3.0526965    797.59441  0.073687584  0.074679223            4 
  903000   0.87645298   -3.0611613    793.66736  0.073243573  0.074643199            4 
  904000   0.90079946    -3.054689    798.00684  0.073562578   0.07460766            2 
  905000   0.87516331    -3.072742    796.07623   0.07330352  0.074572197            3 
  906000   0.87678342   -3.0700934    797.19318  0.073325348  0.074537019            2 
  907000   0.88786283   -3.0489308    799.32282   0.07344017  0.074501621            2 
  908000   0.90515043   -3.0728117    798.64922  0.073297469  0.074466056            6 
  909000   0.89492311   -3.0640891    798.58632  0.073211067  0.074430662            2 
  910000    0.8949611   -3.0495948    803.05349  0.073539697  0.074394849            3 
  911000   0.88062858   -3.0802259    798.32916  0.073026816  0.074359287            2 
  912000   0.88414664   -3.0395672    799.44717  0.073048901  0.074323102            2 
  913000   0.88116945   -3.0892089    802.12783  0.073213566  0.074286516            4 
  914000   0.88270445   -3.0550185     799.3587   0.07288099  0.074250631            2 
  915000   0.87479499   -3.0787771    798.25808    0.0727011  0.074213897            9 
  916000   0.90984048   -3.0656796    804.09896  0.073153107  0.074177643            3 
  917000    0.8733249   -3.0862974     802.1306  0.072894457  0.074141024            2 
  918000   0.86235156   -3.0584613    804.08419  0.072992392  0.074104244            5 
  919000   0.88688744    -3.072162     799.9066  0.072534149  0.074067728            3 
  920000    0.8938365   -3.0537304    805.94024  0.073001834  0.074031595            3 
  921000    0.8948578   -3.0712481     805.7933  0.072909274  0.073995515            2 
  922000   0.89718748   -3.0926837    804.32395  0.072697393  0.073959239            3 
  923000    0.8782197   -3.0880823    804.89184  0.072669902  0.073922822            4 
  924000   0.88660204   -3.0902886    804.26158  0.072534414   0.07388603            3 
  925000    0.8887321    -3.069839    807.62943  0.072759408  0.073849482            3 
  926000   0.86579062   -3.0767539    804.40643  0.072390787  0.073812736            5 
  927000   0.88677261   -3.0807814    806.28233  0.072481332  0.073776454            2 
  928000   0.88969607   -3.0560853    809.60269  0.072701391  0.073740186            3 
  929000   0.86894819     -3.04732    808.44716  0.072519479  0.073703762            4 
  930000   0.90189013   -3.0695177    808.78277  0.072471574  0.073667829            2 
  931000   0.87212663   -3.0713876    810.35665  0.072534609  0.073631761            3 
  932000   0.88552106   -3.0606737    811.82883  0.072588415  0.073595983            3 
  933000   0.88403356   -3.0842909    809.29008  0.072283859   0.07356014            3 
  934000   0.88178329   -3.0489338    810.15506  0.072283642   0.07352422            5 
  935000   0.87228921   -3.0733844    811.11014  0.072291456  0.073487674            7 
  936000   0.87701769   -3.0666143    813.21224  0.072401374  0.073451012            2 
  937000   0.90818581   -3.1023769    809.71112  0.072012729  0.073414351            5 
  938000   0.86934383   -3.0931431    807.63532  0.071751539  0.073377573            3 
  939000   0.88664834   -3.0660513    813.87303  0.072228703  0.073341236            2 
  940000   0.86589561   -3.0944874    814.69241  0.072224504  0.073304871            4 
  941000   0.89771609   -3.0964236    813.16923  0.072012862  0.073267986            4 
  942000   0.86519349   -3.0681133    814.24108  0.072031235  0.073231651            4 
  943000   0.87862847   -3.0786866    817.02664  0.072201011  0.073194903            2 
  944000   0.86619368   -3.1047659    814.68409  0.071917734  0.073158021            4 
  945000   0.88320251   -3.0868666    814.39844   0.07181644  0.073121099            3 
  946000   0.86025185   -3.0703232    816.40929  0.071917661  0.073083964            2 
  947000   0.87268007   -3.0781471    814.33484  0.071659173  0.073046546            3 
  948000   0.87857658   -3.0819718    816.79538  0.071799875  0.073010047            3 
  949000   0.88870425   -3.0657807    816.91031  0.071734309  0.072973037            2 
  950000   0.88855178   -3.0910037     816.9627  0.071663395  0.072936227            3 
  951000   0.87733948   -3.0777158    818.75024  0.071744676  0.072899509            5 
  952000   0.87052754   -3.0855797     817.4575  0.071556154  0.072862896            2 
  953000   0.87500407   -3.0910003     820.5652  0.071752815  0.072826451            2 
  954000   0.86762951   -3.1030103    818.77367   0.07152111  0.072790124            3 
  955000   0.85918962   -3.0880469    821.86879  0.071716299  0.072753837            5 
  956000   0.87117707   -3.0894078    822.23625  0.071673314  0.072717274           11 
  957000   0.86192598   -3.0898634    820.12125   0.07141425  0.072680695            6 
  958000   0.87309675   -3.0855615    822.53205  0.071549413  0.072644694            9 
  959000   0.88518606   -3.0674359     823.0477  0.071519613   0.07260895            2 
  960000   0.86385518   -3.0819194    825.51374  0.071659179  0.072574111            2 
  961000   0.87255339   -3.0779751    824.44144  0.071491627  0.072538375            2 
  962000   0.87360536   -3.1226019    823.61946  0.071346107  0.072502767            4 
  963000   0.87902715   -3.1231538     824.7281  0.071367956  0.072467091            4 
  964000   0.85484677   -3.0970404     824.9854  0.071316165  0.072430851            1 
  965000   0.84699347   -3.0989396    826.37234  0.071362033  0.072395231            3 
  966000   0.84907221   -3.0638802     828.4982   0.07147155  0.072359658            2 
  967000   0.87201422   -3.1245948    828.64301  0.071410118   0.07232413            4 
  968000   0.86541876   -3.1003785    828.01008  0.071281859  0.072288344            2 
  969000   0.88067135   -3.0983424    829.10498  0.071302458   0.07225273            9 
  970000   0.85315805   -3.0846569    828.24767  0.071155298  0.072216959            7 
  971000   0.89422316   -3.0706065    826.57365   0.07093835   0.07218118            4 
  972000   0.85560134   -3.0879568    827.16298  0.070915893  0.072145315            3 
  973000   0.86000501    -3.113738    829.58585  0.071050518  0.072109503            2 
  974000   0.84677814   -3.0743125    830.87287  0.071087686  0.072073731            2 
  975000   0.88265696   -3.1226757    832.01565  0.071112448   0.07203775            2 
  976000   0.85600713   -3.0810493    833.46252  0.071163125  0.072002591            2 
  977000   0.86210473   -3.0685644    830.64709  0.070850144  0.071967136            2 
  978000   0.87309365   -3.1232759    832.02759   0.07089533  0.071931008            5 
  979000    0.8834682   -3.0648453    832.64702   0.07087564  0.071895765            2 
  980000   0.83389672   -3.0681238    832.93511  0.070827815  0.071860056            3 
  981000   0.87277069    -3.098303    833.46581  0.070800698  0.071823835            2 
  982000   0.86700441   -3.0964651    832.71545  0.070664922  0.071787037            3 
  983000   0.88830458   -3.0990029    834.42207  0.070737714  0.071750856            2 
  984000   0.85546595   -3.1134551    834.55158  0.070676794  0.071715531            4 
  985000   0.85353176   -3.1107896    835.80828   0.07071136  0.071679835            7 
  986000   0.84987378   -3.0883483      837.625  0.070793188  0.071644723            3 
  987000   0.85745616   -3.1010891    839.05501  0.070842199  0.071609353            4 
  988000   0.84637818   -3.1099923     839.4466  0.070803526  0.071574751            2 
  989000   0.87269176   -3.1002421    839.66669  0.070750479  0.071540139            3 
  990000   0.86142281   -3.0998973     841.0916  0.070798957  0.071505647            5 
  991000   0.87561047   -3.0995078    840.08893  0.070643199  0.071471206            1 
  992000   0.85338289   -3.0976575    839.33383  0.070508554  0.071437153            6 
  993000   0.84197085   -3.0865591    840.85972  0.070565602  0.071402667            4 
  994000   0.86542142   -3.0780282    843.45353  0.070712067  0.071367996            3 
  995000   0.84596797     -3.12931    842.63505   0.07057245   0.07133343            2 
  996000   0.85480293   -3.0928463    840.26683  0.070303449  0.071298911            4 
  997000   0.86223527   -3.1045218    840.95688  0.070290612  0.071263916            2 
  998000   0.84332857   -3.0978653    843.48304  0.070431116  0.071228437            3 
  999000   0.85426999   -3.1203573    842.04954  0.070241036  0.071193118            3 
 1000000    0.8545426   -3.1029319    842.00478  0.070167065  0.071157748            3 
 1001000   0.85124538   -3.1022657      842.725  0.070156926  0.071122738            3 
 1002000   0.85450463    -3.139703    843.52488  0.070153433  0.071087262            5 
 1003000   0.85452773   -3.1240882    844.58992  0.070171978  0.071051955            3 
 1004000   0.86169349   -3.1128306    847.82632   0.07037071  0.071017168            4 
 1005000   0.85178991   -3.0995672    846.02838  0.070151607  0.070982124            4 
 1006000   0.86910657   -3.1090254     845.4152   0.07003108  0.070946777            4 
 1007000   0.83590693   -3.0928658    846.02759  0.070012213  0.070911685            4 
 1008000   0.85071296   -3.1073836    849.29569  0.070212938  0.070876564            3 
 1009000   0.86060834   -3.1341335    848.47179  0.070075305  0.070841271            3 
 1010000   0.83224749   -3.1174656    849.83915  0.070118741  0.070806271            2 
 1011000   0.87581249   -3.1001181    849.51804  0.070022918  0.070771786            8 
 1012000   0.86829436   -3.1225563    847.99644  0.069828429  0.070736887            4 
 1013000    0.8363632    -3.131086    850.99295  0.070006001  0.070702044            3 
 1014000   0.84396396    -3.099968    849.96358  0.069852365  0.070667096            4 
 1015000   0.83325772   -3.1036371    852.07617  0.069956992  0.070632283            5 
 1016000   0.83474014   -3.1341969    849.87545  0.069707632  0.070597493            2 
 1017000   0.85734244   -3.1281926    851.24717  0.069751489  0.070562298            3 
 1018000   0.84542551   -3.1405469    851.63738  0.069714913  0.070527417            6 
 1019000   0.84866873   -3.1115793    850.71912  0.069571403  0.070492803            1 
 1020000    0.8700363   -3.1078164    853.43918  0.069725423   0.07045854            3 
 1021000   0.83210953   -3.1133804    853.91221   0.06969574   0.07042426            3 
 1022000   0.85355271   -3.1025906    856.20293  0.069814329  0.070389786            3 
 1023000   0.84275685   -3.1203886    856.15661  0.069742311  0.070355944            4 
 1024000   0.85279147   -3.1038882     852.5317  0.069379207  0.070321407            4 
 1025000    0.8398793   -3.1257395    857.20201   0.06969122  0.070287029            7 
 1026000   0.84017429   -3.1130295    857.78646  0.069670765  0.070252786            4 
 1027000   0.85810669   -3.1203784    861.23437  0.069882698  0.070218784            2 
 1028000   0.84193957     -3.13337    858.54326  0.069596567   0.07018451            2 
 1029000   0.84950872   -3.1211545    859.64266  0.069617967  0.070150746            5 
 1030000   0.85265528   -3.1197274    858.66236  0.069471064  0.070116503            4 
 1031000   0.83488309   -3.1053233    861.96843  0.069670904  0.070082601            4 
 1032000   0.84424678   -3.1308946    858.25734  0.069303726  0.070048414            4 
 1033000   0.84596395   -3.1234284    859.65218   0.06934916  0.070014204            4 
 1034000   0.84407126   -3.1225857    859.51545  0.069271071  0.069979975            5 
 1035000   0.84947476   -3.1257076    859.57825  0.069209198  0.069945653            4 
 1036000   0.82266402   -3.1322207    859.30501  0.069120416  0.069911178            2 
 1037000   0.84992275   -3.1215299    865.89348  0.069583211  0.069876842            4 
 1038000   0.84899008   -3.1387078    857.40088  0.068834367  0.069842489            4 
 1039000   0.85008018   -3.1548985    859.51367  0.068937574  0.069807924            5 
 1040000   0.84606702   -3.1290208    862.15302  0.069082774  0.069773437            3 
 1041000   0.83525806   -3.1298815    861.80456  0.068988517  0.069738463            6 
 1042000   0.83206512   -3.1343341    863.23028  0.069036331  0.069703234            5 
 1043000   0.82948912   -3.1136221    861.79392  0.068855379  0.069668417            2 
 1044000   0.82182994   -3.1350864    861.04217  0.068729419  0.069633191            2 
 1045000   0.85548356   -3.1088206    864.51172  0.068940328  0.069598091            5 
 1046000   0.81702801   -3.1290661    865.81665  0.068978382  0.069563483            3 
 1047000   0.82862326   -3.1054394     864.9516  0.068843649  0.069528847            7 
 1048000   0.82774907   -3.1502871     860.8026  0.068448044  0.069493704            2 
 1049000   0.83031407   -3.1388361    864.03267  0.068639392  0.069458817            3 
 1050000   0.82869782   -3.1497366    866.86328  0.068798673  0.069423654            4 
 1051000   0.81902605   -3.1179423    866.08119  0.068671202  0.069388822            5 
 1052000   0.81069347    -3.132474    866.40996  0.068631967  0.069354342            3 
 1053000   0.82821476   -3.1469253    866.16367  0.068547299  0.069319882            3 
 1054000   0.81738775   -3.1469673    864.82382   0.06837633  0.069284836           10 
 1055000   0.82234818   -3.1466908     867.3191  0.068508618  0.069250091            3 
 1056000   0.82120618    -3.128134    871.41322  0.068766826  0.069215573            4 
 1057000   0.82272192    -3.159675    868.13923  0.068443648  0.069181239            4 
 1058000   0.82785517   -3.1396344    867.67587   0.06834246  0.069146777            3 
 1059000    0.8374849   -3.1444162    868.32714  0.068329174   0.06911209            7 
 1060000   0.80469997   -3.1491954    870.08351  0.068402792  0.069077245            3 
 1061000   0.83771863   -3.1446253    862.70642  0.067758908  0.069042473            7 
 1062000   0.83648819   -3.1514227    872.36538  0.068453027  0.069008105            2 
 1063000   0.83353002   -3.1592166    871.05954   0.06828626  0.068973754            4 
 1064000   0.83558426   -3.1329453    871.24145  0.068236329  0.068939184            4 
 1065000   0.81097067    -3.158434    869.57716  0.068042031   0.06890467            2 
 1066000   0.83016373   -3.1395962     874.7095  0.068379417  0.068869978            3 
 1067000   0.84394115   -3.1716227    872.30103  0.068127228  0.068835776            4 
 1068000   0.82663603   -3.1368312    872.98336  0.068116679   0.06880117            5 
 1069000   0.82232094   -3.1603267    874.50804  0.068171815  0.068766456            8 
 1070000   0.82462395   -3.1508007    872.26789  0.067933637  0.068732318            2 
 1071000   0.82836769   -3.1325217    874.54174  0.068047132  0.068697787            2 
 1072000   0.81392906   -3.1344462    874.65628  0.067992559  0.068663711            2 
 1073000   0.81462892   -3.1443701    873.79891  0.067862606  0.068628942            3 
 1074000   0.82523198   -3.1454219    874.77795  0.067875384  0.068594528            3 
 1075000   0.82469837   -3.1603146    875.80836  0.067892121   0.06855981            3 
 1076000   0.83547653   -3.1740416    874.54035   0.06773082  0.068524962            5 
 1077000   0.84165725   -3.1610526    874.61815  0.067673951  0.068489909            4 
 1078000   0.82995141   -3.1686608      877.059  0.067799861  0.068455327            4 
 1079000   0.80279735   -3.1483255    875.91138  0.067648392  0.068420284            6 
 1080000   0.82642213   -3.1419448    879.68684  0.067877071  0.068385875            5 
 1081000   0.81936265   -3.1734012    875.08303  0.067459377  0.068350918            6 
 1082000   0.84334899   -3.2096939    875.77092  0.067450009  0.068316643            4 
 1083000   0.82639105   -3.1542514    878.95452  0.067632696  0.068281794            4 
 1084000   0.83361906   -3.1159731    878.41175  0.067528578  0.068247342            3 
 1085000    0.8276145   -3.1558695    879.82535  0.067574911  0.068212557            4 
 1086000   0.82915426   -3.1693912    881.51344  0.067642222  0.068177911            5 
 1087000   0.80465957   -3.1410847    876.28754  0.067179358  0.068142787            5 
 1088000   0.80840798   -3.1824441    880.76307  0.067460406  0.068107916            5 
 1089000   0.82589041   -3.1545808    879.26268  0.067283645   0.06807316            5 
 1090000   0.81397056   -3.1625827    878.66232  0.067176018  0.068037923            8 
 1091000   0.82489916   -3.1673308     878.0282  0.067066009  0.068002559            3 
 1092000   0.81702647   -3.1433624    883.38474  0.067413366  0.067967529            3 
 1093000   0.83671359   -3.1642771    882.90712  0.067315273  0.067932559            7 
 1094000   0.81228479   -3.1402048    881.95384  0.067181127  0.067897769            6 
 1095000   0.82499947   -3.1603815    880.70728  0.067024907  0.067862661            5 
 1096000   0.79643831   -3.1443691     881.0494  0.066989766  0.067827343            7 
 1097000    0.8106548   -3.1943312    879.44989  0.066807193  0.067792122            6 
 1098000   0.82441165   -3.1685997    881.48555  0.066900847  0.067756626            6 
 1099000   0.80312271   -3.1696335     883.0381  0.066957696  0.067721192            5 
 1100000   0.82677517   -3.1713199    882.67508  0.066869324  0.067685868            3 
 1101000   0.82783862   -3.1733118    879.98766  0.066605182  0.067650645            6 
 1102000   0.82209941   -3.1738154    881.44874  0.066655228   0.06761558            4 
 1103000   0.81613208   -3.1677525    882.67939  0.066687775  0.067580948            5 
 1104000   0.80625218   -3.1638255    885.83309   0.06686542  0.067545439            7 
 1105000   0.83072318   -3.1600251    881.51014  0.066478895  0.067509649            2 
 1106000   0.81902286   -3.1545328    884.77093  0.066664476  0.067474218            4 
 1107000    0.8059422   -3.1813578    883.30699  0.066494052  0.067438728            2 
 1108000   0.82619892   -3.1855944    884.39207  0.066515649  0.067402797            5 
 1109000   0.82666369   -3.1706679    885.56555  0.066543849  0.067367234            4 
 1110000   0.81380869   -3.1831726    884.70159  0.066419038  0.067331337            2 
 1111000   0.81478901   -3.1823441    883.58297  0.066275351   0.06729546            3 
 1112000   0.82006472   -3.1697127    883.51514  0.066210667  0.067259549            6 
 1113000     0.811673   -3.1746456    884.77796   0.06624573   0.06722345            5 
 1114000   0.82262195   -3.1600338    886.67853  0.066328436  0.067187487            6 
 1115000   0.81906339    -3.150499    887.19863   0.06630782  0.067151939            4 
 1116000   0.81199761   -3.1786402    886.10295  0.066166588  0.067116012            4 
 1117000    0.8060752   -3.1712128    887.69894   0.06622642  0.067080025            4 
 1118000   0.80045133   -3.1472873    886.32274  0.066064605  0.067044451            6 
 1119000   0.82517253   -3.2040321    886.21044  0.065997203  0.067008899            6 
 1120000    0.8121929   -3.2033123    885.32002  0.065872025  0.066972959            3 
 1121000   0.79973133   -3.1551653    892.42969  0.066341785  0.066937372            4 
 1122000   0.80863181   -3.1979548    887.68246   0.06593007  0.066902173            7 
 1123000   0.80482038   -3.1753908    890.64208  0.066090982  0.066866935            4 
 1124000   0.80627731   -3.2019238    891.62174  0.066104814  0.066831676            3 
 1125000   0.80436542   -3.1872558    890.69664  0.065977529  0.066796426            3 
 1126000   0.80217832   -3.1901547    892.99343  0.066088916  0.066761144            4 
 1127000   0.79427932    -3.181344    891.19999  0.065897663  0.066725324            3 
 1128000   0.77876118   -3.1657466    888.62095  0.065648711  0.066689352            4 
 1129000   0.80729331   -3.1791663    889.53698  0.065658177  0.066653703            3 
 1130000   0.79486162   -3.1950772    889.74389  0.065615331  0.066618266            4 
 1131000   0.80133699    -3.193205    892.05718  0.065727761  0.066582956            2 
 1132000    0.8149309   -3.1860339    894.11362  0.065821085  0.066547602            4 
 1133000   0.79082836   -3.1823582    893.20054  0.065695832  0.066512234            2 
 1134000   0.81445229   -3.1911955     893.1452  0.065633833  0.066476885            5 
 1135000   0.78856583   -3.2084203    893.95981  0.065635815  0.066441906            3 
 1136000   0.77998212   -3.1819365    894.76179  0.065636868  0.066406522            4 
 1137000   0.80161915   -3.1698716    894.74108  0.065577622  0.066371086            2 
 1138000   0.80246671   -3.1588609    894.04727  0.065469191  0.066335429            3 
 1139000   0.77360194   -3.1880685    898.53555   0.06574009  0.066299798            9 
 1140000   0.80389602   -3.1493754    899.32438  0.065740086  0.066264691            5 
 1141000   0.80270255   -3.1701667    898.13341  0.065595487  0.066229838            3 
 1142000   0.79247663   -3.1967025    897.78706  0.065512774  0.066195023            2 
 1143000   0.79604139   -3.2022156    897.76232  0.065453654  0.066160193            6 
 1144000   0.79375553   -3.1989547    896.81428   0.06532738  0.066125051            4 
 1145000   0.80724726   -3.1771057    897.56501  0.065324964  0.066090054            6 
 1146000    0.7926871   -3.1965298    896.45633  0.065187342  0.066055347            6 
 1147000   0.78657295    -3.219869    898.34151  0.065267474  0.066020549            7 
 1148000   0.80582352   -3.1934515    898.61494  0.065230469  0.065985709            4 
 1149000   0.81357083   -3.1890716     898.5477  0.065168821  0.065951122            4 
 1150000    0.8009726   -3.1995276    898.11256  0.065080621  0.065916138            4 
 1151000   0.80225863   -3.2183996    898.40018  0.065044902  0.065881051            2 
 1152000   0.78185348   -3.2000481    899.24454  0.065049518  0.065846209            3 
 1153000   0.78837911   -3.2097794    900.61006  0.065091794  0.065811714            4 
 1154000   0.79439068   -3.2014853    905.60794  0.065396298  0.065776937            6 
 1155000   0.78955485   -3.1897903    906.30011  0.065389618  0.065742822            6 
 1156000   0.79328138   -3.1850988     905.5898  0.065281848  0.065708629            4 
 1157000   0.79480349    -3.193492    905.34078  0.065207489  0.065674131            6 
 1158000   0.78297608   -3.2172018    904.77592   0.06511053  0.065639723            2 
 1159000    0.7856987   -3.2080886    904.99961  0.065070435  0.065605161            5 
 1160000   0.78947098   -3.2011078      907.982  0.065228592  0.065571476            2 
 1161000   0.80120533   -3.1911306    904.34558  0.064911397   0.06553726            9 
 1162000    0.7791296   -3.2010805    905.15765  0.064913773  0.065503303            2 
 1163000   0.76623093   -3.2115352    907.64993  0.065036538  0.065469489            4 
 1164000   0.80023563   -3.2162037    909.25947  0.065095895  0.065436134            5 
 1165000   0.79579947   -3.2071899    908.19915  0.064964174   0.06540255            5 
 1166000   0.79300294   -3.2125212    909.26952  0.064984957  0.065369221            3 
 1167000    0.7712258   -3.1940711     908.7421  0.064891609  0.065335283            3 
 1168000   0.80468205   -3.2117589    909.60886  0.064897893  0.065301502            4 
 1169000   0.78017587   -3.2123874    910.23663  0.064887128  0.065268514            6 
 1170000   0.78504693   -3.2167885    906.19304  0.064543664  0.065234915            3 
 1171000   0.80060177   -3.1838667     912.4536  0.064934074  0.065201711            3 
 1172000   0.78109561    -3.221015    909.65643   0.06467978  0.065168264            3 
 1173000   0.79511866   -3.2252721    912.86254  0.064852411  0.065134895            8 
 1174000   0.79443637   -3.2095591    913.51539  0.064843512  0.065101429            3 
 1175000   0.78409385   -3.1990365    914.41073  0.064851825  0.065068368            4 
 1176000   0.78407402   -3.2135393     912.1561  0.064636912  0.065035352            6 
 1177000   0.79721838   -3.2213721    911.33115  0.064523587  0.065001769            3 
 1178000   0.78416007   -3.1966419     913.4714  0.064620218   0.06496873            8 
 1179000   0.77724321   -3.2097149    915.81888  0.064731331  0.064935715            5 
 1180000   0.78672113   -3.2083184    914.10997  0.064555789  0.064902612            7 
 1181000   0.77592485   -3.2171995    912.55364   0.06439131  0.064869578            4 
 1182000   0.78095069   -3.2103363     913.9395  0.064434539  0.064836523            3 
 1183000   0.78393199   -3.1992373    913.22944  0.064330054  0.064803535            4 
 1184000   0.79778294   -3.2261508    911.83803  0.064177789  0.064770217            5 
 1185000   0.77320631   -3.2228082    912.89853  0.064198208  0.064736952            3 
 1186000   0.78958888   -3.2344719    916.04397   0.06436509  0.064703677            4 
 1187000   0.77079366   -3.2386722    914.36901  0.064193275  0.064670295            3 
 1188000   0.78548259   -3.2061516    917.67279  0.064370987  0.064637105            5 
 1189000   0.77183409   -3.2284409    917.24092  0.064286579  0.064603754            6 
 1190000    0.7719909   -3.2036707    920.15276  0.064436467  0.064570611            4 
 1191000   0.77719567   -3.2020434    919.27644   0.06432105  0.064537607            3 
 1192000   0.77875477   -3.2288754    917.06845  0.064112727  0.064504765            7 
 1193000    0.7615263   -3.2345467    918.36352   0.06414945  0.064471706            7 
 1194000   0.76943184   -3.2183271    921.77268   0.06433366  0.064438702            8 
 1195000   0.79361733   -3.2215121    921.53875  0.064263511  0.064405971            7 
 1196000   0.76978395   -3.2309627    918.74981  0.064015455  0.064373093            3 
 1197000   0.76935573    -3.227115    922.46098  0.064220341  0.064340485            4 
 1198000   0.76838498   -3.2163205    922.60657  0.064176862  0.064307933            8 
 1199000   0.78560873   -3.2330776    921.14558  0.064021794   0.06427512            5 
 1200000   0.77693893   -3.2333241    919.21521  0.063834389  0.064241783            3 
 1201000   0.78074433   -3.2004994    919.20865  0.063780783  0.064209059            4 
 1202000   0.79561416   -3.2214115    923.42973  0.064020364  0.064176524            4 
 1203000   0.76937577   -3.2379534    924.50818  0.064041852  0.064143679            3 
 1204000   0.77522454   -3.2341929     921.4257  0.063775311  0.064111067            6 
 1205000   0.77313456   -3.2300833    925.18887  0.063982633  0.064078882            3 
 1206000   0.78088374    -3.216885     923.6821  0.063825463  0.064046894            2 
 1207000   0.77144706   -3.2290954     924.0459  0.063797701  0.064014932            5 
 1208000   0.78153865   -3.2251655    924.37938  0.063767893   0.06398276            3 
 1209000   0.76065837   -3.2444831     924.9167  0.063752185  0.063950463            7 
 1210000   0.77740078    -3.260345    923.72137  0.063617174  0.063917956            8 
 1211000   0.77994087   -3.2153932    925.03658  0.063655146  0.063885664            2 
 1212000   0.76844448   -3.2139268    925.18577  0.063612883  0.063853504            4 
 1213000   0.77998263   -3.2453567    928.94585  0.063818758  0.063821238            4 
 1214000   0.77513422   -3.2425807    929.66517  0.063815566  0.063788998            3 
 1215000   0.77163569   -3.2568267    927.67031  0.063626222  0.063756751            6 
 1216000   0.77439279   -3.2229673    928.65882  0.063641641   0.06372441            3 
 1217000   0.76673967   -3.2356911    931.10855  0.063757091   0.06369227            5 
 1218000   0.77135162   -3.2453154    928.29123  0.063511989  0.063660178            3 
 1219000   0.77471558   -3.2370694    929.17025  0.063519979  0.063628156            4 
 1220000   0.76427913   -3.2510473    927.00082  0.063319728  0.063596024            6 
 1221000    0.7573269   -3.2388775    927.12644  0.063276442    0.0635636            5 
 1222000   0.76981947    -3.235165    931.23161   0.06350461  0.063531587            5 
 1223000    0.7598652   -3.2102549    931.49405  0.063470567   0.06349936            4 
 1224000   0.76250672   -3.2538368    931.13159  0.063394035  0.063467078            5 
 1225000   0.78927238   -3.2594691    930.03357   0.06326759  0.063434872            3 
 1226000   0.76423408   -3.2157059    932.09449  0.063356069  0.063402526            4 
 1227000   0.76195872   -3.2269788    932.48305  0.063330824  0.063370559            3 
 1228000   0.73349456   -3.2616358    933.88223  0.063374201  0.063338353            5 
 1229000   0.78879312   -3.2384644    934.27514  0.063349277  0.063306006            6 
 1230000   0.77807429   -3.2498823    930.57911  0.063047365  0.063274174            3 
 1231000   0.77865749   -3.2312768    934.42765  0.063256678  0.063242245            4 
 1232000   0.76104682   -3.2420015    932.87794   0.06310051  0.063210606            4 
 1233000    0.7659465   -3.2467911    934.47478  0.063157257  0.063178673            5 
 1234000   0.74375185   -3.2647323    929.27505  0.062754933  0.063146492            6 
 1235000   0.75291126   -3.2406733    932.85907  0.062945956  0.063114346            4 
 1236000   0.76293384   -3.2615212    934.91289  0.063033501  0.063082518            5 
 1237000    0.7545403   -3.2485577    934.08214  0.062926579  0.063050495            3 
 1238000   0.76650745   -3.2539303    936.53743  0.063041022  0.063018455            5 
 1239000   0.75306821   -3.2482817    938.19994   0.06310196    0.0629866            5 
 1240000    0.7506247    -3.227466     935.8769  0.062894953  0.062955295            3 
 1241000   0.76252306   -3.2482238    935.44953  0.062815574   0.06292397            4 
 1242000   0.74911362   -3.2490443     936.9345  0.062864633  0.062891999            5 
 1243000   0.77312602   -3.2381682      936.555  0.062788616  0.062860146            7 
 1244000   0.75303844   -3.2730041    937.42841  0.062796651  0.062828193            5 
 1245000   0.75617147   -3.2670256    935.95346  0.062647487  0.062796289            4 
 1246000   0.75532899   -3.2612325    937.05091  0.062670606  0.062764539            8 
 1247000   0.76214083   -3.2642114    935.47557  0.062515074  0.062732361            5 
 1248000   0.75015785    -3.247191    937.26238  0.062584294  0.062700753            4 
 1249000   0.75809746   -3.2432639     937.8917  0.062576174  0.062668954            6 
 1250000   0.75715382   -3.2435067    938.84571  0.062589714  0.062637069            3 
 1251000   0.75739404    -3.253406    939.93197  0.062612042  0.062605432            7 
 1252000   0.74774515   -3.2420645    940.27955  0.062585167  0.062574005            2 
 1253000   0.75042297   -3.2679963    941.35184  0.062606534  0.062542232            6 
 1254000   0.74509689   -3.2534543    938.60782  0.062374257  0.062510481            3 
 1255000   0.75069451   -3.2644751      941.256  0.062500399  0.062478801            4 
 1256000   0.75720279   -3.2629205    943.54452  0.062602476     0.062447            9 
 1257000   0.74453223   -3.2450078    938.77144   0.06223624  0.062415305            3 
 1258000   0.76143133   -3.2576308     941.3974  0.062360718  0.062383275            4 
 1259000   0.74576704   -3.2587276    942.95334  0.062414174  0.062351854            7 
 1260000   0.77288365   -3.2731227    941.99245  0.062301088   0.06232024            2 
 1261000   0.75603672   -3.2744579     941.3981  0.062212404  0.062288751            2 
 1262000   0.73627404   -3.2650828    943.31896  0.062289947  0.062257045            5 
 1263000   0.72025851    -3.267709    944.15873  0.062296037  0.062225372            6 
 1264000   0.75771693   -3.2673164    943.48479   0.06220232  0.062193848            7 
 1265000   0.74376286   -3.2758486    943.92263  0.062181992  0.062162163            4 
 1266000   0.75140643   -3.2710777    944.83533  0.062192952  0.062130534            5 
 1267000   0.74440434   -3.2927048    944.04591  0.062091944  0.062098373            2 
 1268000   0.75699764   -3.2810022    945.05027  0.062108982  0.062066634            7 
 1269000   0.73258331   -3.2650036    943.32005  0.061946418  0.062035019            3 
 1270000   0.74356355   -3.2827809    939.98219  0.061678621  0.062003164            8 
 1271000   0.74476093   -3.2793917    944.57254  0.061931061  0.061971008            9 
 1272000   0.75750623   -3.2881539    944.65068  0.061887492  0.061939158            8 
 1273000   0.75355983   -3.2711738    944.85783  0.061852437  0.061907203            5 
 1274000    0.7544285   -3.2708867    947.19592  0.061956824  0.061875208            9 
 1275000   0.73945621   -3.2653258    943.90085  0.061692866  0.061843224            5 
 1276000   0.74407051   -3.2700698    941.72319  0.061502298  0.061811032            7 
 1277000   0.75070333   -3.2750872    944.71595  0.061649435  0.061779187            6 
 1278000   0.73999668   -3.2626548     949.3181  0.061901284  0.061747209            3 
 1279000   0.74591938   -3.2590744    947.90382  0.061760739  0.061715312            5 
 1280000   0.74556643   -3.2683737    944.15805  0.061468623   0.06168356            4 
 1281000    0.7623112   -3.2669234     947.6793  0.061649707  0.061651777            8 
 1282000   0.72977104   -3.2693621    947.67498  0.061601338  0.061620055            6 
 1283000   0.73127585   -3.2687189    946.89934  0.061502945  0.061588157            3 
 1284000   0.72723496   -3.2839106    947.14866  0.061471226  0.061556122            7 
 1285000   0.74339769   -3.2909813    946.79655  0.061400555  0.061524426            3 
 1286000   0.74734385   -3.2897606    949.54393   0.06153084  0.061492826            4 
 1287000   0.72852846   -3.3012115    948.58334  0.061420832  0.061461318            7 
 1288000   0.74346877   -3.2663614    951.84056  0.061583887  0.061429874            3 
 1289000   0.74269464   -3.2849331     949.4387  0.061380832  0.061398513            4 
 1290000   0.75913431    -3.297728    952.46773  0.061528923  0.061367173            3 
 1291000   0.73697123   -3.2844683    953.43371  0.061543617  0.061336019            4 
 1292000   0.74935386   -3.2743857    954.88198  0.061589395  0.061304882           18 
 1293000   0.73027963   -3.3034383    954.23466  0.061500043  0.061273837            6 
 1294000   0.73855784   -3.2707319    949.38995  0.061140517  0.061242762            4 
 1295000   0.73050022   -3.2997328    954.47501  0.061420528  0.061211815            6 
 1296000   0.71667578   -3.2767209    952.52588  0.061247806  0.061180736            5 
 1297000   0.73871342   -3.2931246    953.72481  0.061277616  0.061149787            4 
 1298000   0.73561499   -3.2931494    955.98745  0.061375671  0.061119126           10 
 1299000   0.73974852   -3.2792181    957.86757  0.061449036  0.061088186            3 
 1300000   0.73942017   -3.2784493    953.68392  0.061133585  0.061057636            2 
 1301000   0.73419725   -3.2558237    958.33708  0.061384645  0.061026891            5 
 1302000   0.73447144   -3.2527019     956.7489  0.061235848  0.060995967            4 
 1303000   0.75080556   -3.2777557    955.57638  0.061113864  0.060965193            5 
 1304000   0.73557719   -3.2956042    953.96096  0.060963763  0.060934469            4 
 1305000   0.74612586   -3.2907867    957.84135  0.061164837  0.060904023            2 
 1306000   0.72763059   -3.2972762    956.26564   0.06101746  0.060873234            3 
 1307000   0.71934802   -3.2932207    960.19863   0.06122154  0.060842488            8 
 1308000   0.74100922   -3.3115996    959.06664  0.061102614  0.060811822            5 
 1309000   0.73053026   -3.2826656    958.55549  0.061023395  0.060781081            6 
 1310000   0.72687031   -3.2816826    963.04261  0.061262253  0.060750463            4 
 1311000   0.71998697   -3.3019122    961.07107  0.061090203  0.060720165            6 
 1312000   0.73056331   -3.3140139    957.95949  0.060846004  0.060689406            5 
 1313000    0.6962448   -3.2678112     964.6593  0.061224886   0.06065905            4 
 1314000   0.71557544   -3.2995423    958.61186  0.060794765    0.0606286            6 
 1315000   0.73816678    -3.311785    962.19516  0.060975612  0.060598341            4 
 1316000   0.73761018   -3.3197124    957.64857  0.060641373  0.060567989            5 
 1317000   0.72848545   -3.2933363    963.12238  0.060941684  0.060537675            3 
 1318000   0.75117216   -3.3035358    958.98289  0.060633718  0.060507282            6 
 1319000   0.74406678   -3.2954943    965.50793  0.060999995  0.060477403            4 
 1320000    0.7183659   -3.2988632    965.54753  0.060956283  0.060447682            5 
 1321000    0.7103977   -3.2894975    965.71581  0.060920755  0.060417816            7 
 1322000   0.73586237   -3.2963354    965.35068  0.060851657  0.060387918            5 
 1323000   0.71508444   -3.2912913    965.14843  0.060792922  0.060357905            5 
 1324000   0.73676523   -3.2881878    964.90245  0.060731524  0.060327745            5 
 1325000   0.71066431   -3.2871499     964.3168  0.060648855   0.06029776            8 
 1326000     0.725836   -3.3022121    966.37497  0.060732464  0.060267931            6 
 1327000   0.73539208   -3.3034852    964.32107  0.060557716  0.060237896            4 
 1328000   0.72878453   -3.3022459    966.79606  0.060667423  0.060208212            6 
 1329000   0.72231456   -3.2815496    969.74922  0.060806949  0.060178803            6 
 1330000    0.7349829   -3.2955176    967.07216  0.060593494  0.060149224            3 
 1331000   0.72200623   -3.3167254    967.02217  0.060544839  0.060119527            7 
 1332000   0.72934324   -3.3309909    965.21985  0.060386627   0.06008986            4 
 1333000   0.72915547   -3.2801341    965.86344   0.06038156  0.060059957            7 
 1334000   0.73360408   -3.3192239    966.39897  0.060369751  0.060030189            2 
 1335000   0.71873845   -3.2999256    967.05025  0.060365184  0.059999975           10 
 1336000   0.71190073   -3.3293043    966.73784  0.060300514  0.059969999           15 
 1337000   0.72425358   -3.3241292    967.76182  0.060319236  0.059939919            3 
 1338000    0.7043208   -3.3067892    966.25314  0.060180191  0.059909864           16 
 1339000   0.72074242   -3.3010554    967.43621  0.060208875  0.059879679            3 
 1340000   0.70009496   -3.3160655      966.748  0.060121144  0.059849432            5 
 1341000   0.72295444   -3.2836483    969.09198  0.060221972  0.059819265            9 
 1342000   0.71454057   -3.3040501    967.20546  0.060059952  0.059789037            3 
 1343000   0.71929701   -3.3069711    966.35832  0.059962665  0.059758665            4 
 1344000   0.74191548   -3.3195399    965.73971  0.059879694  0.059728064            6 
 1345000   0.69891936   -3.3152903    968.35592  0.059997269  0.059697596            6 
 1346000   0.71980847   -3.3025809    969.00607  0.059992946  0.059667257            2 
 1347000    0.7167506    -3.310636    970.77396   0.06005778  0.059637327            5 
 1348000   0.72021227    -3.308685    969.29268  0.059921654  0.059606959            6 
 1349000   0.71363752   -3.3155447    966.96931  0.059733711  0.059576295            8 
 1350000     0.707449   -3.2998248     972.6957  0.060042944  0.059546148            5 
 1351000   0.69656084   -3.3274285    969.04765   0.05977348  0.059515914            4 
 1352000    0.7158142   -3.3135406    970.56617  0.059822865  0.059485701            4 
 1353000   0.72366927    -3.315503    968.60618  0.059657931  0.059455078            5 
 1354000   0.71406425   -3.3083687    970.05169  0.059702837  0.059424494            5 
 1355000   0.72442412   -3.3338778    971.53898  0.059750245  0.059394154            6 
 1356000   0.72485327   -3.3175671    969.91723  0.059606516   0.05936394            6 
 1357000    0.6998528   -3.3401051    970.20813  0.059580455  0.059333395            8 
 1358000   0.70207969   -3.3200302     973.5431  0.059741231  0.059303135            2 
 1359000   0.71870606   -3.3086478    970.63075  0.059518687  0.059272809            3 
 1360000   0.69948795   -3.3264747    972.23664  0.059573324  0.059242844            5 
 1361000   0.70922606   -3.3211584    973.25222  0.059591735  0.059212632            6 
 1362000   0.70127243    -3.339042    973.60988  0.059569865   0.05918233            6 
 1363000   0.71404082   -3.2940128    973.69542   0.05953139  0.059152182            4 
 1364000   0.70214842   -3.3293657    972.44761  0.059411511  0.059122143            9 
 1365000   0.70413781   -3.3119701    971.23972  0.059294244  0.059091768            5 
 1366000   0.71343948   -3.3307415    977.49619  0.059632515  0.059061532           14 
 1367000   0.70682714   -3.3605589    969.63984  0.059109964  0.059031002            5 
 1368000   0.71173546   -3.3292145    974.95356  0.059390446  0.059000661            3 
 1369000   0.71817436   -3.3234909    973.34962  0.059249429  0.058970327            3 
 1370000   0.70119238   -3.3171436     974.2168   0.05925893  0.058940405            2 
 1371000   0.70207026   -3.3482069    972.40456  0.059105553  0.058910037            5 
 1372000   0.70982727   -3.3061759    978.23205  0.059416427  0.058879873            5 
 1373000   0.69991171   -3.3290825    976.73887  0.059282524  0.058849726            3 
 1374000     0.697763   -3.3274083    975.61076  0.059170958  0.058820143            6 
 1375000   0.70524353   -3.3211889    975.33988  0.059111508  0.058790274            6 
 1376000   0.71400543    -3.335603    978.72118  0.059273327  0.058760448            6 
 1377000   0.69660275   -3.3459672    975.76044  0.059051104  0.058730446            4 
 1378000   0.70193943    -3.347256    977.33731  0.059103611  0.058700266            2 
 1379000   0.69250577   -3.3300381    978.39029  0.059124383  0.058670024            5 
 1380000   0.70538011    -3.329423    976.20138  0.058949358  0.058639996            5 
 1381000   0.71486626   -3.3581937    976.86119  0.058946488  0.058609943           10 
 1382000   0.69401032   -3.3366739    975.37993  0.058814516  0.058579838            6 
 1383000   0.71475765   -3.3331432    976.71789  0.058852609  0.058549603           10 
 1384000   0.70911756   -3.3326183    975.91017  0.058761451  0.058519603            3 
 1385000   0.70004917   -3.3230784    977.85046  0.058835768  0.058489631            3 
 1386000   0.70869874   -3.3356034    977.30397   0.05876046  0.058459568            8 
 1387000   0.70330358   -3.3438243    978.35564  0.058781281  0.058429613            7 
 1388000   0.69447433     -3.36368    978.40216  0.058741724  0.058399688            5 
 1389000   0.70428133   -3.3415053    981.83687    0.0589055  0.058369752            4 
 1390000   0.68623383   -3.3182106    979.14091  0.058701493  0.058339758            4 
 1391000   0.69478972   -3.3579717    979.78471  0.058697862  0.058310013            2 
 1392000   0.69767473   -3.3495384    981.10682  0.058734843  0.058279962            7 
 1393000   0.70542231   -3.3581471    978.47394  0.058535172  0.058249953            8 
 1394000    0.6867828   -3.3373386    976.84355  0.058395717  0.058219702            9 
 1395000   0.70191301   -3.3327079    983.75601  0.058766787  0.058189963            8 
 1396000   0.68733118   -3.3312901    980.80197  0.058548351  0.058160132            4 
 1397000   0.68634152   -3.3525321    985.07813   0.05876152  0.058130505            5 
 1398000   0.69427835    -3.357159    980.61548  0.058453474  0.058100499            4 
 1399000   0.69241378   -3.3509933    982.65062  0.058532917   0.05807062            7 
 1400000    0.7030855   -3.3339735    981.92628  0.058447993   0.05804089           10 
 1401000     0.688667   -3.3467324     982.9859  0.058469302  0.058010952            6 
 1402000   0.68802588   -3.3658032     982.3812  0.058391654  0.057980914            7 
 1403000   0.69401276   -3.3360887    985.51658  0.058536266  0.057951001            6 
 1404000   0.68761324   -3.3735134    982.38446   0.05830867  0.057921158            7 
 1405000   0.69597506   -3.3495734    984.96457    0.0584202  0.057891298            3 
 1406000   0.69373467   -3.3416602    984.09701  0.058327229  0.057861472            6 
 1407000   0.69234779   -3.3496699    983.56999   0.05825456  0.057831644            7 
 1408000   0.68457512   -3.3543177     983.1932  0.058190885  0.057801834            6 
 1409000    0.7027459   -3.3306053    983.49171  0.058167241  0.057772011            5 
 1410000    0.6834395   -3.3488425     982.7378   0.05808143  0.057742017            5 
 1411000   0.68727086   -3.3487198    982.03576  0.057998804  0.057712062            4 
 1412000    0.7051317   -3.3432532    983.25763  0.058029841  0.057682009            9 
 1413000   0.68342697   -3.3714095    983.52946  0.058004804  0.057651725            5 
 1414000   0.68075763   -3.3523085    983.92158  0.057986892  0.057621427            6 
 1415000   0.69524602   -3.3505046    983.62825  0.057928637  0.057591371            3 
 1416000   0.69002238   -3.3409512    988.13165  0.058152757  0.057561355            8 
 1417000   0.68056162   -3.3594844    986.90252  0.058039433  0.057531584            8 
 1418000   0.67573289   -3.3626618    984.51938   0.05785845  0.057501723            6 
 1419000   0.68695378   -3.3507873    982.70981  0.057711405  0.057471869           11 
 1420000   0.67916134    -3.354088    985.45579  0.057831913  0.057441625            3 
 1421000   0.68132644   -3.3505545    988.20834  0.057952635  0.057411538            4 
 1422000   0.68956833    -3.370014    982.95276  0.057603889  0.057381251            5 
 1423000   0.68007994   -3.3592054    987.35734  0.057821348   0.05735142            4 
 1424000   0.67472449   -3.3797375    987.66317   0.05779864  0.057321526            9 
 1425000   0.67069979   -3.3648884    983.96808  0.057541993  0.057291613            6 
 1426000   0.68555891   -3.3645637    987.12621  0.057686197  0.057261684           11 
 1427000   0.68448097   -3.3729637    986.22233  0.057592988  0.057231716            9 
 1428000   0.67916168   -3.3449495    986.87569  0.057590785  0.057202344            4 
 1429000   0.67974227   -3.3568788    994.01411  0.057966766  0.057172811            7 
 1430000   0.67191259   -3.3841633    987.30288  0.057535133   0.05714362            6 
 1431000   0.69664586   -3.3618298    989.44861  0.057619882  0.057113906            4 
 1432000   0.66935041   -3.3885778    986.38628  0.057401436  0.057084056            6 
 1433000   0.67746966   -3.3587853    989.29968  0.057530802  0.057054315            4 
 1434000    0.6857461   -3.3771695     987.9527  0.057412407  0.057024765           10 
 1435000   0.68239617   -3.3775849    989.54891  0.057465094   0.05699482            3 
 1436000   0.67553837   -3.3648494     989.1937  0.057404462  0.056965232            4 
 1437000   0.68149877   -3.3706923    990.11868  0.057418156  0.056935277            5 
 1438000   0.67213643   -3.3907454    989.64585  0.057350826  0.056905777            5 
 1439000   0.67891984   -3.3776229    987.76767  0.057202205   0.05687587            5 
 1440000   0.69112435   -3.3584919    989.68963  0.057273706  0.056846027            4 
 1441000   0.68091261   -3.3914193    991.98329  0.057366603  0.056816188            4 
 1442000   0.67533078    -3.371121    987.09243  0.057044176  0.056786413            4 
 1443000   0.68834119   -3.3787809    990.77424   0.05721727  0.056756602            6 
 1444000   0.67321225   -3.3873547    991.44725  0.057216485  0.056726841            5 
 1445000   0.66405727   -3.3722615     991.1158  0.057157774  0.056697287            3 
 1446000   0.68576282   -3.3775955    989.43844  0.057021579   0.05666754            4 
 1447000   0.68024648   -3.3671193    991.21663  0.057084579  0.056637924            7 
 1448000   0.68101952   -3.3776481    990.73536  0.057017459   0.05660827           13 
 1449000   0.65983392   -3.3684711    991.41888  0.057017419  0.056578625            5 
 1450000   0.66870022   -3.3766545    989.75196  0.056882296  0.056548955            6 
 1451000   0.67185466   -3.3975804    988.62357  0.056778289   0.05651931            5 
 1452000    0.6819572   -3.3706933    995.18528  0.057115776  0.056489648            5 
 1453000   0.66334818   -3.3740525     993.0787  0.056955649   0.05646014            5 
 1454000   0.67207038   -3.3912392    994.39205   0.05699175  0.056430624            7 
 1455000   0.66853312   -3.3825377    995.22006  0.057000004  0.056400806            8 
 1456000   0.66982142   -3.3836454    990.29573  0.056679014  0.056370903            9 
 1457000   0.66208285   -3.3762425    995.24448  0.056923157  0.056341223            8 
 1458000   0.68149247   -3.3878437      991.055  0.056644662  0.056311412            7 
 1459000   0.67351139   -3.3748399    996.17992  0.056898556  0.056281704           15 
 1460000   0.68531736   -3.3916378    993.14574  0.056686401  0.056252168            4 
 1461000   0.65233389   -3.3933668    994.60995  0.056731117  0.056222467            3 
 1462000   0.67492295   -3.3733298    993.17531   0.05661054  0.056192711            8 
 1463000   0.67076275   -3.4012644    993.32926  0.056580614   0.05616266            4 
 1464000   0.65930568   -3.3963693    993.04158  0.056525591  0.056132818           15 
 1465000   0.66543527   -3.3609354    996.57548  0.056688025  0.056102987            8 
 1466000   0.67010532   -3.3841325    996.40074  0.056639424  0.056073531            3 
 1467000     0.670159   -3.4070989    994.42354  0.056488499   0.05604411            5 
 1468000   0.66532453   -3.3801096    994.57902  0.056458846  0.056014509            6 
 1469000     0.654382   -3.4106203    994.47384  0.056414445    0.0559848           12 
 1470000   0.67075051   -3.4001157    995.11228  0.056412261   0.05595512            6 
 1471000   0.67553421   -3.3933941    994.89925  0.056361843   0.05592545           18 
 1472000   0.67391497   -3.4012631    996.18643  0.056396424  0.055895763            5 
 1473000   0.66605795   -3.3906795    995.46484  0.056317314  0.055866076            8 
 1474000   0.68298731   -3.4263923      996.313  0.056327058  0.055836552            6 
 1475000     0.674777   -3.3916019    998.08276  0.056388857  0.055807031           13 
 1476000   0.66287029   -3.4081502    996.69708  0.056272419  0.055777238            7 
 1477000    0.6612227   -3.4107154     996.1278    0.0562022  0.055747506            7 
 1478000   0.66838989   -3.3928902    999.37681  0.056347362  0.055717844            5 
 1479000   0.66428375   -3.4141966    997.90766  0.056226485  0.055688299            3 
 1480000   0.65721933   -3.4059553      998.068  0.056197522  0.055658736            5 
 1481000   0.66743143   -3.3846059    995.16104  0.055996007   0.05562926            9 
 1482000   0.65072393   -3.4123722    995.82248  0.055995416  0.055599665            4 
 1483000   0.66201583   -3.4075925    998.71088  0.056119964  0.055570148            4 
 1484000   0.66226375   -3.3943363    998.09493  0.056047559  0.055540622            5 
 1485000   0.66095245   -3.4065557    996.98371  0.055947458  0.055511121            8 
 1486000    0.6526041    -3.424793    997.39703  0.055932987  0.055481375            6 
 1487000   0.65489019   -3.4040759    1000.7302  0.056082169  0.055451856            7 
 1488000   0.66600066   -3.4256515    1002.4469  0.056140622  0.055422232            7 
 1489000   0.66281115   -3.4083346    998.24924  0.055867989  0.055392656            8 
 1490000   0.64316924   -3.4258564    996.34556  0.055724025  0.055362942           16 
 1491000   0.65467352   -3.4043605    999.57072  0.055866908  0.055333279           12 
 1492000   0.65500618    -3.385596    997.62972  0.055721052  0.055303762            7 
 1493000    0.6581051   -3.4276511    995.30564   0.05555401  0.055274089            6 
 1494000   0.66389126   -3.3950175    1000.1392  0.055786432  0.055244467            7 
 1495000    0.6619497   -3.4031741    1002.1662  0.055862105  0.055215094            5 
 1496000   0.65303712   -3.3880509    997.22979  0.055549788  0.055185727            9 
 1497000   0.65802267    -3.383481    1000.4959  0.055694495  0.055156384           11 
 1498000   0.64289572   -3.4263024    1000.4102  0.055652546  0.055127015            5 
 1499000   0.64016114   -3.4020745    999.77825   0.05558029  0.055097542            3 
 1500000   0.65106084   -3.4253669    1001.8365  0.055657585  0.055068243            7 
 1501000   0.66031786   -3.4299164    1001.0097    0.0555746  0.055038975            5 
 1502000   0.66482703   -3.4172725    997.84183  0.055361842  0.055009687            7 
 1503000    0.6446481   -3.4195612     1000.985  0.055499279  0.054980235            7 
 1504000   0.65241462   -3.4192083    999.18618  0.055362709   0.05495071            6 
 1505000    0.6547006   -3.3937719    1003.3655  0.055557334  0.054921611            6 
 1506000   0.66098548   -3.4151273     1002.593  0.055477701  0.054892436            9 
 1507000   0.66363479   -3.4084216    1001.7171  0.055392453  0.054863009            5 
 1508000   0.64348848   -3.4148216    1001.0513  0.055318928  0.054833695            6 
 1509000   0.64995271   -3.4116087    1005.6313  0.055535197  0.054804681            6 
 1510000   0.65879297   -3.4110149    1002.8934   0.05534732  0.054775646            7 
 1511000   0.64735659   -3.4367111    1002.4036  0.055283678  0.054746687            6 
 1512000    0.6590449   -3.4512685    1001.6217   0.05520402  0.054717476            6 
 1513000   0.64775877   -3.4330424     1003.377   0.05526421  0.054688002            4 
 1514000    0.6498675   -3.4241492    1001.9926  0.055151508  0.054658765            7 
 1515000   0.64953683   -3.4298252    1004.9801  0.055279436  0.054629431           12 
 1516000   0.65696833   -3.4474147    1000.3878  0.054990533  0.054600059           16 
 1517000   0.64842621   -3.4296426    1005.3851  0.055228804  0.054570608            5 
 1518000   0.63972242   -3.4249876    1002.3528  0.055025953  0.054541214            6 
 1519000   0.66030408   -3.4363274    1005.4658  0.055160512  0.054512064            4 
 1520000    0.6493257   -3.4178596    1005.7523  0.055139929  0.054482869            8 
 1521000    0.6599648   -3.4451412    1002.9687  0.054951166    0.0544537            6 
 1522000    0.6409279   -3.4231866    1005.3054  0.055043005  0.054424589            6 
 1523000   0.64186037   -3.4215088    1006.5377  0.055074288  0.054395587           14 
 1524000   0.64785419   -3.4157645    1001.5725  0.054766651  0.054366572            7 
 1525000   0.64162533   -3.4410918    1002.6504  0.054789637  0.054337279           10 
 1526000   0.63464742   -3.4383586    1007.1056  0.054997027  0.054307952            4 
 1527000   0.61928396   -3.4193797    1006.7566  0.054941967  0.054278761            5 
 1528000   0.65858641   -3.4435419     1007.119  0.054925774  0.054249676            3 
 1529000   0.64885716   -3.4474961     1006.586  0.054860802  0.054220632            8 
 1530000   0.64164976   -3.4401699    1006.3259  0.054810779  0.054191838            6 
 1531000   0.64958035   -3.4279439    1009.7695  0.054962418  0.054163015            4 
 1532000   0.65337477   -3.4489479    1007.0005  0.054775918  0.054134315            8 
 1533000   0.63294847   -3.4237746    1009.9224  0.054899019  0.054105554            7 
 1534000   0.64612209    -3.435266    1008.3405    0.0547773  0.054076834            5 
 1535000   0.64638686   -3.4196781    1008.9624  0.054775374  0.054048514            7 
 1536000    0.6248938    -3.428531    1006.6925  0.054616561  0.054019965            5 
 1537000   0.61900402   -3.4264168     1008.124  0.054658642  0.053991311            6 
 1538000    0.6488845   -3.4501787    1007.3454  0.054580919  0.053962613           12 
 1539000   0.63575185   -3.4501414    1010.6598  0.054724919  0.053934202            6 
 1540000   0.63378354   -3.4554976       1007.9  0.054540045  0.053905327            6 
 1541000   0.62892457   -3.4322895    1008.1027   0.05451561  0.053876625            9 
 1542000   0.63554947   -3.4497085    1005.9902  0.054366093  0.053847801            5 
 1543000   0.63623446   -3.4476453    1006.1905   0.05434168  0.053818897            5 
 1544000   0.62427768   -3.4281884    1005.0448  0.054244646  0.053790044            7 
 1545000   0.63059802   -3.4340716    1008.8138  0.054412824  0.053761374            5 
 1546000   0.63713551   -3.4374078    1013.3248  0.054620783  0.053732723            4 
 1547000   0.64505896   -3.4376314    1007.1073  0.054250552   0.05370407            8 
 1548000   0.62934077   -3.4354906    1011.8018   0.05446823  0.053675503            3 
 1549000   0.63973078   -3.4351227    1015.3057  0.054621566  0.053647252            8 
 1550000   0.62534571   -3.4349571    1011.4926  0.054381323  0.053618708            5 
 1551000   0.62799571   -3.4461081    1009.0318  0.054214047  0.053590297            8 
 1552000   0.63299265   -3.4646023    1009.0171  0.054178322  0.053561723            5 
 1553000   0.64236911   -3.4536799    1011.4973  0.054276525  0.053533252            9 
 1554000   0.62956758   -3.4456148    1010.3276  0.054178872   0.05350496           10 
 1555000   0.64330186   -3.4547135    1012.9843  0.054286404  0.053476939            8 
 1556000   0.64976211   -3.4532564    1011.4536  0.054169536  0.053448654           10 
 1557000   0.63953391   -3.4629799    1013.5295  0.054245851  0.053420347           11 
 1558000   0.64489283   -3.4564315    1013.4202  0.054205187  0.053392443           10 
 1559000   0.63732242   -3.4350274    1011.6157  0.054073965  0.053364237            9 
 1560000   0.63870192   -3.4645435    1013.4332  0.054136389  0.053336248            9 
 1561000   0.62966536   -3.4492353    1017.9982  0.054345409  0.053308149            4 
 1562000   0.63109472   -3.4605102     1014.495  0.054123718  0.053280295            9 
 1563000   0.63248371   -3.4671031    1018.6258  0.054309331  0.053252234            4 
 1564000   0.62171254    -3.435098    1018.6501  0.054275901  0.053224443            6 
 1565000   0.62907502   -3.4662671    1013.2612  0.053954268  0.053196633            3 
 1566000   0.62527711   -3.4747203    1012.6311  0.053886286  0.053168582           12 
 1567000   0.61740496     -3.45748    1017.0373  0.054086221  0.053140702           14 
 1568000   0.62676166   -3.4570957    1017.8958  0.054097355  0.053112833            4 
 1569000   0.62109531   -3.4492731    1016.1692  0.053971168  0.053085121            6 
 1570000   0.62190485     -3.46762    1012.9358  0.053765171  0.053057161           20 
 1571000   0.62711106   -3.4795773    1017.0296  0.053948101  0.053029085            9 
 1572000   0.62467395   -3.4805116    1015.3423  0.053824338   0.05300107            4 
 1573000   0.62383583   -3.4651848    1013.4816  0.053691544  0.052972981           12 
 1574000   0.62937656   -3.4738872     1014.149  0.053692768  0.052945037            6 
 1575000   0.63261458   -3.4607083     1014.355  0.053669578  0.052917061            7 
 1576000   0.62622743   -3.4645922    1018.7014  0.053865344  0.052889107            4 
 1577000   0.62279542   -3.4393674    1020.1692  0.053908752  0.052861494            9 
 1578000   0.62478749   -3.4548857    1016.0352  0.053656273  0.052833663            9 
 1579000    0.6125018   -3.4741884    1014.9419   0.05356459   0.05280575            8 
 1580000   0.62088412   -3.4582096    1016.5362  0.053614777  0.052777897            5 
 1581000    0.6272728   -3.4649418    1017.4981  0.053631569  0.052750253            9 
 1582000   0.61925349    -3.474362    1016.6012  0.053550419   0.05272238            8 
 1583000   0.61993787    -3.462112    1019.4115  0.053664535   0.05269449            6 
 1584000   0.62082826   -3.4529439    1015.1574  0.053406848  0.052666668            5 
 1585000   0.61354698   -3.4758702    1020.4456  0.053651187  0.052638878           10 
 1586000   0.61679607   -3.4718699    1013.4783  0.053251278  0.052610843            7 
 1587000   0.61558725   -3.4742851    1018.2524  0.053468411  0.052582751            7 
 1588000   0.63053217   -3.4842021    1016.4818  0.053341826  0.052554541            8 
 1589000   0.62682661   -3.4800273    1020.4402  0.053515851  0.052526693            9 
 1590000   0.61476981   -3.4799305    1017.5436  0.053330378  0.052498824            9 
 1591000   0.61558928   -3.4658519    1016.5666  0.053245682  0.052471085           10 
 1592000   0.61172073   -3.4600326    1018.8177  0.053330072   0.05244321            8 
 1593000   0.62508885   -3.4641536    1018.3304  0.053271103  0.052415222           15 
 1594000   0.61741334   -3.4696994    1019.0909  0.053277443  0.052387357            9 
 1595000    0.6281758   -3.4843104     1020.218  0.053302926  0.052359347            8 
 1596000     0.612772   -3.4540102    1018.3224   0.05317055  0.052331509            8 
 1597000   0.62638042   -3.4889473    1019.8239  0.053215607  0.052303944            3 
 1598000   0.61865742   -3.4810895    1020.3277  0.053208576  0.052276192           18 
 1599000   0.62739142   -3.4613528    1021.3707  0.053229658  0.052248356            8 
 1600000   0.61896838   -3.4718122    1021.3954  0.053197679  0.052220572            9 
 1601000   0.62019505   -3.4959974    1021.2959  0.053159272  0.052193193            6 
 1602000   0.60718011   -3.4797676    1021.8943  0.053157214  0.052165682           10 
 1603000   0.62324332   -3.4971105    1020.5081  0.053051992   0.05213818            8 
 1604000   0.60390049   -3.5024695    1022.7415  0.053134948  0.052110529           12 
 1605000   0.59815137   -3.4769126    1020.7113  0.052996433  0.052082733            6 
 1606000   0.60248791   -3.4972331    1020.2623  0.052940136  0.052055284            5 
 1607000   0.61965823    -3.478856    1021.9381  0.052994092  0.052027617            6 
 1608000   0.62227607    -3.497876    1021.3609  0.052931223   0.05200002            7 
 1609000   0.60704022   -3.4796139    1024.7882  0.053075832  0.051972686            7 
 1610000   0.61163652   -3.4898246    1022.3861  0.052918536  0.051945416           12 
 1611000     0.617275   -3.4889644    1022.5678  0.052895085  0.051918134           15 
 1612000   0.61283377    -3.490585     1025.671  0.053022693  0.051890714            7 
 1613000   0.61626455   -3.5165945    1020.3514  0.052714993  0.051863247            6 
 1614000   0.61349948    -3.477012    1021.5543  0.052744441   0.05183578            5 
 1615000   0.62358883   -3.4854695    1024.0796  0.052842083  0.051808307           13 
 1616000   0.60557515   -3.4672062    1024.1189  0.052811411  0.051780814           11 
 1617000   0.60927585   -3.4834027    1022.9997  0.052721075  0.051753607            7 
 1618000   0.60693807   -3.4905855    1025.7701  0.052831175   0.05172634            8 
 1619000   0.60227906   -3.4873788    1020.9527  0.052550582  0.051698714           14 
 1620000   0.60061183   -3.4955403    1024.2088  0.052685639  0.051671102           23 
 1621000    0.5986747   -3.4881579    1022.1344  0.052546496  0.051643292            8 
 1622000   0.58984469   -3.4884921    1023.7256  0.052595851  0.051615611           15 
 1623000   0.61627992   -3.5037793    1020.9298  0.052419893  0.051587862           19 
 1624000   0.60319922   -3.5075393    1022.7881  0.052482969   0.05156008           12 
 1625000   0.60931525   -3.4996122     1020.979  0.052357898  0.051532329            6 
 1626000   0.60197174   -3.4903722    1021.6182  0.052358456  0.051504566            9 
 1627000   0.60289202   -3.4957161    1021.9859  0.052345107  0.051476821           18 
 1628000   0.61161758   -3.5046793    1022.8268     0.052356  0.051449294            7 
 1629000   0.60899686   -3.5175623    1022.1892   0.05229124  0.051421583            6 
 1630000   0.61429492    -3.502882    1024.2474  0.052364388  0.051393893            6 
 1631000   0.60269512   -3.5029984     1022.706  0.052253524  0.051366313            6 
 1632000   0.59954675   -3.5129254    1026.7214  0.052426543  0.051338977           10 
 1633000   0.60297991   -3.5075183    1024.9246  0.052302746  0.051311509           10 
 1634000   0.60048524   -3.4999752    1025.2619  0.052287938  0.051284101            8 
 1635000   0.60025057   -3.4861502    1023.0499  0.052143217  0.051256619           12 
 1636000   0.59780814   -3.5021859    1024.0155   0.05216053  0.051229302           10 
 1637000   0.59237232   -3.5061946    1024.7055  0.052163789  0.051201821            7 
 1638000   0.60045165   -3.5133526    1025.8634  0.052190855  0.051174359           15 
 1639000   0.60723218   -3.4969488    1026.1089   0.05217149  0.051146748            5 
 1640000   0.60578577    -3.506278    1022.9549  0.051979418  0.051119215           11 
 1641000   0.60395389   -3.5145213    1023.5594  0.051978435  0.051091729            9 
 1642000   0.59228004   -3.5365367    1024.3039  0.051984566  0.051064126           20 
 1643000   0.60121129   -3.5102698    1027.0073  0.052090044  0.051036658            5 
 1644000   0.59067503   -3.4890037    1023.2029  0.051865518  0.051009218            8 
 1645000   0.60737648   -3.5071408    1026.3647  0.051994161  0.050981643            8 
 1646000   0.60303035   -3.5310801    1023.7443  0.051829905  0.050954179           18 
 1647000   0.59561299   -3.4985642    1025.9063  0.051907825  0.050926655           12 
 1648000    0.5886892   -3.5222509    1020.6996  0.051613048   0.05089913           22 
 1649000    0.5924281   -3.5120128    1026.9023  0.051895203  0.050871704            9 
 1650000   0.60290111   -3.5091609     1028.591  0.051949042  0.050844243            8 
 1651000   0.60230524   -3.5120103    1027.3603  0.051855456  0.050816776            7 
 1652000    0.5945582   -3.5190969    1025.1755  0.051713856  0.050789337            9 
 1653000   0.59132914   -3.5191299    1025.7092  0.051709476  0.050761821            9 
 1654000   0.59437239    -3.517971    1025.1595  0.051650517  0.050734316            7 
 1655000   0.60067839   -3.5096822    1026.4698  0.051685286  0.050706926            5 
 1656000   0.59531072   -3.5324498    1026.9923  0.051680368  0.050679508           13 
 1657000   0.58782769   -3.5243492    1024.2638  0.051511958  0.050652022           17 
 1658000   0.59853002   -3.5204828    1024.7408  0.051504865  0.050624661           11 
 1659000   0.58151937   -3.5381011    1027.4467  0.051609741  0.050597094           14 
 1660000   0.59131441   -3.5177171    1027.2614  0.051569348  0.050569598            5 
 1661000   0.60063219   -3.5184643    1026.8444  0.051517378  0.050542255           22 
 1662000   0.60437886   -3.5196027    1026.0785  0.051447981  0.050514904            2 
 1663000   0.58365077   -3.5101042    1028.3277  0.051529749  0.050487553            6 
 1664000   0.58911662   -3.5215264     1027.826  0.051473658  0.050460185           10 
 1665000   0.58225821   -3.5227599    1023.4899  0.051225719  0.050432744            9 
 1666000   0.57650735   -3.5143369    1028.0327  0.051422205  0.050405243           11 
 1667000   0.58814666   -3.5152976    1026.4072  0.051310096  0.050377827           11 
 1668000   0.57605479   -3.5294116    1024.6472  0.051191408  0.050350365            9 
 1669000   0.58054636   -3.5322468     1025.856   0.05122109  0.050323029            7 
 1670000   0.58716577   -3.5358637    1025.9813  0.051196672   0.05029551            5 
 1671000   0.58720368   -3.5250869    1026.9506  0.051214372  0.050267992           11 
 1672000   0.59673064   -3.5138198    1027.3847  0.051205377  0.050240362            6 
 1673000   0.58499812   -3.5440884    1025.4995  0.051080866  0.050212716           11 
 1674000   0.58484281   -3.5412926      1026.94  0.051122062  0.050185178           11 
 1675000   0.58563839   -3.5299401    1027.6202  0.051125385   0.05015756            6 
 1676000   0.58894505   -3.5264678    1025.9048  0.051009587  0.050130149            5 
 1677000   0.59294083   -3.5272258    1029.8771  0.051176561  0.050102603           23 
 1678000   0.58571309   -3.5185796    1026.3532  0.050971056  0.050075188            4 
 1679000   0.57655049    -3.519802    1028.0034  0.051022604  0.050047754           12 
 1680000   0.58558772    -3.521593     1025.693   0.05087763  0.050020154           16 
 1681000   0.59047029   -3.5168656    1026.4847  0.050886612  0.049992759            9 
 1682000   0.59276803   -3.5142359    1028.5947  0.050960895  0.049965238           12 
 1683000   0.58450053    -3.535924    1028.7657  0.050939082  0.049937727           10 
 1684000   0.58452318   -3.5310271    1027.8599  0.050864012  0.049910198           14 
 1685000   0.58203501   -3.5344015    1027.6365  0.050822775  0.049882781            7 
 1686000   0.59220787   -3.5337365    1028.5495  0.050837758  0.049855377            5 
 1687000   0.58993731   -3.5342207    1030.1504    0.0508867  0.049828072           11 
 1688000   0.57528275   -3.5413265    1030.3518  0.050866497  0.049800752            4 
 1689000   0.57427191   -3.5511384    1028.1319  0.050726854  0.049773249            5 
 1690000   0.57424973   -3.5401664    1027.8536  0.050683115  0.049745815            9 
 1691000   0.57966531   -3.5404224    1030.8972  0.050803133  0.049718281           13 
 1692000   0.57497217   -3.5495144     1026.462  0.050554669  0.049690747           13 
 1693000   0.57655245   -3.5438145    1029.1362   0.05065644  0.049663183            7 
 1694000    0.5770087    -3.557406    1028.0058  0.050570927  0.049635817           12 
 1695000   0.58794883   -3.5259385    1029.9053  0.050634481  0.049608555            9 
 1696000   0.57065373   -3.5491163    1026.5727  0.050440874  0.049581156           16 
 1697000   0.57555415   -3.5388511    1029.7051  0.050564975  0.049553715           16 
 1698000    0.5728139   -3.5474928    1028.3491  0.050468642  0.049526375           10 
 1699000   0.56383767   -3.5403927    1027.9101  0.050417408  0.049499002            5 
 1700000   0.56656316   -3.5378223    1028.7918  0.050430972  0.049471623            6 
 1701000   0.56732413   -3.5621248    1028.7288  0.050398238  0.049444102            6 
 1702000   0.56520913   -3.5431103    1027.3204  0.050299667  0.049416596           11 
 1703000   0.55814039   -3.5499985     1030.493  0.050425377  0.049389049           10 
 1704000   0.56957195   -3.5436944    1027.6128   0.05025493  0.049361424            7 
 1705000    0.5695771   -3.5315634    1027.8575  0.050237416  0.049333799            3 
 1706000   0.56548567   -3.5431757    1026.5908  0.050146092  0.049306287            7 
 1707000   0.56397276   -3.5429341    1028.1495  0.050192809  0.049278775            6 
 1708000   0.56526892   -3.5685386    1027.9566  0.050154013  0.049251162            9 
 1709000   0.57064608   -3.5713649    1026.7539  0.050066019  0.049223526           14 
 1710000    0.5696999   -3.5392787    1024.4846   0.04992615  0.049195838           11 
 1711000   0.56406021   -3.5546218    1026.9035  0.050014784  0.049168048            6 
 1712000   0.57835767   -3.5389623     1028.901  0.050082798  0.049140354            9 
 1713000   0.57142587    -3.555613    1025.6995  0.049897817  0.049112742           10 
 1714000   0.55802395    -3.558655    1028.7844   0.05001869  0.049085178            6 
 1715000   0.57747195   -3.5444446    1026.5967  0.049883221  0.049057584           11 
 1716000   0.57722134   -3.5633459    1029.8524  0.050012255  0.049030001           10 
 1717000   0.56738982   -3.5739521    1030.3078  0.050005231  0.049002625            7 
 1718000   0.57901973   -3.5683297    1027.7707  0.049853062  0.048975076            6 
 1719000   0.57102574   -3.5634615    1028.0009  0.049835218  0.048947469            9 
 1720000   0.55713084   -3.5616522    1028.5016  0.049830503   0.04891979           12 
 1721000   0.56467724   -3.5445246     1029.479  0.049848878  0.048892303           13 
 1722000   0.56372756   -3.5734554    1025.7603  0.049639967  0.048864762            9 
 1723000   0.57893294   -3.5680677    1028.7306  0.049754818  0.048837161           13 
 1724000   0.56301947   -3.5454183    1028.2287  0.049701696  0.048809681            7 
 1725000   0.55703275   -3.5735957    1028.9885  0.049709588  0.048782224           11 
 1726000    0.5664875   -3.5635368    1030.2477  0.049741583  0.048754702            9 
 1727000   0.56154886   -3.5594672    1028.6341  0.049634923  0.048727275           20 
 1728000   0.55265248   -3.5521856    1031.0391  0.049722178  0.048699978            6 
 1729000   0.56290513   -3.5664158    1030.2921  0.049657419  0.048672619           11 
 1730000   0.55294924   -3.5537167    1030.0333  0.049616248  0.048645206            8 
 1731000   0.56829405   -3.5523589     1032.167  0.049690305  0.048617954           12 
 1732000   0.57368671   -3.5735897    1030.1711  0.049565586  0.048590671            4 
 1733000   0.56146396    -3.573422    1029.4784  0.049503676  0.048563403           11 
 1734000   0.55219321   -3.5722681     1029.282  0.049465685  0.048536104           10 
 1735000   0.56171139   -3.5631525     1030.392  0.049490491  0.048508784            9 
 1736000   0.55869336   -3.5564998    1031.5399  0.049517084  0.048481447           11 
 1737000   0.55830602   -3.5578495    1028.3548  0.049335769  0.048454012            8 
 1738000    0.5529287   -3.5679799    1030.2346  0.049397518  0.048426651           55 
 1739000   0.55554315   -3.5859204    1030.4301  0.049378478  0.048399258           18 
 1740000   0.55692641   -3.5936094    1027.7476  0.049221626  0.048371797           15 
 1741000   0.55096376   -3.5739302    1028.0163  0.049206217  0.048344337           11 
 1742000   0.55593004   -3.5729004    1029.1302  0.049231257  0.048316862           10 
 1743000   0.56378077   -3.5756395    1029.8538  0.049237609  0.048289352           21 
 1744000   0.54922454   -3.5542273    1028.3451  0.049137284  0.048262026            9 
 1745000   0.56287385   -3.5798974    1028.0769   0.04909632  0.048234559            5 
 1746000   0.55880076   -3.6025859    1030.6922  0.049193021  0.048206993            7 
 1747000   0.54367533   -3.5746609     1029.362   0.04910141   0.04817955           17 
 1748000    0.5697855   -3.5854436    1027.0502  0.048963112  0.048152201            7 
 1749000   0.56203737   -3.5642314    1029.4285  0.049048432  0.048124765           25 
 1750000   0.56825249   -3.5890308    1029.9229  0.049043946  0.048097459           11 
 1751000   0.54559625   -3.5969583    1029.0978  0.048976671  0.048070144           12 
 1752000   0.54423943   -3.5539827    1032.4112  0.049106319  0.048042919           13 
 1753000   0.54360231   -3.6046916    1028.7541  0.048904453  0.048015589            9 
 1754000    0.5559433   -3.5927497    1030.9363  0.048980252  0.047988303           11 
 1755000   0.53943008   -3.5696984    1028.7742  0.048849677   0.04796107           13 
 1756000   0.55545256   -3.5903732    1028.0316  0.048786618    0.0479339            9 
 1757000   0.55057009   -3.5936499    1032.1855  0.048955867  0.047906753           12 
 1758000   0.54642392   -3.5848218    1032.0537  0.048921774   0.04787953           11 
 1759000   0.55434205   -3.5791445    1031.9213  0.048887688  0.047852461           25 
 1760000   0.54523805   -3.5884765    1030.4256  0.048789093  0.047825193           14 
 1761000   0.54314256   -3.5938746    1031.8195  0.048827347  0.047797944           15 
 1762000   0.55629131   -3.5551016    1032.2282  0.048818963  0.047770938            4 
 1763000   0.55869025   -3.5967314     1033.642    0.0488581  0.047743931           27 
 1764000   0.54477671   -3.6099411    1031.4628  0.048727455  0.047716827            3 
 1765000   0.54485849   -3.5949861    1030.0992  0.048635469  0.047689726            9 
 1766000   0.54076375   -3.6093768    1029.7887  0.048593274  0.047662631            9 
 1767000   0.55055589   -3.5984946    1031.8436  0.048662687   0.04763545           14 
 1768000   0.55315484    -3.585897    1033.9066    0.0487324  0.047608418            5 
 1769000   0.54788636   -3.6192066    1032.3729  0.048632603   0.04758147           13 
 1770000   0.55301395   -3.6023773    1033.1045   0.04863957  0.047554467           12 
 1771000   0.54593661   -3.5922541    1035.6915  0.048733835  0.047527561            6 
 1772000   0.55024891      -3.6055    1035.1847    0.0486825  0.047500906            6 
 1773000   0.54362937   -3.5940255    1033.8035  0.048590127  0.047474087           21 
 1774000   0.54959955   -3.5923473    1031.0925  0.048435388  0.047447187           12 
 1775000   0.55763209   -3.6028673    1031.2088  0.048413559  0.047420354           14 
 1776000   0.53738852   -3.6117123    1031.8276  0.048415333  0.047393478            7 
 1777000   0.53177203    -3.618854    1031.1408  0.048355881   0.04736635            6 
 1778000   0.53474116   -3.6024959    1033.1573  0.048423197  0.047339321            8 
 1779000   0.54510953   -3.5950527    1032.4848  0.048364473  0.047312378           10 
 1780000   0.54532233   -3.6192479    1032.6908  0.048346946  0.047285379           15 
 1781000   0.54854782   -3.6060759    1031.0406  0.048242587  0.047258324            9 
 1782000   0.54846373   -3.6152744    1030.3017  0.048180961  0.047231301            9 
 1783000   0.54884017   -3.6252179     1031.591  0.048214201   0.04720415           10 
 1784000   0.54031756    -3.600104    1032.1298   0.04821234  0.047176927           11 
 1785000   0.53020308     -3.60572    1031.0772  0.048136192  0.047149722           13 
 1786000   0.54931799    -3.610828     1031.443  0.048126308  0.047122536            6 
 1787000   0.53479662   -3.6047849    1032.7186  0.048158861   0.04709539           24 
 1788000    0.5329508   -3.6022969    1032.7569  0.048133713  0.047068263           10 
 1789000   0.54016911   -3.5972026    1030.7587  0.048013727   0.04704114           15 
 1790000    0.5465253   -3.6189968    1030.3607  0.047968373  0.047013866            8 
 1791000   0.53440019   -3.6102907    1032.2659  0.048030241  0.046986843           24 
 1792000    0.5302188   -3.6220369    1033.8461  0.048076922  0.046959852           37 
 1793000   0.53181211   -3.6209795    1032.1099  0.047969412  0.046932807           35 
 1794000   0.54402884   -3.5963728    1030.6304  0.047873951  0.046905818           12 
 1795000   0.53330974   -3.6120968    1029.5677  0.047797941  0.046878645           18 
 1796000   0.54221421   -3.6219365    1032.5716  0.047910711  0.046851537           11 
 1797000     0.538435    -3.620879    1031.9548  0.047855444  0.046824456           10 
 1798000   0.54357716   -3.6134818    1031.1187  0.047790078  0.046797399           26 
 1799000   0.53559988    -3.616525    1030.9803  0.047757101  0.046770453           12 
 1800000   0.53169531   -3.6087712    1032.2493   0.04778932  0.046743568           11 
 1801000    0.5456765   -3.6085031     1033.658  0.047827967  0.046716624           18 
 1802000   0.53608228   -3.6289524    1031.2627  0.047690652  0.046689654           12 
 1803000   0.53726021   -3.6011046    1031.9343  0.047695242  0.046662682           30 
 1804000   0.54019646   -3.6261787    1031.4822  0.047647922  0.046635631           16 
 1805000   0.53915102   -3.6207262    1030.4563   0.04757416  0.046608618            9 
 1806000    0.5312182   -3.6343433    1031.6168  0.047601366   0.04658166           17 
 1807000   0.53515423    -3.608095      1029.51  0.047477866  0.046554725            9 
 1808000   0.53408869   -3.6155347    1034.1191  0.047664044  0.046527822           10 
 1809000   0.52783746   -3.6411286    1031.9503   0.04753779  0.046501044           12 
 1810000    0.5287221    -3.635938    1032.2921  0.047527263  0.046474125           12 
 1811000   0.54120518   -3.6275402    1033.2382  0.047544551  0.046447179           20 
 1812000   0.53162094   -3.6324034    1032.9298  0.047504131   0.04642028           18 
 1813000   0.52090771   -3.6263233    1032.7737  0.047470754  0.046393448           16 
 1814000   0.52151205   -3.6453549    1031.1057  0.047367957  0.046366664           12 
 1815000     0.522875   -3.6229583    1033.6479  0.047458579  0.046339972            8 
 1816000   0.52176767   -3.6352458    1033.7246  0.047435966  0.046313384           31 
 1817000   0.53114721   -3.6365867    1031.5446  0.047309878  0.046286623           16 
 1818000   0.54605981   -3.6346821    1031.1268  0.047264704  0.046259885           12 
 1819000   0.53519386   -3.6284727    1035.8939  0.047457115  0.046233225            6 
 1820000    0.5251423   -3.6346563    1035.9472  0.047433479  0.046206554           11 
 1821000   0.52538958   -3.6231497    1034.4439  0.047338639  0.046179786           27 
 1822000   0.52501842   -3.6421616    1031.5574  0.047180636  0.046152978           34 
 1823000   0.53362547   -3.6369143    1030.2043  0.047092902    0.0461261           32 
 1824000   0.53378505   -3.6333391     1033.229   0.04720527  0.046099312           27 
 1825000   0.52075917    -3.648581    1033.7347  0.047202497  0.046072525           21 
 1826000   0.53827378   -3.6589259    1033.9395  0.047185993  0.046045846           16 
 1827000   0.52079583    -3.635597    1034.3805  0.047180282  0.046019008            9 
 1828000   0.52553543   -3.6398394    1035.5361  0.047207152  0.045992261           13 
 1829000   0.51704275    -3.647319     1033.406  0.047084288  0.045965507            7 
 1830000   0.51552528   -3.6450903     1032.322    0.0470092  0.045938692            9 
 1831000    0.5230165   -3.6277019    1032.0143  0.046969522  0.045912033           20 
 1832000   0.51994528   -3.6332417    1031.2486   0.04690905  0.045885344           19 
 1833000   0.51652432   -3.6366213    1033.9775  0.047007526  0.045858751           16 
 1834000   0.51972726   -3.6452953    1034.3328  0.046998039  0.045832236            9 
 1835000   0.51774394   -3.6510878    1033.0018  0.046911981  0.045805542           14 
 1836000   0.52044825   -3.6394555    1033.6203  0.046914501   0.04577881           21 
 1837000   0.51581888   -3.6455123    1033.2577  0.046872516  0.045752099           10 
 1838000   0.51546396   -3.6433308    1031.9952  0.046789772  0.045725304           20 
 1839000     0.530093   -3.6623237    1030.6011  0.046701157  0.045698595           52 
 1840000   0.51112022   -3.6427301    1032.1457  0.046745728  0.045671768           22 
 1841000   0.51618477   -3.6359008    1032.1845  0.046722096  0.045645184           32 
 1842000   0.51618897   -3.6449733    1031.7566  0.046677369  0.045618461           21 
 1843000    0.5161718   -3.6557631     1031.429  0.046637232  0.045591676           26 
 1844000   0.51498609   -3.6440755     1031.195  0.046601363  0.045564914            8 
 1845000   0.51158519   -3.6520917     1031.949  0.046610164   0.04553828            8 
 1846000   0.50999001   -3.6601658    1034.0374   0.04667919    0.0455117           18 
 1847000   0.51453617   -3.6622208    1030.3332   0.04648679   0.04548505           21 
 1848000   0.51268689   -3.6594982    1035.0292  0.046673397  0.045458433           11 
 1849000   0.51642814   -3.6524588    1034.8223  0.046638826  0.045431908           24 
 1850000   0.51893631   -3.6522223    1030.8379   0.04643414  0.045405317           12 
 1851000    0.5151646   -3.6689354    1030.8401  0.046409152  0.045378706           11 
 1852000   0.51092028   -3.6739068    1031.4034   0.04640944  0.045351984           18 
 1853000   0.52360024   -3.6750093    1031.4859  0.046388103  0.045325366           20 
 1854000   0.52046726    -3.653401    1030.6043  0.046323459  0.045298855           11 
 1855000   0.51145079   -3.6408578    1032.9418  0.046403494  0.045272202           10 
 1856000   0.49857743   -3.6607412    1032.0387  0.046337946  0.045245663           10 
 1857000   0.51629609   -3.6591357    1034.0851  0.046404826  0.045219028            9 
 1858000   0.50300489   -3.6740148    1032.9935  0.046330891  0.045192484           17 
 1859000   0.51442763   -3.6459149    1033.7424  0.046339539  0.045165882           16 
 1860000   0.51824534   -3.6609026    1034.1825   0.04633434  0.045139409           10 
 1861000    0.5098774   -3.6794367    1033.6378  0.046285052  0.045113061           31 
 1862000   0.49730045   -3.6631434    1035.0274  0.046322387  0.045086548            8 
 1863000   0.51284182   -3.6639575    1031.5421  0.046141622  0.045059919           18 
 1864000   0.51471938   -3.6735895    1034.7672  0.046261049  0.045033457           18 
 1865000   0.50075871   -3.6671906    1033.0276  0.046158515  0.045006986           13 
 1866000   0.50292727   -3.6641304    1034.5009  0.046199578  0.044980408            8 
 1867000   0.49987583   -3.6588522    1033.0148  0.046108501  0.044953973           15 
 1868000    0.5173969   -3.6524979    1034.7882   0.04616293   0.04492759           10 
 1869000   0.51420356   -3.6799009    1033.3435  0.046073815  0.044901183           19 
 1870000   0.50928963   -3.6836467    1031.5695  0.045970119  0.044874641           18 
 1871000   0.50572763   -3.6624533    1036.3541  0.046158655  0.044848304           10 
 1872000   0.50928061   -3.6675549    1031.7937  0.045930986  0.044821896           12 
 1873000   0.51349035   -3.6828521    1034.7888  0.046039723  0.044795425           17 
 1874000   0.49837984   -3.6625941    1036.3838  0.046086081  0.044769044           20 
 1875000   0.51112689    -3.665748    1034.5266   0.04597896  0.044742547           11 
 1876000   0.51312837   -3.6584308    1032.5975   0.04586876  0.044716125           10 
 1877000   0.50644316   -3.6788911    1031.9904   0.04581737   0.04468968           15 
 1878000   0.50198774   -3.6874533    1032.5426  0.045817475  0.044663152           12 
 1879000   0.50508836   -3.6476782    1031.6456  0.045753309  0.044636661           21 
 1880000   0.49697376    -3.648095    1032.4023  0.045762512  0.044610414           11 
 1881000   0.50430358   -3.6683668    1034.4895  0.045830655  0.044584148            6 
 1882000   0.52025266   -3.6690296    1032.3235  0.045710394    0.0445578           16 
 1883000   0.49851384   -3.6749205    1033.6095  0.045743031  0.044531564           13 
 1884000   0.50073123   -3.6767895    1031.4757  0.045624366  0.044505129           16 
 1885000   0.50745816   -3.6723791    1033.0995   0.04567195  0.044478691           16 
 1886000   0.51612285   -3.6732235    1029.6001  0.045493113  0.044452324           48 
 1887000   0.49842459   -3.6956461    1031.5929  0.045557008  0.044425848           25 
 1888000   0.49871131    -3.694769    1032.9169  0.045591319  0.044399336           29 
 1889000   0.50126398    -3.694836    1032.5351   0.04555034  0.044372889           14 
 1890000   0.50129237   -3.6874039    1033.7654  0.045580484  0.044346492           28 
 1891000   0.50296831   -3.6804831    1032.8057  0.045514088  0.044320146           14 
 1892000   0.49764436   -3.6866162    1032.4379  0.045473835  0.044293788           12 
 1893000   0.51000969   -3.6701906    1033.2017  0.045483436  0.044267447           11 
 1894000   0.49058992   -3.6764036    1033.2739  0.045462598  0.044241105           11 
 1895000   0.49366607   -3.6837682    1035.1988  0.045523254  0.044214693           16 
 1896000    0.5075754    -3.692697    1030.8547   0.04530831  0.044188251           14 
 1897000    0.4985349   -3.6869533    1032.6768  0.045364469   0.04416178           22 
 1898000   0.49984917   -3.6745608    1031.1227  0.045272335  0.044135324           16 
 1899000   0.49044997   -3.6771063    1031.8984  0.045282534  0.044108974           10 
 1900000   0.49741881   -3.6822692    1031.5411  0.045243031  0.044082598           22 
 1901000   0.48865763   -3.6759522    1030.5218  0.045174546  0.044056202           41 
 1902000   0.49679811    -3.689137    1033.0639  0.045262177  0.044029896           10 
 1903000   0.49409226   -3.6952753    1032.5198  0.045214565  0.044003719            8 
 1904000   0.49813239   -3.7045218    1032.9045  0.045207656  0.043977467           14 
 1905000   0.49908735   -3.6988641     1031.113  0.045105556  0.043951192           10 
 1906000    0.4923798   -3.6946394    1032.5291  0.045143804  0.043924892           16 
 1907000   0.48722235   -3.7138687    1032.6895   0.04512714  0.043898537           31 
 1908000   0.48443787   -3.7218733     1031.491  0.045051144  0.043872209           14 
 1909000   0.50424203   -3.7152443    1032.2998  0.045062851  0.043845938            8 
 1910000   0.49584027    -3.696494    1034.3702  0.045129592  0.043819727           14 
 1911000    0.4924918   -3.6909115    1032.5545  0.045026797  0.043793503           23 
 1912000   0.49937217   -3.6963983     1031.446  0.044954935  0.043767328           14 
 1913000   0.48601037   -3.7027964    1031.2384   0.04492239  0.043741097           41 
 1914000   0.49644594   -3.6984415    1032.4168  0.044950228  0.043714879           43 
 1915000   0.49153716   -3.7176626    1030.8778  0.044859782  0.043688546           51 
 1916000   0.49544214   -3.7063892    1032.1984  0.044893807  0.043662234            9 
 1917000   0.49360262   -3.6971671     1032.305  0.044875021  0.043636032           11 
 1918000   0.48968733   -3.7212507    1034.5449  0.044948944  0.043609795           41 
 1919000   0.49576867   -3.7040087    1031.6228  0.044798628  0.043583686           24 
 1920000   0.47645099   -3.7161894    1030.7392  0.044736943  0.043557563           17 
 1921000   0.48966951   -3.7202742    1032.4917  0.044789679  0.043531328           12 
 1922000   0.48714314   -3.7177482    1030.8262  0.044694165  0.043505133           27 
 1923000   0.49079088   -3.6980257    1033.2233  0.044774802  0.043478999           39 
 1924000   0.48088161   -3.7044153    1033.3912  0.044758803   0.04345284            8 
 1925000    0.4897566     -3.72894    1033.4529  0.044738222  0.043426687           10 
 1926000   0.48625669   -3.7265154    1032.0223  0.044653092  0.043400481           21 
 1927000   0.48595113   -3.7022255    1034.3477  0.044730484  0.043374351            8 
 1928000   0.49454676   -3.7224021    1033.9114  0.044688425  0.043348271           10 
 1929000   0.48022424   -3.6926142    1031.6484  0.044567496  0.043322196           20 
 1930000   0.47642505   -3.7088163    1030.7003  0.044503468  0.043296221           15 
 1931000   0.48114036   -3.6961342    1033.3702  0.044595641  0.043270233           19 
 1932000   0.47107074   -3.7212405    1031.3297  0.044484547  0.043244207           28 
 1933000   0.47073456   -3.7211274    1032.6447  0.044518223  0.043218194           23 
 1934000   0.48135897   -3.7171993     1031.944  0.044465013  0.043192122           21 
 1935000   0.47967003   -3.7036923    1031.9807  0.044443613  0.043166116           15 
 1936000   0.48080872   -3.7131997    1031.7547  0.044410929  0.043140092           16 
 1937000   0.47438989   -3.7204513    1035.9168  0.044567061  0.043114072           11 
 1938000   0.47868742    -3.732888    1030.8046  0.044324244  0.043088033           12 
 1939000   0.48109636   -3.7226301    1032.0561   0.04435517  0.043061925           18 
 1940000   0.48160377   -3.7241413    1030.6308  0.044271082  0.043035972           14 
 1941000   0.47168459   -3.7184702    1031.4153  0.044281955  0.043010035           12 
 1942000   0.47601804   -3.7075016    1032.5685  0.044308638  0.042984119           11 
 1943000   0.47181058   -3.7027309    1030.4153  0.044193487  0.042958207           16 
 1944000     0.466858   -3.7140743    1032.3685  0.044254477  0.042932408            7 
 1945000   0.47686465    -3.714241    1032.3342  0.044230256  0.042906529           13 
 1946000   0.48892885    -3.725268    1032.0754  0.044196444  0.042880605           13 
 1947000   0.47724791   -3.7170416    1032.8133   0.04420533  0.042854767           16 
 1948000   0.49069083   -3.7356509    1034.8406  0.044269363  0.042828868            9 
 1949000   0.47063936   -3.7337572    1032.4818  0.044145793  0.042803004           17 
 1950000   0.47572706   -3.7336881    1032.2288   0.04411234  0.042777116           16 
 1951000    0.4844977   -3.7281888    1032.4921  0.044100978  0.042751198           35 
 1952000    0.4683657    -3.729731    1032.9296  0.044097062  0.042725339           13 
 1953000   0.47610377   -3.7381311    1031.4311  0.044010545  0.042699449           30 
 1954000   0.47196503    -3.732263    1030.2778  0.043938833  0.042673518           31 
 1955000   0.47231436   -3.7277747    1031.8363  0.043982793  0.042647568           14 
 1956000   0.46376358   -3.7212616    1029.7646  0.043872042  0.042621661            9 
 1957000   0.46851491   -3.7354882    1032.8041  0.043979053  0.042595876            7 
 1958000   0.46349884   -3.7189352    1032.5559   0.04394603  0.042570133           16 
 1959000   0.46866014   -3.7476432    1029.1729  0.043779687  0.042544334           14 
 1960000   0.47212039   -3.7425735    1030.1884  0.043800528  0.042518486           30 
 1961000   0.49006507   -3.7372636    1030.7053  0.043800155  0.042492634           23 
 1962000   0.46769018   -3.7492948    1031.6866  0.043819511  0.042466843           15 
 1963000   0.45954877   -3.7505226    1031.0999  0.043772285  0.042440943           21 
 1964000   0.47169757   -3.7530766    1031.8385  0.043781335  0.042415051           22 
 1965000   0.45812486   -3.7464164    1031.3617  0.043738834  0.042389228           16 
 1966000   0.46885526    -3.734116    1032.7974  0.043777441   0.04236339           12 
 1967000   0.47029409    -3.744183    1033.9221  0.043802833  0.042337662           16 
 1968000   0.46986656    -3.740338    1032.6464  0.043726557  0.042311864           17 
 1969000   0.46925912   -3.7493786    1031.9594  0.043675275  0.042285998           26 
 1970000   0.46430013   -3.7384762    1030.1299  0.043575715  0.042260281           27 
 1971000   0.46681275    -3.744395    1029.4632  0.043525419  0.042234497            6 
 1972000   0.46712786   -3.7299387    1032.6793  0.043639253   0.04220875           17 
 1973000   0.46904673    -3.738654    1031.9737  0.043587334  0.042183003           28 
 1974000   0.46524823   -3.7492113     1031.485  0.043544623  0.042157297           24 
 1975000   0.45581802   -3.7406489     1030.274  0.043471477  0.042131627           14 
 1976000   0.45902244   -3.7389613    1033.8953  0.043602198  0.042106026           13 
 1977000   0.46129201   -3.7542274    1032.0022  0.043500346   0.04208047           10 
 1978000   0.46350721   -3.7609651    1031.5342  0.043458638  0.042054868           24 
 1979000    0.4631314   -3.7519012    1032.9031   0.04349432  0.042029312           10 
 1980000   0.46717207   -3.7371613    1029.3654  0.043323458  0.042003702           26 
 1981000   0.47575914   -3.7384745    1029.6587  0.043313927  0.041978186           40 
 1982000   0.45800031   -3.7526648    1030.5252  0.043328506  0.041952738           32 
 1983000   0.48293931   -3.7548153    1029.0151  0.043243195  0.041927142           29 
 1984000   0.46434378   -3.7459036    1032.0444  0.043348641   0.04190158           12 
 1985000   0.45116176   -3.7551036    1028.4472  0.043175785  0.041876066           49 
 1986000   0.45694382   -3.7612736    1028.9135   0.04317361   0.04185052           20 
 1987000   0.45872575   -3.7588353    1030.6495  0.043224688  0.041824909           35 
 1988000   0.45757765   -3.7560478    1028.8971  0.043129489  0.041799372           16 
 1989000   0.44827261   -3.7632595    1030.4226   0.04317172  0.041773718           22 
 1990000   0.46407911   -3.7768233    1029.1552  0.043096953  0.041748129           14 
 1991000   0.45473188   -3.7590264    1030.2954  0.043123031  0.041722558           27 
 1992000   0.45458347   -3.7617776    1029.0388  0.043048814  0.041697052           32 
 1993000   0.45773007   -3.7652134    1030.7296  0.043097911   0.04167156           19 
 1994000   0.45814394   -3.7622012    1028.9969  0.043003881  0.041646056           24 
 1995000   0.46065648   -3.7666382      1031.22  0.043075189  0.041620552           27 
 1996000   0.45506013   -3.7511061    1031.9194  0.043082805  0.041595063           16 
 1997000   0.44939592   -3.7739901    1028.3547  0.042912481  0.041569605           17 
 1998000   0.44741196   -3.7783373    1028.6654  0.042903962  0.041544148           54 
 1999000   0.45331486   -3.7768487    1031.6909  0.043008626  0.041518609           29 
 2000000   0.45216671   -3.7582855    1031.5001  0.042979171    0.0414931           48 
 2001000   0.44651349   -3.7664034    1029.6113   0.04287903  0.041467665           43 
 2002000   0.45198717   -3.7774162    1029.4394  0.042850459  0.041442207           17 
 2003000   0.45910947   -3.7864209    1028.8244  0.042803478    0.0414168           24 
 2004000   0.44184189   -3.7758838    1029.2217   0.04279864  0.041391221           16 
 2005000   0.44817935   -3.7843902    1028.7075  0.042755924  0.041365682           12 
 2006000   0.44918732   -3.7757946    1028.9065  0.042742874  0.041340093           16 
 2007000   0.45309259   -3.7818572    1031.0966  0.042812514  0.041314585           23 
 2008000   0.45033088   -3.7645586    1027.5669  0.042644708  0.041289161           23 
 2009000   0.45465333   -3.7744989    1029.1405  0.042688755  0.041263682           14 
 2010000   0.44770347   -3.7837409    1027.8618  0.042614503  0.041238278           27 
 2011000   0.44621575    -3.775426    1026.4957  0.042536701  0.041212722           72 
 2012000   0.44327317   -3.7758584    1028.7462  0.042608772   0.04118719           82 
Loop time of 4887.65 on 48 procs for 2000000 steps with 4000 atoms

Performance: 70708.805 tau/day, 409.194 timesteps/s
99.4% CPU use with 48 MPI tasks x no OpenMP threads

MPI task timing breakdown:
Section |  min time  |  avg time  |  max time  |%varavg| %total
---------------------------------------------------------------
Pair    | 315.34     | 343.56     | 361.94     |  55.5 |  7.03
Neigh   | 32.712     | 33.922     | 35.072     |  11.7 |  0.69
Comm    | 309.32     | 329.76     | 358.16     |  64.4 |  6.75
Output  | 4.2068     | 4.2086     | 4.2399     |   0.2 |  0.09
Modify  | 4123.4     | 4132.5     | 4139.2     |   6.4 | 84.55
Other   |            | 43.65      |            |       |  0.89

Nlocal:        83.3333 ave          91 max          78 min
Histogram: 5 3 4 15 4 8 3 3 2 1
Nghost:        2195.56 ave        2215 max        2176 min
Histogram: 2 1 6 5 12 6 6 6 3 1
Neighs:        14556.9 ave       16041 max       12609 min
Histogram: 1 2 0 7 5 11 11 5 4 2
FullNghs:      29115.3 ave       31679 max       26941 min
Histogram: 5 0 7 7 10 8 3 2 5 1

Total # of neighbors = 1397533
Ave neighs/atom = 349.38325
Neighbor list builds = 108505
Dangerous builds = 0

#clear
#
#next RN
#
#jump SELF
Total wall time: 1:21:30
