
units lj                  # Use reduced LJ style units
atom_style atomic         # Uncharged point particles
atom_modify map hash      # Needed for indexing of clusters etc
                          # Used to be able to find where atoms are in relation to each other.

lattice fcc 1.0 spacing 1 1 1
Lattice spacing in x,y,z = 1.5874011 1.5874011 1.5874011
region box block 0 10 0 10 0 10 units lattice
create_box 2 box
Created orthogonal box = (0.0000000 0.0000000 0.0000000) to (15.874011 15.874011 15.874011)
  3 by 4 by 4 MPI processor grid
create_atoms 1 box
Created 4000 atoms
  using lattice units in orthogonal box = (0.0000000 0.0000000 0.0000000) to (15.874011 15.874011 15.874011)
  create_atoms CPU = 0.002 seconds
set type 1 type/fraction 2 0.48 78393
Setting atom values ...
  1918 settings made for type/fraction
mass 1 1.0
mass 2 1.0
pair_style lj/cut  3.5
pair_modify tail  yes
pair_coeff 1  1  1.0  1.0   # Intearaction between 1 and 1 set with epsilon = 1 and sigma = 1
pair_coeff 1  2  1.5  0.8
pair_coeff 2  2  0.5  0.88

write_data data.0
System init for write_data ...
Neighbor list info ...
  update every 1 steps, delay 10 steps, check yes
  max neighbors/atom: 2000, page size: 100000
  master list distance cutoff = 3.8
  ghost atom cutoff = 3.8
  binsize = 1.9, bins = 9 9 9
  1 neighbor lists, perpetual/occasional/extra = 1 0 0
  (1) pair lj/cut, perpetual
      attributes: half, newton on
      pair build: half/bin/atomonly/newton
      stencil: half/bin/3d
      bin: standard
WARNING: Not all mixed pair coeffs generated from mixing. Use write_data with 'pair ij' option to store all pair coeffs. (../write_data.cpp:312)


#############################
#   M E L T   S Y S T E M   #
#############################

velocity all create 2.4 9622624 mom yes dist gaussian # Assign velocities
                                                    # Temperature 2.4, random number seed, zero linear momentum
                                                                                # Gaussian distribution

timestep 0.002   # simulation timestep
thermo 1000       # output thermodynamic data every 1000 steps bf 100

# Define a fix  in this case with index 1 applied to all
# particles in the simulation. This fix is for simulations
# in the anisotropic NPT ensemble. Note that we use the MTK
# correction.
fix 1 all npt temp 2.4 2.4 0.1 iso 5.68 5.68 0.5 mtk yes tchain 5 pchain 5 # Use NPT ensemble
                                                                         # Set temperature and pressure and damping
                                                                         # Numbers of thermostats in chain and in barostat
run 10000          # run for 10000 steps
Per MPI rank memory allocation (min/avg/max) = 3.642 | 3.644 | 3.648 Mbytes
Step Temp E_pair E_mol TotEng Press Volume 
       0          2.4   -5.4168687            0   -1.8177687   -4.2006027         4000 
    1000    2.4491661    -4.947569            0   -1.2747384    5.7103066    3730.2078 
    2000    2.3676659   -4.8895111            0   -1.3389001    6.0400871    3729.0865 
    3000    2.4209987   -4.9583227            0   -1.3277325    5.5199717    3734.6474 
    4000    2.4289485   -4.8932829            0    -1.250771    5.5074627    3769.8119 
    5000    2.3976363    -4.925531            0   -1.3299757    5.5822376    3748.9537 
    6000    2.3917281   -4.9385805            0   -1.3518852    5.8567062    3718.5481 
    7000    2.4700726   -4.9148502            0   -1.2106675    5.5968664    3756.3718 
    8000    2.4132951   -4.9543994            0   -1.3353618    5.8308048     3713.775 
    9000    2.4137286   -4.9062309            0   -1.2865432    5.6663175    3745.3008 
   10000    2.4419233   -4.9378724            0   -1.2759032    5.6933018    3745.1049 
Loop time of 2.58681 on 48 procs for 10000 steps with 4000 atoms

Performance: 668003.060 tau/day, 3865.758 timesteps/s
99.6% CPU use with 48 MPI tasks x no OpenMP threads

MPI task timing breakdown:
Section |  min time  |  avg time  |  max time  |%varavg| %total
---------------------------------------------------------------
Pair    | 1.1466     | 1.2323     | 1.3376     |   3.2 | 47.64
Neigh   | 0.21202    | 0.22147    | 0.23604    |   1.0 |  8.56
Comm    | 0.76872    | 0.87589    | 0.96483    |   4.1 | 33.86
Output  | 0.0002423  | 0.00025042 | 0.00031951 |   0.0 |  0.01
Modify  | 0.19694    | 0.24167    | 0.27677    |   4.7 |  9.34
Other   |            | 0.01521    |            |       |  0.59

Nlocal:        83.3333 ave          93 max          74 min
Histogram: 1 5 4 11 3 8 7 3 3 3
Nghost:        1714.92 ave        1738 max        1683 min
Histogram: 2 2 1 4 9 5 11 3 9 2
Neighs:        10193.7 ave       11784 max        8556 min
Histogram: 1 4 4 6 9 6 9 4 3 2

Total # of neighbors = 489296
Ave neighs/atom = 122.32400
Neighbor list builds = 910
Dangerous builds = 224

# Equilibrate just above the melting temperature to avoid step fn in T

fix 1 all npt temp 1.25 1.25 0.1 iso 5.68 5.68 0.5 mtk yes tchain 5 pchain 5
run 2000
Per MPI rank memory allocation (min/avg/max) = 3.644 | 3.646 | 3.649 Mbytes
Step Temp E_pair E_mol TotEng Press Volume 
   10000    2.4419233   -4.9378724            0   -1.2759032    5.6933018    3745.1049 
   11000    1.2443093   -7.0101578            0   -5.1441604    5.9541119    2915.0923 
   12000    1.2502322    -7.086452            0   -5.2115725    5.7903265    2905.1927 
Loop time of 0.628401 on 48 procs for 2000 steps with 4000 atoms

Performance: 549967.552 tau/day, 3182.683 timesteps/s
99.6% CPU use with 48 MPI tasks x no OpenMP threads

MPI task timing breakdown:
Section |  min time  |  avg time  |  max time  |%varavg| %total
---------------------------------------------------------------
Pair    | 0.27964    | 0.30822    | 0.33649    |   2.4 | 49.05
Neigh   | 0.041146   | 0.043192   | 0.046274   |   0.7 |  6.87
Comm    | 0.19583    | 0.22821    | 0.25987    |   3.1 | 36.32
Output  | 5.1007e-05 | 5.2339e-05 | 6.9228e-05 |   0.0 |  0.01
Modify  | 0.041022   | 0.043955   | 0.04745    |   0.9 |  6.99
Other   |            | 0.004771   |            |       |  0.76

Nlocal:        83.3333 ave          92 max          77 min
Histogram: 3 1 8 6 14 9 4 1 1 1
Nghost:        2034.29 ave        2061 max        2010 min
Histogram: 2 5 6 7 4 6 11 3 3 1
Neighs:        13143.8 ave       15175 max       11829 min
Histogram: 4 3 8 13 9 5 1 3 0 2

Total # of neighbors = 630901
Ave neighs/atom = 157.72525
Neighbor list builds = 145
Dangerous builds = 11

#############################
# L I N E A R  Q U E N C H  #
#############################

# Define solid atoms. This closely follows ten Wolde  Ruiz-Montero and Frenkel  Faraday Discuss  1996  104  93-110
# Compute components of the per-atom q6 vector
compute q6 all orientorder/atom degrees 1 6 components 6 nnn NULL cutoff 1.3 # compute the Q6 parameter.
                                                                             # Use all neighbours within 1.3 unit cell.

# get number of connections
compute coord_number all coord/atom orientorder q6 0.5

# An atom is solid if it has 8 or more connections (of a possible 14)
variable is_solid atom c_coord_number>=8
group solid dynamic all var is_solid    # Must be dynamic to update
dynamic group solid defined

# do clustering
compute cluster solid cluster/atom 1.3 # Create a cluster where all atoms within are solid and max 1.3 units from another member

# define chunks one chunk per cluster
compute clus_chunks solid chunk/atom c_cluster nchunk every compress yes  # Says which atoms are in which chunk

# count the size of each chunk
compute size_chunks solid property/chunk clus_chunks count


# Find the maximum entry in the vector of chunk sizes
variable max_n equal max(c_size_chunks)


# Thermo style which includes this variable
# thermo_style custom step temp pe vol v_max_n

thermo ${N}  # Print the thermo information every 100 steps
thermo 1000  

# Reset the npt fix at a lower temperature (below freezing)
fix 1  all npt temp  ${temp} ${temp}  0.1  iso  5.68  5.68  0.5  mtk yes tchain  5  pchain  5
fix 1  all npt temp  0.45 ${temp}  0.1  iso  5.68  5.68  0.5  mtk yes tchain  5  pchain  5
fix 1  all npt temp  0.45 0.45  0.1  iso  5.68  5.68  0.5  mtk yes tchain  5  pchain  5

dump dmp2 all dcd ${N} traj.dcd
dump dmp2 all dcd 1000 traj.dcd


compute msd all msd com yes
variable twopoint equal c_msd[4]/6/(step*dt+1.0e-6)
fix 9 all vector 10 c_msd[4]
variable fit equal slope(f_9)/6/(10*dt)
thermo_style custom step temp pe c_msd[4] v_twopoint v_fit v_max_n

fix 1 all npt temp 1.25 ${temp} 0.1 iso 5.68 5.68 0.5 mtk yes tchain 5 pchain 5
fix 1 all npt temp 1.25 0.45 0.1 iso 5.68 5.68 0.5 mtk yes tchain 5 pchain 5
run 500000 # 5000000  # Run for this many steps
Neighbor list info ...
  update every 1 steps, delay 10 steps, check yes
  max neighbors/atom: 2000, page size: 100000
  master list distance cutoff = 3.8
  ghost atom cutoff = 3.8
  binsize = 1.9, bins = 8 8 8
  4 neighbor lists, perpetual/occasional/extra = 1 3 0
  (1) pair lj/cut, perpetual
      attributes: half, newton on
      pair build: half/bin/atomonly/newton
      stencil: half/bin/3d
      bin: standard
  (2) compute orientorder/atom, occasional
      attributes: full, newton on
      pair build: full/bin/atomonly
      stencil: full/bin/3d
      bin: standard
  (3) compute coord/atom, occasional
      attributes: full, newton on
      pair build: full/bin/atomonly
      stencil: full/bin/3d
      bin: standard
  (4) compute cluster/atom, occasional
      attributes: full, newton on
      pair build: full/bin/atomonly
      stencil: full/bin/3d
      bin: standard
Per MPI rank memory allocation (min/avg/max) = 9.833 | 9.840 | 9.846 Mbytes
Step Temp PotEng c_msd[4] v_twopoint v_fit v_max_n 
   12000    1.2502322    -7.086452 9.8607613e-34 6.8477506e-36 8.3333333e+20            1 
   13000    1.2384774   -7.1422505   0.46721573 0.0029949725  0.038131826            3 
   14000    1.2685457   -7.1650434   0.87132041 0.0051864308   0.03511722            3 
   15000    1.2303986   -7.1703565    1.2583122 0.0069906229  0.034777847            2 
   16000    1.2200192   -7.1960988    1.6941446 0.0088236696  0.033899586            2 
   17000    1.2285449   -7.0945908    2.1219337  0.010401636   0.03437583            4 
   18000    1.2358056   -7.1655464    2.5104063  0.011622251  0.034498782            1 
   19000    1.2113826   -7.1471254    2.8825108  0.012642591   0.03424307            4 
   20000     1.218047   -7.1638253    3.3227893  0.013844955  0.034069892            1 
   21000    1.2467157   -7.2144051    3.6937936  0.014657911   0.03405355            1 
   22000    1.2381458    -7.139453    4.1205263  0.015608054  0.033975405            1 
   23000    1.2471496   -7.2121635    4.5018368  0.016311003  0.033876273            3 
   24000    1.2405234   -7.1176989    4.7745997  0.016578471  0.033572542            1 
   25000    1.2577641    -7.164861    5.1583844  0.017194614  0.033197655            1 
   26000    1.2236929   -7.2340577    5.4968182  0.017618007  0.032904373            2 
   27000    1.2355627   -7.1858202    5.8499919   0.01805553  0.032621151            2 
   28000    1.2104456   -7.1781537    6.2293952  0.018539866  0.032327212            3 
   29000    1.2548547   -7.2304655     6.587998  0.018931029  0.032092054            2 
   30000     1.247483   -7.2248507    6.9025106   0.01917364    0.0319103            1 
   31000    1.2295069   -7.1781488    7.3886546  0.019861974  0.031769529            2 
   32000    1.2194759   -7.2023865    7.8387792  0.020413487  0.031763939            1 
   33000    1.2172816   -7.1968708    8.1537082  0.020590172  0.031779962            3 
   34000    1.2470449   -7.2995793    8.4491265  0.020708643  0.031741715            1 
   35000     1.186953    -7.207213    8.7450665  0.020821587  0.031605317            1 
   36000    1.1865817   -7.2285506    9.1967901  0.021288866  0.031495372            2 
   37000    1.2094677   -7.2166791    9.5691104   0.02155205  0.031423027            2 
   38000    1.2130745     -7.19125     9.882853  0.021672923  0.031315046            2 
   39000    1.1920749   -7.2360137    10.197226  0.021788944  0.031211688            2 
   40000    1.1650405    -7.188965    10.583558  0.022049078  0.031134451            2 
   41000    1.2089285   -7.2354138    10.947441  0.022250896  0.031054323            2 
   42000    1.2233149   -7.2802524    11.250057  0.022321541  0.030982344            2 
   43000    1.2083342   -7.2115072    11.607837  0.022495809  0.030887306            3 
   44000      1.22439   -7.2484411    11.888854  0.022516768  0.030792031            1 
   45000    1.1922298   -7.2183399    12.248889  0.022683127  0.030708363            2 
   46000    1.1801087     -7.23152    12.578007  0.022786244  0.030614897            4 
   47000    1.2156012   -7.2883302    12.919485  0.022906888   0.03053067            1 
   48000     1.200706   -7.2991619    13.206242  0.022927504  0.030428441            3 
   49000    1.2051116   -7.2701685    13.618075  0.023159991  0.030325993            5 
   50000    1.2052327   -7.2566151    13.956915  0.023261524  0.030245583            1 
   51000      1.20753   -7.2791237    14.330401  0.023415687  0.030179311            2 
   52000    1.2108939   -7.3126547    14.567513  0.023345373  0.030114566            2 
   53000    1.2139824    -7.284358     14.95958  0.023521353   0.03005253            2 
   54000    1.1814188   -7.2934803    15.416177  0.023790397  0.030005567            5 
   55000     1.174547   -7.3369835    15.728326  0.023830796  0.029970693            2 
   56000    1.1905553   -7.2967282    16.076295  0.023923057  0.029947567            1 
   57000    1.1728333   -7.2672175    16.385959  0.023956081   0.02990672            2 
   58000    1.1685493   -7.3133586     16.58664  0.023831379  0.029835132            2 
   59000    1.1968481   -7.2443086    16.982937  0.023987198  0.029771902            1 
   60000    1.1564848   -7.3321915    17.229758   0.02393022  0.029701638            2 
   61000    1.1629976     -7.27653    17.603336  0.024048274  0.029634446            2 
   62000    1.1946847    -7.385056    17.748358   0.02385532  0.029551096            1 
   63000    1.1615593   -7.3551149    18.055581  0.023883043  0.029466111            1 
   64000    1.1716474   -7.3586513    18.325069  0.023860767  0.029369315            2 
   65000    1.1541679   -7.3480146    18.493583  0.023709722   0.02926404            3 
   66000    1.1428766   -7.3410177    18.742673  0.023664991  0.029149927            1 
   67000    1.1795359   -7.2947319    19.171181  0.023844752  0.029040276            1 
   68000    1.1718745   -7.3528621     19.41142  0.023788505  0.028935188            1 
   69000    1.1662499   -7.3652519    19.618702  0.023694085   0.02883145            2 
   70000    1.1497724   -7.3787262    20.007346  0.023818269  0.028731083            3 
   71000    1.1645927   -7.4099099     20.17234  0.023676455  0.028633548            1 
   72000    1.1963512    -7.426258    20.649341    0.0238997  0.028537324            3 
   73000    1.1456164   -7.3286773    20.946942  0.023912035  0.028450675            1 
   74000    1.1419297   -7.3528221     21.27524  0.023958603  0.028371697            1 
   75000    1.1419094   -7.3646302    21.633451  0.024037168  0.028296216            1 
   76000     1.156513   -7.3988785    21.764126  0.023864173  0.028220889            2 
   77000    1.1188516   -7.4288268    22.096253  0.023913694  0.028145121            3 
   78000    1.1204003   -7.3933641    22.337668   0.02386503  0.028069476            2 
   79000    1.1411447   -7.3860561    22.637621  0.023879346  0.027989004            4 
   80000    1.1165346   -7.4069095    22.779747  0.023728903  0.027906394            2 
   81000    1.1331704   -7.4169248    23.067198  0.023731685   0.02781471            1 
   82000    1.1577957    -7.438798    23.137415  0.023513633  0.027716973            2 
   83000    1.1298378   -7.4629809    23.478762  0.023573054  0.027617927            3 
   84000    1.1323772    -7.441148    23.931863  0.023741927  0.027531159            2 
   85000    1.1445739   -7.4197914    24.230252  0.023755148  0.027448395            2 
   86000     1.136202   -7.4361496    24.451284  0.023693105  0.027369359            1 
   87000    1.1227619   -7.4126407    24.838527  0.023791692  0.027295319            3 
   88000    1.1273259   -7.4385297    24.940525  0.023617922  0.027217116            4 
   89000    1.1356642   -7.4488738    25.129307  0.023529314  0.027132356            3 
   90000     1.117285   -7.4228633    25.341418  0.023464276  0.027045109            4 
   91000    1.1217649   -7.5132865    25.593217  0.023437012  0.026958638            3 
   92000    1.1493484   -7.4847612    25.954632  0.023509631  0.026880582            2 
   93000    1.1134558   -7.4749853    26.354329   0.02361499  0.026812268            2 
   94000    1.1374537   -7.4657251    26.633359  0.023611134  0.026747381            2 
   95000     1.112887   -7.4928487    26.891744  0.023589249  0.026685634            3 
   96000    1.1135117   -7.4723753    27.210883  0.023620558  0.026625734            2 
   97000    1.1203718   -7.4739336    27.392672  0.023533223  0.026559172            2 
   98000     1.131826   -7.4861851    27.527394  0.023407648  0.026488355            4 
   99000    1.1065944   -7.5292002    27.639054  0.023265197  0.026412793            2 
  100000    1.1215835   -7.4978526    28.008615  0.023340512   0.02633657            2 
  101000    1.0940295   -7.4686261    28.346031  0.023387814  0.026263029            2 
  102000    1.1092385   -7.4835465    28.565875  0.023338133  0.026194692            1 
  103000    1.1104925   -7.5133048    28.768996  0.023275886  0.026123065            2 
  104000    1.1295909   -7.4796411    29.029334  0.023260684  0.026052693            1 
  105000    1.1194809    -7.501727    29.238829  0.023205419  0.025980981            4 
  106000    1.1257284   -7.5517568    29.562241  0.023240756  0.025914881            6 
  107000     1.084943   -7.5213742    29.757011  0.023175242  0.025849795            2 
  108000    1.0924698   -7.5434805    29.886914   0.02306089  0.025779928            3 
  109000    1.0859617   -7.5262542    30.289025  0.023156747  0.025709187            2 
  110000    1.1091165   -7.5442279    30.381005  0.023015913  0.025640026            2 
  111000      1.09109   -7.5393091    30.435842  0.022849731  0.025561179            5 
  112000      1.09706   -7.5116347    30.615597  0.022779462  0.025478084            1 
  113000    1.0827937   -7.5197691     30.83104  0.022736755  0.025397848            2 
  114000    1.0808898   -7.5377436     31.14579   0.02276739  0.025319205            3 
  115000    1.0939791   -7.5775791    31.235908  0.022634716  0.025242275            2 
  116000    1.0785517   -7.5283533     31.59285  0.022696013  0.025167294            2 
  117000    1.0904129   -7.5774028    31.712327  0.022587128  0.025091602            2 
  118000    1.0751793   -7.5655577    32.050035  0.022634206  0.025018731            1 
  119000    1.0511876   -7.5988443    32.186202  0.022539357  0.024948703            3 
  120000    1.0795433   -7.5664241    32.475152  0.022552189   0.02487809            3 
  121000    1.0886738   -7.5554363    32.711525  0.022528599  0.024805261            3 
  122000    1.0779018   -7.5655003    32.999028  0.022540319  0.024734775            4 
  123000    1.0989885   -7.5501345    33.132549  0.022447526  0.024662294            1 
  124000    1.0760597   -7.5843822    33.283025  0.022367624  0.024589044            3 
  125000    1.0769314   -7.5905438    33.438308  0.022292205  0.024514825            2 
  126000    1.0469822    -7.599977    33.713123  0.022297039   0.02444491            2 
  127000    1.0525803   -7.6314671     34.08547  0.022365794  0.024379452            5 
  128000    1.0409475   -7.6152295    34.236914  0.022289657  0.024313362            1 
  129000      1.06733   -7.5959801    34.442432  0.022249633  0.024246894            2 
  130000    1.0242218   -7.6347038    34.409953  0.022057662   0.02417858            4 
  131000    1.0784033   -7.6636337    34.588526  0.022002879  0.024107742            4 
  132000    1.0669253   -7.6283675    34.871802  0.022015027  0.024039418            4 
  133000    1.0390254   -7.5915151    34.988651  0.021922714  0.023967328            2 
  134000    1.0409197   -7.6279296    35.356563  0.021987912  0.023897428            2 
  135000    1.0397927   -7.6503457    35.550589  0.021944808  0.023830479            3 
  136000    1.0323566   -7.6582556    35.558649  0.021788388  0.023761728            4 
  137000    1.0230881   -7.6054408    35.835782  0.021797921  0.023694578            4 
  138000    1.0754097   -7.6729254    35.992386  0.021734533  0.023625405            2 
  139000    1.0594422   -7.6847468    36.215971  0.021712213  0.023558009            3 
  140000    1.0285066   -7.6193542    36.530902  0.021744585  0.023489969            3 
  141000    1.0320597   -7.6589899     36.71045  0.021696483  0.023421859            2 
  142000    1.0329574   -7.6447302    36.837373  0.021618176  0.023355583            3 
  143000    1.0456627   -7.6947796    36.921786  0.021516192  0.023288222            2 
  144000    1.0023005   -7.6732804    37.240141  0.021551008  0.023222406            2 
  145000    1.0693732   -7.6493843    37.449311  0.021522593  0.023158343            2 
  146000     1.030365   -7.6915552    37.499121  0.021403608  0.023093943            3 
  147000    1.0310031    -7.711879    37.617939  0.021325362   0.02302847            1 
  148000    1.0327673   -7.6623177    38.037447  0.021417481  0.022962445            3 
  149000    1.0338757   -7.6964433      37.9909  0.021247707  0.022896786            2 
  150000    1.0122692   -7.7234771    38.219745  0.021233192  0.022831311            3 
  151000    1.0245434   -7.7253203    38.499944   0.02124721  0.022767942            4 
  152000    1.0343023   -7.6772993    38.856167  0.021302723  0.022706943            6 
  153000    1.0187288   -7.6684875    38.935276  0.021206577  0.022645407            2 
  154000    1.0139859   -7.7288695    38.901503  0.021050597  0.022581665            2 
  155000    1.0311137   -7.7098375     39.13358  0.021039559  0.022518614            4 
  156000    1.0145916   -7.7140711    39.228892  0.020955604   0.02245518            3 
  157000     1.018537   -7.6861289    39.563109  0.020999527  0.022392064            4 
  158000    1.0289994   -7.7207782    39.652193  0.020913604  0.022327479            2 
  159000    1.0192357   -7.7588291    39.603201  0.020756394  0.022264314            2 
  160000    1.0247975   -7.7490065    39.905279  0.020783999  0.022198756            4 
  161000    1.0139321   -7.7239519    40.183738  0.020799036   0.02213473            2 
  162000    1.0227276   -7.7856574    40.287315  0.020723927   0.02207283            5 
  163000   0.99027914   -7.7516835    40.448588  0.020679237  0.022009968            2 
  164000   0.97912659   -7.7599332    40.377396  0.020516969  0.021947106            1 
  165000   0.99296058   -7.7737798    40.646447  0.020528508  0.021882484           10 
  166000    1.0221355   -7.7900751    40.769209   0.02046647  0.021818359            6 
  167000     1.008573   -7.7831762    40.851144  0.020384802   0.02175205            4 
  168000   0.98314536   -7.7704296    40.963744  0.020319317  0.021687147            2 
  169000   0.99345632   -7.7681316    41.284566  0.020357281  0.021624156            2 
  170000   0.98122839   -7.7856866    41.425761  0.020306746  0.021562086            6 
  171000   0.98635232   -7.7795552    41.578407  0.020262381  0.021499843            3 
  172000    1.0224773   -7.7979983    41.646642  0.020177637  0.021436203            3 
  173000   0.99561408    -7.790143    41.842786  0.020155484  0.021371865            2 
  174000    1.0049252    -7.785187    42.127624  0.020176065  0.021310103            5 
  175000   0.99354117   -7.8051055    42.126708  0.020060337  0.021248954            1 
  176000    1.0061412   -7.8096186    42.418926  0.020084719  0.021187143            1 
  177000   0.99174479   -7.8261707    42.375546  0.019950822  0.021125194            2 
  178000   0.97792473   -7.7748887    42.398341   0.01984941  0.021061298            3 
  179000   0.96277457   -7.8645042    42.459937  0.019767196  0.020996725            2 
  180000   0.97752267   -7.8200955    42.511157  0.019681091  0.020931355            4 
  181000   0.98483475   -7.8296741    42.771579  0.019692256  0.020866566            4 
  182000   0.97884657   -7.8483649    42.678997  0.019541665  0.020801142            2 
  183000   0.99216747   -7.8038824    42.868182   0.01952103  0.020734135            2 
  184000   0.97923928    -7.813829     43.00338  0.019476168  0.020668076            2 
  185000   0.99298102   -7.8332755    43.016903  0.019376983  0.020601525            3 
  186000   0.99229007   -7.8375686     43.13956   0.01932776  0.020534642            2 
  187000   0.97645531   -7.8949553    43.115533  0.019213695   0.02046758            2 
  188000   0.98665452   -7.8642909    43.352283  0.019216437  0.020398622            5 
  189000   0.97567361   -7.8173653    43.631288  0.019237781  0.020332042            2 
  190000   0.96701144   -7.8944369    43.612241  0.019128176  0.020266067            2 
  191000   0.97668773   -7.8599131    43.633418  0.019037268  0.020199236            1 
  192000   0.97607105    -7.937379    43.804725  0.019012467  0.020132528            2 
  193000   0.97650171   -7.8845424    44.054256  0.019021699  0.020067325            1 
  194000   0.95810621   -7.9202513    44.096547  0.018941816  0.020002103            5 
  195000   0.94227764    -7.912986    44.367578  0.018960504  0.019938705            2 
  196000   0.96353497   -7.9063528    44.631857   0.01897613  0.019877035            1 
  197000   0.96319867   -7.9069987    44.736414  0.018924033   0.01981587            3 
  198000   0.93931596   -7.8774721     44.89041   0.01889327  0.019754586            4 
  199000   0.94165953   -7.9077145    44.992726  0.018841175  0.019693561            1 
  200000   0.95481872   -7.9316266    45.087551   0.01878648  0.019633162            2 
  201000   0.95420977   -7.9514732    45.020159  0.018665074  0.019573296            3 
  202000    0.9370728   -7.9465921    45.254888  0.018669508  0.019513062            3 
  203000   0.95200213   -7.8964828    45.442475  0.018654546   0.01945397            3 
  204000   0.93852584    -7.905589    45.661272   0.01865248  0.019396139            6 
  205000   0.93183416   -7.9338825    45.818285  0.018625319  0.019337929            3 
  206000   0.95600558   -7.9018867    45.779018   0.01851902  0.019279535           12 
  207000   0.93388103   -7.9312863     45.95939   0.01850217  0.019221357            2 
  208000   0.94379334   -7.9321947    46.086741  0.018464239  0.019163414            7 
  209000   0.94346689   -7.9298341    46.225294  0.018431138  0.019107208            4 
  210000   0.93155536   -7.9003857    46.423641   0.01842208  0.019050817            5 
  211000   0.93500401   -7.9274551     46.55655  0.018387263   0.01899598            3 
  212000   0.94424045   -7.9461357    46.660618  0.018341438  0.018940599            4 
  213000   0.91721838   -7.9528971    46.622963  0.018240596  0.018884343            8 
  214000   0.93433106   -7.9891778    46.609327  0.018150049   0.01882754            6 
  215000   0.92333586   -7.9987482    46.719373  0.018108284  0.018771193            3 
  216000   0.94089193   -8.0174784    46.661549  0.018002141   0.01871386            6 
  217000   0.91781048   -7.9891351     46.91482  0.018016444  0.018656173            4 
  218000   0.92808646   -8.0142411     46.90658   0.01793065  0.018598279            8 
  219000   0.92751022   -7.9619999    46.910671  0.017850332  0.018540377            6 
  220000   0.90630485   -8.0467668    46.998594  0.017802498  0.018482678            2 
  221000   0.91664023   -8.0430686     47.00288  0.017723559  0.018423986            8 
  222000   0.91270908   -8.0043321    47.239324  0.017732479  0.018365757            2 
  223000   0.92803195   -7.9974646    47.179591  0.017630639  0.018307971            4 
  224000   0.90950799   -8.0022816    47.392064  0.017630976  0.018249813            3 
  225000    0.9072773   -8.0267594     47.51109    0.0175967  0.018192459            5 
  226000   0.89948311   -8.0493714    47.519188  0.017521824  0.018134922            5 
  227000   0.90337086    -8.038195    47.499455  0.017437392  0.018076173            7 
  228000   0.91205675   -8.0457542    47.478203  0.017353144  0.018017362            6 
  229000   0.90946884   -8.0710771    47.607891   0.01732456  0.017958471            5 
  230000   0.89414899   -8.0397379    47.611503  0.017250545  0.017899756            4 
  231000   0.91669876   -8.0385271    47.876481  0.017271458   0.01784157           13 
  232000   0.88588445   -8.0542769    47.758901  0.017154778  0.017783604            5 
  233000   0.88818186    -8.020016    48.047809  0.017184481  0.017726891           10 
  234000   0.88812121   -8.0901966    47.963122  0.017080884  0.017669293            4 
  235000   0.89830888   -8.0613731    48.180867  0.017085414  0.017612757            7 
  236000   0.87306002   -8.0952772    48.248299  0.017036829  0.017556746           10 
  237000   0.88515735   -8.0991702    48.233574  0.016959766  0.017500202            6 
  238000   0.88629625   -8.0555642    48.252529  0.016895143  0.017442655            8 
  239000   0.89120529   -8.1251137    48.381543  0.016869436   0.01738532           14 
  240000   0.85879039    -8.124229    48.402988  0.016806593  0.017328242            7 
  241000   0.87955007   -8.1166531    48.484289  0.016764968  0.017271643            6 
  242000   0.88719284   -8.1053947    48.645083  0.016751062  0.017214804            3 
  243000    0.8747475   -8.1014116    48.805252  0.016737055   0.01715875            4 
  244000   0.88613278   -8.1177221     48.65257  0.016616315  0.017102953            3 
  245000   0.86441772   -8.1503881    48.734051  0.016576208  0.017047136            7 
  246000   0.87809645   -8.1749407    48.815585  0.016536445  0.016991168            5 
  247000   0.88945149   -8.1312103    48.892095  0.016495309  0.016934785            4 
  248000   0.86546246   -8.1894471    49.001806   0.01646566  0.016878981            7 
  249000   0.87748178   -8.1683784    49.047311  0.016414763  0.016823612           22 
  250000   0.87209765   -8.1739728    49.230397  0.016410132  0.016768501            5 
  251000   0.87262981   -8.1626994    49.163353  0.016322494   0.01671396            8 
  252000   0.87296326   -8.1742109    49.180068   0.01626325  0.016659122            4 
  253000   0.86841035   -8.1800989    49.336781  0.016250587  0.016604943            7 
  254000   0.86002367   -8.2082724    49.362839  0.016195157  0.016550326            5 
  255000   0.85565085   -8.2038588    49.253886  0.016096041  0.016495966           14 
  256000   0.86842181   -8.1936194    49.470466  0.016103667  0.016441892            7 
  257000   0.86093963   -8.1708941    49.712463  0.016119476  0.016388725           14 
  258000   0.84545803   -8.1789311    49.700547  0.016053148  0.016335535           17 
  259000    0.8512733   -8.1805172    49.758728  0.016009887  0.016282439            7 
  260000   0.85289889   -8.1686268     49.69401  0.015927567  0.016229485            8 
  261000   0.84571172    -8.197833    49.713066  0.015872626  0.016176236            8 
  262000    0.8543543   -8.1993862    49.821014  0.015846379   0.01612295            7 
  263000   0.84802739   -8.2266296    49.760905   0.01576708  0.016070017            9 
  264000   0.85705916   -8.1730789    50.080213  0.015808148  0.016017472            3 
  265000   0.86940121   -8.2140691    49.945534  0.015706143  0.015965027            8 
  266000   0.84332981   -8.2032335    50.138047  0.015707408  0.015912917            5 
  267000    0.8489536   -8.2237836    49.971919  0.015596729  0.015860574            7 
  268000   0.83667865   -8.1991969    50.065334  0.015567579  0.015807663            7 
  269000   0.84166311   -8.2262229    49.844531  0.015441305  0.015754339            4 
  270000   0.82943438   -8.2377014    49.964788  0.015421231  0.015701229            6 
  271000    0.8399041   -8.2639826    50.061089  0.015393939  0.015647431            8 
  272000   0.82715184   -8.2587626    50.026035  0.015326604  0.015593728           27 
  273000   0.81685588   -8.2593803    50.159736  0.015311275  0.015540492            8 
  274000   0.84366351   -8.2649316    50.005985  0.015208633  0.015487083            6 
  275000    0.8258958   -8.2819876    50.109602  0.015184728  0.015434091            3 
  276000   0.84216488   -8.2748795    50.100665  0.015127012  0.015380862            6 
  277000    0.8258128   -8.2869961    50.220456   0.01510844  0.015327996            2 
  278000   0.81187882   -8.2587491    50.335758  0.015088656  0.015275463            5 
  279000    0.8307863   -8.2709018    50.260277   0.01501203  0.015223197            6 
  280000   0.81857555   -8.2882333    50.243266  0.014953353  0.015170577            2 
  281000   0.81355318   -8.2681972    50.408994  0.014949286  0.015118793            4 
  282000    0.8184056   -8.2665147     50.42891   0.01490216  0.015066802            9 
  283000   0.82311271   -8.2688406    50.462084  0.014859271   0.01501502            3 
  284000   0.82033174    -8.262692    50.629343  0.014856028  0.014963666            6 
  285000   0.81699714   -8.2843754    50.546471   0.01477967  0.014912615           11 
  286000   0.79890573   -8.2858471    50.910443  0.014834045  0.014861886           14 
  287000   0.81434059   -8.2681615    50.814964  0.014754635  0.014811426            9 
  288000   0.79963018   -8.3423626    50.768361  0.014689919  0.014761051           10 
  289000   0.81637636   -8.3324842    50.787685  0.014644661  0.014710541            9 
  290000   0.81167257   -8.3468528    50.764865  0.014587605  0.014659957            4 
  291000    0.8063545   -8.3422032    50.689789  0.014515976  0.014609367            8 
  292000   0.79499169    -8.326975    50.775162  0.014490628  0.014558911            3 
  293000   0.80779506    -8.343158    50.756183  0.014435774  0.014508618           12 
  294000   0.80614457   -8.3660434    50.832422  0.014408283  0.014458302            8 
  295000    0.8075208   -8.3554067    50.662859  0.014311542  0.014407635           17 
  296000   0.78436268   -8.3425599    50.665694   0.01426399  0.014357112            3 
  297000   0.79790398   -8.3699234    50.760547  0.014242578  0.014306863            6 
  298000   0.79990355   -8.3472537    50.826943  0.014213351  0.014256785            4 
  299000   0.79385022   -8.3878684    50.852777  0.014173015   0.01420697            7 
  300000   0.81207132   -8.3963741    50.777126  0.014104757  0.014157288           15 
  301000   0.79218269   -8.3772912    50.857664  0.014080195  0.014107562           12 
  302000   0.76394897   -8.3929734    50.814129  0.014021559  0.014057891            7 
  303000   0.78186724    -8.417092    50.890663  0.013996332  0.014008348           12 
  304000   0.78469844   -8.3852264    50.976649  0.013973862  0.013958616            5 
  305000   0.78886946     -8.38239    50.967083  0.013925432  0.013909575           12 
  306000   0.77119861   -8.4191389    50.949866  0.013875236  0.013860532           10 
  307000   0.76463972   -8.3790606    51.029423  0.013851635  0.013811307           10 
  308000    0.7680495   -8.4542237    50.856651  0.013759916  0.013762116            4 
  309000   0.78587341   -8.4166373    50.963796  0.013744282  0.013713195            8 
  310000    0.7485632   -8.4357451     50.94917  0.013696014  0.013664344           10 
  311000   0.76984768   -8.4385655    51.008959  0.013667995  0.013615571            9 
  312000    0.7595458    -8.441689    50.940678   0.01360595  0.013566863            8 
  313000   0.78358201   -8.4210772    51.092013  0.013602772  0.013518452            4 
  314000   0.76879039   -8.4312786    51.014745  0.013538945  0.013470634            5 
  315000   0.75133681   -8.4202991    51.037048  0.013501864  0.013422339            7 
  316000   0.76186959   -8.4386053    51.095191   0.01347447  0.013374678            4 
  317000   0.77813594   -8.4302641    51.142493  0.013444399  0.013327025            7 
  318000   0.76417885   -8.4551217    51.125959  0.013397788  0.013279238            3 
  319000   0.73323795   -8.4225791    51.238114  0.013385087   0.01323166            5 
  320000   0.75641554   -8.4475223    51.061925  0.013297376  0.013184508            8 
  321000   0.73704912   -8.4564214    51.138632  0.013275865  0.013137139            5 
  322000   0.73860079   -8.4617463    51.085671  0.013220929  0.013089908           12 
  323000   0.74535939   -8.4678808    51.031886  0.013166121  0.013042629            4 
  324000   0.75369809   -8.4847187    50.998586   0.01311692  0.012995746           18 
  325000   0.73116898   -8.4938607     51.03606  0.013086169  0.012948792           13 
  326000   0.74251989   -8.5067047    51.093925  0.013060819  0.012902072            7 
  327000   0.75722575   -8.4985548    51.178685  0.013042478  0.012855294           10 
  328000   0.75935681   -8.5147822    51.227933  0.013015227  0.012808983            8 
  329000   0.73382977   -8.5029707    51.181228  0.012963837  0.012762948            2 
  330000   0.73011357   -8.5225157    51.151465  0.012917037  0.012716811            7 
  331000   0.74116622   -8.5187644    51.059705  0.012854911  0.012670549            7 
  332000   0.73429837   -8.5100734    51.081976  0.012821781  0.012624332            9 
  333000   0.72619649   -8.4675781    51.212689  0.012815988  0.012578508           10 
  334000   0.74088443   -8.5319205    51.132841  0.012757695  0.012532751            9 
  335000   0.74154068   -8.5285406    51.093509  0.012709828  0.012487119            5 
  336000   0.73790331   -8.5132369     51.20442  0.012699509  0.012441722            9 
  337000   0.73333074   -8.5582566    51.059461  0.012625979  0.012396321            7 
  338000   0.72269829   -8.5528778    51.160684  0.012613581  0.012350952            9 
  339000   0.72876215    -8.575555    51.060571  0.012551763  0.012305806            3 
  340000   0.73091472   -8.5541261    51.108196  0.012526519  0.012260938            7 
  341000   0.70408557   -8.5551362    51.083289  0.012483697  0.012215923           11 
  342000   0.71518692   -8.5804165    51.112685  0.012454358  0.012171107            9 
  343000   0.73584646   -8.5666305    51.092047  0.012413034  0.012126646           11 
  344000   0.70387644   -8.5511466    51.283525  0.012423335  0.012082528           12 
  345000   0.71552069    -8.545773     51.21147   0.01236992   0.01203842            7 
  346000   0.72961573   -8.5703283    51.198368  0.012331014  0.011994478           16 
  347000   0.70614953   -8.5533275    51.130492  0.012279177  0.011950499            8 
  348000   0.70595745   -8.5975874    51.104626  0.012237698  0.011906791            9 
  349000   0.71385154   -8.5621345    51.096522  0.012200698  0.011863074           13 
  350000   0.69945163   -8.5934766    51.187731  0.012187555  0.011819623            7 
  351000   0.70435291   -8.6149764    51.100198  0.012132051  0.011776218           19 
  352000   0.70329292   -8.5938408     51.14867   0.01210906  0.011733091            6 
  353000   0.70094624   -8.5935384    51.191655  0.012084904  0.011690112            9 
  354000   0.70466843   -8.6177459    51.095909  0.012028227  0.011647103           13 
  355000   0.71426892   -8.6101857     51.00124  0.011972122   0.01160423           10 
  356000   0.70644479    -8.602701    50.938088   0.01192371  0.011561392            8 
  357000   0.70065208   -8.5998651    51.106545  0.011929632  0.011518877            9 
  358000   0.70204058   -8.6077677    51.017786  0.011875648    0.0114763            8 
  359000   0.70155466   -8.6092969    51.135604  0.011869917  0.011434047            8 
  360000   0.68773538   -8.6444029     50.97789  0.011800438  0.011391833            7 
  361000   0.69233064   -8.6285598    50.990292  0.011770612  0.011349804            6 
  362000   0.69884163   -8.6285036    51.148429    0.0117745  0.011307897            7 
  363000   0.68380884   -8.6292775    51.097233  0.011730311  0.011266245            5 
  364000   0.69258592   -8.6203952    51.007742  0.011677597  0.011224737            9 
  365000   0.69920009   -8.6669186    51.051481  0.011655589  0.011183549           10 
  366000   0.69180879   -8.6525088    51.065195  0.011626866  0.011142445           14 
  367000   0.68560169   -8.6427067    51.171907  0.011619416  0.011101442           10 
  368000   0.68889726   -8.6725416    51.085382  0.011568248  0.011060762            8 
  369000   0.66935121   -8.6713788    51.017733   0.01152162  0.011020155            9 
  370000   0.66588931   -8.6716249    51.182921  0.011527685  0.010979693            9 
  371000   0.67418718   -8.6660461    51.234068  0.011508102  0.010939593           12 
  372000   0.66926702   -8.6638499    51.134853   0.01145494  0.010899578           25 
  373000    0.6854721   -8.6790468    51.102778  0.011417064  0.010859669           12 
  374000   0.67481425   -8.7036434    51.068527  0.011378905  0.010819801           23 
  375000   0.66838598   -8.7080799    51.105272  0.011356727  0.010780117           18 
  376000   0.66368148   -8.7077914    51.168536  0.011340544  0.010740616           12 
  377000   0.65795747   -8.7183585    51.180081  0.011313015  0.010701368           12 
  378000   0.67325981   -8.7069811    51.070252  0.011258874  0.010662059           16 
  379000   0.67297479   -8.7176172    51.055678  0.011225963   0.01062282           10 
  380000   0.67477361   -8.7071093    50.987025  0.011181365  0.010583592           12 
  381000   0.66008431   -8.7486214    50.929604  0.011139458   0.01054463           10 
  382000   0.64949634   -8.7283352    50.948886  0.011114504  0.010505642           14 
  383000   0.65099966   -8.7123796    50.910074   0.01107704  0.010466952           18 
  384000   0.65438876   -8.7364231    50.931872  0.011052924  0.010428308           23 
  385000   0.65591817   -8.7409918    50.948621   0.01102784  0.010389972           11 
  386000   0.65435821   -8.7512855    51.121491  0.011036591  0.010351834           10 
  387000   0.65193071   -8.7527828    50.976239  0.010976796  0.010313818           14 
  388000    0.6392827   -8.7592476    51.004997  0.010954681  0.010275972           21 
  389000    0.6595199   -8.7369147    50.997413  0.010924896  0.010238247           19 
  390000   0.64086719   -8.7334865    50.974481  0.010891983  0.010200709           15 
  391000    0.6465675   -8.7376173    51.002172  0.010870028  0.010163291           13 
  392000   0.65167922   -8.7539576     50.94996  0.010831199  0.010125991           12 
  393000   0.63316731   -8.7597948    50.932668  0.010799972  0.010088859           20 
  394000   0.63549888   -8.7577955    50.917786  0.010769413   0.01005187           16 
  395000     0.634039   -8.7607009    50.961871   0.01075145  0.010015094           10 
  396000   0.62832446   -8.7545276    51.087003  0.010750632 0.0099785151           11 
  397000   0.63125257   -8.7763575    51.043919  0.010714509  0.009942154           16 
  398000   0.64242109   -8.7606554    50.963274  0.010670702 0.0099058729           10 
  399000   0.64031496   -8.7904966    50.952305  0.010641668 0.0098698371           12 
  400000    0.6229231   -8.7729096    50.967509  0.010618231 0.0098338804           23 
  401000   0.62774518   -8.7697121    50.974281  0.010593159  0.009798133           20 
  402000    0.6322652   -8.7979045    51.013147  0.010574865 0.0097625469           13 
  403000   0.61050064   -8.7879276     50.96067  0.010537773 0.0097271212           19 
  404000    0.6341757   -8.8091512    51.029194  0.010525824 0.0096918468           15 
  405000   0.62669063    -8.806173    50.961616  0.010485929 0.0096566394           15 
  406000   0.63102887   -8.8167398    50.900474  0.010447552 0.0096215297           17 
  407000   0.61533578   -8.8030939    50.901509  0.010422094  0.009586681           13 
  408000   0.60780859   -8.8181884    50.932245  0.010402828 0.0095519416           23 
  409000   0.62073723   -8.8008741    51.016088  0.010394476  0.009517369           12 
  410000   0.60408285   -8.7911816    51.032836  0.010372528 0.0094829217           13 
  411000   0.60674095    -8.823319    50.913856  0.010323166 0.0094485629           21 
  412000    0.5985187   -8.8397405    50.976347   0.01031075 0.0094143099           14 
  413000   0.61315432   -8.8208417    50.849583  0.010260206 0.0093802223           16 
  414000   0.61288073   -8.8133595    50.919517    0.0102495 0.0093462839           12 
  415000   0.60900243   -8.7998553    50.962978   0.01023353   0.00931258           13 
  416000   0.60311851   -8.8426502    50.885722  0.010193454 0.0092789311            8 
  417000    0.6002666   -8.8402747    50.820404  0.010155956 0.0092454639           11 
  418000   0.60782841   -8.8420066     50.92482  0.010152476 0.0092121682           16 
  419000   0.59747519   -8.8452529    50.918061  0.010126902 0.0091790137           18 
  420000    0.6087898   -8.8360439    50.914826  0.010102148 0.0091460479           13 
  421000    0.5915316    -8.857534    50.879367  0.010071134 0.0091132561           28 
  422000   0.59279638   -8.8198578    50.849108  0.010041293 0.0090805474           19 
  423000   0.60807495   -8.8362208    50.823326  0.010012476 0.0090479759           11 
  424000   0.59331728   -8.8264401    50.945385  0.010012851 0.0090155898           12 
  425000   0.58805309   -8.8486969    50.909729 0.0099822999  0.008983282           25 
  426000   0.59581246    -8.838755     50.84206 0.0099456298 0.0089510459           27 
  427000   0.57023967   -8.8586574    50.852429 0.0099243617 0.0089189926           30 
  428000   0.59309676   -8.8665516    50.829654 0.0098967395 0.0088870581           20 
  429000   0.58712374   -8.8733975    50.954935 0.0098980059 0.0088552593           18 
  430000   0.59037016   -8.8698822    50.927343 0.0098696401  0.008823615           22 
  431000   0.58093819   -8.8934293     50.75791 0.0098139811 0.0087920976           33 
  432000   0.58581026   -8.8812109    50.824832 0.0098041728 0.0087607622           33 
  433000   0.57657335   -8.8907549    50.888363 0.0097937574 0.0087295524           30 
  434000   0.56324832   -8.8891849    50.780482 0.0097504766 0.0086984298           17 
  435000   0.58539303   -8.8851634    50.870738 0.0097453521 0.0086674504            8 
  436000   0.57028565   -8.8915304    50.812203 0.0097118125 0.0086365417           23 
  437000   0.57117977   -8.8894105    50.753517 0.0096783976 0.0086058176           17 
  438000   0.57968503   -8.8795694    50.745706 0.0096548147 0.0085752083            8 
  439000   0.58456268     -8.89513     50.77766 0.0096388876 0.0085447195           22 
  440000   0.55670096    -8.895781    50.827408 0.0096264031  0.008514313           26 
  441000   0.55348469   -8.9157489    50.770679 0.0095938547 0.0084841126           25 
  442000   0.55607175   -8.9169822    50.813769 0.0095802731 0.0084540368           19 
  443000   0.55768802   -8.9068305    50.739896  0.009544751 0.0084240393           18 
  444000   0.54984413   -8.9136375    50.730061 0.0095214078 0.0083941873           26 
  445000   0.55584694   -8.9193937    50.649654 0.0094849539 0.0083644588           10 
  446000   0.54054923   -8.9066134    50.682365 0.0094697991 0.0083348384           13 
  447000   0.54731686   -8.9426768    50.664336 0.0094452527 0.0083053354           15 
  448000   0.54571284   -8.9239827    50.671821  0.009425562 0.0082759601           17 
  449000    0.5554945   -8.9317872     50.66558 0.0094034113 0.0082467397           25 
  450000    0.5488322   -8.9256623    50.707843 0.0093903413 0.0082175961           13 
  451000   0.54384837   -8.9256971    50.685945 0.0093654739 0.0081886214           16 
  452000    0.5406681   -8.9266867    50.659949  0.009339961 0.0081596969           19 
  453000   0.55003432   -8.9423948    50.677473 0.0093225667 0.0081309483           19 
  454000   0.54861825   -8.9239471      50.6997 0.0093061122 0.0081023114            7 
  455000   0.53678132   -8.9606708    50.651677 0.0092768639 0.0080738678           15 
  456000   0.53675637   -8.9509335    50.674272  0.009260649 0.0080454399           19 
  457000   0.53370243   -8.9704792    50.645392 0.0092351189 0.0080172295           16 
  458000   0.51744037   -8.9562179    50.700361 0.0092249566  0.007989086           23 
  459000   0.53421008   -8.9681142    50.710285 0.0092066602 0.0079611247           14 
  460000   0.54249599   -8.9501847    50.712408 0.0091870304 0.0079332749           18 
  461000   0.52349336   -8.9354006    50.586001 0.0091442519  0.007905515            7 
  462000   0.53710822   -8.9727931     50.55496   0.00911886  0.007877852           19 
  463000   0.52742186    -8.951275     50.64494   0.00911536 0.0078503662           26 
  464000     0.523891   -8.9600744    50.712911 0.0091079223 0.0078229061           20 
  465000    0.5236078   -8.9770813    50.631505 0.0090737464 0.0077956428           19 
  466000   0.51758641   -8.9741488    50.643481 0.0090564165 0.0077684657           17 
  467000     0.516369   -8.9729996    50.595103  0.009028391 0.0077414461           12 
  468000   0.52101181    -8.976737     50.62393 0.0090142326 0.0077145456           11 
  469000   0.50840088   -8.9952352    50.549755 0.0089818329  0.007687733           20 
  470000   0.51380319   -8.9872404    50.597008 0.0089711006 0.0076610777           12 
  471000   0.50873284   -8.9787417    50.567381 0.0089468119 0.0076345448           15 
  472000   0.51904006   -9.0032086    50.518336 0.0089191978 0.0076081048           14 
  473000   0.50843106   -8.9885088    50.443482 0.0088871533 0.0075817425            8 
  474000   0.50782648   -8.9924361    50.584945 0.0088932743 0.0075555216           15 
  475000   0.51293286   -9.0002614    50.557373 0.0088697145 0.0075294143           14 
  476000   0.49964487   -9.0016732       50.564 0.0088522409 0.0075034002           13 
  477000   0.49377348   -9.0024353    50.563219 0.0088335464 0.0074775468           11 
  478000   0.49770379   -9.0138922    50.514619 0.0088065933  0.007451748           14 
  479000   0.50259337   -8.9974937    50.496878 0.0087851215 0.0074261097           22 
  480000   0.50609793   -9.0044218    50.596753 0.0087841585 0.0074005213           13 
  481000   0.50309131   -8.9940331    50.561226 0.0087597411 0.0073750669           15 
  482000   0.50263863   -9.0254981    50.476867 0.0087269826 0.0073497213           21 
  483000    0.5029721   -9.0125191    50.520908 0.0087165127 0.0073244199           12 
  484000   0.48841926   -9.0045293    50.464114 0.0086887249 0.0072992681           26 
  485000   0.48441826   -9.0024064    50.464081 0.0086708042 0.0072742531           12 
  486000   0.50054958   -9.0130902    50.510475 0.0086609182 0.0072493257           11 
  487000   0.49257005   -9.0261516    50.454927 0.0086336289 0.0072244934           22 
  488000   0.48411029   -9.0245462     50.41725  0.008609503 0.0071997547           23 
  489000   0.48809846   -9.0320447    50.476737 0.0086020342 0.0071751828           14 
  490000   0.47825078   -9.0417539    50.512193  0.008590509 0.0071506783           12 
  491000   0.48247524   -9.0306355    50.380061 0.0085505874 0.0071262601           18 
  492000   0.47784976   -9.0377674    50.432057  0.008542015  0.007101938           19 
  493000   0.47375761   -9.0417707    50.436623 0.0085254602 0.0070777714           28 
  494000   0.47994358   -9.0471676    50.482425 0.0085159286 0.0070536832           14 
  495000   0.47114171   -9.0321199    50.469595 0.0084965648 0.0070297565           14 
  496000   0.47466928   -9.0367456    50.436477 0.0084738705 0.0070058987           15 
  497000   0.47868605   -9.0457848    50.490461 0.0084658721 0.0069821199           12 
  498000   0.47948276   -9.0294343    50.434824 0.0084395622  0.006958458           18 
  499000   0.48100704   -9.0637039     50.40284 0.0084173079 0.0069348941           17 
  500000   0.47735611   -9.0540694     50.38393 0.0083973216 0.0069114517           20 
  501000   0.47658715   -9.0491604    50.381141 0.0083800967 0.0068880937           14 
  502000   0.46581566   -9.0696416     50.40849 0.0083679433 0.0068648278           10 
  503000   0.47371899    -9.047872     50.39518  0.008349102 0.0068417096           12 
  504000   0.46821943   -9.0818753    50.325058 0.0083209421 0.0068186867           13 
  505000   0.46011792   -9.0646539    50.314008 0.0083026417 0.0067957093           15 
  506000   0.46380804   -9.0642545    50.361995 0.0082941361 0.0067728653           13 
  507000   0.45678122    -9.072917    50.342451 0.0082745646 0.0067501211           20 
  508000   0.46092234   -9.0689849    50.359806 0.0082611231 0.0067274501           13 
  509000   0.45534108   -9.0764535    50.317081 0.0082378981   0.00670485            7 
  510000   0.46188303   -9.0651646    50.393003 0.0082341508 0.0066824059           18 
  511000   0.45030101   -9.0942711    50.353512 0.0082115969 0.0066600256           18 
  512000   0.44022711   -9.0864124    50.342343 0.0081937407  0.006637781           27 
Loop time of 1274.19 on 48 procs for 500000 steps with 4000 atoms

Performance: 67807.975 tau/day, 392.407 timesteps/s
99.4% CPU use with 48 MPI tasks x no OpenMP threads

MPI task timing breakdown:
Section |  min time  |  avg time  |  max time  |%varavg| %total
---------------------------------------------------------------
Pair    | 89.111     | 94.268     | 98.967     |  23.2 |  7.40
Neigh   | 8.496      | 8.8644     | 9.3357     |   5.8 |  0.70
Comm    | 82.197     | 87.624     | 92.905     |  26.8 |  6.88
Output  | 0.96002    | 0.96082    | 0.98413    |   0.3 |  0.08
Modify  | 1066.8     | 1070.6     | 1074.3     |   4.8 | 84.02
Other   |            | 11.86      |            |       |  0.93

Nlocal:        83.3333 ave          94 max          77 min
Histogram: 1 4 18 6 9 7 1 1 0 1
Nghost:        2289.06 ave        2302 max        2268 min
Histogram: 1 1 6 2 2 9 5 7 7 8
Neighs:        15475.6 ave       17605 max       14285 min
Histogram: 6 7 5 8 10 6 4 1 0 1
FullNghs:      30951.0 ave       35007 max       28391 min
Histogram: 1 3 13 10 10 7 2 1 0 1

Total # of neighbors = 1485648
Ave neighs/atom = 371.41200
Neighbor list builds = 26656
Dangerous builds = 0

#clear
#
#next RN
#
#jump SELF
Total wall time: 0:21:17
