
units lj                  # Use reduced LJ style units
atom_style atomic         # Uncharged point particles
atom_modify map hash      # Needed for indexing of clusters etc
                          # Used to be able to find where atoms are in relation to each other.

lattice fcc 1.0 spacing 1 1 1
Lattice spacing in x,y,z = 1.5874011 1.5874011 1.5874011
region box block 0 10 0 10 0 10 units lattice
create_box 2 box
Created orthogonal box = (0.0000000 0.0000000 0.0000000) to (15.874011 15.874011 15.874011)
  3 by 4 by 4 MPI processor grid
create_atoms 1 box
Created 4000 atoms
  using lattice units in orthogonal box = (0.0000000 0.0000000 0.0000000) to (15.874011 15.874011 15.874011)
  create_atoms CPU = 0.003 seconds
set type 1 type/fraction 2 0.4 78393
Setting atom values ...
  1612 settings made for type/fraction
mass 1 1.0
mass 2 1.0
pair_style lj/cut  3.5
pair_modify tail  yes
pair_coeff 1  1  1.0  1.0   # Intearaction between 1 and 1 set with epsilon = 1 and sigma = 1
pair_coeff 1  2  1.5  0.8
pair_coeff 2  2  0.5  0.88

write_data data.0
System init for write_data ...
Neighbor list info ...
  update every 1 steps, delay 10 steps, check yes
  max neighbors/atom: 2000, page size: 100000
  master list distance cutoff = 3.8
  ghost atom cutoff = 3.8
  binsize = 1.9, bins = 9 9 9
  1 neighbor lists, perpetual/occasional/extra = 1 0 0
  (1) pair lj/cut, perpetual
      attributes: half, newton on
      pair build: half/bin/atomonly/newton
      stencil: half/bin/3d
      bin: standard
WARNING: Not all mixed pair coeffs generated from mixing. Use write_data with 'pair ij' option to store all pair coeffs. (../write_data.cpp:312)


#############################
#   M E L T   S Y S T E M   #
#############################

velocity all create 2.4 3143649 mom yes dist gaussian # Assign velocities
                                                    # Temperature 2.4, random number seed, zero linear momentum
                                                                                # Gaussian distribution

timestep 0.002   # simulation timestep
thermo 1000       # output thermodynamic data every 1000 steps bf 100

# Define a fix  in this case with index 1 applied to all
# particles in the simulation. This fix is for simulations
# in the anisotropic NPT ensemble. Note that we use the MTK
# correction.
fix 1 all npt temp 2.4 2.4 0.1 iso 5.68 5.68 0.5 mtk yes tchain 5 pchain 5 # Use NPT ensemble
                                                                         # Set temperature and pressure and damping
                                                                         # Numbers of thermostats in chain and in barostat
run 10000          # run for 10000 steps
Per MPI rank memory allocation (min/avg/max) = 3.642 | 3.644 | 3.648 Mbytes
Step Temp E_pair E_mol TotEng Press Volume 
       0          2.4    -5.861415            0    -2.262315   -4.1716513         4000 
    1000    2.4674337   -5.0256949            0   -1.3254697    5.6839162    3900.7301 
    2000    2.3968505   -5.0243545            0   -1.4299775    5.6101443    3898.7282 
    3000    2.3915801   -5.0872358            0   -1.5007626    5.8366108    3852.2632 
    4000    2.3863745   -5.1315769            0   -1.5529101    5.8479893    3824.1412 
    5000    2.3796843   -5.0449122            0   -1.4762781    5.8687781    3858.4724 
    6000    2.3350316   -4.9984777            0   -1.4968059    5.6875292     3903.554 
    7000    2.3873695   -4.9747029            0    -1.394544    5.6540598    3923.1968 
    8000    2.3790517   -5.0659885            0   -1.4983031    5.6022959    3878.8583 
    9000    2.4352474   -5.0027209            0    -1.350763    5.5522409     3919.161 
   10000    2.4223445   -5.0258964            0    -1.393288    5.5980226      3902.53 
Loop time of 2.56272 on 48 procs for 10000 steps with 4000 atoms

Performance: 674282.592 tau/day, 3902.098 timesteps/s
99.6% CPU use with 48 MPI tasks x no OpenMP threads

MPI task timing breakdown:
Section |  min time  |  avg time  |  max time  |%varavg| %total
---------------------------------------------------------------
Pair    | 1.085      | 1.1897     | 1.2719     |   3.4 | 46.42
Neigh   | 0.20873    | 0.21752    | 0.23421    |   1.0 |  8.49
Comm    | 0.76608    | 0.86595    | 0.96502    |   4.4 | 33.79
Output  | 0.0002533  | 0.00025981 | 0.00040597 |   0.0 |  0.01
Modify  | 0.22265    | 0.27372    | 0.32424    |   5.3 | 10.68
Other   |            | 0.0156     |            |       |  0.61

Nlocal:        83.3333 ave          98 max          75 min
Histogram: 5 6 6 13 5 6 5 1 0 1
Nghost:        1670.88 ave        1693 max        1647 min
Histogram: 2 2 2 11 5 9 6 4 4 3
Neighs:        9779.79 ave       11220 max        8726 min
Histogram: 6 5 5 6 7 7 3 6 2 1

Total # of neighbors = 469430
Ave neighs/atom = 117.35750
Neighbor list builds = 903
Dangerous builds = 202

# Equilibrate just above the melting temperature to avoid step fn in T

fix 1 all npt temp 1.25 1.25 0.1 iso 5.68 5.68 0.5 mtk yes tchain 5 pchain 5
run 2000
Per MPI rank memory allocation (min/avg/max) = 3.643 | 3.645 | 3.649 Mbytes
Step Temp E_pair E_mol TotEng Press Volume 
   10000    2.4223445   -5.0258964            0    -1.393288    5.5980226      3902.53 
   11000    1.2629577   -7.0318581            0   -5.1378952    5.5384142       3091.8 
   12000    1.2299543    -7.069388            0   -5.2249178    5.6564991    3076.6662 
Loop time of 0.610423 on 48 procs for 2000 steps with 4000 atoms

Performance: 566164.704 tau/day, 3276.416 timesteps/s
99.6% CPU use with 48 MPI tasks x no OpenMP threads

MPI task timing breakdown:
Section |  min time  |  avg time  |  max time  |%varavg| %total
---------------------------------------------------------------
Pair    | 0.26098    | 0.29667    | 0.32064    |   2.4 | 48.60
Neigh   | 0.039405   | 0.042059   | 0.045288   |   0.7 |  6.89
Comm    | 0.19104    | 0.22147    | 0.25885    |   3.0 | 36.28
Output  | 5.2973e-05 | 5.4971e-05 | 7.2109e-05 |   0.0 |  0.01
Modify  | 0.040297   | 0.045276   | 0.049841   |   1.4 |  7.42
Other   |            | 0.004887   |            |       |  0.80

Nlocal:        83.3333 ave          91 max          77 min
Histogram: 5 5 7 5 2 7 7 6 0 4
Nghost:        1956.52 ave        1991 max        1923 min
Histogram: 1 0 8 8 9 6 10 5 0 1
Neighs:        12388.8 ave       14184 max       10439 min
Histogram: 1 2 6 3 9 7 11 5 3 1

Total # of neighbors = 594662
Ave neighs/atom = 148.66550
Neighbor list builds = 143
Dangerous builds = 15

#############################
# L I N E A R  Q U E N C H  #
#############################

# Define solid atoms. This closely follows ten Wolde  Ruiz-Montero and Frenkel  Faraday Discuss  1996  104  93-110
# Compute components of the per-atom q6 vector
compute q6 all orientorder/atom degrees 1 6 components 6 nnn NULL cutoff 1.3 # compute the Q6 parameter.
                                                                             # Use all neighbours within 1.3 unit cell.

# get number of connections
compute coord_number all coord/atom orientorder q6 0.5

# An atom is solid if it has 8 or more connections (of a possible 14)
variable is_solid atom c_coord_number>=8
group solid dynamic all var is_solid    # Must be dynamic to update
dynamic group solid defined

# do clustering
compute cluster solid cluster/atom 1.3 # Create a cluster where all atoms within are solid and max 1.3 units from another member

# define chunks one chunk per cluster
compute clus_chunks solid chunk/atom c_cluster nchunk every compress yes  # Says which atoms are in which chunk

# count the size of each chunk
compute size_chunks solid property/chunk clus_chunks count


# Find the maximum entry in the vector of chunk sizes
variable max_n equal max(c_size_chunks)


# Thermo style which includes this variable
# thermo_style custom step temp pe vol v_max_n

thermo ${N}  # Print the thermo information every 100 steps
thermo 1000  

# Reset the npt fix at a lower temperature (below freezing)
fix 1  all npt temp  ${temp} ${temp}  0.1  iso  5.68  5.68  0.5  mtk yes tchain  5  pchain  5
fix 1  all npt temp  0.45 ${temp}  0.1  iso  5.68  5.68  0.5  mtk yes tchain  5  pchain  5
fix 1  all npt temp  0.45 0.45  0.1  iso  5.68  5.68  0.5  mtk yes tchain  5  pchain  5

dump dmp2 all dcd ${N} traj.dcd
dump dmp2 all dcd 1000 traj.dcd


compute msd all msd com yes
variable twopoint equal c_msd[4]/6/(step*dt+1.0e-6)
fix 9 all vector 10 c_msd[4]
variable fit equal slope(f_9)/6/(10*dt)
thermo_style custom step temp pe c_msd[4] v_twopoint v_fit v_max_n

fix 1 all npt temp 1.25 ${temp} 0.1 iso 5.68 5.68 0.5 mtk yes tchain 5 pchain 5
fix 1 all npt temp 1.25 0.45 0.1 iso 5.68 5.68 0.5 mtk yes tchain 5 pchain 5
run 2000000 # 5000000  # Run for this many steps
Neighbor list info ...
  update every 1 steps, delay 10 steps, check yes
  max neighbors/atom: 2000, page size: 100000
  master list distance cutoff = 3.8
  ghost atom cutoff = 3.8
  binsize = 1.9, bins = 8 8 8
  4 neighbor lists, perpetual/occasional/extra = 1 3 0
  (1) pair lj/cut, perpetual
      attributes: half, newton on
      pair build: half/bin/atomonly/newton
      stencil: half/bin/3d
      bin: standard
  (2) compute orientorder/atom, occasional
      attributes: full, newton on
      pair build: full/bin/atomonly
      stencil: full/bin/3d
      bin: standard
  (3) compute coord/atom, occasional
      attributes: full, newton on
      pair build: full/bin/atomonly
      stencil: full/bin/3d
      bin: standard
  (4) compute cluster/atom, occasional
      attributes: full, newton on
      pair build: full/bin/atomonly
      stencil: full/bin/3d
      bin: standard
Per MPI rank memory allocation (min/avg/max) = 9.825 | 9.831 | 9.838 Mbytes
Step Temp PotEng c_msd[4] v_twopoint v_fit v_max_n 
   12000    1.2299543    -7.069388 4.6907642e-30 3.257475e-32 8.3333333e+20            1 
   13000     1.234944   -7.1165273   0.48687285 0.0031209797   0.04024352            1 
   14000     1.278338   -7.0987085   0.90304078 0.0053752425  0.036918501            1 
   15000    1.2724389    -7.062503    1.3400923 0.0074449571  0.036001145            1 
   16000    1.2620378   -7.1342553    1.7604716 0.0091691227  0.035932997            2 
   17000    1.2597036   -7.1407362    2.2023307  0.010795738  0.035742329            1 
   18000     1.230923   -7.0956956    2.6568912  0.012300422  0.036041605            2 
   19000    1.2640775   -7.0883061    3.0649961  0.013442965    0.0362293            3 
   20000    1.2534487    -7.152654    3.5006211  0.014585921     0.036211            3 
   21000    1.2425761   -7.1115828    3.9717983  0.015761104  0.036286803            2 
   22000    1.2652065   -7.0505261    4.4815209  0.016975458  0.036612947            2 
   23000    1.2279452   -7.1345788    4.9213284    0.0178309   0.03680602            2 
   24000    1.2385178   -7.0763282    5.3624308  0.018619551   0.03695093            1 
   25000    1.2656217   -7.0914925    5.7153292  0.019051097  0.036913165            6 
   26000     1.258492   -7.0784643    6.0615185  0.019427944  0.036772761            2 
   27000    1.2378976   -7.0954906    6.5318263  0.020159957  0.036584375            1 
   28000    1.2437288   -7.1407919    6.9786712  0.020769854  0.036399947            2 
   29000    1.2549857   -7.1730599     7.310655  0.021007629  0.036246507            2 
   30000    1.2466206   -7.1375237    7.7155273   0.02143202  0.036082741            1 
   31000    1.2415318   -7.1272818    8.1097364  0.021800366  0.035893227            1 
   32000    1.2633495   -7.1472049     8.444719  0.021991455  0.035661751            2 
   33000    1.2435168   -7.1517234    8.8524748  0.022354734  0.035440606            1 
   34000    1.2489174   -7.1430919    9.1586054  0.022447562  0.035206069            2 
   35000    1.2092842   -7.1129715    9.5801816  0.022809956  0.034938154            2 
   36000    1.2478345   -7.1506804    9.9770586  0.023095043  0.034740252            2 
   37000    1.2659582   -7.1112315    10.323432  0.023250973  0.034571756            2 
   38000    1.2494153   -7.1244647    10.772417  0.023623721    0.0344013            2 
   39000    1.2206448   -7.1090205    11.137109  0.023797242  0.034267827            1 
   40000    1.2115688   -7.1281442    11.539154  0.024039904  0.034146113            1 
   41000     1.252609   -7.1107029    11.872364  0.024130821  0.034008658            1 
   42000    1.2488964   -7.1005654    12.311136  0.024426857  0.033881864            1 
   43000    1.2458233   -7.1745573    12.673932  0.024561884  0.033790157            1 
   44000    1.2339212   -7.1103747    12.954402  0.024534852  0.033691884            1 
   45000    1.2385389   -7.1498325    13.395059  0.024805664  0.033584253            2 
   46000    1.2533006   -7.0986057     13.77839  0.024960851  0.033495108            2 
   47000    1.2227723   -7.1417266     14.21443   0.02520289  0.033427643            4 
   48000    1.2146264   -7.1720047    14.627607  0.025395151  0.033386317            1 
   49000    1.2286447    -7.119882    15.106393  0.025691145   0.03337399            2 
   50000    1.2463288   -7.0973652    15.516662  0.025861103  0.033357918            2 
   51000    1.2503976   -7.1273478    15.913296  0.026002117  0.033352017            1 
   52000     1.230811   -7.1781771    16.310999  0.026139422  0.033344544            2 
   53000    1.2414316   -7.1376876    16.786655  0.026394111  0.033349055            2 
   54000     1.251089   -7.1438998    17.294136  0.026688482  0.033389081            1 
   55000    1.2085682   -7.1324673    17.642922  0.026731699  0.033417477            2 
   56000    1.2348134   -7.1686296    17.973221  0.026745864  0.033424076            1 
   57000    1.2333664   -7.1575722    18.324555  0.026790285  0.033430462            1 
   58000    1.2176481   -7.1241644    18.721644  0.026898914   0.03342226            2 
   59000     1.236684   -7.1407467    19.200267  0.027119021  0.033420661            3 
   60000    1.2262103   -7.1738055    19.523336  0.027115745  0.033423186            2 
   61000    1.2379116   -7.1589796    20.088316  0.027443055  0.033431919            1 
   62000    1.2174446   -7.1873838    20.368091  0.027376466  0.033429977            1 
   63000     1.232282   -7.1376097    20.597391  0.027245226  0.033410225            3 
   64000    1.2194742   -7.1455771    20.978479  0.027315728  0.033379484            2 
   65000    1.2255449    -7.170192    21.361045  0.027385954  0.033350047            1 
   66000    1.2079623   -7.1636473    21.792119  0.027515301  0.033325371            1 
   67000    1.2312756   -7.1740425    22.152344  0.027552667   0.03329426            2 
   68000    1.2210806   -7.1525822    22.617587  0.027717631  0.033273075            1 
   69000    1.2047824   -7.1665704    22.998906  0.027776457  0.033258213            1 
   70000    1.2266802   -7.1735356    23.379823  0.027833122  0.033240662            2 
   71000    1.2507913   -7.1277903    23.821968  0.027960056  0.033222677            2 
   72000    1.2128999   -7.1815618    24.175155  0.027980504  0.033212793            3 
   73000    1.2444593   -7.1400693    24.634808  0.028121927  0.033204641            1 
   74000    1.2336761   -7.1622256    24.994659  0.028147139  0.033200332            2 
   75000     1.240896   -7.1361283     25.34017  0.028155744  0.033191855            3 
   76000    1.2516588   -7.1465516    25.851611  0.028346064  0.033188235            1 
   77000     1.245049   -7.1650901    26.366956  0.028535666  0.033188351            2 
   78000     1.239602   -7.1990801    26.740769  0.028569198  0.033199987            2 
   79000    1.2293387   -7.1215041    27.181495  0.028672463  0.033214356            1 
   80000     1.215712   -7.1787122    27.512876  0.028659246  0.033226906            3 
   81000    1.2244624    -7.185355    28.036388   0.02884402  0.033238441            1 
   82000    1.2006031   -7.1714479    28.363785  0.028824985  0.033248267            1 
   83000    1.2113462   -7.1571613    29.030847  0.029147436  0.033268364            1 
   84000    1.2144366   -7.1844922    29.355264  0.029122286  0.033297984            1 
   85000    1.2182766   -7.1464982    29.945979  0.029358802  0.033330544            2 
   86000    1.2233427   -7.1658508    30.107437  0.029173873  0.033358282            2 
   87000    1.2271134   -7.1812256    30.360794  0.029081221  0.033367281            2 
   88000    1.2227567   -7.1264264    30.775732  0.029143686  0.033370401            2 
   89000    1.2337883   -7.1521063    31.333034  0.029338046  0.033376058            1 
   90000    1.2144744   -7.2010576    31.628158  0.029285331  0.033386455            2 
   91000    1.2191068   -7.1545849    32.187591  0.029475815  0.033399075            1 
   92000    1.2245382   -7.1764569     32.41503   0.02936144  0.033414536            1 
   93000    1.2166946    -7.188089    32.787748  0.029379703  0.033415077            2 
   94000     1.197643   -7.1716851    33.200379   0.02943296  0.033413147            3 
   95000    1.2271228   -7.1915546    33.508335  0.029393276  0.033407841            3 
   96000    1.2285319   -7.1415681    33.852873  0.029386174  0.033397286            1 
   97000    1.1950048   -7.1891171    34.012303  0.029220191  0.033374562            1 
   98000    1.2094911   -7.2263664    34.177957  0.029062888   0.03334268            1 
   99000    1.2323165   -7.2257498    34.640976  0.029159071  0.033315252            3 
  100000    1.1906044   -7.1918025    35.134923  0.029279102  0.033287411            1 
  101000    1.2053226   -7.1639465    35.476385  0.029270944  0.033257294            2 
  102000    1.2205292   -7.2244141    35.726024  0.029187928  0.033231762            3 
  103000     1.200749   -7.1126496    36.453897  0.029493444  0.033209034            1 
  104000    1.1922129   -7.2050125    36.867014  0.029540876  0.033196027            1 
  105000    1.2076099   -7.1540262    37.206107  0.029528656  0.033185813            3 
  106000    1.1783849   -7.2132709    37.633152  0.029585811  0.033175462            2 
  107000    1.1983526   -7.1696884    37.956547  0.029561173  0.033164718            1 
  108000    1.1998174   -7.2068777    38.429054  0.029652048  0.033155862            1 
  109000    1.2112519   -7.1686231     38.83754  0.029692309  0.033143698            2 
  110000    1.2051693   -7.1876605    39.220018  0.029712135  0.033135986            2 
  111000    1.2119089   -7.1922809     39.74774  0.029840645  0.033127225            1 
  112000    1.1997418   -7.2290937    40.022576  0.029778703  0.033122215            2 
  113000    1.2045668   -7.1946931    40.412914  0.029803034   0.03311599            3 
  114000    1.2081369   -7.2156137    40.695309  0.029748033  0.033108162            3 
  115000    1.2374865     -7.19851    41.317769  0.029940412  0.033097455            1 
  116000      1.22524   -7.2041226    41.535329  0.029838598  0.033089006            1 
  117000    1.1884583   -7.1882178    41.920442  0.029857864  0.033077378            1 
  118000    1.1891244   -7.2253278    42.100387  0.029731912  0.033063786            2 
  119000    1.2027377   -7.1758967    42.644916  0.029863387  0.033048476            2 
  120000    1.2405217   -7.2158375    42.771335  0.029702316  0.033035769            4 
  121000    1.2084677   -7.2566234    43.235117  0.029776251  0.033019472            1 
  122000    1.2018912   -7.1861505    43.617105  0.029793105  0.033004285            1 
  123000    1.1826161    -7.211161    44.122203  0.029893091  0.032993681            1 
  124000    1.2085664   -7.2089695    44.417778  0.029850657  0.032981036            2 
  125000    1.2097681   -7.1737839    44.870076  0.029913384  0.032965185            1 
  126000    1.1999493   -7.1885781    45.261086  0.029934581   0.03295249            1 
  127000    1.2118922   -7.1965462    45.712645  0.029995174  0.032942038            4 
  128000    1.2167138   -7.2389763    45.867261  0.029861498  0.032926452            2 
  129000    1.2096511   -7.2091837    46.198831  0.029844206  0.032911769            2 
  130000    1.2068807   -7.1927708    46.522692  0.029822238  0.032896705            2 
  131000    1.1883095   -7.2192171    47.079049  0.029948504  0.032878483       -1e+20 
  132000    1.1793335   -7.1987646    47.716073  0.030123783  0.032865409            1 
  133000    1.2199117   -7.1527137    48.090897  0.030132141  0.032855966            2 
  134000    1.2024386   -7.1963338      48.2607  0.030012873  0.032845163            3 
  135000    1.1926604    -7.219876    48.422627   0.02989051  0.032831031            2 
  136000    1.1822853   -7.2491638    48.792123  0.029897134  0.032812264            1 
  137000    1.2116265   -7.2388991    49.305839  0.029991386  0.032798395            2 
  138000    1.2221795   -7.2416097    49.648636   0.02998106  0.032785057            2 
  139000    1.1900943   -7.2197834    50.027284  0.029992376  0.032768991            2 
  140000    1.2092175   -7.2087988    50.299969  0.029940458  0.032749245            2 
  141000    1.1799276   -7.2232164    50.555913  0.029879381  0.032731318            2 
  142000    1.2180292   -7.2607336    50.871916  0.029854411  0.032707965            2 
  143000    1.1879259   -7.2251492    51.084559  0.029769556     0.032685            1 
  144000    1.1993135   -7.1778473    51.601418  0.029861932  0.032664294            2 
  145000    1.1942983   -7.2527539    51.803151  0.029771926  0.032639677            1 
  146000    1.1751278   -7.1476708    52.530001  0.029982877   0.03261408            1 
  147000    1.1812302   -7.2098467    52.416428  0.029714528  0.032587308            2 
  148000    1.2244431   -7.1916083    53.042867  0.029866479  0.032562453            1 
  149000     1.183046   -7.2317803    53.494076  0.029918387   0.03254077            1 
  150000    1.2054331   -7.1860059      53.7462     0.029859  0.032519684            1 
  151000    1.1824217   -7.2396135    53.948532  0.029772921  0.032498231            2 
  152000    1.1850288   -7.2145099    54.097392  0.029658658   0.03247361            1 
  153000    1.2032001   -7.2131538    54.723542  0.029805851  0.032446196            1 
  154000    1.1934042    -7.259234    54.837809  0.029674139  0.032419842            2 
  155000    1.1894539   -7.2031855    55.502668  0.029840144  0.032394037            1 
  156000    1.1986137   -7.2020775    55.818369  0.029817505  0.032371637            3 
  157000    1.1878412   -7.1973682    56.192067  0.029825938  0.032348723            1 
  158000    1.1646959   -7.2534123    56.263491  0.029674837  0.032322302            3 
  159000    1.1835541   -7.2397185     56.72505   0.02973011  0.032297187            4 
  160000    1.1885428   -7.2429255    56.939311  0.029655891   0.03227202            1 
  161000    1.2011034   -7.2526362    57.340843  0.029679525  0.032245279            1 
  162000    1.1826006   -7.2457578    57.764018  0.029714001  0.032220181            2 
  163000    1.1618489   -7.2544708    57.974892  0.029639515  0.032192602            1 
  164000    1.1855027   -7.2427196    58.430101  0.029690092  0.032166572            3 
  165000    1.1981285   -7.2294514    58.563926   0.02957774  0.032139036            1 
  166000    1.2003849   -7.2403776     58.96321  0.029600005  0.032111554            1 
  167000    1.1893297   -7.2290757    59.227812  0.029554797  0.032082543            2 
  168000    1.1927688   -7.2508592    59.530794  0.029529164  0.032053336            1 
  169000    1.1705164    -7.267952    59.945974  0.029559159  0.032025467            1 
  170000    1.1731152   -7.2524924    60.623868  0.029717582  0.031999872            3 
  171000    1.2143114   -7.2655751    60.854769   0.02965632  0.031976376            2 
  172000    1.1848035   -7.2717792    61.304303  0.029701697  0.031951813            3 
  173000    1.1989078   -7.2463951    61.566144  0.029656139  0.031928301            4 
  174000      1.17159   -7.2095562    62.361059  0.029866408  0.031908101            1 
  175000    1.1809339   -7.2422383    62.523781  0.029773229  0.031890855            1 
  176000     1.182794   -7.2525003    62.943223  0.029802662  0.031874447            1 
  177000    1.1795923   -7.2715635    63.434719  0.029865687  0.031860566            3 
  178000    1.1886691    -7.268951    63.877259  0.029905084  0.031846327            3 
  179000    1.1826154   -7.3192086    63.903015  0.029750007  0.031830699            2 
  180000    1.1853442   -7.2570421    64.280613  0.029759543   0.03181514            2 
  181000    1.2055134   -7.2634061    64.650311  0.029765336  0.031799765            3 
  182000    1.1701343   -7.2174815    65.159058  0.029834733  0.031784431            2 
  183000    1.1608521   -7.2364222    65.166997  0.029675317  0.031766146            1 
  184000    1.1615062   -7.2230102    65.578974  0.029700622  0.031745615            2 
  185000    1.1714366   -7.2756082    65.533292  0.029519501  0.031722145            5 
  186000    1.1895118   -7.2451728    66.200683  0.029659804  0.031699263            1 
  187000     1.180852   -7.2850162    66.117238   0.02946401  0.031675887            1 
  188000    1.2060059   -7.2365307    66.572178  0.029508944  0.031650913            1 
  189000    1.1718952   -7.2686196    67.042162  0.029560036  0.031626278            1 
  190000    1.1524734   -7.2463605    67.336266   0.02953345  0.031601328            1 
  191000    1.1778749   -7.2475098    67.419147  0.029414985  0.031575893            2 
  192000    1.1727283    -7.231106    67.726104  0.029395011  0.031552048       -1e+20 
  193000    1.2036373    -7.288937     68.37526  0.029522997  0.031527282            1 
  194000    1.1891743   -7.2823423    68.365521  0.029366633  0.031501439            5 
  195000    1.1642351   -7.2963206    68.696485  0.029357472  0.031474476            3 
  196000    1.1769479   -7.2999967    69.026042  0.029347807  0.031447169            2 
  197000    1.1852019   -7.2480026      69.7718  0.029514298  0.031424501            1 
  198000    1.1731267   -7.2380213    70.175944   0.02953533  0.031403288            1 
  199000    1.1655904   -7.2526849    70.253106  0.029419223  0.031381568            1 
  200000    1.1863073   -7.2365195    70.613192  0.029422163  0.031359199            1 
  201000    1.1640958    -7.297147    70.692877  0.029308821  0.031334567            1 
  202000      1.16676   -7.3202157    70.830479  0.029220495  0.031309784            1 
  203000    1.2032014   -7.2737231    71.675997  0.029423644  0.031286958            5 
  204000    1.1891979   -7.2440282    71.609683  0.029252321   0.03126408            2 
  205000    1.1923916   -7.2796802    72.300764  0.029390554  0.031240293            2 
  206000    1.1577432   -7.2313783    72.649684  0.029389031  0.031217255            1 
  207000    1.1935605   -7.2789029    72.767805  0.029294607  0.031193893            2 
  208000    1.1690389   -7.2951449    72.928536  0.029218163  0.031169849            1 
  209000    1.1774587   -7.2748313    73.240685  0.029202825  0.031145385            2 
  210000    1.1620964   -7.2820948    73.644486  0.029224002  0.031121298            1 
  211000    1.1720066   -7.3356432    73.849342  0.029166407  0.031096206            1 
  212000    1.1526801   -7.2941729    74.589817  0.029319897  0.031072995            1 
  213000    1.1765286   -7.2591408    74.955308  0.029325238  0.031051485            2 
  214000    1.1500891   -7.2605817    75.011408   0.02921005  0.031029301            1 
  215000    1.1790942   -7.2879949    75.428658  0.029235914  0.031006827            2 
  216000     1.190227   -7.2973154    75.468962  0.029116112  0.030982217            1 
  217000    1.1713433    -7.317763    75.628341  0.029043142  0.030956316            1 
  218000    1.1575362   -7.3017985    75.948303  0.029032226  0.030929248            3 
  219000    1.1877399   -7.2743653    75.977315  0.028910698  0.030902898            1 
  220000    1.1909467   -7.2873756     76.74663  0.029070693  0.030874325            2 
  221000     1.187082   -7.2865757    76.911762  0.029001418  0.030848102            2 
  222000    1.1584617   -7.2750079    77.280891  0.029009343  0.030821219            4 
  223000     1.149348   -7.3045012    77.529223  0.028972056  0.030794303            3 
  224000    1.1690512   -7.2737931    77.971401  0.029007218  0.030769237            2 
  225000    1.1810857   -7.3487996     77.95917  0.028873767  0.030742975            1 
  226000    1.1839429   -7.3143143    78.457967  0.028929929  0.030715746            1 
  227000    1.1517043   -7.3086883    78.610965  0.028858651  0.030689445            3 
  228000    1.1516389   -7.2794452    79.398824  0.029020038  0.030664719            1 
  229000    1.1558832   -7.3354445    79.763341  0.029025961  0.030640636            1 
  230000    1.1790282   -7.3225478    79.720412  0.028884207  0.030616482            1 
  231000    1.1924422   -7.2934379    80.225453  0.028941361  0.030591775            1 
  232000    1.1577189   -7.2999032     80.70282  0.028988082  0.030567476            1 
  233000    1.1674006   -7.3098511    80.570205  0.028816239   0.03054346            2 
  234000    1.1812101    -7.287501     81.14725  0.028898593  0.030518882            4 
  235000    1.1613428   -7.2384481    81.805823  0.029009157  0.030496624            1 
  236000    1.1608277   -7.2478543    81.948423   0.02893659  0.030473361            2 
  237000    1.1785833   -7.3545986    81.586438  0.028687214  0.030448747            2 
  238000    1.1648925   -7.3102692     82.18689  0.028776922  0.030422433            2 
  239000    1.1655899   -7.2881382    82.449198  0.028747977  0.030395754       -1e+20 
  240000    1.1587455   -7.2557763    82.622784  0.028688466  0.030368877            2 
  241000    1.1472722   -7.3690789    82.468316  0.028516015  0.030340422            2 
  242000    1.1701365   -7.2932351    82.811179  0.028516246  0.030311779            1 
  243000     1.156726   -7.2649812    83.667786  0.028692656  0.030282629            6 
  244000    1.1744997   -7.3148711    83.478293  0.028510346  0.030254061            2 
  245000    1.1461003    -7.287311    83.934505  0.028549151  0.030226627            2 
  246000    1.1576622   -7.3031898    84.057058  0.028474613  0.030199074            1 
  247000    1.1557862   -7.2649744    84.953148  0.028661656  0.030171253            4 
  248000    1.1644143    -7.300209    84.932896  0.028539279  0.030145841            2 
  249000    1.1715293   -7.3256148    85.471595  0.028604952  0.030119438            2 
  250000    1.1362301   -7.3277763    85.706957  0.028568985  0.030093988            1 
  251000    1.1490641   -7.2848149     85.96439  0.028540634  0.030069247            1 
  252000    1.1740547   -7.3264729    86.240566  0.028518706  0.030043962            2 
  253000    1.1598367   -7.3594082    86.488047  0.028487499  0.030017196            3 
  254000    1.1227616   -7.3468624    86.495036  0.028377636  0.029990874            1 
  255000    1.1411494   -7.3395332    86.936978  0.028410777  0.029965461            1 
  256000    1.1747702   -7.3248542    87.216187  0.028390686  0.029939885            2 
  257000    1.1398996   -7.2985789     88.00344  0.028535486  0.029915145            2 
  258000    1.1467042   -7.3079978    88.105379   0.02845781  0.029891551            2 
  259000    1.1763579     -7.34042    88.537483  0.028486964  0.029868207            1 
  260000    1.1624803   -7.3965222    88.621986  0.028404483  0.029845771            1 
  261000    1.1588725   -7.3469298    89.295619  0.028510734  0.029822899            2 
  262000    1.1589683   -7.3143377     89.51828  0.028472735  0.029800822            1 
  263000    1.1429663   -7.3414354    89.816934  0.028459104   0.02977826            2 
  264000    1.1436962   -7.3397945    89.950373  0.028393426  0.029756559            3 
  265000    1.1547538   -7.3476306    90.239281  0.028377132  0.029732938            2 
  266000    1.1473018   -7.3176356    90.541442  0.028365113    0.0297097            1 
  267000    1.1609652   -7.3092079    91.195285  0.028462948  0.029687695            1 
  268000     1.148908   -7.3212203      91.2217  0.028364957  0.029665741            2 
  269000    1.1718151   -7.3084796    91.903788  0.028470814  0.029644568            4 
  270000    1.1332248   -7.3751802    91.884866  0.028359527   0.02962402            1 
  271000    1.1623125   -7.3519496    91.834177  0.028239292  0.029602433            2 
  272000    1.1448954   -7.3303966    92.535102  0.028350215   0.02958142            2 
  273000    1.1543364   -7.3504577    92.712837  0.028300622  0.029560099            1 
  274000    1.1531201   -7.3088945    93.150996  0.028330595  0.029538992            2 
  275000    1.1516463   -7.3246624    93.494188  0.028331572    0.0295189            4 
  276000    1.1504237   -7.3593281     93.54834  0.028245272  0.029496993            2 
  277000    1.1473037   -7.3237761    93.868612  0.028239655  0.029474753            2 
  278000    1.1512571   -7.3176384    94.057172  0.028194596  0.029452157            1 
  279000    1.1568059   -7.3377727    94.449554  0.028210739  0.029430014            2 
  280000    1.1531389   -7.3480255     94.83809  0.028225622  0.029408034            3 
  281000    1.1503627   -7.3661236    94.768902  0.028104657  0.029386912            2 
  282000    1.1464071   -7.3556747     95.08175  0.028097444  0.029364868            1 
  283000    1.1144414   -7.3663012     95.54555  0.028134732  0.029342898            2 
  284000    1.1281999    -7.357173    96.302434  0.028257756  0.029322372            1 
  285000    1.1350796    -7.355035    96.193507  0.028126756  0.029302019            2 
  286000    1.1451776   -7.3681684    96.342544  0.028071837   0.02928085            2 
  287000     1.133048   -7.3807599    96.401617  0.027991178  0.029259098            2 
  288000    1.1326014   -7.3631722    96.980324  0.028061436  0.029236741            1 
  289000    1.1236343   -7.3793758    97.060243  0.027987383  0.029213975            2 
  290000    1.1517106   -7.3547983    97.515912  0.028021814  0.029192137            2 
  291000    1.1500565   -7.3658174    98.026756  0.028071809  0.029171043            2 
  292000    1.1300323   -7.3727349    98.169721  0.028016473  0.029151315            1 
  293000    1.1656312   -7.3441499    98.818635  0.028105414  0.029131093            1 
  294000    1.1352115   -7.3750853    98.705201  0.027977665  0.029110382            2 
  295000    1.1400253   -7.3153637    99.140915  0.028005908  0.029090862            1 
  296000    1.1542297   -7.3479812    99.570639  0.028032274  0.029072172            1 
  297000    1.1321386   -7.3312257    100.32271  0.028148908  0.029054187            2 
  298000    1.1648023   -7.3342354    100.75529  0.028175418  0.029038281            1 
  299000    1.1485621     -7.36758    101.00577  0.028150995  0.029021831            3 
  300000    1.1371149    -7.391122    101.27435  0.028131765  0.029005722            1 
  301000     1.131617   -7.3372629    101.94594  0.028224237  0.028991504            2 
  302000    1.1494675    -7.347795    102.06099  0.028162523  0.028977524            1 
  303000    1.1426445   -7.3564477    102.32265  0.028141543  0.028962786            2 
  304000     1.138002   -7.3834468    102.47946  0.028091956  0.028948576            2 
  305000    1.1486924   -7.3408611    103.02665  0.028149357  0.028933222            2 
  306000     1.148577   -7.3650556    103.27414  0.028124767  0.028917349            2 
  307000    1.1312135   -7.3654647    103.20146  0.028013426  0.028900495            1 
  308000    1.1639613   -7.3736727    103.59501  0.028028953  0.028884019            3 
  309000    1.1553286   -7.3971108    104.03212  0.028056126  0.028868483            3 
  310000    1.1252837   -7.4213433    104.21835  0.028015686   0.02885452            3 
  311000    1.1365743   -7.4104509    104.64863  0.028040897  0.028840184            2 
  312000    1.1432614   -7.3855705     105.0272  0.028052136  0.028825706            2 
  313000    1.1383456   -7.3894764     105.2069  0.028010356  0.028810276            4 
  314000    1.1598962   -7.4118933    105.14085  0.027903623  0.028793867            2 
  315000    1.1247617   -7.3562049    105.66253  0.027953049  0.028777894            4 
  316000    1.1209668   -7.4118051    106.17554   0.02799988  0.028762687            3 
  317000    1.1424569   -7.4197217    106.25312  0.027931945  0.028747643            1 
  318000    1.1296592   -7.3429582    106.84771  0.027999923  0.028732697            1 
  319000    1.1329976   -7.4136341    106.80964  0.027902205   0.02871758            2 
  320000    1.1459629   -7.3735428    107.30791  0.027944768  0.028702676            1 
  321000    1.1189456   -7.3719831    107.50886  0.027909881  0.028688025            1 
  322000      1.13483   -7.3682075    107.83744  0.027908241  0.028674032            1 
  323000    1.1375906   -7.3997377    108.25318  0.027929097  0.028660121            3 
  324000    1.1295484   -7.4158935    108.82919  0.027991046  0.028646098            3 
  325000    1.1260602   -7.3258411    109.23212  0.028008236  0.028631246            3 
  326000    1.1021389   -7.4017338    108.98825  0.027859983   0.02861659            4 
  327000    1.1218081   -7.3928617    109.06137  0.027793416  0.028601643            2 
  328000    1.1008576   -7.4396234    109.22465  0.027750164  0.028586026            2 
  329000    1.1232189   -7.4031111    110.04609  0.027873884  0.028570838            2 
  330000    1.1306794   -7.3719931    110.30404  0.027854556  0.028555746            2 
  331000    1.1202674   -7.3783044    110.70504   0.02787136  0.028541732            2 
  332000    1.1469338   -7.4045106    110.74222  0.027796741  0.028527516            1 
  333000    1.1171065   -7.3985407    110.80548  0.027729099  0.028512393            1 
  334000    1.1185116   -7.4387327    110.68674  0.027616451  0.028496789            3 
  335000    1.1378494   -7.4070771    111.29302  0.027684832  0.028480636            4 
  336000    1.1094444   -7.3841012     111.9366  0.027762054  0.028464537            1 
  337000    1.1227806   -7.3919855    111.91256  0.027673728  0.028448675            3 
  338000    1.1139064   -7.3998378    112.27133  0.027680308  0.028433217            2 
  339000    1.1045925   -7.4077634    112.84799  0.027740411  0.028417864            1 
  340000     1.129972   -7.4068504    112.89011  0.027669145  0.028402208            1 
  341000    1.1375011   -7.4377106    112.70081  0.027541741  0.028386118            2 
  342000    1.1143011     -7.40786    113.35461  0.027620518  0.028370346            2 
  343000    1.1117316     -7.39703    113.74872  0.027635742  0.028355335            2 
  344000    1.1369856   -7.3901831    114.01402  0.027619675  0.028339729            2 
  345000    1.1019373   -7.4406192     114.5295  0.027664129  0.028325401            1 
  346000    1.0668545   -7.3965523    114.90288  0.027674105  0.028310746            1 
  347000    1.1173292   -7.4490376    115.09821   0.02764126  0.028296595            2 
  348000    1.1239471   -7.4420309    115.80598  0.027731316  0.028282909            1 
  349000    1.0936549   -7.4087628    116.01652   0.02770213  0.028269677            1 
  350000    1.1410798   -7.4272911    116.38086  0.027709729  0.028256775            1 
  351000     1.109143   -7.3640571    116.72778  0.027713148  0.028243802            1 
  352000    1.1242995   -7.4367619    116.69793  0.027627351  0.028230668            2 
  353000    1.0981578   -7.4070954     116.9839  0.027616597  0.028217629            1 
  354000    1.1040615    -7.426007    117.54643  0.027671006  0.028204759            2 
  355000    1.1292367   -7.4098778    117.66467  0.027620814  0.028191586            1 
  356000    1.1333769    -7.408794    118.06458  0.027636841  0.028178436            1 
  357000    1.1365387   -7.4053851     118.5845  0.027680788  0.028166263            2 
  358000    1.1190598   -7.4508804    118.49746  0.027583208  0.028153982            1 
  359000    1.1107863   -7.4250788    118.77508  0.027570817  0.028141203            2 
  360000    1.0953056    -7.463562    118.50844  0.027432509  0.028128343            4 
  361000    1.1306085   -7.4180119    119.53447  0.027593367  0.028115516            1 
  362000    1.0922782   -7.4838646    119.55848   0.02752267  0.028102906            2 
  363000     1.095033   -7.4323056    120.18791  0.027591347  0.028090299            4 
  364000    1.1182947   -7.4164252    120.82815  0.027662122   0.02807826            1 
  365000    1.1170824   -7.4510447    120.71719  0.027561002  0.028065213            3 
  366000    1.1278628   -7.4298301    121.07457   0.02756707  0.028052706            3 
  367000    1.0981329   -7.4260734    121.03455  0.027482867  0.028040697            2 
  368000    1.1210999   -7.4261503    121.82589  0.027587386  0.028029014            1 
  369000     1.122293   -7.4668804    121.46657  0.027431475  0.028015611            1 
  370000    1.1060713   -7.4070822    122.32922  0.027551625  0.028002677            2 
  371000    1.1227666   -7.4258044    122.37294  0.027487183  0.027989246            2 
  372000     1.060939   -7.4238379    122.39159  0.027417471  0.027975877            1 
  373000    1.0930012   -7.4454374    122.31696  0.027327291  0.027962213            2 
  374000     1.104059   -7.4106689    123.44937  0.027506543  0.027948733            2 
  375000     1.128937   -7.4300133     122.8703   0.02730451   0.02793519            4 
  376000    1.0795208   -7.4726691    122.82951  0.027222852  0.027920791            2 
  377000    1.0984305   -7.4421414    123.45071  0.027287955  0.027906415            4 
  378000    1.1091565   -7.4755064    123.62508  0.027254206  0.027891971            1 
  379000    1.1086776   -7.4482623    124.18574  0.027305571   0.02787787            1 
  380000    1.0891796   -7.4611154    124.06273  0.027206738  0.027863388            2 
  381000    1.0999893    -7.403652    124.80063  0.027296726  0.027849629            2 
  382000    1.1049076   -7.4423528     124.8975    0.0272464  0.027835908            2 
  383000    1.0863677   -7.4284989    124.97401  0.027191909  0.027822192            2 
  384000     1.108026   -7.4131316    126.07779  0.027360631  0.027808872            1 
  385000    1.1262466   -7.4217826    126.13147  0.027301185  0.027795707            1 
  386000    1.1144658    -7.486856    126.13377  0.027230953  0.027781744            2 
  387000    1.0882174   -7.4375557    126.84178  0.027313045  0.027767768            1 
  388000    1.0996225   -7.4955164    126.44222  0.027156834  0.027754371            1 
  389000    1.1348481   -7.4202822    127.45327  0.027303613  0.027740548            2 
  390000    1.0927774   -7.4910313    127.13994  0.027166655   0.02772721            3 
  391000    1.0879461   -7.4729231    127.53083  0.027180484  0.027713114            1 
  392000    1.1155159   -7.4807208    127.84251  0.027177405  0.027699425            1 
  393000    1.1035729   -7.4635687    127.62128   0.02706134  0.027685215            2 
  394000    1.0876528   -7.4787847    128.17881  0.027110577  0.027670893            3 
  395000    1.1187587   -7.4355877    128.14143  0.027034057  0.027656447            2 
  396000    1.1247868   -7.4462107    128.73146  0.027089953  0.027641408            1 
  397000    1.1031976   -7.4591604    128.72705  0.027020792  0.027626337            3 
  398000    1.0901648   -7.4614363    129.13086  0.027037449  0.027611512            5 
  399000    1.0864869   -7.4520874    129.60026  0.027067723   0.02759785            3 
  400000    1.0892779   -7.4907319    129.44648  0.026968016  0.027584542            2 
  401000    1.0918932   -7.5033863    129.94625  0.027004625  0.027570862            2 
  402000    1.0920465    -7.508034    130.21061   0.02699225   0.02755694            2 
  403000     1.094169   -7.4844142    130.49764  0.026984624  0.027543257            1 
  404000    1.1067101   -7.4734742    131.40455  0.027104899  0.027530223            2 
  405000    1.0746904   -7.4451553    131.37437  0.027031763  0.027517006            1 
  406000    1.1036515   -7.4821458    131.82627  0.027057938  0.027504346            1 
  407000     1.097101   -7.4807265     132.0022  0.027027478  0.027490834            1 
  408000    1.1090071   -7.4976242    132.20261  0.027002168  0.027477542            1 
  409000    1.0921888   -7.4353437    132.93226  0.027084812  0.027465005            2 
  410000     1.097039   -7.5044729     132.6573  0.026962865  0.027452279            1 
  411000    1.0824952   -7.4233485    133.52879  0.027073964   0.02743884            4 
  412000    1.0983807   -7.5019999    132.63882  0.026828241  0.027425107            1 
  413000    1.0705944   -7.4866704    132.97528  0.026831171  0.027411425            2 
  414000    1.1033018   -7.4968842    133.49109  0.026870187  0.027397921            1 
  415000     1.085571   -7.4907906     134.1297  0.026933676  0.027384485            3 
  416000    1.0951515    -7.501761    133.94714  0.026832359  0.027371793            7 
  417000    1.0953953   -7.4508879    134.62186   0.02690285  0.027357973            1 
  418000    1.0719442   -7.5044222    134.53798  0.026821767  0.027344271            4 
  419000    1.1149451   -7.4946887    134.91358  0.026832453  0.027330331            3 
  420000    1.0729513   -7.4738141    134.91327  0.026768506  0.027316823            2 
  421000    1.0861785   -7.4748192    135.60339  0.026841526  0.027303141            4 
  422000    1.0937725    -7.491084    135.73855  0.026804612  0.027289163            2 
  423000    1.1026616   -7.4792329    135.87866  0.026768846  0.027275557            1 
  424000    1.0876833   -7.4946956    135.85877  0.026701802  0.027261809            3 
  425000    1.1128854   -7.5357091    136.03401  0.026673335  0.027247955            2 
  426000    1.0811844   -7.5089992    136.62491  0.026726312  0.027234422            3 
  427000    1.0770096   -7.4651907    137.10773  0.026757949  0.027220488            1 
  428000    1.0918366   -7.4666723    137.36082  0.026744707  0.027206883            2 
  429000    1.0861789   -7.4726504    137.57942  0.026724829  0.027193208            3 
  430000    1.0925577   -7.4854216     137.7533  0.026696377  0.027179589            1 
  431000    1.0719242   -7.4658493    138.61539   0.02680112  0.027166523            2 
  432000    1.0779792   -7.5019254    138.42157  0.026701691  0.027153498            1 
  433000    1.0732269   -7.4886237    138.24191  0.026605449  0.027139176            2 
  434000    1.0941647   -7.5125441    138.73616  0.026639048   0.02712496            3 
  435000    1.0751192   -7.4830532    138.98423  0.026625331   0.02711075            3 
  436000    1.0768419   -7.4847552    139.07699  0.026581993  0.027095603            2 
  437000    1.0727869   -7.5043197    139.07887  0.026521523   0.02708064            1 
  438000    1.0951874   -7.4685494    139.78132   0.02659462  0.027066447            2 
  439000    1.0838718   -7.4730187     140.0592  0.026586788  0.027052198            1 
  440000    1.0697882   -7.5092587    139.52894  0.026425935  0.027037029            2 
  441000    1.0755419   -7.5186814    139.92477  0.026440811  0.027021481            2 
  442000    1.0769374   -7.4593031    140.46141  0.026482167  0.027005971            1 
  443000    1.0886912   -7.4869602    140.51594  0.026432645  0.026990908            2 
  444000    1.0646263   -7.4918821    140.83613  0.026433208  0.026976131            3 
  445000    1.0677913   -7.5365055    140.63326  0.026335816  0.026960319            2 
  446000    1.0790102   -7.5782982    140.84372  0.026316092  0.026944638            4 
  447000    1.0686929   -7.5072823    141.61252  0.026400544  0.026928746            1 
  448000    1.0599952   -7.5292551    141.18691  0.026262447  0.026912795            2 
  449000    1.0703414    -7.502842    141.73765  0.026306172  0.026896841            1 
  450000    1.0862929   -7.5223166    141.96223  0.026289302  0.026881117            1 
  451000     1.073105    -7.514425     142.5527  0.026340115  0.026865022            1 
  452000    1.0868522   -7.5464717    141.97905  0.026176078  0.026848611            2 
  453000    1.0395576    -7.525863    142.37845  0.026191768  0.026832304            2 
  454000    1.0924959   -7.5033983    142.82644  0.026216307   0.02681641            2 
  455000    1.0991443   -7.5037777    143.37715  0.026259551  0.026800268            3 
  456000    1.0828189   -7.5176861    143.75078  0.026270245  0.026784502            2 
  457000    1.0735889   -7.4716645    143.74055  0.026210896  0.026768397            2 
  458000    1.0492609   -7.5444269     143.7761  0.026160134  0.026752461            5 
  459000    1.0746473   -7.5399268    143.90826  0.026127135  0.026736626            1 
  460000    1.0656583    -7.528334    143.93474  0.026075135  0.026720494            6 
  461000    1.0817442   -7.4935552    144.56308  0.026132156   0.02670351            2 
  462000    1.0780266   -7.4912204    144.70194  0.026100638  0.026686544            2 
  463000    1.0676306   -7.5402058    144.09211  0.025934505  0.026668783            3 
  464000    1.0798331   -7.5170926    145.22736    0.0260825  0.026651258            1 
  465000    1.0628453   -7.5261255    144.96441  0.025979286  0.026634078            4 
  466000    1.0563069   -7.5133402    145.46372  0.026012825  0.026617657            2 
  467000    1.0574214   -7.5340785    146.05035  0.026061804  0.026601361            2 
  468000    1.0672281   -7.5425787    145.88464  0.025976609  0.026584376            1 
  469000    1.0805343   -7.4975654    145.96428  0.025935373  0.026567827            2 
  470000    1.0624767   -7.4892601    146.53142  0.025980748  0.026551218            1 
  471000    1.0474914   -7.5528809    146.13807  0.025855992  0.026534018            1 
  472000    1.0646084   -7.5373909    146.61161  0.025884817  0.026516787            4 
  473000    1.0598532   -7.5339978    147.24519  0.025941718  0.026500184            2 
  474000     1.071697   -7.5882369    147.38748  0.025912004  0.026483354            3 
  475000    1.0700133   -7.5167568    147.51192  0.025879285  0.026466754            2 
  476000    1.0444557   -7.5651652    147.19645  0.025769687  0.026450243            1 
  477000    1.0261851   -7.5319057    147.78882  0.025819151  0.026433472            1 
  478000    1.0510453   -7.4835578    148.94032  0.025965886    0.0264175            2 
  479000    1.0650724   -7.5464779    148.55188  0.025844099   0.02640107            3 
  480000     1.097183    -7.541618    148.61345  0.025800946  0.026385336            1 
  481000    1.0529036   -7.5229104    148.79642  0.025779006   0.02636948            4 
  482000    1.0357726   -7.5163799    149.41566  0.025832583  0.026353835            1 
  483000    1.0669526   -7.5638547    149.24335   0.02574937  0.026337557            1 
  484000    1.0783438   -7.5152801    149.49824  0.025740055  0.026321343            3 
  485000    1.0702239   -7.5783359     149.9219  0.025759777    0.0263051            3 
  486000    1.0611608   -7.5161886    149.89093  0.025701463  0.026288913            2 
  487000    1.0497071   -7.5631305     150.3707  0.025730784  0.026272919            1 
  488000    1.0744501   -7.5566773    150.29626  0.025665346  0.026256609            1 
  489000    1.0623405   -7.5026064    150.83129  0.025704038  0.026240326            2 
  490000    1.0497652   -7.5510059    151.17015  0.025709208  0.026224343            1 
  491000    1.0534996   -7.5463591    150.85965  0.025604149  0.026208082            3 
  492000    1.0492339   -7.5471265    151.33811  0.025633148  0.026191548            1 
  493000    1.0559653    -7.528794    151.62854  0.025630247  0.026174579            2 
  494000    1.0594616    -7.543175    151.68504  0.025587895   0.02615813            1 
  495000    1.0362317   -7.5526196    152.02739  0.025593837  0.026141473            1 
  496000    1.0427625   -7.5174204    152.31151  0.025589972  0.026124356            1 
  497000    1.0344386   -7.5596158    152.67382  0.025599232  0.026108034            2 
  498000    1.0588802     -7.58848    152.81617  0.025571648  0.026091991            3 
  499000    1.0272159   -7.5194662     153.0434   0.02555835  0.026075932            3 
  500000    1.0598405    -7.544398    153.53663  0.025589438  0.026060584            1 
  501000    1.0719124   -7.5188608    153.98715  0.025613298  0.026045358            4 
  502000    1.0616718   -7.5619174    153.72714  0.025519114  0.026030067            1 
  503000    1.0197537   -7.5767149    154.40372   0.02558047  0.026014573            2 
  504000    1.0526589   -7.5576505    154.49786   0.02554528  0.025999082            1 
  505000    1.0438887   -7.5405048    155.09976  0.025594021  0.025983899            3 
  506000    1.0518445   -7.5112311    155.67786  0.025638646  0.025968631            3 
  507000    1.0542638   -7.5636641    155.51218  0.025560845  0.025953462            1 
  508000    1.0523793   -7.5829823    155.71585  0.025543939  0.025938531            1 
  509000    1.0768201   -7.5536311    156.20171  0.025573299  0.025924123            3 
  510000    1.0368012   -7.5874058    156.42831  0.025560181  0.025909432            2 
  511000     1.057385   -7.5424706    156.97955  0.025600057  0.025895139            3 
  512000    1.0611709   -7.5909953    157.13838  0.025575908  0.025881434            2 
  513000    1.0678852   -7.6041166    156.64834  0.025446449  0.025867247            2 
  514000    1.0314786   -7.6264465    157.07123  0.025465504  0.025853098            2 
  515000    1.0457311   -7.5516952    157.60092  0.025501767  0.025838814            1 
  516000    1.0283513   -7.5554472    157.76143  0.025478267  0.025824944            2 
  517000    1.0362798   -7.5622872    158.56876  0.025559117  0.025810729            3 
  518000     1.050247   -7.6040603    157.82974  0.025390885  0.025796884            2 
  519000    1.0436588   -7.5571122     158.6033  0.025466169  0.025783155            1 
  520000    1.0452757   -7.6177439    159.24054  0.025519318  0.025769936            3 
  521000    1.0299198   -7.5799654    159.30733   0.02548102  0.025756299            1 
  522000    1.0429636   -7.6094783     159.1696  0.025410218  0.025742426            3 
  523000    1.0351441   -7.5561327    159.48134  0.025411304  0.025728373            5 
  524000    1.0434119   -7.6037977     159.6386  0.025387818  0.025714566            3 
  525000    1.0518293    -7.572956     160.3918  0.025459016  0.025700536            1 
  526000    1.0474084   -7.5908259    159.69319  0.025299935  0.025686399            2 
  527000    1.0542257   -7.5637879    160.05266   0.02530877  0.025672047            1 
  528000    1.0557735   -7.5735793    160.13588  0.025273971   0.02565759            1 
  529000    1.0528832   -7.6355379    160.19991  0.025236281   0.02564303            2 
  530000    1.0401705   -7.5901846    160.45444  0.025228686   0.02562822            4 
  531000    1.0592017   -7.6011073    160.86497  0.025245601  0.025613556            3 
  532000    1.0369492   -7.6276988    161.05443  0.025227823  0.025598573            1 
  533000     1.028442   -7.6068052    161.57684   0.02526217  0.025583766            1 
  534000    1.0445901   -7.5659299    161.62185  0.025221887  0.025568788            2 
  535000    1.0393223   -7.5990377    161.58465  0.025168949  0.025553979            3 
  536000    1.0513554   -7.6130434    161.39559  0.025092598  0.025538916            5 
  537000    1.0408051   -7.6119628    161.81896   0.02511157  0.025523565            2 
  538000    1.0390503   -7.5901647    162.18642  0.025121812  0.025508092            1 
  539000    1.0240078   -7.6302734    162.09009   0.02506031  0.025492782            1 
  540000    1.0321641   -7.5616596    161.79612  0.024968537  0.025477165            2 
  541000    1.0601159   -7.5860594    162.63471  0.025051558  0.025461896            2 
  542000     1.026338   -7.6418173    163.15039  0.025084623  0.025446886            1 
  543000    1.0421622   -7.5639339    163.57568  0.025103695   0.02543202            2 
  544000    1.0445238   -7.6152925    163.01627  0.024971855  0.025416954            5 
  545000    1.0247421   -7.5774007    163.64639  0.025022384  0.025401819            3 
  546000    1.0237301   -7.5969634     163.0868  0.024891147  0.025386318            4 
  547000    1.0383717   -7.6471111    163.22257  0.024866327  0.025370246            2 
  548000    1.0630092   -7.5865326    163.88951   0.02492237  0.025354273            1 
  549000     1.045408   -7.6123897    163.89108  0.024877213  0.025338289            2 
  550000    1.0406333   -7.5826945    164.36011  0.024903046  0.025322305            1 
  551000    1.0183482   -7.6390744    164.50408  0.024879625  0.025306547            2 
  552000    1.0350119   -7.6674872    164.48166  0.024831168  0.025290745            2 
  553000    1.0190952   -7.5997224    165.20724  0.024895606  0.025275077            3 
  554000    1.0409309   -7.6089478    165.37228  0.024875493  0.025259906            2 
  555000    1.0397354   -7.6061541    165.69098  0.024878526  0.025244986            2 
  556000     1.031112   -7.6044925    166.19185  0.024908851  0.025229554            2 
  557000    1.0354434   -7.5960753     166.2315  0.024870062   0.02521491            2 
  558000    1.0386711   -7.6541469    166.17882  0.024817625  0.025200109            2 
  559000    1.0375678   -7.6300639    167.17918  0.024922358  0.025185161            1 
  560000    1.0306764   -7.6136047    166.88245  0.024833698  0.025170683            1 
  561000     1.017052   -7.6276564    166.84169  0.024783377  0.025155838            2 
  562000    1.0277539   -7.6525648    167.13789  0.024783198  0.025140946            1 
  563000    1.0162402   -7.5971492    167.61515  0.024809821  0.025126074            1 
  564000     1.001445   -7.6419323    167.62521  0.024767319  0.025111211            3 
  565000    1.0195995   -7.6348004    167.63863  0.024725461  0.025095892            1 
  566000    1.0431907   -7.6498088    167.82557    0.0247093  0.025080617            2 
  567000     1.045013   -7.6394178    167.46569  0.024612829  0.025064929            2 
  568000    1.0368391   -7.6156459    167.40735  0.024560938  0.025049176            4 
  569000    1.0479068   -7.6244641    168.26841  0.024643879  0.025033487            1 
  570000    1.0224985   -7.6548339    168.02971  0.024565747  0.025017648            2 
  571000    1.0317145   -7.6472601    168.11531  0.024535217  0.025002022            1 
  572000    1.0325037   -7.6725665    168.77669  0.024588679  0.024986645            4 
  573000    1.0319674   -7.6369811    169.37353  0.024632567  0.024971652            1 
  574000    1.0284895   -7.5895283    169.67978  0.024634114  0.024956605            3 
  575000    1.0382537   -7.6159961    169.64451   0.02458616  0.024941464            2 
  576000    1.0161599   -7.6174513    169.68312  0.024549062  0.024926173            2 
  577000    1.0415047   -7.6484645    169.89546  0.024537184  0.024910994            2 
  578000    1.0456794   -7.6645759    169.86666   0.02449058   0.02489574            2 
  579000    1.0241403   -7.6585256     170.0516    0.0244749  0.024880474            1 
  580000    1.0152516   -7.6454306    170.70138  0.024526061  0.024865684            3 
  581000    1.0051293    -7.656445    171.26945  0.024565326  0.024851013            1 
  582000    1.0214962    -7.639009    171.03792  0.024489966  0.024835967            2 
  583000    1.0625059   -7.6711237    170.61101  0.024386936  0.024820585            1 
  584000    1.0294789   -7.6494222    171.57882   0.02448328  0.024805776            1 
  585000    1.0125519   -7.6393521    171.44018  0.024421678  0.024790699            2 
  586000     1.021783   -7.6628147    172.09758  0.024473489  0.024775908            2 
  587000    1.0382161   -7.6187763    172.27776  0.024457377  0.024761207            1 
  588000    1.0281027   -7.6424111     172.5316  0.024451758  0.024746707            3 
  589000    1.0265296   -7.6509635    172.59442  0.024419132  0.024731856            2 
  590000    1.0196785   -7.6436343    173.04808  0.024441819  0.024717377            5 
  591000     1.023024   -7.6789035    172.65081  0.024344446  0.024702632            2 
  592000    1.0236048   -7.6716775    173.01521  0.024354619  0.024687705            3 
  593000    1.0606873    -7.665945    172.96152  0.024306003  0.024672795            1 
  594000    1.0146622   -7.6812547    173.27269  0.024308739  0.024658065            2 
  595000    1.0152823   -7.6659935    173.57033   0.02430957   0.02464296            1 
  596000    0.9944109   -7.6651047     173.1507  0.024210109  0.024627641            1 
  597000    1.0218298   -7.6002202    174.37294  0.024340165  0.024612749            2 
  598000    1.0165176   -7.6081144    174.35053  0.024296339  0.024597987            2 
  599000    1.0147989   -7.6383056    174.66133  0.024299016  0.024583471            6 
  600000    1.0192638   -7.6950635    174.58269  0.024247596  0.024568678            1 
  601000    1.0304303   -7.6977842    174.62363  0.024212927  0.024553766            2 
  602000    1.0176083   -7.6848845    174.89914  0.024210844  0.024538932            1 
  603000    1.0103068   -7.6954401    175.34963  0.024232951  0.024524172            1 
  604000    1.0274501   -7.6640493    174.41224  0.024063498  0.024509066            3 
  605000     1.005475   -7.6533782    175.68144  0.024198546  0.024494113            2 
  606000    1.0005426   -7.6689254    175.41288  0.024121683  0.024479434            1 
  607000   0.98196129   -7.7150092    175.53832  0.024099165  0.024464148            2 
  608000    1.0069129   -7.7069343    175.09121  0.023998247  0.024448537            5 
  609000    0.9850718   -7.7281239    176.07152  0.024092982   0.02443293            2 
  610000    1.0003914   -7.6571594    176.28522   0.02408268  0.024418153            3 
  611000    1.0174362   -7.6908101    176.31105  0.024046788   0.02440325            2 
  612000    1.0029657   -7.6735205    176.67066  0.024056462  0.024387988            3 
  613000   0.99726398   -7.6829097    177.05108  0.024068934  0.024372856            2 
  614000   0.98178306   -7.6733866    177.15035  0.024043207  0.024357426            2 
  615000    1.0197705    -7.699134    176.67194  0.023939288  0.024341897            6 
  616000    1.0177174   -7.7078903    177.68918  0.024038039  0.024326426            2 
  617000   0.98823633   -7.7414759    176.68456  0.023863393  0.024311171            4 
  618000    1.0258617   -7.7405799    177.26423  0.023902943  0.024295844            1 
  619000    1.0062268   -7.6974997    177.66009  0.023917622  0.024280684            3 
  620000    1.0144177   -7.7013641     177.7251  0.023887782  0.024265025            2 
  621000       1.0011   -7.6925241    177.96976  0.023882147  0.024249734            1 
  622000    1.0118895   -7.7020126    178.07775  0.023858219   0.02423446            3 
  623000    1.0264687   -7.7342299    178.23602  0.023841094  0.024219034            1 
  624000   0.98764251    -7.685992    179.07998  0.023915595  0.024203943            4 
  625000    1.0124581   -7.6893629    178.82144  0.023842858  0.024188678            2 
  626000    0.9813518   -7.7205999    179.16783  0.023850882  0.024173164            2 
  627000    1.0217663   -7.6667986    179.69153  0.023882447  0.024158008            3 
  628000    1.0102643   -7.6812829    179.18836  0.023777649   0.02414286            2 
  629000   0.99819002   -7.6763502    179.71773   0.02380998  0.024127697            2 
  630000    1.0152426   -7.6264084    180.26846  0.023845035  0.024112737            3 
  631000   0.99937931   -7.6875575     180.3993  0.023824525  0.024098141            2 
  632000   0.99012689   -7.6921558    180.93768  0.023857816  0.024083505            5 
  633000    1.0175767   -7.7015241     180.6647  0.023784189  0.024068878            1 
  634000    1.0259024   -7.7029847    180.17712  0.023682587  0.024054052            3 
  635000   0.98142228   -7.7130786    180.79217  0.023726007  0.024038988            2 
  636000    1.0135235   -7.6985045    181.24707  0.023748305  0.024023916            3 
  637000   0.99536284   -7.7349344    180.93447   0.02367013  0.024008832            1 
  638000    1.0175835   -7.6962031    181.21487  0.023669654  0.023993959            6 
  639000   0.99432161   -7.6520568    181.62417   0.02368599  0.023978858            4 
  640000    1.0170499   -7.7139651    181.70766  0.023659851  0.023963691            1 
  641000    1.0138425   -7.6841509    182.26952  0.023695986  0.023948555            1 
  642000   0.98314134   -7.7182665    181.17087  0.023516467  0.023933334            1 
  643000   0.99227101   -7.6847351    182.00899  0.023588516  0.023918043            1 
  644000   0.99742907   -7.7064823    182.47708  0.023612459  0.023902767            4 
  645000   0.99884501   -7.7265496    181.78462  0.023486385  0.023887623            1 
  646000    1.0009177   -7.7086993    182.34081  0.023521776   0.02387228            1 
  647000   0.99234823     -7.73249    182.03882  0.023446525  0.023857011            3 
  648000   0.98971536   -7.6945536    182.88092  0.023518637  0.023841458            2 
  649000   0.98789222   -7.7236994    182.41378  0.023422417  0.023825438            4 
  650000    1.0011617   -7.6925953    183.41058  0.023514177  0.023809592            1 
  651000   0.99798235   -7.7385863    183.21121  0.023452536  0.023793864            2 
  652000     1.012941   -7.6901973    183.04161  0.023394889  0.023777869            1 
  653000   0.99144331   -7.7242196    183.44657  0.023410741  0.023762294            5 
  654000   0.99302807   -7.6720767    183.37964  0.023366417  0.023746436            1 
  655000   0.99711226   -7.7473634    183.62348  0.023361765  0.023730604            1 
  656000   0.98870998    -7.729408    183.59833  0.023322959  0.023714845            1 
  657000   0.98978599   -7.7339852    184.18106  0.023361372  0.023699079            1 
  658000    1.0260434   -7.7073067    184.88203  0.023414644  0.023683529            1 
  659000   0.99292153   -7.7104284     184.9121  0.023382916  0.023668272            3 
  660000    1.0325804   -7.7174638    184.63675  0.023312721  0.023653052            2 
  661000   0.98785028   -7.7382586    184.55355  0.023266963  0.023637518            1 
  662000   0.98074513   -7.7643043    184.36793  0.023208451  0.023621871            1 
  663000   0.99976927   -7.7196316    185.09994  0.023265452  0.023606208            2 
  664000   0.98572313   -7.7731336      185.021  0.023220507  0.023590392            3 
  665000   0.97061004    -7.760575    185.29567  0.023220009   0.02357441            2 
  666000    1.0006442   -7.7184735    185.88617   0.02325903  0.023558519            3 
  667000   0.98372235   -7.7216901    186.32477  0.023278957  0.023542816            4 
  668000    1.0098787   -7.6935876    186.21559  0.023230487  0.023527252            1 
  669000    0.9825582   -7.7292065    186.18195  0.023191574  0.023511702            1 
  670000    1.0186786   -7.7371475     185.6458  0.023090273  0.023496026            2 
  671000    0.9795526   -7.7555155     185.7744  0.023071833   0.02348011            3 
  672000    1.0035079   -7.7013423    186.81781  0.023166891  0.023464386            3 
  673000   0.98845128   -7.7114603    187.28418  0.023190215  0.023449075            3 
  674000    0.9876196   -7.7170415    187.26416  0.023153333   0.02343396            1 
  675000   0.97613019   -7.7302697    187.05184   0.02309282  0.023418389            1 
  676000    1.0137277   -7.7385367    186.84661  0.023033359  0.023402696            2 
  677000   0.96400313   -7.7158001    187.04862  0.023024202  0.023387103            3 
  678000   0.99096429   -7.7446294    187.52954  0.023049353  0.023371294            6 
  679000   0.98964834   -7.7317725    187.20442  0.022975505  0.023355593            3 
  680000   0.96615544   -7.7533726    187.26769  0.022949472  0.023339709            4 
  681000   0.97423278   -7.7276265    187.51476  0.022946006  0.023323895            1 
  682000   0.95039545   -7.7592557    188.04249  0.022976844  0.023308296            1 
  683000   0.97075571   -7.7344544    188.01639  0.022940018  0.023292534            2 
  684000   0.97764457   -7.7649613    187.99247  0.022903566  0.023276933            3 
  685000   0.97988696   -7.7302062    188.84964  0.022974409  0.023261596            2 
  686000   0.97613454   -7.7572875    188.65669  0.022917479  0.023246363            3 
  687000   0.98738258     -7.71217    189.09085  0.022936784  0.023230873            1 
  688000   0.97559892    -7.786369    189.45099  0.022947067  0.023215536            2 
  689000   0.97364772   -7.7821167    189.29867  0.022895339  0.023200235            3 
  690000   0.98723518   -7.7832119    190.13448  0.022963102  0.023185173            3 
  691000   0.98804887   -7.7539911    190.53033  0.022977608  0.023170254            1 
  692000   0.98522577   -7.7406332    190.30216  0.022916927  0.023155328            2 
  693000   0.99885926   -7.7526389     190.1712  0.022868109   0.02314037            2 
  694000    0.9709472   -7.7476587     190.8701   0.02291908  0.023125468            2 
  695000   0.95442378   -7.7774749    190.45691   0.02283656  0.023110636            1 
  696000   0.96611572   -7.7037542    192.05948  0.022995627  0.023096068            1 
  697000   0.98275779   -7.7521727    191.28502   0.02287004    0.0230815            4 
  698000   0.96868846    -7.764888    191.52508  0.022865936  0.023066785            1 
  699000   0.98501948   -7.7891338    191.40462  0.022818862  0.023051754            4 
  700000   0.96511921   -7.7656622    191.84465  0.022838649  0.023037045            2 
  701000   0.97416609   -7.7793645    191.93482  0.022816788   0.02302259            2 
  702000   0.96645916    -7.775249    192.20158  0.022815952   0.02300823            2 
  703000   0.97336615   -7.7525494    192.56589  0.022826682  0.022993934            2 
  704000   0.97228017   -7.7573212    192.56707  0.022794397  0.022979838            3 
  705000   0.99007414   -7.7877787    192.70527  0.022778401  0.022965745            2 
  706000   0.95982149   -7.7612676    192.84621  0.022762772  0.022951368            1 
  707000   0.97028857   -7.7524534    192.92216  0.022739529  0.022936952            3 
  708000    0.9821308   -7.7735071    193.47516    0.0227725  0.022922435            2 
  709000   0.98033758   -7.7656521    193.44326  0.022736631  0.022908153            1 
  710000   0.97682591   -7.7147768    194.28222  0.022803077  0.022893944            2 
  711000   0.97220464   -7.7583109    193.75592   0.02270932   0.02287986            2 
  712000   0.97198728   -7.7521932    194.43862  0.022757329  0.022866019            1 
  713000   0.98382062   -7.7810653    194.42112  0.022723366  0.022851869            2 
  714000   0.96683946   -7.7979134    194.66298  0.022719769  0.022837709            2 
  715000   0.96053481   -7.7686815    194.34379  0.022650792  0.022823591            3 
  716000   0.96036685   -7.7840514     194.6216   0.02265149  0.022809424            3 
  717000   0.97367551   -7.8044704    194.31564  0.022584338  0.022795206            2 
  718000    1.0003548   -7.7894529    194.53969  0.022578887  0.022780808            5 
  719000   0.97563211   -7.7942375    194.87932  0.022586847  0.022766692            2 
  720000   0.93415255   -7.7464536    195.44833  0.022621334  0.022752394            3 
  721000   0.98320082   -7.7756873    195.59395  0.022606791  0.022737837            3 
  722000   0.98079576   -7.7463021    194.84405  0.022488925  0.022723208            1 
  723000   0.97272117   -7.7596027    195.08014  0.022485032  0.022708334            5 
  724000   0.95123959   -7.8194104    195.35966  0.022486148  0.022693672            2 
  725000   0.97037195   -7.7841929    194.99361  0.022413058  0.022678729            3 
  726000   0.95563827   -7.8325724    195.01763  0.022384944  0.022663692            1 
  727000   0.94235032   -7.7791068    195.64722   0.02242632  0.022648581            3 
  728000   0.95845689   -7.7891153    196.30088  0.022470339  0.022633734            3 
  729000   0.94185274   -7.8068512     196.2987  0.022439266   0.02261906            4 
  730000   0.96095947    -7.796556     196.0688  0.022382283  0.022604378            3 
  731000   0.96103558   -7.8044105    196.58837  0.022410895  0.022589691            2 
  732000   0.95439221   -7.8298055    196.27534  0.022344643  0.022574842            1 
  733000   0.93567394   -7.8329584    196.79409  0.022373134  0.022560055            2 
  734000   0.93562245   -7.8154136    196.51893  0.022311413  0.022545367            2 
  735000   0.96980425   -7.8004809      197.211  0.022359524  0.022530758            5 
  736000   0.94403321   -7.7890085    197.77406  0.022392896  0.022516278            1 
  737000   0.98450676   -7.7735339    197.32194  0.022311391  0.022501919            1 
  738000   0.95333329   -7.7636331    197.63526  0.022316538  0.022487679            2 
  739000   0.96648772   -7.7756312    197.71722  0.022295581   0.02247331            2 
  740000   0.96706927   -7.7622043    197.78952  0.022273595   0.02245885            2 
  741000   0.95886785   -7.7959636    197.87343  0.022252972  0.022444424            4 
  742000   0.94147425   -7.8451838    197.60203  0.022192501  0.022429976            2 
  743000    0.9662714    -7.804962    198.11556  0.022220229   0.02241545            2 
  744000   0.98292194   -7.8155591    198.38229  0.022220239   0.02240099            1 
  745000   0.96127323   -7.7862785      198.916  0.022250112   0.02238669            3 
  746000   0.96229488   -7.7913323    199.42078  0.022276673  0.022372481            1 
  747000   0.94799461   -7.8216528    198.87986  0.022186509  0.022358221            2 
  748000   0.93880702   -7.8321179    198.70641  0.022137523  0.022343954            1 
  749000   0.95906053   -7.8466414    199.47871  0.022193893  0.022329635            3 
  750000    0.9509869   -7.8043536    199.81355  0.022201505  0.022315394            1 
  751000   0.97025723   -7.8487305    199.12655  0.022095711  0.022301017            5 
  752000   0.96533227   -7.8335168    199.44124  0.022101202  0.022286503            2 
  753000    0.9600587   -7.8356733     199.8672  0.022118991  0.022272036            2 
  754000   0.96808147   -7.8289258    200.07426  0.022112539  0.022257599            1 
  755000   0.93703276   -7.8165042    200.21516  0.022098803  0.022243008            1 
  756000   0.94972961   -7.8259291    200.37214  0.022086876  0.022228697            1 
  757000   0.97003735   -7.8683836    200.33914  0.022054066   0.02221427            3 
  758000   0.95601014   -7.8137478    200.31968  0.022022832  0.022200007            3 
  759000   0.94279879   -7.8740227     200.6547  0.022030599  0.022185773            1 
  760000   0.95564005   -7.8490785     201.2462  0.022066469   0.02217144            2 
  761000   0.96057547   -7.8449019    201.13508  0.022025304  0.022157025            2 
  762000   0.95017185   -7.8187803    201.48871  0.022035074  0.022142637            2 
  763000   0.96081563    -7.825469    201.03863  0.021957036  0.022128332            3 
  764000   0.94165924   -7.8665739    201.51108   0.02197983  0.022114004            1 
  765000   0.93709835   -7.8252661    201.83207  0.021986064  0.022099845            2 
  766000   0.96700352   -7.8368952    201.77139  0.021950761  0.022085576            2 
  767000   0.96032876   -7.8515806    201.55982  0.021899154   0.02207125            3 
  768000   0.94186024   -7.8561401    201.55852  0.021870499  0.022056874            4 
  769000   0.96768687   -7.8706014    201.66251  0.021853328    0.0220423            2 
  770000   0.91195899   -7.8485557    202.46457   0.02191175  0.022027947            6 
  771000   0.92756285   -7.8592966    202.06106  0.021839717  0.022013597            3 
  772000   0.93885396   -7.8851946    202.06763  0.021812136  0.021999279            1 
  773000   0.94599855   -7.8269994    202.97868  0.021882135  0.021984906            2 
  774000   0.94702515   -7.8299953    203.04106   0.02186058   0.02197062            7 
  775000   0.95532635   -7.8463916    202.60856  0.021785867  0.021956443            2 
  776000   0.96071287   -7.8581122    203.10295  0.021810884  0.021942364            2 
  777000   0.94309639   -7.8412646    203.39314  0.021813936  0.021928069            1 
  778000   0.94238455   -7.8695879     202.9599  0.021739492  0.021913703            1 
  779000    0.9306974   -7.8626946    202.54975   0.02166771  0.021899246            2 
  780000   0.95867395   -7.8504531    203.16751  0.021705931  0.021884736            4 
  781000   0.93663027   -7.8199745     203.6993  0.021734881  0.021870351            2 
  782000   0.94768494   -7.8090993    204.19084  0.021759468  0.021856016            2 
  783000   0.95946867   -7.8893608    204.08122   0.02172001  0.021841797            4 
  784000   0.92439101   -7.8290516    203.81814  0.021664343  0.021827555            3 
  785000    0.9103385     -7.82751     204.7498  0.021735648  0.021813214            2 
  786000   0.94001902   -7.8482773    204.40008  0.021670916  0.021798812            2 
  787000   0.91771446   -7.8143781     204.5806  0.021662494  0.021784399            2 
  788000   0.93672813   -7.8459252    204.58869   0.02163586  0.021769998            1 
  789000   0.96778813   -7.8837138    204.10679   0.02155754  0.021755375            2 
  790000   0.92819253   -7.8560487    204.09085   0.02152857  0.021740767            2 
  791000    0.9205408   -7.8927083    203.98338  0.021490032  0.021725977            2 
  792000   0.95557802   -7.8706103    204.31474  0.021497763   0.02171115            1 
  793000   0.92782902   -7.8629441    205.14669   0.02155808  0.021696439            3 
  794000   0.92578455   -7.9030158    204.73993  0.021488238  0.021681677            2 
  795000   0.95581891    -7.835192    205.23641   0.02151325  0.021667017            3 
  796000   0.94498425   -7.8906796     204.7602  0.021436369  0.021652271            1 
  797000   0.95985721   -7.8471675    205.52041   0.02148896  0.021637517            2 
  798000   0.92343334   -7.8743148    205.05384  0.021413308  0.021622708            3 
  799000   0.94743931   -7.9073534    204.63745   0.02134308  0.021607783            2 
  800000   0.93626181   -7.8982575    205.20849  0.021375885  0.021592849            7 
  801000   0.93796143   -7.8990702    204.86562  0.021313527  0.021577729            9 
  802000   0.95577142   -7.8924857    205.25514  0.021327425  0.021562597            1 
  803000   0.94704123   -7.8506671     205.4001  0.021315909  0.021547563            2 
  804000   0.94522628   -7.8848381    205.24749  0.021273579  0.021532468            1 
  805000     0.943589   -7.8702666    205.87049  0.021311644  0.021517254            3 
  806000    0.9217141   -7.8423951    206.15346  0.021314461   0.02150244            3 
  807000   0.94174513   -7.8668176    206.36118  0.021309498  0.021487561            3 
  808000   0.93528926   -7.8815111    206.36241  0.021283251  0.021472731            3 
  809000   0.92837188   -7.8919102    206.40741  0.021261579  0.021457721            3 
  810000   0.92780997   -7.9166537    205.98182  0.021191545  0.021442636            2 
  811000   0.94634896    -7.846661    206.62562  0.021231568  0.021427558            2 
  812000   0.93450465   -7.8929664    206.82482  0.021225864  0.021412466            2 
  813000   0.91449618   -7.9020627    205.82282   0.02109705   0.02139732            3 
  814000   0.92254155   -7.9138622    206.74444  0.021165483  0.021382039            3 
  815000   0.92930615    -7.918078    206.39236  0.021103513  0.021366764           12 
  816000   0.93132769   -7.9205151    206.50063  0.021088708  0.021351412            1 
  817000   0.91765956   -7.8799649    206.70459    0.0210837  0.021335979            3 
  818000    0.9545207   -7.9060252    206.48205  0.021035254  0.021320487            3 
  819000   0.93712283   -7.8845366    206.61961  0.021023567  0.021305088            1 
  820000   0.91418001   -7.9078355    207.04777   0.02104144  0.021289685            2 
  821000   0.91898107   -7.8732934    207.06415  0.021017473  0.021274242            3 
  822000   0.92757556   -7.9311658    207.26394   0.02101216  0.021258768            2 
  823000   0.93392489   -7.9032242    207.61371  0.021022045   0.02124332            1 
  824000   0.92699442    -7.924723     207.6248  0.020997653  0.021228026            1 
  825000   0.94343857   -7.8547968    208.47061  0.021057638  0.021212778            3 
  826000   0.91955043   -7.8903985    207.65747  0.020950108  0.021197544            7 
  827000   0.91082102   -7.9409115    207.88955  0.020948161  0.021182259            1 
  828000    0.9215384   -7.8982478    207.31274  0.020864809  0.021166969            2 
  829000   0.92907011   -7.8742979    208.20544  0.020929376  0.021151569            1 
  830000   0.92156044   -7.9008235     207.7206  0.020855482  0.021136198            1 
  831000   0.92746959     -7.89931     207.9292  0.020851303  0.021120682            2 
  832000   0.91718754   -7.9064928    208.05708  0.020839051  0.021105203            1 
  833000    0.9309607   -7.9395065    208.72227   0.02088058  0.021089677            3 
  834000   0.90510107   -7.9417467    208.00259  0.020783633  0.021074336            1 
  835000   0.93642763   -7.9168957    208.26498  0.020784929  0.021058808            1 
  836000   0.92484766   -7.9382753    208.70032  0.020803461  0.021043171            2 
  837000   0.91245923    -7.948953    208.50543  0.020759202  0.021027501            7 
  838000   0.92491519   -7.9300089    208.46313  0.020730224  0.021011892            3 
  839000      0.93033   -7.9207365    208.77308  0.020736301  0.020996501            2 
  840000   0.91544131   -7.8862435    209.33008  0.020766873  0.020981059            3 
  841000   0.92226896   -7.9431234     208.4772  0.020657669  0.020965603            4 
  842000   0.91552881   -7.8869276    208.69818  0.020655006  0.020949984            2 
  843000   0.91398541   -7.9361439    208.95367   0.02065576  0.020934158            3 
  844000   0.93407911   -7.9173731    209.29101  0.020664594  0.020918522            2 
  845000   0.91261054   -7.9484293    208.84483  0.020596138  0.020902973            1 
  846000    0.9256622   -7.9225808    209.54812  0.020641067  0.020887346            2 
  847000   0.92089514   -7.8870353    209.73836  0.020635416  0.020871826            1 
  848000   0.89916812   -7.8930906    210.06701  0.020643377  0.020856228            3 
  849000   0.91544563   -7.9241708     209.7066  0.020583686  0.020840635            3 
  850000   0.90219931   -7.9411655    209.47052  0.020536326  0.020825022            4 
  851000   0.90174353   -7.9665745    209.25149  0.020490746  0.020809377            5 
  852000   0.90757158   -7.9737728    209.39891  0.020481114  0.020793726            2 
  853000   0.91673385   -7.9401948    210.18452  0.020533853  0.020777996            1 
  854000   0.92329777     -7.94734     209.9322  0.020485187  0.020762392            2 
  855000    0.9043699   -7.9718695    210.51627  0.020518155  0.020746939            2 
  856000   0.91015621   -7.9323211    210.06435   0.02045019  0.020731391            2 
  857000   0.95346819   -7.9396814    210.63414  0.020481733  0.020715959            2 
  858000   0.89934852   -7.9434529    211.12388  0.020505427   0.02070046            2 
  859000   0.91417447   -7.9361358     210.8457  0.020454569  0.020684892            2 
  860000   0.89956683   -7.9343022    210.67577  0.020414319  0.020669356            1 
  861000   0.90794119   -7.9467542    210.74899  0.020397695  0.020653847            2 
  862000   0.91957972   -7.9135786    211.41339  0.020438263  0.020638609            6 
  863000   0.89573363   -7.9535293    211.26259  0.020400019  0.020623298            1 
  864000   0.91477824   -7.9539732    211.33708  0.020383592  0.020607793            2 
  865000   0.91480257   -7.9562197    211.27443  0.020353992  0.020592216            2 
  866000   0.89134742   -7.9600534    211.12669  0.020316271  0.020576687            2 
  867000    0.9023632   -7.9178493    211.35098  0.020314396   0.02056117            4 
  868000   0.90498022   -7.9239525    211.56701  0.020311733  0.020545575            3 
  869000    0.9227603   -7.9619196    212.02655  0.020332427  0.020530089            1 
  870000   0.89864577   -7.9308454    211.92447  0.020299279  0.020514772            2 
  871000   0.91769979   -7.9373408    212.74093  0.020354088  0.020499746            2 
  872000   0.89359604   -7.9379836    212.21982  0.020280946  0.020484634            3 
  873000   0.90265575   -7.9522287    211.97551  0.020234393  0.020469334            2 
  874000   0.90689785   -7.9634258    212.07353  0.020220588  0.020454073            1 
  875000   0.89350198   -7.9415207    212.94517  0.020280492  0.020438801            3 
  876000   0.90728507   -7.9472285    212.84573  0.020247881  0.020423592            2 
  877000   0.90232529   -7.9722723    213.35515  0.020273199  0.020408486            1 
  878000   0.90475225   -7.9493682    212.54374  0.020173096    0.0203933            3 
  879000   0.89805169   -7.9443397    213.07121  0.020200152  0.020378088            2 
  880000   0.88470099   -7.9625713    212.48384  0.020121576  0.020362892            1 
  881000   0.89834034   -7.9386583    213.38058  0.020183559  0.020347708            2 
  882000   0.90740551    -7.950109    213.15467   0.02013933  0.020332578            1 
  883000   0.90885201   -7.9496586    213.67829  0.020165939  0.020317522            4 
  884000   0.89559565   -7.9841051    213.28735  0.020106273  0.020302396            2 
  885000   0.91699663   -7.9487029    213.69892  0.020122309  0.020287267            2 
  886000   0.90128303   -7.9503389    213.54459  0.020085082  0.020272237            1 
  887000   0.90390628   -7.9394905    213.51062  0.020059246  0.020257049            5 
  888000   0.90047498   -7.9761325    213.33717   0.02002038  0.020241776            2 
  889000   0.90122123   -7.9611308    213.93011  0.020053441  0.020226534            1 
  890000   0.91951489   -7.9394521    213.51632  0.019992165  0.020211375            1 
  891000   0.90462497   -7.9655913    213.70284  0.019987172   0.02019612            3 
  892000   0.88737179   -7.9402598    213.95207  0.019988049   0.02018085            3 
  893000   0.89524106   -7.9467793     214.1741  0.019986385  0.020165699            2 
  894000   0.89209512   -7.9539419    214.42494  0.019987411   0.02015049            2 
  895000   0.91279999    -8.006924    213.80852  0.019907683  0.020135262            2 
  896000   0.87560501    -7.933263      214.578  0.019957031  0.020120146            1 
  897000   0.90894258   -7.9977874    213.97069  0.019878362  0.020105055            4 
  898000   0.91452681   -7.9567158    214.83309  0.019936255  0.020089962            2 
  899000   0.88265759    -7.991189    214.40479  0.019874378  0.020074738            2 
  900000   0.90404581   -7.9601958    214.37937  0.019849942  0.020059434            3 
  901000   0.89924542   -7.9462704    215.12127  0.019896529  0.020044181            1 
  902000   0.90740908   -7.9633157    215.28267  0.019889382  0.020029067            2 
  903000   0.89390388   -7.9265804     215.7355  0.019909146  0.020014072            1 
  904000   0.88969265   -7.9580485    214.85865  0.019806292  0.019999161            1 
  905000   0.88781806   -7.9921519    214.92809    0.0197908  0.019984147            1 
  906000    0.8996027   -7.9578015    215.68547  0.019838619  0.019968998            3 
  907000    0.9004855   -7.9690772    215.59752  0.019808666  0.019953821            4 
  908000   0.88166787   -8.0093612    215.05002  0.019736603  0.019938432            1 
  909000   0.90969876   -7.9617751    215.48228  0.019754517  0.019923085            2 
  910000   0.87867102   -7.9898329    215.22476  0.019709227  0.019907878            1 
  911000   0.89471707   -7.9920036    215.31892  0.019696205  0.019892669            2 
  912000   0.90635487   -7.9969343     215.2499  0.019668303  0.019877354            5 
  913000   0.90282246   -7.9776684    215.41001  0.019661373   0.01986215            1 
  914000   0.89055145   -8.0290718    215.08855  0.019610553  0.019846923            2 
  915000    0.9002015    -7.997849    215.62127  0.019637639  0.019831532            2 
  916000   0.87171068   -8.0041135    215.36936  0.019593282  0.019816257            1 
  917000   0.89582426     -7.98011    215.68816  0.019600887  0.019801088            2 
  918000   0.87138639   -7.9992935    215.52156  0.019564411   0.01978584            1 
  919000   0.89932499   -8.0010748    216.06773  0.019592649   0.01977053            2 
  920000    0.8862497   -8.0341101    215.72998  0.019540759  0.019755098            3 
  921000   0.86489992   -7.9533744    216.09396  0.019552475  0.019739766            4 
  922000   0.84643174   -8.0160995     216.0067  0.019523382  0.019724392            4 
  923000   0.88301371   -8.0255753    215.48017  0.019454692  0.019708973            2 
  924000   0.87670495   -7.9963718     216.3416  0.019511328  0.019693459            1 
  925000     0.891989   -8.0126953    216.75847   0.01952779  0.019678023            1 
  926000   0.88058502   -8.0032028    216.14718   0.01945169  0.019662713            2 
  927000   0.89898051   -8.0040677    215.91687  0.019410002  0.019647274            2 
  928000   0.89686376   -7.9869524    216.55828  0.019446685  0.019631882            2 
  929000   0.89625092   -8.0110577     216.7748  0.019445174    0.0196166            4 
  930000   0.88003827   -8.0089997    216.68039  0.019415806  0.019601304            2 
  931000   0.89548023   -8.0146908    216.61664  0.019389244   0.01958596            3 
  932000   0.86880315   -8.0397062    216.56624  0.019363934  0.019570589            2 
  933000   0.87931722    -8.014615    217.15323  0.019395609  0.019555426            2 
  934000   0.87619721   -8.0436363    216.91691  0.019353757  0.019540253            2 
  935000   0.88983591   -8.0060298    216.94726  0.019335763  0.019525019            6 
  936000   0.88394059   -8.0034411    217.47299  0.019361911  0.019509739            1 
  937000   0.86715753   -8.0280904    217.86766  0.019376348  0.019494638            2 
  938000   0.89348267   -8.0352982    217.37976  0.019312345  0.019479537            1 
  939000   0.88395342   -8.0132012     217.8514  0.019333635   0.01946428            1 
  940000   0.87339731   -8.0028988    217.77722  0.019306491  0.019449044            2 
  941000   0.88630243    -8.040844    217.18952  0.019233929  0.019433764            2 
  942000   0.87335377    -8.058024    217.20542  0.019214917  0.019418499            2 
  943000   0.86395406   -8.0553569    217.06364  0.019182011  0.019403292            2 
  944000   0.87135486   -8.0153931    217.69619  0.019217531  0.019388098            1 
  945000   0.88644392   -8.0297221    217.49705  0.019179634  0.019372907            7 
  946000   0.89345801   -8.0278016    217.44116  0.019154436  0.019357621            3 
  947000   0.87068661   -8.0506623    217.18929  0.019112046   0.01934219            2 
  948000   0.89762554   -8.0434395    217.53829  0.019122564  0.019326746            3 
  949000   0.87253918    -8.066532    217.52861  0.019101564  0.019311311            3 
  950000   0.87480969   -8.0548063    217.26244  0.019058109  0.019295793            3 
  951000    0.8810775   -8.0340525    217.56313  0.019064417  0.019280359            4 
  952000   0.86868507   -8.0669193    217.78396  0.019063722  0.019264978            3 
  953000   0.88563508   -8.0178773    218.20637  0.019080655  0.019249676            6 
  954000   0.87024019     -8.05755    217.62508  0.019009878  0.019234289            5 
  955000   0.88621326   -8.0658031    217.55047  0.018983462   0.01921885            2 
  956000    0.8653474   -8.0294463    217.99738  0.019002561  0.019203278            2 
  957000   0.87041441   -7.9934242    218.43697  0.019020984  0.019187752            2 
  958000    0.8594215   -8.0432268    217.72507  0.018939202  0.019172211            3 
  959000   0.87528961   -8.0614482    217.83493     0.018929  0.019156624            3 
  960000   0.87604023   -8.0713714    217.57769  0.018886953   0.01914093            3 
  961000   0.86640981    -8.057864    217.31174  0.018844237  0.019125231            2 
  962000   0.86869108   -8.0362765    218.00067  0.018884327  0.019109444            1 
  963000   0.87356991   -8.0789757    217.33303  0.018806943  0.019093615            4 
  964000   0.85996355   -8.0606738    217.54629  0.018805869  0.019077737            2 
  965000   0.86041988   -8.0563617    217.84035  0.018811774  0.019061903            3 
  966000   0.86408254   -8.0408696      217.972  0.018803658  0.019046044            3 
  967000   0.87041972   -8.0560083    218.24919    0.0188081  0.019030346            2 
  968000   0.87793587   -8.0443131    217.99578  0.018766854  0.019014618            4 
  969000   0.86316971   -8.0753842    217.55021  0.018709168  0.018998874            1 
  970000   0.87130829   -8.0061049    218.10213  0.018737297  0.018983167            2 
  971000   0.84576817    -8.057698    218.32897  0.018737468  0.018967428            3 
  972000   0.87839321   -8.0331688    218.04072  0.018693477  0.018951673            4 
  973000   0.88378527   -8.0381857    218.63115  0.018724833  0.018936016            3 
  974000   0.88146471   -8.0927282    217.95911   0.01864811  0.018920289            2 
  975000   0.88289995   -8.0748428     218.2299  0.018652128  0.018904531            2 
  976000   0.85672341   -8.0973457    218.50951  0.018656892  0.018888809            3 
  977000   0.86841069   -8.0628482    219.02047  0.018681378  0.018873203            2 
  978000   0.86480833    -8.003383    219.16945   0.01867497  0.018857656            3 
  979000    0.8683387    -8.046529    219.25026  0.018662773  0.018842165            4 
  980000   0.88890095   -8.0244598    218.99281  0.018621838  0.018826598            1 
  981000   0.86365845   -8.0468161    219.29581  0.018628594  0.018811003            2 
  982000   0.84575765    -8.068479    219.23222  0.018604228  0.018795377            1 
  983000   0.86228137   -8.1007343    218.73677    0.0185433  0.018779779            3 
  984000    0.8495856   -8.1052933    218.53701  0.018507538  0.018764082            1 
  985000   0.85735711   -8.0626564     218.6343   0.01849698  0.018748287            7 
  986000   0.86187434   -8.1169568    218.76219  0.018489029  0.018732656            5 
  987000   0.85547342   -8.0776615    218.89541  0.018481545  0.018716833            3 
  988000   0.85706255   -8.1091497    219.01834  0.018473207  0.018701108            3 
  989000   0.86805391    -8.061905    219.05887  0.018457943  0.018685342            2 
  990000   0.87119128   -8.0737285    218.46982  0.018389715  0.018669645            2 
  991000   0.87181405   -8.0904582    218.88652  0.018406199  0.018653935            2 
  992000   0.85449073    -8.105656    218.87656  0.018386808  0.018638123            7 
  993000   0.85670716   -8.0791186    218.97418  0.018376484  0.018622286            2 
  994000   0.86663959   -8.1167889    218.36507  0.018306931  0.018606545            4 
  995000    0.8686168   -8.1022897    219.04415  0.018345407  0.018590858            3 
  996000    0.8614734   -8.0717738    219.52921  0.018367571  0.018575214            1 
  997000   0.85703528    -8.076521    219.37948  0.018336634  0.018559518            1 
  998000   0.85873675   -8.0793889    219.60849  0.018337383  0.018543893            1 
  999000   0.86688301   -8.0591989    219.73152  0.018329289  0.018528344            2 
 1000000     0.853398   -8.0384744    220.02466  0.018335389  0.018512861            2 
 1001000     0.857764   -8.0355718    219.94021  0.018310041  0.018497434            1 
 1002000   0.85806922   -8.0916238    219.33003  0.018241021   0.01848196            3 
 1003000   0.84649227   -8.0804227    219.40724  0.018229249  0.018466371            5 
 1004000    0.8550496    -8.073612    219.45026  0.018214663  0.018450756            2 
 1005000   0.86204366   -8.0748193    219.53051  0.018203194   0.01843516            5 
 1006000   0.85459672   -8.0942533    219.75943  0.018204061  0.018419574            2 
 1007000   0.85088266   -8.1228486    219.36135  0.018153041  0.018403986            4 
 1008000    0.8825608   -8.0863303    219.38453  0.018136949  0.018388263            2 
 1009000   0.83954107   -8.1049195    219.89877  0.018161444  0.018372641            3 
 1010000   0.85901044   -8.0963634    220.52144  0.018194838  0.018357082            1 
 1011000   0.86013939   -8.0892866    219.89659  0.018125337  0.018341549            2 
 1012000   0.84852886   -8.0943215    220.20163  0.018132545   0.01832601            2 
 1013000   0.85043282   -8.1189249    219.74919  0.018077426  0.018310379            1 
 1014000   0.84778428   -8.0880686    220.59713  0.018129284   0.01829483            2 
 1015000   0.84979448   -8.1224196    220.25997  0.018083741  0.018279376            2 
 1016000    0.8662613   -8.0397675    220.38783   0.01807643   0.01826387            1 
 1017000   0.84030288   -8.1246807    220.45366  0.018064049  0.018248287            3 
 1018000   0.84650519   -8.1015899    220.17755  0.018023703  0.018232604            3 
 1019000   0.86273458   -8.1485657    219.92458  0.017985327  0.018216945            2 
 1020000   0.86012348   -8.1236103    220.46805  0.018012096    0.0182014            2 
 1021000   0.84055062   -8.0917281    220.84257  0.018025022  0.018185909            2 
 1022000   0.85887464   -8.1172372    220.70451  0.017996128  0.018170421            2 
 1023000    0.8315151   -8.1669074    220.28873  0.017944667  0.018154871            3 
 1024000   0.84620362   -8.1337706    220.67689  0.017958732  0.018139284            4 
 1025000   0.84633209   -8.1302156    220.79547  0.017950852  0.018123809            2 
 1026000   0.84560391   -8.1193139    220.85473  0.017938168  0.018108324            2 
 1027000   0.84177176   -8.1351864    220.35737  0.017880345  0.018092873            2 
 1028000   0.84085402   -8.0939402    221.54647  0.017959344  0.018077397            2 
 1029000   0.84648119   -8.0975231    221.71383  0.017955445  0.018062011            2 
 1030000   0.83189568   -8.1233611    220.96947  0.017877789  0.018046665            2 
 1031000   0.83999028   -8.1140838    221.44785  0.017899115  0.018031348            2 
 1032000   0.84224902   -8.1146644    221.17411  0.017859666   0.01801602            2 
 1033000   0.84141829   -8.1152828    221.18669  0.017843393  0.018000612            2 
 1034000   0.83748692    -8.089654    221.01089  0.017811968  0.017985184            3 
 1035000   0.86386685   -8.0931279    221.90111  0.017866434   0.01796977            1 
 1036000   0.84858754   -8.1455632    221.33209  0.017803418  0.017954459            2 
 1037000   0.83899591    -8.139821    221.14925  0.017771556  0.017939093            5 
 1038000   0.85763353   -8.0946515    221.50182  0.017782741  0.017923758            1 
 1039000   0.83699639   -8.1285557    221.42904  0.017759788  0.017908414            3 
 1040000   0.82968033    -8.117723    221.39346  0.017739861  0.017893028            1 
 1041000   0.84376331   -8.1463233    221.37033  0.017720968   0.01787768            5 
 1042000   0.84188867   -8.1078504    221.30101  0.017698417  0.017862385            4 
 1043000   0.83439528   -8.1464085    221.51091  0.017698219   0.01784717            3 
 1044000   0.86172418   -8.1404088    221.25485  0.017660827  0.017831894            4 
 1045000    0.8240964   -8.0993198    222.18023  0.017717722  0.017816755            2 
 1046000   0.82890211   -8.1211393     222.1471  0.017698144  0.017801593            3 
 1047000   0.84984608   -8.1523807    221.25968  0.017610608  0.017786451            2 
 1048000   0.82224217   -8.1326161    222.00281  0.017652895  0.017771284            1 
 1049000    0.8260203   -8.1519989    221.24825  0.017576124  0.017756111            4 
 1050000   0.84763569   -8.1336635    222.13028  0.017629388  0.017740882            3 
 1051000   0.84619692   -8.1251399    222.77305  0.017663579  0.017725729            3 
 1052000   0.82342846     -8.12861     222.6918  0.017640352  0.017710651            3 
 1053000   0.84045068   -8.1496279    222.14497  0.017580323  0.017695642            3 
 1054000   0.82381755   -8.1476173    222.04661  0.017555867  0.017680481            2 
 1055000   0.84997883   -8.1392298    222.38345  0.017565834  0.017665341            3 
 1056000   0.82724028   -8.1870686    221.73431  0.017497972  0.017650179            2 
 1057000   0.84861809   -8.1370537    222.69232  0.017556947  0.017635118            8 
 1058000   0.84653872    -8.140252    222.92425   0.01755862  0.017620106            2 
 1059000   0.82466334   -8.1227691    222.75519  0.017528737  0.017605095            3 
 1060000   0.83031122   -8.1816562    222.63633  0.017502856  0.017590106            3 
 1061000   0.83176693   -8.1350171    222.55088  0.017479648  0.017575085            2 
 1062000   0.84136256    -8.145006    223.00152   0.01749855  0.017560162            2 
 1063000   0.82318676   -8.1405298    222.75946  0.017463112  0.017545204            1 
 1064000   0.81673359   -8.1400773    223.05898  0.017470158  0.017530291            1 
 1065000   0.81929241   -8.1363991    223.31706  0.017473948  0.017515448            3 
 1066000    0.8310064    -8.164754    223.08726  0.017439592  0.017500684            6 
 1067000   0.83434734   -8.1747844     223.1399  0.017427359  0.017485798            3 
 1068000   0.82265518   -8.1616124    223.05977  0.017404788  0.017470887            2 
 1069000   0.82101057   -8.1805663    222.75574  0.017364807  0.017456057            4 
 1070000   0.83935926   -8.1585831    223.17767  0.017381439  0.017441195            3 
 1071000   0.84189457   -8.1978976    223.06951  0.017356793   0.01742632            1 
 1072000   0.83219995   -8.1639082    223.49978   0.01737405  0.017411365            4 
 1073000   0.84046491   -8.1296296    223.21717   0.01733591  0.017396447            4 
 1074000    0.8288321   -8.1514032    223.12701  0.017312772   0.01738158            5 
 1075000   0.83182855    -8.174278    222.48038  0.017246541   0.01736672            5 
 1076000   0.82000476   -8.1423023    223.48741  0.017308505  0.017351844            2 
 1077000   0.82174693   -8.1937362    223.51461  0.017294538  0.017337031            3 
 1078000   0.82593507   -8.1450056    222.55271  0.017204137  0.017322119            1 
 1079000   0.80970692   -8.2138063    223.06785  0.017227978  0.017307157            1 
 1080000   0.81875222   -8.1526606    223.52265  0.017247118  0.017292261            2 
 1081000   0.81340858   -8.1568604    223.33062   0.01721636  0.017277467            1 
 1082000   0.82281645   -8.1780631    223.10322  0.017182934  0.017262649            3 
 1083000   0.81629929   -8.1635496    223.49382  0.017197123  0.017247729            3 
 1084000   0.83393926   -8.1732871    223.26097  0.017163358  0.017232886            2 
 1085000   0.82360941   -8.1654004    223.74737  0.017184898  0.017218066            3 
 1086000   0.81208139   -8.1646533    223.66341  0.017162631  0.017203226            3 
 1087000   0.82838518   -8.1958572    223.24916  0.017115085  0.017188277            3 
 1088000   0.81222514   -8.1857835    223.32773  0.017105372  0.017173373            2 
 1089000   0.82190963   -8.2010716    223.16099  0.017076905  0.017158411            3 
 1090000     0.800532   -8.2082211    222.72158  0.017027644  0.017143391            3 
 1091000   0.80877405    -8.198321    223.55094  0.017075385  0.017128407            3 
 1092000   0.81844084   -8.1990501    223.26502  0.017037929  0.017113463            1 
 1093000   0.81942313   -8.1905387    223.54808  0.017043922  0.017098584            1 
 1094000   0.83121911   -8.1962316    223.58841  0.017031415  0.017083748            3 
 1095000   0.80492601   -8.2198156    223.63392  0.017019324  0.017068901            1 
 1096000    0.8109967   -8.2165815    223.39708  0.016985788  0.017053984            1 
 1097000    0.8131517   -8.1945698    223.74757  0.016996929  0.017039123            2 
 1098000   0.81104947    -8.195479    223.74638  0.016981358  0.017024225            3 
 1099000   0.80171751   -8.1892538    223.78284  0.016968671  0.017009445            4 
 1100000   0.82466473   -8.1923547    224.21104  0.016985685  0.016994653            5 
 1101000   0.82067007   -8.2176822    223.92999  0.016948985  0.016979892            4 
 1102000   0.81101605   -8.1676812    224.55358   0.01698076  0.016965224            2 
 1103000   0.82214534   -8.2074409    224.28324  0.016944941  0.016950559            2 
 1104000   0.82364138   -8.1896949    224.35835  0.016935262  0.016935858            4 
 1105000   0.81308952   -8.2140079     224.0852  0.016899336  0.016921122            2 
 1106000   0.79334418   -8.2471195     223.5458  0.016843414  0.016906422            2 
 1107000   0.80118342   -8.1704945    224.17265  0.016875387  0.016891707            1 
 1108000   0.80380123   -8.2049285    224.82411  0.016909154   0.01687706            2 
 1109000   0.80410928   -8.2182995    223.50304  0.016794638   0.01686235            2 
 1110000   0.83047834   -8.2189289    223.58343  0.016785543   0.01684762            2 
 1111000   0.81583703   -8.2217985    223.75359  0.016783197  0.016832881            3 
 1112000    0.8093286   -8.2317009    223.92781  0.016781161  0.016818185            2 
 1113000    0.7871409   -8.2125354    224.47013  0.016806688  0.016803492            5 
 1114000   0.82593803   -8.2151619    224.34887  0.016782531  0.016788797            2 
 1115000   0.81194383   -8.2030156     224.7323  0.016796136  0.016774132            3 
 1116000   0.81236747   -8.1931333     224.8088  0.016786798  0.016759514            1 
 1117000   0.80721023   -8.2261159    224.80525  0.016771505  0.016744891            3 
 1118000   0.81154206   -8.2157571    224.32745  0.016720889  0.016730293            3 
 1119000   0.81129529   -8.1973554    224.49965   0.01671877  0.016715723            3 
 1120000   0.79113081   -8.2290203     224.9086  0.016734271  0.016701264            3 
 1121000   0.82825243   -8.2296404    223.98582  0.016650745  0.016686776            3 
 1122000   0.81383526    -8.207451    225.12529  0.016720536  0.016672298            2 
 1123000   0.80261247   -8.2176866    224.97228  0.016694292  0.016657889            5 
 1124000    0.8147924   -8.2046173    225.68107  0.016731989  0.016643552            2 
 1125000   0.81327107   -8.2178261     225.0511  0.016670452  0.016629212            4 
 1126000    0.8059943    -8.188887    225.34414  0.016677334  0.016614865            9 
 1127000   0.82534189   -8.2090788     225.3609  0.016663775  0.016600476            3 
 1128000   0.80045255   -8.2027889    225.37682  0.016650179  0.016586215            3 
 1129000       0.8138   -8.2105544    225.35082  0.016633512  0.016571999            3 
 1130000   0.80325584   -8.2357787    225.02852  0.016595024  0.016557714            2 
 1131000   0.81552311   -8.2011152    225.36788  0.016605355  0.016543427            5 
 1132000   0.78508584   -8.2194392    224.86907  0.016553965  0.016529114            5 
 1133000   0.81570788   -8.2275573    224.98329  0.016547756  0.016514863            6 
 1134000   0.79174876   -8.2437464     225.0787  0.016540175  0.016500621            5 
 1135000   0.81695933   -8.2146382    225.54728  0.016560006  0.016486438            1 
 1136000   0.78852364   -8.2168382    225.64686  0.016552733  0.016472349            1 
 1137000   0.81345388   -8.2321233    225.59567  0.016534423  0.016458152            5 
 1138000   0.80150113   -8.2442319    225.43649  0.016508237  0.016443872            2 
 1139000   0.79858102   -8.2533726    225.76102  0.016517488  0.016429607            2 
 1140000   0.78949714   -8.2417352    225.89884  0.016513073  0.016415349            2 
 1141000   0.81176695   -8.2712362    225.48027   0.01646803  0.016401086            3 
 1142000   0.79792878   -8.2828434     224.5457  0.016385413  0.016386781            3 
 1143000   0.79510225   -8.2713946    225.35719  0.016430242  0.016372452            5 
 1144000   0.79602495   -8.2574844    225.58041   0.01643214  0.016358128            2 
 1145000    0.7787298   -8.2711459    224.98844  0.016374704   0.01634387            1 
 1146000   0.80165597   -8.2826288    225.66912  0.016409913  0.016329626            4 
 1147000    0.7876236   -8.2551686    225.25998  0.016365881   0.01631541            3 
 1148000    0.7816644   -8.2428717     225.4899  0.016368315  0.016301264            2 
 1149000   0.79393257   -8.2662527    225.62877  0.016364141  0.016287114            3 
 1150000    0.7993913   -8.2674345    225.95658  0.016373666  0.016272947            2 
 1151000   0.78833984   -8.2723555    225.55898  0.016330653  0.016258807            3 
 1152000   0.79852834   -8.2707425    225.93798  0.016343893  0.016244595            2 
 1153000   0.78903558   -8.2751295    225.47169  0.016296017  0.016230429            6 
 1154000   0.80236177    -8.258176    226.14649  0.016330625  0.016216301            6 
 1155000   0.77370347   -8.2722867    225.41647  0.016263814  0.016202109            3 
 1156000    0.8044192   -8.2935733     225.6776   0.01626857  0.016187911            2 
 1157000   0.78004865   -8.2756326     225.6238  0.016250634   0.01617377            3 
 1158000   0.79424279   -8.2390637     225.4421  0.016223525  0.016159628            3 
 1159000   0.79572376   -8.2786536    225.39204  0.016205928  0.016145445            1 
 1160000   0.77599033   -8.2584212    225.85017  0.016224868  0.016131296            4 
 1161000   0.78836253   -8.2835802    225.57042  0.016190814  0.016117127            2 
 1162000   0.78510359   -8.2403694    226.04847  0.016211164  0.016102971            2 
 1163000   0.78202591   -8.2660632    225.79082  0.016178763  0.016088837            4 
 1164000   0.81443804   -8.2879735     225.4921  0.016143478  0.016074635            6 
 1165000   0.77423806   -8.2784957    226.15026    0.0161767  0.016060536            5 
 1166000   0.79780125   -8.2938606    225.39819  0.016109076  0.016046495            1 
 1167000   0.77349549   -8.2747309    225.66731  0.016114489  0.016032336            2 
 1168000   0.79123961   -8.2875576    225.36597  0.016079193  0.016018182            7 
 1169000   0.77336182   -8.2859605    225.58504  0.016081055  0.016004023            2 
 1170000   0.79590071   -8.3158684    225.90556   0.01609014  0.015989827            1 
 1171000   0.79157435   -8.2978581    225.43594  0.016042979  0.015975634            2 
 1172000   0.76436879   -8.2872025    225.80977  0.016055871  0.015961559            3 
 1173000   0.78942731   -8.2889538    225.57652  0.016025612  0.015947533            2 
 1174000   0.77744822   -8.2698588    226.54089  0.016080415  0.015933531            2 
 1175000   0.79592579   -8.3179843    226.07674  0.016033811  0.015919519            6 
 1176000   0.78870576   -8.3014791    225.33498  0.015967615  0.015905534            4 
 1177000   0.77526953   -8.2825131    226.36305  0.016026838  0.015891571            3 
 1178000   0.78187073   -8.2982692    226.04198  0.015990519  0.015877581            1 
 1179000   0.78799403   -8.2665417    225.96969  0.015971847  0.015863631            3 
 1180000   0.77154001   -8.2908631    226.15151  0.015971152   0.01584967            4 
 1181000   0.77874708   -8.2872714    225.86795   0.01593762  0.015835718            2 
 1182000   0.77261918   -8.3246299    225.98232    0.0159322  0.015821747            1 
 1183000   0.79224955   -8.3148639    225.50663  0.015885223  0.015807732            2 
 1184000   0.76907028   -8.3031655    226.28775  0.015926784  0.015793757            2 
 1185000   0.77016971   -8.3204835     225.9537  0.015889853  0.015779725            4 
 1186000   0.79680967   -8.2917017    226.18729  0.015892868  0.015765776            4 
 1187000   0.77394694   -8.3186218    225.69337  0.015844803   0.01575185            2 
 1188000   0.80123198   -8.3302372    226.19343  0.015866543  0.015737912            2 
 1189000   0.77858939   -8.2985596    226.01526  0.015840711   0.01572403            2 
 1190000    0.7733252   -8.3376751    226.15309  0.015837051  0.015710055            2 
 1191000   0.79478718   -8.3035832    225.94441  0.015809153  0.015696082            4 
 1192000   0.78091614   -8.2936406    226.26385  0.015818222  0.015682197            2 
 1193000   0.78778188   -8.3219485    226.09126  0.015792907  0.015668294            1 
 1194000   0.76478793   -8.3064365    226.45925  0.015805364  0.015654409            3 
 1195000   0.76293967   -8.3040494    226.56213  0.015799312  0.015640517            3 
 1196000   0.78361849   -8.2901631    226.37816  0.015773283  0.015626633            3 
 1197000   0.76316017   -8.2977878    226.47405  0.015766782   0.01561277            2 
 1198000   0.76537014   -8.3078686    226.27969  0.015740101   0.01559889            3 
 1199000    0.7685661   -8.3351501    226.35539  0.015732235  0.015585105            1 
 1200000    0.7712709   -8.3224023    226.24138  0.015711207  0.015571273            2 
 1201000   0.77491826   -8.3046506    226.45136  0.015712695  0.015557418            1 
 1202000   0.76400009   -8.3255703     226.9223  0.015732272  0.015543595            4 
 1203000   0.77257465   -8.3144825    226.45799  0.015687032  0.015529764            2 
 1204000   0.76453705   -8.3235887    226.29933  0.015663021  0.015515864            1 
 1205000    0.7602971   -8.3321806    226.35014  0.015653536  0.015501968            2 
 1206000   0.76554066   -8.3192127     226.2781  0.015635579   0.01548811            2 
 1207000    0.7670437   -8.3224325    226.36799  0.015628831   0.01547429            2 
 1208000   0.77324474    -8.316929    226.34116  0.015614042  0.015460511            1 
 1209000    0.7695206   -8.3067837    226.33618  0.015600785  0.015446725            2 
 1210000   0.77172752   -8.2747861    226.32857  0.015587367   0.01543302            4 
 1211000   0.76631333   -8.3079829    226.12741  0.015560653  0.015419309            2 
 1212000   0.78447055   -8.3255828    226.24381  0.015555818  0.015405622            2 
 1213000   0.76446623   -8.3168821    226.28089  0.015545541  0.015391928            4 
 1214000   0.77437305   -8.3274127    226.32907  0.015536043   0.01537825            2 
 1215000   0.75932173   -8.2996408    226.52675  0.015536814  0.015364633            1 
 1216000   0.76237389     -8.33709    227.40049  0.015583915  0.015350962            4 
 1217000   0.77387387   -8.2984547    226.77331  0.015528164  0.015337306            5 
 1218000   0.76847147   -8.3608679    226.62469  0.015505247  0.015323724            2 
 1219000   0.76321372   -8.3396534    226.46434  0.015481565  0.015310066            5 
 1220000   0.76322643   -8.3655563    226.32081  0.015459072  0.015296401            8 
 1221000   0.77062996   -8.3700549    226.46712  0.015456396  0.015282661            8 
 1222000   0.77023286   -8.3544605    226.74753   0.01546287   0.01526899            3 
 1223000   0.75810952   -8.3478988    226.44627  0.015429699  0.015255342            8 
 1224000   0.78026869   -8.3410906    226.68709  0.015433489  0.015241729            4 
 1225000   0.77337963   -8.3516976    226.90203  0.015435512  0.015228128            5 
 1226000   0.76889673   -8.3335552    226.63832  0.015404997  0.015214575            3 
 1227000   0.75291399   -8.3517675    226.52381  0.015384665  0.015201041            5 
 1228000   0.76160657   -8.3468971    226.45091   0.01536719  0.015187491            4 
 1229000   0.77761155   -8.3409046    226.66686  0.015369329  0.015173936            3 
 1230000   0.76687043   -8.3606772    226.90852  0.015373206  0.015160387            5 
 1231000   0.75861262   -8.3506894    226.76514  0.015351012  0.015146835            3 
 1232000   0.77450074   -8.3501023    226.24294  0.015303229  0.015133307            1 
 1233000    0.7662829   -8.3275951    226.78382  0.015327373  0.015119742            2 
 1234000   0.75353495   -8.3597931    226.54379  0.015298744  0.015106179            4 
 1235000   0.76085524   -8.3722708    226.60939  0.015290782  0.015092619            2 
 1236000   0.74889445    -8.366809    226.43713  0.015266797  0.015079074            4 
 1237000   0.77202288   -8.3952149     226.8931  0.015285172  0.015065548            4 
 1238000   0.76326761   -8.3841019    226.84895  0.015269854  0.015051971            7 
 1239000   0.75803373   -8.3650386    226.62689  0.015242594  0.015038372            2 
 1240000   0.74147426   -8.3739384    226.04759   0.01519137  0.015024776            4 
 1241000   0.77056809   -8.3884315    226.28465  0.015195048  0.015011113            2 
 1242000   0.76451519   -8.3825079    226.08546  0.015169449  0.014997529            3 
 1243000    0.7571965   -8.3583583    226.71908  0.015199724  0.014983953            2 
 1244000   0.74692086   -8.3807776     226.9396  0.015202278  0.014970438            1 
 1245000   0.76097686   -8.3992694    226.44552  0.015156996  0.014956908            2 
 1246000   0.75573348   -8.3681768    226.24855  0.015131658  0.014943396            3 
 1247000     0.770349   -8.3690059    227.24671  0.015186228  0.014929952            5 
 1248000   0.75635527   -8.3621975    226.83603  0.015146637  0.014916548            3 
 1249000    0.7592406   -8.3569354    226.75166   0.01512888  0.014903123            4 
 1250000   0.75598604    -8.378442    226.80859  0.015120573  0.014889732            2 
 1251000   0.76017621   -8.3795783    226.01532  0.015055644  0.014876329            5 
 1252000    0.7445115   -8.3560814    226.71829  0.015090408  0.014862928           12 
 1253000   0.74059453   -8.3864503    227.04088  0.015099819  0.014849572            3 
 1254000   0.74525338   -8.3676087    226.74745  0.015068278  0.014836214            2 
 1255000   0.74950464   -8.3826518    227.32548  0.015094653  0.014822869            3 
 1256000   0.73645845   -8.3705949    227.15584   0.01507138  0.014809559            1 
 1257000   0.76727564    -8.395698    227.17335  0.015060551  0.014796306            7 
 1258000     0.749824   -8.3881185    227.10606  0.015044121  0.014783009            2 
 1259000   0.74456524   -8.3650716    227.32626  0.015046747  0.014769733            1 
 1260000   0.73470723   -8.3803581     227.0895  0.015019147  0.014756506            6 
 1261000   0.74757657   -8.3953723    226.93369   0.01499694  0.014743282            7 
 1262000   0.76502152   -8.3668546    227.81667  0.015043362  0.014730095            3 
 1263000   0.74883306   -8.3771433    227.34694  0.015000458  0.014716908            2 
 1264000   0.75968348   -8.3736848    226.79648  0.014952299  0.014703709            2 
 1265000   0.75360704   -8.3611026    227.45884  0.014984113  0.014690515            2 
 1266000    0.7461679    -8.363613    227.02491  0.014943714  0.014677368            1 
 1267000   0.75000079   -8.3733975    227.10945  0.014937481  0.014664194            3 
 1268000   0.73116022   -8.3703674    227.00135  0.014918595  0.014651021            2 
 1269000    0.7325347   -8.3676899    227.19002  0.014919229  0.014637826            3 
 1270000   0.73928719   -8.3642906    227.42275  0.014922753  0.014624661            2 
 1271000   0.74970766   -8.3990271    227.32761  0.014904774  0.014611521            2 
 1272000   0.73841326    -8.371405    227.78081  0.014922747  0.014598418            6 
 1273000   0.74999424   -8.4084651    227.20171  0.014873116  0.014585303            3 
 1274000    0.7278478   -8.3869017     226.9658   0.01484601  0.014572204            3 
 1275000   0.75191174   -8.4135673    226.87328  0.014828319  0.014559065            3 
 1276000   0.73513925   -8.3727233    227.33156  0.014846627  0.014545944            2 
 1277000   0.74145903   -8.4085116    227.24107  0.014829096  0.014532844            1 
 1278000   0.74388503    -8.425401    226.70122  0.014782291  0.014519715            4 
 1279000   0.73736236   -8.4181735     226.9085  0.014784239  0.014506633            8 
 1280000   0.74127725   -8.4245988    226.67124  0.014757242  0.014493526            3 
 1281000   0.72897003   -8.4299609    227.06636  0.014771426  0.014480387            3 
 1282000   0.73465703   -8.4323478    226.80572  0.014742962  0.014467276            2 
 1283000   0.74444749   -8.4158506    226.98261   0.01474296  0.014454145            3 
 1284000   0.74285582   -8.4231573    226.90045  0.014726146  0.014441024            4 
 1285000   0.73043482   -8.4328183    227.19359  0.014733696  0.014427971            7 
 1286000   0.73445119   -8.4023326    227.07237  0.014714384  0.014414941            5 
 1287000    0.7404281   -8.4139646    227.02195  0.014699686  0.014401934            8 
 1288000   0.73716216   -8.4134263    227.02023  0.014688162  0.014388913            3 
 1289000   0.73455494   -8.4237557    227.11111  0.014682642  0.014375925            4 
 1290000   0.75781243   -8.4406506    226.97917  0.014662737  0.014362923            5 
 1291000   0.71854994   -8.3996073     227.6074  0.014691931  0.014349924            5 
 1292000   0.74341464   -8.3926724    227.34565  0.014663677  0.014337008            5 
 1293000    0.7430652   -8.3972603    227.17234  0.014641166  0.014324082            3 
 1294000   0.73435123   -8.4268132    227.56819  0.014655345  0.014311208            2 
 1295000    0.7382992   -8.4147916    227.79698   0.01465875  0.014298333            2 
 1296000   0.74177493   -8.3940012    227.91039  0.014654732   0.01428548            3 
 1297000   0.73982822   -8.4210253    227.71127  0.014630639   0.01427264            2 
 1298000   0.74471977   -8.4141034    227.82286  0.014626532  0.014259828            2 
 1299000   0.75210671   -8.3977276    227.40244  0.014588301  0.014247035            2 
 1300000    0.7455023    -8.396274    227.46568  0.014581133   0.01423425            2 
 1301000   0.73129744   -8.4093655    227.21765  0.014554038  0.014221488            1 
 1302000   0.73734215   -8.4150985    227.37433  0.014552888   0.01420876            5 
 1303000   0.73333406   -8.3993567    227.53377  0.014551917  0.014195999            1 
 1304000   0.73037552   -8.3990377     227.3331  0.014527933  0.014183238            1 
 1305000   0.73055853    -8.409546    227.25748  0.014511972  0.014170529            1 
 1306000   0.72339896   -8.4169632    227.57549  0.014521152  0.014157821            2 
 1307000   0.73840493   -8.4001174    227.41576  0.014499857  0.014145061            6 
 1308000   0.73869559   -8.4086925    227.62014  0.014501793  0.014132312            5 
 1309000   0.72269433   -8.4257705    227.23119  0.014465953  0.014119555            3 
 1310000   0.73547288   -8.4176197    227.45681  0.014469262  0.014106805            4 
 1311000   0.74096988   -8.4229283    227.54615  0.014463905  0.014094084            3 
 1312000   0.75424478   -8.4042675    227.66715  0.014460566  0.014081374            3 
 1313000   0.71954183     -8.43234    227.19773  0.014419759  0.014068661            3 
 1314000   0.73068103   -8.4169844     227.5932  0.014433866  0.014055944            1 
 1315000   0.73559817   -8.4403862    227.21442  0.014398886  0.014043187            3 
 1316000   0.73514395   -8.4240209    227.54429  0.014408833  0.014030463            1 
 1317000   0.74082571   -8.4255768    227.59456  0.014401073  0.014017772            3 
 1318000   0.74784611   -8.4374104    227.27484  0.014369931  0.014005133            4 
 1319000   0.71685461   -8.4345203     227.8204  0.014393505   0.01399246            2 
 1320000    0.7266656   -8.4440519    227.53711  0.014364717  0.013979789            2 
 1321000    0.7274137   -8.4488414    227.14713  0.014329241  0.013967141            1 
 1322000   0.72284153   -8.4270964    227.94874  0.014368932  0.013954512            2 
 1323000    0.7439286   -8.4287501    227.59131  0.014335558   0.01394193            2 
 1324000   0.73154651   -8.4316207    227.47245  0.014317249  0.013929347            4 
 1325000   0.72999762   -8.4552943    228.08461  0.014344944  0.013916773            4 
 1326000   0.71414695   -8.4248867    228.13248  0.014337134  0.013904196            3 
 1327000   0.72302389   -8.4322018    227.80099  0.014305513   0.01389162            2 
 1328000   0.73568125   -8.4232802    227.68082    0.0142872  0.013879064            4 
 1329000   0.72147813   -8.4187251    228.00751  0.014296934  0.013866549            2 
 1330000   0.71603914   -8.4603548    227.55267  0.014257686  0.013854049            1 
 1331000   0.71877726   -8.3967819    228.14162  0.014283848  0.013841557            3 
 1332000   0.73625651   -8.4286436    227.42484  0.014228281  0.013829082            4 
 1333000   0.71910661   -8.4448991     227.7199  0.014236053  0.013816663            2 
 1334000   0.71791855   -8.4193182    227.99306  0.014242445  0.013804253            2 
 1335000   0.71926655   -8.4260604    227.99566  0.014231939  0.013791834            1 
 1336000   0.71295339   -8.4060956    228.24647   0.01423693  0.013779419            3 
 1337000   0.74383075   -8.4213279     228.3057  0.014229974  0.013767017            2 
 1338000   0.72439696   -8.4377575    227.81976  0.014189073  0.013754643            4 
 1339000    0.7120115   -8.4291805    228.47554  0.014219289  0.013742297            3 
 1340000   0.72562772   -8.4477088    227.81054  0.014167322  0.013729942            5 
 1341000   0.71709099   -8.4475608    227.14978  0.014115696  0.013717545            2 
 1342000    0.7388845   -8.4403717    227.73984  0.014141818  0.013705185            2 
 1343000    0.7179043   -8.4375113    227.86911   0.01413931  0.013692876            3 
 1344000   0.71638741   -8.4680862    227.75797  0.014121898  0.013680549            1 
 1345000   0.70736181   -8.4253396     227.2736  0.014081388  0.013668204            2 
 1346000   0.70912591    -8.442947    227.88156  0.014108566  0.013655861            3 
 1347000   0.72308295   -8.4459388    227.60424  0.014080935  0.013643534            3 
 1348000    0.7195267   -8.4546691    227.71826  0.014077538  0.013631274            2 
 1349000   0.70839245   -8.4855235    228.11854   0.01409183  0.013619014            2 
 1350000   0.71641716   -8.4704597    228.39546  0.014098485  0.013606768            2 
 1351000   0.72127427   -8.4725531    227.93723  0.014059785   0.01359458            1 
 1352000   0.70939343   -8.4499759    228.11995  0.014060648  0.013582392            4 
 1353000   0.70254652   -8.4387572    228.23625  0.014057419  0.013570196            4 
 1354000   0.71979059   -8.4569296    227.98374  0.014031496  0.013558028            3 
 1355000    0.7164265   -8.4525376    228.02926   0.01402394  0.013545829            5 
 1356000   0.71236188   -8.4921392    227.64091  0.013989732  0.013533628            3 
 1357000   0.69779225   -8.4984619     228.1601  0.014011306  0.013521384            5 
 1358000   0.69865142    -8.497124    227.60148  0.013966708   0.01350916            1 
 1359000   0.70823255   -8.4841741    227.84518  0.013971375  0.013496998            4 
 1360000   0.71500756   -8.4645999    227.76283  0.013956056  0.013484847            2 
 1361000   0.68618158   -8.4548189    227.76694  0.013946053  0.013472696            2 
 1362000   0.71815772   -8.4627406    227.74965  0.013934756   0.01346053            3 
 1363000   0.70151952   -8.4862855    228.08267  0.013944893  0.013448356            5 
 1364000     0.713651   -8.4502792    227.99107  0.013929073  0.013436215            6 
 1365000   0.70335704   -8.4795822     227.7594  0.013904725  0.013424081            5 
 1366000   0.69929949   -8.5202182    227.85203  0.013900197  0.013411897            3 
 1367000    0.7189318    -8.485547    227.49176  0.013868067  0.013399746            3 
 1368000   0.71246744   -8.4877559    227.92174  0.013884121  0.013387626            3 
 1369000   0.71073196   -8.5202903    228.05143  0.013881874  0.013375473            5 
 1370000   0.71539229   -8.4961706    227.72729  0.013852025  0.013363355            2 
 1371000   0.71956476   -8.5210774     227.2916  0.013815439  0.013351247            4 
 1372000   0.70744382   -8.5340037    228.01658  0.013849404  0.013339098            5 
 1373000   0.70331819   -8.4902316    228.11052  0.013845018     0.013327            3 
 1374000   0.71058206   -8.4973886    227.63959   0.01380638  0.013314887            1 
 1375000   0.69708982   -8.4975189    227.64714  0.013796796    0.0133028            2 
 1376000   0.70515467   -8.4940842    228.02079  0.013809399  0.013290708            3 
 1377000   0.70993813   -8.4977912    227.91944  0.013793237  0.013278611            2 
 1378000   0.70005871   -8.5036315    227.45144  0.013754925  0.013266527            2 
 1379000   0.72847538   -8.4990765    227.31145  0.013736491  0.013254416           10 
 1380000   0.68344228   -8.5179645    227.12033  0.013714996   0.01324229            8 
 1381000      0.70392   -8.5150306    227.79999  0.013746077  0.013230175           10 
 1382000   0.71095616   -8.5554976     227.1519  0.013697052  0.013218086            8 
 1383000   0.68529113   -8.5234918     227.4029  0.013702271  0.013206004            9 
 1384000   0.70557418   -8.5291996    227.02401  0.013669557  0.013193942            4 
 1385000   0.69207915   -8.5329565    227.02995  0.013660045  0.013181877            3 
 1386000   0.68819311   -8.5397294    227.37414  0.013670884  0.013169846            5 
 1387000   0.68121234   -8.5089542    227.49572  0.013668332  0.013157826            2 
 1388000   0.68868304   -8.5129597    227.47626  0.013657316  0.013145819            6 
 1389000   0.70335097   -8.5288776    227.30543  0.013637235  0.013133811            3 
 1390000   0.70519785   -8.5501587    227.29072  0.013626542  0.013121801            2 
 1391000   0.70212251   -8.5058248    227.64342  0.013637876  0.013109786            2 
 1392000   0.69557717   -8.5204551     227.1231  0.013596929  0.013097808           10 
 1393000    0.6813315   -8.5208811    226.64085  0.013558319  0.013085822            3 
 1394000   0.70941257   -8.5569129    227.05785  0.013573521  0.013073856            4 
 1395000   0.69122649   -8.5209079    226.92632  0.013555933  0.013061907            6 
 1396000   0.70095849   -8.5202312    227.85236  0.013601502  0.013049968            2 
 1397000   0.69441208   -8.5404596    227.26708  0.013556853  0.013038041            4 
 1398000   0.67790024   -8.5475662     227.2581   0.01354662  0.013026095            4 
 1399000   0.67860409   -8.5432942    227.29858  0.013539348  0.013014169            2 
 1400000   0.69303425   -8.5324767    227.19358  0.013523427   0.01300228            2 
 1401000   0.69881644   -8.5547566    227.48039  0.013530834  0.012990428            1 
 1402000   0.68264914   -8.5359891    227.54318  0.013524915  0.012978585           10 
 1403000   0.68503976   -8.5369721    227.10387  0.013489182  0.012966736            3 
 1404000    0.6841068   -8.5446057    227.39636  0.013496935  0.012954921            3 
 1405000   0.69866326   -8.5429319    227.32413  0.013483045  0.012943113            3 
 1406000   0.68916168   -8.5380255    227.28748  0.013471282    0.0129313            2 
 1407000   0.70052363   -8.5306596    227.78156  0.013490972  0.012919487            3 
 1408000   0.68730349   -8.5386274    227.31465  0.013453755  0.012907682            2 
 1409000   0.68877194   -8.5507223    226.88557  0.013418829  0.012895867            3 
 1410000   0.69509368   -8.5731673    227.13651  0.013424143  0.012884041            2 
 1411000   0.69779885   -8.5760981    227.85857  0.013457274   0.01287224            3 
 1412000   0.68923193   -8.5473941    227.20288  0.013409046  0.012860458            2 
 1413000   0.69230011   -8.5554554    227.52808  0.013418736  0.012848713            1 
 1414000   0.70604479   -8.5373659    226.97786  0.013376819  0.012836996            4 
 1415000   0.69002348   -8.5634854    227.09744  0.013374407  0.012825277            4 
 1416000   0.71581378   -8.5590197    227.37279  0.013381167  0.012813555            3 
 1417000   0.69697525   -8.5416375    227.31679  0.013368431  0.012801862            6 
 1418000   0.69297581   -8.5527522     227.4285  0.013365568  0.012790174            4 
 1419000   0.68647177   -8.5388335    227.76444  0.013375877  0.012778489            5 
 1420000   0.68736753   -8.5645111    227.36273  0.013342883  0.012766821            3 
 1421000    0.6892791   -8.5525643    227.75863  0.013356711  0.012755173            2 
 1422000   0.68799094   -8.5525884     227.3124  0.013321168  0.012743505            3 
 1423000   0.68109357   -8.5594966    227.47008   0.01332104  0.012731849            4 
 1424000   0.68289584   -8.5655761     227.6217  0.013320558   0.01272021            2 
 1425000   0.68991868   -8.5674169    227.82717  0.013323226  0.012708587            2 
 1426000   0.65955309   -8.5768359    227.29411  0.013282732   0.01269695            4 
 1427000   0.67568756   -8.5653173     227.4641  0.013283351  0.012685301            1 
 1428000   0.68044851   -8.5826917    226.96822  0.013245111  0.012673695            4 
 1429000   0.68047416   -8.5617294    227.63707  0.013274847    0.0126621            1 
 1430000   0.70020834   -8.5815424    227.34921  0.013248788  0.012650491            3 
 1431000   0.66812402   -8.5600132     227.1671  0.013228925  0.012638882            5 
 1432000   0.68301538   -8.5748732    227.32974  0.013229151  0.012627274            2 
 1433000   0.69010702   -8.5748599     227.0431  0.013203251    0.0126157            3 
 1434000   0.67733503   -8.5783158    226.90039   0.01318575  0.012604147            4 
 1435000   0.68532174   -8.5959455    226.98269  0.013181341  0.012592603            3 
 1436000   0.68836629   -8.6035946     226.9349  0.013169388  0.012581041            4 
 1437000   0.68812388   -8.5562058    227.59374  0.013198431  0.012569522            5 
 1438000   0.66478951   -8.5402708    227.30132  0.013172307  0.012558028            3 
 1439000   0.68112542   -8.5936877    227.15468  0.013154661  0.012546522            4 
 1440000   0.68697158    -8.564621    227.62324  0.013172641  0.012535067            8 
 1441000   0.68344572   -8.5585909    227.43596  0.013152669  0.012523577            3 
 1442000   0.68319078    -8.557341    227.63219  0.013154888  0.012512073            4 
 1443000   0.67666188   -8.5660859    226.96929   0.01310749  0.012500579            2 
 1444000   0.66694598   -8.5600894    227.13778  0.013108136  0.012489085            3 
 1445000   0.65447872   -8.5863346    227.20773  0.013103099  0.012477581            2 
 1446000   0.68748665    -8.594319    227.14361  0.013090342  0.012466089            3 
 1447000    0.6749941   -8.5641489    227.62699  0.013109133  0.012454631            1 
 1448000   0.66655612   -8.5857397    227.00845  0.013064483  0.012443191            3 
 1449000   0.68241737   -8.5816924    226.85945  0.013046897  0.012431746            5 
 1450000   0.67381732   -8.6075296    227.07755  0.013050434  0.012420315            3 
 1451000   0.67761641   -8.6111853    226.34042  0.012999105  0.012408863            6 
 1452000     0.681778   -8.5795938    227.06238  0.013031588  0.012397421            4 
 1453000   0.66796959    -8.615429    226.77849  0.013006337  0.012386024            3 
 1454000   0.68685202   -8.5932598    226.60385  0.012987382  0.012374611            2 
 1455000       0.6749     -8.62085    226.63013  0.012979961  0.012363205            3 
 1456000   0.66383821   -8.5707971    227.14393  0.013000454  0.012351812            2 
 1457000   0.67307394    -8.585818      226.832  0.012973691  0.012340446            9 
 1458000   0.68761845   -8.5969545     226.9372  0.012970805  0.012329078            2 
 1459000   0.67066032    -8.584701    226.89701  0.012959619  0.012317736            6 
 1460000   0.65996657   -8.6191511    226.68528  0.012938658  0.012306403            4 
 1461000   0.67323864    -8.596465    227.41209  0.012971258   0.01229508            2 
 1462000     0.654753    -8.613732    226.80674   0.01292788  0.012283773            3 
 1463000   0.64676411   -8.6120836    226.72442  0.012914355  0.012272449            5 
 1464000   0.65978984   -8.5962275    227.03038  0.012922949  0.012261149            3 
 1465000   0.67034496   -8.6124581    227.11212  0.012918778  0.012249881            4 
 1466000   0.67255681   -8.6016699    226.61468   0.01288169  0.012238615            2 
 1467000   0.66152871   -8.6001031    227.09283   0.01290007  0.012227365            3 
 1468000   0.67268425   -8.6029372    226.65679   0.01286653   0.01221613            2 
 1469000   0.67365309   -8.6094164    226.90578  0.012871896  0.012204915            4 
 1470000   0.65914518   -8.5833659    226.88551   0.01286199  0.012193703            2 
 1471000   0.65875413   -8.6204406    226.82734  0.012849951   0.01218249            3 
 1472000   0.67516957   -8.6135779    226.74704  0.012836676  0.012171297            3 
 1473000   0.64595604    -8.594886    227.19774  0.012853459  0.012160108            2 
 1474000   0.66468068   -8.6370199    226.76514  0.012820282  0.012148918            3 
 1475000   0.65034427    -8.592726    227.02564  0.012826308  0.012137776            3 
 1476000   0.66649817   -8.6077139    226.78791  0.012804195  0.012126649            3 
 1477000   0.66293536   -8.6161192    227.57474   0.01283992  0.012115517            3 
 1478000   0.65521145   -8.6035554     226.6422  0.012778654  0.012104419            3 
 1479000     0.655399   -8.6482411    226.53455  0.012763948  0.012093291            2 
 1480000   0.67635598   -8.6427556    226.56421  0.012756994  0.012082175            2 
 1481000   0.66509324   -8.6302778    227.17625  0.012782819   0.01207113            1 
 1482000   0.63859324   -8.6308405    227.14432  0.012772397  0.012060054            3 
 1483000   0.66140142   -8.6230442    226.91758  0.012751044  0.012049002            2 
 1484000   0.67840847   -8.6068854    226.98581  0.012746283  0.012037965            3 
 1485000   0.66343148   -8.6180049    227.20751  0.012750141  0.012026958            2 
 1486000   0.65684245   -8.6256496     227.0425  0.012732307  0.012015947            3 
 1487000   0.65914548   -8.6182794    226.46818  0.012691559  0.012004948            3 
 1488000   0.66993649   -8.6162457    226.96317  0.012710751  0.011993952            5 
 1489000   0.65482259   -8.6327147    226.99721   0.01270412   0.01198297            6 
 1490000   0.64879134   -8.6342316    226.65791  0.012676617  0.011971966            5 
 1491000   0.66319557   -8.6377691    226.81664  0.012676987  0.011960986            4 
 1492000   0.66837213   -8.6545823    226.88892  0.012672527  0.011950016            3 
 1493000    0.6644256   -8.6082154    226.72329  0.012654794  0.011939076            2 
 1494000   0.65298035   -8.6269247    226.71972  0.012646124  0.011928116            4 
 1495000   0.65828791   -8.6450176    226.55386   0.01262842  0.011917189            1 
 1496000   0.67033888   -8.6366237    226.17333  0.012598782  0.011906254            2 
 1497000   0.65094725   -8.6574198    226.35259  0.012600344  0.011895314            3 
 1498000    0.6516439   -8.6326657    226.86578  0.012620482  0.011884366            2 
 1499000   0.64899074   -8.6521528    226.37269   0.01258465   0.01187342            3 
 1500000    0.6497836   -8.6340539    226.90116   0.01260562  0.011862498            3 
 1501000   0.65147852   -8.6587883    226.73442  0.012587965  0.011851581            2 
 1502000   0.65659477   -8.6186353    226.73779  0.012579771  0.011840681            3 
 1503000   0.65871339   -8.6374551    226.86899  0.012578676  0.011829806            3 
 1504000    0.6521976   -8.6682415    226.88066  0.012570959  0.011818911            5 
 1505000   0.64286497    -8.656711     226.8098  0.012558682  0.011808032            2 
 1506000   0.65086117   -8.6443352    226.67391  0.012542824  0.011797165            6 
 1507000   0.64994894   -8.6605417     226.5069  0.012525265  0.011786319            7 
 1508000   0.64962926   -8.6341006    226.89189  0.012538234  0.011775477            6 
 1509000     0.653661   -8.6545474    227.06164    0.0125393  0.011764625            4 
 1510000   0.64724613   -8.6668749    226.11301  0.012478643  0.011753811            2 
 1511000   0.65607922   -8.6694001    226.45705  0.012489359  0.011742998            4 
 1512000   0.65749834   -8.6576174     226.5828  0.012488029  0.011732208            2 
 1513000   0.64638074   -8.6706165    226.56068  0.012478557  0.011721411            5 
 1514000   0.64042795   -8.6784007    226.63296  0.012474294  0.011710627            8 
 1515000   0.64314752   -8.6649722    226.64423  0.012466679  0.011699853            2 
 1516000   0.66315536   -8.6792665    226.55938  0.012453792  0.011689094            4 
 1517000   0.64814539   -8.6531741    226.47046  0.012440697  0.011678351            4 
 1518000   0.64945654   -8.6672081    226.54326  0.012436499  0.011667616            3 
 1519000   0.63504433   -8.6957243    226.66053  0.012434745  0.011656906            4 
 1520000    0.6498291   -8.6633178    226.75318  0.012431643  0.011646204            5 
 1521000   0.63536927   -8.6347846    227.08294  0.012441538  0.011635519            3 
 1522000   0.64689959   -8.6445077    226.92836  0.012424899  0.011624858            2 
 1523000   0.65136099   -8.6798707    226.80793  0.012410152  0.011614179            3 
 1524000   0.65158663   -8.6665244    226.59088   0.01239014  0.011603544            4 
 1525000   0.63967231    -8.679632    226.37525  0.012370232  0.011592903            3 
 1526000   0.63319385   -8.6684761    226.65132  0.012377202  0.011582275            7 
 1527000   0.63147047   -8.6799687    226.40666  0.012355744  0.011571629            5 
 1528000    0.6318284   -8.6712532    226.35039  0.012344589  0.011561008            3 
 1529000   0.63208935    -8.694497    226.34101  0.012336004  0.011550359            6 
 1530000   0.63942322    -8.663533    226.79038  0.012352417  0.011539763            2 
 1531000   0.64869689   -8.6809038    226.22668  0.012313666  0.011529174            3 
 1532000   0.64957969   -8.6799922     226.4338  0.012316895  0.011518587            3 
 1533000   0.64418065   -8.6657237     226.1106  0.012291291  0.011508018            2 
 1534000   0.65263494   -8.6547965    226.40212  0.012299115  0.011497467            2 
 1535000   0.63775166   -8.6481467     226.1098  0.012275234  0.011486909            3 
 1536000   0.63247094    -8.671333    226.30404   0.01227778  0.011476359            3 
 1537000   0.64071806   -8.6774758    226.63915  0.012287961  0.011465822            3 
 1538000   0.63663052   -8.6727355     226.2201  0.012257266   0.01145529            4 
 1539000   0.63367334   -8.6861976    226.06991  0.012241169  0.011444792            2 
 1540000   0.63610739   -8.6815225     226.3994   0.01225105  0.011434292            8 
 1541000   0.64256577   -8.6475006     226.2757   0.01223641  0.011423816            3 
 1542000   0.64966239   -8.6834089    226.44906  0.012237844   0.01141334            2 
 1543000   0.63056307   -8.6887164    226.54884  0.012235302  0.011402879            4 
 1544000   0.64968454   -8.6861745    226.55048  0.012227466  0.011392429            2 
 1545000   0.62740445    -8.665979    226.66945  0.012225968  0.011381997            5 
 1546000   0.63163169   -8.6947158    226.27631  0.012196869   0.01137156            4 
 1547000   0.64124173   -8.6900259    226.68753  0.012211136  0.011361132            3 
 1548000   0.63037959   -8.7009095    226.55155  0.012195928  0.011350705            4 
 1549000   0.63738907   -8.7015558    225.85758   0.01215072  0.011340296            3 
 1550000   0.64492815   -8.6789344    226.07529  0.012154585  0.011329895            3 
 1551000    0.6386017   -8.7014639    225.89835  0.012137242  0.011319488            3 
 1552000   0.63250507   -8.6970905     226.1878  0.012144964  0.011309105            4 
 1553000   0.64478503    -8.688483    226.61267  0.012159942  0.011298718            2 
 1554000   0.64202556   -8.6833801    225.93524  0.012115789  0.011288356            2 
 1555000   0.63649598   -8.6738241    225.99448  0.012111172  0.011278019            2 
 1556000   0.64543372   -8.6692219    226.38103  0.012124091  0.011267696            4 
 1557000   0.63163843   -8.6937112    226.19799  0.012106508  0.011257372            3 
 1558000   0.64042996   -8.6920937    225.63044   0.01206838  0.011247046            3 
 1559000   0.64366543   -8.7092357    226.13959  0.012087855  0.011236734            3 
 1560000   0.64427292   -8.7106752    226.15716  0.012081045   0.01122643            3 
 1561000   0.63630215   -8.6877092    225.88967  0.012059026  0.011216148            2 
 1562000   0.62810657   -8.6787779    226.12181   0.01206369  0.011205861            4 
 1563000   0.63807368   -8.6941057    226.14087  0.012056988  0.011195594            3 
 1564000   0.62273613   -8.6907721    226.07002  0.012045504  0.011185356            3 
 1565000   0.64655077   -8.6902748    226.39905  0.012055327  0.011175117            2 
 1566000   0.63674938     -8.69318    226.22484  0.012038359  0.011164903            2 
 1567000   0.62722265   -8.6855204    226.65457   0.01205353  0.011154682            3 
 1568000   0.62344013   -8.7025709    226.35027   0.01202967  0.011144478            4 
 1569000   0.61897759   -8.7073832    226.67866  0.012039444  0.011134279            3 
 1570000    0.6288538   -8.6889341    225.97752   0.01199456  0.011124085            4 
 1571000   0.63156307   -8.6991251    226.22264  0.011999928  0.011113918            2 
 1572000   0.63240461   -8.6888128    226.15218  0.011988559  0.011103753            4 
 1573000   0.61482672   -8.7030445    226.15211  0.011980934  0.011093593            1 
 1574000   0.61932832    -8.711993    226.41564  0.011987274  0.011083437            3 
 1575000   0.61661484   -8.7101039    226.21357  0.011968972   0.01107329            2 
 1576000   0.62516399   -8.7001459    226.32797  0.011967427  0.011063171            1 
 1577000   0.63148332   -8.7256753    225.94143  0.011939412  0.011053075            3 
 1578000   0.62818191   -8.6948935    225.98758  0.011934283  0.011042971            7 
 1579000   0.61612341   -8.7096851    226.37426  0.011947132   0.01103288            5 
 1580000   0.63450052   -8.7038777    226.38035  0.011939892  0.011022812            9 
 1581000   0.61633424   -8.7152625    226.31235  0.011928756  0.011012763            4 
 1582000   0.61855476   -8.7219471    225.74814  0.011891495  0.011002715            2 
 1583000   0.61797291   -8.6912403    226.28585  0.011912289  0.010992684            3 
 1584000   0.61087916   -8.7076578    226.11968  0.011896027  0.010982653            6 
 1585000   0.64392136   -8.7135303    226.36723  0.011901537  0.010972636            4 
 1586000   0.61417742   -8.7064754    226.73154  0.011913175  0.010962627            3 
 1587000   0.62870388   -8.7137058    226.51066  0.011894069  0.010952643            2 
 1588000   0.61087101   -8.7074827    226.32765  0.011876976  0.010942654            6 
 1589000   0.61943816   -8.7076582    226.21834  0.011863768  0.010932678            5 
 1590000   0.61187591   -8.7102786    225.96764  0.011843168  0.010922712            5 
 1591000   0.62213932   -8.7188173    226.13968  0.011844735  0.010912753            3 
 1592000   0.61542557   -8.7295125    225.69243  0.011813883  0.010902808            3 
 1593000   0.61433738   -8.7106345    226.06564  0.011825991  0.010892861            2 
 1594000   0.61559182   -8.7224107    225.72908  0.011800977  0.010882937            3 
 1595000    0.6060468   -8.7228844    225.86569  0.011800715  0.010873015            2 
 1596000   0.61360625   -8.7117268     225.6723  0.011783224  0.010863113            4 
 1597000   0.61993763   -8.7198826     225.5595  0.011769959  0.010853203            5 
 1598000   0.60713231   -8.7361879    226.02837  0.011787045  0.010843311            4 
 1599000   0.61354623    -8.707788    225.95631  0.011775918  0.010833415            2 
 1600000   0.61349218   -8.7521166    226.42203  0.011792814  0.010823542            3 
 1601000   0.61251896   -8.7242738    225.97486  0.011762173  0.010813673            3 
 1602000    0.6003947   -8.7348799    225.50259  0.011730264  0.010803825            2 
 1603000    0.6222311   -8.7225477    226.07867  0.011752894  0.010793989            3 
 1604000   0.61438735   -8.7292801    226.15522  0.011749544  0.010784171            3 
 1605000    0.6183765   -8.7440466    226.00377   0.01173436  0.010774361            2 
 1606000   0.61295006   -8.7136857    226.00496  0.011727115  0.010764556            2 
 1607000   0.61049126   -8.7297479    225.69885  0.011703944  0.010754742            2 
 1608000   0.60634113   -8.7327819    226.00429  0.011712494  0.010744947            2 
 1609000   0.61912562   -8.7548259    226.02941  0.011706516  0.010735156            2 
 1610000   0.62414224   -8.7210234    226.14016  0.011704977  0.010725381            4 
 1611000   0.60750345   -8.7375822    225.87653  0.011684075  0.010715608            3 
 1612000    0.6124696   -8.7409506    226.34853  0.011701227   0.01070586            3 
 1613000    0.5970579   -8.7567353    225.70742  0.011660851   0.01069612            5 
 1614000   0.61479481   -8.7351113    225.45444  0.011640564  0.010686403            4 
 1615000   0.60825103   -8.7335961    226.05916   0.01166456  0.010676708            3 
 1616000   0.60941519   -8.7448129    225.74967  0.011641381  0.010667011            4 
 1617000    0.5990486   -8.7359799    226.02177  0.011648205  0.010657327            5 
 1618000   0.60654202   -8.7465809    225.93767  0.011636675  0.010647643            2 
 1619000    0.6171214   -8.7259443     226.1622  0.011641044  0.010637979            1 
 1620000   0.60244625   -8.7309641     225.8849  0.011619593  0.010628336            4 
 1621000    0.6064565   -8.7275877    225.72605  0.011604259  0.010618693            2 
 1622000   0.60246816    -8.738907    226.14862  0.011618815  0.010609058            2 
 1623000   0.59898261   -8.7353627     226.0191  0.011605006  0.010599429            1 
 1624000   0.61689143   -8.7280586    226.02256  0.011598038  0.010589822            3 
 1625000   0.59845012   -8.7436259    225.82305  0.011580669  0.010580204            1 
 1626000   0.59538454   -8.7476563    226.06501  0.011585948   0.01057061            4 
 1627000     0.617124   -8.7347381      226.203  0.011585894  0.010561021            2 
 1628000   0.59067881    -8.746947    225.89839  0.011563185   0.01055145            4 
 1629000   0.59283735   -8.7303359    225.68229  0.011545032  0.010541879            2 
 1630000   0.58833619   -8.7732793     225.7014  0.011538926  0.010532323            4 
 1631000   0.60488116   -8.7506119     225.6607  0.011529772  0.010522757            2 
 1632000   0.60907373   -8.7418117     225.7106  0.011525255  0.010513221            4 
 1633000   0.60256727   -8.7393212    225.90082  0.011527905  0.010503696            2 
 1634000    0.6092615   -8.7399919    225.88025  0.011519801  0.010494176            1 
 1635000      0.59711   -8.7434187    225.95023  0.011516322  0.010484662            4 
 1636000   0.60389417   -8.7464206     226.0295   0.01151332   0.01047515            4 
 1637000   0.60226647   -8.7664477    225.85097  0.011497199  0.010465657            2 
 1638000   0.60553002   -8.7565095    225.70709   0.01148286  0.010456169            2 
 1639000   0.60362737   -8.7417927     225.4037  0.011460428  0.010446704            1 
 1640000    0.6034228    -8.740138    225.96768  0.011482098  0.010437245            1 
 1641000   0.59178168   -8.7610774    225.84633  0.011468938  0.010427801            1 
 1642000    0.5960657   -8.7554851    225.56055   0.01144745  0.010418357            3 
 1643000   0.58393853   -8.7604671    225.89663  0.011457528  0.010408927            3 
 1644000   0.58441329   -8.7493233    225.67059  0.011439101  0.010399498            7 
 1645000   0.60197278   -8.7441556    226.15699  0.011456788  0.010390085            5 
 1646000   0.58913071   -8.7627249    225.77117  0.011430294  0.010380667            3 
 1647000   0.59713508   -8.7476477    225.76328  0.011422955  0.010371278            3 
 1648000   0.60024116   -8.7666316    225.69947  0.011412797  0.010361892            5 
 1649000   0.59458894   -8.7609228    225.28879  0.011385122  0.010352528            2 
 1650000   0.57916234    -8.754775    225.72042  0.011400021  0.010343172            2 
 1651000   0.58814972   -8.7520858    225.63645  0.011388878  0.010333818            3 
 1652000    0.5860386    -8.772401    225.80963   0.01139072  0.010324492            3 
 1653000   0.60063918   -8.7587111    226.13995  0.011400481  0.010315165            2 
 1654000   0.60103996   -8.7705485    225.75914  0.011374402  0.010305849            4 
 1655000   0.58259948   -8.7738788    225.78639  0.011368902  0.010296541            3 
 1656000   0.58766468   -8.7546365    225.53255  0.011349263  0.010287257            2 
 1657000   0.59472564   -8.7636403    225.84746  0.011358251  0.010277975            2 
 1658000   0.59848343    -8.775738    225.42596  0.011330215  0.010268684            6 
 1659000   0.59716779   -8.7772884    225.47672  0.011325935   0.01025943            3 
 1660000   0.59069492   -8.7748599    225.44914  0.011317728   0.01025017            2 
 1661000   0.58609482   -8.7808142    225.59852  0.011318409  0.010240913            4 
 1662000     0.587703   -8.7727113    225.55368   0.01130935  0.010231666            4 
 1663000    0.5832037   -8.7854409    225.69985  0.011309874  0.010222417           12 
 1664000    0.6008415   -8.7918723    225.64191  0.011300176   0.01021319           11 
 1665000    0.5843611    -8.793297    225.39429  0.011280995   0.01020397            3 
 1666000   0.58745006    -8.792636    225.71275  0.011290153  0.010194772            6 
 1667000   0.57580992   -8.7765437    225.66633   0.01128106  0.010185573            3 
 1668000   0.58424836   -8.7741032    226.35184  0.011308545   0.01017639            7 
 1669000   0.59212492   -8.7964771    225.72401  0.011270422  0.010167214            6 
 1670000   0.57771837   -8.7861317    225.43277   0.01124914  0.010158055            6 
 1671000    0.5866849   -8.7780201    225.22559  0.011232076  0.010148897           12 
 1672000   0.59393198   -8.7784124    225.47706  0.011237892  0.010139748            4 
 1673000   0.58699344   -8.7875096    225.57266  0.011235936  0.010130596            3 
 1674000   0.57403564   -8.7849255    225.08117  0.011204758   0.01012145            6 
 1675000   0.58832729    -8.796299     225.8867  0.011238144  0.010112323            7 
 1676000   0.57499924   -8.7846113    225.36695  0.011205596  0.010103219            1 
 1677000   0.59233682    -8.799472    225.01607  0.011181478  0.010094107            5 
 1678000    0.5781887   -8.8211325    225.35158  0.011191477  0.010085012            6 
 1679000   0.58392316   -8.7971649     225.2624  0.011180385  0.010075926            6 
 1680000   0.59090104   -8.7931512    225.72588   0.01119672  0.010066856            8 
 1681000   0.58410053   -8.7810923    225.47441  0.011177593  0.010057793            9 
 1682000    0.5928617   -8.7992829    226.02971   0.01119846  0.010048744            7 
 1683000   0.57683391   -8.7923914    225.20034   0.01115074   0.01003971            3 
 1684000   0.58032293   -8.8046711    225.51592  0.011159735  0.010030671            5 
 1685000   0.57629289   -8.7951689     225.9303  0.011173605  0.010021638            3 
 1686000   0.56954524   -8.7999992    225.26551   0.01113412  0.010012624            4 
 1687000   0.58002379   -8.8065668    225.62173  0.011145116  0.010003614            6 
 1688000   0.58272533   -8.7836671    225.36962  0.011126067 0.0099946151            2 
 1689000   0.58319754   -8.8127503    225.72423  0.011136976 0.0099856192            3 
 1690000   0.57564883   -8.8124766    225.44451  0.011116593 0.0099766224            4 
 1691000   0.58157925   -8.8180061    225.58041  0.011116717  0.009967631            3 
 1692000   0.56818416   -8.7826193    225.60901  0.011111555 0.0099586544            4 
 1693000   0.59287262   -8.8004899    225.42697  0.011096031 0.0099496852            5 
 1694000    0.5616651   -8.8088628    225.42511  0.011089389 0.0099407212            3 
 1695000   0.56588211   -8.8028971    225.02173  0.011063015 0.0099317741            3 
 1696000   0.58759765   -8.7962277    225.67393  0.011088538 0.0099228439            4 
 1697000   0.57747588   -8.8333466    225.22541  0.011059979 0.0099139145            6 
 1698000   0.57812843   -8.8175831    225.16351  0.011050427 0.0099049854            2 
 1699000   0.57509795   -8.8210471    225.42094   0.01105655 0.0098960643            2 
 1700000   0.57817413    -8.793998     225.3503  0.011046583 0.0098871592            2 
 1701000   0.57550302   -8.7997101    225.62505  0.011053549 0.0098782614            2 
 1702000   0.57286232   -8.8105481    225.53923  0.011042853 0.0098693875            5 
 1703000   0.57222003   -8.8070946    225.12735  0.011016214   0.00986051            2 
 1704000    0.5788162   -8.8199267    225.51325  0.011028621 0.0098516505            8 
 1705000   0.56278241   -8.8136885    225.12429  0.011003142 0.0098427841            8 
 1706000   0.57145765   -8.8150001    225.11561  0.010996269 0.0098339402            3 
 1707000    0.5870173    -8.806241    225.26206  0.010996976  0.009825107            4 
 1708000   0.56666984   -8.8235008    224.91378  0.010973545 0.0098162879            2 
 1709000   0.57805977   -8.8307646    225.18347  0.010980275  0.009807468            5 
 1710000   0.56926793   -8.8210021    225.14404  0.010971932 0.0097986741            6 
 1711000   0.56278858   -8.8392884    225.10819  0.010963773 0.0097898703            3 
 1712000   0.57231909   -8.8311944    225.17945  0.010960838 0.0097810841            2 
 1713000   0.57983361   -8.8259815    225.09892  0.010950521 0.0097722874            2 
 1714000   0.56537485   -8.8073687    225.67147  0.010971969 0.0097635104            4 
 1715000   0.56504656   -8.8324451    225.09263  0.010937446 0.0097547509            4 
 1716000   0.56651751   -8.8382113    225.16982   0.01093482 0.0097460023            2 
 1717000   0.57509802   -8.8216502    225.19665  0.010929754 0.0097372719            2 
 1718000   0.57799554   -8.8490803    225.32328  0.010929534 0.0097285458            2 
 1719000    0.5695814   -8.8250685    224.77443  0.010896569 0.0097198133            1 
 1720000   0.56126156   -8.8064871    225.07806  0.010904945 0.0097111085            6 
 1721000   0.56429507   -8.8124458    225.50873  0.010919462 0.0097024183            3 
 1722000   0.56947695   -8.8117736    225.14608  0.010895571 0.0096937216            4 
 1723000   0.57164863   -8.8255066    224.69252  0.010867311 0.0096850348            8 
 1724000   0.56244936   -8.8400218    225.00243  0.010875988 0.0096763693            3 
 1725000   0.55736281   -8.8348551    225.35243  0.010886591 0.0096677052            2 
 1726000   0.56687737   -8.8326261    225.16115  0.010871048 0.0096590567            3 
 1727000   0.56118022   -8.8329274    225.28361  0.010870662 0.0096504113            5 
 1728000   0.55115081    -8.840387    225.04427  0.010852829 0.0096417795            3 
 1729000   0.57335935   -8.8294703    225.01173  0.010844984 0.0096331534            2 
 1730000   0.54904574   -8.8187495    224.79432  0.010828243 0.0096245332            3 
 1731000   0.56613482   -8.8203408     225.2765    0.0108452 0.0096159357            2 
 1732000   0.54681324   -8.8387009    225.44943  0.010847259 0.0096073382            5 
 1733000   0.55477013   -8.8313677     224.8531  0.010812324 0.0095987468            6 
 1734000     0.561441   -8.8331052    225.00259  0.010813273 0.0095901717            8 
 1735000   0.56168132   -8.8263389    225.20436  0.010816732 0.0095816008            2 
 1736000   0.56664106   -8.8621003    225.00989  0.010801166 0.0095730398            4 
 1737000   0.54580537   -8.8283643    225.06458  0.010797572 0.0095644913            4 
 1738000   0.54799591   -8.8376762    224.93011  0.010784912 0.0095559581            2 
 1739000   0.57344584   -8.8509827    225.08339  0.010786055 0.0095474293            3 
 1740000   0.55261992    -8.829813     224.7809  0.010765369  0.009538907            3 
 1741000   0.56644001    -8.835771    225.11589   0.01077522 0.0095304126            3 
 1742000   0.55954526   -8.8390788     224.9662  0.010761873 0.0095219136            4 
 1743000   0.56256541   -8.8523105    225.34089  0.010773613 0.0095134312            3 
 1744000   0.55964662   -8.8306924    224.93052  0.010747827 0.0095049536            3 
 1745000   0.55293355   -8.8397424    225.00847   0.01074539 0.0094964976            2 
 1746000    0.5499962   -8.8483395    225.18847  0.010747827 0.0094880549            2 
 1747000   0.54696664   -8.8420395    225.28936  0.010746487 0.0094796175            3 
 1748000   0.55518974   -8.8470654     224.7514  0.010714693 0.0094711905            2 
 1749000    0.5575951   -8.8308768    224.87369  0.010714394 0.0094627682            2 
 1750000   0.54541685   -8.8291634    224.99643  0.010714116 0.0094543622            2 
 1751000    0.5665624   -8.8439152     224.8298  0.010700067 0.0094459546            1 
 1752000   0.55819779   -8.8334376    224.89554  0.010697086 0.0094375518            4 
 1753000   0.55186915   -8.8595243    224.42886  0.010668799 0.0094291608            2 
 1754000   0.54695807   -8.8570622    224.85118  0.010682781 0.0094207771            1 
 1755000   0.55313804   -8.8611682    224.57465  0.010663564 0.0094123935            2 
 1756000   0.54466174   -8.8402182    224.80479  0.010668412 0.0094040212            2 
 1757000    0.5502006   -8.8452205    224.86872  0.010665373 0.0093956557            1 
 1758000   0.54778325   -8.8622709    224.98557  0.010664845 0.0093872971            2 
 1759000   0.56017008   -8.8408606    225.34928  0.010676013 0.0093789586            3 
 1760000   0.54673736   -8.8421293    224.85128  0.010646368  0.009370628            2 
 1761000   0.54215242    -8.836606    225.20369  0.010656998 0.0093623144            3 
 1762000   0.56522071   -8.8521942    225.17662   0.01064967 0.0093540011            2 
 1763000    0.5554854   -8.8579732    224.81397  0.010626487 0.0093456951            2 
 1764000     0.545605   -8.8504243    225.06035  0.010632103  0.009337407            2 
 1765000   0.54395878   -8.8560363     224.7944  0.010613522 0.0093291297            2 
 1766000   0.55321932   -8.8414654    225.03493  0.010618863  0.009320864            3 
 1767000   0.54073021   -8.8460332    224.87454  0.010605289 0.0093125987            2 
 1768000   0.54892163   -8.8440803      224.924  0.010601622 0.0093043497            1 
 1769000   0.54726886   -8.8629302    224.92917  0.010595872 0.0092961056            3 
 1770000   0.54104188   -8.8696461    224.83483  0.010585444 0.0092878743            2 
 1771000   0.54142815   -8.8622413    224.83163  0.010579316 0.0092796584            2 
 1772000   0.55123391    -8.854944    224.61466  0.010563143 0.0092714347            1 
 1773000   0.55268023   -8.8672364    224.63877  0.010558318 0.0092632297            1 
 1774000   0.54143356   -8.8633277    224.40889  0.010541568 0.0092550273            4 
 1775000   0.54846657   -8.8725996    224.86851  0.010557207 0.0092468318            3 
 1776000   0.54204005   -8.8707589    224.68917  0.010542848 0.0092386488            6 
 1777000   0.55592401   -8.8593173    224.86373  0.010545101 0.0092304817            2 
 1778000    0.5428972   -8.8347254    224.49755  0.010522008 0.0092223222            5 
 1779000    0.5473706   -8.8572644    224.38383  0.010510766 0.0092141649            2 
 1780000   0.53372454   -8.8442393     224.5634  0.010513268 0.0092060214            3 
 1781000   0.53580011   -8.8653331     224.6376  0.010510837  0.009197891            1 
 1782000   0.53784841    -8.883751    225.06394  0.010524876 0.0091897717            2 
 1783000   0.52750301   -8.8776596     224.7521  0.010504398 0.0091816607            4 
 1784000   0.53958007   -8.8700084    224.39295  0.010481733  0.009173546            5 
 1785000    0.5447231   -8.8562308    224.68561  0.010489524 0.0091654389            3 
 1786000   0.54096027   -8.8465107     224.9664  0.010496752 0.0091573439            7 
 1787000    0.5462711    -8.862258    224.83896  0.010484936 0.0091492593            3 
 1788000   0.54453987   -8.8631258    224.81477  0.010477944 0.0091411728            7 
 1789000   0.54273601   -8.8638804    224.31047  0.010448596 0.0091330884            2 
 1790000   0.54411122   -8.8920515    224.54785   0.01045381 0.0091250182            4 
 1791000    0.5406749   -8.8743076    224.77031  0.010458324 0.0091169614            3 
 1792000   0.54153636   -8.8602897    224.54994   0.01044224 0.0091089006            5 
 1793000   0.53390363   -8.8866971    224.93103  0.010454128 0.0091008502            3 
 1794000   0.53661721   -8.8703778    224.84239  0.010444184 0.0090928196            2 
 1795000   0.54772193   -8.8699169    224.51725  0.010423271  0.009084797            3 
 1796000   0.55025656   -8.8831401    224.91419  0.010435885 0.0090767847            5 
 1797000    0.5254376   -8.8819168    224.39635  0.010406063 0.0090687826            4 
 1798000   0.53492685   -8.8643688    224.59371  0.010409423 0.0090607774            4 
 1799000   0.53827845   -8.8550999    224.63361  0.010405485 0.0090528077            2 
 1800000   0.54547852   -8.8663344    224.53858  0.010395305 0.0090448313            3 
 1801000   0.53295938   -8.8934788    224.34071  0.010380377 0.0090368611            4 
 1802000   0.52765775    -8.885923    224.78506  0.010395166 0.0090289035            4 
 1803000   0.53417536   -8.8769934    224.63123   0.01038229 0.0090209601            4 
 1804000   0.52332132   -8.8767966    224.65733  0.010377741  0.009013028            4 
 1805000   0.53314334   -8.8735822     224.3822  0.010359289 0.0090050955            3 
 1806000   0.52890946    -8.883093    224.38726  0.010353787 0.0089971717            3 
 1807000   0.53263133   -8.8829249    224.67675  0.010361407 0.0089892525            1 
 1808000   0.52732041   -8.8915014    224.20893  0.010334114 0.0089813374            1 
 1809000   0.53526539   -8.8792494    224.66706  0.010349505 0.0089734341            2 
 1810000   0.53233043   -8.8788681    224.49627  0.010335924 0.0089655442            2 
 1811000   0.52565509    -8.876405    224.17718  0.010315534 0.0089576696            2 
 1812000   0.53686988   -8.8700099    224.84229  0.010340429 0.0089497974            3 
 1813000   0.51563818   -8.8809898    224.82124  0.010333758  0.008941923            3 
 1814000   0.52473134   -8.8572242    224.22562  0.010300699   0.00893406            3 
 1815000   0.53759158   -8.8855989    224.03132  0.010286103 0.0089262123            6 
 1816000   0.52882755   -8.8835052    224.27543  0.010291641 0.0089183716            5 
 1817000   0.51738171   -8.8835025    224.08304  0.010277153 0.0089105317            5 
 1818000   0.53261647   -8.8819238    224.39954  0.010286007 0.0089027064            1 
 1819000   0.51959686   -8.8800256    224.67637  0.010293035 0.0088948868            4 
 1820000   0.52328815   -8.8949987    224.14639  0.010263113 0.0088870777            2 
 1821000   0.52159563   -8.8895527    224.04372  0.010252778 0.0088792795            5 
 1822000    0.5205902   -8.8908443     224.6627  0.010275462 0.0088714926            2 
 1823000   0.52538346   -8.9191741    224.51074  0.010262879 0.0088637063            3 
 1824000   0.52504771   -8.8741572     224.5655  0.010259754 0.0088559232            2 
 1825000   0.52729495   -8.8859435    224.38346   0.01024582 0.0088481548            3 
 1826000   0.51945372   -8.8728062    224.24415  0.010233851  0.008840395            2 
 1827000   0.51467459   -8.8903184    224.47753  0.010238895 0.0088326425            3 
 1828000   0.52370141   -8.8968062    224.52136  0.010235292 0.0088249003            3 
 1829000   0.53336714   -8.9032851    224.29544  0.010219402 0.0088171662            4 
 1830000   0.52436462   -8.9109864    224.51057  0.010223614  0.008809445            3 
 1831000   0.52061005   -8.8862789    224.74832  0.010228851 0.0088017315            4 
 1832000   0.52504593   -8.9091306    224.35445  0.010205352 0.0087940253            1 
 1833000   0.52353153   -8.8841932    224.25664  0.010195337 0.0087863358            5 
 1834000    0.5209092    -8.906947    224.42705  0.010197521 0.0087786484            4 
 1835000   0.51214658   -8.9096605    224.56665  0.010198304 0.0087709709            3 
 1836000   0.51722096   -8.9064607    224.19663  0.010175955 0.0087633021            4 
 1837000   0.51053001   -8.9125089     224.3719  0.010178366 0.0087556281            2 
 1838000   0.51466347   -8.9112093    224.23221  0.010166495  0.008747964            1 
 1839000   0.52417491    -8.902521    224.27247  0.010162791 0.0087403105            2 
 1840000   0.51916533   -8.8851867    224.46877  0.010166158 0.0087326708            4 
 1841000   0.51716442   -8.8862369    224.53164  0.010163482 0.0087250395            1 
 1842000   0.51392739   -8.9061348    224.29382  0.010147205 0.0087174221            3 
 1843000    0.5253913   -8.9031729    223.90401  0.010124073    0.0087098            3 
 1844000   0.50738405   -8.9065798    224.75278  0.010156941 0.0087021878            3 
 1845000   0.50620966   -8.8862137    224.57163  0.010143254 0.0086945878            7 
 1846000   0.52237041   -8.9024699     224.4029  0.010130142 0.0086869964            4 
 1847000   0.52551566   -8.9070573    224.32922  0.010121333 0.0086794098            3 
 1848000   0.51124586   -8.9156684     224.3961  0.010118872 0.0086718369            3 
 1849000   0.51171575   -8.9084049    224.33725  0.010110747 0.0086642601            2 
 1850000   0.51090416   -8.8971139    224.20693  0.010099411 0.0086567006            2 
 1851000   0.50974483   -8.9046192     224.4014   0.01010271 0.0086491478            2 
 1852000   0.52696099   -8.9115347    223.96649  0.010077686 0.0086416021            4 
 1853000   0.50671111   -8.9179233    224.20296  0.010082882 0.0086340612            4 
 1854000   0.51895954   -8.9172791    224.25006   0.01007956 0.0086265175            2 
 1855000   0.51843398   -8.8966078    224.41494  0.010081534 0.0086189909            4 
 1856000   0.50878093   -8.8830731    224.22969  0.010067784 0.0086114762            8 
 1857000   0.50352358   -8.9086368    224.44024  0.010071811 0.0086039681            4 
 1858000   0.51062353   -8.9265746    224.06267  0.010049456 0.0085964645            2 
 1859000   0.51533853   -8.9319121     223.4759  0.010017747 0.0085889613            2 
 1860000   0.51841049   -8.9003374    223.88896  0.010030868 0.0085814765            2 
 1861000   0.49918579   -8.9015353    223.84898  0.010023687 0.0085739976            4 
 1862000   0.50544326   -8.9011912    224.21104  0.010034508 0.0085665258            3 
 1863000    0.5150124   -8.9098723     224.1732  0.010027429 0.0085590607            3 
 1864000   0.50618487   -8.9286188    224.12757  0.010020009 0.0085516067            3 
 1865000   0.50304025   -8.9023381    223.94101  0.010006301 0.0085441576            2 
 1866000   0.50356775   -8.9202704    223.98236  0.010002785  0.008536718            3 
 1867000   0.51078743   -8.9138415    223.97225  0.009996976 0.0085292852            4 
 1868000    0.5073403   -8.9044806    223.95019   0.00999064 0.0085218577            3 
 1869000    0.5140492    -8.931236    223.99816 0.0099874334 0.0085144399            2 
 1870000   0.49850283    -8.929338    224.22169 0.0099920539 0.0085070322            5 
 1871000   0.50035462   -8.9343806    224.08891 0.0099807996 0.0084996288            3 
 1872000   0.51297949   -8.9343505    223.72933  0.009959461 0.0084922295            4 
 1873000   0.51055203   -8.9171787    224.19904  0.009975042 0.0084848484            2 
 1874000   0.50056819   -8.9128241    223.76127 0.0099502521  0.008477475            3 
 1875000   0.51696994   -8.9137274     224.0188 0.0099563911 0.0084701072            6 
 1876000   0.50250289   -8.9445011    223.89902 0.0099457633 0.0084627412            4 
 1877000   0.49901602   -8.9188257    223.89785 0.0099404124 0.0084553845            7 
 1878000   0.49896889   -8.9247065    223.67584 0.0099252682 0.0084480352            1 
 1879000   0.49687661   -8.9379141    224.06747 0.0099373544 0.0084406947            3 
 1880000   0.50154674   -8.9215956    223.95552 0.0099271065 0.0084333686            3 
 1881000   0.50039831   -8.9321161    223.86185 0.0099176788 0.0084260431            6 
 1882000   0.49008313   -8.9295315     223.6695 0.0099038923 0.0084187261            5 
 1883000   0.50523031   -8.9345651    223.84868 0.0099065623 0.0084114218            2 
 1884000   0.48382989   -8.9190734    223.81138 0.0098996543 0.0084041232            3 
 1885000   0.49771983   -8.9356603    224.05287 0.0099050784 0.0083968296            2 
 1886000   0.50790694   -8.9223952    223.91649 0.0098938006 0.0083895515            5 
 1887000   0.49803888   -8.9348768    223.99176 0.0098918811 0.0083822789            4 
 1888000   0.49940093   -8.9201709    224.19449 0.0098955902 0.0083750187            2 
 1889000   0.50445967   -8.9329294    223.90896 0.0098777553 0.0083677654            6 
 1890000   0.49186097   -8.9309481    223.63177 0.0098603075 0.0083605178            2 
 1891000   0.49841828   -8.9292116    224.12646 0.0098768931  0.008353274            2 
 1892000   0.49453936   -8.9488478    223.83378 0.0098587819  0.008346043            6 
 1893000   0.49607258   -8.9393566    223.73177 0.0098490829 0.0083388182            3 
 1894000   0.48870753   -8.9333839    224.01053 0.0098561478 0.0083315963            3 
 1895000   0.49761234   -8.9301372    223.87896 0.0098451609 0.0083243801            2 
 1896000   0.50162352   -8.9360775    223.50697 0.0098236187 0.0083171734            4 
 1897000   0.48646994   -8.9392133     223.9055 0.0098359469 0.0083099766            6 
 1898000   0.48933252   -8.9393747    223.68818 0.0098212233 0.0083027886            3 
 1899000   0.48693841   -8.9251782    224.04809 0.0098318455 0.0082956047            3 
 1900000   0.49769167   -8.9514483    224.05782 0.0098270975 0.0082884374            4 
 1901000   0.49665245   -8.9364252    223.15203 0.0097822212 0.0082812723            3 
 1902000   0.48509185   -8.9461384    223.79014  0.009805036   0.00827412            3 
 1903000    0.4878871    -8.947257    224.06999 0.0098121383 0.0082669782            2 
 1904000   0.49668397   -8.9492856    223.37579 0.0097766017 0.0082598292            2 
 1905000   0.49535747   -8.9400161    223.61352 0.0097818689 0.0082526988            3 
 1906000   0.50225384   -8.9405622    223.79485 0.0097846648 0.0082455804            5 
 1907000    0.4998849   -8.9677415    223.61858 0.0097718308 0.0082384701            5 
 1908000   0.49479154   -8.9341873    223.97168 0.0097821312 0.0082313569            2 
 1909000    0.4807773   -8.9484175    224.00114 0.0097782932 0.0082242589            4 
 1910000   0.48983303   -8.9659391    223.61946 0.0097565209  0.008217164            3 
 1911000   0.46875344   -8.9486123    223.76353 0.0097576981 0.0082100776            1 
 1912000   0.50047082   -8.9633298    223.76349 0.0097525928 0.0082029888            5 
 1913000   0.49448659   -8.9483164    223.75357 0.0097470628 0.0081959215            8 
 1914000    0.4933333   -8.9448063    223.64826 0.0097373849 0.0081888559            5 
 1915000   0.49403128    -8.962378      223.455 0.0097238903 0.0081817998            4 
 1916000   0.49096096   -8.9405073    223.39751 0.0097163147 0.0081747518            3 
 1917000   0.48662358    -8.956679    223.68389 0.0097236955  0.008167718            5 
 1918000   0.48547855   -8.9515261    224.10296 0.0097368336 0.0081606833            3 
 1919000    0.4771602   -8.9494589    223.46996 0.0097042714 0.0081536529            3 
 1920000   0.49624683   -8.9543598    223.61363 0.0097054526 0.0081466363            8 
 1921000    0.4777379   -8.9478368    223.70599 0.0097044072 0.0081396242            4 
 1922000   0.48453516   -8.9679326    223.63747  0.009696387 0.0081326243            3 
 1923000   0.49126822    -8.964349    223.87975 0.0097018438 0.0081256293            3 
 1924000   0.49194869   -8.9615352     223.7331 0.0096904494 0.0081186402            6 
 1925000   0.47941932   -8.9774984    223.56352 0.0096780742 0.0081116576            3 
 1926000   0.48180845   -8.9625593    223.47584 0.0096692557 0.0081046835            6 
 1927000   0.48267681   -8.9505425    223.82432  0.009679308 0.0080977214            4 
 1928000   0.47723156   -8.9519498    223.80046 0.0096732562 0.0080907636            5 
 1929000   0.47525983   -8.9717685    223.36517 0.0096494373 0.0080838155            5 
 1930000   0.48028434   -8.9549304    223.65438 0.0096569249  0.008076877            6 
 1931000   0.48512008   -8.9773621    223.56446 0.0096480435 0.0080699453            4 
 1932000   0.47171867   -8.9684897    223.70245 0.0096490013  0.008063022            4 
 1933000   0.48143343   -8.9593476    223.60437 0.0096397813 0.0080561112            3 
 1934000   0.48543678   -8.9603727    223.59072  0.009634209 0.0080492052            5 
 1935000   0.48772816   -8.9735667    223.49931 0.0096252934 0.0080423057            3 
 1936000   0.48693336   -8.9694745    223.90032 0.0096375825  0.008035417            4 
 1937000   0.47769601   -8.9667544    223.66349 0.0096224182 0.0080285252            3 
 1938000   0.48390632   -8.9816374    223.38191 0.0096053453 0.0080216401            2 
 1939000   0.48472893   -8.9701245    223.14504 0.0095902114 0.0080147621            3 
 1940000   0.47700566   -8.9771657    223.71218 0.0096096298 0.0080078906            4 
 1941000   0.47826644   -8.9762859     223.3695 0.0095899666 0.0080010255            3 
 1942000   0.47019885   -8.9632713    223.96575  0.009610614 0.0079941733            7 
 1943000   0.46805349   -8.9629161    223.14111 0.0095702996 0.0079873272            3 
 1944000   0.48629133   -8.9757934    223.47519 0.0095796979 0.0079804881            8 
 1945000   0.46986884   -8.9711718    223.31692 0.0095679913 0.0079736537            5 
 1946000   0.47079348   -8.9777579    223.44271 0.0095684614 0.0079668352            3 
 1947000   0.48519612    -8.985233    223.09324 0.0095485892 0.0079600225            3 
 1948000   0.47352628   -8.9786688    223.39562 0.0095566231 0.0079532216            3 
 1949000   0.47475239   -8.9658235    223.54296 0.0095580194 0.0079464381            3 
 1950000   0.47141537   -8.9811305    223.49138 0.0095509138 0.0079396504            4 
 1951000   0.47930863   -8.9849444    223.79551 0.0095590085 0.0079328721            3 
 1952000   0.46774866   -8.9832653    223.49028 0.0095410809 0.0079261037            3 
 1953000   0.47965101   -8.9681802    223.33348 0.0095295049 0.0079193396            5 
 1954000    0.4723524   -8.9725076    223.32762 0.0095243781 0.0079125814            2 
 1955000   0.46604149   -8.9799118    223.57887 0.0095302161 0.0079058348            2 
 1956000   0.47864507   -8.9896542    223.52812 0.0095231816 0.0078990986            2 
 1957000    0.4779059    -8.985434    223.66111 0.0095239785 0.0078923607            1 
 1958000   0.47149476   -8.9876106     223.0195 0.0094918071 0.0078856326            2 
 1959000   0.47192075    -8.987335    223.68663 0.0095153406 0.0078789139            4 
 1960000   0.46643783   -9.0006285    223.50218 0.0095026438 0.0078721958            3 
 1961000   0.47486946   -8.9780668    223.17682 0.0094839717  0.007865489            3 
 1962000   0.47425034   -8.9735763    223.42671 0.0094897515 0.0078587924            2 
 1963000   0.46739554   -8.9911231    223.06468 0.0094695484 0.0078521002            3 
 1964000   0.46969101   -8.9838016    223.10008 0.0094662288 0.0078454188            4 
 1965000   0.46381314   -8.9917392    223.30712 0.0094701919 0.0078387435            3 
 1966000   0.46300042   -8.9934776     223.4392 0.0094709733  0.007832079            2 
 1967000   0.47921504   -9.0071092    223.13891 0.0094534362 0.0078254172            4 
 1968000    0.4599647   -8.9723784    223.29462  0.009455226 0.0078187634            2 
 1969000   0.45647279   -8.9846794    223.62646 0.0094644686 0.0078121202            4 
 1970000   0.46818698   -8.9834999     223.5484 0.0094563621 0.0078054795            7 
 1971000   0.46706901   -8.9923924    223.28298 0.0094403426 0.0077988506            5 
 1972000   0.47156331   -8.9969834    223.64546 0.0094508732 0.0077922256            4 
 1973000   0.47319411   -8.9758171    223.28544 0.0094308768 0.0077856124            7 
 1974000   0.46533437   -8.9875772    223.23563 0.0094239967 0.0077789999            7 
 1975000   0.45621891    -8.981256    223.10682   0.00941379 0.0077724014            5 
 1976000    0.4604313   -8.9959128    223.30447 0.0094173614 0.0077658121            3 
 1977000   0.46756507   -8.9768333    223.09016 0.0094035645 0.0077592283            5 
 1978000   0.47302275   -8.9983478    223.20747 0.0094037524 0.0077526411            4 
 1979000   0.46397936   -8.9948578    223.39138 0.0094067448 0.0077460709            2 
 1980000   0.45731195   -8.9986747    223.18612 0.0093933551 0.0077395035            3 
 1981000   0.46233669    -9.004575    222.91355 0.0093771474 0.0077329357            3 
 1982000   0.46193461   -8.9860328    222.97204 0.0093748756 0.0077263809            3 
 1983000   0.46417942   -8.9974638    223.06751   0.00937416 0.0077198296            2 
 1984000   0.46789216   -9.0007641    222.94394 0.0093642448 0.0077132872            2 
 1985000   0.46862873   -9.0169896    223.20873 0.0093706436 0.0077067512            3 
 1986000   0.46455459   -9.0057014    223.44305 0.0093757573 0.0077002267            2 
 1987000   0.45821954    -8.996363    223.04962 0.0093545386 0.0076937027            2 
 1988000   0.45787178   -8.9894436     223.1836 0.0093554494 0.0076871903            2 
 1989000   0.44533248   -9.0115644    223.09137 0.0093468817 0.0076806775            3 
 1990000   0.45146997   -9.0022437    223.07342 0.0093414332 0.0076741789            4 
 1991000   0.46660346   -9.0187304    223.26849 0.0093449056 0.0076676857            3 
 1992000   0.45724944   -9.0210886      222.901 0.0093248409 0.0076611966            2 
 1993000   0.45322586   -9.0143139    222.95907 0.0093225902 0.0076547146            2 
 1994000   0.45565763   -9.0106119    222.98718 0.0093190896 0.0076482368            2 
 1995000   0.46151431   -9.0127855    223.01055 0.0093153946 0.0076417704            4 
 1996000   0.46513437   -9.0043295    222.90894 0.0093064854 0.0076353028            4 
 1997000   0.46241812   -9.0179306    223.05385  0.009307872  0.007628854            3 
 1998000   0.45530906   -9.0110378    223.26062 0.0093118375  0.007622406            4 
 1999000   0.46443427   -9.0061685    223.37048 0.0093117594 0.0076159679            2 
 2000000   0.46405678   -8.9969858     223.1343 0.0092972624 0.0076095359            2 
 2001000    0.4482607   -9.0128521    223.14057 0.0092928774 0.0076031124            3 
 2002000   0.45667829   -8.9948849    223.39712 0.0092989145 0.0075966922            4 
 2003000     0.456356   -9.0049715    223.33527 0.0092916985 0.0075902827            4 
 2004000   0.45496247   -9.0199299    222.92394 0.0092699577 0.0075838726            1 
 2005000   0.43739727   -9.0071352    223.15511 0.0092749423 0.0075774748            2 
 2006000   0.44708659   -9.0096688    223.02189 0.0092647846 0.0075710819            4 
 2007000   0.45766532   -8.9972644     222.9062 0.0092553646 0.0075646917            1 
 2008000   0.44485051   -9.0011561    223.09431 0.0092585622 0.0075583105            3 
 2009000   0.45060497   -9.0252008    222.60218 0.0092335399 0.0075519342            3 
 2010000   0.45127702   -8.9960923    222.95515 0.0092435801 0.0075455685            5 
 2011000   0.44769728   -9.0157302    223.09144 0.0092446314 0.0075392121            2 
 2012000   0.44664001   -9.0054238    223.11563 0.0092410385 0.0075328655            2 
Loop time of 4970.67 on 48 procs for 2000000 steps with 4000 atoms

Performance: 69527.806 tau/day, 402.360 timesteps/s
99.4% CPU use with 48 MPI tasks x no OpenMP threads

MPI task timing breakdown:
Section |  min time  |  avg time  |  max time  |%varavg| %total
---------------------------------------------------------------
Pair    | 337.56     | 358.77     | 380.6      |  55.4 |  7.22
Neigh   | 32.753     | 34.101     | 35.789     |  13.2 |  0.69
Comm    | 315.56     | 336.39     | 361.4      |  63.5 |  6.77
Output  | 4.1932     | 4.1952     | 4.2344     |   0.3 |  0.08
Modify  | 4180.6     | 4191.7     | 4201       |   7.7 | 84.33
Other   |            | 45.48      |            |       |  0.92

Nlocal:        83.3333 ave          88 max          75 min
Histogram: 1 1 0 7 6 4 11 3 5 10
Nghost:        2192.67 ave        2211 max        2176 min
Histogram: 8 2 4 3 5 9 6 3 5 3
Neighs:        14580.0 ave       16019 max       12645 min
Histogram: 2 0 2 4 11 9 7 6 3 4
FullNghs:      29153.9 ave       31400 max       25789 min
Histogram: 1 1 1 3 9 11 6 5 7 4

Total # of neighbors = 1399386
Ave neighs/atom = 349.84650
Neighbor list builds = 106830
Dangerous builds = 1

#clear
#
#next RN
#
#jump SELF
Total wall time: 1:22:54
