
units lj                  # Use reduced LJ style units
atom_style atomic         # Uncharged point particles
atom_modify map hash      # Needed for indexing of clusters etc
                          # Used to be able to find where atoms are in relation to each other.

lattice fcc 1.0 spacing 1 1 1
Lattice spacing in x,y,z = 1.5874011 1.5874011 1.5874011
region box block 0 10 0 10 0 10 units lattice
create_box 2 box
Created orthogonal box = (0.0000000 0.0000000 0.0000000) to (15.874011 15.874011 15.874011)
  3 by 4 by 4 MPI processor grid
create_atoms 1 box
Created 4000 atoms
  using lattice units in orthogonal box = (0.0000000 0.0000000 0.0000000) to (15.874011 15.874011 15.874011)
  create_atoms CPU = 0.002 seconds
set type 1 type/fraction 2 0.83 78393
Setting atom values ...
  3314 settings made for type/fraction
mass 1 1.0
mass 2 1.0
pair_style lj/cut  3.5
pair_modify tail  yes
pair_coeff 1  1  1.0  1.0   # Intearaction between 1 and 1 set with epsilon = 1 and sigma = 1
pair_coeff 1  2  1.5  0.8
pair_coeff 2  2  0.5  0.88

write_data data.0
System init for write_data ...
Neighbor list info ...
  update every 1 steps, delay 10 steps, check yes
  max neighbors/atom: 2000, page size: 100000
  master list distance cutoff = 3.8
  ghost atom cutoff = 3.8
  binsize = 1.9, bins = 9 9 9
  1 neighbor lists, perpetual/occasional/extra = 1 0 0
  (1) pair lj/cut, perpetual
      attributes: half, newton on
      pair build: half/bin/atomonly/newton
      stencil: half/bin/3d
      bin: standard
WARNING: Not all mixed pair coeffs generated from mixing. Use write_data with 'pair ij' option to store all pair coeffs. (../write_data.cpp:312)


#############################
#   M E L T   S Y S T E M   #
#############################

velocity all create 2.4 5300450 mom yes dist gaussian # Assign velocities
                                                    # Temperature 2.4, random number seed, zero linear momentum
                                                                                # Gaussian distribution

timestep 0.002   # simulation timestep
thermo 1000       # output thermodynamic data every 1000 steps bf 100

# Define a fix  in this case with index 1 applied to all
# particles in the simulation. This fix is for simulations
# in the anisotropic NPT ensemble. Note that we use the MTK
# correction.
fix 1 all npt temp 2.4 2.4 0.1 iso 5.68 5.68 0.5 mtk yes tchain 5 pchain 5 # Use NPT ensemble
                                                                         # Set temperature and pressure and damping
                                                                         # Numbers of thermostats in chain and in barostat
run 10000          # run for 10000 steps
Per MPI rank memory allocation (min/avg/max) = 3.642 | 3.644 | 3.648 Mbytes
Step Temp E_pair E_mol TotEng Press Volume 
       0          2.4   -3.5381599            0  0.060940148   -3.0801753         4000 
    1000    2.4444997    -2.819919            0   0.84591377    5.7376844    3839.9081 
    2000    2.4213938   -2.7932334            0   0.83794935    5.9366372    3837.9906 
    3000    2.4372094   -2.7995825            0   0.85531759    5.7396108    3848.7073 
    4000    2.3738392   -2.7512756            0   0.80859304    5.8768769    3855.5461 
    5000    2.4310049   -2.7856156            0   0.85998014    5.6014604    3874.4465 
    6000    2.4118012   -2.8591192            0   0.75767815    5.6920667    3816.2001 
    7000    2.4117941   -2.8014946            0   0.81529208    5.8849881    3819.2133 
    8000    2.4094226   -2.7852587            0   0.82797165    5.4634151    3889.4911 
    9000    2.3543272   -2.7959575            0   0.73465046    5.6166565    3866.5997 
   10000    2.3820745   -2.7913244            0   0.78089404    6.0875122    3801.9347 
Loop time of 2.55551 on 48 procs for 10000 steps with 4000 atoms

Performance: 676186.797 tau/day, 3913.118 timesteps/s
99.6% CPU use with 48 MPI tasks x no OpenMP threads

MPI task timing breakdown:
Section |  min time  |  avg time  |  max time  |%varavg| %total
---------------------------------------------------------------
Pair    | 1.1323     | 1.2009     | 1.264      |   2.9 | 46.99
Neigh   | 0.21215    | 0.22001    | 0.23094    |   0.8 |  8.61
Comm    | 0.79806    | 0.87231    | 0.94525    |   3.5 | 34.13
Output  | 0.000252   | 0.00026244 | 0.00031305 |   0.0 |  0.01
Modify  | 0.22708    | 0.24674    | 0.26496    |   2.0 |  9.66
Other   |            | 0.01525    |            |       |  0.60

Nlocal:        83.3333 ave          95 max          74 min
Histogram: 3 3 9 6 11 5 4 3 1 3
Nghost:        1689.62 ave        1733 max        1666 min
Histogram: 3 5 13 10 10 2 2 2 0 1
Neighs:        10034.1 ave       11728 max        8526 min
Histogram: 1 4 3 11 8 10 7 1 1 2

Total # of neighbors = 481636
Ave neighs/atom = 120.40900
Neighbor list builds = 911
Dangerous builds = 227

# Equilibrate just above the melting temperature to avoid step fn in T

fix 1 all npt temp 1.25 1.25 0.1 iso 5.68 5.68 0.5 mtk yes tchain 5 pchain 5
run 2000
Per MPI rank memory allocation (min/avg/max) = 3.643 | 3.645 | 3.649 Mbytes
Step Temp E_pair E_mol TotEng Press Volume 
   10000    2.3820745   -2.7913244            0   0.78089404    6.0875122    3801.9347 
   11000    1.2433289   -4.1433931            0    -2.278866      5.68785    2965.5197 
   12000    1.2515306   -4.1539005            0   -2.2770739    5.7779706    2957.4922 
Loop time of 0.633648 on 48 procs for 2000 steps with 4000 atoms

Performance: 545413.499 tau/day, 3156.328 timesteps/s
99.6% CPU use with 48 MPI tasks x no OpenMP threads

MPI task timing breakdown:
Section |  min time  |  avg time  |  max time  |%varavg| %total
---------------------------------------------------------------
Pair    | 0.28781    | 0.30769    | 0.33931    |   1.8 | 48.56
Neigh   | 0.040598   | 0.042691   | 0.04819    |   0.6 |  6.74
Comm    | 0.20076    | 0.23208    | 0.25059    |   2.2 | 36.63
Output  | 5.2198e-05 | 5.3643e-05 | 6.8281e-05 |   0.0 |  0.01
Modify  | 0.03924    | 0.046249   | 0.051631   |   1.8 |  7.30
Other   |            | 0.004889   |            |       |  0.77

Nlocal:        83.3333 ave          92 max          76 min
Histogram: 1 3 3 13 5 15 5 0 1 2
Nghost:        2020.23 ave        2051 max        1993 min
Histogram: 3 2 5 8 9 10 5 2 2 2
Neighs:        12915.8 ave       14324 max       11457 min
Histogram: 2 1 5 5 11 8 6 7 2 1

Total # of neighbors = 619956
Ave neighs/atom = 154.98900
Neighbor list builds = 143
Dangerous builds = 7

#############################
# L I N E A R  Q U E N C H  #
#############################

# Define solid atoms. This closely follows ten Wolde  Ruiz-Montero and Frenkel  Faraday Discuss  1996  104  93-110
# Compute components of the per-atom q6 vector
compute q6 all orientorder/atom degrees 1 6 components 6 nnn NULL cutoff 1.3 # compute the Q6 parameter.
                                                                             # Use all neighbours within 1.3 unit cell.

# get number of connections
compute coord_number all coord/atom orientorder q6 0.5

# An atom is solid if it has 8 or more connections (of a possible 14)
variable is_solid atom c_coord_number>=8
group solid dynamic all var is_solid    # Must be dynamic to update
dynamic group solid defined

# do clustering
compute cluster solid cluster/atom 1.3 # Create a cluster where all atoms within are solid and max 1.3 units from another member

# define chunks one chunk per cluster
compute clus_chunks solid chunk/atom c_cluster nchunk every compress yes  # Says which atoms are in which chunk

# count the size of each chunk
compute size_chunks solid property/chunk clus_chunks count


# Find the maximum entry in the vector of chunk sizes
variable max_n equal max(c_size_chunks)


# Thermo style which includes this variable
# thermo_style custom step temp pe vol v_max_n

thermo ${N}  # Print the thermo information every 100 steps
thermo 1000  

# Reset the npt fix at a lower temperature (below freezing)
fix 1  all npt temp  ${temp} ${temp}  0.1  iso  5.68  5.68  0.5  mtk yes tchain  5  pchain  5
fix 1  all npt temp  0.45 ${temp}  0.1  iso  5.68  5.68  0.5  mtk yes tchain  5  pchain  5
fix 1  all npt temp  0.45 0.45  0.1  iso  5.68  5.68  0.5  mtk yes tchain  5  pchain  5

dump dmp2 all dcd ${N} traj.dcd
dump dmp2 all dcd 1000 traj.dcd


compute msd all msd com yes
variable twopoint equal c_msd[4]/6/(step*dt+1.0e-6)
fix 9 all vector 10 c_msd[4]
variable fit equal slope(f_9)/6/(10*dt)
thermo_style custom step temp pe c_msd[4] v_twopoint v_fit v_max_n

fix 1 all npt temp 1.25 ${temp} 0.1 iso 5.68 5.68 0.5 mtk yes tchain 5 pchain 5
fix 1 all npt temp 1.25 0.45 0.1 iso 5.68 5.68 0.5 mtk yes tchain 5 pchain 5
run 5000000 # 5000000  # Run for this many steps
Neighbor list info ...
  update every 1 steps, delay 10 steps, check yes
  max neighbors/atom: 2000, page size: 100000
  master list distance cutoff = 3.8
  ghost atom cutoff = 3.8
  binsize = 1.9, bins = 8 8 8
  4 neighbor lists, perpetual/occasional/extra = 1 3 0
  (1) pair lj/cut, perpetual
      attributes: half, newton on
      pair build: half/bin/atomonly/newton
      stencil: half/bin/3d
      bin: standard
  (2) compute orientorder/atom, occasional
      attributes: full, newton on
      pair build: full/bin/atomonly
      stencil: full/bin/3d
      bin: standard
  (3) compute coord/atom, occasional
      attributes: full, newton on
      pair build: full/bin/atomonly
      stencil: full/bin/3d
      bin: standard
  (4) compute cluster/atom, occasional
      attributes: full, newton on
      pair build: full/bin/atomonly
      stencil: full/bin/3d
      bin: standard
Per MPI rank memory allocation (min/avg/max) = 9.833 | 9.838 | 9.841 Mbytes
Step Temp PotEng c_msd[4] v_twopoint v_fit v_max_n 
   12000    1.2515306   -4.1539005 1.6688352e-30 1.1589133e-32 8.3333333e+20            1 
   13000    1.2204073   -4.1650257   0.83237769 0.0053357542   0.07080737            2 
   14000    1.2440726   -4.1033856     1.740304  0.010358952  0.072719447            1 
   15000    1.2669486   -4.1906481    2.6391306  0.014661836  0.073819031            2 
   16000    1.2317154   -4.1429318    3.5651834  0.018568663  0.075442839            2 
   17000    1.2495764   -4.1676639    4.3622718  0.021383685  0.074550657            3 
   18000    1.2497731   -4.1435193    5.2254131  0.024191727  0.073902212            3 
   19000    1.2865928   -4.1751824    6.1301709  0.026886714  0.073515197            1 
   20000    1.2486808   -4.1541934    7.0172743  0.029238642  0.073523297            3 
   21000    1.2441633   -4.1513094    7.9010198  0.031353253  0.073454683            3 
   22000    1.2694798   -4.1725442    8.7040865  0.032970024  0.073249018            2 
   23000    1.2640453   -4.1389983    9.5533013   0.03461341  0.072914266            3 
   24000    1.2611136   -4.1782623    10.490248  0.036424472  0.072734304            2 
   25000    1.2404754   -4.1608025    11.436337  0.038121121  0.072894958            2 
   26000    1.2634487   -4.1436506    12.413977  0.039788389  0.073199985            1 
   27000    1.2494354    -4.186089    13.270058  0.040956967  0.073420531            2 
   28000    1.2778777    -4.153671    14.205383  0.042277926  0.073679011            1 
   29000    1.2138155   -4.1609235    15.012056  0.043138092  0.073737991            1 
   30000    1.2563434   -4.1467788    15.942788  0.044285523  0.073779436            1 
   31000    1.2515681   -4.1814127     16.79696  0.045153118  0.073760568            2 
   32000    1.2342157   -4.1304218    17.737566  0.046191578  0.073786002            2 
   33000    1.2592706   -4.1664139    18.672498  0.047152771  0.073845723            4 
   34000    1.2185684   -4.1866075    19.410076  0.047573715  0.073985404            3 
   35000    1.2354039     -4.15445    20.361925  0.048480773  0.074020791            5 
   36000    1.2559873   -4.1712316    21.158434  0.048977856  0.073967747            1 
   37000    1.2654534   -4.1639344    21.938364  0.049410728  0.073896035            3 
   38000    1.2663715   -4.1257503    23.018367  0.050478875  0.073835178            2 
   39000     1.243783   -4.1360673    23.852485  0.050966847  0.073847536            1 
   40000    1.2395456   -4.1495311    24.835567  0.051740764  0.073833776            2 
   41000    1.2564347   -4.1677932    25.400628  0.051627292  0.073765919            2 
   42000    1.2410584   -4.1422704    26.504896  0.052589079  0.073742545            1 
   43000    1.2452748   -4.1525455    27.637852  0.053561727  0.073802472            2 
   44000    1.2506375   -4.1559398    28.392731  0.053774112   0.07385523            1 
   45000    1.2893807   -4.1792129     29.32627  0.054307906  0.073911705            2 
   46000    1.2543692   -4.1623818    30.231778  0.054767713  0.074012077            3 
   47000    1.2344169   -4.1751361    30.946636  0.054869921  0.074029486            2 
   48000     1.251195    -4.157845    31.728346  0.055083933  0.074013448            3 
   49000     1.242696    -4.161345    32.471832  0.055224204  0.073953034            2 
   50000    1.2180123   -4.1360452    33.716986  0.056194976  0.073911336            5 
   51000    1.2582727   -4.1604822    34.672942  0.056655134  0.073944208            2 
   52000    1.2425629   -4.1520748    35.369678  0.056682176  0.073966584            2 
   53000    1.2612358   -4.1656737    36.403659  0.057238457  0.073981577            2 
   54000    1.2453147   -4.1781667    37.465011  0.057816375  0.074015785            1 
   55000    1.2283039   -4.1406846    38.458117  0.058269873  0.074099054            2 
   56000    1.2532419   -4.1745813    39.470162   0.05873536   0.07420546            1 
   57000    1.2197332   -4.1424665    40.230921  0.058817135  0.074284394            2 
   58000    1.2319109   -4.1681247     40.84126  0.058679971  0.074324436            1 
   59000    1.2514204   -4.1462989    41.697902  0.058895342  0.074337467            1 
   60000    1.2434167     -4.14505    42.792148  0.059433538  0.074343654            2 
   61000    1.2237713   -4.1706566    43.335257  0.059201171   0.07433468            1 
   62000    1.2506215   -4.2088799    44.110275  0.059288003  0.074302714            5 
   63000    1.2283584   -4.2066169    45.151718  0.059724495   0.07426721            1 
   64000    1.2438429   -4.1409138    46.324712  0.060318635  0.074258719            3 
   65000    1.2430225   -4.1761507    47.205554  0.060519941  0.074268358            3 
   66000    1.2568539   -4.2048333    47.881399  0.060456312   0.07424542            1 
   67000    1.2319217   -4.1360404    48.897296  0.060817532  0.074241902            1 
   68000    1.2222945     -4.14457    49.991473  0.061264059  0.074254217       -1e+20 
   69000    1.2538267   -4.1842534     50.72456  0.061261546  0.074274553            2 
   70000    1.2741403    -4.177336    51.435714  0.061232992  0.074269509            3 
   71000    1.2308414   -4.1553091    52.415311  0.061520317  0.074264429            1 
   72000    1.2348879    -4.177142    52.745612  0.061048162  0.074238539            2 
   73000    1.2257611   -4.1870541    53.476916  0.061046707  0.074196088            2 
   74000    1.2553825   -4.1756319    54.548351  0.061428323  0.074149809            1 
   75000    1.2465351   -4.1637133    55.627627  0.061808474  0.074116884            1 
   76000    1.2156933   -4.2287781    56.197631   0.06162021  0.074068366            1 
   77000    1.2346981   -4.1431373    57.429821  0.062153486  0.074042544            3 
   78000    1.2521016   -4.1805019    58.417839  0.062412221  0.074027333            1 
   79000    1.2456804   -4.1587147    59.245527  0.062495281  0.074022903            3 
   80000    1.2384603   -4.1640765     60.29794  0.062810354   0.07401323            1 
   81000    1.2534178    -4.214608    61.626328  0.063401572  0.074028422            3 
   82000    1.2546571   -4.1682465    62.425195  0.063440238  0.074047512            1 
   83000    1.2526394   -4.1934703     62.98599  0.063238945  0.074053252            2 
   84000    1.2141872    -4.150345    64.406652  0.063895487  0.074063167            1 
   85000    1.2233623   -4.1586902    64.867217  0.063595311   0.07407264            2 
   86000    1.2607869   -4.1698713    65.930487  0.063886131  0.074073707            3 
   87000    1.2150194   -4.1602173    67.016815  0.064192351  0.074085529            2 
   88000    1.2686142   -4.1939627    67.556359  0.063973824  0.074094144            3 
   89000    1.2336879   -4.1668027    68.224724  0.063880827  0.074105944            1 
   90000    1.2583373   -4.1775029    69.413965  0.064272189  0.074123188            2 
   91000    1.2464638   -4.1485202    70.699394  0.064743034  0.074139082            2 
   92000    1.2165222   -4.1691814    70.962898  0.064277987  0.074163617            2 
   93000     1.251781   -4.1776432    72.633744  0.065083999  0.074200086            1 
   94000    1.2328849      -4.1614    73.473962  0.065136491  0.074244426            4 
   95000    1.2278367   -4.1664656    74.540853  0.065386713  0.074292137            1 
   96000    1.2239095     -4.18718    75.460995  0.065504336  0.074339064            1 
   97000    1.2535852   -4.1482216    76.407604  0.065642271  0.074386348            2 
   98000    1.2355474   -4.1610384    77.247352  0.065686523   0.07443017            1 
   99000    1.2569413   -4.2049968    77.445133  0.065189506  0.074457916            3 
  100000    1.2331768   -4.1633777    78.800301  0.065666917  0.074483865            2 
  101000    1.2267001   -4.1668106    79.808958  0.065848975  0.074511749            2 
  102000    1.2633348    -4.165428    80.526508   0.06578963  0.074536557            1 
  103000    1.2207379   -4.2031377    80.985205   0.06552201  0.074546197            4 
  104000    1.2623237   -4.1731103     82.38573  0.066014206   0.07454967            2 
  105000    1.2460199   -4.2150889    82.947275  0.065831171  0.074554269            3 
  106000    1.2475924    -4.193992    84.131022   0.06614074  0.074564727            2 
  107000    1.2489486     -4.20728    84.989724  0.066191373  0.074571457            1 
  108000    1.2065256   -4.1662458    85.960275  0.066327372  0.074572879            2 
  109000    1.2563163   -4.1870414     86.26517  0.065951965  0.074571943            2 
  110000    1.2260691   -4.1877166    87.279765  0.066121034  0.074568272            3 
  111000    1.2359514   -4.1707318    88.306256  0.066295987  0.074565612            1 
  112000    1.2169768   -4.1474453    89.561932  0.066638342    0.0745683            2 
  113000    1.2440433   -4.1691881    89.960328  0.066342424  0.074570903            1 
  114000    1.2385878   -4.1404169    91.555995  0.066926897  0.074578779            2 
  115000    1.2104663    -4.163275    92.372252  0.066936414  0.074581421            2 
  116000    1.2310651   -4.1826436    92.774372  0.066648256  0.074586961            3 
  117000    1.2381282   -4.1916976     93.48727  0.066586375  0.074586927            2 
  118000    1.2434954   -4.1701552    94.591001  0.066801554  0.074574113            3 
  119000    1.2341846   -4.1941006    95.222825   0.06668265  0.074564605            4 
  120000    1.2371504   -4.1908159    96.250055  0.066840316  0.074557183            2 
  121000    1.1990763   -4.1601455    97.972103    0.0674739  0.074567806            2 
  122000    1.2088205   -4.1988154    98.600166   0.06734984  0.074583178            3 
  123000    1.2187547   -4.1916989     99.22248  0.067223902   0.07459238            2 
  124000    1.2521166   -4.1805315    100.51991  0.067553702  0.074599934            2 
  125000    1.2344796   -4.1850296    101.16958  0.067446389  0.074610557            5 
  126000    1.2431399   -4.1514876    102.04169  0.067487888  0.074625304            2 
  127000    1.2402889   -4.1739659    102.87639  0.067504192  0.074631979            3 
  128000    1.2142601   -4.1814754    103.33624    0.0672762  0.074624106            2 
  129000    1.2594834   -4.1862701    104.45728   0.06747886  0.074623645            1 
  130000    1.1973475   -4.2142987    104.55873  0.067024827  0.074612535            1 
  131000    1.2253764   -4.1819674    106.09032  0.067487478   0.07459637            2 
  132000    1.2317393   -4.2031497    107.13509  0.067635789   0.07458929            3 
  133000    1.2406687   -4.1708082    108.25892    0.0678314  0.074593631            4 
  134000    1.1956391   -4.1784774    108.33431  0.067372081  0.074587923            2 
  135000    1.1971024   -4.2084365    109.42199   0.06754444  0.074578859            1 
  136000     1.221353   -4.2024856    110.28655  0.067577542  0.074568594            3 
  137000    1.2440885   -4.1799889    110.67614  0.067321255  0.074555169            3 
  138000    1.2240822   -4.2098841    111.40293  0.067272302  0.074532049            1 
  139000    1.2195612   -4.2367908    112.74141  0.067590772  0.074513697            2 
  140000    1.2425098   -4.1523464    113.60286  0.067620748  0.074496073            2 
  141000    1.2161518   -4.1915273     114.4535  0.067643914   0.07447894            2 
  142000    1.2298501   -4.2188394    114.88529  0.067420945  0.074458606            1 
  143000    1.2267582   -4.1595854    116.26214  0.067751829  0.074436693            3 
  144000    1.2076378   -4.1982147     116.8814    0.0676397  0.074410169            3 
  145000    1.2427075   -4.1801224    117.85919  0.067735166  0.074384536            2 
  146000    1.2549244   -4.1905956    118.58115  0.067683304  0.074362177            3 
  147000    1.2461263   -4.1938199    119.45614  0.067718898  0.074337609            2 
  148000    1.2252545   -4.2094462    120.56513  0.067885772   0.07431559            2 
  149000     1.216815   -4.1971597    120.93923  0.067639392   0.07429538            1 
  150000    1.2397268   -4.1656921    122.94618  0.068303436  0.074284301            3 
  151000    1.2268757   -4.2026558    123.40051  0.068101824  0.074273731            3 
  152000    1.2369383   -4.1829711    124.55343  0.068285872  0.074262348            2 
  153000    1.1922693   -4.1829227    125.45148  0.068328693  0.074254076            1 
  154000    1.2346106   -4.2010298    126.07311  0.068221379  0.074248164            3 
  155000    1.2040992   -4.2061778    126.63808   0.06808499    0.0742435            2 
  156000    1.2334875   -4.1792532    127.70029  0.068215964    0.0742352            1 
  157000    1.2323355   -4.2149422    128.30362  0.068101709  0.074224489            2 
  158000    1.2651653    -4.211279    128.62439  0.067839866  0.074205994            3 
  159000    1.2051157    -4.217892    129.43954   0.06784043  0.074178009            2 
  160000    1.2111324   -4.1729099    130.51279   0.06797541  0.074150179            3 
  161000    1.2071795    -4.205711    131.22156  0.067920064  0.074119219            2 
  162000    1.2495039   -4.2003007    132.08594  0.067945441  0.074094128            5 
  163000    1.2242084   -4.1617331    133.46635  0.068234332  0.074071157            3 
  164000    1.2055511   -4.1739154    134.70335  0.068446823  0.074057236            1 
  165000    1.2279744   -4.1643955    135.76832  0.068569858  0.074049079            1 
  166000    1.2468399   -4.2216246    135.99706  0.068271616  0.074041077            4 
  167000    1.2102869   -4.1814295    137.80392   0.06876443  0.074027548            2 
  168000    1.2463001   -4.1637718    137.69926  0.068303206  0.074009604            1 
  169000    1.2179791   -4.1763357    137.67205  0.067885625  0.073983573            2 
  170000    1.2167149   -4.2111988    139.00431  0.068139368  0.073964196            3 
  171000    1.2173206   -4.1912498    140.18395  0.068315765   0.07394426            1 
  172000    1.2036577   -4.1686548    140.94815  0.068288832  0.073923057            2 
  173000    1.2250595   -4.1914033    142.00702   0.06840415  0.073905453            3 
  174000    1.2328466   -4.2144448    141.97861  0.067997421  0.073886555            6 
  175000    1.2297785   -4.1567293    143.84112  0.068495772  0.073866646            2 
  176000    1.2045598   -4.2086579    144.39794  0.068370235  0.073849779            3 
  177000    1.2018896   -4.1781109    146.03874   0.06875647  0.073837018            1 
  178000     1.219634   -4.2181632    146.51833  0.068594723  0.073820058            3 
  179000    1.1936135   -4.2217899    147.31636  0.068583034  0.073802569            1 
  180000     1.239934   -4.1900554    148.08743  0.068558995  0.073786334            5 
  181000    1.2031229    -4.222004    148.40736  0.068327516   0.07377227            3 
  182000    1.2336731   -4.1971223    149.15586  0.068294806  0.073752136            3 
  183000    1.2207545   -4.2320658     150.3504  0.068465573   0.07373633            3 
  184000    1.1938368   -4.2190153    151.40191  0.068569706  0.073724046            2 
  185000    1.2370528   -4.2181563     151.5517   0.06826653  0.073698464            5 
  186000    1.2334692   -4.2048894    152.68087  0.068405409  0.073677252            2 
  187000    1.2294163   -4.1669767    154.03102  0.068641272  0.073657061            2 
  188000    1.2417793   -4.2359659    154.13701  0.068323145  0.073632479            3 
  189000    1.2246399   -4.2072064    155.57891  0.068597401  0.073608603            4 
  190000    1.2098791   -4.1697738    156.67841  0.068718602   0.07358948            2 
  191000    1.2070385   -4.2286024    157.14503  0.068562404  0.073571428            5 
  192000    1.2340811   -4.2344971    158.46376  0.068777674  0.073555278            2 
  193000    1.1974102   -4.2245764    159.22226  0.068748815  0.073538913            3 
  194000    1.2137008   -4.1564251     159.8714  0.068673283  0.073525681            1 
  195000    1.2162196   -4.1886967    160.40057   0.06854725  0.073513275            1 
  196000    1.1949292   -4.1921653    161.35247  0.068602241  0.073497887            4 
  197000    1.2050286   -4.2175388    162.34758  0.068674951  0.073480227            2 
  198000    1.2596098   -4.2638945    163.35774  0.068753258  0.073460594            2 
  199000    1.2369129   -4.1641818    164.57873  0.068919064  0.073445046            3 
  200000    1.2127947   -4.1944307    165.06997  0.068779153  0.073432203            1 
  201000     1.253574   -4.2022264    166.42552   0.06899897  0.073417691            2 
  202000    1.2074411   -4.2043266    166.06707  0.068509517  0.073399833            1 
  203000    1.2207028     -4.17995    168.17244  0.069036306  0.073386376            3 
  204000    1.2250171    -4.225784    168.14686  0.068687444  0.073375147            1 
  205000    1.2185727   -4.1783859    169.80963  0.069028305  0.073361781            2 
  206000    1.2006976     -4.21976    170.58736  0.069007833   0.07335312            1 
  207000    1.2110349   -4.1971529    171.40641  0.069004189  0.073348164            1 
  208000    1.2060381   -4.1910908    172.39198  0.069067301  0.073335368            2 
  209000    1.1959525   -4.1574783    174.21602  0.069464124  0.073324682            2 
  210000    1.2099193   -4.2066839    173.55754  0.068872038   0.07331539            2 
  211000    1.2115411   -4.2005838    174.49784  0.068916998  0.073303574            2 
  212000    1.2123802   -4.1715183    175.83728  0.069118427  0.073286284            2 
  213000     1.228389   -4.1754307    176.21068  0.068940014  0.073269868            3 
  214000    1.2156533   -4.2000882    176.12537  0.068584645  0.073248799            5 
  215000    1.2226067    -4.174476    177.16757  0.068669601  0.073227603            2 
  216000    1.2131305   -4.1889472     178.0012  0.068673303  0.073205747            2 
  217000    1.2194339   -4.2157415    178.79186  0.068660469  0.073180138            1 
  218000    1.2248057    -4.183578    181.07147  0.069216921  0.073156569            4 
  219000    1.2304403     -4.18642    180.99818  0.068872975  0.073140642            1 
  220000    1.2078472   -4.2066359    182.07762  0.068968797  0.073124451            2 
  221000    1.2308243   -4.2512655    182.42226  0.068786675  0.073108897            2 
  222000      1.22434   -4.2142069    183.80763  0.068996859  0.073093328            2 
  223000    1.2092553   -4.2284488    184.42333  0.068917536  0.073079165            1 
  224000    1.2028622   -4.2161863    185.51372  0.069015522  0.073064769            2 
  225000    1.2019653    -4.224448    186.94601  0.069239263  0.073052032            1 
  226000    1.2354356   -4.2187232    186.89596  0.068914438    0.0730399            2 
  227000    1.1909033   -4.2004143    188.65685  0.069257285  0.073027508       -1e+20 
  228000    1.2027728   -4.1907294    188.63335  0.068944939   0.07301123            2 
  229000    1.1952771   -4.1739046    189.63652  0.069008921  0.072994177            2 
  230000    1.2277948   -4.1989774    189.96758  0.068828834  0.072976668            2 
  231000    1.2111501   -4.2345115     190.5725  0.068749099  0.072958783            3 
  232000    1.2033717   -4.1710096    191.97039  0.068954882  0.072940232            1 
  233000    1.2050481   -4.2535545    191.72216  0.068570156  0.072916417            2 
  234000    1.2243102   -4.2175374     192.4552  0.068538177  0.072891158            4 
  235000    1.2066196   -4.2030511    193.20853  0.068513662  0.072860874            2 
  236000    1.1913456   -4.2015561    193.33333  0.068267417  0.072827183            2 
  237000    1.2106885   -4.2302999    194.31499  0.068324538  0.072799885            2 
  238000     1.221728   -4.2084371    195.02657  0.068286614  0.072770998            2 
  239000    1.2118313   -4.2158328     196.1226  0.068383054  0.072739753            2 
  240000    1.1968614   -4.2077257    196.78007  0.068326412  0.072711907            2 
  241000    1.2049663   -4.1881938    198.22287  0.068541795  0.072685894            3 
  242000    1.1906987   -4.2253549    198.07502  0.068207653  0.072656033            3 
  243000    1.2188677   -4.2324641    199.00299  0.068245197  0.072626062            2 
  244000    1.2151965    -4.241581    200.47413   0.06846794  0.072598493            1 
  245000    1.2408224   -4.2286187    200.51429  0.068202141  0.072571973            1 
  246000    1.2312622   -4.1945496    203.54764  0.068952454  0.072551495            3 
  247000    1.2312401   -4.2025381    204.19459  0.068891562  0.072533201            1 
  248000    1.2024794   -4.2170094    204.31267  0.068653452  0.072515973            2 
  249000    1.1987964   -4.1832853    206.33875  0.069055806  0.072499878            2 
  250000    1.2176234   -4.2129506    205.86594  0.068621979  0.072486163            2 
  251000     1.207205   -4.2321648    207.32848  0.068834156  0.072469885            3 
  252000    1.2341774   -4.1895085    208.57377  0.068972806  0.072456174            1 
  253000    1.1832182   -4.2402382    208.60182  0.068709428  0.072441447            2 
  254000    1.2096253   -4.2179701    209.73212   0.06880975  0.072425489            2 
  255000    1.2263468   -4.2708872    210.64457  0.068838093  0.072407175            1 
  256000    1.2349624    -4.212783     210.6258  0.068563085  0.072389269            1 
  257000    1.2164962   -4.2207725     212.2899  0.068835895  0.072372836            1 
  258000    1.2271088    -4.194087    212.93335  0.068776922  0.072357335            2 
  259000      1.19473   -4.2129218    213.97691  0.068847138  0.072342416            3 
  260000    1.2031788   -4.1944217    214.18684  0.068649629   0.07232586            3 
  261000    1.1916988   -4.1572466    215.72689  0.068878318  0.072309356            1 
  262000    1.2044079   -4.2250284    216.08581  0.068729582  0.072293793            7 
  263000    1.2010012   -4.2060093     217.6024  0.068948795   0.07227757            3 
  264000       1.2075   -4.2016562    218.18289  0.068870861  0.072261536            4 
  265000    1.2042311   -4.2182372    219.56732  0.069046327  0.072245051            2 
  266000    1.2259026   -4.1861491    219.95741  0.068908963  0.072227838            2 
  267000    1.1950087   -4.2319471    219.49111  0.068505339  0.072211551            4 
  268000    1.1941276   -4.2384436    221.22055  0.068787484  0.072192711            4 
  269000    1.2123255   -4.2295496     221.5593  0.068636711  0.072174006            1 
  270000    1.1849601   -4.2095379    222.61686  0.068708908  0.072153773            1 
  271000    1.1855474   -4.2126943    224.11512  0.068916089  0.072135169            1 
  272000    1.2164953   -4.1941037    224.85823   0.06889039  0.072116747            3 
  273000     1.197325   -4.2064784    224.97041  0.068672286  0.072100891            2 
  274000    1.2190681   -4.2287327    225.94177  0.068717084  0.072083756            3 
  275000    1.1705952   -4.2174456    227.17079  0.068839632  0.072065495            1 
  276000     1.226745   -4.1833393    227.14443  0.068582256  0.072046736            2 
  277000    1.2429854   -4.2169429    228.64187  0.068785159  0.072027808            5 
  278000    1.2017467   -4.2187662    229.15523  0.068691614  0.072006614            2 
  279000    1.2168372   -4.2188852    229.70392  0.068609294  0.071986943            2 
  280000    1.2084953   -4.1977703    231.74246  0.068970969  0.071971886            3 
  281000    1.1982466   -4.2069061    231.89925  0.068772021  0.071957673            2 
  282000    1.1792164   -4.2000403    232.34923  0.068661119  0.071940715            1 
  283000    1.1940032   -4.2134271    233.32053  0.068704513  0.071921623            4 
  284000    1.1889617   -4.2138442    234.36147  0.068768038  0.071902062            3 
  285000    1.1876141   -4.2790045    233.70072  0.068333545  0.071882005            3 
  286000    1.1983363   -4.2379099    235.37787  0.068583296  0.071859131            3 
  287000    1.1942143   -4.2289599    236.48385  0.068665463  0.071839061            1 
  288000     1.218961   -4.2289922    236.98257  0.068571346   0.07181801            1 
  289000    1.2024588   -4.2072669      236.196  0.068107267  0.071796313            3 
  290000    1.1932952    -4.195867    238.95952  0.068666527  0.071772886            2 
  291000    1.2026408   -4.2161605    239.10526  0.068472297  0.071749821            1 
  292000    1.2272072   -4.2076178    240.58074  0.068658886  0.071726536            1 
  293000    1.2167638   -4.2494782     240.1081  0.068290131  0.071705364            3 
  294000    1.2093403   -4.2415565    241.04532  0.068323503  0.071683781            3 
  295000    1.2049588    -4.237062     242.0053  0.068363079  0.071661454            3 
  296000     1.198525   -4.2125019    242.53208  0.068280429  0.071643426            3 
  297000    1.2107727   -4.2141617    244.14875  0.068504138  0.071624374            2 
  298000    1.2265001   -4.2113697     245.5561  0.068667813  0.071604107            2 
  299000    1.1872804   -4.2279211    245.91278  0.068537564  0.071587535            3 
  300000    1.2002079   -4.2044235    247.79477   0.06883188  0.071570205            2 
  301000     1.219092    -4.229816     248.0181  0.068665033  0.071553839            3 
  302000    1.2240023   -4.2144852    248.23267  0.068496875  0.071537451            2 
  303000    1.2061922   -4.2674025    248.82619  0.068434045  0.071518695            3 
  304000    1.2015978    -4.239589    249.34854  0.068352121  0.071496815            2 
  305000    1.2088204    -4.203022    251.34838   0.06867442  0.071478398            2 
  306000    1.2010301   -4.2476288    250.99803  0.068354583    0.0714607            2 
  307000    1.1962833      -4.2459    252.11732  0.068435754  0.071441497            1 
  308000    1.2043768   -4.1994685    253.44612  0.068573084  0.071425291            2 
  309000    1.1736382   -4.2281704    252.36414  0.068059369  0.071406825            3 
  310000    1.1940258   -4.2755568    254.35979  0.068376287   0.07139215            1 
  311000     1.192197   -4.2485457    255.41931   0.06844033  0.071376989            2 
  312000    1.1992373   -4.2332615    257.14133   0.06868091  0.071362329            4 
  313000    1.2038416    -4.274133    256.84636   0.06838295  0.071349754            2 
  314000    1.1983549   -4.2724932    256.42167   0.06805246  0.071331739            2 
  315000    1.2468439   -4.2787017    258.74177  0.068450203  0.071314649            5 
  316000    1.2115666   -4.2430409    260.43638  0.068680481     0.071302            4 
  317000    1.2045708   -4.2422379      261.268  0.068682439  0.071288196            1 
  318000     1.195514   -4.2380176    260.84261  0.068354981  0.071273656            1 
  319000    1.1712818   -4.2254131    262.73416  0.068634838  0.071259018            2 
  320000    1.1955011   -4.2227976    264.48023   0.06887506  0.071244974            2 
  321000    1.2021295   -4.2098437    265.60793  0.068953253    0.0712343            2 
  322000    1.2301766   -4.2350964    265.07946  0.068602345  0.071220287            2 
  323000    1.2117022   -4.2210611    266.46284  0.068746862  0.071209116            2 
  324000    1.1829223   -4.2316997    268.17488  0.068975021  0.071201911            2 
  325000    1.1942379   -4.2203553    267.80092  0.068666903  0.071191926            2 
  326000    1.1990126   -4.2553922    268.35456   0.06859779  0.071181419            3 
  327000    1.2023052   -4.2160748    267.66578  0.068212482  0.071168563            4 
  328000    1.1996639   -4.2410531    269.52272  0.068476302  0.071157331            1 
  329000    1.2232032   -4.2078634    270.14604  0.068426049  0.071143276            3 
  330000    1.2091248   -4.2238488    271.66193  0.068601497   0.07113083            1 
  331000    1.2097877   -4.2314432     272.4155  0.068583962  0.071119252            1 
  332000    1.2215758   -4.2420507    272.66811   0.06844079  0.071106843            1 
  333000    1.2219872   -4.2364022    273.42616  0.068424965  0.071092065            6 
  334000     1.183444   -4.2162381    275.67266  0.068780603   0.07107942            4 
  335000    1.2079722   -4.2623142    274.73187  0.068341261  0.071065422            3 
  336000    1.1772516   -4.2280457    274.47395  0.068073895  0.071050864            1 
  337000    1.2101913    -4.200471    277.51934  0.068624961  0.071037502            1 
  338000    1.2057177   -4.2403952    278.16668  0.068581528     0.071024            2 
  339000    1.1689708   -4.2252882     279.5531  0.068720033   0.07100971            1 
  340000    1.1848539   -4.2202946    279.37286  0.068473739  0.070997922            3 
  341000    1.1937147   -4.2625689    280.76341  0.068612759  0.070984673            3 
  342000    1.1597768   -4.1983822    281.47864  0.068586413  0.070971139            1 
  343000    1.1782338   -4.2000696    283.29916  0.068828756  0.070959357            3 
  344000    1.1991089   -4.2387419    284.36694   0.06888734  0.070949728            3 
  345000    1.1996326   -4.2626042    283.00717   0.06835922  0.070939027            2 
  346000    1.2084215    -4.207995    285.17115  0.068682839  0.070931405            2 
  347000    1.2178556   -4.2510024    286.80267  0.068876722  0.070925131            2 
  348000    1.1949722   -4.2308177    286.55934  0.068620531  0.070918735            2 
  349000    1.1946107   -4.2547451    287.75292  0.068708911  0.070910424            3 
  350000    1.1947655   -4.2214866    289.19053  0.068854887  0.070902565            2 
  351000    1.1834852   -4.2401083    289.53835  0.068741298  0.070895262            4 
  352000    1.1959707    -4.229206    290.11228  0.068681884  0.070885637            4 
  353000    1.1840358   -4.2429211    289.84777  0.068424875  0.070875598            2 
  354000    1.1874132   -4.2479533    291.46376  0.068611995  0.070866197            1 
  355000    1.1768294   -4.2648227    292.66443   0.06870057  0.070857227            2 
  356000    1.1885261   -4.2494476    292.09131  0.068373433  0.070844072            2 
  357000     1.181948   -4.2153523    293.69195  0.068555545  0.070832426            3 
  358000    1.1799154   -4.2240652    293.80455  0.068390259  0.070818529            2 
  359000    1.2321582   -4.2119108    296.72777  0.068878311  0.070807306            2 
  360000    1.2131239   -4.2339012    294.99746  0.068286448  0.070794899            4 
  361000    1.1877172    -4.245598    297.70152  0.068721495  0.070785984            3 
  362000    1.1963553   -4.2511002    297.82437  0.068559937  0.070775322            1 
  363000    1.1883529    -4.283489    297.90913  0.068390526   0.07076512            2 
  364000    1.1832621   -4.2392374    297.71174   0.06815745  0.070754856            2 
  365000    1.2164573   -4.2446788     300.0653   0.06850806  0.070744025            4 
  366000    1.2248117   -4.2590311    300.37701  0.068391852  0.070730769            2 
  367000    1.1825464   -4.2639993    300.63447  0.068263959  0.070717501            2 
  368000    1.1949356   -4.2517265    301.77917  0.068337674  0.070705232            3 
  369000    1.1872064   -4.2661823    302.85075  0.068394478  0.070693641            2 
  370000    1.1792651   -4.2586198    305.20512  0.068739891  0.070680425            1 
  371000    1.1992931   -4.2507449     304.9952  0.068507458  0.070666942            1 
  372000    1.2066955   -4.2522515      306.383  0.068634186  0.070655674            3 
  373000    1.1840333    -4.212116    307.27322  0.068649067  0.070646208            2 
  374000    1.2039135   -4.2242475    308.27178  0.068688008   0.07063804            4 
  375000    1.1832747   -4.2517187    308.79506  0.068621123  0.070629274            2 
  376000    1.2185314   -4.2126372    311.32142  0.068998542  0.070621249            3 
  377000    1.1986722   -4.2257986    308.53268   0.06819909  0.070612345            2 
  378000    1.1927022   -4.2522996    310.21057  0.068388573  0.070602164            2 
  379000    1.1968489    -4.287615    311.83137  0.068564504  0.070593246            2 
  380000    1.1805974   -4.2404487    311.82415   0.06838249  0.070582461            1 
  381000    1.1977771   -4.2700288    313.60607  0.068592754   0.07057381            2 
  382000    1.1948923   -4.2778515    314.20509  0.068543868  0.070565981            3 
  383000    1.2057716   -4.2535333     318.0629  0.069204287  0.070560589            3 
  384000    1.2171558   -4.2503702    317.43073  0.068886876  0.070555205            2 
  385000    1.2197765    -4.247239    318.21153  0.068876954  0.070549982            2 
  386000    1.1703466   -4.2512897    318.55103  0.068771812  0.070545915            2 
  387000    1.1933978   -4.2433261    320.34332  0.068980043  0.070541908            3 
  388000    1.1880947   -4.2472777    320.90192  0.068922234  0.070537873            1 
  389000      1.20221   -4.2391539    321.86414  0.068951186  0.070534517            1 
  390000    1.2205931   -4.2706215    322.71721  0.068956669  0.070529312            3 
  391000    1.2057701   -4.2449312    323.05131  0.068851514  0.070525402            2 
  392000     1.155035   -4.2420754    322.98108  0.068660944  0.070519191            1 
  393000    1.2025743   -4.2369719    323.66156  0.068630525  0.070513278            2 
  394000    1.1962378    -4.266582    324.80776  0.068698765  0.070506218            3 
  395000    1.1829119   -4.2687695    325.71191  0.068715593  0.070499399            3 
  396000    1.1948825   -4.2527325    325.83295  0.068567539  0.070491738            1 
  397000    1.2041698   -4.2938835    325.79266  0.068386369  0.070482791            2 
  398000    1.2123824   -4.2813577    326.49311  0.068361204  0.070474466            3 
  399000    1.1860773   -4.2733112    327.99599  0.068503757  0.070466244            2 
  400000    1.1901036   -4.2098685    329.60726  0.068668179  0.070456524            1 
  401000    1.1597836   -4.2563216    330.87333  0.068760044  0.070446787            3 
  402000    1.2016749   -4.2556044    331.30006  0.068677459  0.070439138            4 
  403000     1.196121    -4.224106     332.8265  0.068822683  0.070430899            2 
  404000    1.1973781   -4.2553849    333.47595  0.068786293  0.070422509            2 
  405000    1.1774877   -4.2697831    333.01229  0.068521048   0.07041602            2 
  406000    1.1725277   -4.2547723    336.60234   0.06908915  0.070410378            1 
  407000    1.1752038   -4.2514239    335.54397  0.068702696  0.070405152            2 
  408000    1.1740065   -4.2643172    337.79265  0.068993597  0.070401617            1 
  409000    1.1668424   -4.2409118    337.62421  0.068790588   0.07039797            2 
  410000    1.1689859   -4.2444539    339.82905  0.069070944  0.070392908            1 
  411000    1.1890024   -4.2983542     338.7009  0.068674148  0.070388485            1 
  412000    1.1891077   -4.2548401    340.28703  0.068828283  0.070383586            1 
  413000    1.1623516   -4.2754326    340.62813  0.068730454  0.070380245            3 
  414000    1.2036919   -4.2292464    341.69636  0.068779461  0.070374898            2 
  415000    1.1816054   -4.2284794    344.37267  0.069151139  0.070371054            2 
  416000    1.1848769   -4.2444784      342.726  0.068655048   0.07036655            2 
  417000     1.170067   -4.2095308    343.07275  0.068559702   0.07036046            2 
  418000    1.1751799    -4.254939    345.02805  0.068785497   0.07035577            2 
  419000    1.1938805   -4.2628994     346.5051  0.068915095  0.070350805            2 
  420000     1.194793   -4.2395269    346.24619  0.068699641  0.070345551            1 
  421000    1.1960769   -4.2486719    348.65981  0.069014214  0.070341861            2 
  422000    1.1687704   -4.2902505    347.87353  0.068695405  0.070336335            3 
  423000    1.1877036   -4.2643995    349.20358  0.068795031  0.070332711            3 
  424000    1.2091664   -4.2712775     350.4104  0.068869968  0.070326747            2 
  425000    1.1817969   -4.3004189    349.84555  0.068597167  0.070321722            2 
  426000    1.2169831    -4.246859    351.34186  0.068728845  0.070316493            4 
  427000    1.1825699   -4.2889763    352.70143  0.068833222  0.070310528            3 
  428000    1.2071601    -4.271239    352.78417  0.068688507  0.070308533            3 
  429000    1.1784629   -4.2733604    353.77933  0.068721704  0.070307134            1 
  430000    1.1952231   -4.2256955    356.25621  0.069041901  0.070303755            1 
  431000    1.1615449   -4.2507373    357.24546  0.069072982  0.070299688            2 
  432000    1.1716522   -4.2713358    355.33011  0.068543616  0.070294585            3 
  433000      1.17334   -4.2916082    357.47755  0.068798604  0.070289631            3 
  434000    1.2032143   -4.2728429    357.50233  0.068644841  0.070285783            2 
  435000    1.2024797   -4.2470665    359.50918  0.068871491  0.070280382            1 
  436000    1.1926978   -4.2636522    359.60379  0.068731611  0.070275292            1 
  437000    1.2283235    -4.238707    361.12551  0.068864515  0.070269998            4 
  438000    1.1483147   -4.2466046    361.66304  0.068809558  0.070264787            2 
  439000    1.2007486   -4.2874726    362.35522   0.06878421  0.070259891            4 
  440000    1.1613831   -4.2639097    361.98838  0.068558404  0.070256073            2 
  441000    1.1838763   -4.2825894    366.07955   0.06917603  0.070253455            4 
  442000    1.1900483   -4.2798575    364.22703  0.068670254  0.070250526            2 
  443000    1.2033445   -4.2653366    365.70879  0.068793978  0.070247527            2 
  444000    1.1798298   -4.2622634     368.4988  0.069162687  0.070245289            2 
  445000    1.2005182   -4.2490539    368.93359  0.069088688  0.070241447            1 
  446000    1.1709212   -4.2563878    368.20405  0.068797468  0.070236889            2 
  447000    1.1865506   -4.2653697    369.67681  0.068918123  0.070231263            5 
  448000    1.1808923   -4.2466886    369.61274   0.06875237  0.070228918            2 
  449000    1.2176997   -4.2656266    372.48808  0.069132903  0.070225617            3 
  450000    1.1771685   -4.3111102    370.26022  0.068566706  0.070222322            2 
  451000    1.1702206   -4.2670107    372.76984  0.068878388  0.070218879            6 
  452000    1.2126933   -4.2545338    373.79792  0.068915545   0.07021717            2 
  453000    1.1517179   -4.2551476    375.35434  0.069049732  0.070212731            3 
  454000    1.1833958   -4.2746968    373.85114  0.068621723  0.070208584            3 
  455000     1.181813   -4.2390155    375.52049  0.068776647  0.070203476            2 
  456000    1.2011573   -4.2575113    376.18938  0.068748059  0.070200907            2 
  457000    1.1671554    -4.274307     376.1091  0.068582986  0.070197358            4 
  458000    1.1597772    -4.288097    378.91005  0.068942877  0.070195046            1 
  459000    1.1894526   -4.3006576    378.80989  0.068774489  0.070191595            3 
  460000    1.2031062   -4.2664138    380.88021  0.069000038  0.070187872            1 
  461000    1.1937856   -4.2900425    380.62862  0.068804884  0.070184852            1 
  462000    1.1770983   -4.2997043    381.05993  0.068733753  0.070180241            2 
  463000    1.1684717   -4.2652921    383.09201  0.068951046   0.07017376            1 
  464000    1.1653798   -4.2664087    381.41109  0.068500556  0.070166489            2 
  465000    1.1658585   -4.2553951    383.67809  0.068759514   0.07015942            1 
  466000    1.1871428   -4.2838436    382.09687  0.068329196  0.070151433            4 
  467000    1.1782084   -4.2600368    384.42256  0.068597886  0.070143514            2 
  468000    1.1671833   -4.2637986    384.74443  0.068508624  0.070136542            1 
  469000    1.2031346   -4.2712062    384.64878  0.068345555  0.070127862            3 
  470000    1.1623522   -4.2693207    386.73354  0.068569776  0.070118838            2 
  471000    1.1729475   -4.2460763    386.84463  0.068443848  0.070109577            2 
  472000    1.1787042    -4.311966     385.3125  0.068028336  0.070099968            2 
  473000    1.2060976    -4.273617    388.63223  0.068469385  0.070089916            2 
  474000    1.1882487   -4.2619194    387.39379  0.068107207  0.070077996            2 
  475000    1.1798336   -4.2566966    388.90058  0.068228172  0.070067239            3 
  476000    1.1793995   -4.2911848    391.30951  0.068506567  0.070056444            1 
  477000    1.1816351   -4.2737372    389.14839  0.067985393  0.070045208            4 
  478000    1.2209782   -4.2675794     392.2101  0.068376935   0.07003355            3 
  479000    1.1848168   -4.2641079    392.87438  0.068349753  0.070023395            1 
  480000     1.157786   -4.2791676    392.60791  0.068161095  0.070012079            4 
  481000    1.1916416   -4.2892762    393.21037  0.068123764  0.070000175            5 
  482000    1.1678611   -4.2375191    393.05563  0.067955675  0.069988485            1 
  483000    1.1813917   -4.2781833    394.39472  0.068046018  0.069976468            6 
  484000    1.1660051   -4.3142488    394.91048  0.067994229  0.069964646            2 
  485000    1.1567605   -4.2677019    395.09061  0.067884984  0.069953152            3 
  486000    1.1813797   -4.2567987    397.64175  0.068182741  0.069941841            1 
  487000    1.1769424   -4.2301346    399.40831  0.068345022  0.069931617            2 
  488000    1.1767869    -4.287529    399.30418  0.068187189  0.069921351            4 
  489000    1.1788034   -4.2966602    399.35713  0.068056771  0.069910789            3 
  490000     1.174273   -4.2963521    402.28317  0.068415505  0.069901116            3 
  491000     1.168661   -4.2521886    402.73328  0.068352559   0.06989196            2 
  492000    1.1992878    -4.272388    400.38961  0.067816669      0.06988            2 
  493000    1.1571948   -4.2501347    401.49808  0.067866477  0.069866202            2 
  494000    1.1778563   -4.2519448    404.38709  0.068216445  0.069852454            2 
  495000     1.186722   -4.2377573    404.61331  0.068116719  0.069840367            2 
  496000     1.154401   -4.2908038    405.02377  0.068048348  0.069827014            2 
  497000    1.1786558   -4.2880874    404.25591  0.067782681  0.069814069            1 
  498000    1.1550126   -4.2664037    405.38489   0.06783549  0.069801062            4 
  499000    1.1633544   -4.3320251    405.88713  0.067783423  0.069787853            3 
  500000    1.1498686   -4.2878673    407.59328  0.067932213   0.06977452            1 
  501000    1.1576374   -4.2811345    408.80589  0.067998318  0.069763024            4 
  502000    1.1916608   -4.2816127     410.3351  0.068116717  0.069751441            2 
  503000     1.172604   -4.2522203    411.03709  0.068097596    0.0697403            3 
  504000    1.1832964    -4.280238    410.18852  0.067822176  0.069728222            3 
  505000    1.1499872   -4.2577295    410.89032  0.067803683  0.069716043            3 
  506000    1.1957096   -4.2942438    411.68703  0.067800893  0.069702833            2 
  507000    1.1829475   -4.2528597    412.01784  0.067721539  0.069690027            1 
  508000    1.1866342   -4.2904875    412.15288   0.06761038   0.06967709            1 
  509000    1.1795436   -4.3106106    412.81416  0.067585815  0.069662342            3 
  510000    1.1616263   -4.2771369    417.38184  0.068199647  0.069650501            2 
  511000    1.1645564   -4.2744702    416.54301  0.067929389   0.06963815            3 
  512000    1.1811915   -4.2751069    415.07563  0.067557882  0.069626267            3 
  513000    1.1456852   -4.2622477    418.83866  0.068037468  0.069614337            3 
  514000    1.1961314    -4.254381    420.55203  0.068182884  0.069603191       -1e+20 
  515000    1.1538571   -4.2908135    419.38976  0.067862421  0.069591491            1 
  516000     1.165991   -4.3034518    418.26969  0.067550014  0.069579758            4 
  517000    1.1792397   -4.2911688    420.63417  0.067800479  0.069567806            1 
  518000    1.1699925   -4.2733872    420.48849  0.067646154  0.069556617            2 
  519000    1.1655105   -4.2910717    420.10639  0.067454461   0.06954477            4 
  520000    1.1972741   -4.2605442     425.0719  0.068120497  0.069534006            2 
  521000    1.1485626   -4.2838227    423.29638  0.067705755   0.06952322            2 
  522000     1.143645   -4.2768371    424.59829  0.067783891  0.069512723            5 
  523000    1.1435326   -4.2716151    425.95567  0.067870566   0.06950207            2 
  524000    1.1834547   -4.2905249    423.92856  0.067418664   0.06948976            3 
  525000    1.1567354   -4.3225578    425.62395  0.067559358  0.069477896            2 
  526000    1.1452417   -4.3015036    426.44093  0.067560349  0.069466794            3 
  527000    1.1665405   -4.3043043    428.58501   0.06777119  0.069456008            1 
  528000    1.1718435   -4.2847495    430.13435  0.067887365  0.069444964            2 
  529000    1.1746769   -4.3180842    429.82473   0.06771026  0.069434755            3 
  530000    1.1879079   -4.2945757    430.70531   0.06772096  0.069423383            2 
  531000    1.1582305   -4.2746296    432.01535  0.067799019  0.069413584            4 
  532000    1.1566421   -4.2631827    433.51707  0.067906809  0.069402074            3 
  533000    1.1793478   -4.2887137    434.24839  0.067893744  0.069391837            1 
  534000    1.1694053   -4.2752611    433.19722  0.067602562  0.069380553            2 
  535000    1.1476564   -4.3012352    432.21139  0.067322647  0.069368568            3 
  536000     1.162674   -4.2913585    434.76656  0.067594303  0.069355617            2 
  537000    1.1794568   -4.3160045    433.66095  0.067296857  0.069342783            2 
  538000    1.2091069   -4.2906556    434.51959  0.067304769  0.069329293            1 
  539000    1.1653432   -4.3079671    436.72354  0.067520646  0.069315045            2 
  540000    1.1743673   -4.2982897    436.64465  0.067383434  0.069300485            2 
  541000    1.1761139   -4.3337114    436.61648  0.067254541  0.069286141            1 
  542000    1.1652579   -4.2386353    439.47471  0.067569912  0.069271045            3 
  543000    1.1743936   -4.2961369    437.71561  0.067175509  0.069256463            2 
  544000    1.1474393   -4.2786379    438.29153  0.067140247  0.069240184            5 
  545000    1.1674678   -4.2963493    441.43707  0.067498023  0.069224796            1 
  546000    1.1844801   -4.3156373    440.14135  0.067176641  0.069209755            2 
  547000    1.1682455   -4.2974297    442.11717  0.067354841  0.069195381            2 
  548000     1.152653   -4.2724105    443.19859  0.067396379  0.069181152            3 
  549000    1.1650662   -4.2765963    443.01897  0.067246353  0.069165841            4 
  550000    1.1628881    -4.294586    443.82462  0.067246155  0.069150964            1 
  551000    1.1509718   -4.3028674    444.59136  0.067240073  0.069134634            3 
  552000    1.1408683   -4.2647913    446.04975  0.067338429  0.069117989            2 
  553000    1.1598626   -4.2653256    446.39179  0.067268203  0.069102002            2 
  554000    1.1637606   -4.2788762    447.79138  0.067357308  0.069086464            1 
  555000    1.1641303   -4.3059098    447.60168   0.06720746  0.069071427            4 
  556000    1.1536199   -4.2788027    447.72798  0.067105513   0.06905602            1 
  557000    1.1519903   -4.2868555    448.23144  0.067060358  0.069040213            2 
  558000    1.2172422   -4.2520195    450.60737  0.067295007  0.069024154            2 
  559000    1.1493524   -4.2890299    450.95943  0.067227107  0.069008525            3 
  560000    1.1723222   -4.3214992     451.9822  0.067259255  0.068992879            2 
  561000    1.1661669   -4.2785547    452.12456  0.067160512  0.068978013            4 
  562000    1.1626096   -4.2634925    452.74884  0.067133576  0.068962494            2 
  563000     1.153057   -4.3040908    453.68988  0.067153624  0.068947185            5 
  564000    1.1452767   -4.3066915     454.0565  0.067088726  0.068931917            6 
  565000    1.1621113   -4.3238132    453.49292  0.066886861  0.068914743            3 
  566000    1.1555422   -4.2730765    455.24305  0.067026361  0.068898721            4 
  567000    1.1446532   -4.3056587     455.8335  0.066994929  0.068882438            1 
  568000    1.1521546   -4.3052135    458.06924  0.067204994  0.068867337            2 
  569000    1.1694955   -4.3027614    457.28396  0.066971875  0.068851994            3 
  570000    1.1785326   -4.2487983     458.7949  0.067075277  0.068837407            1 
  571000    1.1741081   -4.3022197    457.60451  0.066784079  0.068822582            3 
  572000    1.1723151   -4.2808288    460.02135  0.067019427  0.068806611            1 
  573000    1.1508842   -4.2703253    461.73137  0.067151159  0.068791016            2 
  574000    1.1797415   -4.2764398    463.89278  0.067347964  0.068776958            4 
  575000    1.1466913   -4.2981567    460.91872  0.066799814  0.068762475            1 
  576000    1.1455309   -4.3128184    461.67387  0.066793095  0.068747267            3 
  577000    1.1509614   -4.2964876    462.99925  0.066868754  0.068731975            2 
  578000    1.1533877   -4.2894546    466.23039  0.067218915  0.068718275            1 
  579000    1.1908711   -4.3160047    464.68647  0.066880609  0.068705036            2 
  580000    1.1976812   -4.2838772    464.68293  0.066764789  0.068692219            3 
  581000    1.1583401   -4.3149756    467.96283  0.067120314  0.068679197            1 
  582000    1.1685489    -4.318571    467.53228  0.066943339  0.068666114            3 
  583000    1.1657051   -4.2873831    469.58215   0.06712152  0.068653216            2 
  584000    1.1459543    -4.321324    469.73442  0.067028314  0.068641471            6 
  585000    1.1330713   -4.2705061    472.74015  0.067341902  0.068629359            2 
  586000    1.1468524   -4.2769568    472.36742  0.067173979  0.068617467            1 
  587000    1.1453585   -4.2838165    472.27751  0.067046779  0.068603775            2 
  588000    1.1543286   -4.2996274    471.36582  0.066803546  0.068590612            2 
  589000    1.1564282    -4.328744    474.14153  0.067082842  0.068576949            3 
  590000    1.1620444   -4.2680202    477.16531   0.06739623  0.068564885            1 
  591000    1.1565841   -4.2928787    475.86836  0.067099317  0.068552895            2 
  592000    1.1541211   -4.3050037    476.05581   0.06701236  0.068541266            1 
  593000    1.1657617   -4.3413768    477.17136  0.067056122  0.068528959            3 
  594000    1.1247885   -4.2790199    477.01919  0.066921884  0.068515908            2 
  595000    1.1542295   -4.3122343    480.36652  0.067278224  0.068504505            2 
  596000      1.17259   -4.2661271    479.77115  0.067082096  0.068491952            2 
  597000    1.1842695   -4.2451329    481.41217  0.067198796  0.068479169            3 
  598000    1.1683977   -4.2992995    481.80589  0.067141289  0.068466727            1 
  599000    1.1656414   -4.3151958    481.32512  0.066962314  0.068455194            2 
  600000    1.1714643   -4.3101469    481.22858  0.066837303  0.068443806            2 
  601000    1.1279768   -4.3041175    486.82325  0.067501837  0.068432584            2 
  602000    1.1467917   -4.2971739    484.75781  0.067103794  0.068422258            2 
  603000    1.1650768   -4.3029459    486.13952   0.06718346  0.068411516            2 
  604000    1.1382582   -4.3204225    485.75411  0.067019056  0.068399614            3 
  605000    1.1501053   -4.3202919    487.44151  0.067140704   0.06838909            3 
  606000    1.1595469   -4.3019721    487.15583  0.066990625  0.068378459            4 
  607000    1.1501844   -4.2774802    488.69346  0.067091359  0.068367164            2 
  608000     1.138504   -4.3142919    489.79268  0.067131672  0.068356144            2 
  609000    1.1508841   -4.2869706    490.91597  0.067175146  0.068345866            3 
  610000    1.1461181   -4.3062624    491.02451  0.067079851  0.068337047            2 
  611000    1.1730325   -4.2910318    491.68269  0.067059833  0.068326136            3 
  612000    1.1586668   -4.2898816    492.37359  0.067044334  0.068315721            2 
  613000    1.1731401    -4.296192     493.2114  0.067048857  0.068304435            2 
  614000    1.1463547   -4.3170328    493.77733  0.067016467  0.068293729            2 
  615000    1.1436099   -4.3398342     491.8982  0.066652873  0.068282713            5 
  616000    1.1353376    -4.295341     494.7901   0.06693589  0.068271178            2 
  617000    1.1761451   -4.3130152    496.60566  0.067072617  0.068259075            6 
  618000    1.1429185   -4.3695106    494.46601  0.066675568  0.068247092            1 
  619000    1.1614592   -4.3228065    496.56558  0.066850509   0.06823525            3 
  620000    1.1741229   -4.2882955     498.3701  0.066985228  0.068224062            1 
  621000    1.1730899   -4.2877053    499.62424  0.067045657  0.068213277            2 
  622000    1.1376288   -4.3118273    500.16527  0.067010352  0.068202314            3 
  623000    1.1445039   -4.3172407    500.15145  0.066900943  0.068190705            3 
  624000    1.1492874   -4.2734072    501.31727  0.066949421  0.068179607            3 
  625000    1.1797478   -4.3186163    499.95256  0.066660341  0.068168279            2 
  626000    1.1389331   -4.3320342     500.8069  0.066667585  0.068156521            2 
  627000    1.1728701   -4.3023326    505.07516  0.067128543  0.068145308            1 
  628000    1.1516119   -4.3236676    500.25201  0.066381636  0.068133986            2 
  629000    1.2063848     -4.28351    505.16323  0.066926767  0.068122226            1 
  630000    1.1597177   -4.3077793    506.36383  0.066979342   0.06811129            3 
  631000    1.1221905   -4.3016481    505.01501  0.066695062  0.068100974            1 
  632000    1.1640354   -4.3299693     504.9337   0.06657881   0.06808996            4 
  633000    1.1701658   -4.3059618    506.62035  0.066695675  0.068078388            2 
  634000    1.1434366   -4.3126895    508.30267  0.066811602  0.068065642            6 
  635000    1.1782297   -4.2988948    507.18881  0.066560211   0.06805305            3 
  636000    1.1794939   -4.2731568    509.21279  0.066720753  0.068040649            1 
  637000    1.1653944   -4.3058988    507.90236  0.066444579  0.068027519            3 
  638000     1.130382   -4.3255334    507.07171  0.066231937  0.068012756            2 
  639000    1.1419115   -4.3229694    507.45267  0.066177969  0.067997974            3 
  640000    1.1593273   -4.3026204    509.24866  0.066308419  0.067984322            2 
  641000    1.1610317   -4.2791864    510.54735   0.06637381  0.067968523            1 
  642000    1.1551831    -4.296193    511.50831  0.066395159  0.067953681            4 
  643000    1.1604809   -4.3125423    510.62388  0.066177278  0.067938654            2 
  644000    1.1407001   -4.2896903    511.85599  0.066233953  0.067922695            3 
  645000    1.1465544   -4.3089221    511.42498  0.066075579  0.067906889            5 
  646000    1.1616786   -4.3129551    513.02155  0.066179251  0.067890664            5 
  647000    1.1922655   -4.3001331    513.82501  0.066180449  0.067875196            2 
  648000    1.1540269   -4.3216111    513.72215  0.066065091  0.067859968            4 
  649000    1.1752201   -4.2741257    516.33652  0.066298988  0.067843761            2 
  650000    1.1585813     -4.29441    516.72156  0.066246354  0.067828022            2 
  651000    1.1457247   -4.3361467    517.15759  0.066200408  0.067811385            2 
  652000    1.1333423   -4.3225518    516.46071  0.066009805  0.067795126            2 
  653000    1.1487591   -4.2497933    520.06091  0.066368162  0.067778802            3 
  654000    1.1698593   -4.3426161    516.62912  0.065829398  0.067762582            1 
  655000    1.1254668   -4.3297248    519.64345  0.066112399     0.067747            1 
  656000    1.1371258   -4.3213575    521.37757  0.066231907  0.067731692            3 
  657000    1.1288104   -4.2989499     522.6966  0.066298402  0.067717694            2 
  658000    1.1409462   -4.3170836    521.56134  0.066053868  0.067702801            4 
  659000     1.167503   -4.3371391    521.66073  0.065966202  0.067687453            2 
  660000    1.1187523   -4.3317756    521.88987  0.065895186  0.067671797            3 
  661000     1.133468   -4.3265466     524.5077   0.06612553  0.067655978            2 
  662000    1.1482608   -4.3010295    522.62306  0.065788402  0.067639144            2 
  663000    1.1736747    -4.305652    521.86412   0.06559378  0.067623551            2 
  664000    1.1286246   -4.3439764     525.8014  0.065989132  0.067607004            1 
  665000    1.1570603   -4.3148678    526.12018  0.065929847  0.067591107            2 
  666000    1.1388188   -4.3070567    526.88163   0.06592613  0.067575833            3 
  667000    1.1503649   -4.3251438    528.81636   0.06606901  0.067560254            1 
  668000    1.1280943   -4.3478916    528.39992  0.065918154  0.067544095            3 
  669000    1.1544353   -4.2988112    530.50019   0.06608124  0.067530127            4 
  670000    1.1545866   -4.3550714    530.82533  0.066023051  0.067515971            2 
  671000    1.1324549   -4.3098748    530.12458  0.065837627  0.067502279            2 
  672000    1.1352446   -4.3401983    531.19957  0.065872963  0.067488462            2 
  673000    1.1361665   -4.3134711     533.6336  0.066076474  0.067475474            2 
  674000    1.1566879   -4.3203343    535.22952  0.066175757  0.067461912            2 
  675000    1.1660438   -4.3053862    536.70378  0.066259726  0.067448803            1 
  676000    1.1607275   -4.3251345    536.28153  0.066109656  0.067435474            1 
  677000    1.1243075   -4.3024343    535.78099  0.065950393  0.067421124            2 
  678000    1.1639847   -4.3351139    536.94245  0.065995877  0.067406835            3 
  679000     1.150593   -4.3297793    537.03371  0.065909881   0.06739327            2 
  680000    1.1433833   -4.3084804    539.45918  0.066110194  0.067379886            2 
  681000    1.1313046    -4.314979    539.06209  0.065964523  0.067366258            2 
  682000    1.1312017   -4.3370841     539.1692   0.06588089  0.067352643            1 
  683000    1.1271066   -4.3158568    544.13492  0.066390303  0.067339266            2 
  684000    1.1378047   -4.3339533    541.79095  0.066007669  0.067326475            2 
  685000    1.1274919   -4.2982867    543.96256  0.066175494  0.067313349            2 
  686000    1.1446485   -4.3408598     542.8886  0.065948567  0.067300098            5 
  687000    1.1450072   -4.3206634    545.75209  0.066199914  0.067286371            2 
  688000    1.1327837   -4.3252931    545.07797  0.066022041   0.06727278            3 
  689000    1.1534667   -4.3368782    544.22796  0.065823411  0.067260278            1 
  690000    1.1189539   -4.3172615    548.93925   0.06629701  0.067249092            4 
  691000    1.1360207   -4.3122115    547.09211  0.065978306  0.067237795            2 
  692000    1.1289142    -4.333369    547.77524  0.065965226  0.067225841            2 
  693000    1.1350529   -4.3546538    546.55484  0.065723286  0.067214251            4 
  694000    1.1480736   -4.3130906    548.13818  0.065818706  0.067201842            3 
  695000    1.1649357    -4.338395    551.24322  0.066096309  0.067189614            2 
  696000    1.1354601   -4.3291283    551.66754  0.066052148  0.067177687            3 
  697000    1.1421436   -4.3295474    550.15217  0.065776204  0.067166687            2 
  698000    1.1701244   -4.3301894    554.16516  0.066161074    0.0671551            2 
  699000    1.1240745   -4.3076888    553.14747  0.065945096  0.067142816            3 
  700000    1.1520118   -4.3414743    553.13483  0.065849384   0.06713084            2 
  701000    1.1434771   -4.3372638    554.70565  0.065942184  0.067117874            2 
  702000    1.1318895   -4.3261055    557.66136  0.066199117  0.067104282            2 
  703000    1.1443306    -4.349678     553.7032  0.065635752  0.067091664            3 
  704000    1.1433173   -4.3351787     555.9627  0.065809978  0.067079217            2 
  705000    1.1319372   -4.2911224    559.24343  0.066104425  0.067066617            2 
  706000    1.1459321   -4.3487191    556.82183  0.065724956  0.067054093            1 
  707000    1.1280464   -4.3536552    556.96484   0.06564885  0.067041147            2 
  708000    1.1528368   -4.3225513    560.30938  0.065949786  0.067027799            1 
  709000    1.1314916   -4.3306987    559.96213  0.065815953  0.067015184            4 
  710000    1.1473404   -4.3251807    561.10515  0.065857412  0.067002442            1 
  711000    1.1337082   -4.3170657    561.54833  0.065816729  0.066990049            1 
  712000     1.114087    -4.349543     562.1965  0.065800152  0.066977446            1 
  713000    1.1462992   -4.3093317    562.95878  0.065796959   0.06696582            2 
  714000    1.1492784   -4.3433443    562.63993  0.065667592  0.066953968            2 
  715000    1.1156871   -4.3266579    563.38208  0.065662247  0.066942169            3 
  716000    1.1325337   -4.3200214    563.49004  0.065583105  0.066929704            3 
  717000    1.1178826   -4.3163672    565.08898  0.065677473  0.066918188            4 
  718000    1.1321353   -4.3430168    565.35065  0.065616371  0.066905807            2 
  719000    1.1311852   -4.3378297    569.01951  0.065950337  0.066892814            1 
  720000    1.1524884   -4.3224194    567.80099  0.065717708  0.066880062            2 
  721000    1.1401796   -4.2863892    568.49439  0.065706702  0.066868618            3 
  722000    1.1457082   -4.3304452    567.50106  0.065501046  0.066856385            4 
  723000    1.1371312    -4.366609    568.73646  0.065552842  0.066843942            5 
  724000     1.099073   -4.3610377    571.27383  0.065754354  0.066830955            2 
  725000    1.1296241   -4.3523412    571.28006  0.065664375  0.066817981            3 
  726000    1.1161012   -4.3522253    570.43248  0.065476639  0.066804814            2 
  727000    1.1646635   -4.3440869    573.57592  0.065746896  0.066792269            4 
  728000    1.1393932   -4.3411776    572.74325   0.06556127  0.066779228            3 
  729000    1.1316712   -4.3828155    570.64884   0.06523192  0.066765951            3 
  730000    1.0996172   -4.3573182    574.25999  0.065554793  0.066751889            2 
  731000     1.143137    -4.323237    574.50539  0.065493091  0.066738928            3 
  732000    1.1199104   -4.3086916    575.76656  0.065547195   0.06672622            2 
  733000    1.1419088    -4.325105     577.6322  0.065669873  0.066713362            2 
  734000    1.1342172   -4.3350303    576.48321  0.065449956  0.066700267            1 
  735000     1.129665   -4.3617668    575.48974   0.06524827  0.066687239            2 
  736000    1.1139435   -4.3294249    578.62531  0.065514642  0.066674282            3 
  737000    1.1295048   -4.3363351    580.90098  0.065683059  0.066660955            1 
  738000    1.1402733    -4.350662    578.99307  0.065378621  0.066647929            2 
  739000    1.1428464   -4.3342833     579.2238  0.065316171  0.066633225            3 
  740000    1.1522466   -4.3575764    579.38319  0.065245854  0.066618486            6 
  741000    1.1369039   -4.3459272    580.78425  0.065315368  0.066604282            2 
  742000    1.1378035   -4.3271914    583.32176  0.065512327  0.066590802            2 
  743000    1.1578458   -4.3573841      581.302  0.065197622   0.06657752            1 
  744000    1.1443776   -4.3192875    584.40129  0.065457133  0.066564134            2 
  745000    1.1591136   -4.3486912    582.87225  0.065198238  0.066550319            6 
  746000    1.1341218   -4.3524555    584.61999  0.065306075  0.066536418            7 
  747000    1.1397271   -4.3444637    582.63745  0.064997485  0.066521876            3 
  748000    1.1334437   -4.3095171    583.98924  0.065061189  0.066507905            2 
  749000    1.1422574   -4.3257764    584.43545  0.065023971   0.06649376            3 
  750000    1.1220595    -4.318311    585.71869  0.065079855  0.066478971            3 
  751000    1.1337865   -4.3255678    586.12104  0.065037843  0.066464013            2 
  752000    1.1290696   -4.3593714    586.80737  0.065027412  0.066449492            2 
  753000    1.1533749   -4.3199269    587.24904  0.064989933  0.066434355            2 
  754000    1.1509078   -4.2990273    589.46479  0.065148629  0.066420687            8 
  755000    1.1282626   -4.3338188     590.5262  0.065179493  0.066406522            4 
  756000    1.1270336   -4.3485729    592.68818  0.065331589  0.066392867            2 
  757000    1.1158651   -4.3135632    593.03349  0.065283299  0.066378727            5 
  758000    1.1255915   -4.3214085     593.3649  0.065233608  0.066365607            2 
  759000    1.0992748   -4.3462005    591.56933  0.064950519  0.066352164            2 
  760000    1.1034795   -4.3655565    594.97154  0.065238107   0.06633813            3 
  761000    1.1216077   -4.3933368    592.80471  0.064915102  0.066324522            1 
  762000    1.0921556   -4.3121646    596.26344  0.065208163  0.066311091            3 
  763000     1.142446   -4.3465448    595.10652  0.064996344   0.06629832            2 
  764000    1.1471801   -4.3382184    599.03285  0.065339535  0.066285607            2 
  765000    1.1280051   -4.3883026    596.04353  0.064928489  0.066272362            3 
  766000    1.1242936   -4.3331807    598.17604  0.065075722  0.066259424            2 
  767000    1.1298578   -4.3591956    598.68287  0.065045944  0.066245307            1 
  768000     1.125519   -4.3496654    598.21874  0.064910888  0.066231036            3 
  769000    1.1184852   -4.3617279    598.48176   0.06485498  0.066217139            1 
  770000    1.0960999   -4.3532438    601.29903  0.065075653  0.066202697            4 
  771000    1.0998221    -4.338524    601.43201  0.065005621  0.066188812            3 
  772000    1.1037046   -4.3454795    602.40076  0.065025988  0.066174891            4 
  773000    1.1488864   -4.3466658      600.603  0.064748059  0.066160788            2 
  774000    1.1206981   -4.3254308    599.89816  0.064588519  0.066147395            3 
  775000    1.1092359   -4.3302083    602.71073  0.064807606  0.066132877            4 
  776000    1.1189954   -4.3564177     603.3871  0.064796725  0.066118875            2 
  777000    1.1079361   -4.3591753    604.44254  0.064826527  0.066104465            1 
  778000    1.1428094   -4.3880242    604.51038  0.064750469  0.066089443            3 
  779000    1.1157506   -4.3070492    605.32821  0.064754836  0.066074505            3 
  780000    1.1527725   -4.3298512    606.23619  0.064768824    0.0660601            4 
  781000    1.1207706   -4.3484084     608.3294   0.06490924  0.066045192            3 
  782000     1.118728   -4.3413574    608.36698   0.06483024  0.066030814            4 
  783000    1.0787525   -4.3562889     609.0028  0.064815113  0.066015936            2 
  784000    1.1199835   -4.3625452    609.33786  0.064768055  0.066001808            2 
  785000    1.0940147   -4.3455648    609.91411  0.064746721  0.065988112            2 
  786000    1.1069235   -4.3783992    610.07209  0.064681095  0.065974321            3 
  787000    1.1306044   -4.3730091    608.85359  0.064469885  0.065959113            2 
  788000    1.1200529   -4.3781639    612.07349  0.064728583  0.065944577            3 
  789000     1.136947   -4.3703029    609.64811  0.064390379   0.06593007            1 
  790000    1.1341022   -4.3540721    614.31244  0.064800891  0.065915293            4 
  791000    1.1049403   -4.3239688    616.16703  0.064914352  0.065901497            3 
  792000    1.1234478   -4.3375865    616.66125  0.064884391  0.065887878            3 
  793000    1.1190833    -4.351475    613.23724  0.064442753  0.065873569            2 
  794000    1.1042613    -4.341879    616.04737  0.064656525  0.065859593            3 
  795000     1.123222   -4.3391462    616.40716   0.06461291  0.065845058            4 
  796000     1.112319   -4.3588748    615.99424  0.064488509  0.065829659            2 
  797000    1.0964652   -4.3621499    617.32525  0.064546764  0.065815494            2 
  798000    1.1139832   -4.3612361    616.84989  0.064416238  0.065801107            2 
  799000    1.1206076    -4.339317    617.58739  0.064412535  0.065787276            3 
  800000    1.1193743   -4.3611863    617.89554  0.064364119    0.0657723            2 
  801000    1.1151924   -4.3930811    619.38848  0.064439084  0.065756906            2 
  802000    1.1125374   -4.3620356    618.11531  0.064226445  0.065741441            3 
  803000    1.1303197   -4.3508238    621.21056  0.064467679  0.065726508            3 
  804000    1.1175882   -4.3713945    621.44867  0.064412175  0.065711068            3 
  805000     1.129284   -4.3819948    622.26339    0.0644165  0.065695506            3 
  806000     1.132381   -4.3269622    622.12298  0.064322061  0.065680986            3 
  807000     1.147685   -4.3169974    624.96361  0.064535688  0.065666429            2 
  808000    1.1318491    -4.316684    625.93367  0.064555865   0.06565161            3 
  809000    1.1253607   -4.3641848    621.80034  0.064050303  0.065636286            3 
  810000    1.1460335   -4.3741014    624.90048  0.064290173  0.065621465            5 
  811000    1.1181656   -4.4243232    622.32634  0.063946397  0.065605774            2 
  812000     1.117638    -4.376531    629.53412  0.064607361  0.065590573            3 
  813000    1.1194096   -4.3558781    628.50544  0.064422452  0.065575808            3 
  814000    1.1261483   -4.3512327    628.32268  0.064324598  0.065561498            7 
  815000    1.1005064   -4.3506479    629.61812  0.064378131  0.065546768            4 
  816000    1.1111144   -4.3563705    632.01718  0.064544239  0.065532677            6 
  817000    1.1058092   -4.3580587    631.51158  0.064413665  0.065518905            2 
  818000    1.0849847    -4.334835    633.30763  0.064517892  0.065505153            3 
  819000    1.1092036   -4.3604547    632.86875   0.06439446  0.065491138            3 
  820000    1.1407289   -4.3676616     634.5018   0.06448189  0.065477855            3 
  821000    1.1116513   -4.3648569    635.40666  0.064495194  0.065464635            2 
  822000    1.1205712   -4.3657748    634.95462  0.064370907  0.065451784            4 
  823000    1.1144731   -4.3900507    634.77491  0.064274495  0.065438629            2 
  824000    1.1157611   -4.3632802    635.91839  0.064312135  0.065426086            3 
  825000    1.1151711   -4.3801819    634.48478  0.064089372  0.065413485            3 
  826000    1.1194314   -4.3996766    636.49702  0.064214792  0.065400872            2 
  827000    1.1219463   -4.3290246    641.17536  0.064608561  0.065388155            2 
  828000    1.1316605   -4.3681941    642.07004  0.064620576  0.065374746            2 
  829000    1.1212791   -4.3686355    641.14754  0.064449893  0.065361553            4 
  830000    1.1032859   -4.3725568     639.8323   0.06424019  0.065348528            1 
  831000    1.1213155   -4.3774784     640.5475  0.064234606  0.065335376            3 
  832000     1.092224   -4.3614389    639.30405  0.064032857  0.065321972            2 
  833000    1.1176541   -4.3519691    642.06508  0.064232201  0.065308748            2 
  834000    1.1599242    -4.346145    645.95591  0.064543955  0.065295753            4 
  835000    1.1271708   -4.3414171    645.00567  0.064371824  0.065282812            2 
  836000    1.0988853   -4.3744994    644.71418  0.064265768  0.065269609            2 
  837000    1.1006473   -4.3947554    644.61818  0.064179428  0.065256372            4 
  838000    1.1284577    -4.348689     644.4147  0.064082608  0.065243188            2 
  839000    1.1282549   -4.3870101    644.60463  0.064025092  0.065230114            4 
  840000    1.1535953   -4.3897792    645.92575  0.064079935  0.065217128            3 
  841000    1.1068375    -4.376596    647.11043  0.064121128  0.065204836            2 
  842000    1.1036264   -4.3592878    651.13854   0.06444364  0.065192594            4 
  843000    1.1082296   -4.3509197    650.69049  0.064322903  0.065180125            3 
  844000     1.118348   -4.3740947    650.80364  0.064257863  0.065167719            2 
  845000    1.0959633   -4.3499309    653.75322  0.064472704  0.065154948            2 
  846000     1.112403   -4.3752243     648.7783  0.063906452  0.065142065            3 
  847000    1.1076618   -4.3668641    650.82301  0.064032173    0.0651294            3 
  848000     1.090372    -4.372841    650.32081  0.063907312   0.06511687            2 
  849000     1.100792   -4.3693586     654.4233  0.064234717  0.065103754            2 
  850000    1.1050208   -4.3694208    654.48195  0.064164897   0.06509121            2 
  851000    1.1108117   -4.3856673    654.41917   0.06408335  0.065078211            4 
  852000     1.105636   -4.3958694    658.45665  0.064403037  0.065065287            2 
  853000    1.0800679   -4.3920043    653.59135  0.063852222  0.065052041            2 
  854000    1.1105773   -4.3647125    656.73075  0.064083797  0.065039238            2 
  855000    1.0974239   -4.3666088    657.32773   0.06406703  0.065026309            2 
  856000    1.0946277   -4.3562068    659.23317  0.064177684  0.065013895            2 
  857000    1.1458185   -4.3670519    657.88325  0.063971533  0.065001017            2 
  858000    1.1055514   -4.3649577    661.73232  0.064270816  0.064987958            2 
  859000    1.1080339   -4.3788785    662.41933  0.064262643   0.06497555            3 
  860000    1.1209464   -4.3516108    663.07702  0.064251649  0.064963765            2 
  861000    1.1221234   -4.3493117    665.54731  0.064416116  0.064952538            1 
  862000    1.0999106   -4.3748143     660.8019  0.063882627  0.064940562            2 
  863000    1.1304136   -4.3897788    662.97588  0.064018528  0.064929361            2 
  864000    1.1281741   -4.3644052    665.50501  0.064188369  0.064917573            2 
  865000    1.1071963   -4.3652394    666.12959  0.064174334  0.064905471            2 
  866000    1.1153207   -4.3914036    665.37492   0.06402761   0.06489345            4 
  867000    1.1353159   -4.3919716    666.07939  0.064021472  0.064881067            2 
  868000    1.0951969   -4.3503521    667.50295  0.064084385   0.06486898            2 
  869000    1.1127887   -4.3561136    667.36237  0.063997158  0.064856199            2 
  870000    1.1127648   -4.3995167    668.88072  0.064069035  0.064843934            3 
  871000    1.1436859   -4.3517216    670.02997  0.064105431  0.064832112            2 
  872000    1.1053862   -4.3640809    667.38649   0.06377929  0.064820689            3 
  873000    1.1163574    -4.319893    671.30759  0.064080526  0.064808896            2 
  874000    1.1110005   -4.3809759    673.38412  0.064205198  0.064797473            3 
  875000    1.1102585   -4.3394166    676.95824  0.064472213  0.064786651            3 
  876000    1.1035889   -4.3525442    673.04189  0.064026055  0.064775585            3 
  877000     1.110717     -4.37714    675.45741  0.064182574  0.064764383            2 
  878000    1.1328195    -4.390864    673.83616  0.063955596  0.064752544            5 
  879000    1.1162353   -4.3960561    675.10291   0.06400293  0.064741293            3 
  880000    1.0834202   -4.3651399    672.81758  0.063713786  0.064729356            2 
  881000    1.1094135   -4.3521318    677.05087  0.064041891  0.064718112            3 
  882000    1.0807627   -4.3669449    680.14456   0.06426158   0.06470654            3 
  883000    1.1027848   -4.3918857    675.79968  0.063778754   0.06469493            2 
  884000    1.1184719    -4.354037    677.18346  0.063837053  0.064683157            2 
  885000    1.1359738   -4.3656031    677.36577  0.063782087  0.064671102            2 
  886000     1.114595   -4.3982592    675.73685   0.06355689  0.064658852            3 
  887000    1.0984292   -4.3837708     675.0172  0.063417625  0.064646268            2 
  888000    1.1127226   -4.3870231    678.46768  0.063670015  0.064634313            2 
  889000    1.1029298   -4.3754754    681.52232  0.063884732  0.064621792            3 
  890000    1.0881144   -4.3883229    680.55697  0.063722563  0.064609676            2 
  891000    1.1242232   -4.3693642    681.46176  0.063735667  0.064597492            3 
  892000    1.1012665   -4.3788472    680.57382  0.063581262  0.064585271            2 
  893000    1.1127015   -4.3995104    682.58729  0.063697955  0.064572564            2 
  894000     1.107377   -4.4115804     684.0368   0.06376182  0.064559991            2 
  895000     1.114904   -4.4156462    683.26594  0.063618802  0.064547678            2 
  896000    1.1232504   -4.3682052    682.60513   0.06348634  0.064534745            2 
  897000    1.1123004   -4.3453612    683.16942  0.063467987   0.06452237            1 
  898000     1.112953   -4.3769164    686.20384  0.063678901  0.064509816            5 
  899000    1.0988749   -4.3640009    685.31861  0.063526011  0.064497107            3 
  900000    1.1339656   -4.3660255    688.42981  0.063743501  0.064484252            3 
  901000    1.1078698   -4.3656573     686.7855  0.063520671  0.064472232            1 
  902000    1.1047501   -4.3885238    688.41099  0.063600424  0.064459695            3 
  903000    1.1291011   -4.3678986    688.88662  0.063573885  0.064448001            2 
  904000    1.1004413   -4.3781145       688.23  0.063443031   0.06443577            3 
  905000    1.0800051   -4.3752788    691.16494  0.063643181  0.064423547            2 
  906000    1.1009863   -4.4071262    691.16591  0.063573023  0.064410758            1 
  907000    1.0877612   -4.3786244    689.34714  0.063335827  0.064398935            6 
  908000    1.0952805   -4.3545836    694.45319  0.063734691  0.064386884            5 
  909000    1.1046229   -4.4112396    693.98797  0.063621926  0.064374995            2 
  910000    1.1264029   -4.3750935    694.40108  0.063589843  0.064363755            3 
  911000     1.110797    -4.385529    694.29704  0.063510523  0.064352049            3 
  912000    1.1142548   -4.4112968    695.48518   0.06354945  0.064340826            4 
  913000     1.095784   -4.3860708    696.83639  0.063603176  0.064329196            2 
  914000    1.1091072   -4.3697199    701.23194  0.063934349  0.064317901            4 
  915000    1.1036504   -4.3709007    701.53394  0.063891979   0.06430743            3 
  916000    1.1270158    -4.387688    702.08326  0.063872204  0.064297562            3 
  917000    1.1015122   -4.4019705      701.356   0.06373646  0.064287896            3 
  918000    1.1108355   -4.3930021    703.72487  0.063882068   0.06427787            2 
  919000    1.0900262   -4.3947151    703.78571  0.063818073  0.064267972            3 
  920000    1.1160917   -4.3746389    704.01529  0.063769501  0.064257812            8 
  921000    1.0958577   -4.4108339    703.58312  0.063661158  0.064247538            3 
  922000    1.1267961   -4.3964675    705.39649  0.063756009  0.064236936            5 
  923000    1.1006551    -4.365474    706.13852  0.063753929  0.064227172            1 
  924000    1.1283843   -4.3573832    710.29491  0.064059787  0.064217854            3 
  925000    1.1256376   -4.3570716    708.97869  0.063871954  0.064208942            3 
  926000    1.1003551   -4.3840501    709.39839  0.063840747  0.064199728            1 
  927000     1.130782   -4.3744892    708.18315  0.063662635  0.064190089            3 
  928000    1.1254253   -4.4161573     707.8443  0.063563605   0.06417967            4 
  929000    1.1090456   -4.4155464    708.53713  0.063557331  0.064168988            1 
  930000    1.1103972   -4.3994651    712.01885  0.063800972  0.064158816            5 
  931000    1.0798528   -4.3845497    712.60329  0.063784756  0.064149559            1 
  932000    1.1014806   -4.4003171    714.56108   0.06389137  0.064139869            2 
  933000    1.0959941   -4.3950182    713.40542   0.06371967  0.064130503            2 
  934000    1.1054516   -4.3851045    714.54118  0.063752782  0.064121051            2 
  935000    1.0919147   -4.3644786    717.03335  0.063906716  0.064111933            1 
  936000    1.1196845   -4.3916446    716.78414  0.063816252  0.064102535            3 
  937000    1.1101339   -4.3994719    716.02355  0.063680501  0.064093471            7 
  938000    1.1186411   -4.4392266    715.34796  0.063552591  0.064083851            3 
  939000    1.1023958   -4.4214353     718.6396  0.063777032  0.064074638            2 
  940000    1.1119964    -4.405392    716.33866    0.0635052  0.064065755            1 
  941000    1.1244662   -4.4138931    719.98308  0.063760456  0.064056318            4 
  942000    1.0853533   -4.4134481    717.09534  0.063437309  0.064047656            3 
  943000    1.0941972   -4.4028515    721.45337  0.063755158   0.06403858            6 
  944000    1.1157857   -4.3863962    721.92622  0.063729363  0.064029538            3 
  945000    1.1276075    -4.394966    721.65449  0.063637962  0.064020679            2 
  946000    1.1065823   -4.3593881    724.22321   0.06379697  0.064011222            4 
  947000    1.1299866   -4.4050147    723.95438  0.063705947  0.064001864            2 
  948000    1.1084612   -4.4238671    721.96528  0.063463896  0.063992374            5 
  949000    1.0918713   -4.3987763    722.69506  0.063461105  0.063982938            6 
  950000    1.1186545   -4.3786689    720.66925    0.0632166  0.063972607            3 
  951000    1.0860984   -4.3973694    726.27936  0.063641724  0.063962432            2 
  952000    1.0754966   -4.3940406    727.97865  0.063723621  0.063952655            5 
  953000    1.0890867   -4.4090634    725.48074   0.06343833  0.063943957            2 
  954000    1.1015505     -4.42047    726.51854  0.063462486  0.063934833            9 
  955000    1.1032669   -4.3999987    727.07699  0.063444764  0.063924898            3 
  956000    1.1472168   -4.4190811    726.69392  0.063345007  0.063915378            2 
  957000    1.1197104   -4.4081122    725.90449  0.063210074  0.063905291            2 
  958000    1.1013195   -4.4133232    730.20205  0.063517923  0.063895807            3 
  959000    1.0903696   -4.3815618    729.04919  0.063351511  0.063886101            3 
  960000    1.1180703   -4.4010181    731.20157  0.063472358  0.063876459            3 
  961000    1.0674894   -4.3961897     731.6251  0.063443037  0.063867139            2 
  962000    1.0808025   -4.3895409     733.2953  0.063521769  0.063856848            1 
  963000    1.0954823   -4.3801762    730.85787  0.063244883  0.063846814            1 
  964000    1.0962419   -4.3960181    731.20441  0.063209233  0.063836661            2 
  965000    1.1338064   -4.3596667    733.77355  0.063365592  0.063826878            3 
  966000    1.1225314   -4.3872237    735.23224  0.063425831  0.063816889            6 
  967000    1.0892167   -4.3884126    734.57935  0.063303977  0.063806682            7 
  968000    1.1006417   -4.3961878    734.69705  0.063248713  0.063796345            3 
  969000    1.1038268   -4.3907832    734.63795  0.063178358  0.063786225            3 
  970000    1.0890499   -4.4124616    734.78364  0.063125742  0.063775785            4 
  971000    1.1016128   -4.3835008    738.87119  0.063411534  0.063765274            2 
  972000    1.1135853   -4.3847896    736.45631  0.063139258  0.063754924            2 
  973000    1.0865699   -4.3924376    736.79075   0.06310301  0.063744302            2 
  974000    1.0870517   -4.3990446     739.2772  0.063250958  0.063733252            1 
  975000    1.0987476   -4.4295149    738.52946  0.063122176  0.063722468            2 
  976000    1.0918025   -4.3839325    740.92373   0.06326193  0.063712088            3 
  977000    1.0780574   -4.4122724     741.8649  0.063277457  0.063702592            3 
  978000    1.0805026   -4.3930739    740.99782  0.063138873  0.063692072            2 
  979000    1.0925022   -4.4412671    740.05976  0.062994532  0.063681704            4 
  980000    1.0833003   -4.4064141    742.94346  0.063175464  0.063671153            2 
  981000    1.0923072   -4.3924796    743.17824  0.063131009  0.063660701            2 
  982000    1.0956484   -4.4156672    743.53483  0.063096982  0.063649795            6 
  983000    1.0805873   -4.3857499    745.33819  0.063185672  0.063639501            3 
  984000    1.1295386   -4.4020494    746.52082  0.063221614  0.063629459            1 
  985000    1.0811508   -4.3923817    748.23706  0.063302628  0.063620117            1 
  986000    1.0576958   -4.4152332    748.10751  0.063227477  0.063610559            1 
  987000     1.107955   -4.3848566    746.61989  0.063037816  0.063600494            2 
  988000    1.0933781   -4.4500463    745.42073  0.062872869  0.063590283            4 
  989000    1.1138255   -4.4240456     749.4116  0.063145568   0.06358006            2 
  990000    1.1097919   -4.4276718    745.98758  0.062793567  0.063569749            3 
  991000    1.1028714   -4.4073562    750.48113  0.063108066  0.063559807            2 
  992000    1.1104699   -4.4336955    750.67551  0.063060779  0.063550429            4 
  993000    1.0902606   -4.4120467    755.39273  0.063393147  0.063540968            2 
  994000    1.1007349   -4.3821502    753.82389  0.063197845  0.063531668            1 
  995000    1.0931749   -4.4147493    754.43063  0.063185145  0.063522558            4 
  996000     1.060906   -4.4355942    748.46588  0.062622647  0.063512438            6 
  997000    1.1060799   -4.4119076    754.86715   0.06309488  0.063502581            3 
  998000    1.0893992   -4.4160077    755.53061  0.063087058  0.063492585            3 
  999000    1.0822468   -4.3923853      756.452  0.063100767  0.063482619            4 
 1000000    1.0813789   -4.4292935    755.41922  0.062951602  0.063472636            6 
 1001000    1.0957725   -4.3976488    757.22368  0.063038934  0.063462724            4 
 1002000    1.0853724   -4.4115279     758.5296  0.063084631  0.063452683            2 
 1003000    1.0926154   -4.4241528    759.33402  0.063088569  0.063443452            8 
 1004000    1.0886545   -4.4189609     762.5141  0.063289683  0.063433966            1 
 1005000    1.0662994   -4.4422227    758.70558  0.062910911  0.063424202            8 
 1006000    1.1080855   -4.4426527    762.87338   0.06319362  0.063414544            1 
 1007000    1.0960093   -4.4384934    764.09671  0.063232101  0.063405619            3 
 1008000    1.0957494   -4.3971209    765.08699  0.063251239  0.063396432            2 
 1009000      1.09504   -4.4453886     763.6383  0.063068905  0.063387786            3 
 1010000    1.0950952    -4.392483    765.61452  0.063169515  0.063378704            3 
 1011000    1.0837132   -4.4202847    765.29526  0.063080717  0.063369918            2 
 1012000    1.1127945   -4.4218616     766.9609  0.063155542  0.063361386            6 
 1013000    1.0954305   -4.3809503    769.90509  0.063335397  0.063352527            5 
 1014000    1.0745613   -4.3969345     769.4205  0.063233111   0.06334338            3 
 1015000    1.1193322   -4.4406621    767.33195  0.062999339  0.063334698            2 
 1016000    1.0951765   -4.4158275    768.33307  0.063019445  0.063325664            4 
 1017000    1.0963347   -4.4094484    770.44479  0.063130514  0.063316902            2 
 1018000    1.0789148   -4.4528099    768.98295  0.062948833  0.063308203            2 
 1019000    1.0887461   -4.4222802    766.91473   0.06271792  0.063298916            3 
 1020000    1.0798476   -4.4103369     769.9195   0.06290192  0.063289919            2 
 1021000    1.0936522   -4.4297468    768.78206  0.062747474  0.063280716            2 
 1022000    1.0912103    -4.415851    770.93414  0.062861557  0.063271211            2 
 1023000    1.0859224   -4.4331587     771.4847  0.062844958  0.063261628            5 
 1024000    1.0866959   -4.4513821    772.07333  0.062831488  0.063252275            2 
 1025000    1.1014664   -4.3900783    776.35889  0.063118609  0.063243415            1 
 1026000    1.0728852   -4.4293479    775.16822  0.062960382  0.063234303            2 
 1027000    1.0868703   -4.4021541    774.92491  0.062879333  0.063224385            2 
 1028000    1.1086486   -4.3864056    774.56202   0.06278875  0.063214498            2 
 1029000    1.1014286   -4.4104701    775.92207  0.062837874  0.063204476            1 
 1030000    1.0913209   -4.3980489    777.25331  0.062884572  0.063194297            2 
 1031000    1.0703573   -4.4430666    776.87491  0.062792993  0.063184026            2 
 1032000    1.0899474   -4.4177591    777.53077  0.062785108  0.063173146            2 
 1033000    1.0891888   -4.4535942    774.02943  0.062441871  0.063162206            3 
 1034000     1.080152   -4.4139113    778.08444  0.062708289  0.063151153            2 
 1035000    1.0549818   -4.4480646      776.972  0.062558132  0.063140875            2 
 1036000    1.0761619   -4.4462902    776.92126  0.062493666  0.063130234            2 
 1037000    1.0597656   -4.4148455    781.50012  0.062801359   0.06311885            2 
 1038000    1.0768724   -4.4245683     778.1757  0.062473964  0.063107749            4 
 1039000    1.1144526   -4.4232504     779.8702  0.062549744  0.063096818            5 
 1040000    1.0903366   -4.4513099    780.70116  0.062556182  0.063085987            2 
 1041000    1.0970642   -4.4211417    781.27135  0.062541735  0.063075391            3 
 1042000    1.0863947   -4.3842626    780.73235  0.062438608  0.063064478            1 
 1043000    1.0989674   -4.4077309     783.0064  0.062560435  0.063054134            2 
 1044000    1.0854271   -4.4033008    788.11804  0.062908528  0.063044348            1 
 1045000     1.066751   -4.4311025    781.90542  0.062352904  0.063034228            2 
 1046000    1.0659609   -4.4279348    787.24731  0.062718874  0.063023894            3 
 1047000    1.0846508   -4.4177685    786.10156  0.062567777  0.063013088            2 
 1048000    1.0770445   -4.4447513     783.9643  0.062338128  0.063002437            1 
 1049000    1.1133696   -4.4252623    784.87781  0.062351272  0.062991835            4 
 1050000    1.0830415   -4.4479027    785.96386  0.062378084   0.06298137            2 
 1051000    1.0875658   -4.3995407     789.4361  0.062594045  0.062970826            3 
 1052000    1.0798221   -4.4112127    786.87448  0.062331628  0.062959862            1 
 1053000    1.1019484   -4.4207194    790.44654  0.062555123  0.062949297            3 
 1054000    1.1301109    -4.432311    788.91823  0.062374939  0.062938563            3 
 1055000    1.0849031   -4.4370774    788.09297  0.062250629  0.062927704            3 
 1056000    1.0553803   -4.4339878    788.97283  0.062261113  0.062916741            2 
 1057000    1.0966095   -4.4370995    789.20692  0.062220666  0.062905852            2 
 1058000    1.0804738   -4.4215639     793.9544  0.062535791  0.062894727            2 
 1059000     1.106634   -4.4414205    791.28925  0.062267017  0.062884328            3 
 1060000     1.074549   -4.4021413    792.40195  0.062295751  0.062873524            1 
 1061000    1.0785817   -4.4492795    792.80645  0.062268807  0.062862175            4 
 1062000    1.0744738    -4.450623    791.19637  0.062083833  0.062851185            3 
 1063000    1.1026922   -4.4292743    794.89104  0.062315071  0.062839208            3 
 1064000    1.0795144   -4.4274492    796.44091   0.06237789  0.062828206            3 
 1065000    1.0882615   -4.4284215    798.88955  0.062510919  0.062816962            3 
 1066000    1.0780029   -4.4113299    798.33858  0.062409207  0.062806061            2 
 1067000    1.0718066   -4.4128805    796.69824  0.062222605  0.062794872            3 
 1068000    1.0820059   -4.4194852    796.33749  0.062136196  0.062783582            4 
 1069000    1.0681978   -4.4332524    797.26583  0.062150439  0.062772416            2 
 1070000     1.068764   -4.4467151    798.29888   0.06217281  0.062761728            4 
 1071000    1.0905299   -4.4124658    800.90124  0.062317245  0.062750918            3 
 1072000    1.0864489   -4.4052989    797.57109   0.06200024  0.062740265            6 
 1073000    1.0724048   -4.4501478     799.5768  0.062098229  0.062729201            4 
 1074000    1.0692831   -4.3920653    801.97129  0.062226202  0.062717802            3 
 1075000    1.0975325   -4.4033729    804.95399  0.062399534  0.062706412            3 
 1076000    1.0794214   -4.4119455    803.33643  0.062216266  0.062695813            5 
 1077000     1.089149   -4.4260784    803.13839  0.062143175  0.062685256            2 
 1078000     1.071266   -4.4271891    804.40462  0.062183412  0.062674054            1 
 1079000    1.0687838   -4.4132154    808.03155  0.062405897  0.062663068            3 
 1080000     1.093369     -4.42818     803.7551  0.062018141  0.062652143            3 
 1081000     1.057239   -4.4488346    802.03779  0.061828383  0.062640634            3 
 1082000    1.0890924   -4.4371711    802.39986  0.061799126  0.062629068            5 
 1083000    1.0708961   -4.4298477       803.69  0.061841336   0.06261731            2 
 1084000    1.0796275   -4.3947357    807.27464  0.062059859  0.062605172            1 
 1085000    1.0814099   -4.4525654    803.27268   0.06169529  0.062592739            5 
 1086000     1.080793   -4.4505927    803.72252  0.061672999  0.062579987            3 
 1087000     1.099021   -4.4275858    807.04544  0.061871009  0.062567974            2 
 1088000    1.0809083   -4.4090294    806.74185  0.061790889  0.062555897            3 
 1089000    1.0752043   -4.4583204    806.27346  0.061698306  0.062543845            3 
 1090000     1.096256   -4.4043222    808.84616  0.061838391  0.062532062            2 
 1091000    1.0988125   -4.4505264    806.91827  0.061634454  0.062520484            3 
 1092000    1.0994677   -4.4610504    810.84673  0.061877803  0.062508674            3 
 1093000    1.0780299   -4.4351278     810.2812  0.061778072  0.062497167            3 
 1094000    1.0566553   -4.4508595     814.0188  0.062006307  0.062486201            3 
 1095000    1.0443546   -4.4692184    815.01271   0.06202532  0.062475202            2 
 1096000    1.0704292   -4.4501589    812.23459  0.061757496  0.062464369            3 
 1097000    1.0896674   -4.4698886    813.23643  0.061777304  0.062453146            2 
 1098000    1.0911274   -4.4451938    815.08043  0.061860992    0.0624425            8 
 1099000     1.065357   -4.4654073    816.54713  0.061915918  0.062431574            3 
 1100000    1.0822056   -4.4557645    818.06288  0.061974461  0.062420922            6 
 1101000    1.0949594   -4.4247335    820.63549  0.062112889  0.062410741            2 
 1102000    1.0803857   -4.4633585    814.99633  0.061630091  0.062401045            4 
 1103000      1.09781   -4.4433263    821.94934  0.062099527  0.062390593            3 
 1104000    1.0891424   -4.4310916    819.36043  0.061847859  0.062381004            3 
 1105000    1.0837892   -4.4663772    822.15936  0.062002968  0.062370905            1 
 1106000    1.0602448   -4.4576554    821.45404  0.061893765  0.062360453            1 
 1107000    1.0909814   -4.4131104    827.78081  0.062314123  0.062350972            2 
 1108000    1.0698621    -4.432487    824.18327   0.06198731  0.062341203            5 
 1109000    1.0704862    -4.480847     825.6281  0.062039984  0.062330872            3 
 1110000    1.0785517   -4.4186038    826.30934  0.062035236  0.062321245            2 
 1111000    1.0838189   -4.4564438    824.73907  0.061861616  0.062310837            3 
 1112000    1.0810187   -4.4207133    828.61249   0.06209626  0.062300611            3 
 1113000    1.0775521   -4.4629676     824.6994  0.061747484  0.062290322            3 
 1114000    1.0878751   -4.4174066    828.34334  0.061964643  0.062280013            1 
 1115000    1.0957873   -4.4540088    828.62076  0.061929803  0.062270168            3 
 1116000    1.0826852   -4.4509111    831.34227  0.062077529  0.062260507            1 
 1117000    1.0555427   -4.4536472     828.0415  0.061775702  0.062249972            3 
 1118000    1.0968474   -4.4525523    830.99838  0.061940845  0.062240022            2 
 1119000    1.0599884   -4.4621172    829.37244  0.061764406  0.062230012            2 
 1120000    1.0747294   -4.4657414     829.4732  0.061716756  0.062219943            5 
 1121000    1.0547444   -4.4460961    832.32161  0.061873447  0.062209216            3 
 1122000    1.0774641   -4.4259993    836.31482  0.062114885  0.062199287            4 
 1123000    1.0735407    -4.424026    831.42938  0.061697045  0.062189429            3 
 1124000    1.0966889   -4.4525874    836.95711   0.06205198  0.062179974            1 
 1125000    1.0761293   -4.4675788    834.17071  0.061790423  0.062170322            3 
 1126000    1.0623928   -4.4302368    833.72744  0.061702741  0.062159931            4 
 1127000    1.0839297   -4.4529929    835.27142  0.061762158  0.062150033            6 
 1128000    1.0871611   -4.4236572    835.83723  0.061749204  0.062139969            4 
 1129000    1.0529292   -4.4407341    838.37478  0.061881811  0.062129858            5 
 1130000    1.0598096   -4.4702452    834.72664  0.061558011  0.062119657            3 
 1131000    1.0522037   -4.4791777    837.88206  0.061736079  0.062109352            2 
 1132000    1.0634326   -4.4447681     840.8039  0.061896635  0.062099543            2 
 1133000    1.0775704   -4.4263683    839.75951  0.061765189  0.062089569            2 
 1134000    1.0700998   -4.4612688    839.03282   0.06165732  0.062079235            1 
 1135000    1.0583395   -4.4592749    841.17412  0.061760214   0.06206969            3 
 1136000    1.0775211   -4.4471888    842.49908  0.061803043  0.062059701            3 
 1137000    1.0503412   -4.4454414    845.68181  0.061981956  0.062049914            1 
 1138000    1.0761912   -4.4401844    843.11439  0.061739484  0.062039997            2 
 1139000    1.0847228   -4.4633322     842.1941  0.061617947   0.06203022            5 
 1140000    1.0652114   -4.4804748    843.98657  0.061694924  0.062020038            3 
 1141000     1.102701    -4.401388    846.48561  0.061823372  0.062011021            5 
 1142000    1.0782726   -4.4811649    846.42406  0.061764745  0.062002082            4 
 1143000    1.0805896   -4.4435276    850.00777  0.061971987  0.061992709            2 
 1144000     1.065842   -4.4777741    845.77219  0.061609279    0.0619832            3 
 1145000    1.0784053   -4.4430725    847.65074  0.061692193  0.061974103            2 
 1146000    1.0611502    -4.441512    851.62472  0.061927336  0.061965239            4 
 1147000     1.063888   -4.4481142    851.43084  0.061859259  0.061956203            3 
 1148000    1.0748113   -4.4435282    850.87018  0.061764676   0.06194674            4 
 1149000    1.0733601   -4.4444036    850.80976  0.061706539   0.06193708            3 
 1150000    1.0764339   -4.4610945    852.04499  0.061742391  0.061927995            4 
 1151000    1.0721845   -4.4611246    852.94635  0.061754008  0.061918662            2 
 1152000    1.0592857   -4.4477686    854.10554  0.061784255  0.061909488            3 
 1153000     1.083349   -4.4648295    854.35709   0.06174885   0.06190033            7 
 1154000    1.0553347   -4.4420005     852.9265  0.061592035  0.061890836            3 
 1155000    1.0683545   -4.4522053    857.79796  0.061890185  0.061881636            2 
 1156000    1.0622651   -4.4320353     859.8327  0.061983326  0.061873064            5 
 1157000    1.0662885   -4.4343962    856.88957  0.061717774  0.061864068            3 
 1158000    1.0736065   -4.4592048    857.30245  0.061694189  0.061855051            2 
 1159000    1.1048108    -4.417953    858.08544  0.061697256  0.061846292            3 
 1160000    1.0893149   -4.4585882    857.24815  0.061583919  0.061837206            7 
 1161000    1.0627721   -4.4396069    858.85823  0.061646442  0.061827822            2 
 1162000    1.0944916   -4.4917661    859.37267  0.061630283  0.061818558            1 
 1163000    1.0562545   -4.4509965    861.34827   0.06171885  0.061808881            5 
 1164000    1.0617173   -4.4430767    861.83577  0.061700728   0.06180011            3 
 1165000    1.0578576   -4.4559625    860.69831  0.061566403  0.061791445            4 
 1166000    1.0802486   -4.4599291    862.45733  0.061639317  0.061782317            3 
 1167000    1.0756961   -4.4389701    865.89792  0.061832185  0.061773639            3 
 1168000    1.0763644   -4.4542644    857.52993  0.061182215  0.061764714            1 
 1169000    1.0587322   -4.4499327    864.69945  0.061640965  0.061755299            4 
 1170000    1.0597429   -4.4566194    865.04227  0.061612697  0.061746548            4 
 1171000    1.0883443   -4.4508039    866.02103  0.061629735  0.061737982            4 
 1172000    1.0704959   -4.4434032    865.81661  0.061562614  0.061729386            2 
 1173000    1.0627159   -4.5037632     866.1387  0.061533013  0.061720745            3 
 1174000    1.0772791   -4.4685807    865.88096  0.061462305  0.061712156            1 
 1175000    1.0649505   -4.4453629    868.18639  0.061573503  0.061703479            2 
 1176000    1.0542044   -4.4739205    868.26259  0.061526544  0.061694644            3 
 1177000    1.0552058    -4.468107    870.34063  0.061621398  0.061685676            8 
 1178000    1.0445007   -4.4600322     870.0508  0.061548585  0.061677289            2 
 1179000    1.0821669   -4.4558712    873.28624  0.061725066    0.0616687            6 
 1180000    1.0849922   -4.4407503    873.88752   0.06171522  0.061660051            2 
 1181000    1.0766293   -4.4514279     871.5983  0.061501432  0.061651221            2 
 1182000    1.0432918   -4.4739899    871.85645    0.0614676   0.06164243            1 
 1183000    1.0335144   -4.4779984     868.7515  0.061196922  0.061633236            3 
 1184000    1.0769778   -4.4491278    875.98485  0.061654339  0.061624633            2 
 1185000    1.0800595   -4.4575217    874.47063  0.061495825  0.061616324            3 
 1186000    1.0653592   -4.4313311    875.95734  0.061548436  0.061607315            2 
 1187000    1.0596985   -4.4685248    878.34315  0.061664079  0.061598801            4 
 1188000    1.0542541   -4.4440617    875.21307  0.061392611  0.061590276            3 
 1189000    1.0865182   -4.4830288    874.02364  0.061257614  0.061582131            3 
 1190000    1.0658243   -4.4679927    879.45817  0.061586707  0.061573678            4 
 1191000     1.042451   -4.4606028     881.5391  0.061680597  0.061565275            3 
 1192000    1.0767379   -4.4649873     880.9536   0.06158792   0.06155684            6 
 1193000    1.0637133   -4.4894137    879.05429  0.061403625  0.061548555            6 
 1194000    1.0585569   -4.4089999    882.89143  0.061620005  0.061540138            3 
 1195000    1.0639659   -4.4457611     879.8716  0.061357852   0.06153165            3 
 1196000    1.0667135   -4.4760726    876.85556  0.061096402  0.061522631            3 
 1197000    1.0674205   -4.4438104    880.82087   0.06132142  0.061513365            2 
 1198000    1.0916801   -4.4621825    885.20284  0.061575044  0.061504669            4 
 1199000    1.0991619    -4.438165    884.37036   0.06146583  0.061495759            2 
 1200000    1.0513425   -4.4664111    883.95076  0.061385469  0.061486909            2 
 1201000    1.0628899   -4.4794791    883.35727  0.061293177  0.061477786            2 
 1202000     1.069444   -4.4728591    882.43817  0.061178464  0.061468528            2 
 1203000    1.0575549    -4.463599    886.72317  0.061424437  0.061459176            5 
 1204000    1.0343803   -4.4418276    888.34343  0.061485564  0.061450399            4 
 1205000    1.0494062   -4.4785278    883.50495  0.061099927  0.061441321            2 
 1206000    1.0660419    -4.428532    891.03068  0.061569284  0.061432246            4 
 1207000    1.0792344   -4.4420662    887.42661  0.061269443  0.061423228            3 
 1208000    1.0509028   -4.4801858    886.29379  0.061140576  0.061414225            5 
 1209000    1.0653652     -4.49435    888.61851  0.061250242  0.061404677            2 
 1210000     1.066993   -4.4442111    890.42129   0.06132378  0.061395788            6 
 1211000    1.0581944   -4.4560169     888.9449  0.061171546  0.061386875            4 
 1212000    1.0714783   -4.4811312     890.0871  0.061199608  0.061377524            3 
 1213000    1.0561084   -4.4764247     886.2537    0.0608858  0.061368383            4 
 1214000    1.0500539    -4.463811     889.3522  0.061048338  0.061359057            4 
 1215000    1.0639281   -4.4531146    891.10286  0.061118166   0.06134918            6 
 1216000    1.0118052   -4.4845731    889.18101  0.060936198  0.061339282            2 
 1217000    1.0943931   -4.4772692    890.87854  0.061002365  0.061329677            5 
 1218000    1.0350884   -4.4590232    892.69956  0.061076872  0.061319421            3 
 1219000    1.0502023   -4.4642237    893.53188  0.061083667  0.061308996            3 
 1220000    1.0463521   -4.4655024    891.40741  0.060888484  0.061298823            4 
 1221000    1.0421656   -4.4798658    891.90815  0.060872792  0.061289061            2 
 1222000    1.0640518   -4.4739709    895.41055  0.061061821  0.061278936            4 
 1223000     1.050182   -4.4745928    896.03342  0.061054335  0.061269098            1 
 1224000    1.0745718   -4.4910583    895.87922  0.060993956  0.061259304            6 
 1225000    1.0850894   -4.4584161    898.84283  0.061145771  0.061249786            5 
 1226000    1.0694916   -4.4980248    893.54174  0.060735572  0.061240589            2 
 1227000    1.0463378   -4.5029076    898.51921  0.061024124  0.061230526            3 
 1228000    1.0973612   -4.4876946    897.60811  0.060912603  0.061220921            6 
 1229000    1.0675897   -4.4619926    894.87509  0.060677725  0.061211176            2 
 1230000    1.0522215   -4.4772648    901.93784    0.0611069  0.061201463            3 
 1231000    1.0533393   -4.4766947    901.86044   0.06105202  0.061191834            2 
 1232000    1.0627542   -4.4703611    902.25129  0.061028902  0.061182468            2 
 1233000    1.0578015   -4.5216767    899.27478  0.060778236  0.061172587            5 
 1234000      1.05391   -4.4649569        903.1  0.060987304  0.061162753            4 
 1235000     1.055729   -4.4603877    902.85837  0.060921617  0.061153174            3 
 1236000    1.0327025   -4.4854235      901.987  0.060813579  0.061143734            3 
 1237000    1.0835258   -4.4597611    904.69852  0.060947085  0.061133968            2 
 1238000    1.0393939   -4.4902505    902.28268  0.060735237  0.061124659            3 
 1239000    1.0377764   -4.4637476    905.71318  0.060916948  0.061115493            3 
 1240000    1.0737878   -4.4666424    904.51475  0.060787281    0.0611059            4 
 1241000    1.0258216   -4.4582911    906.57969   0.06087696  0.061096602            4 
 1242000    1.0249213   -4.5207677    905.52517  0.060757191  0.061086751            4 
 1243000     1.048939   -4.4720044      905.074  0.060678064  0.061076944            5 
 1244000    1.0551786   -4.4768195    909.42514  0.060920763  0.061067258            4 
 1245000    1.0494861   -4.4820109     906.5904  0.060682089   0.06105744            3 
 1246000    1.0590803   -4.4733502    907.06131  0.060664882  0.061047381            2 
 1247000    1.0515246   -4.4981234    910.54994  0.060849368   0.06103714            2 
 1248000    1.0211414   -4.4660489    911.77265  0.060882255  0.061027309            2 
 1249000    1.0495983     -4.48634    909.26136  0.060665957  0.061017573            2 
 1250000    1.0395829   -4.4797332     907.5088  0.060500587  0.061007473            2 
 1251000    1.0488673   -4.4707638    913.03234  0.060820167  0.060997492            3 
 1252000    1.0440208    -4.463441    911.49989  0.060669588  0.060987558            3 
 1253000    1.0385047   -4.5189633    906.88598  0.060314311  0.060977194            3 
 1254000    1.0550229   -4.4921503    911.53115  0.060574903  0.060966558            5 
 1255000     1.063277    -4.500235     910.5178  0.060459349    0.0609564            2 
 1256000    1.0640221   -4.4666728    913.28264  0.060594655  0.060946083            6 
 1257000    1.0627494   -4.4953361    908.57309  0.060234228  0.060935658            4 
 1258000     1.055112    -4.495074     911.6014   0.06038695  0.060924649            3 
 1259000    1.0456707   -4.4386115    915.96913  0.060628086  0.060913789            5 
 1260000    1.0684067   -4.4678914    915.39734  0.060542152  0.060903453            3 
 1261000    1.0643772   -4.4681915    915.79272   0.06052027  0.060893323            1 
 1262000    1.0544122    -4.492378    917.10097  0.060558701  0.060883114            2 
 1263000    1.0752561   -4.4897591    915.50492  0.060405445  0.060873243            3 
 1264000    1.0571065   -4.5257417    916.92247  0.060451112  0.060863548            1 
 1265000    1.0457997   -4.5001074    914.66014  0.060254291  0.060853793            5 
 1266000    1.0729031   -4.4751059    921.15513  0.060634224  0.060843901            2 
 1267000    1.0273156   -4.4562223     921.6279  0.060617462  0.060834283            3 
 1268000    1.0521775   -4.5061501     921.0646  0.060532637  0.060824163            4 
 1269000     1.063082   -4.4276782    925.72341  0.060790873   0.06081409            2 
 1270000    1.0503974   -4.4799033    920.41423  0.060394635  0.060804039            2 
 1271000    1.0282457   -4.4792249    922.12708   0.06045942  0.060794157            2 
 1272000    1.0645628   -4.4928593    922.10808  0.060410645  0.060783928            3 
 1273000    1.0507682   -4.4661499     926.5798  0.060655918  0.060774017            6 
 1274000    1.0472658   -4.4899858    922.91952  0.060368885  0.060764327            3 
 1275000    1.0420356   -4.5021279    924.10333  0.060398911  0.060754431            2 
 1276000    1.0616355   -4.4620633    927.59488  0.060579603  0.060744651            3 
 1277000    1.0433262   -4.4747048    926.42387  0.060455747  0.060734575            2 
 1278000    1.0541689   -4.5275731    923.85394  0.060240867  0.060724134            2 
 1279000    1.0291876   -4.4351833    927.63995  0.060440445  0.060713984            3 
 1280000    1.0392489   -4.5125945    926.95169  0.060348417  0.060703931            4 
 1281000    1.0566071   -4.4655935    929.83302  0.060488747  0.060693341            2 
 1282000    1.0558219   -4.4584809    927.24249  0.060273173  0.060683175            3 
 1283000    1.0371974   -4.5173079    929.09462  0.060346494  0.060672706            2 
 1284000    1.0444541   -4.5063541    931.14278  0.060432424  0.060662536            3 
 1285000    1.0286818   -4.5161803    927.82837  0.060170452  0.060652081            5 
 1286000    1.0376595   -4.5093024     929.6968  0.060244738  0.060641794            4 
 1287000    1.0332447   -4.4959907    929.62968  0.060193582  0.060631338            3 
 1288000    1.0494313    -4.487765    931.64302   0.06027711  0.060621456            2 
 1289000    1.0558125   -4.4610214    929.23512  0.060074678  0.060611409            4 
 1290000    1.0511146    -4.477941    932.52576  0.060240682  0.060601334            2 
 1291000    1.0661949   -4.4552666    934.37282  0.060313247  0.060591427            2 
 1292000    1.0520199   -4.5101496     929.4193  0.059947065    0.0605815            2 
 1293000    1.0569837   -4.5032322    935.20543  0.060273616  0.060571075            3 
 1294000    1.0513192    -4.461253    937.86425  0.060398265  0.060561017            2 
 1295000    1.0352665   -4.5100594    934.34947  0.060125448  0.060550955            2 
 1296000    1.0574288   -4.4942469     936.3279  0.060206269   0.06054081            2 
 1297000    1.0503222   -4.4849071    937.34528  0.060225217  0.060530685            3 
 1298000    1.0366233   -4.5045255    936.92602  0.060151902  0.060520478            3 
 1299000    1.0387185   -4.4701503    939.51684  0.060271801  0.060510232            4 
 1300000    1.0524988   -4.4596626    938.40046  0.060153876   0.06050013            3 
 1301000    1.0540204   -4.4855543    938.33512  0.060103454  0.060489766            5 
 1302000    1.0308315   -4.5172516    937.05921  0.059975628  0.060479643            2 
 1303000    1.0366228   -4.5080418    940.27059  0.060134983  0.060469387            2 
 1304000    1.0340443   -4.4638858    944.19115  0.060339414  0.060459474            3 
 1305000    1.0532226   -4.5279718    942.89141  0.060210179  0.060449839            1 
 1306000    1.0335294    -4.483601    945.50835  0.060331059  0.060439935            5 
 1307000    1.0375226   -4.5025175    943.90937  0.060182949  0.060430116            2 
 1308000    1.0317906   -4.5103829    944.94456   0.06020289   0.06042012            3 
 1309000    1.0302769   -4.5161157    945.42428  0.060187438  0.060410567            6 
 1310000    1.0402221   -4.4857196    943.07034  0.059991752  0.060400737            1 
 1311000    1.0653687   -4.4872296    945.79528  0.060119202  0.060390925            4 
 1312000      1.06368   -4.5068005    945.84047  0.060076249  0.060381249            8 
 1313000    1.0340339   -4.5061073    948.54128  0.060201909  0.060371563            1 
 1314000    1.0685924   -4.5127505    945.23484    0.0599464  0.060361594            2 
 1315000    1.0437978   -4.5182545    944.57562  0.059859038  0.060351548            6 
 1316000    1.0234551   -4.4957501    947.11499  0.059974353  0.060341728            3 
 1317000    1.0506756    -4.542989    946.42058  0.059884876  0.060331829            2 
 1318000      1.04633   -4.4422472    952.42296  0.060218953  0.060322315            1 
 1319000    1.0316422   -4.4914007    950.08837    0.0600258  0.060312479            8 
 1320000    1.0321269   -4.4965595    952.13113  0.060109288  0.060302428            2 
 1321000    1.0427432   -4.4893935    950.68249    0.0599724   0.06029266            2 
 1322000    1.0148586   -4.5016033    948.48445   0.05978848  0.060282205            2 
 1323000     1.027809   -4.4982525    954.96756  0.060151648  0.060271882            3 
 1324000    1.0444693    -4.490437     955.3069  0.060127574  0.060261937            2 
 1325000    1.0496532   -4.4470777    956.58814  0.060162776  0.060252318            2 
 1326000    1.0249806   -4.5012348    955.41635  0.060043762   0.06024225            2 
 1327000     1.049206   -4.5309551    952.56482  0.059819444   0.06023247            2 
 1328000    1.0364915   -4.4702805    954.68657  0.059907541  0.060222518            3 
 1329000    1.0415312   -4.5334484    956.66171  0.059986313  0.060212449            3 
 1330000    1.0334766   -4.5223723    954.08903  0.059780014  0.060202465            1 
 1331000    1.0384687   -4.5065113    959.03258  0.060044615  0.060192417            2 
 1332000    1.0446082   -4.5043447    960.08951   0.06006566  0.060182653            3 
 1333000    1.0482789   -4.5444096    952.76952  0.059562986  0.060172464            2 
 1334000    1.0586981   -4.4896151    959.72436  0.059952796  0.060162294            2 
 1335000    1.0522529   -4.5036247    954.84021  0.059603009  0.060151986            2 
 1336000    1.0489543   -4.5001268    961.07248  0.059947136  0.060141873            3 
 1337000    1.0307206   -4.4997724    958.57921  0.059746897  0.060131573            3 
 1338000    1.0376674    -4.506007    962.93182  0.059973332   0.06012136            4 
 1339000    1.0467423   -4.4872323    962.13518  0.059878963   0.06011083            2 
 1340000    1.0356386   -4.5054111    959.06698  0.059643469  0.060100561            3 
 1341000    1.0186348   -4.4781768    962.06715  0.059785431  0.060090433            2 
 1342000    1.0580429   -4.5038302    961.14775   0.05968379  0.060080036            3 
 1343000    1.0380295   -4.4991733    962.26461  0.059708651  0.060069744            4 
 1344000    1.0454503   -4.5131754    957.62334  0.059376447  0.060059318            2 
 1345000    1.0356861   -4.4926009     961.0206  0.059542788  0.060048883            2 
 1346000    1.0447596   -4.4856537    962.50626  0.059590531  0.060038139            4 
 1347000    1.0433083   -4.5185013    961.58097  0.059489048  0.060027238            2 
 1348000    1.0211136    -4.520353    963.67913  0.059574625  0.060016461            4 
 1349000    1.0421312   -4.4911991    963.75703  0.059535275  0.060005515            7 
 1350000    1.0306989   -4.5260922    962.47671  0.059412143  0.059994849            5 
 1351000    1.0434973   -4.4758313    969.81564  0.059820851  0.059984226            2 
 1352000     1.019241   -4.5112012    964.52976  0.059450798  0.059973683            3 
 1353000    1.0301672   -4.5227841    966.86422  0.059550642  0.059963259            5 
 1354000    1.0298699    -4.524395    966.11414  0.059460496  0.059952757            2 
 1355000    1.0117404   -4.5105931    969.05252  0.059597326  0.059942603            3 
 1356000    1.0355846    -4.495511    975.36028   0.05994102  0.059932646            3 
 1357000    1.0338991   -4.5028593    974.42405  0.059839355  0.059923164            3 
 1358000    1.0217733   -4.4872225    972.89528  0.059701477  0.059913462            2 
 1359000    1.0590818   -4.4869824    971.60872  0.059578656  0.059903684            1 
 1360000    1.0450729   -4.5208311    972.14959  0.059567989  0.059893606            1 
 1361000    1.0366158   -4.5264008    978.25131  0.059897827  0.059883888            3 
 1362000    1.0512275   -4.5191859    975.65582  0.059695045  0.059874181            3 
 1363000    1.0310117   -4.4817199    978.61097  0.059831925   0.05986431            2 
 1364000    1.0580819     -4.53291    975.75567  0.059613616  0.059854362            4 
 1365000    1.0265145   -4.4914793    974.84434  0.059514306    0.0598447            3 
 1366000    1.0394304   -4.4768524    979.91192  0.059779888  0.059834908           11 
 1367000    1.0190668   -4.5135599    977.42562   0.05958459   0.05982521            3 
 1368000    1.0189826   -4.4855593    979.17406  0.059647542   0.05981528            4 
 1369000     1.021028   -4.4982188    979.65601   0.05963331  0.059805653            4 
 1370000    1.0559428   -4.5183907    979.38287  0.059573167  0.059795933            4 
 1371000    1.0369293   -4.4880148    979.41744  0.059531816  0.059786208            3 
 1372000    1.0253745   -4.5036405    978.97143  0.059461336   0.05977645            8 
 1373000     1.033951   -4.5401555    978.58044  0.059394297  0.059766526            3 
 1374000    1.0132877   -4.4988391     985.2954  0.059758334  0.059756615            1 
 1375000    1.0488341   -4.5431821    976.13593  0.059159754  0.059746441            3 
 1376000    1.0303686   -4.5042524    981.15189  0.059420536  0.059736232            3 
 1377000     1.049794   -4.5035834    980.18173  0.059318671  0.059726279            3 
 1378000    1.0345996   -4.5050438    981.03481  0.059327214  0.059716059            4 
 1379000     1.040183   -4.5018608    981.61425  0.059319208  0.059705978            3 
 1380000    1.0371517   -4.5102926    986.40322  0.059565412   0.05969604            1 
 1381000    1.0587955    -4.531285    982.62054  0.059294022  0.059685923            3 
 1382000    1.0184764   -4.5437047    984.68149  0.059375392  0.059675867            3 
 1383000    1.0551295    -4.531762    983.90254  0.059285523  0.059665959            3 
 1384000    1.0149148   -4.5343966    982.16157  0.059137859  0.059655769           13 
 1385000    1.0040538   -4.5230619    983.46657   0.05917368  0.059645583            2 
 1386000    1.0349643   -4.5270512    983.15643  0.059112339  0.059635102            7 
 1387000    1.0473649    -4.500473    987.25349  0.059315879  0.059624931            3 
 1388000    1.0384688   -4.5329612     987.6762  0.059298523  0.059614546            2 
 1389000    1.0278192   -4.4909716    990.87476   0.05944773  0.059604466            2 
 1390000    1.0470896   -4.5328781    989.21447  0.059305424  0.059594739            2 
 1391000    1.0203491   -4.5300915    989.68393  0.059290914  0.059584921            4 
 1392000    1.0196109   -4.5218648    989.77537  0.059253794  0.059574925            4 
 1393000    1.0127358   -4.4973372    991.37384  0.059306882  0.059565195            5 
 1394000     1.016906   -4.5194752    992.61308   0.05933842  0.059555327            3 
 1395000     1.036589   -4.5242453     995.0605  0.059442085    0.0595455            2 
 1396000    1.0167236   -4.5075981    992.98615  0.059275677  0.059535642            3 
 1397000    1.0096228   -4.5350014    993.46825  0.059262005  0.059525822            2 
 1398000    1.0332453   -4.5420168    994.14736  0.059260095  0.059515954            6 
 1399000    1.0055695   -4.5220266    993.73358  0.059193089  0.059505857            2 
 1400000    1.0179188   -4.5644287    993.07451  0.059111578  0.059495893            2 
 1401000    1.0352398    -4.517317    991.89006  0.058998933  0.059485989            2 
 1402000    1.0131509   -4.5245409    991.74648  0.058948317  0.059475305            2 
 1403000    1.0049375   -4.5353011    994.23367  0.059054031   0.05946482            3 
 1404000    1.0248217   -4.4961079    996.93108  0.059172072  0.059454368            3 
 1405000    1.0305053   -4.5067653    1000.2237  0.059325247  0.059444223            5 
 1406000    1.0143046   -4.5218159    996.13674  0.059040821  0.059434066            4 
 1407000    1.0514759   -4.5381643    998.22855  0.059122752  0.059423955            3 
 1408000    1.0205854   -4.5425463      998.655  0.059106001  0.059413408            2 
 1409000     1.018907   -4.4785773    996.40635  0.058931059    0.0594034            2 
 1410000      1.01955   -4.5483986    1000.3413  0.059121827  0.059392895            2 
 1411000    1.0076488   -4.5074866    996.18562  0.058834492  0.059382439            3 
 1412000    1.0202821    -4.530095    999.11199  0.058965533  0.059372153            7 
 1413000    1.0358533    -4.516602    1002.7277  0.059137041   0.05936124            2 
 1414000    1.0056619   -4.5113038    1003.5257   0.05914225  0.059350691            3 
 1415000     1.003728   -4.5495259    997.42188  0.058740982  0.059340333            1 
 1416000    1.0392984   -4.5091267    1001.7184  0.058952354  0.059329973            1 
 1417000    1.0201955     -4.51011    1002.4666  0.058954752  0.059319737            2 
 1418000    1.0343101   -4.5344999    1002.9824  0.058943487  0.059308965            2 
 1419000     1.013555   -4.5431111    1000.6191  0.058763159  0.059298149            1 
 1420000    1.0053466    -4.536154    1000.6095  0.058721214  0.059287489            3 
 1421000    1.0173477   -4.5392813    1004.9854  0.058936511  0.059276622            2 
 1422000    1.0229391   -4.5336882    1006.1709  0.058964538  0.059266014            2 
 1423000    1.0268461   -4.5127483    1007.3124  0.058989951  0.059255395            5 
 1424000    1.0277091   -4.5363681    1003.1447  0.058704628  0.059244903            4 
 1425000     1.004813   -4.5095967    1009.5413  0.059037501  0.059234237            4 
 1426000    1.0109184   -4.5198723     1004.842   0.05872148  0.059223697            1 
 1427000    1.0105943   -4.5405581    1007.8248  0.058854519  0.059212705            2 
 1428000    1.0279656   -4.5321716    1005.0345  0.058650474  0.059201726            4 
 1429000    1.0086186   -4.5352789    1008.5286  0.058813193  0.059191287            4 
 1430000    1.0035832   -4.5607837    1004.7904  0.058554222    0.0591806            4 
 1431000    1.0050428   -4.5414667    1008.9586  0.058756033  0.059169915            8 
 1432000    1.0147742   -4.5374861    1009.0741  0.058721725  0.059159262            4 
 1433000     1.013722   -4.5135199    1006.1495  0.058510669  0.059148416            2 
 1434000    1.0261204   -4.5118228    1009.3747  0.058657292  0.059137243            4 
 1435000    1.0165714   -4.5221602    1010.9617  0.058708575  0.059126255            2 
 1436000     1.033699   -4.5651044    1010.5338  0.058642862  0.059115457            3 
 1437000    1.0067093   -4.5304917    1012.0056  0.058687405  0.059104445            2 
 1438000    1.0490414   -4.5145906    1010.3335  0.058549692  0.059093891            8 
 1439000    1.0300494   -4.5674121    1011.5242  0.058577961  0.059083195            2 
 1440000    1.0158734   -4.5531727    1012.8858  0.058616075  0.059072436            3 
 1441000    1.0265282   -4.5230365    1012.9319  0.058578062  0.059061129            5 
 1442000     1.018389   -4.5183634    1014.2213  0.058611957  0.059050478            4 
 1443000    1.0100637   -4.5118106    1016.8118  0.058720939  0.059039725            4 
 1444000    1.0396022   -4.5217685    1014.2051  0.058529841  0.059028933            2 
 1445000    1.0193497   -4.5308027    1016.6009  0.058627504  0.059018186            6 
 1446000    1.0024902   -4.5128219    1018.3984  0.058690549  0.059007287            3 
 1447000    1.0210466     -4.53619    1018.8283  0.058674747  0.058996437            4 
 1448000    1.0234874   -4.5166599    1016.4239  0.058495848  0.058985748            1 
 1449000    1.0210368   -4.5230354    1017.4615  0.058515154  0.058975016            3 
 1450000    1.0377792    -4.536901    1018.5057  0.058534811  0.058964399            4 
 1451000    1.0155736   -4.5736962    1011.2845  0.058079745  0.058953201            6 
 1452000    1.0305745   -4.5221341    1016.7394   0.05835281  0.058942029            4 
 1453000    1.0287853   -4.5243392    1017.3065  0.058345176  0.058930951            3 
 1454000    1.0220248   -4.5133023    1018.3822  0.058366704  0.058919946            3 
 1455000    1.0025762    -4.538124    1021.7616  0.058520136  0.058908901            2 
 1456000    1.0062797   -4.5466227     1021.013  0.058437101  0.058897899            2 
 1457000    1.0177642   -4.5467584    1018.1644  0.058234066  0.058886794            2 
 1458000    1.0153777   -4.5360354    1022.3842   0.05843531  0.058876019            2 
 1459000    1.0216423   -4.5582219    1022.2079   0.05838519   0.05886485            3 
 1460000    1.0221273   -4.5863633    1015.7295  0.057975429  0.058852918            5 
 1461000    1.0043724   -4.5471271    1020.4192  0.058203242  0.058841355            4 
 1462000    1.0362549   -4.5506931     1019.779  0.058126939  0.058830124            2 
 1463000      1.01532   -4.5303498    1022.3097   0.05823136  0.058818783            3 
 1464000    1.0210047   -4.5262249    1024.6762  0.058326289  0.058807512            3 
 1465000   0.99433376   -4.5533797    1024.2191  0.058260474  0.058796334            3 
 1466000    1.0305184   -4.5192399    1029.5775  0.058525322  0.058785376            3 
 1467000    1.0115021   -4.5355156    1027.4044  0.058361984  0.058774204            2 
 1468000    1.0037477   -4.5605993    1026.6524  0.058279544  0.058763306            2 
 1469000     1.015305    -4.518895    1028.3115  0.058333985  0.058752297            3 
 1470000    1.0368523   -4.5576481    1026.5347  0.058193575  0.058741396            2 
 1471000    1.0226004   -4.5234938    1029.5233  0.058323324  0.058730298            2 
 1472000    1.0039199   -4.5299236    1026.2828  0.058100246  0.058718978            2 
 1473000    1.0215328   -4.5200316    1026.6457  0.058081334  0.058707499            3 
 1474000   0.97881713   -4.5399197    1030.6253  0.058266923  0.058696041            3 
 1475000       1.0044   -4.5463245    1026.0424  0.057968496   0.05868467            3 
 1476000    1.0384543   -4.5467866    1030.8343  0.058199768  0.058673059            3 
 1477000   0.98710795   -4.5388443    1026.8011   0.05793281  0.058661427            2 
 1478000    1.0108896   -4.5367162    1028.0527  0.057964178  0.058650082            3 
 1479000     1.014351   -4.5235444    1031.8562  0.058139293  0.058638658            2 
 1480000    1.0249488   -4.5476445    1027.8955  0.057876999  0.058627221            3 
 1481000    1.0153462   -4.5613874    1032.5864  0.058101866  0.058615595            4 
 1482000    1.0080888   -4.5573002    1028.6106  0.057839103  0.058603957            4 
 1483000    1.0374897   -4.5434407    1031.0651  0.057938026   0.05859224            2 
 1484000   0.99334346    -4.555557    1032.5182  0.057980583  0.058580313            3 
 1485000     1.027004   -4.5294881    1031.6157  0.057890894  0.058568319            5 
 1486000    1.0056216   -4.5373396     1030.733  0.057802436  0.058556237            5 
 1487000    1.0197754   -4.5169509    1031.6132  0.057812888  0.058544026            2 
 1488000    1.0152598   -4.5457591    1034.4899  0.057935143  0.058532198            3 
 1489000    1.0120977   -4.5738658    1030.6161  0.057679433  0.058520682            2 
 1490000    1.0160411   -4.5103419    1039.2607  0.058124202  0.058509151            3 
 1491000    1.0121795   -4.5294198    1032.8571  0.057727316  0.058497574            2 
 1492000    1.0307376   -4.5581172    1032.6475  0.057676917  0.058486034            3 
 1493000    1.0246946   -4.5609359    1037.3094  0.057898492  0.058474373            2 
 1494000    1.0107878   -4.5736092    1034.1323  0.057682524  0.058462557            3 
 1495000    1.0158525   -4.5583705    1036.4325  0.057772157  0.058450787            5 
 1496000   0.99678953   -4.5787696    1038.2286  0.057833589  0.058439038            2 
 1497000     1.003267   -4.5405874    1039.7283  0.057878439  0.058427513            4 
 1498000    1.0349563   -4.5738358    1035.9264  0.057628303  0.058415852            4 
 1499000    1.0004692   -4.5539235    1040.1553  0.057824957  0.058403947            4 
 1500000     1.025838   -4.5646138    1041.0953  0.057838628  0.058392149            7 
 1501000    1.0136495   -4.5273254    1040.8086   0.05778418  0.058380395            3 
 1502000    1.0097661   -4.5666125    1039.3413  0.057664299  0.058368767            4 
 1503000    1.0346178   -4.5384276    1039.3637  0.057627173  0.058356887            5 
 1504000    1.0048063   -4.5585942     1042.243  0.057748392  0.058345151            6 
 1505000    1.0066505   -4.5577132    1043.2873  0.057767849  0.058333718            5 
 1506000    1.0133645   -4.5075232    1043.6279  0.057748335  0.058322303            2 
 1507000    1.0191836   -4.5203882     1045.833  0.057831948  0.058310956            5 
 1508000   0.99773459   -4.5527886     1045.829  0.057793378  0.058299421            2 
 1509000    1.0491862    -4.531191    1042.5877   0.05757608  0.058287765            2 
 1510000      0.99431   -4.5893226    1043.3369  0.057579298  0.058276172            3 
 1511000    1.0243471   -4.5576658    1043.8188   0.05756777  0.058264571            4 
 1512000   0.99491886    -4.573191    1045.3164  0.057612238  0.058253198            3 
 1513000    1.0111154   -4.5627774    1044.9211  0.057552387  0.058241476            3 
 1514000    1.0151098   -4.5650087    1049.2857  0.057754607  0.058229752            4 
 1515000    1.0189471   -4.5338143    1046.7144  0.057575049    0.0582181            8 
 1516000   0.98133359   -4.5547572    1045.6077  0.057476235  0.058206236            5 
 1517000    1.0157155   -4.5710064    1050.7023  0.057718209  0.058194551            5 
 1518000    1.0200477   -4.5647579    1047.6322  0.057511649  0.058182783            3 
 1519000    1.0208671   -4.5721387    1048.5783  0.057525693   0.05817067            3 
 1520000   0.99455663   -4.5369202    1050.7937  0.057609303  0.058158558            4 
 1521000    1.0101208    -4.562565    1049.2229  0.057485368  0.058146926            2 
 1522000   0.99527852   -4.5750468    1049.2646  0.057449879  0.058135172            3 
 1523000    1.0277968   -4.5283048    1050.4277  0.057475798  0.058123336            2 
 1524000    1.0091465   -4.5556313    1053.5755  0.057610211  0.058111819            2 
 1525000    1.0348879    -4.556294    1051.8537  0.057478345  0.058100047            3 
 1526000    1.0196852   -4.5931245    1050.3957   0.05736106   0.05808842            4 
 1527000    1.0164331   -4.5413509    1056.4143  0.057651946  0.058076819            4 
 1528000    1.0088801   -4.5652374    1052.8587  0.057420302  0.058065393            7 
 1529000    1.0222893   -4.6018796      1053.51  0.057418245  0.058054156            5 
 1530000    1.0098946   -4.5934596    1053.6098  0.057386155  0.058042847            3 
 1531000    1.0213204   -4.5588619    1062.3086  0.057822152  0.058031529            2 
 1532000    1.0102608   -4.5470502    1058.4968  0.057577068  0.058020182            3 
 1533000   0.98907712   -4.5663617    1059.5056  0.057594344  0.058009415            4 
 1534000    1.0076188   -4.5558606    1062.8565  0.057738836  0.057998608            2 
 1535000   0.98067621   -4.5446676    1056.8431  0.057374763  0.057987548            5 
 1536000    0.9857431   -4.5625439     1059.749  0.057495061  0.057976425            4 
 1537000   0.98145182    -4.586918    1058.7894  0.057405626   0.05796544            6 
 1538000    1.0186767   -4.5576082     1068.646  0.057902365  0.057954639            3 
 1539000    1.0216396   -4.5723705    1059.9557  0.057394179  0.057943801            4 
 1540000    1.0143113   -4.5524969    1065.3337  0.057647926  0.057932958            4 
 1541000     1.013654   -4.5413739    1064.5316  0.057567145  0.057922273            4 
 1542000    1.0179485    -4.525495    1066.6946  0.057646702  0.057911743            5 
 1543000     1.028245   -4.5696016    1066.6996  0.057609612  0.057901092            3 
 1544000    1.0068491   -4.5504045    1070.5544  0.057780354  0.057890515            5 
 1545000    1.0136643   -4.5913074    1064.2688  0.057403929  0.057880079            7 
 1546000    1.0031346   -4.5453436    1069.5884  0.057653535  0.057869722            3 
 1547000    1.0102967   -4.5938512    1068.3115  0.057547484  0.057859069            1 
 1548000    1.0277178     -4.56852    1066.5221  0.057413981  0.057848523            4 
 1549000    1.0172002   -4.5490342    1068.8115   0.05750008  0.057838167            2 
 1550000    1.0195704   -4.5703246    1067.3515   0.05738449  0.057827569            3 
 1551000   0.99859759   -4.5796964    1069.5131   0.05746363  0.057816942            3 
 1552000    1.0056353   -4.5797465    1072.3802  0.057580549  0.057806273           11 
 1553000   0.97217752   -4.5516536     1072.194  0.057533484  0.057795912            5 
 1554000   0.97881303   -4.5730672    1077.1172  0.057760467  0.057785827            2 
 1555000   0.99919116   -4.5464227    1075.8784  0.057656937  0.057775642            7 
 1556000   0.99176764   -4.5754008    1071.6547  0.057393676  0.057765276            3 
 1557000    1.0016993   -4.5390896    1075.4161  0.057558132  0.057754903            2 
 1558000    1.0288261   -4.5736249    1077.5499  0.057635319  0.057744602            4 
 1559000   0.99667845   -4.5860311    1070.9392  0.057244985  0.057734198            3 
 1560000    1.0145358   -4.5767636    1072.4792  0.057290553  0.057723836            3 
 1561000   0.97585541   -4.5688162    1075.9107  0.057437043  0.057713432            5 
 1562000   0.97631556     -4.59203    1075.5253  0.057379708  0.057702909            2 
 1563000    1.0195101    -4.547006    1077.8927   0.05746922  0.057692488            2 
 1564000   0.97704316    -4.559428    1076.7261  0.057370315  0.057682143            3 
 1565000    1.0215714   -4.5892559    1073.8213  0.057178985  0.057671651            3 
 1566000   0.98723317   -4.5614934    1080.7642  0.057511931  0.057661234            1 
 1567000   0.99479262   -4.5991566    1076.5539  0.057251322   0.05765032            4 
 1568000   0.99695541   -4.5271122    1081.1391  0.057458497  0.057639811            4 
 1569000    1.0076717    -4.596668    1078.1499  0.057263115   0.05762938            3 
 1570000   0.99854828   -4.5789807    1078.2336  0.057231083  0.057618102            3 
 1571000   0.99836888   -4.5478507     1078.861  0.057227931  0.057607198            4 
 1572000    1.0080717   -4.5819178    1076.3812  0.057060071  0.057596629            5 
 1573000   0.97999792   -4.5598232    1082.0738  0.057325377  0.057586011            3 
 1574000   0.99291654   -4.5889751    1080.6296  0.057212495  0.057575448            3 
 1575000    1.0085306   -4.5536766    1083.9079  0.057349622  0.057564732            3 
 1576000    1.0084113    -4.573128    1085.2854  0.057386075  0.057554248            3 
 1577000   0.99820565   -4.5836773    1082.5959  0.057207562  0.057543688            2 
 1578000   0.98559252   -4.5901757    1081.9886  0.057139236  0.057533223            8 
 1579000   0.99954086   -4.5757444    1081.9072  0.057098756  0.057522638            4 
 1580000    1.0090801   -4.5857842    1085.5828  0.057256477    0.0575121            3 
 1581000   0.98599474   -4.5901193    1081.3554  0.056997436  0.057501346            3 
 1582000    1.0104902   -4.5792385    1080.7166  0.056927758  0.057490326            3 
 1583000    1.0105616   -4.6216956    1081.4023  0.056927894  0.057479282            1 
 1584000    0.9847858   -4.5719734    1087.0683  0.057190044  0.057468318            2 
 1585000   0.99108819   -4.5902099    1082.1082  0.056893176  0.057457549            1 
 1586000     1.007215   -4.5779588    1086.6582  0.057096375  0.057447014            3 
 1587000    1.0204246   -4.5886647    1084.0836  0.056925205  0.057436202            2 
 1588000   0.97669778   -4.5950416    1086.2136  0.057001132  0.057425154            2 
 1589000    1.0288554   -4.6080385    1087.1731  0.057015582  0.057414236            4 
 1590000    0.9917941   -4.5987733    1086.6513  0.056952373  0.057403297            4 
 1591000   0.98671469   -4.5789561    1088.6262   0.05702002   0.05739254            7 
 1592000    1.0032529    -4.572617    1091.1433  0.057115958  0.057381392            4 
 1593000    1.0046057   -4.6071051    1088.6236  0.056948295  0.057370406            3 
 1594000   0.98285511   -4.5834161    1089.1598  0.056940601  0.057359499            3 
 1595000   0.96149685   -4.6116661    1086.6667  0.056774645  0.057348169            2 
 1596000    1.0103781   -4.5905732    1086.4258  0.056726496  0.057336858            2 
 1597000   0.97793583   -4.5548958    1093.5918  0.057064901  0.057325802            3 
 1598000   0.98866811   -4.5858506    1088.7191  0.056775089  0.057314843            3 
 1599000   0.99687859   -4.6017919    1087.3005  0.056665652  0.057303658            3 
 1600000    1.0155891   -4.5620715    1088.9509  0.056716191  0.057292379            3 
 1601000   0.99635801   -4.5766676    1092.5851   0.05686993  0.057281213            2 
 1602000    1.0008436    -4.579249    1090.3294  0.056717092   0.05726984            3 
 1603000    1.0075836   -4.5910746    1093.8732  0.056865937  0.057258131            7 
 1604000    0.9950059   -4.5494322    1093.3673  0.056804205  0.057246619            2 
 1605000   0.99107407   -4.5493252    1096.1995  0.056915863  0.057235315            2 
 1606000    1.0026442   -4.5870514    1095.4956  0.056843896  0.057223949            3 
 1607000    1.0127551   -4.5647123    1093.3007  0.056694707  0.057212663            3 
 1608000    1.0012135   -4.5799762    1091.4145  0.056561698  0.057201144            3 
 1609000   0.99397951   -4.5789689    1091.1497  0.056512829  0.057189326            5 
 1610000   0.99978101   -4.5735566    1092.7968   0.05656298  0.057177583            6 
 1611000   0.97186743   -4.5711874     1094.019  0.056591094  0.057165806            2 
 1612000    0.9885284   -4.5839726    1091.3386  0.056417419  0.057154094            2 
 1613000   0.99562923   -4.5908232    1092.4743  0.056441118  0.057142294            2 
 1614000   0.98674497   -4.5753639    1095.2457  0.056549241  0.057130904            3 
 1615000   0.99699756   -4.5902771    1097.7031  0.056641026   0.05711936            4 
 1616000   0.99777883   -4.5918361      1094.91  0.056461945  0.057107744            3 
 1617000   0.99189046   -4.5713255    1094.3672  0.056399053  0.057096203            4 
 1618000    1.0060191   -4.5895349    1095.2165  0.056407935  0.057084379            3 
 1619000   0.99382908   -4.5701478    1097.7982   0.05650598  0.057072565            3 
 1620000   0.98764993   -4.5705721    1099.0627  0.056536145   0.05706095            3 
 1621000   0.99339498   -4.6211658    1097.9179  0.056442418  0.057049345            5 
 1622000   0.97642948   -4.6079698     1099.312  0.056479243  0.057038127            9 
 1623000   0.99470252   -4.5632295    1100.6949  0.056515451  0.057026745            2 
 1624000   0.97729261   -4.5617213    1101.8988  0.056542424  0.057015061            5 
 1625000   0.98043171   -4.6035146    1097.6949  0.056292045  0.057003435            7 
 1626000   0.96983334   -4.5808144    1102.2007   0.05648835  0.056991574            4 
 1627000   0.97933883   -4.5876692    1101.1762  0.056401156   0.05697997            4 
 1628000   0.97318102   -4.5612596    1101.7313  0.056394925  0.056968362            3 
 1629000   0.97385521   -4.5865474    1098.5224  0.056196152  0.056956649            2 
 1630000    1.0256146    -4.612456    1100.6428  0.056270079  0.056944678            2 
 1631000   0.99929911   -4.5770218    1104.3463  0.056424804   0.05693303            3 
 1632000   0.99496847   -4.6141865    1098.1511  0.056073892  0.056921183            5 
 1633000   0.98066202   -4.5974228    1100.3222  0.056150347  0.056909262            2 
 1634000   0.98764979   -4.5706753    1106.8456  0.056448673  0.056897371            4 
 1635000   0.99776576   -4.5652303    1101.1462  0.056123662  0.056885658            4 
 1636000   0.97044122   -4.5911626    1103.9972  0.056234576  0.056873999            3 
 1637000    1.0013656   -4.6154466    1106.4414  0.056324651  0.056862591            5 
 1638000   0.98128904   -4.6061375    1110.3066  0.056486904  0.056850884            2 
 1639000   0.99690548   -4.5742266    1109.1953  0.056395935  0.056839369            4 
 1640000    1.0165115   -4.5892009    1104.9881  0.056147772  0.056827809            3 
 1641000   0.99680866   -4.5903676    1106.6371  0.056197291  0.056816574            2 
 1642000    1.0027167   -4.6135309    1105.1856  0.056089404  0.056804959            2 
 1643000   0.98926112   -4.6091927    1109.8056  0.056289591  0.056793749            2 
 1644000   0.98794531   -4.6097638     1108.933   0.05621112  0.056781993            4 
 1645000   0.96695462   -4.5871874    1112.0795   0.05633635  0.056770516            3 
 1646000   0.99023584   -4.5710675    1116.0959  0.056505461  0.056758866            6 
 1647000   0.99185625   -4.6057046    1110.0849  0.056167014  0.056747077            4 
 1648000   0.99767026   -4.5509679    1113.1941  0.056290155  0.056735469            2 
 1649000   0.99208295   -4.6002304     1110.398  0.056114717   0.05672361            5 
 1650000   0.99470505   -4.5799404    1110.8056  0.056101295  0.056711849            4 
 1651000    1.0103577   -4.5948828    1112.5786  0.056156803  0.056699984            2 
 1652000    0.9731121    -4.604452    1109.5668  0.055970885  0.056688133            4 
 1653000   0.99908264   -4.5922922     1112.974  0.056108794  0.056676222            2 
 1654000    1.0058874   -4.5861272     1115.456  0.056199917  0.056664336            1 
 1655000    1.0077511   -4.5968536    1112.2236  0.056003202  0.056652582            4 
 1656000    0.9850772   -4.5888968    1115.3419  0.056126301  0.056640811            4 
 1657000   0.97669218    -4.587876    1113.5423  0.056001924  0.056628959            7 
 1658000    1.0004337   -4.6156211    1115.5973  0.056071435   0.05661724            7 
 1659000   0.98982069   -4.5823111    1116.9449  0.056105332   0.05660535            3 
 1660000   0.99998442   -4.6295571    1109.6519  0.055705419   0.05659357            5 
 1661000   0.99020209   -4.5925591    1117.4549   0.05606336  0.056581814            7 
 1662000   0.98596618   -4.6363887    1113.7601   0.05584437  0.056570194            4 
 1663000   0.96856897   -4.5935836    1118.4101    0.0560438  0.056558185            2 
 1664000    1.0109098   -4.5744453    1121.7816  0.056178966  0.056546758            3 
 1665000   0.98537732   -4.5875638    1116.3736  0.055874554  0.056535321            2 
 1666000   0.96888476   -4.6267433    1121.8599  0.056115441   0.05652411            3 
 1667000   0.97740873   -4.5942056    1121.5162  0.056064595  0.056513053            2 
 1668000   0.98826069    -4.625822    1124.0036  0.056155255  0.056501884            2 
 1669000   0.97997015   -4.6013535    1121.6398  0.056003583  0.056490845            2 
 1670000   0.98179013   -4.5955358    1124.9386   0.05613466  0.056479863            5 
 1671000    0.9912768   -4.5708639    1130.4933   0.05637808  0.056468911            2 
 1672000    0.9799343   -4.6041244    1125.5058  0.056095785  0.056458067            4 
 1673000   0.99436075   -4.6019891    1124.5177  0.056013037   0.05644696            6 
 1674000   0.95936157   -4.6110521    1124.2747  0.055967478  0.056435951            2 
 1675000   0.99710744   -4.5987976    1127.8542  0.056112151  0.056424852            1 
 1676000   0.97214716   -4.5894606    1128.1439  0.056093074  0.056413728            3 
 1677000   0.98191559   -4.5991255    1125.8182  0.055944055  0.056402448            2 
 1678000    1.0006261   -4.6180172    1129.6031  0.056098685  0.056391473            3 
 1679000   0.99316351   -4.6049098    1126.8586  0.055929055  0.056380445           10 
 1680000   0.98968126   -4.6077794    1129.6956  0.056036489  0.056369618            3 
 1681000   0.97124796   -4.5864687    1134.1665   0.05622479  0.056358491            2 
 1682000    0.9662163   -4.5922564    1129.0209  0.055936428  0.056347441            4 
 1683000   0.98961975   -4.6264337    1129.6033  0.055932033  0.056336308            1 
 1684000   0.97365142   -4.5960176     1126.283   0.05573451  0.056325188            3 
 1685000   0.97960486   -4.6070731    1131.2881  0.055948965  0.056314126            3 
 1686000    1.0016681   -4.6121369    1128.6999  0.055787854  0.056302991            3 
 1687000   0.98497523    -4.620253    1130.6964  0.055853408  0.056291981            3 
 1688000   0.99510281   -4.5879778    1133.9581  0.055981346  0.056280894            4 
 1689000   0.99057052   -4.6127315    1130.6473  0.055784848  0.056269679            4 
 1690000   0.97838053   -4.5731355    1132.2939  0.055833034  0.056258622            4 
 1691000   0.96022742   -4.5948206    1130.0845  0.055691132  0.056247605            3 
 1692000    0.9822133   -4.5950183     1136.609   0.05597956  0.056236509            2 
 1693000   0.96847085   -4.6019665    1134.7534  0.055855159  0.056225383            2 
 1694000   0.97472437   -4.6186745     1132.734  0.055722845  0.056214712            6 
 1695000   0.98249751   -4.6224945    1132.9546  0.055700815  0.056203736            3 
 1696000   0.97066682   -4.6094101    1133.6409  0.055701694  0.056192563            4 
 1697000   0.97074199   -4.5784419    1136.9247  0.055830127    0.0561817            3 
 1698000   0.99946248   -4.6109171     1137.647  0.055832694   0.05617081            3 
 1699000    1.0153445   -4.5924035    1139.2322  0.055877586  0.056159663            4 
 1700000   0.97335413   -4.5684239    1139.6019  0.055862839  0.056148648            3 
 1701000   0.98132044   -4.6242579    1137.0689  0.055705903  0.056137617            4 
 1702000   0.99516131   -4.6227227    1135.8152  0.055611792  0.056126473            4 
 1703000   0.96513498   -4.6106574    1136.7501  0.055624881   0.05611548            3 
 1704000   0.98841215   -4.6304226    1137.9629  0.055651551  0.056104285            3 
 1705000   0.98385875   -4.6511658    1137.4699  0.055594812  0.056093023            8 
 1706000   0.99179426   -4.6252756    1142.2561  0.055796019  0.056081785            2 
 1707000   0.99881219   -4.6108773     1138.831  0.055596124  0.056070699            5 
 1708000   0.99414153   -4.6379416    1140.2094  0.055630827  0.056059269            4 
 1709000   0.99862151   -4.6164651    1137.1984  0.055451453  0.056048305            4 
 1710000   0.97534557   -4.5864577    1143.2639  0.055714614  0.056036978            5 
 1711000   0.97795355   -4.6367726    1139.2579  0.055486941  0.056025647            5 
 1712000   0.99959495   -4.5906985    1142.4776  0.055611252  0.056014245            1 
 1713000   0.96628554   -4.5849014    1138.5211  0.055386317  0.056003034            3 
 1714000   0.97281312   -4.6449408    1139.3736  0.055395449  0.055991838            3 
 1715000   0.97854578   -4.5765375    1143.6046  0.055568739  0.055980494            3 
 1716000   0.97915827   -4.6165438    1143.6476  0.055538442  0.055969382            5 
 1717000   0.98233302   -4.5794572    1148.8425  0.055758224  0.055958196            5 
 1718000   0.97632645   -4.6199625    1146.6865  0.055621191  0.055947257            2 
 1719000   0.99560921   -4.5827633    1149.0433  0.055703088  0.055936439            1 
 1720000   0.97523015   -4.6346197    1147.7725  0.055609133  0.055925452            3 
 1721000   0.98005475   -4.6206355    1147.2691  0.055552447  0.055914565            3 
 1722000   0.98703059   -4.5833944    1150.8874  0.055695289  0.055904146            4 
 1723000   0.96612494   -4.5972005    1148.6363  0.055554086  0.055893464            2 
 1724000   0.97837525   -4.6320735    1150.1766  0.055596316  0.055883034            3 
 1725000   0.99077152   -4.6170109    1153.7716  0.055737757  0.055872356            2 
 1726000    0.9759207   -4.6033144    1155.3362  0.055781008  0.055861926            4 
 1727000   0.97015881   -4.5814103    1159.4499  0.055947205  0.055851567            4 
 1728000   0.96533546   -4.5998189    1152.9443  0.055601094  0.055841133            3 
 1729000    0.9855624   -4.5809567    1155.5382  0.055693954  0.055830837            5 
 1730000   0.96854319   -4.6004243    1155.4549  0.055657751  0.055820455            3 
 1731000   0.99211056   -4.6227919     1155.715   0.05563812   0.05580995            7 
 1732000   0.96620372   -4.6184628    1156.3698  0.055637499  0.055799715            4 
 1733000   0.96339799   -4.6320719    1152.6077  0.055424491  0.055789572            5 
 1734000   0.98593751   -4.6252271    1154.2919  0.055473467   0.05577914            3 
 1735000   0.97220458   -4.6480177    1155.9354  0.055520434  0.055768549            3 
 1736000   0.96396233   -4.6255253    1159.9013  0.055678828  0.055757911            3 
 1737000   0.97430215   -4.6342556    1156.4294  0.055480207  0.055747489            5 
 1738000   0.96740556   -4.6359823    1155.0235  0.055380875  0.055737092            5 
 1739000   0.97262022   -4.6239827    1161.3108  0.055650315  0.055726451            2 
 1740000   0.94856164    -4.625371    1156.4188  0.055384043  0.055715996            4 
 1741000   0.99450025   -4.6171874    1159.2965  0.055489974  0.055705446            4 
 1742000   0.98855788   -4.6362087    1157.6625   0.05537995  0.055695173            8 
 1743000   0.98517157   -4.6431246    1158.8163  0.055403343   0.05568481            4 
 1744000   0.97085396   -4.6340483    1158.5331  0.055358042  0.055674357            3 
 1745000   0.95905278   -4.6234663    1162.4506  0.055513399  0.055663869            3 
 1746000   0.96817509   -4.6049219    1160.1964  0.055374017    0.0556534            3 
 1747000   0.96848944   -4.6316435    1164.2171  0.055534112  0.055642798            3 
 1748000    0.9683159   -4.6485384    1160.6266  0.055331167  0.055632443            5 
 1749000   0.97426048   -4.6252519    1162.5738  0.055392309   0.05562196            6 
 1750000   0.99101107    -4.611616    1165.8836  0.055518267  0.055611846            4 
 1751000   0.98713173   -4.6381439    1162.1144  0.055307178   0.05560175            8 
 1752000   0.96096449   -4.6374864    1163.9595   0.05536337  0.055591621            2 
 1753000   0.97711535   -4.5910999    1166.3473  0.055445298  0.055581497            3 
 1754000   0.95338212   -4.6300967    1168.5868  0.055520086  0.055571353            5 
 1755000   0.96492405   -4.6297128    1174.8296  0.055784883  0.055561418            4 
 1756000   0.96396686   -4.6215987    1167.4988   0.05540522   0.05555131            2 
 1757000   0.97559121    -4.628156    1167.7228   0.05538431    0.0555412            5 
 1758000   0.99213393   -4.6158275    1169.8615  0.055454185  0.055531314            4 
 1759000    1.0039866   -4.5931298    1166.3752  0.055257495  0.055521138            3 
 1760000   0.96969575   -4.6512498     1168.365  0.055320314  0.055511023            4 
 1761000   0.95710306   -4.6019472     1173.008  0.055508611  0.055500621            3 
 1762000   0.95504775   -4.6202454    1171.3382  0.055398136  0.055490227            3 
 1763000   0.94415915   -4.6293594    1167.6721  0.055193425  0.055479817            5 
 1764000   0.97015899   -4.6138957    1168.9347  0.055221784  0.055469293            2 
 1765000   0.96564439   -4.6136372    1171.5665  0.055314754  0.055458767            5 
 1766000   0.96978924     -4.64043    1167.6674  0.055099442  0.055448542            3 
 1767000   0.99426205   -4.6493599    1168.8028  0.055121806  0.055438279            3 
 1768000   0.97579092   -4.6503257    1169.6116  0.055128751  0.055428002            2 
 1769000   0.96367775   -4.6285992    1172.3393  0.055226085  0.055417881            4 
 1770000    0.9677532   -4.6197193    1176.2612   0.05537953  0.055407748            5 
 1771000   0.96231873   -4.6286212    1174.2475  0.055253507  0.055397788            3 
 1772000   0.97343056   -4.6201704    1176.1584  0.055312188  0.055387639            4 
 1773000    0.9635917   -4.6382096     1176.094  0.055277966  0.055377434            6 
 1774000    0.9561111   -4.6506387    1174.1098  0.055153599  0.055367166            3 
 1775000   0.99041135   -4.6275936     1176.972  0.055256902  0.055357364            6 
 1776000   0.97259374   -4.6573253    1180.2614  0.055380133  0.055347571            3 
 1777000   0.97139166   -4.6524478    1179.0839  0.055293748  0.055337585            3 
 1778000   0.95683015   -4.6089675    1176.0225  0.055119165  0.055327305            4 
 1779000   0.95028478   -4.5975566    1179.1568  0.055235002  0.055317323            3 
 1780000   0.95711702   -4.6181719    1176.7238  0.055090065  0.055307243            3 
 1781000   0.96465132   -4.6109812    1179.6976  0.055198277  0.055297205            2 
 1782000   0.96642402    -4.621687    1186.8632  0.055502392  0.055287502            3 
 1783000   0.96226471   -4.6736348    1177.8493  0.055049978  0.055277498            2 
 1784000   0.98185193   -4.6477558    1180.4074  0.055138611  0.055267087           10 
 1785000    0.9614585   -4.6335116    1182.8078  0.055219786  0.055256758            3 
 1786000   0.97461862   -4.6397681    1181.7933  0.055141531  0.055246565            3 
 1787000   0.95721878   -4.6139468    1185.7495  0.055295165  0.055236374            4 
 1788000   0.94882523   -4.6296087     1180.855   0.05503612  0.055226285            5 
 1789000   0.98326871   -4.6288406    1182.6935  0.055090997  0.055216143            5 
 1790000   0.95880611   -4.6540086    1181.4532  0.055002475  0.055206068            2 
 1791000   0.94950425   -4.6261001    1182.0946   0.05500161  0.055195705            3 
 1792000    0.9631672   -4.6103655    1183.3471   0.05502916  0.055185344            5 
 1793000    0.9649216   -4.6135456    1185.7347  0.055109439  0.055175206            5 
 1794000    0.9755272   -4.6351366    1183.1938  0.054960694  0.055164944            2 
 1795000   0.96072473   -4.6234206    1188.2777  0.055166096  0.055154575            5 
 1796000    0.9604537   -4.6266099    1188.9687  0.055167443  0.055144235            5 
 1797000   0.97234561   -4.6205521    1185.3541  0.054969118  0.055134161            2 
 1798000    0.9617523   -4.6377348    1187.3877  0.055032799  0.055123844            3 
 1799000   0.98116775   -4.6548643    1181.1073  0.054711287  0.055113648            2 
 1800000   0.96781404   -4.6384382    1181.2011  0.054685238  0.055103109            4 
 1801000   0.97081883   -4.6339648    1186.1434  0.054883556  0.055092758            7 
 1802000   0.94409144   -4.6639815    1187.7787  0.054928724  0.055082524            1 
 1803000   0.97802069   -4.6067206    1188.1699  0.054916339  0.055072313            3 
 1804000   0.95294642   -4.6232857    1188.8389  0.054916798  0.055062058            5 
 1805000    0.9354853   -4.6219167    1193.4805  0.055100669   0.05505188            3 
 1806000   0.96856131   -4.6187373    1190.4013  0.054928079  0.055041938            5 
 1807000   0.96308071   -4.6459343    1187.0122  0.054741385  0.055031741            2 
 1808000   0.96484665   -4.6375838    1194.0964  0.055037627  0.055021591            2 
 1809000   0.97299869   -4.5843385     1196.003  0.055095033  0.055011918            4 
 1810000   0.95595213   -4.6257874    1193.6699   0.05495718  0.055001948            3 
 1811000   0.96237555   -4.6195049    1192.9744   0.05489483  0.054992115            2 
 1812000   0.95932912   -4.6362494    1195.8631  0.054997384  0.054982136            3 
 1813000   0.93920445   -4.6610982    1194.0458  0.054883519  0.054972108            2 
 1814000    0.9633148   -4.6713262    1191.2332  0.054724054  0.054961938            3 
 1815000   0.95387159   -4.6535362    1191.8455  0.054722017  0.054951874            4 
 1816000   0.99352067   -4.6282367    1196.3494  0.054898561  0.054941761            3 
 1817000   0.95325114   -4.6278023    1195.8652   0.05484614  0.054931938            2 
 1818000   0.96690002   -4.6396991    1196.5987   0.05484959  0.054921959            4 
 1819000   0.95839026   -4.6380551    1199.3056   0.05494345  0.054911873            5 
 1820000   0.95558461   -4.6671656    1196.0284  0.054763204  0.054902129            3 
 1821000   0.96780319   -4.6285377    1198.1519  0.054830309   0.05489212            5 
 1822000   0.95126345   -4.6485898    1194.6994  0.054642305  0.054882361            3 
 1823000   0.96092787   -4.6543704      1200.83  0.054892578   0.05487254            2 
 1824000   0.97277299   -4.6284529    1199.7931  0.054815108  0.054862384            3 
 1825000   0.94785884   -4.6485118    1196.6624  0.054642117  0.054852207            6 
 1826000   0.96096786    -4.630082    1202.6885  0.054887207   0.05484238            4 
 1827000   0.95385008   -4.6590588    1201.0145  0.054780812   0.05483234            3 
 1828000   0.95259907   -4.6509448     1202.176  0.054803791  0.054822539            6 
 1829000   0.96259237   -4.6560469     1201.298  0.054733827   0.05481239            4 
 1830000   0.95524306   -4.6556522    1204.0072  0.054827288  0.054802489            4 
 1831000   0.95381135   -4.6516251    1204.8565  0.054835995  0.054792554            3 
 1832000    0.9826377   -4.6230921     1198.746   0.05452811  0.054782552            3 
 1833000   0.95556561   -4.6643237    1199.4399  0.054529911  0.054772624            4 
 1834000   0.97125601   -4.6498108    1199.9126  0.054521654  0.054762684            7 
 1835000   0.97734164   -4.6411591     1204.542  0.054702182  0.054752816            6 
 1836000   0.94822631    -4.647878    1210.6834  0.054951136  0.054742819            3 
 1837000   0.97162173   -4.6614495     1210.347  0.054905962  0.054733081            2 
 1838000   0.96761464   -4.6799964    1203.3354  0.054558186  0.054723147            8 
 1839000   0.94710045   -4.6371096    1205.8694  0.054643349  0.054713255            4 
 1840000   0.95912064   -4.6663588    1208.7617  0.054744642  0.054703478            3 
 1841000    0.9507751   -4.6612024    1205.5378  0.054568973  0.054693694            4 
 1842000   0.95519328   -4.6583727    1209.4396  0.054715872  0.054683794            3 
 1843000   0.96597662   -4.6474254    1211.3455  0.054772361  0.054674352            3 
 1844000   0.94191121   -4.6154186    1214.5047  0.054885425  0.054664736            1 
 1845000   0.94912508   -4.6571734    1211.6746  0.054727849  0.054655165            3 
 1846000   0.95521673   -4.6555059     1207.044  0.054489166  0.054645586            4 
 1847000   0.97637744   -4.6756185    1211.4602  0.054658917  0.054635812            1 
 1848000   0.95910534     -4.65964    1212.2372  0.054664376  0.054626052            7 
 1849000   0.97189683   -4.6695584    1211.4031  0.054597217  0.054616656            5 
 1850000   0.94870344    -4.630274    1216.3413  0.054790146  0.054607085            1 
 1851000   0.94909746   -4.6545958    1212.7946  0.054600875  0.054597629            3 
 1852000    0.9376271   -4.6811662     1208.252  0.054366992  0.054587967            5 
 1853000   0.94381182   -4.6238885    1220.0491   0.05486819  0.054578465            3 
 1854000   0.95244778   -4.6438986     1218.383  0.054763708   0.05456878            4 
 1855000   0.94814124    -4.661593     1217.539   0.05469627  0.054559323            8 
 1856000   0.95205567   -4.6539121    1210.7188  0.054360576   0.05454971            8 
 1857000   0.98882256   -4.6135124    1217.4541  0.054633554  0.054540226            2 
 1858000   0.94862961   -4.6610726    1218.5709  0.054654238  0.054530651            4 
 1859000    0.9700292   -4.6565314    1215.3828  0.054481926  0.054521065            7 
 1860000    0.9617134   -4.6684762    1217.7554  0.054558932  0.054510967            2 
 1861000   0.95129293   -4.6544014    1217.6125  0.054523218  0.054501075            4 
 1862000   0.93559084   -4.6302215    1220.7632  0.054634943  0.054491422            4 
 1863000    0.9414403   -4.6491366    1220.6267  0.054599511  0.054481965            3 
 1864000   0.96862468    -4.670572    1216.6941  0.054394409  0.054472234            5 
 1865000     0.958485   -4.6415611    1221.2914   0.05457066  0.054462316            3 
 1866000   0.97541657   -4.6446262    1221.0814  0.054532037  0.054452485            4 
 1867000   0.94697007   -4.6477277    1218.1327  0.054371215  0.054442911            3 
 1868000   0.94611045   -4.6568864    1219.1612   0.05438799  0.054432939            5 
 1869000   0.95114993   -4.6661705    1221.6356  0.054469215  0.054423149            3 
 1870000   0.92142381   -4.6714414    1222.8445  0.054493963  0.054413369            4 
 1871000   0.95477447   -4.6952161    1220.1095  0.054343023  0.054403529            2 
 1872000   0.96482944   -4.6329269    1225.9323  0.054573198  0.054393666           11 
 1873000    0.9423882    -4.627956    1223.6631  0.054443098  0.054384038            3 
 1874000   0.94065108   -4.6404351    1225.7819  0.054508265  0.054374498            6 
 1875000   0.95736523   -4.6330745    1226.7951  0.054524226  0.054365021            4 
 1876000   0.95080135   -4.6415226    1226.7465  0.054493004  0.054355571            6 
 1877000   0.95279982   -4.6421485     1229.159  0.054571078  0.054346211            3 
 1878000   0.97160941    -4.653257    1226.9914   0.05444584  0.054336641            3 
 1879000   0.92939796   -4.6533604    1226.3518  0.054388498  0.054327154            5 
 1880000   0.94083717   -4.6473483    1226.0069  0.054344276  0.054317649            6 
 1881000    0.9658049   -4.6645305    1227.2535  0.054370615  0.054308104            6 
 1882000   0.96434483   -4.6251402    1228.4078  0.054392836  0.054298282            3 
 1883000   0.94994918   -4.6545937    1228.0319  0.054347316  0.054288525            5 
 1884000   0.94876252   -4.6993645    1222.7132  0.054083211  0.054278788            7 
 1885000   0.94200802   -4.6547465    1232.2007  0.054473947  0.054269078            3 
 1886000    0.9500752   -4.6533128    1227.6257  0.054242919   0.05425956            5 
 1887000   0.94954518   -4.6479574    1233.8583  0.054489415  0.054249718            7 
 1888000   0.95546605   -4.6929904    1228.0142  0.054202604  0.054240034            7 
 1889000    0.9569925   -4.6537379    1230.5406  0.054285362  0.054230311            7 
 1890000   0.94276904   -4.6418594    1228.0199    0.0541455  0.054220526            3 
 1891000   0.97058792   -4.6592512     1231.156  0.054255069  0.054210987            4 
 1892000   0.94139206   -4.6707414    1226.0328  0.054000738  0.054201589            2 
 1893000    0.9517169   -4.6554992    1233.9551  0.054320967  0.054192052            3 
 1894000    0.9274409   -4.6639114    1230.4832   0.05413953  0.054182607            2 
 1895000   0.94929041   -4.6620396    1233.0786  0.054225092  0.054173043            5 
 1896000   0.92852837   -4.6944383    1232.9324  0.054190066  0.054163297            4 
 1897000   0.95856656   -4.7065287    1233.6498  0.054193014  0.054153409            5 
 1898000   0.97260207   -4.6770473    1235.4889  0.054245209  0.054143648            4 
 1899000   0.94298014   -4.6677185    1231.6313  0.054047365  0.054133937            5 
 1900000   0.95903831   -4.6723076    1234.5382   0.05414641  0.054124174            5 
 1901000   0.96082984   -4.6791065    1233.6423  0.054078656  0.054114667            3 
 1902000   0.97804364   -4.6678214    1236.5668  0.054178355  0.054104985            5 
 1903000   0.95772237   -4.6890828    1233.6608  0.054022629  0.054095239            2 
 1904000   0.96769972   -4.6907465    1236.4194  0.054114993  0.054085754            5 
 1905000   0.96323311   -4.6728132    1234.9792  0.054023586  0.054076212            3 
 1906000   0.95729437   -4.6765617    1238.8427  0.054164163  0.054066488            4 
 1907000   0.93892694    -4.652708      1237.02   0.05405611  0.054056722            4 
 1908000   0.95714126   -4.6608672    1241.7384  0.054233858  0.054047254            5 
 1909000   0.96784845   -4.7067489     1237.667  0.054027721  0.054037612            2 
 1910000   0.94777811   -4.6619722    1238.6559   0.05404258  0.054027749            4 
 1911000   0.93774159   -4.6531833    1241.7236  0.054148071   0.05401807            2 
 1912000   0.93410364   -4.6839065    1239.0389  0.054002743  0.054008463            4 
 1913000    0.9582864   -4.6728389    1238.0419  0.053931082  0.053998735            2 
 1914000   0.95820389   -4.7088453    1240.4918  0.054009569  0.053988919            4 
 1915000   0.92995749   -4.6283328    1242.8911  0.054085775  0.053979326            3 
 1916000   0.94487177   -4.6700784    1240.1089  0.053936541  0.053969758            5 
 1917000   0.95546115    -4.684272    1238.4775  0.053837486  0.053960076            6 
 1918000   0.96832448   -4.6806568    1242.8842  0.054000879   0.05395035            4 
 1919000   0.93775569    -4.680554    1246.5825  0.054133337  0.053940841            3 
 1920000   0.95559578   -4.6882134    1242.2583  0.053917461  0.053931197            3 
 1921000   0.95653819   -4.6634784    1245.6594  0.054036934  0.053921432            4 
 1922000   0.96791446   -4.6806167    1242.5924  0.053875842  0.053911729            6 
 1923000   0.93755886   -4.6360774    1245.6876  0.053981955  0.053902233            4 
 1924000   0.94470195   -4.6742986      1245.18  0.053931911  0.053892545            4 
 1925000   0.96419397   -4.6849315    1245.2976  0.053908989  0.053883019            2 
 1926000   0.94315894   -4.6621156    1245.2883  0.053880593  0.053873331            3 
 1927000   0.94010142   -4.6880889     1244.113  0.053801808  0.053863598            2 
 1928000   0.91123118    -4.686344    1243.3932  0.053742791  0.053853727            9 
 1929000    0.9214159   -4.6500668    1243.8351   0.05373402  0.053843882            3 
 1930000   0.93189223   -4.6698718    1245.8567  0.053793466   0.05383402            3 
 1931000   0.92185882    -4.670311    1249.0444  0.053903177   0.05382425            5 
 1932000   0.93481071   -4.6910795    1246.8786  0.053781857   0.05381448            4 
 1933000   0.94132741   -4.7156254    1244.0611   0.05363257  0.053804603            3 
 1934000   0.93846644   -4.6830849    1243.2354  0.053569262  0.053794815            3 
 1935000   0.95743011   -4.7020534    1246.8904  0.053698983  0.053784843            3 
 1936000   0.94719439   -4.6803209    1247.4561  0.053695598  0.053775022            4 
 1937000   0.92229182   -4.6720549    1247.9405  0.053688716  0.053764892            3 
 1938000   0.94665634   -4.6736551    1250.7204  0.053780545  0.053754895            4 
 1939000   0.93096292   -4.6652081    1250.8533  0.053758523  0.053744846            5 
 1940000   0.93520518   -4.6559088    1252.2359  0.053790202     0.053735            3 
 1941000   0.95824109   -4.6817447    1247.7673   0.05357064  0.053725037            3 
 1942000   0.91953771    -4.672845    1253.7393  0.053799317  0.053715162           10 
 1943000   0.92767096   -4.6806058    1247.2325  0.053492559  0.053704984            4 
 1944000   0.92242882   -4.6575302    1251.0898  0.053630392  0.053694824            3 
 1945000   0.93589013   -4.6669642    1247.5275  0.053450191  0.053684886            4 
 1946000   0.94815016   -4.6968176    1250.9609  0.053569755  0.053674775            4 
 1947000   0.93383044   -4.6959586    1252.2359  0.053596813  0.053664763            4 
 1948000   0.94315345   -4.6832419    1252.1028  0.053563605  0.053654771            2 
 1949000   0.93126508   -4.6962222    1251.1006   0.05349327  0.053644641            3 
 1950000   0.94376662   -4.6859804    1254.0449  0.053591663  0.053634266            2 
 1951000   0.95120973   -4.7085708    1248.4386  0.053324729   0.05362415            6 
 1952000   0.94165377   -4.6761711    1260.6147  0.053817227  0.053614043            2 
 1953000   0.92938753   -4.7202747    1252.6085  0.053448049  0.053603946            5 
 1954000   0.94840969   -4.7056191     1250.673  0.053338152  0.053593841            3 
 1955000   0.93623109   -4.7159254    1252.7121  0.053397786  0.053583499            5 
 1956000   0.94282759   -4.6742227    1255.0597  0.053470504  0.053573483            2 
 1957000   0.92440043   -4.7179263    1255.7382  0.053472076  0.053563533            4 
 1958000   0.95323613   -4.7243695    1252.5978  0.053311106  0.053553399            2 
 1959000   0.94678305   -4.7085423    1252.0441   0.05326034  0.053543297            4 
 1960000   0.94305976   -4.6732136    1256.8405  0.053437098  0.053533202            3 
 1961000   0.92947059   -4.7044485    1256.3082  0.053387226  0.053523264            4 
 1962000   0.91576473   -4.7039683    1254.8791  0.053299316  0.053513118            4 
 1963000   0.96272383    -4.657855    1260.9903  0.053531596   0.05350288            3 
 1964000   0.94803298   -4.7196325    1252.7626  0.053155235  0.053492668            7 
 1965000   0.95729568   -4.6781535    1255.5981  0.053248433  0.053482729            7 
 1966000    0.9386926   -4.7077514    1260.2458  0.053418355  0.053472643            4 
 1967000   0.95329028   -4.7082764    1256.5424  0.053234297  0.053462463            5 
 1968000   0.91314864   -4.6851951     1259.673   0.05333981  0.053452564            4 
 1969000   0.93528389   -4.6549278    1261.7663  0.053401315  0.053442737            4 
 1970000   0.92396935   -4.6996539    1263.0841  0.053429953  0.053433101            2 
 1971000    0.8987982   -4.7058656    1258.1142  0.053192718  0.053423189            3 
 1972000   0.95136133   -4.6879501    1259.4964  0.053224156  0.053413291            3 
 1973000   0.93575895   -4.7106166    1261.3614  0.053275951  0.053403381            8 
 1974000    0.9360649   -4.7005232     1263.399  0.053334979  0.053393497            2 
 1975000   0.92284575   -4.7119433     1257.675  0.053066455  0.053383412            4 
 1976000   0.95094571   -4.6838084    1267.0124  0.053433383  0.053373577            3 
 1977000   0.94510622    -4.682414    1268.0805  0.053451377  0.053363864            4 
 1978000   0.95406818   -4.6911968    1263.9935  0.053252169  0.053354315            2 
 1979000   0.94602625   -4.6781377    1273.0592  0.053607008  0.053344482            3 
 1980000   0.94541635   -4.7126065    1264.2537  0.053209332  0.053334922            4 
 1981000   0.92223902   -4.7020564    1269.7184  0.053412349  0.053325187            3 
 1982000   0.94909174   -4.7135598    1267.1162  0.053275994  0.053315472            2 
 1983000   0.93597564    -4.662056    1270.8236  0.053404924  0.053305915            2 
 1984000   0.94211277   -4.7182257    1270.0737   0.05334651  0.053296371            3 
 1985000   0.91807132   -4.6818899    1269.6123  0.053300266  0.053286618            5 
 1986000   0.91395286   -4.6860831    1268.3901  0.053222144  0.053277108            4 
 1987000   0.91907942   -4.6925992    1272.9893  0.053388243  0.053267445            5 
 1988000   0.94837095   -4.6976321    1273.4635  0.053381267   0.05325764            4 
 1989000   0.94919159   -4.6781361    1268.0713  0.053128511  0.053247973            5 
 1990000   0.94829916   -4.7356891    1270.3403  0.053196829  0.053238054            3 
 1991000   0.92259348   -4.6826062     1271.447  0.053216432  0.053228278            3 
 1992000   0.92943438   -4.6850974    1272.6461  0.053239879  0.053218512            4 
 1993000   0.92997324   -4.6790171    1275.5266  0.053333608  0.053209017            5 
 1994000   0.90602742   -4.7327475    1273.2849  0.053213179   0.05319925            7 
 1995000     0.940994   -4.7043818    1278.3116  0.053396473   0.05318951            3 
 1996000   0.94428741   -4.6874084    1272.3641  0.053121414  0.053180003            5 
 1997000   0.91560101   -4.6694173    1274.7421  0.053194046  0.053170328            3 
 1998000   0.91631851   -4.6734699    1274.8608  0.053172374  0.053160596            3 
 1999000   0.93047658   -4.7031493    1279.5108   0.05333962  0.053151015            5 
 2000000   0.92690514   -4.6995703    1273.3148  0.053054782  0.053141402            7 
 2001000   0.94460344   -4.6872677     1277.849    0.0532171  0.053131722            4 
 2002000   0.92665567   -4.6998721    1281.9461  0.053361058  0.053122021            4 
 2003000   0.93222333    -4.705592    1277.4686  0.053148137  0.053112358            5 
 2004000    0.9410581   -4.7025017    1280.0861  0.053230461  0.053102622            3 
 2005000    0.9278495   -4.7004512     1273.152  0.052915711  0.053092856            3 
 2006000   0.95935653   -4.7164091    1273.4562  0.052901969  0.053083191            6 
 2007000   0.91654916   -4.7145109    1276.6137  0.053006716  0.053073366            4 
 2008000   0.93879387   -4.6867232    1278.7179  0.053067642  0.053063347            5 
 2009000   0.92968668    -4.722264    1275.4706  0.052906531  0.053053318            3 
 2010000    0.9271655   -4.6918289    1273.9462  0.052817007  0.053043362            4 
 2011000   0.94219184   -4.7213406    1274.1139  0.052797692  0.053033363            4 
 2012000   0.93463786   -4.7144989    1276.8251  0.052883745  0.053023403            5 
 2013000   0.95215967   -4.7071378     1280.623  0.053014695  0.053013443            4 
 2014000   0.93622879    -4.663837    1284.5844  0.053152282  0.053003456            5 
 2015000   0.92241678   -4.6917052    1280.0918  0.052940107  0.052993728            2 
 2016000   0.92239377   -4.6874119    1278.9257  0.052865647  0.052983773            2 
 2017000   0.95441703   -4.7120263    1280.0082  0.052884159  0.052973788            3 
 2018000   0.93156284   -4.7184638     1278.018  0.052775766  0.052963894            8 
 2019000   0.93304088   -4.7033479    1280.9136  0.052869143   0.05295397            3 
 2020000    0.9111902   -4.6772124    1284.9182  0.053008177  0.052944224            3 
 2021000    0.9234886    -4.754689    1280.7879  0.052811638  0.052934236            4 
 2022000   0.92794673   -4.7215372    1283.3595  0.052891506  0.052924341            2 
 2023000    0.9212467   -4.7081928    1283.3319  0.052864224  0.052914553            4 
 2024000   0.92309257   -4.6810937    1288.7725  0.053062107  0.052904663            8 
 2025000   0.93241054   -4.7075291    1287.8827  0.052999288  0.052894947            5 
 2026000   0.92373316   -4.7236415    1281.0152  0.052690656  0.052885033            4 
 2027000   0.93791762   -4.7111024     1285.798   0.05286129  0.052875106            6 
 2028000   0.92654963   -4.7148508    1283.6911   0.05274865  0.052865365            3 
 2029000   0.91352904   -4.7009647    1281.7917  0.052644641   0.05285547            4 
 2030000   0.94013612   -4.7175746    1288.8733  0.052909413  0.052845627            6 
 2031000   0.92727087   -4.6934063    1285.4918  0.052744616  0.052835782            3 
 2032000   0.92035071   -4.7029745    1290.3693   0.05291869  0.052826076            7 
 2033000   0.91171066     -4.73932    1288.4035  0.052812078  0.052816293            3 
 2034000   0.92774697   -4.6966441    1289.6668  0.052837873    0.0528065            9 
 2035000   0.90912788   -4.7303673    1286.2492  0.052671957  0.052796662            5 
 2036000   0.93966233   -4.6892342    1295.0048  0.053004454  0.052787033            3 
 2037000   0.93318017   -4.7062956    1287.5106  0.052671847  0.052777267            3 
 2038000    0.9185644   -4.6969754    1293.3883  0.052886337  0.052767852            4 
 2039000   0.93707064    -4.698267    1289.0059  0.052681295  0.052758128            4 
 2040000   0.93601913   -4.7355047    1291.9134  0.052774239  0.052748374            5 
 2041000   0.93780076   -4.6991531    1292.2399  0.052761713  0.052738677            4 
 2042000   0.90247554   -4.7166081    1292.4029  0.052742526   0.05272893            2 
 2043000   0.93313184   -4.6929733    1294.0678  0.052784623  0.052719159            6 
 2044000   0.91961264   -4.6919269    1298.9193  0.052956592  0.052709441            4 
 2045000   0.94902427    -4.699495    1291.9712  0.052647564  0.052699833            5 
 2046000   0.92198058   -4.7426608    1287.0299  0.052420572  0.052690008            3 
 2047000   0.91328195   -4.7107103    1294.6666  0.052705854  0.052680046            3 
 2048000   0.92129312   -4.6950477    1296.5688  0.052757521  0.052670376            3 
 2049000   0.93907735   -4.7344185    1292.4813  0.052565533  0.052660718            5 
 2050000   0.92217983   -4.7117311    1293.2428  0.052570846  0.052650921            4 
 2051000   0.92461412   -4.6937613    1293.4564  0.052553894  0.052641118            6 
 2052000    0.9205768      -4.6748    1296.7674  0.052662745  0.052631292            8 
 2053000   0.91752502   -4.7033001    1297.4815   0.05266608  0.052621483            4 
 2054000   0.92697791   -4.7186356    1293.8245  0.052492068  0.052611652            5 
 2055000   0.92477942   -4.6879266    1300.5239  0.052738194  0.052601679            3 
 2056000   0.93242339   -4.7308255    1295.8098  0.052521473  0.052591865            5 
 2057000   0.93325025   -4.7312254    1291.7315  0.052330722  0.052581966            6 
 2058000   0.91596294   -4.7315923    1297.9846  0.052558496   0.05257196            3 
 2059000   0.92358736   -4.7282108    1298.7671  0.052564641  0.052562095            3 
 2060000   0.92482187   -4.7262445    1293.4968  0.052325924   0.05255207            5 
 2061000   0.92521198   -4.7452587    1296.4269   0.05241901  0.052542043            3 
 2062000   0.90507684   -4.7128622    1296.4781  0.052395654  0.052531862            2 
 2063000   0.90546439   -4.7265989    1296.2494  0.052361021  0.052521807            1 
 2064000   0.90916366    -4.697306    1298.3588  0.052420818   0.05251181            3 
 2065000   0.91798933   -4.7418411    1299.6435  0.052447274  0.052501781            3 
 2066000    0.9223963   -4.7204362      1296.75  0.052305179  0.052491919            3 
 2067000   0.92967955   -4.7078329    1305.2542  0.052622731  0.052482027            4 
 2068000   0.91389035   -4.7059334    1301.7034  0.052454198  0.052472067            3 
 2069000   0.91834601   -4.7197474    1301.2376  0.052410086  0.052462096           11 
 2070000   0.94361057   -4.7204786    1301.1421  0.052380921  0.052452197            7 
 2071000   0.91438235   -4.6977974    1299.4268  0.052286607  0.052442357            6 
 2072000   0.90682207   -4.7323856    1301.2354  0.052334115   0.05243238            5 
 2073000   0.92875681   -4.7057897    1303.5089  0.052400261  0.052422434            3 
 2074000   0.92668693   -4.7402996    1300.5356  0.052255529   0.05241248            5 
 2075000   0.91698401   -4.7282292    1300.4879  0.052228429  0.052402372            4 
 2076000   0.92818452   -4.7248975    1303.4612  0.052322623  0.052392414            4 
 2077000   0.91192091   -4.7216704    1303.5642  0.052301563  0.052382304            4 
 2078000   0.91291466   -4.7157465    1302.2548  0.052223885  0.052372389            9 
 2079000   0.92478507   -4.7144317    1302.0217  0.052189421  0.052362317            6 
 2080000   0.93454284   -4.7215792    1301.0703  0.052126216  0.052352121            5 
 2081000   0.91163208   -4.7421715    1301.8125  0.052130887  0.052341968            5 
 2082000   0.91502504    -4.702715    1307.1169  0.052318161  0.052331814            1 
 2083000   0.92276276   -4.7158153    1305.8747  0.052243345  0.052321654            2 
 2084000   0.92795022   -4.7223551    1303.9882  0.052142841  0.052311394            4 
 2085000   0.91261421   -4.7243234    1303.4339  0.052095677  0.052301063            5 
 2086000   0.91565764   -4.7060197    1305.5411  0.052154887  0.052290705            5 
 2087000   0.93206348   -4.7159169    1305.6623  0.052134734   0.05228042            5 
 2088000   0.92798704   -4.7632194     1302.299  0.051975535  0.052270026            4 
 2089000   0.91481022   -4.7251135    1304.8257   0.05205145  0.052259533            2 
 2090000    0.9008903   -4.7431342    1305.5792  0.052056588  0.052249164            3 
 2091000   0.91171706    -4.729652    1304.9718  0.052007484  0.052238855            1 
 2092000   0.89220124   -4.7332553      1306.32   0.05203633  0.052228495            2 
 2093000   0.92903975   -4.7141644    1306.1578  0.052005009   0.05221818            5 
 2094000    0.9256877   -4.7156587    1306.9577  0.052012007  0.052207688            6 
 2095000   0.91053443   -4.7265356     1308.642  0.052054176  0.052197219            3 
 2096000   0.90571596   -4.7030034    1306.1942  0.051932022  0.052186802            6 
 2097000   0.91502875   -4.7313145     1305.512  0.051880147  0.052176281            9 
 2098000   0.94187124   -4.7386061    1306.9517  0.051912605  0.052166013            4 
 2099000   0.92072782   -4.7395287    1310.6835  0.052036031  0.052155578            4 
 2100000   0.92646565   -4.7128206    1309.2978  0.051956263   0.05214537            3 
 2101000   0.90273045   -4.7310386    1310.3712  0.051974109  0.052135149            5 
 2102000   0.91923392   -4.6951797    1315.2383  0.052142336  0.052124819            4 
 2103000   0.91738096   -4.7516397    1309.3369  0.051883695  0.052114551            5 
 2104000   0.90896657   -4.7166198    1313.3928  0.052019677  0.052104363            4 
 2105000   0.90548908   -4.6984866    1311.1112  0.051904641  0.052094191            3 
 2106000   0.91617337    -4.720286    1310.4434   0.05185357  0.052084042            4 
 2107000    0.8869509   -4.7335543    1314.7094  0.051997683  0.052073788            2 
 2108000   0.92609007   -4.7537808    1312.4266   0.05188277   0.05206353            4 
 2109000   0.92987547   -4.7427331    1314.4258  0.051937167  0.052053193            5 
 2110000   0.90436028   -4.7173822    1314.5692  0.051918214  0.052042918            4 
 2111000   0.89565381   -4.7514905    1311.7803  0.051783528   0.05203259            5 
 2112000   0.92259369   -4.7021046     1311.814  0.051760338  0.052022274            5 
 2113000   0.90639702    -4.711087    1310.0128  0.051664805  0.052011681            3 
 2114000     0.918756    -4.768838    1312.5992  0.051742322  0.052001103            4 
 2115000   0.92017633   -4.7464621    1315.1009  0.051816427  0.051990667            7 
 2116000    0.8998829   -4.7466717    1310.9697  0.051629242  0.051980329            3 
 2117000   0.91293685   -4.7286896    1316.4241  0.051819562  0.051969822            6 
 2118000   0.89944644   -4.7360393    1312.9835  0.051659724  0.051959373            7 
 2119000   0.92634173   -4.7491932    1311.6723  0.051583776  0.051948974            3 
 2120000   0.92554671   -4.7537407    1316.9589  0.051767251  0.051938536            2 
 2121000   0.87862536   -4.7439313     1313.493  0.051606671  0.051927874            4 
 2122000   0.91308533    -4.743394     1318.498  0.051778904  0.051917229            2 
 2123000   0.92901928   -4.7410575    1319.5913  0.051797429  0.051906634            4 
 2124000    0.9184536   -4.7202322    1316.9253  0.051668444  0.051896196            3 
 2125000   0.91049694   -4.7275123     1312.803  0.051482472  0.051885639           12 
 2126000   0.90827069   -4.7313075    1314.2127  0.051513511  0.051874986            4 
 2127000   0.91552346   -4.7318237     1317.416  0.051614794  0.051864426            3 
 2128000   0.90245839   -4.7410909    1316.5012  0.051554714  0.051853842            4 
 2129000   0.91173123   -4.7179233    1320.2545  0.051677413  0.051843183            2 
 2130000   0.91381591   -4.7492338    1318.0742  0.051567848  0.051832646            2 
 2131000   0.90340038   -4.7342129    1317.5163  0.051521834  0.051822085            4 
 2132000    0.9013916   -4.7767898    1315.7861  0.051430038  0.051811367            7 
 2133000   0.93837813    -4.704106    1319.8924  0.051566353  0.051800715            4 
 2134000    0.8987628   -4.7340124    1323.7688  0.051693563  0.051790115            3 
 2135000   0.92932836    -4.765314    1321.1208  0.051565995  0.051779264            6 
 2136000   0.89271995   -4.6806445    1324.1008  0.051658113  0.051768761            4 
 2137000   0.91141325   -4.7403201    1320.0919  0.051477612  0.051758244            5 
 2138000   0.89882226   -4.7256218     1321.503  0.051508537  0.051747316            3 
 2139000   0.89919712   -4.7027422    1323.4315   0.05155959  0.051736606            3 
 2140000   0.90573352   -4.7449195    1321.1948  0.051448394  0.051725832            6 
 2141000   0.92422587   -4.7691837    1316.6615  0.051247917  0.051714989            4 
 2142000   0.91301891   -4.7301267    1322.8162  0.051463436  0.051704249            6 
 2143000   0.90052137   -4.7433497    1319.8316  0.051323363  0.051693516            3 
 2144000   0.90494456   -4.7355105    1326.5768  0.051561599  0.051682733            6 
 2145000   0.92567025   -4.7349953    1324.9928  0.051476021  0.051672135            3 
 2146000    0.8915827   -4.7462443    1324.8314  0.051445766  0.051661447            6 
 2147000   0.92074866   -4.7482344    1323.8413  0.051383375  0.051650834            5 
 2148000   0.90682982   -4.7467573    1324.6182  0.051389595  0.051640152            4 
 2149000   0.92324063   -4.7528562    1322.5961   0.05128727  0.051629621            3 
 2150000   0.89682684   -4.7144148    1329.6147  0.051535454  0.051619071            3 
 2151000   0.90507003   -4.7474751    1324.5597  0.051315654  0.051608285            4 
 2152000   0.91468872   -4.7534217    1324.5178  0.051290187  0.051597576            4 
 2153000   0.92513435   -4.7354478    1326.8256  0.051355689   0.05158698            7 
 2154000   0.92880719   -4.7294824    1325.9436  0.051297726  0.051576488            2 
 2155000   0.90693736   -4.7426776    1329.8811  0.051426182  0.051566072            7 
 2156000   0.89674133   -4.7428518    1328.5286  0.051350055  0.051555665            8 
 2157000   0.89301013   -4.7609897    1328.8003  0.051336745   0.05154523            4 
 2158000    0.9183359   -4.7173268    1331.9384  0.051434137  0.051534871            3 
 2159000     0.920409   -4.7598092    1327.6819  0.051246019  0.051524385            2 
 2160000    0.8924794   -4.7230756    1337.5235  0.051601986  0.051513825            5 
 2161000   0.91002283   -4.7249098    1332.6016  0.051388308  0.051503375            4 
 2162000   0.92813326    -4.733644    1330.9815  0.051302093  0.051492719            3 
 2163000   0.89026396   -4.7638326    1325.7825  0.051078074  0.051482104            3 
 2164000   0.91000596   -4.7671463    1332.0415  0.051295499  0.051471666            1 
 2165000   0.91729356   -4.7766246    1334.0127   0.05134768  0.051461109            4 
 2166000   0.90984126   -4.7664773    1330.2086  0.051177617  0.051450637            7 
 2167000   0.91364661   -4.7442765     1329.902  0.051142209  0.051440157            6 
 2168000   0.89685696   -4.7857014    1330.3688  0.051136562  0.051429469            5 
 2169000   0.91613243   -4.7541584    1331.7047  0.051164312  0.051418944            4 
 2170000   0.91101857   -4.7440433    1334.0824  0.051232044  0.051408639            6 
 2171000   0.90392168   -4.7501822    1331.7733  0.051119809  0.051398154            2 
 2172000   0.91564615   -4.7589459    1331.9411  0.051102712  0.051387591            3 
 2173000   0.90526202   -4.7432465    1331.0598  0.051045396  0.051376957            6 
 2174000   0.90167236   -4.7488197    1333.8671  0.051129526  0.051366298            5 
 2175000   0.90311926   -4.7391948    1331.3392  0.051009166  0.051355779            5 
 2176000   0.90335637   -4.7306932    1338.2178  0.051249152  0.051345258            2 
 2177000   0.87503393   -4.7847822    1333.0036  0.051026015  0.051334648            3 
 2178000   0.92087575   -4.7509367    1336.4882  0.051135913  0.051323905            3 
 2179000   0.88624807   -4.7654107    1332.4195  0.050956841  0.051313204            4 
 2180000   0.90935867   -4.7366652    1337.7751  0.051138193   0.05130257            2 
 2181000   0.91472517    -4.755552    1334.2219   0.05097898  0.051291961            5 
 2182000   0.89743306   -4.7414234    1337.5154  0.051081401  0.051281263            4 
 2183000   0.89762223   -4.7099134    1338.6151  0.051099981  0.051270531            5 
 2184000   0.91261188   -4.7505055    1333.1864  0.050869444  0.051259896            4 
 2185000   0.90566114   -4.7713113    1335.2021  0.050923038  0.051249139            4 
 2186000   0.89315446   -4.7662448    1336.3957  0.050945246  0.051238468            9 
 2187000   0.89874059   -4.7668164    1334.8666  0.050863686  0.051227637            5 
 2188000   0.90938925    -4.743042    1341.4293  0.051090392  0.051216991            3 
 2189000   0.90350608   -4.7405499    1346.3423  0.051254083  0.051206413            8 
 2190000   0.91126029   -4.7234145    1344.5959  0.051164229  0.051195943            6 
 2191000   0.90996189   -4.7480398    1344.0648  0.051120674  0.051185425            3 
 2192000   0.92052453   -4.7567021    1335.0115  0.050753176  0.051174844            6 
 2193000   0.90812119   -4.7564198    1340.2993  0.050930966  0.051164181            3 
 2194000   0.90327148   -4.7440454    1336.6149   0.05076781  0.051153447            5 
 2195000   0.89613209   -4.7595363    1343.0026  0.050987191  0.051142718            3 
 2196000   0.90497639   -4.7494266     1343.451  0.050980987  0.051132123            4 
 2197000   0.90044639   -4.7523882    1341.6078  0.050887871  0.051121364            9 
 2198000   0.89552823   -4.7481022    1337.6242  0.050713687  0.051110544            5 
 2199000   0.90771473   -4.7474761    1342.8311  0.050887946  0.051099772            7 
 2200000   0.89172672   -4.7957625    1336.4884  0.050624561  0.051088769            5 
 2201000   0.90241146   -4.7593431    1340.8187  0.050765511  0.051077893            5 
 2202000   0.89492232   -4.7600183    1341.9843   0.05078657  0.051067157            4 
 2203000    0.8948598   -4.7747158    1338.8731  0.050645827  0.051056282            3 
 2204000   0.90317407   -4.7589352    1338.1824  0.050596732  0.051045537            4 
 2205000   0.89623071   -4.7638047    1338.8576  0.050599305  0.051034706            2 
 2206000   0.90017969   -4.7671048    1339.9956  0.050619357  0.051023887            4 
 2207000   0.88597237   -4.7700409    1343.5603   0.05073102  0.051013126           11 
 2208000   0.91841601   -4.7959028     1342.593  0.050671536  0.051002326            4 
 2209000   0.90793238   -4.7469757    1343.7396  0.050691852  0.050991383            3 
 2210000   0.89247664   -4.7730304    1342.6013  0.050625992  0.050980465            4 
 2211000   0.91700564   -4.7537674    1344.0647   0.05065825  0.050969615            2 
 2212000   0.89986654   -4.7918711    1342.6916  0.050583618  0.050958862            4 
 2213000   0.88551322   -4.7744646    1343.8184  0.050603192  0.050947916            4 
 2214000   0.88426146   -4.7902698    1342.8516  0.050543949  0.050937064            6 
 2215000   0.88595855    -4.765319     1344.101  0.050568134  0.050926138            4 
 2216000   0.89470653   -4.7162779    1346.1417  0.050622057  0.050915345            9 
 2217000   0.91015292   -4.7431452    1344.2491  0.050528082  0.050904573            3 
 2218000   0.89371557   -4.7714615    1342.2803   0.05043133  0.050893667            2 
 2219000   0.88573449   -4.7622988    1343.0386  0.050437081  0.050882878            5 
 2220000   0.89527167   -4.7608368    1343.5607  0.050433959  0.050871963            5 
 2221000   0.88178199   -4.7628737    1347.2757  0.050550641  0.050861086            6 
 2222000   0.88365009   -4.7552966    1344.8425  0.050436636  0.050850157            5 
 2223000   0.91276598   -4.7694054    1345.4107   0.05043525  0.050839408            5 
 2224000   0.89593904   -4.7564103    1349.4405  0.050563569  0.050828579            5 
 2225000     0.884926   -4.7641931    1350.6115  0.050584699   0.05081764            5 
 2226000   0.90502539    -4.753631    1346.2833  0.050399943  0.050806633            4 
 2227000   0.89765857   -4.7694147    1345.3884  0.050343826  0.050795694            2 
 2228000   0.89349792   -4.7600958    1347.9837    0.0504183  0.050784767            5 
 2229000   0.88834308   -4.7621897     1348.075  0.050399095  0.050773879            3 
 2230000   0.89516936   -4.7629735     1345.393  0.050276269  0.050762895            8 
 2231000   0.90869145   -4.7820236    1347.4092  0.050329045  0.050751868            5 
 2232000   0.89540916   -4.7484384    1352.6241  0.050501198  0.050741017            3 
 2233000   0.89689604   -4.7451451    1349.8995  0.050376904  0.050730128            4 
 2234000   0.88965379   -4.7919409     1348.614  0.050306402  0.050719026           13 
 2235000   0.89385406   -4.7707677    1347.8706  0.050256176  0.050707892            6 
 2236000   0.90147931   -4.7837285    1348.9829  0.050275151  0.050696777            6 
 2237000   0.91153367   -4.7950803    1346.6329  0.050165137  0.050685681            2 
 2238000   0.91019104   -4.7889853    1353.4386  0.050396136  0.050674824            3 
 2239000    0.8931852   -4.7383038    1352.5251  0.050339626  0.050664001            5 
 2240000   0.89666106    -4.789727    1352.8825  0.050330452  0.050653092            5 
 2241000   0.88535739   -4.7537124     1351.799  0.050267701  0.050642088            4 
 2242000    0.9005407    -4.772816    1352.5011  0.050271375  0.050631165            7 
 2243000   0.89539923   -4.7570763    1352.0625  0.050232669  0.050620135            2 
 2244000   0.90048247   -4.8004144     1350.005  0.050133875  0.050609126            7 
 2245000   0.88528711   -4.7793832    1349.4257  0.050090041   0.05059807            3 
 2246000   0.90831298   -4.7714741    1351.0529  0.050128112  0.050586999            1 
 2247000   0.90396325   -4.7836254    1349.5597  0.050050425  0.050575897           15 
 2248000   0.90567487   -4.7531373    1354.0622  0.050195068  0.050564894            4 
 2249000   0.89059048   -4.8301796     1351.194  0.050066475  0.050553811            3 
 2250000   0.89752868   -4.7553143    1355.2308  0.050193734  0.050542707            3 
 2251000   0.88664766   -4.7700114    1358.0416  0.050275493  0.050531666            3 
 2252000   0.89310019   -4.7836551    1355.2269  0.050149011  0.050520785            3 
 2253000   0.88877626   -4.7756403     1351.457  0.049987313  0.050509793            3 
 2254000    0.8847483    -4.737212    1360.2008  0.050288405  0.050498924            4 
 2255000   0.88820626   -4.7694644    1354.8297  0.050067615  0.050488023            3 
 2256000   0.89432259   -4.7832775    1357.6812  0.050150752  0.050476988            7 
 2257000   0.89117353   -4.8013152    1354.0828  0.049995674  0.050465983            6 
 2258000   0.86394999   -4.7613548    1356.9578  0.050079636  0.050454843            6 
 2259000   0.88942661   -4.7802085     1356.317  0.050033826   0.05044391            3 
 2260000   0.88132738   -4.7830387    1356.5312  0.050019589  0.050433052            3 
 2261000   0.88454203   -4.7440277    1359.4741  0.050105931  0.050422233            2 
 2262000    0.8757179   -4.8110981    1356.9882  0.049992196   0.05041141            7 
 2263000   0.90017141   -4.7542635     1361.673  0.050142621  0.050400674            9 
 2264000   0.88857022   -4.7783588    1356.9612  0.049947041  0.050389942            4 
 2265000   0.88221901   -4.7760715    1367.6023  0.050316494  0.050379179            3 
 2266000   0.88181401    -4.782161    1361.6842  0.050076649   0.05036849            7 
 2267000   0.89464634   -4.7731681    1367.8975  0.050282955  0.050357721            3 
 2268000   0.88332034   -4.7874973    1357.6736  0.049885125  0.050347133            6 
 2269000   0.89515791   -4.7677914    1364.4021  0.050110257  0.050336287            4 
 2270000   0.88729155   -4.7936776    1359.7268   0.04991655  0.050325518            6 
 2271000   0.87653477   -4.7944677    1362.1453  0.049983314   0.05031463            4 
 2272000     0.883034   -4.7697376    1364.0882  0.050032578   0.05030397            3 
 2273000   0.90089915   -4.7712459    1362.9709  0.049969602  0.050293337            2 
 2274000   0.90171069   -4.7587782    1366.5138  0.050077461  0.050282687            4 
 2275000   0.91095354   -4.7799332     1367.323  0.050085093   0.05027211            4 
 2276000   0.89657899   -4.8008598     1366.515  0.050033503  0.050261443            3 
 2277000   0.89065825   -4.7826646    1367.5249  0.050048488  0.050250681            8 
 2278000   0.89309636   -4.7600725    1364.8836  0.049929894  0.050240008            2 
 2279000   0.88995584   -4.7787618    1368.6251  0.050044797  0.050229247            5 
 2280000   0.89300107   -4.7948272    1364.9462  0.049888385   0.05021839            7 
 2281000   0.88106565    -4.762454    1369.2877  0.050025122  0.050207845            5 
 2282000   0.85246073   -4.7670919    1368.1502  0.049961663  0.050197171            5 
 2283000   0.88774955   -4.7894381    1369.7866  0.049999512  0.050186645            3 
 2284000   0.87935536   -4.8027625    1369.0803  0.049951851  0.050176052            6 
 2285000   0.89431101   -4.7990946    1366.9365  0.049851805  0.050165563            3 
 2286000   0.88087479   -4.7712234    1370.4389  0.049957674   0.05015495            7 
 2287000   0.87478299   -4.7767933    1366.8894  0.049806495  0.050144264            3 
 2288000   0.88440695   -4.7893403    1368.5359  0.049844694  0.050133593           13 
 2289000   0.87289656   -4.8110454    1367.4678  0.049784033  0.050122833            5 
 2290000   0.89531216   -4.7965848    1367.1919  0.049752254  0.050112095            8 
 2291000   0.87282206   -4.7870765    1366.2082  0.049694756  0.050101297            4 
 2292000   0.89305691   -4.8014675    1370.4999  0.049829113  0.050090606            9 
 2293000   0.87365115   -4.7931378    1370.5428  0.049808942  0.050079897            3 
 2294000    0.8716006   -4.7848452    1370.7698  0.049795473  0.050069231            4 
 2295000   0.89762802   -4.7836251    1372.5666  0.049839018  0.050058716            3 
 2296000   0.87457606   -4.8140364    1370.5231  0.049743144  0.050048084            7 
 2297000   0.86119218   -4.7695698     1370.945  0.049736793   0.05003753            4 
 2298000   0.89743627    -4.771749    1371.6304  0.049740005  0.050026937            2 
 2299000   0.88866907   -4.7913919    1371.8735  0.049727182  0.050016356            5 
 2300000   0.87550963   -4.7861914    1371.7453  0.049700917  0.050005928            3 
 2301000   0.88561422   -4.7950518    1372.3342  0.049700645  0.049995193           10 
 2302000   0.88438635   -4.8373727    1370.4899  0.049612289   0.04998454            9 
 2303000   0.87309611   -4.8002345     1370.215    0.0495808  0.049973837            4 
 2304000   0.89341515   -4.7808674    1375.8564  0.049763324  0.049963156            2 
 2305000   0.89387686   -4.7954647    1375.2457  0.049719655  0.049952424            7 
 2306000   0.88262696   -4.8052818    1374.8204  0.049682726  0.049941821            3 
 2307000   0.87207241   -4.7955015    1375.1431  0.049672848  0.049931154            5 
 2308000   0.86037067   -4.7735199    1377.6124  0.049740482  0.049920552            4 
 2309000   0.88823665   -4.7666981    1378.8286  0.049762835  0.049910213            4 
 2310000   0.89229635   -4.7723965    1378.1026  0.049715101  0.049899695            3 
 2311000   0.88059241   -4.7998176    1376.2541  0.049626933  0.049889109            5 
 2312000   0.88863048   -4.7916753    1374.6105  0.049546228  0.049878595            4 
 2313000   0.88115776   -4.7811899     1381.397  0.049769313  0.049868103            6 
 2314000   0.86973591   -4.7893672    1375.6178  0.049539681    0.0498575            3 
 2315000   0.88598866   -4.7774547    1381.3857  0.049725906  0.049847068            8 
 2316000    0.8659512   -4.7867579    1375.6016  0.049496314  0.049836699            4 
 2317000   0.88747605   -4.8015312    1383.3046     0.049752  0.049826095            3 
 2318000   0.85964344   -4.8065201    1377.7614  0.049531255  0.049815632            2 
 2319000   0.88852466   -4.8092864    1374.9234  0.049407912  0.049804899            5 
 2320000    0.8637273   -4.7917329    1374.7282  0.049379605  0.049794257            8 
 2321000   0.87652175   -4.7628808    1384.5343  0.049710407  0.049783808            4 
 2322000   0.87770736    -4.812388    1382.4325  0.049613568  0.049773381            9 
 2323000    0.8692064   -4.7862002    1380.6139  0.049526974    0.0497629            3 
 2324000   0.87565905   -4.8246981     1382.274  0.049565189  0.049752409            5 
 2325000   0.88170848   -4.7610923    1388.9226  0.049782172  0.049741897            3 
 2326000   0.86563734   -4.7560566    1387.0545   0.04969384  0.049731459            5 
 2327000   0.87021216   -4.7886134    1385.7171  0.049624593  0.049720977            5 
 2328000   0.87850903   -4.7979464    1386.1144  0.049617498  0.049710508            4 
 2329000    0.8777838     -4.79898    1383.4445  0.049500664  0.049699991            3 
 2330000   0.86360336   -4.7932597    1381.2241  0.049400004  0.049689536            3 
 2331000   0.86322754   -4.7592503    1386.9269  0.049582686  0.049679263            5 
 2332000    0.8833249   -4.7894069    1388.6168  0.049621812  0.049669031            2 
 2333000   0.88850162   -4.8164144    1384.8824  0.049467152  0.049658725            3 
 2334000   0.85132831   -4.7792652    1386.7568  0.049512883  0.049648273            9 
 2335000   0.86373848   -4.7926641    1388.9962  0.049571601  0.049638079            4 
 2336000   0.87936219   -4.7873883    1390.8342  0.049615945  0.049627803            2 
 2337000   0.88065393   -4.8066939    1388.1952  0.049500614  0.049617582            4 
 2338000   0.87761434   -4.8024738    1391.7125   0.04960481   0.04960753            8 
 2339000   0.88202564   -4.8081979    1389.9575  0.049521073   0.04959743            4 
 2340000   0.89253371   -4.8112907    1390.5444  0.049520812   0.04958731            8 
 2341000   0.87820205   -4.8365245    1387.6135  0.049395327  0.049577102            8 
 2342000   0.90108483   -4.8021275    1393.1668  0.049571832  0.049567017            3 
 2343000   0.87121856   -4.8200248    1392.3246  0.049520722  0.049557017            6 
 2344000   0.87322296   -4.8043362    1388.5014  0.049363673  0.049546818            4 
 2345000   0.85924405   -4.8012288    1388.9728  0.049359375  0.049536579            5 
 2346000   0.87489517   -4.7819475    1394.3027  0.049527659  0.049526468           11 
 2347000   0.86624127   -4.8200985     1389.697  0.049343025  0.049516447            4 
 2348000   0.89581776   -4.8138889    1395.8394  0.049540013  0.049506057            7 
 2349000   0.89473942    -4.790394    1390.3107  0.049322787  0.049495719            4 
 2350000   0.85511187    -4.795798    1391.9193   0.04935884  0.049485565            3 
 2351000   0.88397744   -4.8068991    1392.3741  0.049353967  0.049475228            2 
 2352000   0.87164464   -4.8028934    1390.3426  0.049261005   0.04946507            4 
 2353000   0.88855801   -4.8360678    1393.3508  0.049346607  0.049454769            7 
 2354000   0.88857887    -4.822796    1396.0318  0.049420555   0.04944452            4 
 2355000    0.8652888   -4.7884875     1397.583  0.049454458  0.049434347            4 
 2356000    0.8563894   -4.7835803    1393.2558   0.04928041  0.049424072            4 
 2357000    0.8592367    -4.819705    1393.7828  0.049278137  0.049413968            3 
 2358000   0.88277059   -4.8085975    1393.3469  0.049241832  0.049403805            4 
 2359000   0.86458824   -4.7989448    1389.4103  0.049081896  0.049393667            5 
 2360000   0.86280736   -4.8180433    1393.5209  0.049206247  0.049383384            6 
 2361000   0.86953689   -4.7967035    1397.3892  0.049321941  0.049373064            6 
 2362000   0.88897351   -4.8035623    1395.9504  0.049250295  0.049362856            9 
 2363000   0.87849354   -4.7968585    1396.3011  0.049241823  0.049352568            5 
 2364000   0.86952851   -4.8365931    1398.4206  0.049295705  0.049342359            3 
 2365000   0.89337443   -4.7847731     1396.096  0.049192954  0.049332293            4 
 2366000   0.89154666   -4.7955275    1395.5663  0.049153505  0.049322105           10 
 2367000   0.88039545   -4.7681126    1395.7912  0.049140655  0.049311955            4 
 2368000    0.8608451   -4.7925293    1397.7922  0.049190324  0.049301761            6 
 2369000   0.85353604    -4.827538    1397.8617  0.049172004  0.049291419           10 
 2370000   0.88557419    -4.830956    1399.9981  0.049226374  0.049281074            8 
 2371000   0.87620019   -4.7973565    1396.3292  0.049076664  0.049270676            5 
 2372000   0.86311829   -4.8113728    1399.2839  0.049159778  0.049260304            4 
 2373000   0.87671142   -4.8184583    1401.8622  0.049229604  0.049249898            5 
 2374000   0.88086538    -4.834803    1398.1284  0.049077803  0.049239488            7 
 2375000   0.87253446   -4.8292333    1393.2392  0.048885585  0.049228962            3 
 2376000   0.87361799   -4.8052556    1397.6802   0.04902077  0.049218375            6 
 2377000   0.87183416   -4.8091301    1401.8675  0.049146947  0.049207909            3 
 2378000   0.86777818   -4.8228746    1394.3851  0.048864069   0.04919742            5 
 2379000   0.87404987   -4.8166644    1397.5395  0.048954024  0.049186914            3 
 2380000   0.87273074   -4.8127558    1399.8294  0.049013635  0.049176474            3 
 2381000   0.88675063   -4.7814154    1402.4262  0.049083936  0.049166284            7 
 2382000   0.85438781   -4.8146349    1404.9789  0.049152634  0.049156047            8 
 2383000   0.87061537    -4.808699    1403.2876  0.049072863  0.049145738            4 
 2384000   0.86180873   -4.7922746    1405.4152  0.049126651  0.049135574            4 
 2385000   0.85777219   -4.8089809    1405.4981  0.049108949  0.049125348            4 
 2386000   0.86974508   -4.8230797    1403.2899  0.049011241  0.049115077            7 
 2387000   0.85038484   -4.8427955    1399.8058  0.048869076   0.04910471            4 
 2388000   0.88337966   -4.8215688    1402.8935  0.048956362  0.049094445            4 
 2389000   0.86429107   -4.8086445    1402.0371  0.048905995   0.04908406            4 
 2390000   0.85667415   -4.8125985    1399.7191  0.048804712  0.049073511            7 
 2391000   0.87469895   -4.8263195    1401.6093  0.048850178  0.049063107            6 
 2392000   0.86219254   -4.8264194    1400.8182  0.048802196  0.049052752            2 
 2393000   0.86471184   -4.8290557     1402.928  0.048855273  0.049042334            4 
 2394000   0.87279593   -4.7900027    1407.6852  0.049000461  0.049031925            5 
 2395000   0.86893501   -4.8239832    1406.0527  0.048923198   0.04902161            4 
 2396000   0.85501543   -4.8221963    1409.2285  0.049013234  0.049011286            6 
 2397000   0.87774799   -4.8205596     1409.743  0.049010675  0.049001113            7 
 2398000    0.8736177    -4.808608    1408.7686  0.048956372  0.048991076            4 
 2399000   0.87787753   -4.7981656    1408.7447  0.048935138  0.048980944            6 
 2400000   0.87551514   -4.8435485    1407.0105  0.048854531  0.048970763            5 
 2401000   0.87648835   -4.8621595    1403.0048  0.048695156  0.048960611            3 
 2402000   0.86001619   -4.8409939    1407.8376  0.048842547  0.048950285            4 
 2403000   0.86106139   -4.8255656    1409.6604  0.048885434  0.048939905            3 
 2404000   0.86473489   -4.8115021     1407.295  0.048783103  0.048929665            6 
 2405000   0.88155655   -4.8148452    1405.9293  0.048715498   0.04891964            4 
 2406000   0.86639178   -4.8188671    1406.0315   0.04869879  0.048909461            3 
 2407000   0.86215345   -4.8459899    1411.9603  0.048883821  0.048899167            5 
 2408000   0.87387791    -4.835478    1410.6679  0.048818794  0.048888891            4 
 2409000   0.84917882   -4.7968615    1409.0352  0.048742051  0.048878678            5 
 2410000   0.84178516   -4.7992665    1412.9493  0.048857167  0.048868412            4 
 2411000   0.85030416   -4.7855627    1411.2306  0.048777498  0.048858263            9 
 2412000   0.88673828   -4.7929326    1416.3113   0.04893281   0.04884796            4 
 2413000   0.85933487    -4.812582    1413.3661  0.048810821  0.048837586            3 
 2414000   0.85891094   -4.8242919     1408.857  0.048634943   0.04882728            6 
 2415000   0.86033327   -4.8196346     1412.541  0.048741925  0.048816926            4 
 2416000    0.8614142   -4.8333528    1410.5835  0.048654234  0.048806633            5 
 2417000   0.87149912   -4.8289639    1406.6236  0.048497571  0.048796349            7 
 2418000   0.85962334   -4.8749057     1408.985  0.048558899  0.048785901            4 
 2419000   0.86455818   -4.8146847     1410.669  0.048596837  0.048775498            6 
 2420000    0.8756217   -4.8041183     1412.943   0.04865506  0.048765207            2 
 2421000   0.87604532   -4.8227644    1409.2858  0.048509081  0.048754739            5 
 2422000   0.87154385   -4.8723031    1408.2339  0.048452859   0.04874434            3 
 2423000   0.86278765   -4.8293667    1411.3667  0.048540607  0.048733891            6 
 2424000   0.87733677   -4.8090799    1415.5774   0.04866534  0.048723583            4 
 2425000   0.84923119   -4.8499019    1411.4564  0.048503657  0.048713209            4 
 2426000   0.86320757    -4.797995    1414.0824  0.048573865  0.048702897            4 
 2427000   0.88442375   -4.8202622    1413.8245  0.048544997  0.048692758            5 
 2428000   0.85785461   -4.8284869    1416.6903  0.048623363   0.04868242            4 
 2429000    0.8771559   -4.8024615    1416.4993  0.048596793  0.048672231            5 
 2430000   0.84082034   -4.8174395    1414.3063  0.048501587  0.048661915            2 
 2431000   0.87740568   -4.8092668    1420.7198  0.048701488  0.048651595           12 
 2432000   0.85335861   -4.8259046    1411.5405   0.04836693  0.048641349            4 
 2433000   0.88048389   -4.8360316    1415.2167  0.048472967  0.048631154            3 
 2434000   0.84961526   -4.7847026    1424.9199  0.048785262  0.048621139            2 
 2435000   0.86458661   -4.8524132    1418.3463  0.048540257  0.048611188            4 
 2436000   0.87401845    -4.832185    1420.1292   0.04858132  0.048600888            4 
 2437000   0.85965836   -4.8147055    1419.8177  0.048550735  0.048590708            7 
 2438000   0.86040153   -4.8589655    1414.5286  0.048350034  0.048580475            5 
 2439000   0.86308328   -4.8255546    1418.4391  0.048463819  0.048570208            5 
 2440000   0.87150256   -4.8478258    1419.5344  0.048481365  0.048559946            6 
 2441000   0.86176297   -4.8479058    1418.3322  0.048420462  0.048549672            3 
 2442000   0.87159765   -4.8416792    1424.7376  0.048619218  0.048539541            5 
 2443000   0.86506313   -4.8079179    1419.9354  0.048435509  0.048529408            4 
 2444000   0.85334186   -4.8362923    1419.5591  0.048402861  0.048519227            3 
 2445000   0.85545953   -4.8399378    1421.5769  0.048451839  0.048509035            3 
 2446000   0.86268555   -4.8228086    1420.9567  0.048410899   0.04849867            5 
 2447000   0.87861678    -4.847627    1422.9448  0.048458822  0.048488547            8 
 2448000   0.84377707   -4.8386234    1421.8249  0.048400903  0.048478358            5 
 2449000   0.84915111   -4.8443204    1419.0266  0.048285921  0.048468139            7 
 2450000   0.84555582   -4.8318536     1423.146  0.048406325  0.048458071            4 
 2451000   0.85730201   -4.8243058    1426.5748  0.048503155  0.048447944            6 
 2452000   0.87670686   -4.8270122    1426.3694  0.048476392  0.048437823            4 
 2453000   0.86053853   -4.8503853    1422.3073  0.048318635   0.04842756            7 
 2454000   0.86725228   -4.8478984    1425.6216  0.048411492   0.04841742            5 
 2455000   0.86667022   -4.8466954    1420.1377  0.048205624  0.048407301            4 
 2456000   0.85621266   -4.8434874    1423.5759  0.048302656  0.048397127            3 
 2457000   0.85943479   -4.8467875    1424.7161  0.048321671  0.048387011            8 
 2458000   0.84170692   -4.8649699      1421.98   0.04820925  0.048376871            2 
 2459000   0.88447043   -4.8565446    1424.2347  0.048266054  0.048366541            3 
 2460000   0.84044352   -4.8494192    1424.3929  0.048251794  0.048356422            2 
 2461000   0.86597619   -4.8207077    1427.8498  0.048349241  0.048346289            3 
 2462000    0.8695422   -4.8151312    1429.1779  0.048374556  0.048336234           12 
 2463000    0.8640229   -4.8366635     1429.486  0.048365339  0.048326144            3 
 2464000   0.85686833   -4.8616968     1426.143  0.048232651  0.048315855            5 
 2465000    0.8642797   -4.8195103    1429.7836  0.048336159  0.048305638            3 
 2466000   0.86585646   -4.8340704    1429.7595  0.048315746  0.048295476            5 
 2467000   0.84682161   -4.8348846    1429.8473  0.048299124  0.048285245            4 
 2468000   0.85606732   -4.8187799    1428.7071  0.048241057  0.048275107            3 
 2469000   0.86335661   -4.8588921    1425.6643  0.048118816  0.048264899            6 
 2470000   0.84638774   -4.8372106    1427.5865  0.048164187  0.048254622            5 
 2471000   0.85620868   -4.8096374    1430.5916   0.04824604  0.048244383            2 
 2472000    0.8620017   -4.8476656    1428.5727  0.048158466  0.048234056            6 
 2473000   0.84441709   -4.8102666    1434.6539  0.048343909  0.048223943            2 
 2474000   0.82798025   -4.8594032    1429.6062  0.048154346  0.048213664            4 
 2475000   0.84214252   -4.8716305     1423.717  0.047936599  0.048203381            6 
 2476000   0.85314086   -4.8497648    1432.0338  0.048197152  0.048193098            3 
 2477000    0.8452656   -4.8444968    1431.6991  0.048166435  0.048182902            6 
 2478000   0.86541431   -4.8743427    1430.6148  0.048110533  0.048172687            6 
 2479000   0.85390795    -4.836677    1434.7955  0.048231662  0.048162653            5 
 2480000   0.87259279   -4.8604432    1433.0901  0.048154909  0.048152578            6 
 2481000   0.86881518   -4.8482428    1433.1968  0.048139085  0.048142544            8 
 2482000   0.84464592   -4.8547606    1436.6909  0.048237003  0.048132526            8 
 2483000   0.86134824    -4.804768    1435.1874  0.048167117   0.04812246            3 
 2484000    0.8216148   -4.8571747    1430.9444  0.048005382  0.048112364            7 
 2485000   0.86147969   -4.8653048    1435.5631   0.04814095  0.048102277            3 
 2486000   0.86629161   -4.8596325    1434.0369  0.048070424  0.048092257            8 
 2487000   0.86404481   -4.8535403    1432.7308  0.048007331  0.048082256            4 
 2488000   0.84584952   -4.8418886     1437.326  0.048141948  0.048072191            3 
 2489000   0.84842134   -4.8293537    1432.3077   0.04795459  0.048062263            5 
 2490000   0.84458255   -4.8477686    1435.7246  0.048049685  0.048052168            5 
 2491000   0.84853151   -4.9068677    1431.1084  0.047875968  0.048042034            3 
 2492000   0.84891361   -4.8619803    1432.9185  0.047917286  0.048031704            8 
 2493000    0.8464834   -4.8465695    1437.1584   0.04803979  0.048021549            7 
 2494000   0.86501358   -4.8435114    1441.4185  0.048162874  0.048011471            2 
 2495000   0.85724774   -4.8572024    1436.0875  0.047965513  0.048001315            9 
 2496000   0.83696637   -4.8430577    1435.8339  0.047937829  0.047991308            8 
 2497000    0.8426707   -4.8680568    1438.6341  0.048012085  0.047981237            8 
 2498000    0.8660848   -4.8594357     1436.161  0.047910362  0.047971081            7 
 2499000   0.84039118   -4.8474801    1435.9007  0.047882509  0.047961037            6 
 2500000     0.864081   -4.8658085     1442.124  0.048070801  0.047950987            5 
 2501000    0.8614924   -4.8760546     1438.389  0.047927127  0.047940825            6 
 2502000    0.8415769   -4.8602601    1437.3417   0.04787309  0.047930697            4 
 2503000   0.87263496    -4.825756    1438.4038  0.047889326  0.047920614            2 
 2504000   0.85345425   -4.8444964    1438.5196  0.047874056    0.0479105            4 
 2505000   0.85368008   -4.8517479    1438.4923  0.047854035  0.047900397            2 
 2506000   0.82539041   -4.8838048    1438.2369  0.047826448  0.047890276           13 
 2507000   0.84173658   -4.8389067    1440.2319  0.047873685  0.047880063            3 
 2508000   0.86456009   -4.8556722    1439.5965  0.047833483  0.047869993            7 
 2509000   0.85574746   -4.8796933    1440.3198  0.047838442  0.047859944            4 
 2510000   0.83990319   -4.8527773    1444.0408  0.047942923   0.04784986            9 
 2511000   0.86996109   -4.8452325    1441.2925  0.047832618  0.047839697            4 
 2512000   0.85023847   -4.8594269    1441.1551  0.047809022  0.047829724            3 
 2513000   0.86011362   -4.8374003    1449.1881  0.048056378  0.047819547            5 
 2514000   0.86454033   -4.8382673    1438.8112   0.04769329  0.047809461            4 
 2515000   0.85972258   -4.8285137    1441.5081  0.047763687  0.047799407            8 
 2516000   0.85348072   -4.8444459    1444.2147  0.047834352  0.047789341            4 
 2517000   0.85059467   -4.8553183    1440.1053  0.047679292  0.047779177            2 
 2518000   0.82272243   -4.8578769     1440.788   0.04768295  0.047769044            5 
 2519000   0.86401792   -4.8604655    1443.9511  0.047768661  0.047758891            7 
 2520000   0.83624273   -4.8469172    1444.5216  0.047768573  0.047748632            6 
 2521000   0.83556326   -4.8444102    1443.6002  0.047719165  0.047738496            9 
 2522000   0.84173644   -4.8655657    1443.5923  0.047699985  0.047728425            5 
 2523000   0.83229372   -4.8894813    1439.3905  0.047542294  0.047718127            4 
 2524000   0.84618902   -4.8378978    1448.6632  0.047829609  0.047708015            5 
 2525000   0.83891414   -4.8871246    1440.4122  0.047538358   0.04769794            3 
 2526000   0.84395727   -4.8372115    1442.2151  0.047579013   0.04768783            6 
 2527000   0.83690576   -4.8653059    1445.2949  0.047661748  0.047677661            5 
 2528000   0.86335194   -4.8573513    1444.9905  0.047632861  0.047667391            7 
 2529000   0.84057352   -4.8665105    1444.5501  0.047599516   0.04765717            4 
 2530000   0.83960511   -4.8393188    1448.8177  0.047721267  0.047646862            8 
 2531000   0.83973375   -4.8569412    1447.4228  0.047656487  0.047636653            9 
 2532000   0.84352846   -4.8798956    1441.6675  0.047448247  0.047626349           11 
 2533000   0.85461337   -4.8544708     1444.663  0.047528064  0.047616061            4 
 2534000   0.84420399   -4.8871493    1445.7677  0.047545636  0.047605811            6 
 2535000       0.8341   -4.8713053    1443.4034   0.04744916  0.047595592            3 
 2536000   0.83509505   -4.8917193      1443.38  0.047429678  0.047585313            7 
 2537000   0.85203651   -4.8778099    1439.6445  0.047288283  0.047574965            5 
 2538000   0.85714231   -4.8620034    1448.4184  0.047557735  0.047564566            4 
 2539000    0.8453827   -4.8573226     1449.317  0.047568497  0.047554275            4 
 2540000   0.84854119   -4.9124311    1442.0137  0.047310162  0.047543944           10 
 2541000   0.83855055   -4.8757737    1444.9097  0.047386517  0.047533627            3 
 2542000   0.84466257   -4.8762753     1446.722  0.047427289   0.04752333            9 
 2543000   0.84508841   -4.8461878    1445.4974  0.047368509  0.047513078           14 
 2544000   0.85343715   -4.8726618    1447.8039  0.047425442  0.047502855            6 
 2545000    0.8454071   -4.8585244    1448.7538  0.047437911  0.047492612            7 
 2546000   0.85341726   -4.8602818    1451.2913  0.047502333  0.047482409            4 
 2547000   0.86042876   -4.8775166    1447.8403  0.047370773  0.047472187            3 
 2548000   0.83759728   -4.8799303    1448.3267   0.04736809  0.047461951            8 
 2549000   0.85935337   -4.8575701    1448.3673  0.047350834  0.047451719            3 
 2550000   0.82924684   -4.8797469    1450.4453  0.047400173  0.047441508            9 
 2551000   0.84951335   -4.8531846    1446.1103  0.047239981   0.04743127            4 
 2552000    0.8421003   -4.8326719    1452.0649  0.047415911  0.047421091            4 
 2553000   0.83853649   -4.8587535    1453.1162  0.047431657  0.047410892            2 
 2554000   0.84028647   -4.8796935    1452.9117  0.047406412  0.047400682            3 
 2555000   0.83428638    -4.878148      1452.74  0.047382256  0.047390484            4 
 2556000   0.85695279   -4.8658429    1453.5042  0.047388636  0.047380333            4 
 2557000    0.8492713   -4.8802465    1445.1114  0.047096577  0.047370037            7 
 2558000   0.85661339   -4.8821324    1447.2298  0.047147179  0.047359714            7 
 2559000   0.84579895   -4.8890304       1452.6  0.047303635  0.047349532            5 
 2560000   0.84759986   -4.8720462    1452.7358  0.047289576   0.04733935            9 
 2561000   0.86991023   -4.8599999    1454.5866  0.047331334  0.047329155            6 
 2562000   0.85249332   -4.8897802    1452.0803   0.04723134  0.047318923            3 
 2563000   0.83896541   -4.8967977     1452.321  0.047220739  0.047308593           14 
 2564000   0.84276152   -4.8616173    1455.2847  0.047298646  0.047298393            4 
 2565000   0.84768975   -4.8551265    1457.1795  0.047341763  0.047288179            2 
 2566000   0.83848408   -4.8282844    1454.4341  0.047234156  0.047278215            3 
 2567000   0.85029353   -4.8605788     1457.705  0.047321937  0.047267964            6 
 2568000    0.8507137   -4.8863346    1457.6943  0.047303165  0.047257795            5 
 2569000   0.83404845   -4.8688764    1451.5797  0.047086404  0.047247622            3 
 2570000    0.8325163   -4.8780158    1458.6087  0.047296003  0.047237383            5 
 2571000   0.84816407   -4.8722282    1458.1718  0.047263444  0.047227067            3 
 2572000   0.84426532   -4.8830791    1455.6217  0.047162446  0.047216905            3 
 2573000   0.84249609   -4.8848262    1451.0727  0.046996785  0.047206682            6 
 2574000   0.83738011   -4.8842372    1457.4024  0.047183451  0.047196562            5 
 2575000    0.8279095   -4.8785511    1456.1722  0.047125312  0.047186461            5 
 2576000    0.8251347   -4.8855144    1454.2193  0.047043844  0.047176311            4 
 2577000   0.86550221   -4.8764733    1456.5258  0.047100174  0.047166049            5 
 2578000   0.83896003   -4.8861141    1457.4206  0.047110829  0.047155932            4 
 2579000   0.84017966   -4.8843108    1456.2101  0.047053447  0.047145799            4 
 2580000   0.82539616   -4.8834499    1453.9111  0.046960954  0.047135712            4 
 2581000   0.83341921   -4.8625378    1458.9201  0.047104484  0.047125621            5 
 2582000   0.83975845    -4.847498    1461.8291  0.047180127  0.047115625            3 
 2583000   0.82700631   -4.8787875    1459.3349  0.047081394  0.047105518            4 
 2584000   0.82207461    -4.878241     1459.238  0.047060049  0.047095501            5 
 2585000   0.83677466   -4.8562521    1459.3928  0.047046835  0.047085381            3 
 2586000   0.83967251   -4.8973196      1456.55  0.046937031  0.047075255            6 
 2587000   0.84084147   -4.8905053    1455.8602  0.046896671  0.047065117            3 
 2588000   0.82281696   -4.8832087     1462.453  0.047090835  0.047055047            8 
 2589000   0.83600154   -4.8934122    1462.6862  0.047080152  0.047045083           13 
 2590000   0.83351746   -4.8580166    1466.4276  0.047182356  0.047034967            6 
 2591000    0.8254109   -4.8697548     1461.296  0.046999099  0.047024841            9 
 2592000   0.83225394   -4.8827891    1462.5156  0.047020177  0.047014795            6 
 2593000   0.81958634    -4.888978    1457.8309  0.046851487  0.047004829            3 
 2594000   0.82325967   -4.8571039    1459.7308  0.046894462  0.046994781            4 
 2595000   0.84837946    -4.881767    1461.9418  0.046947392  0.046984751            8 
 2596000   0.84509487   -4.8656542    1465.7078  0.047050199  0.046974701            6 
 2597000    0.8306627   -4.8900711    1462.1804  0.046918893  0.046964649            8 
 2598000   0.84348922   -4.8899906    1463.2977  0.046936673  0.046954526            6 
 2599000    0.8238851   -4.8829497     1461.064  0.046846992  0.046944324            3 
 2600000   0.83991554    -4.897593    1463.7161  0.046913977  0.046934101            4 
 2601000   0.83455267   -4.8650644    1464.0688  0.046907242   0.04692395            6 
 2602000   0.83474995   -4.9004912    1465.2688  0.046927644  0.046913872            4 
 2603000   0.85912597   -4.8744841    1459.5024  0.046725009  0.046903658            4 
 2604000     0.822285   -4.8843874    1462.5979   0.04680613   0.04689356            5 
 2605000   0.82689894   -4.8915858    1463.3342  0.046811713  0.046883294            7 
 2606000   0.85439905   -4.8837353    1462.8696  0.046778894  0.046872964            5 
 2607000   0.84893368     -4.86748    1465.7268  0.046852282  0.046862707            5 
 2608000   0.82364628   -4.8653204    1462.7859  0.046740345  0.046852517            5 
 2609000   0.82589173   -4.8949341    1461.6415  0.046685878  0.046842347            7 
 2610000   0.84640275    -4.895473    1463.9766  0.046742549  0.046832143            4 
 2611000   0.83550475   -4.8983094     1462.746   0.04668537  0.046821885            8 
 2612000   0.82395399   -4.8618874    1468.2422  0.046842847  0.046811731            6 
 2613000   0.85239828    -4.879382    1465.6005  0.046740673  0.046801579            6 
 2614000   0.81848338       -4.893    1467.7445  0.046791141  0.046791361           10 
 2615000   0.81720768   -4.9031936    1467.2895  0.046758747  0.046781127            5 
 2616000   0.84126421   -4.8826146    1468.8628  0.046790993  0.046771022            3 
 2617000   0.82915957   -4.8875452    1469.4842  0.046792899  0.046760898            6 
 2618000   0.83771411   -4.8954265    1467.9431   0.04672597  0.046750765            4 
 2619000   0.83617038   -4.8622433    1467.0973  0.046681218  0.046740529            4 
 2620000   0.81323795   -4.8897511    1466.7793  0.046653285  0.046730398            3 
 2621000   0.84821475    -4.895687    1466.7472  0.046634466  0.046720135            7 
 2622000   0.82631695   -4.8796434    1470.4049  0.046732928  0.046709844           14 
 2623000    0.8224583   -4.9275739    1467.7985  0.046632307  0.046699672            3 
 2624000   0.83487289    -4.864842      1472.44   0.04676194  0.046689501            5 
 2625000   0.82488838   -4.8886831    1469.0558  0.046636693   0.04667933            3 
 2626000   0.83120526   -4.8772357    1473.5742  0.046762321  0.046669098            4 
 2627000   0.84044794   -4.9023672    1465.2238  0.046479628  0.046658723            6 
 2628000   0.83221024   -4.8909231     1474.067  0.046742357  0.046648382            5 
 2629000   0.81268203   -4.8803268    1469.6811  0.046585554   0.04663804            6 
 2630000    0.8431406   -4.8798048    1467.3259  0.046493217  0.046627728            5 
 2631000      0.84075    -4.889935    1468.7994  0.046522217  0.046617385            6 
 2632000   0.83647644   -4.9064284    1467.7593   0.04647161  0.046606936            5 
 2633000   0.85684906   -4.9042184    1464.9397  0.046364721  0.046596504            6 
 2634000   0.85873286   -4.8896938    1466.7986   0.04640593  0.046585956            9 
 2635000   0.82194849   -4.8899247    1464.5571  0.046317427   0.04657556            5 
 2636000   0.84319324   -4.8981999    1466.2297  0.046352734  0.046565194            6 
 2637000   0.82451641   -4.9043511    1468.3327  0.046401614  0.046554742            4 
 2638000   0.83104467   -4.8906866     1471.934   0.04649779  0.046544316            4 
 2639000   0.83506334    -4.876531    1471.0683  0.046452831  0.046533858            6 
 2640000   0.82232732   -4.8833969    1471.2079  0.046439642  0.046523452            3 
 2641000    0.8278814   -4.8834017    1473.0347  0.046479701  0.046513069            3 
 2642000   0.83526483   -4.8814175    1477.3906  0.046599501  0.046502836            6 
 2643000   0.84064441   -4.9246063    1468.1806   0.04629148  0.046492513            4 
 2644000   0.84930961   -4.8876946    1472.7602  0.046418313  0.046482242           10 
 2645000   0.82690162   -4.9084937    1466.0721  0.046190047  0.046471994           13 
 2646000   0.83199559   -4.8895502    1475.1076  0.046457157  0.046461729            5 
 2647000    0.8267652   -4.8869981    1475.8309  0.046462376  0.046451554            5 
 2648000   0.82288985   -4.9036127    1473.2556  0.046363785  0.046441373            6 
 2649000   0.82675215   -4.9240159    1473.3241  0.046348437  0.046431018           12 
 2650000   0.85290638   -4.9025148    1476.3976  0.046427598  0.046420664            7 
 2651000   0.81050512   -4.8945666    1477.2829  0.046437913  0.046410449            4 
 2652000   0.82590594   -4.9071257    1471.4103   0.04623587  0.046400111            5 
 2653000   0.82324327   -4.8960058    1475.8397  0.046357575  0.046389729            6 
 2654000   0.83291645   -4.9029382    1474.4704  0.046297112  0.046379541            9 
 2655000   0.82712594   -4.8885432    1476.9056  0.046356106  0.046369378            6 
 2656000    0.8314097   -4.8922225    1474.4715  0.046262284  0.046359189            5 
 2657000   0.82272759   -4.8872864     1475.807  0.046286758  0.046348881            4 
 2658000   0.81857444   -4.9017932    1474.1075   0.04621606  0.046338533            4 
 2659000   0.80869577   -4.8926007    1470.5255  0.046086419  0.046328121            3 
 2660000   0.83517338   -4.8938369    1473.5245  0.046163047  0.046317558            5 
 2661000   0.83725665   -4.9304376    1473.8775  0.046156756  0.046307125            5 
 2662000   0.82199459   -4.9278024    1473.3381   0.04612253  0.046296578            4 
 2663000   0.82046704   -4.9031189    1474.4639   0.04614044  0.046286277            4 
 2664000   0.82077554   -4.9126743    1475.2784  0.046148599  0.046275883            3 
 2665000   0.83483494   -4.9058836    1476.8915  0.046181724  0.046265466            3 
 2666000   0.82032583    -4.897989    1472.3159  0.046021378  0.046255092            6 
 2667000   0.82823087   -4.8912126     1476.032  0.046120235  0.046244651            3 
 2668000    0.8176973   -4.9199439    1474.3877   0.04605159  0.046234166            5 
 2669000    0.8258569   -4.9124585    1477.9898  0.046146801  0.046223706            3 
 2670000   0.82692587   -4.9004032    1478.1532  0.046134618   0.04621319            9 
 2671000   0.82274139   -4.9200436    1474.5345  0.046004445  0.046202681            5 
 2672000   0.80051332   -4.9032867    1479.5119  0.046142463  0.046192267            5 
 2673000   0.83188993   -4.9130874    1479.0637  0.046111225  0.046181874            5 
 2674000   0.81759664   -4.8997174     1476.195  0.046004582  0.046171558            4 
 2675000   0.82662196   -4.8820342    1480.2951  0.046115112  0.046161196            4 
 2676000   0.83166988   -4.9248014    1478.7963  0.046051206  0.046150887            3 
 2677000   0.82872656   -4.8949183    1477.5862  0.045996333  0.046140464            6 
 2678000   0.81357086    -4.915579    1475.6508  0.045918933  0.046130196            8 
 2679000   0.82202748   -4.8982532    1476.9785   0.04594309  0.046119844            4 
 2680000    0.8113192   -4.9425783    1478.2516  0.045965535  0.046109439            5 
 2681000   0.81423601   -4.8479262     1489.632  0.046302125  0.046099209            3 
 2682000    0.8242242   -4.9127953    1476.4668  0.045875801  0.046088936            6 
 2683000    0.8194701   -4.8991416    1481.6705  0.046020328  0.046078552            4 
 2684000   0.81256932   -4.8834011    1477.8928   0.04588589  0.046068215           10 
 2685000    0.8192243   -4.9014996    1481.7574  0.045988745  0.046057827            5 
 2686000   0.83040598   -4.9125978    1484.2006  0.046047426  0.046047418            4 
 2687000   0.82294981   -4.9025513     1478.818  0.045863353  0.046036936            6 
 2688000   0.81449433   -4.9462875    1476.3793  0.045770689  0.046026469            5 
 2689000    0.8380421   -4.9159861    1483.3203  0.045968769   0.04601595            6 
 2690000    0.8155044   -4.9102028    1481.3817  0.045891625  0.046005501            8 
 2691000   0.82516608   -4.9147573    1480.3985  0.045844126  0.045995154           11 
 2692000   0.81212046   -4.9276951    1483.6031  0.045926298  0.045984793            4 
 2693000   0.83836348   -4.9141657    1481.5531  0.045845806  0.045974467            5 
 2694000   0.82616371   -4.8912725    1484.1375  0.045908731   0.04596417            6 
 2695000   0.81603852   -4.9614876     1480.451  0.045777707  0.045953783            5 
 2696000   0.80968066   -4.9256514    1483.3169  0.045849311  0.045943359            7 
 2697000   0.81360777   -4.9149482    1486.1523   0.04591992    0.0459331            3 
 2698000   0.82580139   -4.8968186    1481.4328  0.045757128   0.04592289            3 
 2699000   0.81995608   -4.9253991     1484.302  0.045828763  0.045912615            9 
 2700000   0.81958756   -4.9126501    1483.3747   0.04578317  0.045902373            6 
 2701000    0.8237174     -4.91991    1489.4844  0.045954722  0.045892185            5 
 2702000   0.81017506   -4.9115226    1490.3382  0.045964047  0.045882049            9 
 2703000   0.83035372   -4.9097665    1490.2035  0.045942887  0.045872035            4 
 2704000   0.82479727   -4.9321538    1483.3635  0.045715098   0.04586191            9 
 2705000   0.81063642   -4.9164033    1485.3525  0.045759474  0.045851728            5 
 2706000   0.82353899   -4.9324024    1483.9306  0.045698775  0.045841458            3 
 2707000   0.81513703   -4.9363833     1488.306  0.045816587  0.045831287           13 
 2708000   0.81297592    -4.919873    1487.7911  0.045783824  0.045821078            4 
 2709000   0.82229637   -4.9186893    1489.8182   0.04582928  0.045810972            7 
 2710000   0.83334234   -4.9392758    1487.9063  0.045753576  0.045800746            4 
 2711000   0.83419674   -4.9114536    1487.4532  0.045722773  0.045790627            6 
 2712000   0.83558942   -4.9339451    1494.0129  0.045907475  0.045780485            3 
 2713000   0.81456382   -4.9285441    1486.9118  0.045672437  0.045770374            8 
 2714000   0.81863563   -4.8796746    1493.3464  0.045853181  0.045760314            6 
 2715000    0.8230269    -4.920721    1495.7164  0.045909038  0.045750269            5 
 2716000   0.82786003    -4.935929    1489.9868  0.045716335  0.045740167            7 
 2717000   0.79826276   -4.8995097    1494.1976  0.045828661  0.045730133            8 
 2718000   0.81040315   -4.9093479    1487.6092  0.045609798  0.045720217            9 
 2719000    0.8146839   -4.9315188    1492.1537  0.045732308  0.045710071           10 
 2720000   0.81972692   -4.9344886    1489.7057  0.045640493  0.045700022            4 
 2721000   0.80709532   -4.9384575    1492.3151  0.045703637  0.045690009            5 
 2722000   0.82631323   -4.9121448    1489.6544  0.045605389   0.04567996            6 
 2723000   0.81957171    -4.917197    1492.7934  0.045684706  0.045669849            6 
 2724000   0.81489161   -4.9177626    1493.1841  0.045679887  0.045659784            6 
 2725000   0.81804923   -4.9148676    1495.4754  0.045733192   0.04564985            9 
 2726000   0.81316549    -4.941045    1496.3809  0.045744097  0.045639885            4 
 2727000   0.81193233     -4.91981    1492.3789  0.045605026  0.045629882            6 
 2728000   0.82314524   -4.9356738    1492.5662  0.045594032  0.045619839            8 
 2729000   0.81681991   -4.9414692    1493.8401  0.045616224  0.045609708            8 
 2730000   0.83533264   -4.9181058     1496.825  0.045690628  0.045599688            6 
 2731000    0.8216142   -4.9259647    1492.7828  0.045550555  0.045589665            7 
 2732000   0.81155377   -4.9170273    1495.2019  0.045607671  0.045579664            5 
 2733000   0.79723762   -4.9232535    1493.9208  0.045551921  0.045569705            5 
 2734000    0.8285546    -4.961717    1489.2479  0.045392828  0.045559535            3 
 2735000    0.8038596   -4.8895243    1497.9135  0.045640267  0.045549408            6 
 2736000   0.82379904   -4.9357902    1495.2646  0.045542902  0.045539252            6 
 2737000    0.8179244   -4.9453449    1493.9036  0.045484825  0.045529079            8 
 2738000   0.81491612   -4.9229636    1495.2447  0.045509032   0.04551905            4 
 2739000   0.81252061      -4.9402     1497.594  0.045563891  0.045508967            4 
 2740000   0.81930084   -4.9502356     1495.947  0.045497172  0.045498821            5 
 2741000    0.8221681   -4.9450711    1497.0891  0.045515294  0.045488514            6 
 2742000   0.79701223   -4.9214733    1498.8411  0.045551943   0.04547841            6 
 2743000   0.80070217   -4.9301727    1497.5032  0.045494691  0.045468321            5 
 2744000   0.79353588   -4.9385233    1498.1835   0.04549877  0.045458172            5 
 2745000   0.81738452   -4.9464558    1499.0401  0.045508199  0.045448051            6 
 2746000   0.82713049   -4.9266084    1492.2833  0.045286578  0.045437866            4 
 2747000   0.80424665   -4.8960246    1495.4925  0.045367447  0.045427783            5 
 2748000   0.81868445   -4.9109146    1497.9925   0.04542675  0.045417706            9 
 2749000   0.80508754   -4.9281839    1497.8718  0.045406566  0.045407678            5 
 2750000   0.80741114   -4.9231178    1503.0401  0.045546671  0.045397612            4 
 2751000   0.81293167   -4.9250439     1500.587  0.045455804   0.04538756            4 
 2752000   0.79491552   -4.9103143    1497.1117   0.04533405  0.045377522            4 
 2753000   0.80241054   -4.9156592    1501.1541  0.045439946  0.045367405           11 
 2754000   0.82668241   -4.9376716    1501.1748  0.045424075  0.045357306            9 
 2755000   0.82634738   -4.9465043    1500.6249  0.045390954  0.045347212           11 
 2756000   0.82217852   -4.9339325    1497.1635  0.045269819  0.045337213            3 
 2757000   0.81953473   -4.9433851    1500.2846  0.045347738  0.045327126           13 
 2758000   0.82581594   -4.9400021    1501.4908  0.045367742  0.045317037           13 
 2759000   0.81625205   -4.9406733    1500.9518  0.045335018   0.04530706            7 
 2760000   0.80691481   -4.9443981    1501.6828  0.045340663  0.045297043            3 
 2761000   0.80641136   -4.9373513    1502.6233   0.04535263  0.045287122            5 
 2762000   0.81659863   -4.9317968    1503.1806  0.045353022  0.045277096            6 
 2763000   0.80680918   -4.9228066    1500.4764  0.045255048  0.045267158            3 
 2764000   0.81121393    -4.944983    1504.4731  0.045359175  0.045257119            4 
 2765000   0.81880361   -4.9431551    1494.9522  0.045055822  0.045247042            4 
 2766000   0.82107283   -4.9713503    1501.4662  0.045235786  0.045237038           13 
 2767000   0.82196117   -4.9092068    1504.8491  0.045321318  0.045227008            6 
 2768000   0.80660567   -4.9346771    1503.6346  0.045268382  0.045217008            5 
 2769000   0.82088856   -4.9729354    1499.2958  0.045121459  0.045206952            5 
 2770000   0.83494419   -4.9585745    1502.0463  0.045187915  0.045196887            5 
 2771000   0.80672359   -4.9380856    1501.6868  0.045160797  0.045186876            4 
 2772000   0.81432787    -4.941758    1502.1782  0.045159278  0.045176821            8 
 2773000   0.80684644   -4.9345711    1503.4633  0.045181612  0.045166705            7 
 2774000   0.81450458   -4.9491657     1505.598  0.045229451  0.045156755           13 
 2775000   0.81939956   -4.9568162    1501.8241  0.045099822  0.045146788            5 
 2776000   0.79968781   -4.9460531    1507.1836  0.045244464  0.045136762            6 
 2777000    0.8116578    -4.927703    1504.5974  0.045150563  0.045126827            6 
 2778000   0.80370196   -4.9681713    1498.3353  0.044946464  0.045116863            4 
 2779000   0.82323867   -4.9487506    1506.2828   0.04516861  0.045106829            8 
 2780000    0.8077486   -4.9548071     1508.215  0.045210281  0.045096932           14 
 2781000   0.80214978   -4.9584169    1507.1378  0.045161748  0.045086968            7 
 2782000   0.80481465   -4.9520623    1502.5727  0.045008767  0.045076921           10 
 2783000   0.81362777   -4.9435699    1507.8249  0.045149865  0.045066928            7 
 2784000   0.79490366   -4.9529104    1506.7456  0.045101342  0.045056961            3 
 2785000   0.79112138      -4.9373    1506.5535    0.0450794  0.045046933            5 
 2786000   0.81118588   -4.9499756    1504.3582  0.044997554  0.045037002            6 
 2787000   0.79292432     -4.93905    1503.6744  0.044960961  0.045026956            3 
 2788000   0.81142599   -4.9333665    1506.5921  0.045032044  0.045017025            4 
 2789000   0.79504189   -4.9482124    1509.3529  0.045098389  0.045007067            7 
 2790000    0.7954423   -4.9570319    1509.0314  0.045072621  0.044997096            6 
 2791000   0.80275025   -4.9385407    1513.5271  0.045190706  0.044987144            6 
 2792000   0.80981177   -4.9228053    1512.5633  0.045145751  0.044977254            4 
 2793000   0.79585483   -4.9461599    1512.1405  0.045116975   0.04496737            5 
 2794000   0.80773562   -4.9478263    1508.7764  0.045000488  0.044957488            5 
 2795000   0.80020897   -4.9609426    1509.6823  0.045011398  0.044947569            5 
 2796000   0.79036147    -4.943954    1509.8703  0.045000903   0.04493762            7 
 2797000   0.80019077   -4.9396222    1515.3296  0.045147469  0.044927768            4 
 2798000   0.79595756   -4.9625043     1512.679  0.045052389  0.044917727            7 
 2799000   0.81125341   -4.9501368    1514.1772  0.045080898  0.044907842            2 
 2800000   0.81676051   -4.9458814    1512.1313  0.045003908  0.044897998            5 
 2801000   0.78713823   -4.9410564    1512.2683  0.044991916  0.044888076            4 
 2802000   0.82000384    -4.935167    1516.3349  0.045096803  0.044878175            2 
 2803000   0.78401709   -4.9407656    1509.5503  0.044879009  0.044868203            7 
 2804000   0.79590748    -4.923632    1511.4218  0.044918622  0.044858267           12 
 2805000   0.80148268   -4.9381831    1516.1762  0.045043855  0.044848354            4 
 2806000   0.79338328    -4.962313    1513.5386  0.044949471  0.044838381            5 
 2807000   0.80767915   -4.9549836    1507.6483   0.04475859  0.044828313            6 
 2808000    0.7912796    -4.966785    1511.0825  0.044844566  0.044818225           10 
 2809000   0.80764714   -4.9668928    1507.7085  0.044728507  0.044808059           12 
 2810000   0.79080405   -4.9598489    1510.2545  0.044788093  0.044797967            5 
 2811000   0.79963779   -4.9555033    1514.4046   0.04489519  0.044787923            4 
 2812000   0.78140815   -4.9434017    1508.2923  0.044698087  0.044777862           10 
 2813000   0.80765552   -4.9256442    1509.6298  0.044721822  0.044767717            5 
 2814000   0.80182567   -4.9682356    1507.3871  0.044639513    0.0447577            8 
 2815000   0.80532415   -4.9358451    1514.7278  0.044840964   0.04474772            3 
 2816000   0.81505657   -4.9652534    1512.4923  0.044758887  0.044737768            4 
 2817000   0.79941573   -4.9161282    1517.0461  0.044877709  0.044727786            5 
 2818000   0.80567662   -4.9698353    1512.4996  0.044727335  0.044717776            6 
 2819000   0.80370511   -4.9677136    1514.3792  0.044767034  0.044707734            4 
 2820000   0.82093141   -4.9434111    1515.1149  0.044772898  0.044697787            7 
 2821000   0.80600816   -4.9057016    1515.6623  0.044773197   0.04468777            5 
 2822000   0.79350552   -4.9742803    1511.7175  0.044640841  0.044677802            7 
 2823000   0.78142975   -4.9584047    1515.9207  0.044749106  0.044667664            2 
 2824000   0.80508664   -4.9576114    1514.8266  0.044700973  0.044657678            5 
 2825000   0.80307847   -4.9760211    1513.6803  0.044651336  0.044647589            8 
 2826000   0.80138232   -4.9362259    1517.7335  0.044755058  0.044637605            5 
 2827000   0.80616826   -4.9593742    1514.4204  0.044641564  0.044627643            7 
 2828000   0.82672728   -4.9625762    1518.2974  0.044740023   0.04461763            4 
 2829000   0.81106079   -4.9759342    1512.8809  0.044564654  0.044607582            6 
 2830000   0.78375823   -4.9879547    1516.7246  0.044662091  0.044597471            5 
 2831000    0.8089931   -4.9344701    1515.0941   0.04459832  0.044587422            4 
 2832000    0.7899042    -4.963401     1513.919  0.044547994  0.044577426            7 
 2833000   0.79673438   -4.9690223    1516.0066  0.044593676  0.044567303            5 
 2834000   0.80414004   -4.9616973    1514.3487  0.044529189  0.044557115            5 
 2835000   0.78965441   -4.9806348    1513.7185  0.044494958  0.044546935            3 
 2836000   0.79471318   -4.9824435    1517.9654  0.044604059  0.044536796            8 
 2837000   0.79329045   -4.9682641     1514.482  0.044486017  0.044526622           10 
 2838000    0.7827548   -4.9621575    1520.2535  0.044639813  0.044516488           10 
 2839000   0.79608046   -4.9692101     1518.939  0.044585504  0.044506444            8 
 2840000   0.78927254   -4.9300609    1517.3519  0.044523236  0.044496413            5 
 2841000   0.79088314   -4.9446564    1516.6344   0.04448652  0.044486365            8 
 2842000    0.7868108    -4.968628    1521.7992  0.044622309  0.044476451            8 
 2843000   0.81153625   -4.9405301    1517.6192   0.04448409  0.044466382           10 
 2844000    0.7900184   -4.9532705    1523.1472  0.044630425  0.044456412            6 
 2845000   0.81032894   -4.9633696    1515.8441  0.044400823  0.044446389            2 
 2846000   0.80481766    -4.944406    1518.5979  0.044465855  0.044436401           10 
 2847000   0.77107936   -4.9310862    1520.9612  0.044519412  0.044426462            4 
 2848000   0.77070671   -4.9654373    1521.6823  0.044524881  0.044416507            5 
 2849000   0.78810116   -4.9313158    1515.4082  0.044325736  0.044406452            9 
 2850000   0.79508278   -4.9612368    1520.1169  0.044447862   0.04439652            6 
 2851000   0.77453288   -4.9771005    1527.9752  0.044661966  0.044386534           18 
 2852000   0.78740431   -4.9797837    1521.5307  0.044458004  0.044376483            8 
 2853000   0.81510142   -4.9698949    1516.6035  0.044298503  0.044366287            8 
 2854000   0.79077588   -4.9692909    1517.6462  0.044313425  0.044356087            8 
 2855000   0.80676931   -4.9693058    1519.8287   0.04436161   0.04434601            9 
 2856000    0.7917794   -4.9731742    1519.9177  0.044348673  0.044335947            6 
 2857000   0.80107976   -4.9709707    1521.7279   0.04438595  0.044325832            4 
 2858000   0.78442952   -4.9715814    1519.5555  0.044307078  0.044315818            4 
 2859000   0.79434247   -4.9738381    1521.0954  0.044336462  0.044305724            5 
 2860000   0.76673964   -4.9875126    1521.4013  0.044329874  0.044295568            4 
 2861000   0.78249284   -4.9445579     1522.311  0.044340876  0.044285513            7 
 2862000   0.77397357   -4.9616761    1524.0993  0.044377454  0.044275392            4 
 2863000   0.80786402   -4.9623793    1518.1939  0.044190066  0.044265364            4 
 2864000   0.78337795    -4.966926     1521.311  0.044265335  0.044255351            6 
 2865000   0.78559303   -4.9790965    1518.6758  0.044173233  0.044245273            6 
 2866000   0.79697575   -4.9559476    1520.6342  0.044214765  0.044235156            5 
 2867000   0.79258323   -4.9699075    1523.5103   0.04428294  0.044225044            9 
 2868000   0.79752173   -4.9789739    1518.8909  0.044133278  0.044214944            6 
 2869000   0.78275921   -4.9885878    1526.3583  0.044334793  0.044204746            5 
 2870000   0.79872775   -4.9535474     1523.646  0.044240593  0.044194699            4 
 2871000   0.77976987   -4.9559385    1525.4546  0.044277678  0.044184734            6 
 2872000   0.79386316   -4.9594203     1521.163  0.044137738  0.044174701            9 
 2873000   0.80746218   -4.9739116    1522.3893  0.044157946  0.044164715            5 
 2874000   0.77711495   -4.9645426    1524.6912  0.044209324  0.044154647           10 
 2875000   0.77959637   -4.9694989    1522.7877  0.044138775  0.044144528           11 
 2876000    0.8031162   -4.9468228    1525.7467  0.044209165  0.044134462            8 
 2877000   0.80580633   -4.9677607    1519.6677  0.044017719  0.044124339            3 
 2878000   0.80419828   -4.9794129    1524.4295  0.044140303  0.044114196            6 
 2879000   0.78224135   -5.0157241    1521.7941  0.044048689  0.044104066            5 
 2880000   0.78317369   -4.9434954    1525.2032  0.044132038  0.044093887            5 
 2881000   0.78617366   -4.9703393    1524.2545  0.044089278  0.044083813            5 
 2882000   0.79294411   -4.9892357    1523.1778  0.044042847  0.044073702            7 
 2883000   0.77658061   -4.9788438    1528.9608  0.044194728  0.044063652            4 
 2884000   0.79167247   -4.9764715    1524.9487  0.044063474  0.044053503           16 
 2885000   0.78584211    -4.993036    1517.7955  0.043841581  0.044043402            3 
 2886000   0.79187606   -4.9791902    1526.4972  0.044077652  0.044033312            9 
 2887000   0.80015699   -4.9745599    1522.3682  0.043943199   0.04402317            7 
 2888000   0.78822754   -4.9688426     1524.257  0.043982486  0.044013068            5 
 2889000   0.77612444   -4.9623624    1522.9132  0.043928499  0.044002945            6 
 2890000   0.78929968   -4.9943719    1523.5465  0.043931561  0.043992814           12 
 2891000   0.79438166   -4.9943085    1528.1864  0.044050109  0.043982699            9 
 2892000   0.79095485    -5.015001    1525.2547  0.043950399  0.043972649            6 
 2893000   0.77518938   -4.9598883    1526.7754  0.043979013  0.043962507            6 
 2894000   0.79951905   -4.9622437    1525.1562  0.043917192  0.043952497            5 
 2895000   0.77886442   -4.9831297    1525.6662  0.043916701  0.043942416            9 
 2896000   0.80623615   -4.9877468    1526.0086  0.043911391  0.043932405           12 
 2897000   0.80012791   -5.0079399    1527.8077  0.043947984  0.043922344            6 
 2898000   0.78550214   -4.9793209    1526.5189   0.04389576  0.043912302            4 
 2899000   0.78172628   -4.9944933    1523.2831  0.043787603  0.043902242            4 
 2900000   0.78852482   -4.9851048    1532.4911    0.0440371  0.043892177            6 
 2901000   0.78876199   -4.9996286    1527.1657  0.043868946  0.043882215            5 
 2902000   0.80022339    -4.985659    1524.5834  0.043779675  0.043872177            5 
 2903000   0.78944148   -4.9771216    1528.9197  0.043889071  0.043862162            7 
 2904000   0.79429271   -4.9701247    1530.5419  0.043920509  0.043852232            4 
 2905000   0.80076001   -5.0099775    1526.2656  0.043782719  0.043842259            8 
 2906000   0.78962174   -5.0089128    1526.1209  0.043763503  0.043832139           11 
 2907000   0.80836673   -4.9675374    1530.3305  0.043869124  0.043822154            5 
 2908000   0.77039161   -4.9712359    1533.5546  0.043946429  0.043812327            6 
 2909000   0.79066755   -4.9765896    1532.1391  0.043890773  0.043802348            7 
 2910000   0.77970321   -4.9685848    1527.9239  0.043754979   0.04379237            5 
 2911000   0.77692149   -4.9947947    1533.5013  0.043899615  0.043782352            4 
 2912000   0.78119662   -4.9922767    1528.0129  0.043727475  0.043772312            4 
 2913000   0.79698489   -4.9950784    1533.3026  0.043863788  0.043762377           11 
 2914000   0.78697451   -4.9848278    1535.6446  0.043915711  0.043752443            6 
 2915000   0.77979179   -5.0234802    1531.0999  0.043770725   0.04374252            5 
 2916000   0.78528987   -5.0271611     1527.863  0.043663209  0.043732566            6 
 2917000   0.78960858   -4.9844513    1533.7533  0.043816515  0.043722595            9 
 2918000   0.78931705   -4.9807761     1531.486  0.043736748  0.043712709            6 
 2919000   0.77285096   -4.9725173    1530.2493  0.043686458  0.043702755            6 
 2920000   0.80384515   -4.9781546    1530.8564  0.043688823  0.043692896            4 
 2921000   0.77282034    -5.004327    1532.3637  0.043716868  0.043682906           22 
 2922000   0.77997644    -4.973512    1537.0013  0.043834168  0.043672893            4 
 2923000   0.79321174   -4.9670757    1540.3851  0.043915642  0.043663085            3 
 2924000    0.7776771   -4.9765067    1538.6891   0.04385229  0.043653247            6 
 2925000   0.77299647    -4.974319    1534.3725  0.043714316  0.043643343            9 
 2926000   0.78174176   -4.9977542    1531.6066  0.043620604  0.043633451            3 
 2927000   0.79277517   -4.9748825    1538.4521  0.043800596  0.043623572            5 
 2928000   0.78681336   -4.9731353    1540.1488  0.043833925  0.043613668            5 
 2929000   0.77685337   -4.9745651    1536.0706  0.043702931  0.043603714            5 
 2930000   0.77047731   -4.9782594    1536.8363  0.043709793  0.043593789            6 
 2931000    0.7773998   -5.0070186    1536.9594  0.043698378  0.043583832            7 
 2932000   0.77329978   -4.9984085    1536.0605  0.043657928  0.043573858            6 
 2933000   0.78257573   -4.9860066    1537.5821  0.043686274  0.043563935            6 
 2934000   0.76983556   -4.9642968    1539.5101  0.043726144  0.043554093            4 
 2935000   0.76703329   -5.0060636    1538.2057  0.043674212  0.043544299            6 
 2936000   0.78142985   -4.9749615    1540.4557  0.043723199  0.043534444            5 
 2937000   0.78563093   -5.0057104    1538.9407  0.043665325   0.04352469           10 
 2938000   0.78118024   -4.9837727    1533.9152   0.04350792  0.043514812            6 
 2939000   0.81824726   -5.0273761    1537.4573  0.043593549  0.043505043           14 
 2940000   0.77905586   -4.9733564    1544.3977  0.043775446   0.04349517            5 
 2941000   0.77123937   -4.9921704    1537.3456  0.043560739  0.043485365            9 
 2942000   0.77926068   -4.9927177     1536.887  0.043532943   0.04347548           12 
 2943000   0.77623034   -5.0046457    1538.0335  0.043550616  0.043465646            7 
 2944000   0.79112152   -4.9924122    1543.1457  0.043680528  0.043455789            3 
 2945000   0.76748666   -4.9941212    1537.5896  0.043508478   0.04344587            5 
 2946000   0.78886031   -4.9996411    1538.6706  0.043524286  0.043436124            4 
 2947000   0.77956974   -4.9739911    1539.1714   0.04352368  0.043426232            5 
 2948000   0.77350184   -5.0085912    1538.1893  0.043481153  0.043416301            7 
 2949000   0.75542556   -4.9692177    1544.7752  0.043652516  0.043406544            7 
 2950000   0.79938149   -4.9829541    1542.5761  0.043575596  0.043396731            5 
 2951000   0.79115043    -5.008167    1537.0676  0.043405276  0.043386714            5 
 2952000   0.78992015   -4.9892744     1540.776  0.043495258  0.043376825            2 
 2953000    0.7837356   -4.9784264    1537.0167  0.043374441  0.043366844            5 
 2954000   0.78315993   -4.9958616    1542.6937  0.043519909  0.043356963           10 
 2955000   0.77440082   -5.0090108    1541.3777  0.043468067  0.043347096            7 
 2956000   0.77895927   -4.9984698    1542.0742  0.043472999   0.04333715            6 
 2957000    0.7849199   -5.0177747    1538.5294  0.043358398  0.043327156            7 
 2958000   0.77635767   -5.0191849    1538.9548  0.043355723  0.043317211            8 
 2959000   0.76108342   -5.0278384    1541.8947  0.043423867   0.04330727            3 
 2960000    0.7673423   -5.0101073    1539.5739  0.043343859  0.043297373            6 
 2961000   0.76911048   -5.0045193    1543.5231  0.043440366   0.04328749            5 
 2962000   0.76749838   -5.0106345    1545.7409  0.043488095  0.043277661            6 
 2963000   0.76851516   -4.9732752    1543.0399  0.043397454  0.043267748            8 
 2964000   0.77432043   -5.0384964     1542.753  0.043374748  0.043257922            5 
 2965000   0.78938829   -5.0083914      1546.48  0.043464868  0.043248001            4 
 2966000   0.79290826      -5.0134    1541.5119   0.04331063  0.043238068            4 
 2967000   0.79061318   -4.9798134    1547.4889  0.043463906  0.043228157            8 
 2968000   0.77703976   -5.0431746    1541.8369   0.04329057  0.043218267            5 
 2969000   0.78020289   -5.0059343    1544.5163  0.043351192  0.043208362            7 
 2970000   0.78866808   -5.0367828    1537.4393  0.043138028  0.043198573            9 
 2971000   0.76343484   -4.9826331    1545.6995  0.043355198  0.043188634            4 
 2972000   0.76751888   -4.9775625    1545.6298  0.043338656  0.043178792            3 
 2973000   0.78073473   -5.0027125    1541.8699  0.043218688  0.043168923            6 
 2974000   0.75740229   -5.0248268    1543.0466  0.043237126  0.043158985            3 
 2975000    0.7963124    -5.004265     1543.831  0.043244566  0.043149048            7 
 2976000   0.77567646    -5.026324    1542.4435  0.043191183  0.043139127            3 
 2977000   0.78132223   -5.0150274    1541.4218  0.043148075  0.043129203            9 
 2978000   0.78041038   -4.9993816    1549.6259  0.043363161  0.043119306            6 
 2979000   0.77977607   -5.0002348    1541.4148   0.04311891  0.043109498            7 
 2980000    0.7792296   -5.0106678    1544.2908  0.043184866  0.043099596            7 
 2981000    0.7830163   -5.0226412    1546.2726  0.043225781  0.043089713            6 
 2982000   0.77988045   -5.0242484    1543.6795   0.04313882  0.043079725            3 
 2983000    0.7849465   -5.0308726    1543.2604  0.043112649  0.043069869            5 
 2984000   0.76585838   -5.0164433    1544.8491  0.043142567  0.043059961            3 
 2985000   0.77102207    -4.969096    1551.8818   0.04332445  0.043050098            6 
 2986000   0.78568396   -5.0336501    1546.0955  0.043148456  0.043040219            5 
 2987000   0.76681313    -5.004826    1548.0997  0.043189926  0.043030318            7 
 2988000   0.77858058    -5.015144    1552.0566  0.043285826  0.043020486            5 
 2989000   0.76646543   -5.0409902    1542.7785  0.043012672  0.043010603            4 
 2990000   0.77936366   -5.0190451    1543.0056  0.043004615  0.043000644           11 
 2991000   0.77111746   -5.0277619    1545.5977  0.043062456  0.042990739           11 
 2992000   0.78390232   -4.9790377    1550.6964  0.043190074  0.042980914            5 
 2993000   0.78402332   -4.9939354    1547.1005  0.043075524  0.042971206            5 
 2994000   0.76920695   -5.0147596    1550.9322  0.043167784  0.042961496            5 
 2995000   0.77285867   -5.0323581    1548.1722  0.043076578  0.042951695            3 
 2996000   0.77598408   -5.0271369    1544.5428  0.042961247  0.042941888           11 
 2997000    0.7759212   -4.9842727    1553.1255  0.043185559  0.042932228            8 
 2998000    0.7694475   -5.0224706    1550.8301  0.043107353  0.042922594            6 
 2999000   0.77123803   -5.0050353    1553.9212   0.04317887  0.042912943            7 
 3000000   0.76154389   -5.0270771    1546.4137  0.042955937  0.042903182            9 
 3001000   0.76427726   -5.0085228    1557.3194  0.043244456  0.042893437            7 
 3002000    0.7735319   -5.0241008    1547.7929  0.042965603  0.042883806            8 
 3003000   0.76612481   -4.9952681    1557.2693  0.043214267  0.042874252            6 
 3004000   0.77813607   -5.0257303    1554.5216  0.043123658  0.042864669           10 
 3005000   0.77006332   -4.9906314    1557.7716  0.043199434  0.042855044           10 
 3006000   0.76867645   -5.0342347    1555.7222  0.043128249  0.042845457            3 
 3007000    0.7564953   -5.0229813    1553.6953  0.043057733  0.042835877           15 
 3008000   0.76236773   -5.0004289    1558.0466  0.043163968  0.042826249            5 
 3009000   0.76223021   -4.9960067    1552.1116  0.042985256    0.0428166            7 
 3010000   0.79747711   -5.0120134    1554.7001  0.043042638  0.042806915            8 
 3011000   0.77381465   -5.0092057    1554.5583  0.043024419  0.042797244            7 
 3012000    0.7569084   -5.0182963    1553.7656  0.042988202  0.042787595            4 
 3013000   0.76509881   -5.0083222    1552.4516  0.042937593  0.042777929            9 
 3014000   0.78447765    -5.004742     1556.955  0.043047861  0.042768314            5 
 3015000   0.76680187   -5.0132684    1551.8123  0.042891439  0.042758706            3 
 3016000   0.76577476   -5.0167758    1554.1243  0.042941101  0.042749048           19 
 3017000   0.76618097   -5.0136496    1556.8732  0.043002795  0.042739472            6 
 3018000   0.76929039   -5.0241402    1561.0402  0.043103606  0.042729936            4 
 3019000     0.765248   -5.0266133    1557.1811  0.042982807  0.042720335           11 
 3020000   0.76606854   -5.0227624    1553.0524  0.042854646  0.042710678            5 
 3021000   0.77150618   -5.0361555    1555.1454  0.042898195  0.042701027            8 
 3022000   0.77463905   -4.9947377    1564.3953  0.043139073  0.042691427            7 
 3023000   0.76833533   -5.0053707    1556.1221  0.042896739  0.042681794            3 
 3024000   0.77592994   -5.0495051    1555.6998  0.042870916  0.042672073            6 
 3025000   0.76340856   -5.0359513    1559.7006  0.042966958   0.04266243            8 
 3026000   0.76127565    -5.044018    1554.5534  0.042811009   0.04265279            3 
 3027000   0.76857773   -5.0108333    1557.4484  0.042876565  0.042643187            5 
 3028000   0.75232981   -4.9964603    1559.3923  0.042915905  0.042633588            7 
 3029000   0.75047931   -5.0375106    1558.2627  0.042870659  0.042623973            9 
 3030000   0.76565766   -5.0170354    1558.2768  0.042856896  0.042614344            5 
 3031000   0.78304533   -5.0223341    1562.1137  0.042948248  0.042604621            5 
 3032000   0.76393135    -5.007206    1560.7665  0.042897056  0.042595055            7 
 3033000   0.77630232   -5.0111701     1558.547  0.042821931  0.042585384            3 
 3034000   0.77729676   -5.0264303    1558.2302  0.042799115  0.042575788           18 
 3035000   0.76241779   -5.0021743    1561.7012  0.042880318  0.042566236            9 
 3036000   0.76712285   -5.0331813    1559.4398  0.042804122  0.042556565            3 
 3037000   0.76736865   -4.9971276    1555.3508   0.04267783  0.042546985            7 
 3038000   0.77895248    -5.045654    1557.4356  0.042720969  0.042537301            7 
 3039000    0.7671637   -5.0140012    1557.7178  0.042714648  0.042527615            5 
 3040000   0.77795883   -5.0478517    1554.9911  0.042625851  0.042517788            6 
 3041000   0.77648816   -5.0341319    1554.4258  0.042596344  0.042508072            9 
 3042000   0.74975583   -5.0349813    1554.1736  0.042575433   0.04249823           11 
 3043000   0.75636303   -5.0247494     1557.742  0.042659162  0.042488496            4 
 3044000   0.76381984   -5.0141607    1560.2634  0.042714174   0.04247872            8 
 3045000   0.77627203   -5.0248946    1559.0609  0.042667238  0.042468953            8 
 3046000   0.77226051   -5.0382541    1557.9501  0.042622841  0.042459165            3 
 3047000   0.75139111   -5.0140189    1559.3758  0.042647845  0.042449398            5 
 3048000   0.77521304   -4.9910681    1559.8588  0.042647059  0.042439693            4 
 3049000   0.74913724   -5.0364134    1557.1051  0.042557807  0.042429975            7 
 3050000   0.76624252   -5.0215734    1557.0641  0.042542736  0.042420124           10 
 3051000   0.75845819   -5.0247826    1557.4902  0.042540429  0.042410287            4 
 3052000   0.76722854   -5.0260936    1557.9495  0.042539031  0.042400508            3 
 3053000    0.7765817   -5.0262052     1557.973  0.042525739   0.04239075            5 
 3054000   0.76700036    -5.041741    1559.1655  0.042544355  0.042381022            9 
 3055000   0.75696837    -5.034443    1562.0241  0.042608404   0.04237123            7 
 3056000   0.76902264   -5.0354482    1555.6627  0.042420994  0.042361366           10 
 3057000    0.7523407   -5.0527891     1561.262  0.042559755  0.042351522           19 
 3058000   0.76392534   -5.0020029    1560.9303  0.042536797  0.042341732            7 
 3059000   0.76844595   -5.0523886    1560.2774  0.042505105  0.042331959            6 
 3060000   0.76499542   -5.0363525    1564.3242  0.042601421  0.042322187           12 
 3061000   0.75601436   -5.0244268    1561.7396   0.04251714  0.042312465            8 
 3062000   0.76452313   -5.0323294    1566.4107   0.04263038  0.042302724            4 
 3063000   0.74495573    -5.023021    1561.0178   0.04246974  0.042293049            8 
 3064000   0.74578113   -5.0482568    1561.7765  0.042476516  0.042283286            7 
 3065000   0.73932193   -5.0072486    1560.1032  0.042417162  0.042273538            7 
 3066000   0.76354083   -5.0477528    1566.3762  0.042573825  0.042263851            7 
 3067000   0.76556302   -5.0290275    1560.4678  0.042399408  0.042254076            8 
 3068000   0.77901495   -5.0535068    1556.5852  0.042280127  0.042244223            7 
 3069000    0.7668075   -5.0119685    1562.9327  0.042438708   0.04223443            6 
 3070000   0.75256563   -5.0340933    1565.3466  0.042490407  0.042224805            5 
 3071000   0.75723531   -5.0480158    1557.9032   0.04227459  0.042215071           12 
 3072000   0.73886571   -5.0255148    1561.6807  0.042363301  0.042205224            6 
 3073000   0.75703063   -5.0526001    1560.1942  0.042309204  0.042195448           10 
 3074000   0.74928815   -5.0286018    1562.5691  0.042359822  0.042185655           10 
 3075000   0.74038536   -5.0523801    1568.2553  0.042500144  0.042175859            4 
 3076000   0.76800845   -5.0572119    1560.3981  0.042273465  0.042166102            4 
 3077000   0.76469624   -5.0673442    1562.7374  0.042323081  0.042156347            5 
 3078000   0.76008557   -5.0416429    1557.6839  0.042172512  0.042146599            3 
 3079000   0.74000025   -5.0131735    1561.9067  0.042273105  0.042136864            9 
 3080000   0.77237204   -5.0481675    1562.8477   0.04228484  0.042127003           11 
 3081000   0.74814189   -5.0364356    1558.0466  0.042141257  0.042117165            5 
 3082000   0.75364333   -5.0470039    1560.9296  0.042205538  0.042107227            6 
 3083000   0.74364334   -5.0418454    1561.2515  0.042200549  0.042097385            7 
 3084000   0.77033027   -5.0371242    1564.5566  0.042276174  0.042087574            4 
 3085000     0.756011   -5.0415635     1560.891  0.042163451  0.042077737           11 
 3086000   0.76549669   -5.0359885    1557.7935  0.042066146  0.042067884            8 
 3087000   0.75807551   -5.0408154    1559.5998  0.042101279  0.042058097            6 
 3088000   0.75472908   -5.0424535    1561.8728  0.042148985   0.04204831            8 
 3089000    0.7538152   -5.0538929     1561.451  0.042123962  0.042038436           10 
 3090000   0.76200868   -5.0273667    1562.4903  0.042138357  0.042028622            5 
 3091000   0.75424344    -5.028965    1566.2578  0.042226297  0.042018812            7 
 3092000   0.74701724   -5.0326434    1562.3589  0.042107561  0.042009089            8 
 3093000   0.76587543   -5.0488305     1566.146  0.042195979  0.041999253            9 
 3094000   0.74633316   -5.0314824    1565.0114  0.042151783   0.04198945            5 
 3095000   0.75593771    -5.036942    1560.8019  0.042024821   0.04197964            5 
 3096000   0.76535244   -5.0289568    1563.5544  0.042085336  0.041969827            6 
 3097000   0.74874852   -5.0574202    1564.3415  0.042092926   0.04195991            3 
 3098000   0.76217916   -5.0480001     1560.971  0.041988675  0.041950101            4 
 3099000   0.75811551   -5.0355431    1564.1581  0.042060828    0.0419402            6 
 3100000   0.76189337   -5.0472661    1567.2556  0.042130527  0.041930417            5 
 3101000   0.73797049   -5.0610906     1564.465  0.042041949  0.041920571           10 
 3102000   0.75857851   -5.0708791    1567.3317  0.042105407  0.041910781           12 
 3103000   0.74896528   -5.0683985    1560.1608  0.041899258  0.041900924            9 
 3104000   0.75754618   -5.0765913    1565.5563  0.042030614  0.041891107           12 
 3105000   0.76789801     -5.05249    1563.6979  0.041967201  0.041881295            3 
 3106000   0.74967598    -5.029213    1564.7492  0.041981896  0.041871478            3 
 3107000   0.76408355   -5.0659234     1567.613  0.042045194   0.04186172            8 
 3108000   0.75575749   -5.0507146    1567.8886  0.042039054  0.041851993            9 
 3109000   0.76154639   -5.0274147    1567.4565  0.042013952  0.041842192            6 
 3110000   0.75372735   -5.0552147    1563.7279  0.041900534  0.041832382            8 
 3111000   0.77419503   -5.0366411    1570.5084  0.042068693  0.041822639           13 
 3112000   0.76096094   -5.0498299     1564.245  0.041887452  0.041812849            6 
 3113000   0.77174813   -5.0448712    1567.0168  0.041948196  0.041802996            7 
 3114000   0.73905535   -5.0456144    1567.5084  0.041947882  0.041793249            6 
 3115000   0.75834478   -5.0602149    1567.3453  0.041930051  0.041783545            7 
 3116000    0.7426635    -5.062857    1571.9464  0.042039646   0.04177382           11 
 3117000   0.74122659   -5.0412197    1567.9074  0.041918175  0.041764122            6 
 3118000    0.7542481   -5.0743574    1569.2244   0.04193993  0.041754351            5 
 3119000   0.76225622   -5.0777093    1570.4004  0.041957902  0.041744729            3 
 3120000   0.74150906   -5.0244588    1571.9418  0.041985625  0.041735028            6 
 3121000   0.74204709   -5.0595341    1572.2884  0.041981427  0.041725302           10 
 3122000   0.73759072   -5.0422809    1571.4253  0.041944942  0.041715488           16 
 3123000   0.76076002   -5.0541888    1571.9898  0.041946574  0.041705755            8 
 3124000   0.73660496   -5.0741856     1573.118  0.041963243  0.041696083           10 
 3125000   0.74822549   -5.0516605    1566.3458  0.041769221  0.041686381            3 
 3126000   0.76866351   -5.0517634    1573.8809  0.041956732  0.041676695            4 
 3127000   0.74081338   -5.0233726    1572.3284  0.041901941  0.041667068            9 
 3128000   0.75336628   -5.0505637    1571.5965  0.041869045  0.041657343            4 
 3129000   0.75175993   -5.0840962    1569.5311  0.041800657  0.041647599            7 
 3130000   0.75970808   -5.0622385    1571.3113    0.0418347  0.041637901            9 
 3131000   0.73857846   -5.0575126    1572.0522  0.041841057  0.041628202            5 
 3132000   0.75898739   -5.0728427    1569.9309  0.041771256   0.04161849           14 
 3133000   0.75474369   -5.0607639    1568.6495   0.04172384  0.041608783            7 
 3134000   0.74290568   -5.0643972    1574.5859  0.041868376  0.041599135           11 
 3135000   0.74498721   -5.0432715    1572.7567  0.041806397  0.041589507            9 
 3136000   0.74362704   -5.0626808    1575.4602  0.041864908  0.041579856           11 
 3137000    0.7508616   -5.0393689    1576.9193  0.041890324  0.041570259            6 
 3138000   0.76403356   -5.0600336    1575.0014  0.041826041  0.041560733            9 
 3139000   0.75586153    -5.056817    1575.4613  0.041824925  0.041551143           10 
 3140000   0.75807634   -5.0795493    1569.6463  0.041657279  0.041541524           10 
 3141000   0.76573946   -5.0736167    1569.7213  0.041646008  0.041531898            5 
 3142000   0.74888499     -5.07431    1573.0493   0.04172102  0.041522224           21 
 3143000    0.7615961   -5.0966384    1575.1962  0.041764668  0.041512518           13 
 3144000    0.7360021   -5.0580456    1576.6979  0.041791187   0.04150287           11 
 3145000   0.74185866   -5.0616862    1576.9793  0.041785355  0.041493276            9 
 3146000   0.74977913    -5.077328     1571.803   0.04163496  0.041483648            6 
 3147000   0.74801787   -5.0614347    1576.6755  0.041750754  0.041473909           14 
 3148000   0.73784155   -5.0463811    1575.4067  0.041703905  0.041464218            7 
 3149000   0.74865883   -5.0829486     1573.982  0.041652958  0.041454556            7 
 3150000   0.74847189   -5.0935434    1571.5464  0.041575302  0.041444834            7 
 3151000   0.75194298   -5.0637938    1573.1079  0.041603403  0.041435095            2 
 3152000   0.74434544   -5.0831347    1573.1597  0.041591574  0.041425327            5 
 3153000   0.74815522   -5.0781581    1577.3825   0.04168999  0.041415681           11 
 3154000   0.74318319   -5.0650884    1577.3667  0.041676356  0.041406017           11 
 3155000    0.7377745   -5.0687065    1575.9295  0.041625185  0.041396359           13 
 3156000   0.75512632   -5.0616211    1577.8196  0.041661904  0.041386773            4 
 3157000   0.74244203   -5.0715311      1573.34  0.041530463  0.041377121            5 
 3158000    0.7346288   -5.0517919     1577.418   0.04162492   0.04136758            7 
 3159000   0.75222264   -5.0629104    1576.3556  0.041583718  0.041357991            8 
 3160000   0.74590698   -5.0654652    1572.2145  0.041461352  0.041348409            6 
 3161000   0.75306755   -5.0537524    1576.4719  0.041560474  0.041338791            3 
 3162000   0.73895088   -5.0776252    1577.3346  0.041570068  0.041329183            4 
 3163000   0.73646812   -5.0777274    1575.8949  0.041518993  0.041319544            4 
 3164000   0.74855433   -5.0750232    1579.4425  0.041599308  0.041309826            6 
 3165000   0.74137194   -5.0507817    1576.8819  0.041518744  0.041300234            5 
 3166000   0.74999323   -5.0773881    1577.9789  0.041534504  0.041290689            5 
 3167000   0.74539456   -5.0956626    1579.3716  0.041558037  0.041281079            5 
 3168000   0.75401312   -5.0434915    1579.2026  0.041540472  0.041271489           10 
 3169000   0.74541692   -5.0602143    1582.9622  0.041626227  0.041261892            5 
 3170000   0.73553957   -5.0685445    1579.3039  0.041516926  0.041252371           12 
 3171000   0.73673924   -5.0950801    1576.3882  0.041427211    0.0412428           11 
 3172000   0.74965081   -5.0897202    1580.1942  0.041514139  0.041233265            6 
 3173000   0.74176097   -5.0949978    1576.5007  0.041404052  0.041223637           11 
 3174000   0.75899255   -5.0700647    1578.7214  0.041449312  0.041214033            7 
 3175000   0.74929684    -5.065105    1580.6111  0.041485855   0.04120441            7 
 3176000   0.74335109   -5.0834397    1579.2715  0.041437644  0.041194834            7 
 3177000   0.75330591    -5.071615    1578.3071  0.041399305  0.041185227            4 
 3178000   0.75307706   -5.0725771    1573.8759  0.041270083  0.041175563            9 
 3179000    0.7436917   -5.0669514    1576.8883  0.041336068  0.041165942           12 
 3180000   0.73682062   -5.1029627    1574.9339  0.041271852  0.041156228            6 
 3181000   0.74099946   -5.0835296    1574.5546  0.041248942  0.041146486            3 
 3182000   0.73690804   -5.0820512     1578.058  0.041327729  0.041136798            5 
 3183000   0.72744559   -5.0743968    1576.6426  0.041277689  0.041127031            7 
 3184000   0.73619823   -5.0898033    1577.8459  0.041296217  0.041117312            8 
 3185000   0.76146207   -5.0801998    1579.5278  0.041327258   0.04110764            7 
 3186000   0.72224465   -5.0753398    1581.9991  0.041378925  0.041097938           12 
 3187000   0.74282184   -5.0655397    1579.4483  0.041299245  0.041088228            6 
 3188000   0.75295433    -5.057332    1579.5448  0.041288813  0.041078565           15 
 3189000   0.75093838   -5.0797145    1581.2732  0.041321031  0.041068989            6 
 3190000   0.74225045   -5.0754818    1579.1107  0.041251586  0.041059368            6 
 3191000   0.76318043   -5.0598634    1583.7287  0.041359257  0.041049808           10 
 3192000   0.73040441   -5.0757707     1581.596  0.041290623  0.041040205            6 
 3193000   0.73251859   -5.0942307    1578.7125  0.041202434  0.041030513            5 
 3194000    0.7528831   -5.0736781    1580.0413  0.041224204  0.041020843            9 
 3195000   0.74469799   -5.0865647    1578.8913  0.041181308  0.041011142            7 
 3196000   0.73887283   -5.0583077    1579.4069  0.041181866  0.041001386            7 
 3197000   0.74241302    -5.068328    1577.3621  0.041115684  0.040991658           10 
 3198000   0.72518838   -5.0528155    1580.0094   0.04117181  0.040981947            9 
 3199000   0.72417561    -5.089953    1576.7657  0.041074442  0.040972221            9 
 3200000   0.74194096    -5.107096    1577.6218    0.0410839  0.040962535            5 
 3201000    0.7410333   -5.0959716    1583.1276  0.041214403  0.040952854            7 
 3202000   0.73245493   -5.0810574    1581.5697  0.041160986  0.040943163            8 
 3203000   0.74608844   -5.0665252    1583.6951  0.041203431  0.040933489            9 
 3204000   0.72649431   -5.0767256    1580.6924  0.041112475  0.040923803            5 
 3205000   0.73807606   -5.0594479    1582.9845  0.041159243  0.040914168            6 
 3206000   0.74152375   -5.0750124    1579.9527    0.0410676  0.040904503           10 
 3207000   0.72424877   -5.0815268    1579.2868  0.041037491  0.040894877           17 
 3208000   0.74226604   -5.0758087    1585.3237  0.041181517  0.040885181            5 
 3209000   0.75361283   -5.0737511    1582.7237  0.041101166  0.040875624            8 
 3210000   0.73177653   -5.0592609    1582.6019  0.041085201  0.040866006           10 
 3211000   0.75027794   -5.0798911       1584.4  0.041119071  0.040856375            5 
 3212000   0.73995997   -5.0683542    1580.3028   0.04099997  0.040846836            9 
 3213000    0.7272367    -5.074563    1583.0081  0.041057373  0.040837294            5 
 3214000   0.72630647   -5.0722698    1585.5177  0.041109667  0.040827705            9 
 3215000   0.73857101   -5.0632928    1589.7829  0.041207436  0.040818122            4 
 3216000   0.73205073   -5.0748518    1584.1062  0.041047528  0.040808577            9 
 3217000   0.73154132   -5.0989328    1581.6574  0.040971335  0.040798968           13 
 3218000   0.74778779   -5.0808853    1583.1651  0.040997647  0.040789421           17 
 3219000   0.75549646   -5.0859226    1582.5069  0.040967869  0.040779879            6 
 3220000   0.72622746    -5.090276    1586.3058  0.041053463  0.040770368            5 
 3221000    0.7473268   -5.0621227     1581.785  0.040923756  0.040760818           10 
 3222000   0.74478039   -5.0685615    1590.5342  0.041137342  0.040751283            7 
 3223000   0.73254386   -5.1035023    1580.9516  0.040876812  0.040741656            5 
 3224000   0.74639943   -5.0969913    1587.4509  0.041032126  0.040732071           10 
 3225000   0.73613061   -5.0688874    1587.2438  0.041014052  0.040722473            5 
 3226000   0.74732126   -5.0945439    1586.0008   0.04096923  0.040712882            4 
 3227000   0.72192151   -5.1064987    1580.4658  0.040813599  0.040703295            3 
 3228000     0.740515   -5.0695265    1585.7747  0.040938008  0.040693718            5 
 3229000   0.72587662   -5.1087325     1582.708  0.040846185  0.040684078            7 
 3230000    0.7285165   -5.1105245    1584.0956  0.040869341  0.040674374           13 
 3231000   0.74484407   -5.0791127    1584.3271  0.040862661  0.040664689            5 
 3232000     0.747059   -5.1445312    1583.7285  0.040834584  0.040654998            6 
 3233000   0.74199901   -5.0951379    1583.0729  0.040805055  0.040645303           12 
 3234000    0.7357993   -5.0820512    1586.1554  0.040871866  0.040635637            6 
 3235000   0.75210385   -5.1149283    1583.1576  0.040782008  0.040625954            8 
 3236000    0.7396254   -5.0777811    1587.2463  0.040874699  0.040616296            5 
 3237000   0.75312887   -5.0962882     1587.446  0.040867212  0.040606648           10 
 3238000   0.73345874   -5.0877678    1586.1157  0.040820355  0.040596986           23 
 3239000   0.72873663   -5.0861216    1584.4883  0.040765881  0.040587269           10 
 3240000   0.72969583   -5.0921624    1586.9105  0.040815599  0.040577558            4 
 3241000   0.72951427    -5.107155    1584.2028  0.040733385  0.040567845           11 
 3242000   0.73631979   -5.1100517    1580.1095  0.040615605  0.040558169            5 
 3243000   0.72944836   -5.0758773    1588.4286  0.040816852  0.040548407           10 
 3244000   0.71094537   -5.1111603    1589.9533  0.040843436  0.040538703            5 
 3245000   0.73720528   -5.0957586    1588.8493    0.0408025  0.040529135            7 
 3246000   0.73600252   -5.0883776    1584.2053  0.040670705  0.040519604            5 
 3247000   0.71303374   -5.0832794    1592.0793  0.040860262  0.040510092            7 
 3248000   0.72353429   -5.0856799    1592.1645   0.04084987  0.040500557            5 
 3249000   0.73022942   -5.0907015     1589.262  0.040762851  0.040490953            7 
 3250000   0.72577166   -5.0909209    1589.7989  0.040764075  0.040481372           11 
 3251000   0.72605161   -5.1045468    1594.7715  0.040878998  0.040471839            3 
 3252000   0.73133695   -5.1025962    1586.9597  0.040666248   0.04046225            8 
 3253000   0.73063129   -5.0780822    1587.2311    0.0406607  0.040452746            5 
 3254000   0.73101844   -5.1212278    1588.3773  0.040677559  0.040443162            4 
 3255000   0.71953288   -5.1100413    1590.1505  0.040710457  0.040433496            9 
 3256000   0.71471801   -5.0995505    1587.2742   0.04062434  0.040423943            6 
 3257000   0.72847869   -5.0892087    1589.2221  0.040661707  0.040414388           20 
 3258000   0.72351192   -5.1079514    1595.0651  0.040798677  0.040404814            8 
 3259000   0.74193832   -5.1072702    1590.1853  0.040661381  0.040395376            9 
 3260000   0.72183825   -5.1159838    1587.5884  0.040582525  0.040385802            9 
 3261000   0.74543837   -5.0770875    1588.6492  0.040597189  0.040376223            6 
 3262000    0.7334122   -5.1054704    1592.6287  0.040686407  0.040366724            5 
 3263000   0.72427935    -5.080582     1596.268  0.040766882  0.040357258            4 
 3264000    0.7192516   -5.1013828     1591.073  0.040621758   0.04034783            5 
 3265000   0.72690194   -5.0830501    1593.1187   0.04066153  0.040338368           10 
 3266000   0.72850356   -5.0992862    1593.5833  0.040660933  0.040328836            7 
 3267000   0.72304795   -5.0978191    1594.8425  0.040680607  0.040319331            7 
 3268000   0.73166419   -5.1013823    1588.9121  0.040516935  0.040309964            6 
 3269000   0.73816463   -5.1198598    1594.1788  0.040638799  0.040300541            8 
 3270000   0.71392407    -5.112677    1595.5022  0.040660097  0.040291044           10 
 3271000   0.73019871   -5.0815779    1594.1841  0.040614087  0.040281608            9 
 3272000   0.73514457   -5.1015574    1597.3533  0.040682388  0.040272161            7 
 3273000   0.73567942   -5.0922002    1597.0596  0.040662481  0.040262694            4 
 3274000   0.71920446     -5.10832    1599.5173  0.040712616  0.040253314            8 
 3275000    0.7319661   -5.0768709    1597.7861  0.040656134  0.040243879            6 
 3276000   0.71584712   -5.1041768    1593.6511  0.040538539  0.040234507            7 
 3277000   0.74113593   -5.0945564    1599.1906  0.040667039  0.040225162            6 
 3278000   0.74488916    -5.092201    1594.0648  0.040524324  0.040215817            5 
 3279000   0.73006172   -5.1342527    1595.0263  0.040536402  0.040206392            7 
 3280000   0.74003684   -5.0977421    1600.8657    0.0406724  0.040196908           17 
 3281000   0.72862057    -5.078378    1598.6304  0.040603232  0.040187502           11 
 3282000   0.71645448   -5.1152889    1596.9697  0.040548693  0.040178093            9 
 3283000   0.72439506   -5.0966251    1596.1317   0.04051507  0.040168679            8 
 3284000   0.73759076   -5.0862335    1597.4718  0.040536739  0.040159206            5 
 3285000   0.71767572    -5.121416    1595.2129  0.040467095  0.040149683            7 
 3286000   0.73071699   -5.1169751    1596.3953  0.040484765  0.040140177           11 
 3287000   0.73791226   -5.1299348    1597.6314  0.040503789  0.040130769            7 
 3288000   0.71758261   -5.1438473    1591.4495   0.04033479  0.040121309            5 
 3289000   0.72916287   -5.0944491    1600.9676  0.040563688  0.040111898            5 
 3290000   0.71978093   -5.1257342    1595.7714  0.040419741  0.040102541            5 
 3291000   0.74687541   -5.1087336     1596.882  0.040435582   0.04009318            9 
 3292000   0.70327022   -5.1091255    1598.0348  0.040452481  0.040083808           11 
 3293000   0.72722489   -5.1151676    1597.1764  0.040418472  0.040074393           10 
 3294000   0.72886799   -5.1259342    1597.5248  0.040415017  0.040065081           21 
 3295000   0.70813839   -5.1463379    1594.9938   0.04033874  0.040055688           15 
 3296000   0.73155812   -5.1011391     1594.853  0.040322941  0.040046256           18 
 3297000     0.715712   -5.1366657    1596.5252  0.040352978  0.040036823            6 
 3298000   0.74082328   -5.1218825    1596.5574  0.040341554  0.040027375            5 
 3299000   0.71066432   -5.1046375    1600.7869  0.040436166  0.040017919            4 
 3300000   0.72241819   -5.0950387    1594.9678  0.040276966  0.040008489           10 
 3301000    0.7141144    -5.106121    1601.5843  0.040431796  0.039999105            9 
 3302000   0.72169094   -5.1061563    1597.1205  0.040306896  0.039989749            7 
 3303000   0.72335691   -5.1151754    1597.9499   0.04031562  0.039980283            6 
 3304000   0.73424642   -5.1433426    1596.5869   0.04026904  0.039970807            7 
 3305000   0.72285122   -5.1238794    1595.5179  0.040229902  0.039961302            6 
 3306000   0.74404235   -5.1206135    1597.8081  0.040275461  0.039951877            4 
 3307000   0.73976822   -5.1231104    1597.5143  0.040255879    0.0399424           27 
 3308000   0.73542815   -5.1027755    1600.6357  0.040322342  0.039933019            7 
 3309000   0.71822345    -5.119017    1596.9307   0.04021685  0.039923665           11 
 3310000   0.70550046   -5.1158728    1600.3551  0.040290914  0.039914176            7 
 3311000   0.72174711   -5.1367042    1594.0708  0.040120579  0.039904783           14 
 3312000   0.72810982   -5.1000801    1601.2413   0.04028888  0.039895334            6 
 3313000   0.70011314   -5.1260332    1597.9794  0.040194673  0.039885906            6 
 3314000   0.72140815   -5.1045672    1600.8716   0.04025527  0.039876505            5 
 3315000   0.73338342   -5.0970528    1596.7021  0.040138314  0.039867116           15 
 3316000   0.73100551   -5.1128716     1601.496  0.040246682  0.039857744            8 
 3317000   0.71900812   -5.1163217    1604.7087  0.040315263  0.039848415            4 
 3318000   0.71648645   -5.0856918    1601.9761  0.040234482   0.03983906            9 
 3319000   0.70099806    -5.114373    1604.6263  0.040288901  0.039829654            8 
 3320000    0.7221523   -5.1258943    1599.6604  0.040152118  0.039820282            5 
 3321000   0.73636394   -5.1218718    1599.4582  0.040134954  0.039810952           11 
 3322000   0.72579206   -5.1303868    1600.4534  0.040147838   0.03980158            7 
 3323000    0.7197973   -5.1188759    1599.4011  0.040109367  0.039792171            9 
 3324000   0.70776914   -5.1324482    1601.3878  0.040147106   0.03978274           14 
 3325000   0.73015906   -5.1102541    1605.1904  0.040230336  0.039773305           10 
 3326000   0.72039086   -5.1133832    1600.0732  0.040090029  0.039763897            7 
 3327000   0.74530507   -5.1119068    1600.1962  0.040081059  0.039754477            5 
 3328000   0.74157451   -5.1234075    1607.9442  0.040263026  0.039745146            7 
 3329000   0.73183533   -5.1592876    1601.3609  0.040086136  0.039735759           16 
 3330000   0.73445485   -5.1242794    1601.2763  0.040071979  0.039726321           10 
 3331000   0.73029207   -5.1300322    1602.4173  0.040088494  0.039716871            4 
 3332000   0.70267105    -5.125517    1604.6969  0.040133475  0.039707539            7 
 3333000   0.71162799   -5.0979152    1605.3918  0.040138808  0.039698177           10 
 3334000   0.72213771   -5.1046219    1600.4906  0.040004264  0.039688898            7 
 3335000    0.7187311   -5.1100796    1601.0618  0.040006541   0.03967954           12 
 3336000   0.71274888   -5.1329153    1604.4906  0.040080201  0.039670159            8 
 3337000   0.73784483   -5.1352001    1601.9317  0.040004288  0.039660826           12 
 3338000    0.7257379   -5.0954754    1607.4413   0.04012985   0.03965143            4 
 3339000   0.70664938   -5.1009353    1605.0283  0.040057611  0.039642088           12 
 3340000   0.73425022   -5.1477493     1600.684  0.039937226  0.039632701            8 
 3341000   0.71587684   -5.1138385    1605.1845  0.040037527  0.039623363            7 
 3342000   0.70267562   -5.1252629    1607.6574  0.040087209  0.039614052            7 
 3343000   0.73293358   -5.1275713    1607.6699  0.040075528  0.039604799            5 
 3344000   0.73112717   -5.1330565    1603.7411  0.039965637  0.039595566           10 
 3345000   0.72587831   -5.1204737     1604.399   0.03997008  0.039586304           12 
 3346000   0.72887982   -5.1476977    1603.3083  0.039930969  0.039577021           11 
 3347000   0.71312617   -5.1462715    1604.6957  0.039953582  0.039567673           13 
 3348000   0.72568947   -5.0970178    1604.0787  0.039926291   0.03955837            6 
 3349000   0.71718169   -5.1568664    1603.7187  0.039905413  0.039549084            4 
 3350000   0.71969122   -5.1148165    1598.7146  0.039769019  0.039539778           10 
 3351000   0.70947057   -5.1479985     1604.277  0.039895479  0.039530395            6 
 3352000   0.70281536   -5.1400327    1603.7799  0.039871219  0.039520977            6 
 3353000   0.72175964   -5.1576478    1598.2283  0.039721351  0.039511507           11 
 3354000   0.72025849   -5.1293797     1600.926  0.039776535  0.039502099           10 
 3355000    0.7145112   -5.1370409    1603.0501  0.039817438  0.039492734            5 
 3356000   0.71608702   -5.1274306    1609.0455  0.039954447  0.039483373            5 
 3357000   0.71368385   -5.1396473    1607.0317  0.039892555  0.039473954            7 
 3358000   0.71828319   -5.1251855      1610.64  0.039970221  0.039464677            7 
 3359000   0.71215045   -5.1262112    1603.9353  0.039791985  0.039455287            6 
 3360000   0.72211217   -5.1196173    1610.7046  0.039948032  0.039445935            9 
 3361000   0.73496321   -5.1207268    1608.4717  0.039880783  0.039436582            8 
 3362000   0.69893065   -5.1154857    1603.0436  0.039734374  0.039427239            9 
 3363000   0.70317708   -5.1262658    1608.6687  0.039861946  0.039417891            8 
 3364000   0.71752383   -5.1436928    1606.6606  0.039800352  0.039408531            9 
 3365000    0.7265653   -5.1242142    1603.3108  0.039705568  0.039399226            8 
 3366000   0.72715615   -5.1512412    1606.7174   0.03977811  0.039389894            6 
 3367000    0.7174152   -5.1368695    1604.4149  0.039709307  0.039380584           11 
 3368000   0.71675821   -5.1567493     1603.619  0.039677826  0.039371242            4 
 3369000    0.6965066   -5.1586081    1604.9087  0.039697949  0.039361877           11 
 3370000   0.73872485   -5.1549594    1606.0868  0.039715301  0.039352489            7 
 3371000   0.71160574   -5.1426284    1605.7861  0.039696087  0.039343046            5 
 3372000    0.7171877    -5.141526    1606.5018  0.039702003  0.039333674            9 
 3373000   0.72322308   -5.1441036    1603.2049  0.039608778  0.039324189           15 
 3374000   0.72241451   -5.1571942    1605.1318  0.039644631  0.039314729            8 
 3375000   0.72630025   -5.1147601    1608.3885  0.039713297  0.039305294           10 
 3376000   0.72210067    -5.116251    1606.5113  0.039655195   0.03929603            6 
 3377000   0.70781019   -5.1286483    1609.6483  0.039720863  0.039286704           13 
 3378000   0.71170477   -5.1288736    1606.2604  0.039625529  0.039277327            4 
 3379000   0.69410766   -5.1470726     1608.953  0.039680207  0.039267946           10 
 3380000   0.70448883   -5.1527038    1601.6566  0.039488576  0.039258459           14 
 3381000   0.71217682   -5.1536918    1604.2158  0.039539974  0.039248978            4 
 3382000   0.72598414   -5.1387399    1609.2888  0.039653281  0.039239572           11 
 3383000   0.70931096   -5.1527485    1608.8181  0.039629967    0.0392302            4 
 3384000   0.70977104   -5.1779204    1607.9706  0.039597385  0.039220771           12 
 3385000   0.71716343   -5.1329158    1604.1415  0.039491421  0.039211356            6 
 3386000    0.7174352   -5.1414453    1606.2631  0.039531972  0.039201904            5 
 3387000   0.70665593   -5.1577824    1607.4153  0.039548648  0.039192445            4 
 3388000    0.7030541   -5.1558842    1608.6101  0.039566363  0.039183015            6 
 3389000   0.71920891   -5.1544024    1607.5646  0.039528982  0.039173554            7 
 3390000   0.69793048   -5.1568977    1606.9781  0.039502903  0.039164137            6 
 3391000   0.70148264   -5.1483037    1606.9175  0.039489765  0.039154749           11 
 3392000   0.70742876   -5.1354181    1607.2174  0.039485491  0.039145353            7 
 3393000    0.6949783   -5.1277838    1604.1354  0.039398159  0.039135887           11 
 3394000   0.70099685   -5.1986491    1603.4285  0.039369192  0.039126412           12 
 3395000   0.70400651   -5.1592593    1607.2733  0.039451971  0.039116987            8 
 3396000   0.71742042   -5.1496008    1603.2781  0.039342316  0.039107631            4 
 3397000   0.70165596   -5.1316539    1612.3297  0.039552784   0.03909818           12 
 3398000   0.71131044   -5.1529529     1606.187    0.0393905  0.039088751            7 
 3399000    0.7033966   -5.1513001    1602.3041  0.039283712  0.039079258            8 
 3400000   0.70292239   -5.1309686    1607.1375  0.039390624  0.039069843            6 
 3401000   0.71784083    -5.146967    1606.0408   0.03935217  0.039060377            6 
 3402000   0.71705136   -5.1290209    1608.1743  0.039392866   0.03905091            5 
 3403000   0.70907895   -5.1463511    1606.1315  0.039331264  0.039041476            5 
 3404000   0.70781944   -5.1661363    1607.9199  0.039363491  0.039032042           22 
 3405000   0.72257915   -5.1455734    1607.3406  0.039337753  0.039022534            7 
 3406000   0.70311009   -5.1524875    1602.9201  0.039218049  0.039013074           10 
 3407000   0.70784853   -5.1538015    1604.8926  0.039254784  0.039003498            8 
 3408000   0.70967262   -5.1496581    1607.0857  0.039296891  0.038994036           12 
 3409000   0.72709438   -5.1364237    1608.7083  0.039325029  0.038984518            6 
 3410000   0.70863411   -5.1523933    1605.6086  0.039237748   0.03897509            7 
 3411000   0.72005848   -5.1379155    1613.6021  0.039421531  0.038965638           16 
 3412000   0.70760033   -5.1491158    1603.8751  0.039172408  0.038956103            8 
 3413000    0.7130559   -5.1500183    1604.9712  0.039187695  0.038946631            9 
 3414000   0.70097341   -5.1591884    1606.3715  0.039210396  0.038937202           13 
 3415000    0.7210262   -5.1489729     1603.013  0.039116959  0.038927734            9 
 3416000   0.70580804    -5.168828    1605.2449  0.039159955  0.038918208            7 
 3417000   0.71787607    -5.136237    1608.0356  0.039216555  0.038908743            5 
 3418000   0.70424931   -5.1440543    1607.1687  0.039183945  0.038899254            9 
 3419000   0.71052698   -5.1431167    1604.9936  0.039119469  0.038889759            8 
 3420000    0.7054559   -5.1882442    1605.3415  0.039116509   0.03888029           10 
 3421000   0.68267399   -5.1585624    1608.2187  0.039175162  0.038870795           12 
 3422000   0.69267598   -5.1638233    1609.6766  0.039199216   0.03886129            7 
 3423000   0.70849844   -5.1824043    1603.9529  0.039048421  0.038851858            5 
 3424000   0.69770117   -5.1716313    1608.1812  0.039139923  0.038842391            6 
 3425000    0.7134915   -5.1325305    1609.9236  0.039170889  0.038832966            9 
 3426000    0.6844297   -5.1578243     1610.722  0.039178876  0.038823535           10 
 3427000   0.69829881   -5.1151054    1615.7663  0.039290107  0.038814203            3 
 3428000   0.69479814   -5.1649629    1608.1789  0.039094198  0.038804823           13 
 3429000   0.70014638   -5.1165277       1611.1  0.039153787  0.038795392            6 
 3430000   0.70158698   -5.1642078    1609.4929  0.039103325  0.038785925            6 
 3431000   0.69145478   -5.1509878    1609.6803   0.03909648  0.038776537           15 
 3432000   0.70967623   -5.1548639    1605.9118  0.038993585  0.038767127            6 
 3433000   0.71296611   -5.1433927    1609.9599  0.039080492   0.03875765           17 
 3434000   0.70739818    -5.159648    1609.4141  0.039055866  0.038748197           10 
 3435000   0.70364784   -5.1496667    1610.1236  0.039061708  0.038738697           14 
 3436000   0.70278754   -5.1590418     1609.605  0.039037763  0.038729215            9 
 3437000   0.70828231   -5.1323399    1613.8388  0.039129056   0.03871974           11 
 3438000   0.68324481   -5.1748375    1613.4633  0.039108572  0.038710306            9 
 3439000   0.71281125   -5.1800195     1609.689  0.039005742  0.038700868           11 
 3440000   0.70602059   -5.1826475    1612.3074  0.039057834  0.038691467           17 
 3441000   0.71390556    -5.155102     1615.511  0.039124066  0.038682105            6 
 3442000   0.69927262   -5.1433347      1609.95  0.038978066  0.038672753            8 
 3443000    0.7022385   -5.1655289    1611.8006  0.039011535  0.038663425           11 
 3444000   0.69576749   -5.1849637    1610.3424  0.038964925  0.038654002           10 
 3445000   0.70046999   -5.1764545    1610.8768  0.038966541  0.038644616            7 
 3446000   0.69537545   -5.1513749    1613.2034  0.039011497  0.038635274           13 
 3447000   0.71165341   -5.1616962     1609.783  0.038917489  0.038625867            9 
 3448000    0.6923236   -5.1602849    1609.9213  0.038909545  0.038616429           19 
 3449000   0.69094827   -5.1481438     1610.955  0.038923239   0.03860703            4 
 3450000   0.69835689   -5.1499346    1609.6762  0.038881067  0.038597595           15 
 3451000   0.68523451    -5.145828    1611.9948  0.038925789  0.038588152           10 
 3452000   0.69692437   -5.1573915    1610.3823  0.038875587  0.038578705           14 
 3453000   0.70127748   -5.1705392     1610.526  0.038867795  0.038569275            7 
 3454000   0.70154647    -5.159902    1609.7987  0.038838996  0.038559809           10 
 3455000   0.70079265   -5.1681884    1612.2694  0.038887347  0.038550392            7 
 3456000   0.70887028   -5.1530033    1614.7462  0.038935817   0.03854096           14 
 3457000    0.6949666    -5.173657     1614.076  0.038908398   0.03853152           12 
 3458000   0.69581661   -5.1784273    1613.5448  0.038884347  0.038522114            9 
 3459000   0.69772773   -5.1823386    1609.1133  0.038766341  0.038512658           19 
 3460000   0.69253271   -5.1512315     1614.416  0.038882852  0.038503228           11 
 3461000   0.70659471   -5.1880841    1611.4152  0.038799364  0.038493743            6 
 3462000   0.68592137   -5.1847772    1610.7283  0.038771623  0.038484247            9 
 3463000   0.69985062   -5.1812796    1609.2181  0.038724086  0.038474783            8 
 3464000   0.68712031   -5.1884854     1610.097  0.038734051   0.03846526            5 
 3465000   0.69779844   -5.1555474    1614.6746  0.038832962  0.038455797            9 
 3466000   0.69530333   -5.1637348    1609.8856  0.038706617  0.038446345           15 
 3467000   0.69077393   -5.1819928    1611.1403  0.038725611  0.038436919           15 
 3468000   0.70130352   -5.1522056    1616.1831   0.03883562  0.038427523           13 
 3469000   0.68750491   -5.1698821    1616.5486  0.038833204  0.038418141           20 
 3470000   0.69746014   -5.1748455    1609.7358  0.038658401  0.038408661           12 
 3471000   0.69807023   -5.1708896    1613.1605  0.038729485  0.038399237           14 
 3472000   0.69050979   -5.1944047    1609.0541  0.038619769  0.038389752           10 
 3473000   0.70142221   -5.1669737    1609.5626  0.038620852  0.038380387            7 
 3474000    0.6900853   -5.1750606    1613.5401  0.038705146  0.038370963            8 
 3475000   0.68976185   -5.1557112    1617.3459  0.038785275  0.038361563           18 
 3476000   0.69640601   -5.1657023    1612.7501  0.038663937  0.038352166           11 
 3477000    0.6939391   -5.1838815    1612.0322  0.038635609  0.038342645            5 
 3478000   0.70317858   -5.1758386    1613.1827  0.038652067  0.038333168           10 
 3479000   0.69498031   -5.1827047    1611.5694  0.038602314  0.038323758            9 
 3480000   0.68873521   -5.1976754    1616.5724  0.038711026  0.038314364           10 
 3481000    0.6885251   -5.2113547    1612.6063  0.038604958  0.038304933            8 
 3482000   0.68799664   -5.1868011    1611.4389  0.038565933  0.038295474            9 
 3483000   0.69902095   -5.1749715     1613.597  0.038606493  0.038286122            6 
 3484000   0.67918242   -5.1568769    1617.2348  0.038682424  0.038276765           11 
 3485000   0.68749319   -5.1950362    1612.1164  0.038548934  0.038267389            9 
 3486000   0.71062581   -5.1610063    1618.6579   0.03869425  0.038258027           11 
 3487000   0.68985567   -5.1657579    1616.3565  0.038628154    0.0382486            9 
 3488000   0.68541773   -5.1986434    1613.7579  0.038554996  0.038239176            6 
 3489000   0.69660616   -5.1672425    1614.7745  0.038568227  0.038229752           12 
 3490000   0.71481543   -5.1797879    1615.1056  0.038565081  0.038220315           22 
 3491000   0.68940973   -5.1840023     1616.706  0.038592238  0.038210837            8 
 3492000   0.69696105   -5.1776701    1611.7323  0.038462492   0.03820138            8 
 3493000   0.66399881   -5.1719999      1614.12  0.038508445  0.038191924           10 
 3494000   0.70023683   -5.1950629    1612.7145  0.038463903    0.0381825            5 
 3495000   0.68108242   -5.2020759    1613.8862  0.038480834   0.03817299           23 
 3496000    0.6748115   -5.1643811    1615.5602  0.038509729  0.038163499            9 
 3497000   0.69732184   -5.1812084    1616.2127  0.038514268  0.038154073            9 
 3498000   0.70400424   -5.1916943    1610.5338  0.038367967  0.038144634           10 
 3499000   0.71465411   -5.1938416    1615.1051  0.038465873  0.038135235            7 
 3500000   0.69458405   -5.1944526    1615.9251  0.038474408  0.038125881            7 
 3501000   0.69562554   -5.1648825    1617.1967  0.038493684  0.038116502            6 
 3502000   0.69520827   -5.2010789    1619.1257  0.038528596  0.038107118            9 
 3503000   0.69013657    -5.187165     1615.105  0.038421948  0.038097705            4 
 3504000   0.68404186   -5.2028841    1614.1457  0.038388169  0.038088258            8 
 3505000   0.69535502   -5.1857591    1617.0104  0.038445325  0.038078839            6 
 3506000   0.71155635   -5.2185029     1611.882  0.038312464  0.038069386            5 
 3507000   0.68618449   -5.2217802    1610.2993  0.038263933  0.038059965            6 
 3508000   0.69467064   -5.1823042    1617.7985  0.038431169  0.038050528           18 
 3509000   0.68892423   -5.1872265    1615.2454  0.038359585  0.038041078           24 
 3510000   0.68003218   -5.1984184    1610.2107  0.038229125  0.038031681           16 
 3511000    0.6903204   -5.1862749    1614.9882   0.03833163  0.038022301            7 
 3512000   0.66998395   -5.1874785    1617.5526  0.038381562   0.03801292            4 
 3513000   0.69476315   -5.1758395    1618.2015   0.03838603  0.038003572            6 
 3514000   0.69554502   -5.1749762    1620.1703  0.038421797  0.037994253            9 
 3515000   0.70625185   -5.1982999    1616.9909  0.038335488  0.037984889           13 
 3516000   0.70334139    -5.190379     1621.779  0.038438069   0.03797562            4 
 3517000   0.69645626   -5.1883673    1616.4706  0.038301361   0.03796626           10 
 3518000   0.68925851   -5.2032227    1618.2211  0.038331939  0.037956892            5 
 3519000   0.68232033   -5.1907938    1617.1426  0.038295504  0.037947554            5 
 3520000   0.70448187   -5.1960109    1618.9678  0.038327837  0.037938202            6 
 3521000   0.69073355   -5.2070495    1618.0889  0.038296148  0.037928884           14 
 3522000   0.69190762    -5.184021    1624.2618  0.038431331  0.037919576            5 
 3523000   0.68168779   -5.2173169    1618.9726  0.038295313  0.037910299            8 
 3524000   0.68576885   -5.1826161    1620.1157  0.038311476  0.037901042            5 
 3525000   0.68186459   -5.2132603    1616.9915  0.038226751  0.037891712           11 
 3526000   0.69913246   -5.1856905    1623.3811  0.038366921  0.037882368           12 
 3527000   0.67872783    -5.180172     1621.693  0.038316155  0.037873096            5 
 3528000   0.68654834   -5.1931766    1618.0143  0.038218402  0.037863856            8 
 3529000   0.69472714   -5.1946576    1618.4831  0.038218643  0.037854582            9 
 3530000   0.67224595    -5.174586    1616.8013  0.038168114  0.037845248            5 
 3531000   0.69197163   -5.1921216    1618.0133  0.038185908  0.037835967           11 
 3532000   0.67543989   -5.2054706    1616.5282  0.038140058  0.037826658           13 
 3533000   0.70167894    -5.185096    1617.0783  0.038142237  0.037817253            8 
 3534000   0.67571984   -5.1792868    1622.2256   0.03825282   0.03780793           11 
 3535000   0.67641533   -5.1901011    1623.8344  0.038279925  0.037798695            8 
 3536000   0.68234776   -5.1996588    1614.8809   0.03805809   0.03778936           21 
 3537000   0.69290104   -5.1908685    1620.6954  0.038184324  0.037780022            6 
 3538000   0.68779857   -5.1974002    1622.0549  0.038205551  0.037770721            9 
 3539000   0.69535488   -5.1770587    1618.6888  0.038115494  0.037761467            8 
 3540000    0.6894135   -5.2014392     1622.756  0.038200471  0.037752221           10 
 3541000   0.68419999   -5.2001009      1622.49  0.038183422   0.03774293            4 
 3542000    0.6837551   -5.2154766    1621.6924  0.038153876  0.037733724            6 
 3543000   0.68475154   -5.1953678     1620.321  0.038110853  0.037724435            4 
 3544000   0.68727535   -5.1958243     1623.393  0.038172334  0.037715146           11 
 3545000   0.68702175   -5.1625195    1626.3465  0.038230994  0.037705913            6 
 3546000   0.67324017   -5.1973093    1622.3351  0.038125942  0.037696765            7 
 3547000   0.68455906    -5.196889      1622.44  0.038117657  0.037687584            4 
 3548000   0.68781676   -5.1892562    1622.2984  0.038103588  0.037678361           18 
 3549000   0.67702087   -5.1926981    1622.0881  0.038087914  0.037669102            7 
 3550000   0.66725536   -5.1788132    1625.5436    0.0381583  0.037659849            7 
 3551000   0.68794175   -5.2197426    1621.3467  0.038049063  0.037650605            5 
 3552000   0.69847709   -5.2142989    1616.6596  0.037928389  0.037641327            9 
 3553000   0.68849371   -5.1986257    1621.9874  0.038042673  0.037632068            7 
 3554000   0.69630165   -5.2061024    1623.2552  0.038061696  0.037622758            5 
 3555000   0.69054173   -5.2237637    1618.9426  0.037949897  0.037613492           15 
 3556000    0.6693796    -5.191647    1625.1381  0.038084415  0.037604244           12 
 3557000   0.66675007   -5.2168516    1622.3092  0.038007432  0.037594984            5 
 3558000   0.66985888   -5.2177344    1620.0174  0.037943073    0.0375857           12 
 3559000   0.67220859   -5.1979905    1623.8758  0.038022754  0.037576416           26 
 3560000   0.68052151    -5.180164    1621.3705  0.037953429  0.037567173            5 
 3561000    0.6836376   -5.2072821    1623.4876  0.037992316  0.037558015            7 
 3562000   0.69102316   -5.1895523    1623.5132  0.037982247  0.037548804            8 
 3563000   0.66463998   -5.2147756    1622.2735  0.037942592  0.037539501           20 
 3564000   0.68661896   -5.2024392    1623.4612  0.037959719  0.037530249           10 
 3565000   0.67391035   -5.1970885    1624.3955  0.037970908  0.037520979           11 
 3566000   0.69607991   -5.2208347    1618.2641  0.037816977  0.037511705           10 
 3567000   0.67786957   -5.2195958    1621.8114   0.03788925  0.037502427           17 
 3568000   0.67762177   -5.2028775    1625.8076  0.037971964  0.037493155           15 
 3569000   0.67289345   -5.2097174    1621.4034  0.037858491  0.037483911           15 
 3570000   0.67413831   -5.2142203    1619.9318  0.037813535  0.037474613           10 
 3571000   0.68233901   -5.2098347    1625.6162  0.037935596  0.037465311           12 
 3572000   0.68071886   -5.1830052    1622.5758  0.037854044  0.037456098           14 
 3573000   0.68506035   -5.2048083     1625.435  0.037910137  0.037446848           11 
 3574000   0.67493948   -5.2185227    1622.5793  0.037832943  0.037437581            7 
 3575000   0.69119874   -5.2138915    1624.9945   0.03787866  0.037428318            4 
 3576000   0.69685656   -5.1914691     1628.729  0.037955094   0.03741913            3 
 3577000   0.68035649   -5.1956981    1623.6953  0.037827214  0.037409921           13 
 3578000   0.66956859   -5.2350708    1622.8612  0.037797215  0.037400661            9 
 3579000   0.68813779   -5.1963763    1624.3396  0.037821077  0.037391413            6 
 3580000   0.69873188   -5.2161726     1619.795  0.037704726  0.037382113            8 
 3581000   0.67838904   -5.2506898    1618.1027  0.037654815  0.037372776            5 
 3582000   0.67294241   -5.2173569     1625.256  0.037810719  0.037363459            9 
 3583000    0.6863002   -5.2051783    1618.7446  0.037648726  0.037354187            8 
 3584000   0.68144485   -5.1998825    1626.7506  0.037824372  0.037344915            9 
 3585000   0.67636437   -5.1916254    1621.9444    0.0377021  0.037335684           13 
 3586000   0.67342901    -5.229103    1626.0698  0.037787456  0.037326386           13 
 3587000    0.6618919   -5.2091629      1622.52  0.037694452  0.037317077           15 
 3588000   0.67858755   -5.2161701    1621.3665  0.037657157  0.037307805           16 
 3589000   0.70007957   -5.2157616    1627.2383  0.037783002  0.037298494            8 
 3590000   0.66728975   -5.2228331    1617.9368  0.037556565  0.037289159            7 
 3591000   0.67449028   -5.2226503    1620.9362  0.037615709  0.037279794           21 
 3592000   0.67853507   -5.1888928    1625.9402  0.037721329  0.037270473           13 
 3593000   0.67585294   -5.2145544    1621.0108  0.037596503  0.037261168           10 
 3594000   0.68147239   -5.2102932    1623.5431  0.037644756  0.037251848           28 
 3595000   0.67995472   -5.2075512    1623.0778  0.037623501   0.03724254            8 
 3596000    0.6627836   -5.2264309    1623.8633  0.037631241  0.037233265            5 
 3597000   0.67406837   -5.2030056    1623.3414  0.037608689  0.037223988           12 
 3598000   0.68296664   -5.2261545    1622.8796  0.037587538  0.037214642            8 
 3599000   0.66663518   -5.2442179    1617.9477    0.0374629  0.037205293           12 
 3600000     0.658431   -5.2174251    1619.6891  0.037492803  0.037195957           10 
 3601000   0.67088335   -5.2286527    1622.4579  0.037546466  0.037186705           13 
 3602000   0.67545942   -5.2038336    1625.4506   0.03760528  0.037177392            9 
 3603000   0.66282554   -5.2097358    1626.2103  0.037612413  0.037168088            5 
 3604000   0.66519586   -5.2286798    1622.9467  0.037526516  0.037158789           23 
 3605000   0.66699995   -5.2112434    1626.9326  0.037608244  0.037149519            5 
 3606000   0.69341329   -5.2106912    1624.4047  0.037539396  0.037140254            5 
 3607000   0.67293311   -5.2352257    1622.3797  0.037482202  0.037130938            8 
 3608000   0.65431192   -5.2342013    1621.7367  0.037456965  0.037121633            9 
 3609000    0.6732687   -5.2046511    1628.1119  0.037593792  0.037112273            9 
 3610000   0.68760429   -5.2310975    1623.3187   0.03747273  0.037102976            8 
 3611000   0.67626115   -5.2336156    1618.1745  0.037343638  0.037093702            9 
 3612000   0.66217864    -5.213465    1626.7299  0.037530683  0.037084415           14 
 3613000   0.68444697   -5.2252261    1623.5848  0.037447753  0.037075116           12 
 3614000   0.66883482   -5.1990092      1625.69  0.037485934  0.037065871            6 
 3615000   0.66855502   -5.2202364    1626.6824  0.037498441  0.037056637           14 
 3616000   0.67100278   -5.2153115    1621.6294   0.03737162  0.037047352           11 
 3617000    0.6764637   -5.2532677    1622.6591  0.037385013  0.037038055           20 
 3618000   0.67023874    -5.226568    1623.2769   0.03738891  0.037028738            9 
 3619000   0.67934667   -5.2329353    1623.2125  0.037377095  0.037019451            6 
 3620000   0.66556527   -5.2264868    1622.2129  0.037343758  0.037010073           15 
 3621000   0.67944623   -5.2157821    1624.3936  0.037383632  0.037000734           14 
 3622000   0.67317423   -5.2528539    1623.5573   0.03735407  0.036991396           10 
 3623000   0.67121131   -5.2102064    1628.5798  0.037459284  0.036982097            5 
 3624000   0.68146764   -5.2022724     1627.653  0.037427635  0.036972861            9 
 3625000   0.67407444   -5.2120046    1627.4856  0.037413463  0.036963669            5 
 3626000   0.67035117   -5.2350136    1626.4787  0.037380003  0.036954426            5 
 3627000   0.65921569   -5.2406457    1626.4335  0.037368658  0.036945135           10 
 3628000   0.67414436   -5.2267128    1628.4014  0.037403561  0.036935819            8 
 3629000   0.69039246   -5.2136375    1627.4017  0.037370297    0.0369266            6 
 3630000   0.65937695   -5.2224551    1629.2859  0.037403258  0.036917432           10 
 3631000     0.675102   -5.2492765    1626.7024  0.037333663  0.036908242           10 
 3632000    0.6692724   -5.2557251    1629.5141  0.037387898  0.036898967            8 
 3633000   0.67099325   -5.2399861    1625.6497  0.037288964  0.036889752            6 
 3634000   0.66125562   -5.2373366    1626.0783  0.037288533  0.036880483            7 
 3635000   0.66134979   -5.2411156    1627.6719  0.037314807  0.036871221           10 
 3636000   0.66688388   -5.2229816    1622.7732  0.037192271  0.036861962            4 
 3637000   0.67493599    -5.231236      1624.33  0.037217715   0.03685274            5 
 3638000   0.65271268   -5.2183992    1626.4171  0.037255294  0.036843552           12 
 3639000   0.67341786   -5.2252588    1630.9313   0.03734843  0.036834315           11 
 3640000   0.67720759   -5.2419049    1624.3246  0.037186919  0.036825079            8 
 3641000   0.67345225   -5.2293811    1627.4399  0.037248007  0.036815837           13 
 3642000   0.68425633   -5.2320966    1629.4169  0.037283014  0.036806657           13 
 3643000    0.6735294   -5.2456908    1625.3846  0.037180543  0.036797457            7 
 3644000   0.66577337   -5.2159582    1631.8755  0.037318777  0.036788304           11 
 3645000   0.66884047   -5.2394721    1630.0318  0.037266387  0.036779071           13 
 3646000   0.66509198    -5.223459    1627.2151  0.037191787  0.036769868           10 
 3647000   0.66805614    -5.232901    1629.0513  0.037223547  0.036760696           14 
 3648000   0.65340527    -5.219551    1626.4666  0.037154299  0.036751536           11 
 3649000   0.67978539   -5.2347874    1631.2555  0.037253483  0.036742345           13 
 3650000   0.64895055   -5.2252853    1630.5899  0.037228079  0.036733155            9 
 3651000   0.66781701   -5.1983482    1630.6291  0.037218778  0.036723967           10 
 3652000   0.65437766   -5.2234904    1630.7988  0.037212459  0.036714799           10 
 3653000   0.64572148   -5.2470597    1628.4689  0.037149122  0.036705619            7 
 3654000   0.67920374   -5.2460005    1627.6466  0.037120202  0.036696416           10 
 3655000   0.67283376   -5.2358516    1628.0592  0.037119453  0.036687237            8 
 3656000   0.64761256   -5.2427871    1630.1836  0.037157723  0.036677971            7 
 3657000   0.67575187   -5.2627736    1625.5132  0.037041135  0.036668719           12 
 3658000   0.67221006   -5.2396855    1627.8559  0.037084378  0.036659475            5 
 3659000   0.66041542   -5.2614575    1629.5646   0.03711316  0.036650277            6 
 3660000   0.66479471   -5.2389883    1627.1281  0.037047544   0.03664108            6 
 3661000   0.67708229   -5.2395821    1628.2942  0.037063966  0.036631883           20 
 3662000   0.65826774   -5.2205051    1630.4145  0.037102095  0.036622678            9 
 3663000   0.66415548   -5.2704483    1631.1236    0.0371081  0.036613478           11 
 3664000   0.67248817   -5.2370454    1629.3904  0.037058552  0.036604255           22 
 3665000    0.6791158   -5.2447944    1628.0669  0.037018346  0.036595035           28 
 3666000   0.66369634   -5.2492466    1629.7445  0.037046382   0.03658578           18 
 3667000   0.65677914     -5.23315    1630.2282  0.037047273  0.036576538           10 
 3668000   0.68080164   -5.2257892    1627.7663  0.036981242   0.03656737           11 
 3669000   0.66377262   -5.2474396    1629.3172  0.037006386  0.036558224           12 
 3670000   0.67513751   -5.2442987    1630.6332  0.037026185  0.036549075           12 
 3671000    0.6647741   -5.2396401    1631.9718  0.037046486  0.036539912           10 
 3672000   0.65888881   -5.2450511    1628.2351  0.036951595  0.036530729           16 
 3673000   0.65339291   -5.2694608    1626.4277  0.036900529  0.036521519           18 
 3674000   0.67212952   -5.2586928     1632.476  0.037027673  0.036512324           14 
 3675000   0.66340206   -5.2567563     1632.123  0.037009591  0.036503108            6 
 3676000   0.65317633   -5.2153602    1631.0381  0.036974929  0.036493926            9 
 3677000    0.6540569   -5.2521055    1628.2534  0.036901763  0.036484754           17 
 3678000   0.65546618   -5.2443305    1628.5418  0.036898264  0.036475628            7 
 3679000   0.66176423   -5.2433573    1627.2776  0.036859599  0.036466509            6 
 3680000   0.65663275     -5.23588    1632.3602  0.036964678   0.03645736            7 
 3681000   0.66435628   -5.2390981    1628.9955  0.036878464  0.036448215            7 
 3682000   0.66508303   -5.2423888    1630.6396  0.036905658  0.036439051            6 
 3683000   0.65142241   -5.2411911    1632.0364  0.036927242  0.036429896           11 
 3684000   0.66386509    -5.235015    1624.2578  0.036741265  0.036420741           18 
 3685000      0.65604   -5.2719637    1627.6326  0.036807613  0.036411491           30 
 3686000    0.6802065   -5.2520324    1632.2545  0.036902118  0.036402322            9 
 3687000   0.65296612   -5.2410849    1627.2141  0.036778187  0.036393128           14 
 3688000   0.65667636   -5.2461465    1630.7536  0.036848193  0.036383954            8 
 3689000   0.66612989    -5.246178    1627.9143  0.036774065  0.036374772            4 
 3690000   0.66217257   -5.2737535    1623.5041  0.036664501  0.036365533            9 
 3691000   0.65152202   -5.2644638    1627.3216  0.036740758  0.036356322           14 
 3692000   0.66897034   -5.2553841    1631.3977  0.036822809    0.0363471            7 
 3693000   0.66352823   -5.2510022    1630.5784  0.036794349  0.036337911            3 
 3694000   0.65866321   -5.2495388    1630.0075   0.03677151  0.036328738           16 
 3695000   0.66904421   -5.2201085     1631.973  0.036805887  0.036319597            5 
 3696000   0.67502372   -5.2607655    1628.7054  0.036722254  0.036310404           12 
 3697000   0.66879103   -5.2582585    1627.5396  0.036686043  0.036301217           11 
 3698000   0.65862229   -5.2576358    1632.2137  0.036781452  0.036292052           19 
 3699000   0.65679625   -5.2574335    1631.1288  0.036747068  0.036282811            9 
 3700000   0.65021973   -5.2563965    1632.1956  0.036761163  0.036273552            8 
 3701000   0.66392097   -5.2599274    1628.7068  0.036672675  0.036264292           11 
 3702000   0.66680337   -5.2417716    1632.2092  0.036741607   0.03625507            6 
 3703000   0.66575449   -5.2628224    1629.2786  0.036665734  0.036245849            7 
 3704000   0.64959587    -5.241666     1629.957  0.036671098  0.036236632           20 
 3705000   0.64287094    -5.237543    1631.1392  0.036687791  0.036227489            4 
 3706000   0.65967228   -5.2606594    1633.3459  0.036727511  0.036218317           16 
 3707000   0.65210601   -5.2230218    1632.0271  0.036687957    0.0362091           23 
 3708000   0.65858385   -5.2701252    1631.3804  0.036663528  0.036199931            6 
 3709000    0.6722395   -5.2818213    1627.5558  0.036567713   0.03619071            7 
 3710000    0.6542381   -5.2596288    1631.7802  0.036652744  0.036181463           11 
 3711000   0.66345393   -5.2651466    1630.4912  0.036613922  0.036172228            7 
 3712000    0.6638544   -5.2504691    1634.5134  0.036694356  0.036163049           17 
 3713000   0.65759711   -5.2936974    1629.7399  0.036577338  0.036153858           17 
 3714000   0.67323828   -5.2461315    1630.2619  0.036579202  0.036144723            7 
 3715000   0.66128985   -5.2576084    1629.4173   0.03655041  0.036135569           13 
 3716000   0.65573508   -5.2593638     1630.628  0.036567725  0.036126416           10 
 3717000   0.67576164   -5.2406022    1635.9457  0.036677106  0.036117319            8 
 3718000   0.67384159   -5.2627068    1629.1571  0.036515087  0.036108179           15 
 3719000   0.65674267   -5.2592766    1632.1024  0.036571265  0.036099012           12 
 3720000   0.64671115    -5.237875    1633.6253  0.036595548   0.03608983           11 
 3721000   0.65060192   -5.2554747    1631.9449   0.03654808  0.036080709           14 
 3722000   0.64580751   -5.2483361    1632.3032  0.036546283  0.036071594           12 
 3723000   0.67096126   -5.2426729    1632.4722  0.036540249  0.036062459           11 
 3724000   0.66298634   -5.2619159    1630.5913  0.036488348  0.036053306            8 
 3725000   0.65406165   -5.2584512    1629.9353  0.036463878  0.036044103            9 
 3726000   0.63253801    -5.254692    1631.0621  0.036479293  0.036034943           11 
 3727000   0.65216686   -5.2480999    1633.4883  0.036523752  0.036025806            6 
 3728000   0.66307125   -5.2679635    1633.8351  0.036521708  0.036016662            6 
 3729000   0.64663375   -5.2664403    1629.4558  0.036414047  0.036007516           13 
 3730000   0.66490407   -5.2569252    1634.3278  0.036513133  0.035998375           11 
 3731000   0.67056344   -5.2520982    1637.1447  0.036566263  0.035989253           11 
 3732000   0.63908715   -5.2639808    1631.5315  0.036431124  0.035980119            7 
 3733000   0.65949293   -5.2689631     1632.184  0.036435931  0.035971015           13 
 3734000   0.64679192   -5.2725541     1633.929  0.036465118  0.035961832           14 
 3735000   0.65763816   -5.2706178    1630.7001  0.036383312  0.035952658           13 
 3736000   0.64364706   -5.2563885    1633.2419  0.036430271  0.035943561           17 
 3737000    0.6432552   -5.2462007    1635.1756  0.036463642  0.035934424           15 
 3738000   0.64965948    -5.265972     1634.796  0.036445425    0.0359253            6 
 3739000   0.65666306   -5.2725683    1633.9573  0.036416986   0.03591616            8 
 3740000   0.64838784   -5.2826461    1633.0533  0.036387105  0.035907046           15 
 3741000   0.65571342    -5.274253    1636.6526  0.036457557  0.035897913            8 
 3742000   0.66395021   -5.2868217    1633.3724  0.036374763    0.0358888           17 
 3743000     0.634932   -5.2558733    1628.3114  0.036252369  0.035879682           29 
 3744000   0.65915098   -5.2655241    1633.8979   0.03636703  0.035870607           18 
 3745000   0.67669085   -5.2648356    1634.2454  0.036365051  0.035861577            4 
 3746000   0.65124968   -5.2663241    1633.3575  0.036335591  0.035852545           24 
 3747000   0.63683183   -5.2640291    1635.6768  0.036377474  0.035843485           22 
 3748000   0.64262729    -5.250745    1637.1426   0.03640036   0.03583443           19 
 3749000   0.66602608   -5.2469608    1640.1231  0.036456902  0.035825406           10 
 3750000   0.66047187   -5.2507727    1638.9774   0.03642172  0.035816382            9 
 3751000   0.65145913   -5.2471029    1634.0109  0.036301674  0.035807329           11 
 3752000   0.65705851   -5.2700638     1629.006  0.036180838   0.03579825           11 
 3753000   0.65289785   -5.2813056    1633.8762  0.036279337  0.035789147           13 
 3754000   0.66205782   -5.2632519    1636.4221  0.036326187   0.03578008           16 
 3755000   0.64982501   -5.2868643    1631.0992  0.036198385  0.035770992           14 
 3756000   0.66695223   -5.2674475    1633.4889  0.036241766  0.035761903           19 
 3757000   0.64188804    -5.289497    1630.2193  0.036159597  0.035752813           16 
 3758000   0.63591314   -5.2813905    1635.4828  0.036266694  0.035743733           13 
 3759000   0.62749362   -5.2867649     1635.863  0.036265473  0.035734657            8 
 3760000   0.65635718   -5.2718178      1634.69  0.036229832  0.035725556           14 
 3761000   0.65378284    -5.273962    1632.9475  0.036181591  0.035716506           14 
 3762000   0.65645508   -5.2670516    1633.5981  0.036186384  0.035707493           13 
 3763000   0.65995156   -5.2724016    1633.2153  0.036168289  0.035698387           12 
 3764000   0.65145988   -5.2914317    1630.0386  0.036088351  0.035689294           11 
 3765000   0.66958186   -5.2644988    1637.6033    0.0362462  0.035680236            5 
 3766000   0.64427219   -5.3097602    1631.5497  0.036102622  0.035671149            7 
 3767000   0.65013743   -5.2981775    1635.2731  0.036175406  0.035662015           24 
 3768000   0.64822413   -5.2853636    1632.3785  0.036101789  0.035652897           11 
 3769000   0.64661983   -5.2830794    1635.6936  0.036165508    0.0356438           10 
 3770000   0.66444199   -5.2612154    1638.0279  0.036207513  0.035634773            8 
 3771000   0.64717798   -5.2787838    1634.9851  0.036130671  0.035625756           11 
 3772000     0.624908   -5.2842577    1634.0814  0.036101126  0.035616673           11 
 3773000   0.63754445   -5.2877193    1636.9176  0.036154201  0.035607634           10 
 3774000   0.65852336   -5.2756484    1634.4707  0.036090592    0.0355986           10 
 3775000   0.65681785   -5.2762881    1638.9382   0.03617965  0.035589574            9 
 3776000   0.64010239   -5.2882533    1640.7886  0.036210906   0.03558056           11 
 3777000   0.64740105   -5.2967881    1636.2431   0.03610103   0.03557147           13 
 3778000   0.64318926   -5.2875393    1635.6877  0.036079225  0.035562391            8 
 3779000   0.65665821   -5.2719643    1635.7218  0.036070429  0.035553294            9 
 3780000   0.64043154   -5.2913897    1636.9302  0.036087527  0.035544229            9 
 3781000   0.63330773   -5.3037199    1636.2563   0.03606313  0.035535195           19 
 3782000   0.63406628   -5.2962171    1637.3441  0.036077562  0.035526167            9 
 3783000   0.64951456   -5.2835658    1640.2511  0.036132063  0.035517145           11 
 3784000   0.65829442   -5.2699391    1636.7034  0.036044384   0.03550814           14 
 3785000   0.65925853   -5.3031715    1638.3159  0.036070362  0.035499165            8 
 3786000   0.64306482   -5.2820392    1632.7717  0.035938802  0.035490122           10 
 3787000   0.63977576   -5.2828238     1641.887  0.036129895  0.035481151           14 
 3788000   0.65481426   -5.2784145    1636.3729  0.035999052  0.035472157           13 
 3789000   0.63265938   -5.3107581    1630.6139   0.03586289  0.035463058            8 
 3790000   0.63803286   -5.2957619    1636.6954  0.035987146  0.035453946            8 
 3791000   0.66463371    -5.258327    1639.7098  0.036043916   0.03544491           10 
 3792000   0.64619433   -5.3006297    1635.0678  0.035932398  0.035435906            7 
 3793000   0.63461221   -5.3136678    1635.4617  0.035931577  0.035426801           14 
 3794000   0.65203315   -5.2804336    1633.7725  0.035885005  0.035417736            9 
 3795000   0.64132269   -5.2780938    1638.6567  0.035982799  0.035408759            9 
 3796000    0.6604819   -5.2765424    1640.4039  0.036011676  0.035399764           12 
 3797000   0.62950103   -5.2887409    1637.6718  0.035942232  0.035390796            8 
 3798000   0.64894699   -5.2970302      1638.45  0.035949841  0.035381772            6 
 3799000   0.63183264    -5.263813    1639.3543  0.035960215  0.035372784           10 
 3800000    0.6428426   -5.2935472    1642.5599   0.03602105  0.035363799           11 
 3801000   0.63902475    -5.276196    1643.1981  0.036025566  0.035354831            7 
 3802000   0.64765716   -5.2838899    1635.6219  0.035850033  0.035345888            8 
 3803000   0.64218709    -5.282547    1637.8358  0.035889119  0.035336975           31 
 3804000   0.64623202   -5.2680194    1638.7693  0.035900133  0.035328058           17 
 3805000   0.64618115   -5.2933634    1638.7091   0.03588938  0.035319159           18 
 3806000   0.63888001   -5.2922208     1640.293   0.03591463   0.03531019           10 
 3807000   0.64920598   -5.2837608    1643.6147  0.035977906  0.035301291            8 
 3808000   0.63500786   -5.2854945     1638.313  0.035852438  0.035292366            8 
 3809000   0.64321259   -5.2896043    1641.0094  0.035902018  0.035283406           22 
 3810000   0.64351844   -5.2887063    1640.7442  0.035886794  0.035274457           11 
 3811000   0.64732268   -5.2881214    1640.1283  0.035863909  0.035265546           12 
 3812000   0.64388955   -5.2990743    1640.6216  0.035865286  0.035256625            8 
 3813000   0.64521875   -5.2633632    1640.3676  0.035850329  0.035247723            7 
 3814000   0.62833084   -5.3177926    1638.8642   0.03580808  0.035238789           11 
 3815000   0.64989778    -5.298573    1634.8121  0.035710181  0.035229812            8 
 3816000   0.64484906   -5.2844204    1640.6553  0.035828427  0.035220881            9 
 3817000   0.63919072   -5.3123346    1639.4025  0.035791689  0.035211932           14 
 3818000   0.64240663   -5.2713993    1639.9443  0.035794139  0.035203005            6 
 3819000   0.63203276   -5.2795957    1643.5628  0.035863725  0.035194136            8 
 3820000   0.64883963   -5.2983206    1638.6653  0.035747498  0.035185254            7 
 3821000   0.64684635   -5.3012218    1640.6314  0.035781022   0.03517633            8 
 3822000    0.6432988   -5.2980998    1642.7459  0.035817764  0.035167421           11 
 3823000   0.64371344   -5.3133713    1642.2226  0.035796987  0.035158506            6 
 3824000   0.63945673    -5.304127    1639.5394  0.035729153  0.035149634            9 
 3825000   0.65512875   -5.2911847    1641.8347   0.03576982   0.03514072           14 
 3826000   0.62922174   -5.2775107    1643.1247  0.035788566  0.035131815           19 
 3827000    0.6430134   -5.3038132    1644.7034  0.035813592  0.035122899           10 
 3828000   0.63302898   -5.2838826     1640.033  0.035702565  0.035113958           15 
 3829000   0.65876392   -5.2821935    1642.6239  0.035749627  0.035105049            8 
 3830000   0.63821393    -5.320539    1638.3495   0.03564729  0.035096103           11 
 3831000    0.6402519   -5.3057662    1642.0305  0.035718058  0.035087176           20 
 3832000   0.62456962   -5.3045305    1636.9108  0.035597399  0.035078227           21 
 3833000   0.64247434   -5.2885845    1643.2324   0.03572555  0.035069299            6 
 3834000   0.63998125   -5.3236069    1639.4653  0.035634352   0.03506036           20 
 3835000   0.62783664     -5.31991    1640.4968  0.035647475  0.035051405           20 
 3836000   0.63635749   -5.2980404    1641.5084  0.035660159  0.035042451           10 
 3837000   0.64855212   -5.2996106    1643.8676  0.035702103  0.035033564           13 
 3838000   0.64734353   -5.3079292    1641.6614  0.035644897  0.035024678           11 
 3839000   0.63817861   -5.3026949    1639.4979  0.035588649  0.035015785            7 
 3840000   0.61774341   -5.3086076    1640.2429   0.03559555  0.035006897            9 
 3841000    0.6399488   -5.3150557    1642.4574  0.035634326   0.03499802           18 
 3842000   0.63831621   -5.3095886    1640.2323  0.035576788  0.034989101           22 
 3843000   0.63391994   -5.3189227     1640.177  0.035566332  0.034980191            9 
 3844000   0.63696783   -5.3132733    1640.3404  0.035560622  0.034971256           16 
 3845000    0.6317913    -5.317111    1637.3164  0.035485835  0.034962319           16 
 3846000    0.6418978   -5.3016626    1642.0871  0.035579976  0.034953381           10 
 3847000   0.63386074   -5.2863525    1643.0433  0.035591442  0.034944445           10 
 3848000   0.64246621   -5.2988477    1639.2747  0.035500579  0.034935514           11 
 3849000   0.65121832   -5.2801356     1645.454  0.035625141  0.034926651           10 
 3850000   0.64011482    -5.300732    1645.1243  0.035608752  0.034917817            8 
 3851000   0.63875158   -5.2972665    1645.5491  0.035608696  0.034908923           14 
 3852000   0.63471458   -5.2995214    1642.0828  0.035524464  0.034900037           20 
 3853000    0.6376128   -5.2878579     1640.983  0.035491457  0.034891174           26 
 3854000   0.63281981   -5.3184897    1639.8156  0.035457006  0.034882317            8 
 3855000    0.6375658   -5.3080878    1642.2165  0.035499707  0.034873412            8 
 3856000   0.63024024   -5.3246257    1641.1814  0.035468132  0.034864495           21 
 3857000   0.63942974   -5.3385145    1633.6635  0.035296506  0.034855519           13 
 3858000   0.62508235   -5.3241303    1642.2965  0.035473832  0.034846558           10 
 3859000   0.63045582   -5.3120119    1643.7431  0.035495879  0.034837618           22 
 3860000   0.64803272   -5.3031441    1637.7258  0.035356776  0.034828683           13 
 3861000   0.63965039   -5.3262968    1640.9689  0.035417615   0.03481974           18 
 3862000   0.63556258   -5.3233335    1641.1967  0.035413359  0.034810813            3 
 3863000    0.6465823   -5.3240625    1640.4987  0.035389134  0.034801906            7 
 3864000   0.62675206     -5.30199    1643.9998  0.035455481  0.034792983           10 
 3865000   0.62107143   -5.3162065    1641.1176  0.035384167   0.03478404            3 
 3866000   0.64153698    -5.311967    1641.0296  0.035373115  0.034775161           13 
 3867000   0.63861544   -5.3355158    1639.8444  0.035338427  0.034766257           14 
 3868000   0.63638003    -5.300829    1639.1116  0.035313504  0.034757394            8 
 3869000    0.6351013   -5.2970004    1642.3191  0.035373463  0.034748506           12 
 3870000   0.62212877   -5.3094171    1642.1797   0.03536132  0.034739645           10 
 3871000   0.64206911   -5.3096122    1639.6009  0.035296669  0.034730809            6 
 3872000   0.62149401   -5.3121993    1639.8252  0.035292382  0.034721943           16 
 3873000   0.62360163   -5.3193185    1640.0373  0.035287832  0.034713078            5 
 3874000   0.62101696   -5.3200449    1642.9856  0.035342144  0.034704154           10 
 3875000    0.6174485   -5.3208094    1639.7217  0.035262833  0.034695251           20 
 3876000   0.62880281   -5.3141085    1640.6345   0.03527336  0.034686303            9 
 3877000   0.63070017   -5.3342335    1643.0093  0.035315307  0.034677404            7 
 3878000   0.62611406   -5.3233213    1641.7273   0.03527865  0.034668517           17 
 3879000   0.63767997   -5.3282309     1639.681  0.035225595  0.034659621           15 
 3880000   0.62031512    -5.328957    1641.3863  0.035253143   0.03465071           12 
 3881000   0.63994352   -5.2973276    1645.4364  0.035331022  0.034641798           25 
 3882000   0.62580931   -5.3191645    1639.2517  0.035189157  0.034632913           23 
 3883000   0.62797864   -5.2871802     1643.828  0.035278307  0.034624031            6 
 3884000   0.62362557   -5.3148731    1641.7917  0.035225535  0.034615178            6 
 3885000   0.64164984   -5.2724917    1646.6426  0.035320519  0.034606304            4 
 3886000   0.61118608   -5.3261813    1645.3153  0.035282966  0.034597505           11 
 3887000   0.63290428   -5.3156425    1645.2456  0.035272396  0.034588635           10 
 3888000   0.62001689   -5.3194393     1640.108  0.035153207   0.03457978           19 
 3889000   0.63750189    -5.339315    1638.1968  0.035103214  0.034570861           13 
 3890000   0.63155009   -5.3203948    1643.5616  0.035209118  0.034561942            6 
 3891000   0.63002884   -5.3412483     1637.936  0.035079584  0.034553012           18 
 3892000   0.61885039   -5.3434333    1639.8735  0.035112056  0.034544061           11 
 3893000   0.62102386    -5.327952    1642.1253  0.035151239   0.03453515           30 
 3894000   0.62089274   -5.3408193    1640.9575  0.035117221  0.034526258           17 
 3895000   0.63854698   -5.3433194    1641.2866  0.035115247  0.034517357           13 
 3896000   0.63187238   -5.3118056    1640.0253  0.035079254  0.034508478            8 
 3897000   0.63212582   -5.3085893    1643.0307  0.035134521  0.034499604           10 
 3898000   0.61988994   -5.3270694    1646.6204  0.035202249  0.034490754           15 
 3899000   0.61119825   -5.3045662    1643.2245   0.03512064  0.034481913            8 
 3900000   0.61929795   -5.3267325    1643.0188  0.035107238  0.034473088           27 
 3901000   0.63067261   -5.3249287    1642.9759  0.035097322  0.034464219           33 
 3902000   0.63058378   -5.3254803    1642.8241  0.035085086  0.034455372            8 
 3903000   0.63547775    -5.318795    1640.3224  0.035022684  0.034446523            9 
 3904000   0.62719972   -5.3344325    1641.9084  0.035047566  0.034437661           14 
 3905000   0.62727032   -5.3169261     1646.518  0.035136961  0.034428799           13 
 3906000    0.6153594   -5.3146903    1640.9475   0.03500912  0.034419926            5 
 3907000   0.63227257   -5.3516019    1637.3624  0.034923693  0.034411021            9 
 3908000   0.62246682   -5.3325864    1640.8898  0.034989974  0.034402112           20 
 3909000   0.61975467    -5.314449    1641.8287  0.035001037  0.034393266           23 
 3910000   0.60266319   -5.3209436    1644.0676  0.035039805  0.034384463           10 
 3911000   0.62239575   -5.3258496    1640.5727  0.034956378  0.034375652           11 
 3912000   0.61939084   -5.3351534     1643.404  0.035007753  0.034366811            7 
 3913000   0.63688213    -5.306159    1646.2055   0.03505847  0.034357964            7 
 3914000   0.62181175   -5.3328326    1645.1421  0.035026871   0.03434912           11 
 3915000   0.63526712   -5.3253322    1646.1144   0.03503862  0.034340265           30 
 3916000   0.63108401   -5.3320675    1644.9818  0.035005572  0.034331384           14 
 3917000   0.63591951   -5.3202488    1645.8467  0.035015036  0.034322524           15 
 3918000     0.638176    -5.325703    1639.9714  0.034881134  0.034313669           41 
 3919000   0.61589903    -5.320045    1644.6588  0.034971907  0.034304841           17 
 3920000   0.63104674   -5.3268458    1644.3424  0.034956258  0.034296015           15 
 3921000   0.62640064   -5.3075948    1643.8039  0.034935899  0.034287244           17 
 3922000   0.60963203   -5.3255616    1646.9756  0.034994381  0.034278467           24 
 3923000   0.61733999   -5.3472672    1645.4997  0.034954109  0.034269658           16 
 3924000   0.61948036   -5.3148304     1647.304   0.03498352  0.034260858           14 
 3925000   0.62334439   -5.3214923    1646.5494  0.034958587  0.034252104            7 
 3926000   0.63854684   -5.3263475    1648.8057  0.034997574  0.034243361           19 
 3927000   0.62898571   -5.3261978    1643.6713  0.034879706  0.034234603            7 
 3928000   0.62006378   -5.3589298    1645.7257  0.034914411  0.034225784           10 
 3929000   0.61748162   -5.3406293    1642.9656  0.034846984  0.034216989            7 
 3930000   0.62883464   -5.3351203    1642.7332   0.03483319   0.03420817           10 
 3931000   0.63253544   -5.3473433    1641.5722  0.034799717  0.034199344           18 
 3932000   0.61632554   -5.3454718    1641.9076  0.034797973  0.034190533           16 
 3933000   0.63271256   -5.3359835    1644.2115  0.034837941  0.034181744           19 
 3934000    0.6113062   -5.3295115    1646.1693  0.034870559  0.034172987            8 
 3935000   0.62052159   -5.3387506    1649.0718  0.034923165  0.034164202            9 
 3936000   0.61246852   -5.3236668    1644.2894  0.034813037  0.034155437           12 
 3937000   0.60000555   -5.3309428    1645.5043  0.034829912  0.034146695            9 
 3938000   0.61586011    -5.306325     1649.155  0.034898319  0.034137943            9 
 3939000   0.62014812   -5.3307903    1644.9747  0.034801023  0.034129164           31 
 3940000   0.62401257   -5.3273647    1645.0374  0.034793516  0.034120359           12 
 3941000   0.62115327   -5.3329575      1642.74  0.034736108  0.034111573           20 
 3942000   0.63398857   -5.3471044    1641.6636  0.034704542  0.034102754           12 
 3943000    0.6143871   -5.3531913    1643.9259  0.034743551  0.034093979           22 
 3944000   0.61814522   -5.3512346    1643.8178  0.034732459  0.034085205           25 
 3945000   0.61942991   -5.3672239    1644.3461  0.034734813  0.034076419           17 
 3946000   0.62223968   -5.3325087    1645.7342  0.034755326  0.034067661            7 
 3947000   0.61609411   -5.3472785    1643.2846  0.034694802  0.034058891           14 
 3948000   0.62812422    -5.339067    1647.6533  0.034778228  0.034050148            7 
 3949000   0.63044996   -5.3617791    1643.7444  0.034686933  0.034041351           21 
 3950000    0.6205155    -5.354837     1643.119  0.034664957  0.034032523           30 
 3951000   0.61698162   -5.3505278    1648.5071  0.034769828  0.034023779           20 
 3952000   0.61271482   -5.3355759    1645.2558  0.034692472  0.034015049           11 
 3953000   0.62245051    -5.338619    1644.3097   0.03466375  0.034006332           22 
 3954000   0.61408296   -5.3453543    1645.7663  0.034685684  0.033997616           13 
 3955000   0.61801455   -5.3400304    1640.9674  0.034575798  0.033988876            6 
 3956000   0.60368356   -5.3473866    1645.7375  0.034667541  0.033980107           21 
 3957000   0.62713113   -5.3670968    1642.5075  0.034590757  0.033971352           12 
 3958000   0.61325318   -5.3308862    1646.0804  0.034657242  0.033962649           18 
 3959000   0.62600988   -5.3418655    1647.6186  0.034680867  0.033953935           11 
 3960000   0.61940774   -5.3408523    1649.4009  0.034709615  0.033945206           13 
 3961000   0.60841537   -5.3397325    1649.3409  0.034699589  0.033936469           12 
 3962000   0.63332532    -5.361738    1646.5127  0.034631347  0.033927743           15 
 3963000   0.60505805    -5.357654    1645.8809  0.034609322  0.033919046            7 
 3964000   0.62235075   -5.3478642    1642.4017  0.034527448  0.033910335            9 
 3965000   0.61777227   -5.3372344    1646.4999  0.034604874  0.033901669           14 
 3966000   0.62772814   -5.3547043    1649.5256  0.034659723  0.033893003           16 
 3967000   0.61239709   -5.3543594    1643.9512  0.034533889  0.033884275           22 
 3968000   0.63227579   -5.3312193    1647.7457  0.034604874  0.033875573           14 
 3969000   0.61341651   -5.3710835    1642.9639  0.034495756  0.033866814           15 
 3970000    0.6111409   -5.3641744    1646.2317   0.03455566  0.033858034           10 
 3971000   0.62608517    -5.356387    1649.3339  0.034612061  0.033849285           16 
 3972000   0.62218209   -5.3511242    1647.7333  0.034569766   0.03384061           14 
 3973000   0.61372471   -5.3386076    1646.7502  0.034540444  0.033831983           13 
 3974000   0.62309256   -5.3733499    1648.0918  0.034559885  0.033823316           15 
 3975000   0.62580494   -5.3506539    1649.0851  0.034572014  0.033814654           19 
 3976000   0.62225814   -5.3560631    1648.1951  0.034544666  0.033806009           13 
 3977000   0.61250589   -5.3427832    1654.1185  0.034660098  0.033797392           11 
 3978000   0.61915808   -5.3392826    1649.3455  0.034551398  0.033788787           30 
 3979000   0.62009532   -5.3596116    1651.1204  0.034579886  0.033780202            6 
 3980000   0.60104806   -5.3334846    1651.9313  0.034588176  0.033771609           32 
 3981000   0.61181739   -5.3433779    1646.8762   0.03447367  0.033762992           17 
 3982000   0.61735358    -5.356516    1651.5439  0.034562696  0.033754379            7 
 3983000   0.62004375   -5.3838837    1648.3304  0.034486784  0.033745717           18 
 3984000   0.59767778   -5.3391401    1647.9433  0.034470032  0.033737084           43 
 3985000    0.6095079    -5.351623     1650.011  0.034504622  0.033728485            9 
 3986000   0.61049549   -5.3492698     1650.695  0.034510265  0.033719896           24 
 3987000   0.60746395   -5.3683742    1650.5737  0.034499074  0.033711268           13 
 3988000   0.62378033   -5.3482406    1647.5773  0.034427811  0.033702614           26 
 3989000    0.6187687    -5.371324    1647.9409  0.034426776  0.033693968           22 
 3990000    0.6124053   -5.3670081    1648.5365  0.034430587   0.03368533           27 
 3991000   0.60552019    -5.349065    1649.4015  0.034440022  0.033676698           17 
 3992000   0.61425156   -5.3759878    1645.8324  0.034356888  0.033668054            8 
 3993000   0.61686561   -5.3638739    1649.6053  0.034427024  0.033659401           15 
 3994000   0.60152443   -5.3873266    1645.9282  0.034341683  0.033650763           13 
 3995000   0.60337536    -5.358671    1651.2982  0.034445103  0.033642106           14 
 3996000   0.60880044   -5.3658809    1650.5874   0.03442166   0.03363348           10 
 3997000   0.61353029    -5.368148     1647.555  0.034349824  0.033624832           13 
 3998000   0.60657683   -5.3439835    1646.3225  0.034315543  0.033616209           10 
 3999000   0.61666007   -5.3688838    1648.8334  0.034359286  0.033607564           18 
 4000000   0.61343082   -5.3784969    1646.4637  0.034301326  0.033598942           29 
 4001000   0.61977618     -5.35921    1646.8678   0.03430117  0.033590314           17 
 4002000   0.60547533   -5.3712326    1648.9802  0.034336586  0.033581697           19 
 4003000   0.61399516   -5.3517654    1649.9718  0.034348651  0.033573075           35 
 4004000   0.60484248   -5.3569209    1651.0476  0.034362463   0.03356446           18 
 4005000   0.61608603   -5.3377957    1650.2467  0.034337219  0.033555876            9 
 4006000   0.60391719   -5.3552557    1651.4243  0.034353143  0.033547285           19 
 4007000   0.61655871   -5.3632571    1647.4715  0.034262364  0.033538733           12 
 4008000   0.60941318   -5.3520544    1651.5465  0.034338543  0.033530122            9 
 4009000   0.61232926   -5.3790494    1648.5863  0.034268445  0.033521543           15 
 4010000   0.61740509   -5.3581904    1651.2873  0.034316029   0.03351293           14 
 4011000   0.60412931   -5.3783074    1653.8011  0.034359701  0.033504317            7 
 4012000   0.60226078   -5.3617529     1647.253  0.034215126  0.033495694            5 
 4013000   0.61768114    -5.381101    1651.3343  0.034291351  0.033487065           10 
 4014000   0.59963333   -5.3435234    1653.4754   0.03432726   0.03347847            8 
 4015000   0.61021032   -5.3589481     1650.884  0.034264924    0.0334699            8 
 4016000   0.61783424   -5.3567518     1649.019  0.034217691  0.033461263           18 
 4017000   0.60689401   -5.3733359    1648.0111  0.034188265  0.033452642            5 
 4018000    0.6008137   -5.3660282    1649.0212  0.034200705  0.033444044           16 
 4019000    0.6080552   -5.3551238    1649.5065  0.034202259  0.033435441            8 
 4020000   0.60055741   -5.3694494    1646.1316  0.034123789   0.03342684            7 
 4021000   0.60799119   -5.3756732    1646.6339  0.034125712    0.0334182           17 
 4022000   0.61094141   -5.3842869     1650.753  0.034202574  0.033409579            7 
 4023000   0.60118306   -5.3626656    1650.2404  0.034183453  0.033400991           19 
 4024000   0.61634662   -5.3774748    1647.3303  0.034114693  0.033392372           13 
 4025000   0.62138385   -5.3534754    1654.3579  0.034251717  0.033383798            9 
 4026000   0.60985249   -5.3405264    1650.0647  0.034154345   0.03337519           14 
 4027000   0.60318015   -5.3549906    1655.1896  0.034251915  0.033366618           18 
 4028000    0.6057263   -5.3956666     1648.688  0.034108905  0.033358006           21 
 4029000   0.61952916    -5.372914    1645.8722  0.034042197  0.033349404           12 
 4030000   0.61518059   -5.3640404    1648.5368  0.034088851  0.033340805            8 
 4031000   0.59955124   -5.3458706    1652.3249  0.034158705  0.033332216           26 
 4032000   0.60028878   -5.3545869     1647.556   0.03405167  0.033323625           36 
 4033000   0.61578031   -5.3677125    1651.6295  0.034127398  0.033315057           21 
 4034000    0.6010431   -5.3544016     1651.455  0.034115333  0.033306471           17 
 4035000   0.60372525     -5.35267    1649.5655  0.034067855  0.033297865           18 
 4036000   0.59724995   -5.3461528    1649.2938  0.034053804  0.033289243           16 
 4037000   0.60360033   -5.3822366    1652.5872  0.034113352   0.03328065           20 
 4038000   0.61294625   -5.3712231    1646.2301   0.03397371  0.033272074           13 
 4039000   0.60455855   -5.3868584    1650.0275  0.034043647  0.033263502           10 
 4040000   0.60820822   -5.3613276    1650.3878  0.034042653  0.033254879           17 
 4041000   0.60349938   -5.3699286    1652.7395  0.034082724  0.033246273           11 
 4042000   0.60313086   -5.3916908    1646.8653  0.033953185   0.03323769            9 
 4043000   0.60511161   -5.3611038    1650.9302  0.034028572  0.033229082           12 
 4044000   0.60497244   -5.3923474    1647.5173  0.033949828  0.033220474           11 
 4045000   0.59587407    -5.354041    1649.5774  0.033983877  0.033211874           28 
 4046000   0.60159058   -5.3873834     1651.196  0.034008816  0.033203273           12 
 4047000   0.60364286   -5.3742094    1650.9751  0.033995863  0.033194651           13 
 4048000   0.59231566   -5.4071374    1645.4225  0.033873157  0.033186018           14 
 4049000   0.60097484   -5.3895528    1643.1535  0.033818093  0.033177377           19 
 4050000   0.59628336   -5.3874839    1642.7676  0.033801802  0.033168734           14 
 4051000   0.59834577    -5.406729     1646.334  0.033866823  0.033160108           14 
 4052000   0.59422501   -5.3812363     1648.992   0.03391313  0.033151475           34 
 4053000    0.6117527    -5.371476    1649.5054  0.033915318  0.033142898           15 
 4054000   0.60328681   -5.3917218     1649.976  0.033916625  0.033134306           15 
 4055000   0.59363304    -5.400135     1648.962  0.033887422   0.03312569            5 
 4056000   0.61062169   -5.3648029    1650.8418   0.03391769  0.033117068           14 
 4057000   0.60681979   -5.3632081    1650.0974   0.03389404  0.033108485           13 
 4058000   0.60399459   -5.3897661    1650.3817  0.033891525  0.033099934           17 
 4059000   0.60730576   -5.3870109    1650.0718  0.033876813  0.033091313           27 
 4060000   0.61510554    -5.373348    1648.1916  0.033829877  0.033082681           11 
 4061000   0.61547167   -5.3685578    1648.7712   0.03383344  0.033074083           11 
 4062000    0.5930867   -5.3858182    1648.5957   0.03382151  0.033065489            8 
 4063000   0.59382878   -5.3807421    1651.2348  0.033867314   0.03305689           16 
 4064000   0.60197507    -5.399437    1648.2486  0.033797748  0.033048295           14 
 4065000   0.61718137   -5.3755887    1647.7715  0.033779654  0.033039693           19 
 4066000   0.61087974   -5.4015441     1652.019  0.033858398  0.033031158            8 
 4067000   0.60671331    -5.366213    1657.0413  0.033952982  0.033022636           10 
 4068000   0.61640632   -5.4084488    1644.4962  0.033687646  0.033014051           25 
 4069000   0.61221491   -5.3837167    1648.7334  0.033766147  0.033005457           50 
 4070000   0.59374336   -5.3763814    1651.0849  0.033805997  0.032996869           36 
 4071000   0.60442447   -5.3953164    1647.7425  0.033729273  0.032988299           18 
 4072000   0.61192789   -5.4081145    1648.0076  0.033726416  0.032979695           21 
 4073000   0.60538664   -5.3837226    1651.9878  0.033799571  0.032971105           19 
 4074000   0.60106575   -5.3984634     1648.568  0.033721322  0.032962518           10 
 4075000    0.6062845   -5.3668054    1652.8192  0.033799984  0.032953968           11 
 4076000   0.59866906    -5.393539    1649.4741  0.033723301   0.03294541            9 
 4077000   0.58802466   -5.4032856    1649.3975  0.033713465  0.032936819           11 
 4078000   0.60603483   -5.3791288    1650.8604  0.033735091  0.032928263           14 
 4079000   0.59141513   -5.3955952    1650.9208  0.033728054  0.032919702           11 
 4080000   0.58476278   -5.3945075    1649.9381  0.033699716  0.032911153           18 
 4081000   0.59470282   -5.3841552    1650.6431  0.033705853  0.032902606           23 
 4082000   0.61129791    -5.369815    1652.8404  0.033742455  0.032894057           28 
 4083000   0.60655237   -5.3907297    1649.9937   0.03367609  0.032885478           10 
 4084000   0.59170376   -5.4149129    1649.4782  0.033657325    0.0328769           20 
 4085000   0.61084302   -5.3955059    1650.7609  0.033675253  0.032868319            9 
 4086000   0.60150942   -5.3892782    1654.2182  0.033737522  0.032859766           12 
 4087000   0.60238226   -5.3689315    1654.0467  0.033725772  0.032851258           10 
 4088000   0.57768196   -5.3862305    1649.0093  0.033614835  0.032842726           32 
 4089000   0.59139652    -5.378943     1652.261  0.033672883   0.03283421           18 
 4090000   0.60303964   -5.3868589    1649.6218  0.033610876  0.032825705           14 
 4091000   0.59764642   -5.3886614    1647.3957  0.033557315  0.032817184           13 
 4092000   0.58788819    -5.384661    1650.1444  0.033605092  0.032808619            8 
 4093000   0.60218792   -5.4009014    1651.4372  0.033623203  0.032800063           28 
 4094000   0.58903332   -5.3854683    1650.4211  0.033594307  0.032791515           22 
 4095000    0.5941871   -5.3988707    1649.6114  0.033569626  0.032782946           13 
 4096000   0.59623421   -5.4180159    1647.3687  0.033515803  0.032774363            7 
 4097000   0.58317897   -5.4154026    1650.3556  0.033568375  0.032765736           18 
 4098000   0.59325085   -5.3810619     1653.629  0.033626748  0.032757195           13 
 4099000   0.60399698   -5.3911481    1649.4577  0.033533743  0.032748668           12 
 4100000   0.59377517   -5.3901429    1650.3575  0.033543853  0.032740131           10 
 4101000   0.59153197   -5.4099866    1649.0863  0.033509842  0.032731532            7 
 4102000   0.58681608   -5.3757503    1653.4753  0.033590837  0.032722978            9 
 4103000   0.59317338   -5.3979474    1656.4976  0.033644033  0.032714424            6 
 4104000   0.58412354   -5.3910567    1648.1675  0.033466689  0.032705904           11 
 4105000   0.58744099   -5.4116791    1650.5786  0.033507482  0.032697329           21 
 4106000   0.58776036   -5.3920939    1648.4886  0.033456905  0.032688748           11 
 4107000   0.60494735   -5.4190676    1647.9782  0.033438402  0.032680221           21 
 4108000    0.5975827    -5.412695    1647.5579  0.033421736  0.032671687           13 
 4109000   0.59158215   -5.3901554    1653.4516  0.033533131  0.032663204           36 
 4110000   0.60526876   -5.3853207    1646.8346  0.033390807  0.032654648           17 
 4111000   0.58856946   -5.3812171    1652.7737  0.033503075  0.032646117           11 
 4112000    0.5896997   -5.3895089    1650.6706  0.033452306  0.032637589           11 
 4113000   0.58678361   -5.3802176    1654.6453  0.033524705   0.03262909           12 
 4114000   0.59291785   -5.3887401    1649.8128  0.033418668    0.0326206           21 
 4115000   0.58782417   -5.3889031    1651.2528  0.033439709  0.032612082           13 
 4116000    0.5920899   -5.3815627    1655.8541  0.033524742  0.032603557           14 
 4117000   0.59547458   -5.4128523    1651.9415  0.033437404  0.032595035           12 
 4118000   0.58603881   -5.4083498    1650.6321  0.033402787  0.032586518           10 
 4119000   0.59408131   -5.4019974    1646.3625  0.033308297  0.032577988           12 
 4120000   0.60295935   -5.4329684    1645.3136  0.033278997  0.032569492            9 
 4121000   0.58575834   -5.4033789    1651.0009  0.033385928  0.032560977            6 
 4122000   0.59056277   -5.3904577    1650.6661   0.03337106  0.032552449            6 
 4123000   0.58676798   -5.4117531    1649.4151  0.033337682  0.032543921            9 
 4124000   0.60038224    -5.384593    1651.6981   0.03337573  0.032535411           18 
 4125000   0.60609448   -5.4005541    1652.0866  0.033375486  0.032526904            6 
 4126000   0.59446778   -5.4265301    1647.9129  0.033283102  0.032518406            7 
 4127000   0.58679917   -5.3805589    1647.8493  0.033273752  0.032509883            7 
 4128000   0.59596963   -5.4080149    1651.5494  0.033340387  0.032501357           11 
 4129000   0.58212203     -5.43601    1645.5469  0.033211168  0.032492821           12 
 4130000   0.57390204   -5.4085161     1648.422  0.033261138  0.032484264           15 
 4131000   0.59614972   -5.4059615    1650.3033  0.033291037  0.032475713           18 
 4132000   0.60435884   -5.4129423     1651.311  0.033303304  0.032467188           18 
 4133000   0.58567372   -5.4002696    1652.0182  0.033309506  0.032458675           34 
 4134000   0.57867533   -5.4162204    1652.7783   0.03331677  0.032450155           40 
 4135000   0.59003997   -5.4297778    1649.5212  0.033243071  0.032441602           15 
 4136000   0.59416984   -5.3967792    1649.2552  0.033229675  0.032433087            8 
 4137000   0.59425049   -5.4061894    1651.3974  0.033264794  0.032424569           15 
 4138000   0.59316699   -5.4023233    1649.9065   0.03322673   0.03241609           12 
 4139000   0.59072497   -5.4209866    1648.7781  0.033195982  0.032407563           23 
 4140000   0.58722604   -5.4050095    1654.7794  0.033308765  0.032399054           10 
 4141000   0.58844505   -5.4267729    1652.4003  0.033252843  0.032390548           13 
 4142000   0.59746903   -5.4167907    1648.3265  0.033162855  0.032382027           13 
 4143000    0.5762654   -5.4099307    1648.9946  0.033168287  0.032373517           18 
 4144000   0.59064407   -5.4097386    1648.6885  0.033154128  0.032364994           14 
 4145000   0.59659488   -5.4381379     1652.542  0.033223602  0.032356479           19 
 4146000   0.58975505   -5.4230749    1648.0353  0.033125006  0.032347949            8 
 4147000   0.58576562     -5.42195    1653.9086  0.033235042   0.03233944            8 
 4148000   0.58710983   -5.4471058    1651.5019  0.033178678   0.03233095           14 
 4149000   0.59851058   -5.3967139    1650.5299  0.033151158  0.032322465           17 
 4150000   0.57912665   -5.4015461    1653.2079  0.033196945  0.032314028           34 
 4151000   0.59641612   -5.4121288    1653.1008  0.033186799  0.032305599           14 
 4152000   0.59175158   -5.4013222    1652.5215  0.033167178  0.032297127           10 
 4153000   0.60387278   -5.3994356    1654.4824  0.033198539  0.032288746           69 
 4154000   0.57977883   -5.4093685    1653.9905   0.03318068  0.032280329           21 
 4155000    0.5707021   -5.4007323    1654.8774  0.033190481  0.032271951           13 
 4156000   0.59136281   -5.4005808    1654.4423  0.033173771  0.032263592           11 
 4157000   0.57461002   -5.4087622    1653.9188  0.033155297  0.032255215           17 
 4158000   0.58793599   -5.4002906    1652.4391  0.033117667  0.032246826            8 
 4159000   0.59158628   -5.3928768    1655.2355  0.033165735  0.032238419           11 
 4160000    0.5799272    -5.409936    1649.5814    0.0330445  0.032230013           25 
 4161000   0.59508389   -5.4018906    1652.6655  0.033098324   0.03222158           26 
 4162000   0.58733783   -5.4250072    1648.7241  0.033011455  0.032213128           14 
 4163000   0.58982005   -5.4266694    1650.7219  0.033043516  0.032204691           12 
 4164000    0.5733389    -5.397855    1654.8825  0.033118847  0.032196258            9 
 4165000   0.58282932   -5.4102048    1659.6139  0.033205561  0.032187837           42 
 4166000   0.56455038   -5.4078469    1654.6332   0.03309796  0.032179448           11 
 4167000   0.58817539   -5.4129095    1652.2441  0.033042238  0.032171019           15 
 4168000   0.59093287   -5.4177316    1653.6726  0.033062872  0.032162601           26 
 4169000   0.59005975   -5.4161403    1650.1703  0.032984935  0.032154152           29 
 4170000   0.58783617   -5.4175099    1651.4061   0.03300172   0.03214569           20 
 4171000   0.58658828   -5.4224687    1650.9386  0.032984469  0.032137238           19 
 4172000   0.58913451   -5.4220355    1653.2541  0.033022813   0.03212881           12 
 4173000   0.59186542    -5.420619     1649.723  0.032944384  0.032120386           17 
 4174000   0.59768229   -5.4329584    1653.7898  0.033017685  0.032111955           12 
 4175000   0.58002136   -5.4466822    1652.7503  0.032989027  0.032103522           28 
 4176000   0.57330824   -5.4465691    1656.0339  0.033046654  0.032095071           22 
 4177000   0.58331131   -5.4040482    1652.4575  0.032967392  0.032086674           17 
 4178000   0.57320364   -5.4333682    1654.2828  0.032995907  0.032078273           15 
 4179000   0.59164583   -5.4471963    1654.1016  0.032984399  0.032069881           22 
 4180000   0.59090203   -5.4345898    1655.2363  0.032999129  0.032061493           18 
 4181000   0.57750684   -5.3984612     1654.175  0.032970084  0.032053136           25 
 4182000   0.58535885   -5.4209783    1654.7691  0.032974037  0.032044819           26 
 4183000   0.58160669   -5.4213283    1653.8893  0.032948627  0.032036457           32 
 4184000   0.57775916   -5.4219186    1654.0356  0.032943667  0.032028091           14 
 4185000   0.57884891   -5.3989938    1656.6117  0.032987091  0.032019735           38 
 4186000   0.58414978   -5.4214614    1652.8506  0.032904335  0.032011402           10 
 4187000   0.59374266   -5.4371073    1652.6564  0.032892611  0.032002999            6 
 4188000   0.58504049   -5.4618658    1654.2901  0.032917266  0.031994569           22 
 4189000   0.57256041   -5.4178908    1651.6815  0.032857513  0.031986162           10 
 4190000   0.58366213   -5.4563829    1652.3552   0.03286307  0.031977757           14 
 4191000   0.59531328   -5.4541725    1649.2417  0.032793322  0.031969342            8 
 4192000   0.58264433    -5.464017    1648.1383  0.032763563  0.031960921           10 
 4193000   0.58453473   -5.4327353    1654.0691  0.032873621  0.031952474            8 
 4194000   0.58382931   -5.4319375    1650.4394  0.032793661  0.031944043           15 
 4195000   0.58154197   -5.4284064    1652.4811  0.032826402  0.031935637           23 
 4196000   0.58740524   -5.4450879    1651.0432  0.032790022  0.031927239           34 
 4197000   0.58783153    -5.431241    1652.1564  0.032804313  0.031918831           12 
 4198000   0.59018833   -5.4197206    1649.0212  0.032734262  0.031910432           14 
 4199000   0.58507139   -5.4437318    1651.2227  0.032770157  0.031902016           16 
 4200000   0.58378378   -5.4399522    1650.7289  0.032752557  0.031893592           10 
 4201000   0.57844502    -5.434879    1651.5642   0.03276133   0.03188516           14 
 4202000   0.57235673   -5.4194753    1652.3004  0.032768133  0.031876753            9 
 4203000   0.57563161   -5.4098797    1656.6365   0.03284631  0.031868352           18 
 4204000   0.57723649    -5.422607    1650.7362  0.032721539  0.031859979           12 
 4205000   0.58285137   -5.4519786     1648.927  0.032677903  0.031851595           34 
 4206000   0.58267823   -5.4267284    1652.1397  0.032733787  0.031843178           23 
 4207000   0.57179257   -5.4197041    1654.5652  0.032774052  0.031834765           20 
 4208000   0.58075326   -5.4128759    1648.2718   0.03264163  0.031826349           18 
 4209000   0.58635238   -5.4165574    1653.3687  0.032734788  0.031817932           24 
 4210000   0.57804393   -5.4566924    1652.8014  0.032715783  0.031809488           19 
 4211000   0.56973009   -5.4195334     1650.417  0.032660829  0.031801065            7 
 4212000   0.57928581   -5.4412654    1650.6824  0.032658325   0.03179267           19 
 4213000   0.56699893   -5.4281944    1651.8085  0.032672848  0.031784262           11 
 4214000   0.56189963   -5.4463956    1647.9559  0.032588908  0.031775863           33 
 4215000   0.58245301   -5.4406206    1652.8132  0.032677208   0.03176746           22 
 4216000   0.58049265   -5.4369146    1648.1609  0.032577501  0.031759086           56 
 4217000   0.57564521   -5.4389289    1653.8942  0.032683072  0.031750709           36 
 4218000   0.57552043   -5.4484361    1652.7635  0.032652986  0.031742344           31 
 4219000   0.58289099   -5.4529984    1649.9196  0.032589074  0.031733963           17 
 4220000   0.56873307   -5.4413115    1650.6326  0.032595431  0.031725583           11 
 4221000   0.57022256   -5.4452417    1648.9353    0.0325542  0.031717222           43 
 4222000   0.56930767   -5.4379362    1653.2675  0.032631997  0.031708863           11 
 4223000   0.57577772    -5.441764    1654.9717  0.032657899  0.031700505           17 
 4224000   0.58110878   -5.4511825    1655.1263  0.032653218  0.031692149           30 
 4225000   0.57436321   -5.4215301    1651.9561  0.032582961  0.031683792           23 
 4226000   0.57318086   -5.4374495    1651.2498  0.032561323  0.031675444           17 
 4227000   0.58210821   -5.4568604    1654.4672   0.03261705  0.031667061           27 
 4228000   0.58361456   -5.4372088    1654.3137   0.03260631   0.03165872           13 
 4229000   0.57353413   -5.4576882    1652.3043  0.032559004  0.031650333           13 
 4230000   0.58058714   -5.4419828    1653.5212   0.03257528  0.031641969           15 
 4231000   0.57190836   -5.4491619    1651.4857   0.03252749  0.031633606           15 
 4232000   0.58553989   -5.4561683    1654.1911  0.032573077  0.031625256           21 
 4233000   0.58084042   -5.4560931    1651.4642  0.032511698  0.031616942           15 
 4234000   0.57812634   -5.4395084    1650.7895  0.032490739  0.031608629           25 
 4235000   0.57606879   -5.4461998    1654.8922  0.032563797   0.03160029           26 
 4236000   0.57258385   -5.4305889    1655.7483  0.032572951  0.031591961           18 
 4237000   0.56859895   -5.4520377    1653.3377  0.032517853  0.031583644           11 
 4238000   0.58126192   -5.4540412    1658.1391  0.032604591  0.031575345           11 
 4239000   0.57557022    -5.439396    1652.0746   0.03247768  0.031567091           14 
 4240000   0.58195162   -5.4650622    1651.2352  0.032453523  0.031558783           18 
 4241000   0.58201435   -5.4571676    1656.6128  0.032551536  0.031550442           16 
 4242000   0.57119322   -5.4712776    1653.0693  0.032474251  0.031542129           13 
 4243000    0.5681325   -5.4617501    1649.4887  0.032396274  0.031533763           30 
 4244000   0.57398467   -5.4306189     1652.564  0.032449027  0.031525397           15 
 4245000   0.57157878   -5.4526332    1652.6285  0.032442649  0.031517058           22 
 4246000   0.58665846    -5.467872    1646.9703  0.032323957  0.031508714           35 
 4247000    0.5734494   -5.4670901    1650.0132  0.032376053  0.031500357           25 
 4248000   0.58428803   -5.4585394    1650.7874   0.03238362  0.031491959           18 
 4249000   0.57088019   -5.4480271    1652.5915  0.032411381  0.031483567           46 
 4250000   0.57283485    -5.473712    1655.2309  0.032455509  0.031475179           29 
 4251000   0.56662995   -5.4713032    1651.1483   0.03236784  0.031466823           12 
 4252000   0.56980596   -5.4546369    1652.8534  0.032393645  0.031458469           16 
 4253000   0.56540873   -5.4739592    1650.1793  0.032333632  0.031450119           17 
 4254000   0.55027963   -5.4590705    1650.1582  0.032325618  0.031441776           27 
 4255000   0.56957986   -5.4529303    1652.5011  0.032363907  0.031433416           32 
 4256000   0.56809956   -5.4766062    1649.4334  0.032296237  0.031425049           11 
 4257000   0.56990349   -5.4563399    1650.9857  0.032319037  0.031416685           10 
 4258000   0.58120128   -5.4723175    1649.8186  0.032288606  0.031408341           17 
 4259000   0.57121028   -5.4721555    1654.2548  0.032367826  0.031399999            9 
 4260000   0.55309757   -5.4571137    1653.9484  0.032354233  0.031391672           26 
 4261000   0.57775066   -5.4655824     1651.388  0.032296565  0.031383344           13 
 4262000    0.5682704   -5.4563295    1655.5298  0.032369971  0.031375013           12 
 4263000   0.56460398   -5.4647415    1654.4009  0.032340311  0.031366709            9 
 4264000   0.57037205   -5.4649686    1651.4046  0.032274167  0.031358395           25 
 4265000   0.57052664   -5.4598415    1653.0489  0.032298728  0.031350064           15 
 4266000   0.57132264   -5.4627215    1652.7351  0.032285027  0.031341726           14 
 4267000   0.56519908   -5.4786408    1653.0926  0.032284443  0.031333399           16 
 4268000   0.55780052   -5.4502124     1649.474  0.032206225  0.031325037           23 
 4269000   0.57741799   -5.4383759    1655.7888  0.032321948  0.031316729           18 
 4270000   0.56526962   -5.4388147    1654.7811  0.032294713  0.031308486           19 
 4271000   0.57717104   -5.4498575    1650.5762  0.032205109   0.03130022           14 
 4272000   0.56507498   -5.4658264    1650.9206  0.032204287  0.031291922           15 
 4273000   0.56294704   -5.4596469    1654.9472  0.032275278  0.031283614           18 
 4274000   0.57187772   -5.4565001    1652.3675  0.032217429  0.031275305           10 
 4275000   0.56983383   -5.4607515    1650.1305  0.032166286  0.031266978           29 
 4276000   0.56303392   -5.4736253    1652.2884  0.032200819  0.031258635           13 
 4277000   0.56901319   -5.4520026    1655.6999   0.03225976  0.031250328           10 
 4278000   0.57220394   -5.4558647    1653.2818  0.032205115  0.031242012           13 
 4279000   0.57082322   -5.4601328    1652.9036  0.032190224  0.031233698           37 
 4280000    0.5664011   -5.4627139    1647.0422  0.032068578  0.031225362           30 
 4281000   0.58467444   -5.4343511    1651.9151  0.032155943   0.03121703           18 
 4282000   0.56558163    -5.464844    1648.0004  0.032072249  0.031208712           19 
 4283000   0.56097281    -5.465964    1650.8383  0.032119976  0.031200375           17 
 4284000   0.57184408   -5.4618975    1653.8825  0.032171695  0.031192068            6 
 4285000   0.57110824    -5.465667    1649.6637  0.032082142  0.031183766           31 
 4286000   0.57188091   -5.4825438      1647.68  0.032036086  0.031175431           49 
 4287000   0.57673617   -5.4738346    1649.1861   0.03205789  0.031167124           34 
 4288000   0.57178824   -5.4697525    1649.2745  0.032052132  0.031158811           30 
 4289000   0.55895976   -5.4867465    1650.8841  0.032075933  0.031150487           54 
 4290000   0.56833437   -5.4850705    1650.2711  0.032056547  0.031142128           60 
 4291000    0.5812751   -5.4862028     1649.505  0.032034199  0.031133798           33 
 4292000   0.55945693   -5.4743728    1647.3359  0.031984621  0.031125455           17 
 4293000   0.57006521   -5.4768869    1649.5184  0.032019536  0.031117127           88 
 4294000   0.56698244   -5.4750328    1652.1869  0.032063866  0.031108803           65 
 4295000    0.5607573   -5.4648858    1651.7161  0.032047266  0.031100488           36 
 4296000   0.57156842   -5.4536454     1651.689  0.032039282  0.031092192           28 
 4297000   0.57376772   -5.4661346    1651.8869  0.032035663  0.031083884           52 
 4298000    0.5597755    -5.484721    1650.5193  0.032001693  0.031075591           40 
 4299000   0.56395129    -5.476417    1651.5615   0.03201445  0.031067305           76 
 4300000   0.57272975   -5.4586223    1651.8534  0.032012663  0.031059035           30 
 4301000   0.57381696   -5.4711372    1652.1682  0.032011319  0.031050815           62 
 4302000   0.56119159   -5.4579562    1653.3703  0.032027163  0.031042557           59 
 4303000    0.5638628   -5.4783688    1651.1454  0.031976633   0.03103429           26 
 4304000    0.5692364   -5.4557421    1652.1493  0.031988641  0.031026016           45 
 4305000   0.55768148   -5.4640511    1652.7611  0.031993052  0.031017756           23 
 4306000   0.55023379   -5.4664572    1654.4546  0.032018397  0.031009479           29 
 4307000   0.55518023    -5.481569    1648.6807  0.031899247  0.031001213            8 
 4308000   0.56015772   -5.4810319    1647.1595  0.031862417  0.030992948           27 
 4309000     0.567963   -5.4599351    1655.9994  0.032025981  0.030984693           21 
 4310000   0.56812023   -5.4549857    1652.5037   0.03195096  0.030976447           21 
 4311000   0.56203077   -5.4790296    1653.1005  0.031955087  0.030968198           25 
 4312000   0.57701421    -5.444162    1652.5794  0.031937605  0.030959952           35 
 4313000   0.55161493   -5.4696615    1652.9525  0.031937408  0.030951728           14 
 4314000    0.5652927   -5.4663301    1652.0262  0.031912112  0.030943449           17 
 4315000   0.55896652   -5.4823013    1650.9776  0.031884464  0.030935178           13 
 4316000   0.55680153   -5.4360819    1654.4065  0.031943282  0.030926915           22 
 4317000   0.57080794    -5.481874    1650.4673  0.031859843  0.030918629           28 
 4318000   0.55870779   -5.4592915     1653.369  0.031908464  0.030910361           40 
 4319000   0.55327977   -5.4682651    1651.0329  0.031856003   0.03090209           43 
 4320000   0.56211146   -5.4805859    1652.9042  0.031884726  0.030893849           19 
 4321000   0.57414378   -5.4662299    1651.8194  0.031856426  0.030885588           16 
 4322000   0.55264321   -5.4585816    1653.2442  0.031876528  0.030877338           12 
 4323000   0.55247717   -5.4769503    1652.1586  0.031848226  0.030869101           16 
 4324000   0.56632087   -5.4838765    1654.5705  0.031887345   0.03086086           25 
 4325000    0.5614149    -5.488725    1650.8465  0.031808218  0.030852627           15 
 4326000   0.55886287   -5.4907457    1650.7192  0.031798412  0.030844379           20 
 4327000    0.5443262    -5.485671    1644.8738  0.031678487  0.030836098           14 
 4328000   0.55606948   -5.4768726    1651.0989  0.031791029  0.030827821           17 
 4329000   0.56308589   -5.4738294    1649.5185  0.031753263  0.030819549           12 
 4330000   0.55048952   -5.4614109    1651.1694  0.031777702  0.030811327           17 
 4331000   0.56506297   -5.4789092    1644.9797  0.031651268  0.030803076           24 
 4332000   0.54505778    -5.478328    1648.2907  0.031707655  0.030794823           20 
 4333000   0.56938462   -5.4817718    1650.5973  0.031744697  0.030786552           16 
 4334000   0.56431227   -5.4666449    1649.0263  0.031707165  0.030778321           18 
 4335000   0.56212016   -5.4695294    1651.1024  0.031739762  0.030770067           10 
 4336000   0.55377748   -5.4848036    1648.7798  0.031687804  0.030761834           10 
 4337000   0.55718077   -5.4895089     1651.872  0.031739912  0.030753624           20 
 4338000   0.56839282   -5.4800479    1654.3661  0.031780507  0.030745403           34 
 4339000   0.55659258   -5.4694286    1647.5146  0.031641597  0.030737209           22 
 4340000    0.5575956   -5.4499118    1653.3729  0.031746791  0.030729001           14 
 4341000    0.5636771   -5.5132497    1653.9159  0.031749902  0.030720791           26 
 4342000   0.56011557   -5.5043082    1651.4157  0.031694604  0.030712537           15 
 4343000   0.56261728   -5.4844713    1650.3704  0.031667249  0.030704277           25 
 4344000   0.56135672   -5.4834561    1651.8594  0.031688524  0.030696039           18 
 4345000   0.56514557   -5.4641997    1647.3255  0.031594274  0.030687819           23 
 4346000   0.56198638   -5.4774672     1650.208  0.031642276  0.030679607           14 
 4347000   0.55751311   -5.4644913    1650.6547  0.031643561  0.030671362           12 
 4348000   0.54549657   -5.4775491    1648.7044  0.031598903  0.030663104           24 
 4349000   0.55301085   -5.4942138    1651.0061  0.031635742  0.030654863           21 
 4350000   0.55615357   -5.5029856    1649.7849  0.031605075  0.030646618           11 
 4351000   0.55070817    -5.480484    1649.3636  0.031589741  0.030638364           33 
 4352000   0.55808685   -5.4944915    1654.0215  0.031671674  0.030630106           19 
 4353000   0.53648141   -5.5048381    1649.4282  0.031576465  0.030621849           14 
 4354000   0.55341064   -5.4793319    1647.4609  0.031531559  0.030613582           33 
 4355000   0.54671244   -5.4918811    1651.9706  0.031610612  0.030605339           17 
 4356000   0.55538361   -5.4977062    1652.1573  0.031606927  0.030597125           17 
 4357000   0.55343603   -5.4812697    1648.4222  0.031528235  0.030588912           19 
 4358000    0.5509912   -5.4905351    1649.9309  0.031549848  0.030580725           11 
 4359000   0.55958065   -5.4960488    1650.1801  0.031547376  0.030572507           22 
 4360000   0.54809886   -5.4917295    1651.3042  0.031561625  0.030564301           29 
 4361000   0.55500492    -5.469752     1652.353  0.031574428  0.030556111            8 
 4362000    0.5527865   -5.4777169    1649.3459  0.031509741  0.030547911           26 
 4363000   0.54796519   -5.4790404    1649.9747   0.03151453  0.030539722           24 
 4364000   0.55629098   -5.4745681    1652.8306  0.031561844  0.030531508           14 
 4365000   0.55631727   -5.4677582    1652.7652  0.031553364  0.030523291           18 
 4366000   0.55364004    -5.493908    1649.4712  0.031483264  0.030515071           17 
 4367000   0.55373319   -5.5037921    1648.7904  0.031463065  0.030506843           14 
 4368000   0.53571387   -5.4993047    1654.0575  0.031556347  0.030498638           14 
 4369000   0.55517969   -5.4912351    1650.9527  0.031489904  0.030490418           27 
 4370000   0.55099274   -5.4883379    1650.8963  0.031481623  0.030482212           14 
 4371000   0.54886786   -5.4941293    1650.0248  0.031457805  0.030474006           27 
 4372000   0.55015392   -5.4860239     1649.703  0.031444477   0.03046581           15 
 4373000    0.5583915   -5.5005132    1647.5879  0.031396979  0.030457593           25 
 4374000    0.5505139   -5.4890969    1647.8607     0.031395  0.030449355           17 
 4375000   0.54008828   -5.4954152    1647.0016  0.031371459  0.030441099           16 
 4376000   0.55451198   -5.5048006    1650.3923   0.03142886  0.030432854           14 
 4377000   0.54584261   -5.4868139    1652.1882  0.031455872   0.03042464           23 
 4378000   0.54682547   -5.5001475    1649.4887  0.031397303  0.030416423           17 
 4379000    0.5541413   -5.5072184    1646.8254  0.031339449  0.030408154           12 
 4380000   0.54793529   -5.4856035    1649.0557  0.031374728  0.030399922           21 
 4381000   0.54771326   -5.4943402    1652.5804  0.031434612  0.030391704           37 
 4382000   0.56151329   -5.5120722    1649.8067   0.03137469  0.030383487           24 
 4383000    0.5584553   -5.5006258    1646.7853  0.031310086  0.030375272           13 
 4384000   0.54857748   -5.4877294    1651.2814  0.031388408  0.030367042           26 
 4385000    0.5320555   -5.5025287    1651.3659  0.031382856   0.03035883           26 
 4386000   0.54988053   -5.4997875    1647.9734  0.031311244  0.030350599           18 
 4387000   0.54760569   -5.5173257    1645.5944  0.031258917  0.030342334           47 
 4388000   0.55425265   -5.4998981    1647.3671  0.031285458  0.030334099           17 
 4389000   0.54145487   -5.4934469    1646.5319  0.031262473  0.030325865           26 
 4390000   0.55018574   -5.4775357    1652.5866  0.031370284  0.030317656           17 
 4391000   0.55246403   -5.5177584    1652.0326  0.031352627  0.030309442           34 
 4392000   0.54880036   -5.5144888    1647.6425  0.031262191  0.030301215           23 
 4393000   0.54427112   -5.5027391    1648.1579  0.031264852  0.030292999           16 
 4394000   0.54534275   -5.5060433    1650.7099  0.031306134  0.030284759           29 
 4395000   0.54407118   -5.5075701    1650.0482  0.031286466  0.030276524           10 
 4396000   0.55099596    -5.499927    1645.9242  0.031201172  0.030268275           11 
 4397000   0.54640798   -5.5263276    1646.8774   0.03121214  0.030260029           14 
 4398000   0.55880973   -5.5192765    1649.4704  0.031254176  0.030251783           10 
 4399000   0.55958096   -5.5068034    1646.0436  0.031182155  0.030243538           20 
 4400000   0.55198956   -5.5170339    1644.2836  0.031141736  0.030235285           19 
 4401000   0.55501195   -5.5161092    1644.7308  0.031143127  0.030227018           24 
 4402000   0.54559704    -5.519384     1648.603  0.031209355  0.030218758            7 
 4403000   0.54944644   -5.5164097    1642.7626  0.031091729  0.030210529           53 
 4404000   0.55948927    -5.502424    1646.5166  0.031155703  0.030202282           37 
 4405000   0.54160886    -5.526231    1644.3034  0.031106761   0.03019401           32 
 4406000    0.5561279    -5.517094    1648.4617  0.031178349  0.030185732           21 
 4407000   0.55614048   -5.5083125    1648.7475   0.03117668  0.030177483           17 
 4408000   0.54683084   -5.5019722    1651.5779  0.031223116  0.030169273           23 
 4409000   0.54214377   -5.5012186     1651.001   0.03120513  0.030161069           42 
 4410000   0.53953113   -5.5173143    1649.3924  0.031167656  0.030152871           37 
 4411000   0.55185123   -5.5079681    1645.3397  0.031084026  0.030144641           21 
 4412000    0.5527769   -5.5154969    1646.1132  0.031091591  0.030136433           31 
 4413000   0.53893365   -5.5256389     1646.741  0.031096402  0.030128228           20 
 4414000   0.54694344   -5.5154174    1648.4415   0.03112146  0.030120017           42 
 4415000   0.54362886   -5.5077028    1652.3899  0.031188936  0.030111793           38 
 4416000   0.54877896   -5.5216791     1646.793  0.031076258  0.030103596           45 
 4417000   0.55392243   -5.5255289    1644.7901  0.031031433  0.030095392           28 
 4418000   0.55045339   -5.5078174    1648.4832   0.03109407  0.030087177           14 
 4419000   0.53761521   -5.5191855    1646.1164  0.031042401  0.030078989           38 
 4420000   0.55353084   -5.5057098    1648.9124  0.031088093  0.030070789           36 
 4421000   0.53934063    -5.501719    1645.7695  0.031021818  0.030062606           15 
 4422000   0.55447606   -5.5074391    1647.3166  0.031043959  0.030054426           23 
 4423000   0.54056482   -5.5009279    1647.2849  0.031036343  0.030046267           28 
 4424000   0.54122722   -5.5059168    1648.4194  0.031050697  0.030038121           19 
 4425000   0.54849849   -5.5237009    1646.3971  0.031005595  0.030029961           40 
 4426000   0.54245618   -5.5109714    1646.1801  0.030994505  0.030021827           21 
 4427000    0.5547465   -5.4982379    1650.9398  0.031077098  0.030013685           21 
 4428000   0.53670368   -5.5062921    1651.8977  0.031088107  0.030005575           22 
 4429000   0.53011735   -5.4960146    1649.5115  0.031036191  0.029997436           24 
 4430000   0.54258561   -5.5208303    1648.2671  0.031005777  0.029989272           38 
 4431000   0.54431802   -5.5066337      1654.58  0.031117506  0.029981111           18 
 4432000   0.54985691    -5.501616    1648.9176  0.031004016   0.02997297           19 
 4433000   0.54997035   -5.5202031    1644.2575   0.03090942  0.029964793           33 
 4434000   0.54155828   -5.5199856    1649.0483  0.030992489  0.029956599           22 
 4435000   0.53917188   -5.5077581    1647.4017  0.030954561  0.029948417           50 
 4436000   0.53490928   -5.5305041    1650.8847  0.031013014  0.029940265           28 
 4437000   0.53988118   -5.5492701    1645.6309   0.03090735  0.029932098           17 
 4438000   0.53996131   -5.5048767    1647.6536  0.030938366  0.029923918           36 
 4439000   0.54880331    -5.510591    1647.9635  0.030937214  0.029915763           63 
 4440000   0.54198491   -5.5230948    1644.3642  0.030862691  0.029907601           28 
 4441000   0.53713533   -5.5195845    1648.6141   0.03093549  0.029899436            7 
 4442000   0.55027057   -5.5146613    1649.6608  0.030948161  0.029891273           12 
 4443000   0.54578503   -5.5225927      1646.96   0.03089054  0.029883127           32 
 4444000   0.53792124   -5.5125804    1644.1306  0.030830533  0.029875006           12 
 4445000   0.54731075    -5.504992    1648.0221  0.030896553  0.029866903           14 
 4446000    0.5298399   -5.5075614    1652.3526  0.030970772  0.029858811           25 
 4447000   0.53775217   -5.5123601    1649.7136  0.030914354  0.029850694           25 
 4448000   0.53655871   -5.5157014    1644.1589  0.030803336  0.029842568           44 
 4449000   0.53511146   -5.5069993    1650.6384   0.03091778  0.029834445           20 
 4450000   0.53733405   -5.5182198    1648.0263  0.030861917  0.029826332           27 
 4451000   0.53368092   -5.5398487    1646.7416   0.03083093  0.029818204           23 
 4452000   0.54087219   -5.5188031    1647.5696  0.030839503  0.029810091           22 
 4453000   0.53404655   -5.5223858     1646.587  0.030814188  0.029801971           29 
 4454000   0.53835328   -5.5121832    1648.3329  0.030839936   0.02979389           51 
 4455000   0.52620835   -5.5075556    1648.6853  0.030839605  0.029785804           21 
 4456000   0.54076952   -5.5133339    1648.5829  0.030830769  0.029777718           19 
 4457000    0.5498492   -5.5249163    1652.1098  0.030889794  0.029769616           12 
 4458000   0.54091723   -5.5259357    1651.1041  0.030864066  0.029761524           19 
 4459000   0.53698674   -5.5417359    1646.7296   0.03077539  0.029753408           10 
 4460000   0.52544903   -5.5317955     1650.681  0.030842321  0.029745313           14 
 4461000   0.53414426   -5.5098079    1651.1925  0.030844962  0.029737243           18 
 4462000   0.53295603   -5.5371167    1648.2139  0.030782421  0.029729167           20 
 4463000   0.54068523   -5.5263138    1648.1388   0.03077412  0.029721072           25 
 4464000   0.52803725   -5.5181365    1649.3116   0.03078912  0.029712987           13 
 4465000   0.53259167   -5.5036584    1646.3702  0.030727327  0.029704892           27 
 4466000   0.53723431    -5.517182    1649.2921  0.030774967  0.029696805           31 
 4467000   0.52047526   -5.5217901    1654.4873  0.030864997  0.029688745           16 
 4468000   0.54103443   -5.5165927    1648.9189  0.030754232  0.029680706           15 
 4469000   0.52227094   -5.5188357    1646.1241  0.030695236  0.029672641           15 
 4470000   0.54683817   -5.5123888    1650.4193  0.030768444  0.029664571           16 
 4471000   0.52984285   -5.5152046     1646.932  0.030696563  0.029656508           10 
 4472000    0.5338034   -5.5248999    1649.9929  0.030746737  0.029648458           14 
 4473000    0.5425433   -5.5562601    1645.4884  0.030655943  0.029640353           42 
 4474000   0.54544009   -5.5308932    1647.3146  0.030683105  0.029632251           37 
 4475000   0.54691619   -5.5402023    1646.6332  0.030663561  0.029624162           23 
 4476000   0.54013153   -5.5455833    1644.5668  0.030618238  0.029616058           28 
 4477000   0.54179054   -5.5376801    1647.9141  0.030673704  0.029607963           35 
 4478000    0.5506104   -5.5614625    1645.1301  0.030615046  0.029599846           21 
 4479000   0.53261028   -5.5454845    1644.3824    0.0305943  0.029591747           81 
 4480000   0.52750142   -5.5416943    1644.6743    0.0305929  0.029583663           24 
 4481000   0.54024483   -5.5325607    1646.3287  0.030616839  0.029575578           59 
 4482000   0.55008634    -5.522165    1648.3243  0.030647112  0.029567505           23 
 4483000   0.54498583   -5.5194646    1650.5088  0.030680883  0.029559453           26 
 4484000   0.53708851   -5.5410828    1650.1242  0.030666893  0.029551402           23 
 4485000   0.52853933   -5.5341324    1649.9453  0.030656732  0.029543368           20 
 4486000   0.52473255   -5.5137148    1645.5593  0.030568422  0.029535302           41 
 4487000   0.54436762   -5.5245624    1647.2268  0.030592579  0.029527251           23 
 4488000    0.5459988   -5.5394192    1649.2757  0.030623806  0.029519207           42 
 4489000   0.55032427   -5.5356422    1648.8042  0.030608231  0.029511153           28 
 4490000   0.52736468    -5.527121    1645.6137  0.030542199  0.029503091           28 
 4491000   0.52216987   -5.5429038    1648.4652   0.03058831  0.029495011           21 
 4492000   0.54356147   -5.5452198    1648.3903  0.030580112  0.029486949           46 
 4493000   0.53282481   -5.5335993    1644.5622  0.030502305  0.029478897           43 
 4494000   0.52530817   -5.5488875    1647.6415  0.030552617  0.029470834           26 
 4495000   0.52880056   -5.5243496    1647.4341  0.030541974   0.02946276           24 
 4496000   0.53024757   -5.5679233    1643.9764  0.030471093  0.029454669           39 
 4497000   0.53065957   -5.5299877    1644.1024  0.030466651  0.029446594           66 
 4498000   0.52992154   -5.5500884    1647.0361  0.030514231  0.029438513           35 
 4499000   0.52744856   -5.5458237    1645.9126  0.030486638  0.029430449           14 
 4500000   0.53293656   -5.5483516    1646.8844  0.030497859  0.029422402           37 
 4501000   0.52984732   -5.5378457    1647.9368  0.030510567  0.029414358           12 
 4502000   0.53905359   -5.5444619     1646.867  0.030483988  0.029406323           15 
 4503000   0.53027812   -5.5268282    1645.3605  0.030449339  0.029398268           18 
 4504000   0.52759865   -5.5412131    1644.2236  0.030421544  0.029390221           19 
 4505000   0.53001438   -5.5497606    1645.2732  0.030434207  0.029382168           22 
 4506000   0.53586272   -5.5436891    1643.3664  0.030392189  0.029374099           22 
 4507000   0.53025174   -5.5247083    1650.1849  0.030511517  0.029366047           20 
 4508000   0.54178629   -5.5476912    1644.8653  0.030406412  0.029358019           48 
 4509000   0.53740495   -5.5462685     1648.735  0.030471187   0.02934999           39 
 4510000   0.53743975   -5.5344858    1645.5323  0.030405253  0.029341948           56 
 4511000   0.52676357    -5.554658     1649.122  0.030464827  0.029333924           30 
 4512000   0.53731779   -5.5357829    1646.7341  0.030413973  0.029325887           27 
 4513000   0.52397447   -5.5136443    1645.5108  0.030384644  0.029317846           25 
 4514000   0.52435837    -5.533029    1645.9441  0.030385912  0.029309833           30 
 4515000   0.53919582   -5.5386212    1646.1861  0.030383649  0.029301828            8 
 4516000   0.52006418   -5.5520847    1650.2816  0.030452495    0.0292938            8 
 4517000   0.53414535   -5.5605763    1645.0708   0.03034962  0.029285763           12 
 4518000   0.53862456   -5.5564284    1642.7523  0.030300139  0.029277736           20 
 4519000   0.51817181   -5.5313823    1647.8789  0.030387971  0.029269745           13 
 4520000   0.53007241   -5.5331357    1648.1034  0.030385387  0.029261728           17 
 4521000   0.53157452   -5.5466382    1642.0314  0.030266744   0.02925371           22 
 4522000    0.5303016   -5.5689672    1646.4599  0.030341661  0.029245657           15 
 4523000   0.52451185   -5.5439714    1646.9142  0.030343324  0.029237633            9 
 4524000   0.53401686   -5.5581393    1650.0061  0.030393569  0.029229627            7 
 4525000   0.52654241   -5.5553059    1646.5281    0.0303228  0.029221611           11 
 4526000   0.52277824   -5.5612432    1648.9467  0.030360633  0.029213586           10 
 4527000   0.52642816   -5.5443705    1645.6676  0.030293565  0.029205565           28 
 4528000    0.5275168   -5.5441506    1649.5623  0.030358553  0.029197553           16 
 4529000   0.54151964   -5.5524232    1648.9187  0.030340007  0.029189535           13 
 4530000   0.53714371   -5.5473412     1644.145  0.030245494  0.029181551           23 
 4531000   0.53250373   -5.5536003    1643.3927  0.030224982  0.029173519           10 
 4532000   0.52231501   -5.5652756    1649.7809  0.030335776  0.029165492           11 
 4533000    0.5264656   -5.5716246     1644.798   0.03023748  0.029157465           11 
 4534000    0.5306072   -5.5626469    1644.8254  0.030231315  0.029149412           36 
 4535000   0.54192799   -5.5743998    1646.9278  0.030263282  0.029141374           15 
 4536000   0.52637646   -5.5709304     1644.336  0.030208995  0.029133344           20 
 4537000   0.52118439   -5.5706684    1644.1409  0.030198754  0.029125297           23 
 4538000   0.53494655   -5.5791308    1646.4862  0.030235165  0.029117271           35 
 4539000   0.53067227   -5.5773259    1645.7049  0.030214161  0.029109225           17 
 4540000   0.51344098   -5.5651129    1640.5451  0.030112796  0.029101161           22 
 4541000   0.52771419   -5.5511459    1644.2492  0.030174139   0.02909309           14 
 4542000   0.53231886   -5.5735994    1640.3555  0.030096056  0.029085042           11 
 4543000   0.52739837   -5.5679407    1646.0079  0.030193116   0.02907701           18 
 4544000   0.52198926   -5.5573367    1644.3696  0.030156425     0.029069           12 
 4545000    0.5282643   -5.5756514    1645.3208  0.030167232  0.029061001           32 
 4546000   0.52776225   -5.5682068     1644.423  0.030144137  0.029052977           39 
 4547000   0.52948621   -5.5688112    1645.2718  0.030153065  0.029044958           44 
 4548000   0.52837422   -5.5413084    1645.1848  0.030144839  0.029036955           35 
 4549000   0.52131722   -5.5394894    1646.9567  0.030170672   0.02902899           14 
 4550000   0.51557784   -5.5587678     1643.923   0.03010848  0.029021011           10 
 4551000   0.51484291   -5.5282322    1642.4731  0.030075315  0.029013019           27 
 4552000   0.53496376   -5.5512067    1647.5199    0.0301611  0.029005043           18 
 4553000   0.52252594     -5.57778    1641.7535  0.030048932  0.028997039           38 
 4554000   0.52626989   -5.5707608    1642.4555  0.030055181  0.028989034           33 
 4555000   0.52091749   -5.5583135    1642.4271  0.030048063  0.028981012           40 
 4556000   0.52076513   -5.5703446    1644.8527  0.030085833  0.028972997           34 
 4557000   0.51424479   -5.5770394    1641.7498   0.03002249   0.02896497           30 
 4558000     0.540011   -5.5876768    1641.5058  0.030011441  0.028956935           18 
 4559000   0.52934376   -5.5652402    1640.6249  0.029988757  0.028948912           23 
 4560000   0.51214105   -5.5677542     1644.861  0.030059595  0.028940889           38 
 4561000   0.50143922   -5.5879773    1644.9848  0.030055266  0.028932859           35 
 4562000   0.52816854   -5.5798708    1641.7461  0.029989517  0.028924848           29 
 4563000   0.51932699   -5.5504695    1644.5074  0.030033373  0.028916821           31 
 4564000    0.5403912   -5.5969988    1646.9545  0.030071474   0.02890882           33 
 4565000   0.52880409   -5.5687835    1646.8306  0.030062625   0.02890082           25 
 4566000   0.53077284   -5.5711522    1644.2089  0.030008193   0.02889283           41 
 4567000   0.51974431   -5.5662313    1647.8418  0.030067911  0.028884844           23 
 4568000   0.53956609   -5.5620284    1645.5492  0.030019506  0.028876877           26 
 4569000     0.518637   -5.5700285    1644.6743  0.029996977    0.0288689           54 
 4570000   0.53401699   -5.5396094    1645.5268  0.030005959  0.028860929           21 
 4571000   0.51652984   -5.5792817    1645.9722  0.030007515  0.028852959           37 
 4572000   0.52180059   -5.5778953    1643.9759  0.029964564  0.028844981           22 
 4573000   0.52570833   -5.5684075     1646.167  0.029997941  0.028836996           24 
 4574000   0.52348643   -5.5676033    1646.4886  0.029997242  0.028829005           23 
 4575000   0.51337622   -5.5598638    1642.9448  0.029926134  0.028821051           16 
 4576000   0.52512432   -5.5647873    1642.3871  0.029909439  0.028813073           56 
 4577000   0.52955296   -5.5682024    1644.2253  0.029936372  0.028805095           29 
 4578000   0.52208232   -5.5659236    1643.9091  0.029924077  0.028797123           38 
 4579000   0.51200645   -5.5860202    1646.2707  0.029960521  0.028789173           19 
 4580000   0.51449888   -5.5786208    1646.6039  0.029960042  0.028781231           43 
 4581000   0.51800403   -5.5601887    1650.2052  0.030019013  0.028773285           30 
 4582000   0.52600184   -5.5529188    1647.8162  0.029969013   0.02876535           20 
 4583000   0.52445121   -5.5485297     1648.852  0.029981307   0.02875744           25 
 4584000   0.51577348   -5.5629851    1642.6365  0.029861775   0.02874952           20 
 4585000   0.51700713    -5.579192    1644.9726  0.029897722  0.028741604           29 
 4586000   0.51083373   -5.5706899    1644.5292  0.029883145  0.028733661           41 
 4587000   0.52052772   -5.5621806    1646.0098  0.029903529  0.028725758           51 
 4588000   0.51014456   -5.5674417    1644.8612  0.029876148  0.028717842           47 
 4589000   0.52129728   -5.5726697    1642.0528  0.029818639  0.028709901           56 
 4590000   0.52211053   -5.5693525    1643.8651  0.029845045  0.028701978           67 
 4591000   0.51307276   -5.5658376    1642.9893  0.029822648   0.02869407           32 
 4592000   0.51230763   -5.5831177    1645.7814  0.029866822  0.028686176           36 
 4593000   0.51725128   -5.5587904    1644.7903  0.029842338  0.028678255           20 
 4594000   0.51805756   -5.5566409    1644.3331  0.029827549  0.028670336           25 
 4595000   0.51213868   -5.5787147    1643.9023  0.029813244  0.028662411           28 
 4596000   0.50967729   -5.5772335    1644.6698  0.029820674  0.028654495           18 
 4597000   0.51328512   -5.5762764    1644.5653  0.029812293  0.028646537           65 
 4598000   0.51462977   -5.5737232    1645.4405  0.029821671  0.028638599           27 
 4599000   0.52687877   -5.5891221     1640.483  0.029725357  0.028630672           23 
 4600000   0.52230081   -5.5938089    1641.6366  0.029739793  0.028622757           58 
 4601000   0.52528975   -5.5746587    1645.0016  0.029794277  0.028614852           67 
 4602000   0.52392378   -5.5870181    1644.3391  0.029775807   0.02860693           63 
 4603000   0.51635809   -5.5688452    1646.9853  0.029817245   0.02859902           63 
 4604000   0.51154856   -5.5768681    1644.0351  0.029757368  0.028591107           36 
 4605000   0.50838839   -5.5697524    1645.4808  0.029777069  0.028583183          113 
 4606000   0.51778685   -5.5788284    1645.0721   0.02976321  0.028575252           59 
 4607000   0.51807355   -5.5992687    1640.7307   0.02967822  0.028567329          100 
 4608000   0.51637158   -5.5742639    1644.2334  0.029735124  0.028559421           21 
 4609000    0.5163584     -5.56821    1642.2802  0.029693357  0.028551521           30 
 4610000   0.51384599   -5.5707444    1646.3553   0.02976058  0.028543628           29 
 4611000   0.50824864   -5.5840912    1643.3451  0.029699723   0.02853572           24 
 4612000   0.51663187   -5.5882936    1644.0761  0.029706493  0.028527783           21 
 4613000   0.52207303    -5.572685    1642.5076  0.029671718  0.028519861           86 
 4614000   0.51580464    -5.573896    1640.6264  0.029631311  0.028511931           44 
 4615000   0.50569454   -5.5824797    1643.5635  0.029677925  0.028504025           22 
 4616000    0.5101143   -5.5725536    1644.2132  0.029683224  0.028496129           18 
 4617000   0.50624245   -5.6039088    1641.3383  0.029624906  0.028488203           18 
 4618000   0.51547546   -5.5891112    1643.1726  0.029651592  0.028480296           42 
 4619000   0.51862173   -5.5986507    1643.7535  0.029655653    0.0284724           27 
 4620000   0.51530344   -5.6085538    1646.9533   0.02970695  0.028464503           15 
 4621000   0.51585827   -5.5929786    1643.6135  0.029640292   0.02845663           17 
 4622000   0.51037054   -5.5715436    1643.2204  0.029626792  0.028448756           32 
 4623000   0.51700526   -5.5766355    1642.5291  0.029607923  0.028440857           39 
 4624000   0.50533037   -5.5715397    1642.4754  0.029600551  0.028432961           34 
 4625000   0.51002561   -5.6036083    1640.3156  0.029555236  0.028425054           31 
 4626000   0.50438329   -5.5800907    1639.0356  0.029525789  0.028417167           19 
 4627000   0.51175738   -5.5859177    1642.3858  0.029579745   0.02840926           31 
 4628000   0.51953517   -5.5872939    1642.3326  0.029572395  0.028401368           18 
 4629000   0.52387262   -5.5841927    1641.3077  0.029547557  0.028393468           35 
 4630000   0.50635428   -5.5755579    1641.4555  0.029543835   0.02838558           43 
 4631000   0.49920442   -5.6026292    1641.7708   0.02954313  0.028377701           49 
 4632000   0.51642547   -5.5984038    1641.7987  0.029537253  0.028369799           65 
 4633000   0.50802035   -5.5927927    1640.2273  0.029502613  0.028361903           43 
 4634000   0.51209501    -5.608796    1643.6987  0.029558673     0.028354           27 
 4635000   0.51528298   -5.6106818    1641.2027  0.029507419  0.028346093           58 
 4636000   0.50517773   -5.6171039    1638.9986  0.029461436  0.028338199          115 
 4637000     0.513383   -5.6067307     1641.981  0.029508681    0.0283303          122 
 4638000   0.50775578   -5.5965709    1643.1362  0.029523073  0.028322405           54 
 4639000   0.52344555   -5.6019796    1644.2341  0.029536432  0.028314544           53 
 4640000   0.49920861   -5.6008349    1638.2497  0.029422588  0.028306686           56 
 4641000   0.51400932   -5.6172122    1641.6029  0.029476459  0.028298816           77 
 4642000   0.52079361   -5.6078347    1641.0786  0.029460696  0.028290956           65 
 4643000   0.50464295   -5.5865565    1642.9116   0.02948725  0.028283098           51 
 4644000   0.50762453   -5.6146546    1639.8392  0.029425768  0.028275226           64 
 4645000   0.50178867   -5.5958827    1641.2088  0.029444005  0.028267353           60 
 4646000   0.51835265   -5.6035837    1644.3989  0.029494886  0.028259479           81 
 4647000   0.50431257   -5.6008824    1642.7002  0.029458077   0.02825162          116 
 4648000   0.51046592   -5.5949715    1642.8017  0.029453559  0.028243764          117 
 4649000   0.49673351   -5.5971206    1641.1803  0.029418161  0.028235905           72 
 4650000   0.49882485   -5.6070517    1642.1539  0.029429282  0.028228043          219 
 4651000    0.5057179    -5.609358    1641.3487  0.029408526  0.028220172          187 
 4652000   0.51065179   -5.5991394    1643.7752  0.029445672  0.028212324          128 
 4653000   0.49641721    -5.598559    1642.8458  0.029422698  0.028204467          158 
 4654000   0.50887055   -5.6123753    1638.7079  0.029342284  0.028196608          112 
 4655000   0.50326413   -5.6282054    1640.0818  0.029360576  0.028188728          110 
 4656000   0.49559038   -5.6115417    1639.6896  0.029347252  0.028180872          113 
 4657000   0.50443585   -5.6131624    1638.0231  0.029311128  0.028173013          167 
 4658000   0.50307403   -5.6048873    1641.8626  0.029373526  0.028165144          136 
 4659000   0.50772037   -5.6081975    1637.3549  0.029286594  0.028157271           95 
 4660000    0.5118891   -5.6110741    1641.8055  0.029359898  0.028149408          112 
 4661000   0.50766079   -5.5951088    1640.1026  0.029323153  0.028141532          165 
 4662000   0.50467944   -5.6121052    1638.2294  0.029283381  0.028133673          113 
 4663000   0.50782927    -5.626463    1638.7771  0.029286887  0.028125805          144 
 4664000   0.50910282   -5.6061899    1642.4134  0.029345579  0.028117945          139 
 4665000   0.50138832   -5.6026103    1640.5594   0.02930617  0.028110092          163 
 4666000    0.4989602   -5.5872962    1639.1639  0.029274966  0.028102235          159 
 4667000   0.48861713   -5.6345723    1639.7057  0.029278368  0.028094376          214 
 4668000   0.50795436   -5.6124988    1641.2582  0.029299811  0.028086507          205 
 4669000   0.51295867   -5.6183579    1641.0062  0.029289038  0.028078647          106 
 4670000   0.50896824    -5.613833    1639.2016  0.029250564  0.028070794           87 
 4671000   0.50995881   -5.6224277    1636.7652  0.029200835  0.028062946          106 
 4672000   0.51222897   -5.6207185    1641.3699  0.029276717  0.028055123           77 
 4673000   0.50441552   -5.6241163    1637.4813  0.029201107   0.02804728          187 
 4674000    0.4956066   -5.6084344    1640.9938  0.029257484  0.028039458          100 
 4675000   0.51847892   -5.6177757    1640.0548  0.029234488  0.028031645          212 
 4676000   0.49445517   -5.6116365    1639.7365  0.029222564  0.028023814          226 
 4677000   0.51680317    -5.629926     1639.723  0.029216076  0.028015988          214 
 4678000   0.51449138   -5.6237654     1641.199  0.029236123  0.028008145          289 
 4679000   0.50548149   -5.6087571    1641.2211  0.029230268  0.028000298          127 
 4680000   0.49630747    -5.614466    1638.5408  0.029176296  0.027992456          144 
 4681000   0.49525953   -5.6287134     1641.947  0.029230702   0.02798461          264 
 4682000   0.50104407   -5.6181733    1641.4949  0.029216413  0.027976762          234 
 4683000    0.5097809    -5.632593    1637.8928  0.029146075   0.02796893          151 
 4684000   0.49377846   -5.6270365    1641.9705  0.029212398  0.027961095          139 
 4685000   0.50812492   -5.6490228     1635.604  0.029092921  0.027953254          174 
 4686000   0.48722656   -5.6301555    1638.2892  0.029134464   0.02794541          322 
 4687000   0.49809065   -5.6338561    1639.9244  0.029157321  0.027937568          342 
 4688000   0.50933466   -5.6422445    1635.5704  0.029073706  0.027929738          226 
 4689000   0.51171103   -5.6221148    1640.2668  0.029150971  0.027921925          368 
 4690000   0.49277931   -5.6286787    1641.4316  0.029165451  0.027914117          312 
 4691000   0.51370537   -5.6292549    1639.1008  0.029117828   0.02790629          170 
 4692000    0.5014747   -5.6411419    1637.9202  0.029090654  0.027898471          370 
 4693000   0.50496737   -5.6292304    1637.8141  0.029082571  0.027890667          397 
 4694000   0.49917969   -5.6446489    1639.5027  0.029106354  0.027882856          358 
 4695000   0.49805095   -5.6295274     1640.448  0.029116933  0.027875043          292 
 4696000   0.50645883   -5.6282792    1642.4145   0.02914563  0.027867257          372 
 4697000   0.50824069   -5.6114608    1642.1776   0.02913522  0.027859471          212 
 4698000   0.50174386   -5.6308998    1640.3321  0.029096284  0.027851689          233 
 4699000   0.50105568   -5.6275326    1637.4175  0.029038404  0.027843914          300 
 4700000   0.50364442    -5.638123    1639.5713  0.029070414  0.027836119          294 
 4701000   0.49811548   -5.6455769    1637.4642  0.029026877  0.027828306          269 
 4702000   0.49438908   -5.6222129    1636.4617  0.029002937  0.027820516          219 
 4703000   0.50760871   -5.6193718    1641.7465  0.029090413  0.027812739          343 
 4704000   0.50096057   -5.6262971    1640.3869  0.029060143  0.027804956          272 
 4705000   0.49533666   -5.6442315    1637.4105  0.029001249  0.027797172          393 
 4706000   0.50496177   -5.6290924    1635.1233  0.028954585  0.027789398          382 
 4707000   0.49126171   -5.6232166    1641.0026  0.029052521  0.027781609          343 
 4708000   0.48914323    -5.639296    1642.6437  0.029075398  0.027773818          316 
 4709000   0.50365618    -5.630478    1638.1911  0.028990427  0.027766044          325 
 4710000   0.50746298   -5.6308053    1635.5928  0.028938301  0.027758261          368 
 4711000   0.49869732   -5.6309904    1637.6928  0.028969306  0.027750477          400 
 4712000   0.49514085   -5.6323704    1637.5882  0.028961309   0.02774268          366 
 4713000   0.49665667   -5.6586974    1638.6881  0.028974611  0.027734877          431 
 4714000   0.49587387   -5.6566403    1640.1537  0.028994373  0.027727081          383 
 4715000   0.50070463   -5.6377708     1642.219  0.029024726  0.027719281          348 
 4716000   0.50471476   -5.6434159    1639.5012  0.028970547  0.027711487          394 
 4717000   0.50425518   -5.6175187    1640.9981   0.02899085    0.0277037          391 
 4718000   0.48713297   -5.6396906    1636.3879  0.028903276  0.027695923          375 
 4719000   0.49467092   -5.6428906    1639.6272  0.028954355  0.027688154          339 
 4720000   0.50051048   -5.6462951    1636.2116  0.028887917  0.027680395          329 
 4721000   0.50594766   -5.6337035    1638.9554  0.028930231  0.027672639          396 
 4722000   0.49808812   -5.6284416     1637.992  0.028907102  0.027664874          399 
 4723000   0.49494916    -5.644037    1636.9498  0.028882592  0.027657129          379 
 4724000   0.49319999   -5.6481222    1640.2165  0.028934105  0.027649371          245 
 4725000    0.4994198   -5.6617265    1640.1127   0.02892615    0.0276416          363 
 4726000   0.49920979   -5.6322931    1635.9783  0.028847128  0.027633826          334 
 4727000   0.49711934   -5.6288121    1640.2695  0.028916675  0.027626048          298 
 4728000   0.50432924   -5.6324356     1639.566   0.02889816  0.027618294          340 
 4729000   0.50290258   -5.6343279    1637.9538  0.028863639  0.027610537          300 
 4730000   0.50770235   -5.6556445    1631.0849   0.02873652  0.027602789          366 
 4731000   0.50179979   -5.6475719    1635.7262    0.0288122  0.027595025          278 
 4732000   0.49861554    -5.625482    1639.4386  0.028871488  0.027587266          258 
 4733000   0.49272991   -5.6575852    1634.6408  0.028780914  0.027579504          273 
 4734000   0.50091743   -5.6361546    1640.2288  0.028873201  0.027571751          193 
 4735000   0.49115982   -5.6450565    1639.3398  0.028851457  0.027564011          358 
 4736000   0.49466394   -5.6461074    1636.2859   0.02879163  0.027556264          374 
 4737000   0.49695169   -5.6302601    1640.9562  0.028867712  0.027548524          324 
 4738000   0.49745227   -5.6316754    1636.8083  0.028788664  0.027540794          348 
 4739000   0.49320506   -5.6412298    1635.9377  0.028767281  0.027533064          273 
 4740000   0.48576304   -5.6437727    1639.8376  0.028829776  0.027525324          232 
 4741000   0.48723864   -5.6529602    1634.2227     0.028725  0.027517585          272 
 4742000   0.48794705   -5.6408631    1635.7357  0.028745531  0.027509847          366 
 4743000   0.50378359   -5.6463704    1635.7944  0.028740501   0.02750211          284 
 4744000   0.50585054   -5.6418021    1635.6935  0.028732671  0.027494384          268 
 4745000   0.49330027    -5.638988    1639.8964  0.028800429   0.02748665          284 
 4746000   0.48631335   -5.6446278    1635.9916  0.028725798   0.02747892          283 
 4747000   0.49005709   -5.6496388     1636.985  0.028737186  0.027471185          299 
 4748000   0.49773283   -5.6482768    1638.8095  0.028763154  0.027463457          340 
 4749000   0.49885439   -5.6509801    1634.5849  0.028682967  0.027455702          358 
 4750000   0.50012427   -5.6481162    1638.0266  0.028737309  0.027447952          474 
 4751000   0.48879985    -5.667274    1637.5808  0.028723441  0.027440202          468 
 4752000   0.49714284   -5.6650182    1632.4939  0.028628189  0.027432467          390 
 4753000   0.48470414   -5.6528265    1635.6822  0.028678066  0.027424725          449 
 4754000   0.49497527    -5.653289    1637.3213  0.028700766  0.027416997          503 
 4755000   0.49526015   -5.6555391    1637.4198  0.028696456  0.027409279          441 
 4756000   0.48739896   -5.6568263    1636.6303  0.028676589  0.027401552          537 
 4757000   0.49684936   -5.6592315    1633.3369  0.028612866  0.027393818          731 
 4758000   0.48442281   -5.6661832    1637.1881  0.028674305  0.027386071          592 
 4759000   0.48628479   -5.6641486    1635.9494  0.028646589  0.027378324          683 
 4760000   0.48115433   -5.6680797    1635.0544  0.028624902  0.027370575          715 
 4761000   0.48205785   -5.6693572    1631.4721  0.028556188  0.027362821          741 
 4762000   0.48532668   -5.6650322    1636.7982  0.028643395  0.027355066          707 
 4763000   0.48936879   -5.6671403     1635.766  0.028619322  0.027347322          737 
 4764000   0.49645093   -5.6612964    1632.8323  0.028561997  0.027339574          788 
 4765000   0.49800041    -5.672633    1632.6718  0.028553198  0.027331816          725 
 4766000   0.49307312   -5.6698974     1634.399  0.028577407  0.027324081          730 
 4767000   0.49249098   -5.6488353    1633.6659  0.028558595   0.02731635          647 
 4768000   0.48622256   -5.6551755    1632.1372  0.028525888  0.027308619          636 
 4769000    0.4805359   -5.6761238    1634.0913  0.028554052  0.027300859          729 
 4770000    0.4812647   -5.6640083    1632.3568  0.028517763  0.027293109          715 
 4771000   0.48082471   -5.6541558    1631.9771  0.028505154  0.027285377          683 
 4772000   0.47545439   -5.6609971    1631.8112  0.028496284  0.027277638          640 
 4773000   0.49195213   -5.6795835    1629.9932  0.028458573  0.027269885          788 
 4774000     0.495249   -5.6704164    1633.5509  0.028514713  0.027262155          857 
 4775000   0.48607516   -5.6699823    1633.7318    0.0285119  0.027254421          779 
 4776000   0.49438655   -5.6773444    1634.7811  0.028524238  0.027246676          902 
 4777000   0.48542461   -5.6567268    1634.3382  0.028510541   0.02723893          829 
 4778000   0.48686829   -5.6796542    1635.4815  0.028524513  0.027231173          865 
 4779000   0.48079703   -5.6850884    1629.5074  0.028414372  0.027223408          791 
 4780000   0.49282306   -5.6898798     1631.995  0.028451796  0.027215649          896 
 4781000   0.48553725   -5.6874776    1630.9845  0.028428231  0.027207879          778 
 4782000   0.48774617   -5.6973556    1631.4437   0.02843029  0.027200118          837 
 4783000   0.48027726   -5.6873502    1632.2815  0.028438941  0.027192359          896 
 4784000   0.48391706   -5.6855365    1631.2283  0.028414652  0.027184607          848 
 4785000   0.49267159   -5.6798625    1632.0954  0.028423815  0.027176854          897 
 4786000   0.48053416   -5.6889812    1631.9324  0.028415038  0.027169113          853 
 4787000   0.49279171   -5.6920463    1632.1906  0.028413596  0.027161354          938 
 4788000   0.49199554   -5.6997307     1632.524  0.028413464  0.027153597          961 
 4789000   0.47936688   -5.6971491    1632.3588  0.028404656  0.027145843          924 
 4790000   0.49058222   -5.6969459    1631.0889  0.028376634   0.02713808         1041 
 4791000   0.48566269   -5.6875681     1628.963  0.028333733  0.027130317         1029 
 4792000   0.49250437   -5.6653409    1631.5563  0.028372919  0.027122571         1041 
 4793000   0.48245391    -5.685714    1631.0984  0.028359037  0.027114821         1056 
 4794000   0.48295751   -5.6808234    1632.5886  0.028379025   0.02710708         1130 
 4795000     0.482453   -5.6878606    1630.1078  0.028329994  0.027099341         1052 
 4796000   0.49472682   -5.6779972    1635.6986   0.02842123  0.027091593         1021 
 4797000   0.48599959   -5.7019417    1630.6316  0.028327281  0.027083849         1034 
 4798000   0.49131336   -5.6807378     1632.236  0.028349243  0.027076118          974 
 4799000    0.4796991     -5.68637      1632.03  0.028339758  0.027068386         1093 
 4800000   0.48600536   -5.6802479    1631.6077  0.028326523  0.027060656         1045 
 4801000   0.49136076   -5.7101664    1631.2947  0.028315189  0.027052906         1148 
 4802000   0.49188386   -5.7076526    1628.4857  0.028260546  0.027045155         1202 
 4803000   0.47969721   -5.7036446    1630.1926  0.028284277  0.027037415         1203 
 4804000   0.47867294   -5.6920506    1629.4144  0.028264891  0.027029673         1175 
 4805000   0.49132642   -5.6919279    1631.2916  0.028291565  0.027021935         1199 
 4806000   0.49061474   -5.7155145    1629.0025  0.028245985  0.027014178         1250 
 4807000   0.48395014   -5.7119158    1630.9708  0.028274231  0.027006433         1209 
 4808000   0.48338932   -5.6933238     1629.281  0.028239064  0.026998671         1177 
 4809000   0.48414906    -5.693279    1628.8504  0.028225729  0.026990912         1282 
 4810000   0.47870005   -5.6996201     1630.874   0.02825492  0.026983157         1260 
 4811000   0.48414005   -5.7188785    1625.1577  0.028150034   0.02697538         1249 
 4812000   0.48195004   -5.7259273    1626.2047  0.028162314  0.026967613         1344 
 4813000   0.47875908   -5.7178928    1627.9017  0.028185846  0.026959829         1232 
 4814000     0.462846   -5.7110005    1628.1563  0.028184398   0.02695206         1281 
 4815000   0.48169613   -5.7214273    1628.9649   0.02819254  0.026944291         1346 
 4816000   0.47943049   -5.7069846    1629.5295  0.028196455   0.02693653         1319 
 4817000   0.48394562   -5.7087397    1629.9197  0.028197351  0.026928775         1239 
 4818000   0.48118734   -5.6996474     1627.891  0.028156409  0.026921013         1355 
 4819000   0.48408828   -5.7084721    1627.6966  0.028147205  0.026913261         1398 
 4820000   0.47377301    -5.695076    1627.7685  0.028142609  0.026905509         1286 
 4821000   0.47796285   -5.7193477    1626.7547  0.028119248  0.026897752         1341 
 4822000   0.48352874   -5.7114676    1627.4627  0.028125652  0.026890005         1351 
 4823000   0.48542944   -5.7049393     1626.618  0.028105226  0.026882264         1328 
 4824000   0.48229619   -5.7265917    1627.7542  0.028119027  0.026874512         1388 
 4825000   0.47149296   -5.7140096    1626.9974  0.028100128  0.026866761         1390 
 4826000   0.48349885   -5.7337793    1627.5533  0.028103904  0.026859013         1430 
 4827000   0.48336111   -5.7247863    1624.4676   0.02804481  0.026851253         1441 
 4828000    0.4699273   -5.7230556    1624.7452  0.028043793  0.026843506         1435 
 4829000   0.47590171   -5.7121442    1627.1467  0.028079429  0.026835759         1481 
 4830000   0.47102938   -5.7208738    1627.7118  0.028083365  0.026828013         1499 
 4831000   0.47217736   -5.7222016    1623.6818  0.028008034  0.026820261         1399 
 4832000   0.47389754   -5.7394038    1628.5819  0.028086747   0.02681251         1445 
 4833000   0.47318257   -5.7214728    1623.2241  0.027988553  0.026804747         1468 
 4834000   0.47376313   -5.7121887     1625.801  0.028027185  0.026796992         1421 
 4835000   0.47574753   -5.7313023    1625.0811  0.028008981  0.026789235         1426 
 4836000   0.46694947   -5.7292549    1626.7897  0.028032632  0.026781484         1377 
 4837000   0.48785343   -5.7180873    1623.7782  0.027974954  0.026773723         1477 
 4838000   0.48172623   -5.7265504    1624.4092   0.02798004  0.026765964         1510 
 4839000   0.47141169   -5.7218453    1625.2377  0.027988525  0.026758219         1527 
 4840000   0.47352075   -5.7237387    1624.9544  0.027977865  0.026750474         1555 
 4841000   0.47291177   -5.7196623    1623.7709  0.027951713  0.026742738         1611 
 4842000   0.46544291   -5.7397456    1621.8966  0.027913682   0.02673499         1539 
 4843000   0.47471167   -5.7258638     1625.946  0.027977597  0.026727245         1478 
 4844000   0.47252378   -5.7437823    1625.6786  0.027967221  0.026719515         1509 
 4845000   0.46720251   -5.7251659    1625.3266  0.027955393  0.026711773         1406 
 4846000   0.46490575   -5.7204533    1625.9378  0.027960135  0.026704029         1496 
 4847000   0.47510565   -5.7366828    1624.9816  0.027937928   0.02669628         1581 
 4848000   0.47571506   -5.7331377     1625.283  0.027937345  0.026688532         1583 
 4849000   0.47727109   -5.7398531    1621.7862  0.027871488   0.02668079         1558 
 4850000   0.47920338   -5.7415429    1627.0387  0.027955992  0.026673044         1651 
 4851000   0.47690296   -5.7334589    1626.6876  0.027944197  0.026665317         1615 
 4852000    0.4812008   -5.7355585    1622.1481  0.027860472  0.026657586         1718 
 4853000   0.46674324    -5.758518    1622.8615   0.02786698  0.026649841         1781 
 4854000   0.48554292   -5.7459122    1622.5657  0.027856162  0.026642096         1707 
 4855000   0.47760373   -5.7509808    1622.7827  0.027854148  0.026634363         1868 
 4856000   0.47562649   -5.7584099     1624.517  0.027878175   0.02662663         1746 
 4857000   0.47316425   -5.7317614    1622.0112  0.027829441  0.026618908         1725 
 4858000   0.47632322    -5.736246    1624.9613  0.027874318  0.026611184         1887 
 4859000   0.47998964   -5.7281114    1626.0315  0.027886936  0.026603468         1841 
 4860000   0.46675838   -5.7508384    1624.2753  0.027851085  0.026595757         1791 
 4861000    0.4671715   -5.7362369    1625.7637  0.027870872  0.026588035         1850 
 4862000   0.47886572   -5.7512192    1623.5858  0.027827811  0.026580314         1847 
 4863000   0.48052992     -5.73841    1622.6472  0.027806005  0.026572598         1939 
 4864000    0.4692515   -5.7490819    1622.5815  0.027799163  0.026564879         1875 
 4865000   0.46616025    -5.753951    1624.4697  0.027825792  0.026557144         1923 
 4866000   0.47403641    -5.744558    1622.6699   0.02778925  0.026549421         1888 
 4867000   0.47544656   -5.7353307    1623.8642  0.027803989  0.026541707         1928 
 4868000    0.4638333   -5.7487675    1621.4637  0.027757185  0.026533985         2011 
 4869000   0.47489107   -5.7548796     1621.142  0.027745978  0.026526266         2077 
 4870000   0.46302771   -5.7439058    1621.7921  0.027751405  0.026518538         2053 
 4871000   0.48017842   -5.7739408    1621.7175  0.027744431  0.026510812         1927 
 4872000   0.48552648    -5.763676    1622.9657  0.027760087  0.026503087         1976 
 4873000    0.4701994   -5.7517473    1622.0556  0.027738826   0.02649536         1943 
 4874000    0.4730041   -5.7619055    1620.8474  0.027712478  0.026487625         2086 
 4875000   0.46702452   -5.7616401    1619.4749  0.027683331  0.026479897         2098 
 4876000   0.46644664   -5.7606023    1620.7248  0.027699015  0.026472172         2138 
 4877000   0.46376348   -5.7472718    1618.1791  0.027649837  0.026464447         2032 
 4878000   0.48136834   -5.7573776    1619.6858  0.027669908  0.026456736         2129 
 4879000   0.46993752   -5.7520274      1623.19   0.02772409  0.026449011         2147 
 4880000   0.46776864   -5.7542366    1624.3007  0.027737375  0.026441285         2078 
 4881000   0.46752464   -5.7701825    1620.5666   0.02766794   0.02643357         2227 
 4882000   0.46532509   -5.7689609    1619.2024  0.027638986  0.026425844         2132 
 4883000   0.45959015   -5.7694562    1621.2661  0.027668546  0.026418113         2143 
 4884000   0.46924803   -5.7701707    1623.2501  0.027696732  0.026410366         2187 
 4885000   0.47730529   -5.7626764    1620.8138  0.027649502  0.026402632         2205 
 4886000    0.4621332   -5.7557259    1621.3049   0.02765222  0.026394903         2094 
 4887000   0.45784349    -5.775932    1619.7931  0.027620781  0.026387169         2185 
 4888000   0.47708075   -5.7692161    1619.7367   0.02761417  0.026379422         2171 
 4889000   0.46372789   -5.7705916    1617.7036  0.027573867   0.02637168         2224 
 4890000   0.46000743   -5.7851587    1615.5435  0.027531416  0.026363932         2253 
 4891000   0.47043532   -5.7770403    1619.1035  0.027586444  0.026356196         2222 
 4892000   0.46749168   -5.7681014     1620.966  0.027612531  0.026348462         2263 
 4893000    0.4649612   -5.7736498    1620.7276  0.027602828  0.026340739         2136 
 4894000   0.45687929   -5.7742506    1621.0018  0.027601857  0.026333021         2292 
 4895000   0.46900239   -5.7815456    1615.3588   0.02750015  0.026325282         2188 
 4896000   0.46532442   -5.7765909    1615.7542  0.027501263  0.026317547         2323 
 4897000   0.47068786   -5.7758212    1618.8933  0.027549066  0.026309805         2284 
 4898000   0.45734079   -5.7775614    1619.6506  0.027556326   0.02630207         2334 
 4899000   0.46386311   -5.7777341    1616.0827   0.02749001  0.026294325         2438 
 4900000   0.46449298   -5.7639766    1617.9506  0.027516167  0.026286577         2416 
 4901000   0.47753074    -5.784219    1615.3562  0.027466438  0.026278827         2476 
 4902000   0.47744496   -5.7818978    1616.5958  0.027481909  0.026271086         2451 
 4903000   0.46368827   -5.7864165    1615.8647  0.027463877  0.026263343         2487 
 4904000   0.47210974   -5.7834088    1618.0166  0.027494844   0.02625559         2461 
 4905000   0.45008055   -5.7872327    1618.9349   0.02750484  0.026247833         2567 
 4906000   0.47254274   -5.7839399    1617.5406   0.02747555  0.026240083         2623 
 4907000   0.47314891   -5.8166566    1612.8917  0.027391001  0.026232325         2581 
 4908000   0.46989891   -5.7770385    1615.1378  0.027423556  0.026224565         2570 
 4909000    0.4746243   -5.7912328    1615.5572  0.027425089   0.02621681         2689 
 4910000   0.46782723   -5.8029707     1612.941  0.027375102  0.026209039         2746 
 4911000    0.4671574    -5.813798    1614.2175  0.027391189  0.026201266         2711 
 4912000   0.46425002   -5.8102561    1613.5819  0.027374828  0.026193495         2743 
 4913000   0.46944929   -5.8102564    1614.3008  0.027381451   0.02618572         2741 
 4914000   0.46350095   -5.8126821    1612.4587  0.027344639  0.026177948         2762 
 4915000    0.4664503    -5.802476    1614.2241  0.027369008  0.026170172         2800 
 4916000   0.47506154   -5.8114449    1611.8048   0.02732243  0.026162392         2848 
 4917000   0.47303945    -5.804447    1614.7649  0.027367041  0.026154606         2824 
 4918000    0.4599465   -5.8087947    1611.8548  0.027312165  0.026146816         2862 
 4919000   0.46297251   -5.8105391    1611.9961  0.027309008  0.026139033         2943 
 4920000   0.46561089   -5.8148243    1610.5336  0.027278686  0.026131249         2909 
 4921000    0.4751724   -5.8241631    1611.0555   0.02728198  0.026123474         2950 
 4922000   0.46595653    -5.810591    1610.3386  0.027264299  0.026115676         3008 
 4923000   0.47232692   -5.8287958     1610.721  0.027265234  0.026107882         3008 
 4924000   0.46009438   -5.8247921    1611.0286  0.027264903  0.026100089         3104 
 4925000   0.46537901   -5.8343077    1612.4938  0.027284158  0.026092288         2996 
 4926000   0.47100246   -5.8266043     1610.891  0.027251505  0.026084495         2994 
 4927000   0.46028166   -5.8202673    1611.7064  0.027259766  0.026076701         3053 
 4928000   0.45912372   -5.8302364    1610.5393  0.027234498  0.026068912         3079 
 4929000   0.46830892   -5.8228517    1610.4956  0.027228234  0.026061117         3166 
 4930000   0.47016371   -5.8134416    1611.7131  0.027243292  0.026053312         3134 
 4931000   0.46626444   -5.8282686    1608.0642  0.027176101  0.026045498         3269 
 4932000   0.47084861   -5.8467566    1609.4448  0.027193918  0.026037687         3349 
 4933000   0.45943437   -5.8355761    1609.9608  0.027197122  0.026029862         3330 
 4934000   0.45550595   -5.8443685    1608.1539  0.027161091  0.026022051         3300 
 4935000   0.46467963   -5.8346738    1607.0221  0.027136475  0.026014215         3329 
 4936000   0.47207969   -5.8539307    1610.0934  0.027182831  0.026006371         3362 
 4937000   0.46322724   -5.8590685    1607.6561  0.027136184  0.025998542         3412 
 4938000   0.45611488   -5.8492984    1609.5164  0.027162083  0.025990697         3426 
 4939000   0.46522739   -5.8601071    1608.4574  0.027138716  0.025982849         3427 
 4940000   0.45888032   -5.8612477    1605.3705  0.027081149  0.025974997         3548 
 4941000   0.45645651   -5.8565799    1600.8945  0.027000177  0.025967137         3591 
 4942000   0.45808408   -5.8515401    1606.5593  0.027090235  0.025959275         3565 
 4943000   0.46557744   -5.8755774    1603.4935  0.027033068  0.025951406         3600 
 4944000    0.4522242    -5.876609    1603.5723  0.027028929   0.02594353         3662 
 4945000    0.4669084    -5.868003    1603.9668  0.027030111  0.025935642         3661 
 4946000   0.46900061   -5.8853659     1603.497  0.027016731  0.025927751         3650 
 4947000   0.46511408   -5.8716703    1603.9355  0.027018657  0.025919857         3627 
 4948000   0.45538072   -5.8719144     1603.981  0.027013962  0.025911974         3688 
 4949000   0.45736237   -5.8873969    1603.1656  0.026994773  0.025904078         3659 
 4950000   0.47251195   -5.8839719    1600.9999  0.026952859  0.025896194         3632 
 4951000   0.46165012   -5.8833596    1600.8538  0.026944957   0.02588831         3730 
 4952000   0.45203239    -5.892827    1603.2867  0.026980458  0.025880424         3729 
 4953000   0.46176183   -5.8933949    1602.6724  0.026964675  0.025872538         3712 
 4954000   0.46249325   -5.8946137    1605.6209   0.02700883  0.025864654         3725 
 4955000    0.4520457   -5.8948106    1604.4813  0.026984213  0.025856766         3738 
 4956000   0.45672315   -5.8849012    1604.0377  0.026971309  0.025848878         3729 
 4957000    0.4647957   -5.8969725    1600.2598  0.026902357  0.025840992         3772 
 4958000   0.45508063   -5.8842502    1600.8032  0.026906065  0.025833111         3742 
 4959000   0.45889083   -5.8894978    1601.5761  0.026913626  0.025825237         3748 
 4960000   0.44978746   -5.9000683    1602.3459  0.026921134  0.025817354         3754 
 4961000   0.45792335   -5.9082971    1600.9287  0.026891901  0.025809463         3782 
 4962000   0.45335082    -5.890245    1603.4501  0.026928827  0.025801571         3756 
 4963000   0.45535465   -5.8884889    1604.3246  0.026938085  0.025793675         3795 
 4964000   0.45481853   -5.8865888    1601.5878  0.026886715  0.025785781         3792 
 4965000   0.45195359   -5.8923743    1597.4396  0.026811675  0.025777879         3844 
 4966000   0.45354906   -5.9029143    1603.3504  0.026905464  0.025769989         3849 
 4967000   0.45536007   -5.9130361    1597.8756  0.026808194  0.025762079         3838 
 4968000   0.46048934    -5.914049    1595.9464  0.026770437  0.025754183         3842 
 4969000   0.46238753   -5.9112813    1598.1065  0.026801276  0.025746278         3856 
 4970000    0.4575896   -5.9153657    1600.3259  0.026833096  0.025738378         3843 
 4971000   0.45449401   -5.9059913    1597.5831  0.026781719  0.025730489         3838 
 4972000   0.46403899   -5.9098036    1600.5605  0.026826235  0.025722587         3875 
 4973000    0.4578405   -5.9041449    1595.4268  0.026734814  0.025714677         3831 
 4974000   0.45941873   -5.9309652    1596.9147  0.026754368  0.025706779         3852 
 4975000   0.45743138   -5.9147864    1597.4443  0.026757862   0.02569887         3864 
 4976000   0.44938807   -5.9120933    1600.0673  0.026796411  0.025690969         3860 
 4977000   0.45730229   -5.9207949    1598.1388  0.026758737  0.025683071         3867 
 4978000   0.45459161   -5.9109026    1595.7995  0.026714201  0.025675159         3892 
 4979000   0.46151729   -5.9438221    1600.1025  0.026780855  0.025667261         3890 
 4980000   0.47036269   -5.9278496    1596.4072   0.02671364  0.025659356         3880 
 4981000   0.45888842   -5.9168897    1597.1688   0.02672102  0.025651456         3848 
 4982000   0.44847817   -5.9272301    1597.8257  0.026726645  0.025643565         3839 
 4983000   0.45337531    -5.936758    1597.3608  0.026713506  0.025635672         3881 
 4984000   0.46096486   -5.9167434    1599.0384  0.026736195  0.025627782         3877 
 4985000   0.45357021   -5.9384052    1598.3257  0.026718919  0.025619897         3871 
 4986000   0.45447024   -5.9347559    1597.0636  0.026692465  0.025612014         3884 
 4987000   0.45489499   -5.9313672    1598.7161  0.026714727  0.025604123         3881 
 4988000   0.44518723    -5.929064    1597.9441  0.026696473  0.025596234         3873 
 4989000   0.44535915   -5.9309117    1597.6664  0.026686484  0.025588354         3904 
 4990000   0.45790886   -5.9247497    1599.1935  0.026706638  0.025580471         3876 
 4991000    0.4409493   -5.9242197    1595.1474   0.02663373  0.025572587         3876 
 4992000   0.45024073   -5.9313882    1597.3681  0.026665467  0.025564714         3871 
 4993000   0.45119632   -5.9439787    1596.9653  0.026653403  0.025556831         3892 
 4994000   0.45324854   -5.9206601    1596.5365  0.026640911  0.025548957         3868 
 4995000   0.43697275   -5.9467622    1594.8769   0.02660789  0.025541078         3879 
 4996000   0.45676424   -5.9507192    1598.2133  0.026658215  0.025533215         3894 
 4997000   0.45433656   -5.9238132    1598.9514  0.026665188   0.02552535         3869 
 4998000   0.45904998   -5.9379954    1594.3113  0.026582488  0.025517485         3874 
 4999000   0.45293324   -5.9374179    1593.5813  0.026565001  0.025509631         3873 
 5000000   0.44813069   -5.9355236    1596.1866  0.026603111  0.025501774         3887 
 5001000   0.43989246   -5.9366201    1595.2267  0.026581795  0.025493925         3873 
 5002000   0.45245608   -5.9374774    1596.9875  0.026605816  0.025486069         3845 
 5003000   0.46630038   -5.9283036    1595.4153   0.02657431  0.025478223         3889 
 5004000   0.46191492   -5.9363158    1594.2923  0.026550298   0.02547038         3894 
 5005000   0.44468595   -5.9228645    1594.7206  0.026552124  0.025462539         3869 
 5006000   0.45618111   -5.9322358    1595.7341  0.026563692  0.025454695         3891 
 5007000   0.44468608   -5.9422723    1593.6008  0.026522882  0.025446854         3891 
 5008000   0.45475285   -5.9401444    1595.7218  0.026552879  0.025439014         3895 
 5009000   0.45466701   -5.9462915    1595.6248  0.026545964  0.025431181         3876 
 5010000   0.43903255   -5.9365398    1598.5514  0.026589344  0.025423349         3912 
 5011000   0.44171938   -5.9406979    1596.3748  0.026547841  0.025415512         3902 
 5012000   0.45406822   -5.9280388    1594.1847  0.026506131  0.025407681         3875 
Loop time of 12650.9 on 48 procs for 5000000 steps with 4000 atoms

Performance: 68295.360 tau/day, 395.228 timesteps/s
99.4% CPU use with 48 MPI tasks x no OpenMP threads

MPI task timing breakdown:
Section |  min time  |  avg time  |  max time  |%varavg| %total
---------------------------------------------------------------
Pair    | 908.09     | 964.8      | 1035.6     | 102.4 |  7.63
Neigh   | 85.429     | 89.087     | 93.313     |  22.4 |  0.70
Comm    | 812.9      | 879.64     | 944.07     | 107.6 |  6.95
Output  | 14.75      | 14.755     | 14.858     |   0.4 |  0.12
Modify  | 10556      | 10584      | 10616      |  12.4 | 83.66
Other   |            | 118.4      |            |       |  0.94

Nlocal:        83.3333 ave          87 max          79 min
Histogram: 4 0 6 7 0 8 6 8 7 2
Nghost:        2379.33 ave        2392 max        2365 min
Histogram: 3 2 4 1 14 6 4 7 5 2
Neighs:        16395.7 ave       18827 max       14579 min
Histogram: 7 5 5 8 6 3 3 4 5 2
FullNghs:      32792.7 ave       34446 max       30770 min
Histogram: 4 0 5 5 4 12 1 7 7 3

Total # of neighbors = 1574049
Ave neighs/atom = 393.51225
Neighbor list builds = 269229
Dangerous builds = 0

#clear
#
#next RN
#
#jump SELF
Total wall time: 3:30:54
