
units lj                  # Use reduced LJ style units
atom_style atomic         # Uncharged point particles
atom_modify map hash      # Needed for indexing of clusters etc
                          # Used to be able to find where atoms are in relation to each other.

lattice fcc 1.0 spacing 1 1 1
Lattice spacing in x,y,z = 1.5874011 1.5874011 1.5874011
region box block 0 10 0 10 0 10 units lattice
create_box 2 box
Created orthogonal box = (0.0000000 0.0000000 0.0000000) to (15.874011 15.874011 15.874011)
  3 by 4 by 4 MPI processor grid
create_atoms 1 box
Created 4000 atoms
  using lattice units in orthogonal box = (0.0000000 0.0000000 0.0000000) to (15.874011 15.874011 15.874011)
  create_atoms CPU = 0.002 seconds
set type 1 type/fraction 2 0.25 78393
Setting atom values ...
  1031 settings made for type/fraction
mass 1 1.0
mass 2 1.0
pair_style lj/cut  3.5
pair_modify tail  yes
pair_coeff 1  1  1.0  1.0   # Intearaction between 1 and 1 set with epsilon = 1 and sigma = 1
pair_coeff 1  2  1.5  0.8
pair_coeff 2  2  0.5  0.88

write_data data.0
System init for write_data ...
Neighbor list info ...
  update every 1 steps, delay 10 steps, check yes
  max neighbors/atom: 2000, page size: 100000
  master list distance cutoff = 3.8
  ghost atom cutoff = 3.8
  binsize = 1.9, bins = 9 9 9
  1 neighbor lists, perpetual/occasional/extra = 1 0 0
  (1) pair lj/cut, perpetual
      attributes: half, newton on
      pair build: half/bin/atomonly/newton
      stencil: half/bin/3d
      bin: standard
WARNING: Not all mixed pair coeffs generated from mixing. Use write_data with 'pair ij' option to store all pair coeffs. (../write_data.cpp:312)


#############################
#   M E L T   S Y S T E M   #
#############################

velocity all create 2.4 8172548 mom yes dist gaussian # Assign velocities
                                                    # Temperature 2.4, random number seed, zero linear momentum
                                                                                # Gaussian distribution

timestep 0.002   # simulation timestep
thermo 1000       # output thermodynamic data every 1000 steps bf 100

# Define a fix  in this case with index 1 applied to all
# particles in the simulation. This fix is for simulations
# in the anisotropic NPT ensemble. Note that we use the MTK
# correction.
fix 1 all npt temp 2.4 2.4 0.1 iso 5.68 5.68 0.5 mtk yes tchain 5 pchain 5 # Use NPT ensemble
                                                                         # Set temperature and pressure and damping
                                                                         # Numbers of thermostats in chain and in barostat
run 10000          # run for 10000 steps
Per MPI rank memory allocation (min/avg/max) = 3.642 | 3.644 | 3.648 Mbytes
Step Temp E_pair E_mol TotEng Press Volume 
       0          2.4   -6.7340002            0   -3.1349002   -3.8290783         4000 
    1000    2.3869751    -4.950301            0   -1.3707334    5.5265344    4299.8063 
    2000    2.3652664   -4.8847507            0   -1.3377381    5.6682893    4332.6657 
    3000    2.4280829   -4.9172488            0   -1.2760349    5.8776975    4298.6745 
    4000      2.38055   -4.8510161            0   -1.2810838    5.6894973    4343.6075 
    5000    2.3880423   -4.9131026            0   -1.3319347    5.4505886    4336.7886 
    6000    2.4096514   -4.9156901            0   -1.3021167    6.0233029    4281.0016 
    7000    2.3684752   -4.9692701            0   -1.4174455    5.6781947    4283.2616 
    8000    2.3987848   -4.9293275            0   -1.3320498    5.4951891    4320.2329 
    9000    2.3684436   -4.9072606            0   -1.3554834    5.6698796    4307.0896 
   10000    2.3880129   -4.9549754            0   -1.3738515    5.6526842    4289.7899 
Loop time of 2.36862 on 48 procs for 10000 steps with 4000 atoms

Performance: 729539.644 tau/day, 4221.873 timesteps/s
99.6% CPU use with 48 MPI tasks x no OpenMP threads

MPI task timing breakdown:
Section |  min time  |  avg time  |  max time  |%varavg| %total
---------------------------------------------------------------
Pair    | 0.99563    | 1.0706     | 1.1901     |   3.3 | 45.20
Neigh   | 0.2009     | 0.20856    | 0.22794    |   1.1 |  8.80
Comm    | 0.67905    | 0.82023    | 0.91226    |   5.1 | 34.63
Output  | 0.00024944 | 0.00025446 | 0.0003219  |   0.0 |  0.01
Modify  | 0.22427    | 0.25419    | 0.29436    |   3.5 | 10.73
Other   |            | 0.01481    |            |       |  0.63

Nlocal:        83.3333 ave          92 max          72 min
Histogram: 1 1 0 4 11 11 7 2 6 5
Nghost:        1565.23 ave        1592 max        1538 min
Histogram: 2 3 5 3 10 6 9 7 2 1
Neighs:        8887.06 ave       10034 max        7604 min
Histogram: 2 0 4 6 13 8 4 3 5 3

Total # of neighbors = 426579
Ave neighs/atom = 106.64475
Neighbor list builds = 909
Dangerous builds = 225

# Equilibrate just above the melting temperature to avoid step fn in T

fix 1 all npt temp 1.25 1.25 0.1 iso 5.68 5.68 0.5 mtk yes tchain 5 pchain 5
run 2000
Per MPI rank memory allocation (min/avg/max) = 3.643 | 3.645 | 3.649 Mbytes
Step Temp E_pair E_mol TotEng Press Volume 
   10000    2.3880129   -4.9549754            0   -1.3738515    5.6526842    4289.7899 
   11000    1.2446663   -6.7015517            0    -4.835019    5.6632437    3496.1482 
   12000    1.2805364   -6.7465488            0   -4.8262244    5.8169905    3476.1912 
Loop time of 0.535846 on 48 procs for 2000 steps with 4000 atoms

Performance: 644961.809 tau/day, 3732.418 timesteps/s
99.6% CPU use with 48 MPI tasks x no OpenMP threads

MPI task timing breakdown:
Section |  min time  |  avg time  |  max time  |%varavg| %total
---------------------------------------------------------------
Pair    | 0.2346     | 0.2596     | 0.28558    |   2.0 | 48.45
Neigh   | 0.035414   | 0.03789    | 0.041066   |   0.6 |  7.07
Comm    | 0.16338    | 0.18649    | 0.21561    |   2.8 | 34.80
Output  | 5.324e-05  | 5.4843e-05 | 7.0762e-05 |   0.0 |  0.01
Modify  | 0.041095   | 0.047061   | 0.050907   |   1.2 |  8.78
Other   |            | 0.004755   |            |       |  0.89

Nlocal:        83.3333 ave          90 max          73 min
Histogram: 2 2 1 2 7 9 5 11 5 4
Nghost:        1803.73 ave        1823 max        1775 min
Histogram: 2 1 1 2 6 12 7 11 2 4
Neighs:        10997.7 ave       12454 max        8866 min
Histogram: 1 0 3 4 9 7 9 10 1 4

Total # of neighbors = 527890
Ave neighs/atom = 131.97250
Neighbor list builds = 142
Dangerous builds = 14

#############################
# L I N E A R  Q U E N C H  #
#############################

# Define solid atoms. This closely follows ten Wolde  Ruiz-Montero and Frenkel  Faraday Discuss  1996  104  93-110
# Compute components of the per-atom q6 vector
compute q6 all orientorder/atom degrees 1 6 components 6 nnn NULL cutoff 1.3 # compute the Q6 parameter.
                                                                             # Use all neighbours within 1.3 unit cell.

# get number of connections
compute coord_number all coord/atom orientorder q6 0.5

# An atom is solid if it has 8 or more connections (of a possible 14)
variable is_solid atom c_coord_number>=8
group solid dynamic all var is_solid    # Must be dynamic to update
dynamic group solid defined

# do clustering
compute cluster solid cluster/atom 1.3 # Create a cluster where all atoms within are solid and max 1.3 units from another member

# define chunks one chunk per cluster
compute clus_chunks solid chunk/atom c_cluster nchunk every compress yes  # Says which atoms are in which chunk

# count the size of each chunk
compute size_chunks solid property/chunk clus_chunks count


# Find the maximum entry in the vector of chunk sizes
variable max_n equal max(c_size_chunks)


# Thermo style which includes this variable
# thermo_style custom step temp pe vol v_max_n

thermo ${N}  # Print the thermo information every 100 steps
thermo 1000  

# Reset the npt fix at a lower temperature (below freezing)
fix 1  all npt temp  ${temp} ${temp}  0.1  iso  5.68  5.68  0.5  mtk yes tchain  5  pchain  5
fix 1  all npt temp  0.45 ${temp}  0.1  iso  5.68  5.68  0.5  mtk yes tchain  5  pchain  5
fix 1  all npt temp  0.45 0.45  0.1  iso  5.68  5.68  0.5  mtk yes tchain  5  pchain  5

dump dmp2 all dcd ${N} traj.dcd
dump dmp2 all dcd 1000 traj.dcd


compute msd all msd com yes
variable twopoint equal c_msd[4]/6/(step*dt+1.0e-6)
fix 9 all vector 10 c_msd[4]
variable fit equal slope(f_9)/6/(10*dt)
thermo_style custom step temp pe c_msd[4] v_twopoint v_fit v_max_n

fix 1 all npt temp 1.25 ${temp} 0.1 iso 5.68 5.68 0.5 mtk yes tchain 5 pchain 5
fix 1 all npt temp 1.25 0.45 0.1 iso 5.68 5.68 0.5 mtk yes tchain 5 pchain 5
run 500000 # 5000000  # Run for this many steps
Neighbor list info ...
  update every 1 steps, delay 10 steps, check yes
  max neighbors/atom: 2000, page size: 100000
  master list distance cutoff = 3.8
  ghost atom cutoff = 3.8
  binsize = 1.9, bins = 8 8 8
  4 neighbor lists, perpetual/occasional/extra = 1 3 0
  (1) pair lj/cut, perpetual
      attributes: half, newton on
      pair build: half/bin/atomonly/newton
      stencil: half/bin/3d
      bin: standard
  (2) compute orientorder/atom, occasional
      attributes: full, newton on
      pair build: full/bin/atomonly
      stencil: full/bin/3d
      bin: standard
  (3) compute coord/atom, occasional
      attributes: full, newton on
      pair build: full/bin/atomonly
      stencil: full/bin/3d
      bin: standard
  (4) compute cluster/atom, occasional
      attributes: full, newton on
      pair build: full/bin/atomonly
      stencil: full/bin/3d
      bin: standard
Per MPI rank memory allocation (min/avg/max) = 9.800 | 9.808 | 9.811 Mbytes
Step Temp PotEng c_msd[4] v_twopoint v_fit v_max_n 
   12000    1.2805364   -6.7465488 1.8571758e-30 1.2897054e-32 8.3333333e+20            4 
   13000    1.2260679   -6.7012873   0.53363522 0.0034207385   0.04335246            2 
   14000    1.2332877   -6.7539079   0.98147766 0.0058421287  0.040623604            2 
   15000    1.2426364   -6.7450205    1.4605512 0.0081141729   0.03949501            2 
   16000    1.2255753   -6.7680231    1.9728492  0.010275256   0.03994289            2 
   17000    1.2553016   -6.7479551    2.4321175  0.011922144  0.040350276            2 
   18000    1.2569947   -6.7908778    2.8723699  0.013298008  0.039939123            1 
   19000    1.2485226   -6.7227552     3.310383  0.014519224  0.039273932            1 
   20000    1.2448624   -6.7637021    3.7584944  0.015660393  0.038885794            1 
   21000    1.2248946   -6.7516383    4.2119495  0.016714085  0.038616452            1 
   22000    1.2485849   -6.7550165    4.6323086  0.017546623  0.038425704            2 
   23000    1.2369271   -6.7715937    5.1141833  0.018529649  0.038258676            1 
   24000      1.25709   -6.7664454    5.5681307  0.019333787  0.038229636            1 
   25000    1.1866338   -6.7829931    6.0540981  0.020180327   0.03820817            1 
   26000    1.2374339   -6.7656823    6.5429437  0.020970973  0.038247061            2 
   27000    1.1910592   -6.7875139    6.9898394  0.021573578  0.038270716            3 
   28000    1.2643848   -6.7906661    7.4725116  0.022239617  0.038324452            1 
   29000     1.240988   -6.7826066    7.8962235  0.022690297  0.038354421            1 
   30000    1.2280687   -6.7656255    8.3688895  0.023246915  0.038336574            2 
   31000    1.2401502   -6.8230784    8.8928355  0.023905471  0.038369295            3 
   32000    1.2279134   -6.8072161     9.242966  0.024070224  0.038409617            1 
   33000    1.2176648   -6.7645095    9.6990807  0.024492628    0.0383502            3 
   34000    1.2091969   -6.7877233     10.13506  0.024840834  0.038281269            1 
   35000    1.2187689   -6.7924186    10.555015  0.025130989  0.038224072            2 
   36000    1.2160593   -6.7616211     10.99982  0.025462546  0.038133934            1 
   37000    1.2452248   -6.7949391    11.420277  0.025721345  0.038050829            2 
   38000    1.1834542   -6.8239357     11.90124  0.026099211  0.037989823            1 
   39000    1.2382885   -6.8021408    12.464243  0.026632998  0.037966381            1 
   40000    1.2206304   -6.8192333    12.978903  0.027039382   0.03800364            1 
   41000    1.2199926   -6.8106621    13.489827  0.027418348  0.038081822            2 
   42000    1.2180217   -6.8393921    13.896372  0.027572166  0.038141716            2 
   43000    1.2258404   -6.8159464    14.367213  0.027843435  0.038168085            2 
   44000    1.2211885   -6.8012313    14.855107  0.028134673  0.038213809            1 
   45000    1.1910587   -6.8300167    15.463179  0.028635517   0.03827867            1 
   46000    1.1703345   -6.8405735     15.94153  0.028879582  0.038377337            1 
   47000    1.2079447   -6.8398744    16.341563  0.028974403  0.038468993            2 
   48000     1.192268   -6.7850592    16.666144  0.028934278  0.038496427            2 
   49000    1.1860462   -6.8204279    16.981296  0.028879756   0.03845818            2 
   50000    1.1813243   -6.8161895    17.435834  0.029059722  0.038417259            2 
   51000    1.1737929   -6.8584501    17.980732  0.029380281  0.038397288            2 
   52000    1.1795739   -6.8288336    18.365599   0.02943205  0.038382727            2 
   53000    1.2064373   -6.8503106    18.817187  0.029586772  0.038331358            1 
   54000    1.2171592   -6.8967383    19.244095  0.029697677  0.038297019            1 
   55000      1.18609   -6.8535437    19.791703  0.029987428  0.038279483            2 
   56000    1.1867138   -6.8685648    20.166339  0.030009433  0.038255101            2 
   57000    1.1934848   -6.8680535    20.581553   0.03008999  0.038215687            1 
   58000     1.172503   -6.8746993    20.926509  0.030066822  0.038171545            2 
   59000    1.1860188   -6.8596897    21.329734  0.030126743  0.038123214            1 
   60000    1.1579885    -6.819922    21.925921  0.030452668  0.038074708            2 
   61000    1.1802983   -6.8795778    22.176455  0.030295704  0.038022776            2 
   62000    1.1915089   -6.9297027    22.486038  0.030223169  0.037949193            2 
   63000    1.1848273   -6.8693722    23.118638  0.030580209  0.037894682            1 
   64000    1.1648473   -6.8705595    23.443233  0.030525043  0.037833776            2 
   65000    1.1732403   -6.8946631    23.871923   0.03060503  0.037768983            1 
   66000    1.1874986   -6.8884397    24.270738  0.030644871  0.037709055            2 
   67000    1.1751409   -6.9060198    24.601305  0.030598638  0.037645353            1 
   68000    1.1462733   -6.8743881    25.014855  0.030655459  0.037578103            2 
   69000    1.1511196   -6.9110402    25.513446  0.030813341  0.037501803            3 
   70000    1.1583985   -6.9525896    25.710432  0.030607657   0.03742086            1 
   71000    1.1645519   -6.9315715    26.048069   0.03057285  0.037332293            1 
   72000    1.1654936   -6.9068013    26.526436  0.030701893  0.037245615            5 
   73000    1.1457031   -6.9515598    27.103616  0.030940201  0.037179227            2 
   74000    1.1489878   -6.9519606    27.609441  0.031091713   0.03712843            2 
   75000    1.1495131   -6.9605996     27.79434    0.0308826  0.037067627            1 
   76000    1.1625787   -6.9147068    28.238192   0.03096293  0.036992825            2 
   77000    1.1482084   -6.9521539     28.65514  0.031012056  0.036918542            2 
   78000    1.1342053    -6.956866    28.900068  0.030876141   0.03685501            2 
   79000    1.1403113   -6.9280406    29.392326  0.031004563  0.036781149            1 
   80000    1.1556259    -6.895126    29.501303  0.030730524  0.036692164            1 
   81000    1.1363796   -6.9087064     29.84733  0.030707129  0.036587493            2 
   82000    1.1355679   -6.9469426     30.09892  0.030588333  0.036482161            1 
   83000    1.1138545   -6.9698136    30.361291  0.030483224  0.036373601            4 
   84000    1.1293224   -6.9645296    30.675452  0.030431996  0.036257177            1 
   85000    1.1354279   -6.9854557    30.875311  0.030269912  0.036128652            1 
   86000    1.1180562   -6.9357744    31.431589  0.030456966  0.036006801            1 
   87000    1.1203962   -6.9524733    31.667525  0.030332878  0.035891474            2 
   88000    1.1398546   -6.9727403    31.888235  0.030197192  0.035768974            2 
   89000    1.0951243   -6.9522466    32.215545  0.030164368  0.035642159            1 
   90000    1.1288226   -6.9711677     32.46262  0.030057981  0.035515961            2 
   91000    1.1491991    -6.968503    32.824712   0.03005926  0.035388881            2 
   92000    1.1068349   -6.9774795    33.117723  0.029997937  0.035261477            4 
   93000    1.0866575   -7.0262965    33.384713  0.029914618    0.0351355            1 
   94000     1.120428   -6.9892363    34.057844  0.030193124  0.035023293            3 
   95000    1.1154802    -7.006113    34.368235  0.030147575  0.034924874            1 
   96000     1.106427   -6.9468425    34.746543   0.03016193  0.034824926            2 
   97000    1.1148484   -7.0088161    34.935072  0.030012948  0.034723017            4 
   98000    1.1001324   -7.0162958    35.220252  0.029949194  0.034617979            2 
   99000    1.0991135   -6.9812221    35.530519  0.029907844  0.034510001            1 
  100000    1.0908065   -7.0255337    35.771093  0.029809244  0.034400512            1 
  101000    1.1039656   -7.0318466    36.191434  0.029860919  0.034295068            2 
  102000    1.1231738   -7.0240229    36.654107  0.029946166  0.034194362            5 
  103000    1.1310115   -7.0332081    36.923823  0.029873643  0.034102985            3 
  104000    1.0929706    -6.979145     37.52438  0.030067612  0.034015493            2 
  105000    1.1131854   -7.0128547    37.832629  0.030025896   0.03393384            1 
  106000    1.1113285    -7.004211    38.222487  0.030049125  0.033859309            2 
  107000    1.1073043   -7.0158894    38.462942  0.029955562  0.033783355            1 
  108000    1.0973351   -7.0170541    38.786968  0.029928216  0.033701476            3 
  109000    1.0744072   -7.0235377    38.947281  0.029776208   0.03361341            3 
  110000    1.0801863   -7.0322549     39.34914  0.029809955  0.033526231            4 
  111000    1.1015543   -7.0297649    39.488439  0.029645975  0.033440156            1 
  112000     1.105574   -7.0728111    39.898443  0.029686342  0.033356211            2 
  113000    1.0967806   -7.0413336    40.249813  0.029682753  0.033277539            2 
  114000    1.0803017   -7.0647486    40.474588  0.029586687  0.033188176            1 
  115000    1.0777697   -7.0265711    40.871573  0.029617082  0.033102696            2 
  116000    1.0675169   -7.0782281    40.942949  0.029413038  0.033018787            2 
  117000    1.0785041   -7.0746568    41.570316  0.029608487  0.032935025            3 
  118000    1.0856555   -7.0952098    41.833894   0.02954371  0.032856818            1 
  119000    1.0846544   -7.0944141    41.965319  0.029387478  0.032772995            2 
  120000    1.1161653   -7.0604946    42.287635  0.029366413   0.03268457            3 
  121000    1.1007028   -7.0653776    42.629974  0.029359486  0.032603061            1 
  122000    1.0719031   -7.0908945    43.044935  0.029402278  0.032529611            3 
  123000    1.0640497   -7.1079891    43.455394  0.029441324  0.032459693            1 
  124000    1.0935323   -7.1367434    43.678358  0.029353735   0.03239057            4 
  125000    1.0726256    -7.051776    44.220904  0.029480603  0.032323067            3 
  126000     1.071583   -7.1066567    44.572317  0.029479046  0.032258899            3 
  127000    1.0999811    -7.119348    44.471238  0.029180602  0.032190764            1 
  128000     1.079693   -7.1223672    44.823088  0.029181698  0.032120185            6 
  129000     1.072336   -7.1185126     45.12816  0.029152558  0.032050739            1 
  130000    1.0525928   -7.0822163    45.346965  0.029068567  0.031978711            1 
  131000    1.0526904   -7.1181146    45.730666  0.029090755  0.031904964            3 
  132000    1.0624101   -7.1219517    46.035392  0.029062748  0.031833169            2 
  133000    1.0359967   -7.1007168    46.502847  0.029137122  0.031761032            2 
  134000    1.0595042   -7.0977675    46.560771  0.028955703  0.031691014            3 
  135000    1.0517081   -7.1050424    46.829037  0.028906813  0.031621838            5 
  136000    1.0746333   -7.1562366    47.030089  0.028817457  0.031549331            3 
  137000    1.0375573   -7.1350791     47.52061  0.028905481  0.031477572            1 
  138000    1.0722117   -7.1342818    47.797391  0.028863159  0.031413241            1 
  139000    1.0754427   -7.1400951    48.265926  0.028936406  0.031349874            5 
  140000    1.0541062   -7.1720281    48.684288  0.028978743  0.031290292            2 
  141000    1.0300494   -7.1673879    48.897582   0.02889928  0.031229992            1 
  142000    1.0380515   -7.1236142    49.350914  0.028961804  0.031170399            1 
  143000    1.0594142   -7.1565519    49.471944  0.028829804  0.031113265            2 
  144000    1.0494389   -7.1625417    49.650831   0.02873312   0.03105243            1 
  145000     1.046514   -7.1842055    49.688057  0.028556354  0.030986691            2 
  146000    1.0391547   -7.1658875    50.014984  0.028547365  0.030918421            1 
  147000    1.0385267    -7.178838    50.145316   0.02842705  0.030850396            2 
  148000    1.0516414   -7.1859052    50.393679  0.028374819  0.030780162            2 
  149000    1.0342646   -7.1582468    50.642993  0.028323821  0.030710182            2 
  150000     1.033323   -7.1904209    50.837427  0.028243015  0.030639071            2 
  151000    1.0259103   -7.1931322    50.933388  0.028108934  0.030565757            2 
  152000    1.0284217   -7.1940813    51.330939  0.028141962  0.030493292            2 
  153000    1.0214161   -7.2039078     51.76804    0.0281961  0.030424631            3 
  154000    1.0233879   -7.1726714    52.065764  0.028174114  0.030357986            3 
  155000    1.0274954   -7.1987891    52.267252  0.028100673  0.030288727            2 
  156000    1.0021297   -7.2095094    52.487945  0.028038432  0.030219156            3 
  157000    1.0026429   -7.1873839    52.817713  0.028034879  0.030151823            2 
  158000   0.99849812   -7.2014892    53.035458  0.027972288  0.030085584            2 
  159000    1.0229603   -7.2263241     53.31055   0.02794054  0.030021219            3 
  160000     1.032953   -7.2412914    53.337716  0.027780061  0.029954285            6 
  161000    1.0089852   -7.1968657    53.761489  0.027826858  0.029888667            2 
  162000    1.0014919   -7.2309655    53.839396  0.027695163  0.029821054            3 
  163000      1.02652   -7.1980181    53.977421  0.027595818  0.029751888            3 
  164000   0.98959792   -7.2630845    54.155956   0.02751827  0.029679693            4 
  165000    1.0063149   -7.2046423    54.574555  0.027562907  0.029609266            2 
  166000   0.99807321   -7.2598184    54.789713  0.027504876  0.029538445            2 
  167000   0.99348893   -7.2698261    54.947352  0.027418838  0.029468719            2 
  168000    1.0164847   -7.2584216    55.027043   0.02729516  0.029397146            2 
  169000    1.0218288   -7.2043472    55.506584   0.02737011   0.02932693            1 
  170000   0.99421468   -7.2724239    55.512244  0.027211884  0.029256868            2 
  171000    0.9780422    -7.214224     55.93038   0.02725652  0.029187645            1 
  172000   0.97609343   -7.2283042    56.184589  0.027221216  0.029117878            2 
  173000   0.99563315   -7.2711415    56.330075  0.027133947  0.029049992            2 
  174000   0.99119416   -7.2801598    56.249022  0.026939186  0.028981239            2 
  175000    0.9978837   -7.2800332    56.359881  0.026838038  0.028905742            2 
  176000    1.0082687   -7.2895525    56.528581  0.026765427  0.028828823            3 
  177000   0.99219627   -7.2509568    56.796213  0.026740213  0.028753805            1 
  178000   0.98177799   -7.2879975    56.910969  0.026643712  0.028679834            3 
  179000   0.99390368    -7.270754    57.275108  0.026664389  0.028603943            2 
  180000   0.97800104   -7.2774615    57.281958  0.026519425  0.028527958            2 
  181000   0.96575688   -7.2575326    57.592258  0.026515773  0.028451067            1 
  182000    1.0035501   -7.2919925    57.748746  0.026441733  0.028377012            1 
  183000   0.98175314   -7.2955936    58.083594  0.026449724  0.028301831            2 
  184000   0.96840191   -7.3082034    58.020428  0.026277368  0.028225558            2 
  185000   0.97466183   -7.3123681    58.289551  0.026256554  0.028150415            2 
  186000    0.9711249   -7.2889673    58.785085  0.026337404  0.028075999            2 
  187000   0.94758417    -7.317254    58.565217  0.026098581  0.028001149            1 
  188000   0.97264875   -7.3216267    58.821598  0.026073404  0.027925049            1 
  189000   0.96842371   -7.3080256    59.100161  0.026058272  0.027851582            2 
  190000   0.95738587   -7.2828021    59.341078  0.026026789  0.027778376            2 
  191000   0.95809112   -7.3107713    59.413316   0.02592204  0.027704165            2 
  192000   0.96442981    -7.348308    59.562945  0.025851973    0.0276306            3 
  193000   0.94457082   -7.3337695    59.746465  0.025797265  0.027554789            2 
  194000   0.95169681   -7.3317293    60.028944  0.025785629  0.027479982            2 
  195000   0.96269528   -7.3291955    60.245558  0.025745965  0.027405658            2 
  196000   0.94043817   -7.3570437    60.337666  0.025653769   0.02733226            7 
  197000   0.93094109   -7.3348761    60.493778  0.025589585  0.027259252            2 
  198000   0.95776978   -7.3311532    60.727152  0.025558566  0.027185199            2 
  199000   0.93959915   -7.3596223    60.920048  0.025510908  0.027112313            2 
  200000    0.9515368   -7.3558817    61.075066  0.025447944  0.027038494            2 
  201000   0.94327798   -7.3735381    61.104822  0.025333674  0.026963528            4 
  202000   0.93204869   -7.3738624    61.060308  0.025189896  0.026889458            2 
  203000   0.93493407   -7.3890345    61.353031  0.025185973  0.026814598            7 
  204000   0.94931987   -7.3831454    61.495443  0.025120687  0.026740904            2 
  205000   0.94340164   -7.3798487    61.621758  0.025049495  0.026667013            2 
  206000   0.94723994   -7.3596609    61.808968  0.025003628   0.02659285            1 
  207000   0.94003025   -7.4366481    62.013666  0.024965244  0.026518112            4 
  208000   0.94149604   -7.3911514    61.931742  0.024812397  0.026443282            3 
  209000   0.92118875   -7.3842555    62.455176  0.024902383  0.026368851            2 
  210000   0.92590287   -7.3722639    62.352067  0.024742884  0.026294582            4 
  211000   0.93031168    -7.388685    62.780388  0.024794782  0.026220035            5 
  212000   0.95515799   -7.4177798    62.520327    0.0245756  0.026145925            3 
  213000    0.9241835   -7.3715353    62.868672  0.024596507  0.026071126            3 
  214000   0.94305049   -7.4027088    63.156094  0.024593494  0.025998217            2 
  215000   0.90511899   -7.3687525    63.254505   0.02451725  0.025925588            4 
  216000   0.90890001   -7.4294748    63.233365  0.024395588  0.025851215            1 
  217000   0.92701428   -7.4524085    63.458927  0.024369787  0.025778235            2 
  218000     0.918487    -7.402485     63.61517  0.024317726  0.025705566            2 
  219000   0.92741262   -7.3975569    63.624129  0.024210095  0.025632194            1 
  220000   0.93231349   -7.4494774    63.916134  0.024210657  0.025558641            5 
  221000   0.94020353   -7.4456394    63.787823  0.024052723  0.025484691            2 
  222000   0.92132374   -7.4394694     63.88508  0.023980886  0.025411325            6 
  223000   0.89692593   -7.4139398     64.33911  0.024043016  0.025339211            1 
  224000   0.91343799   -7.4243116    64.703215  0.024071137  0.025269007            2 
  225000   0.90964533   -7.4356207     64.55996  0.023911096  0.025198734            4 
  226000   0.90571901    -7.458452    64.819362  0.023900945  0.025127633            2 
  227000   0.90140743   -7.4652407    64.967802  0.023850147  0.025057338            2 
  228000   0.92499718   -7.4611667    65.222775  0.023838734  0.024986928            2 
  229000   0.89146524   -7.4977058    64.918599  0.023623944  0.024915866            2 
  230000   0.92207336   -7.4925094    65.094222  0.023584863  0.024844121            1 
  231000   0.90467883   -7.4767804    65.347733  0.023574218  0.024773117            3 
  232000   0.92246792   -7.4690238    65.484914   0.02352188  0.024703198            5 
  233000   0.88805691   -7.4531227     65.82008  0.023540801  0.024634905            2 
  234000      0.91364   -7.4820122    65.927286  0.023478378  0.024566313            2 
  235000   0.89401915   -7.4767487    66.209321  0.023478483  0.024498325            2 
  236000   0.90134989   -7.5130001      66.2294  0.023386088  0.024431916            1 
  237000   0.88259367    -7.534038     66.37929  0.023340116   0.02436443            3 
  238000   0.88030223    -7.508651    66.599967  0.023319316  0.024297619            2 
  239000   0.88355174   -7.4675119    66.836527  0.023304228  0.024231673            2 
  240000   0.89868972   -7.4902458    66.857367  0.023214363  0.024164986            7 
  241000   0.89373661   -7.5106396    66.784983  0.023093009  0.024098988            3 
  242000   0.89118678   -7.5418913     66.85182  0.023020599  0.024032347            2 
  243000   0.90294925   -7.5622494    66.897873  0.022941657  0.023965099            1 
  244000   0.86720247   -7.5255916     67.04133  0.022896629   0.02389812            2 
  245000   0.88426764   -7.4938035    67.490561  0.022955973  0.023831222            2 
  246000   0.88081149   -7.5352725    67.352055  0.022815737  0.023765345            3 
  247000   0.85893509   -7.5286044    67.472629  0.022764045  0.023699266            1 
  248000   0.85220596   -7.5273924    67.526954  0.022690509  0.023633356            2 
  249000   0.87376394   -7.5435611    67.741337   0.02267113  0.023567123            2 
  250000   0.86529748   -7.5373636    67.751673  0.022583891  0.023501804            2 
  251000   0.86581517   -7.5310708    68.193937  0.022640749   0.02343692            1 
  252000   0.87852336   -7.5398377    68.346904  0.022601489  0.023372612            3 
  253000    0.8835921   -7.5595842    68.477433  0.022555149  0.023307895            3 
  254000   0.85107766   -7.5497837    68.569603  0.022496589  0.023243629            6 
  255000   0.85639515   -7.5418962    68.634482  0.022429569  0.023179926            5 
  256000   0.86137064   -7.5882059    68.591866  0.022328081  0.023116821            2 
  257000   0.85420254   -7.5705109    68.753308   0.02229355  0.023052909            4 
  258000   0.85011234   -7.5774725    68.690498  0.022186853  0.022989089            2 
  259000   0.84065557   -7.5588425    68.965577  0.022189697  0.022925794            3 
  260000   0.87611369   -7.5763561     69.09629  0.022146247  0.022863116            3 
  261000   0.85605239   -7.5682948    69.276088  0.022118802  0.022800857            4 
  262000   0.86002645    -7.584193    69.210564  0.022013538  0.022737718            2 
  263000   0.82403946    -7.589565    69.175529  0.021918735  0.022673922            2 
  264000   0.84891855   -7.5999674    69.151346  0.021828076  0.022609358            4 
  265000   0.84679411   -7.6268363    69.374774  0.021815967  0.022544622            2 
  266000   0.85390047   -7.6253282    69.314309  0.021715009  0.022479829            2 
  267000   0.84866607    -7.603058    69.470072  0.021682295  0.022415696            2 
  268000    0.8553609   -7.6036767     69.63128  0.021651517  0.022351825            3 
  269000   0.84670761    -7.639476    69.481919  0.021524758  0.022287559            3 
  270000    0.8393877   -7.6294891    69.527189  0.021459009  0.022222804            5 
  271000   0.83699063   -7.6232726    69.603426  0.021403268  0.022158189            2 
  272000   0.82302369   -7.6438564    69.646068  0.021337643  0.022093056            3 
  273000   0.80650502   -7.6416526    69.688423  0.021272412  0.022027376            2 
  274000   0.81401556   -7.6398836    69.682129  0.021192862  0.021962001            2 
  275000    0.8288983   -7.6426265    69.704083  0.021122449  0.021895986            4 
  276000   0.81877913   -7.6707208    69.775957   0.02106762  0.021830166            4 
  277000   0.82563234   -7.6787823    70.004681  0.021060373  0.021764519            4 
  278000   0.81143836   -7.6456931    70.182803  0.021038011  0.021699039            4 
  279000   0.83581679   -7.6615548    70.131544  0.020947295  0.021633701            2 
  280000   0.82405866   -7.6813152    70.171487  0.020884371  0.021568834            3 
  281000   0.80776295    -7.660734    70.090115  0.020785918  0.021503482            2 
  282000   0.82577546   -7.6427769    70.369576  0.020794792  0.021438607            6 
  283000    0.8263755   -7.6355137    70.309459   0.02070361  0.021373386            1 
  284000   0.80136585   -7.6577185    70.397954  0.020656677  0.021307896            3 
  285000   0.79323103   -7.6821555    70.217336  0.020531385   0.02124237            2 
  286000   0.80316601   -7.6493196    70.472735  0.020534014  0.021177021            4 
  287000   0.78835229   -7.6428748    70.615789  0.020504004  0.021112097            2 
  288000   0.80525891   -7.6744802    70.778609  0.020479922  0.021047708            4 
  289000   0.79606838   -7.6744879    70.759161  0.020403449  0.020983585            2 
  290000   0.81229559   -7.6852247    70.965162  0.020392288  0.020920217            3 
  291000   0.80140702   -7.7095201    70.932293  0.020312799  0.020856744            2 
  292000    0.8079176   -7.6905652    71.013501   0.02026641   0.02079406            1 
  293000   0.79581028   -7.7345501    71.334698  0.020288594   0.02073174            2 
  294000   0.80123118   -7.7538525    71.084489  0.020148665  0.020669492            6 
  295000   0.78187623   -7.7125287    71.248684  0.020126747  0.020607068            2 
  296000   0.80917756   -7.7330743    71.206493  0.020046873  0.020544413            5 
  297000   0.79734916   -7.7197435    71.331764  0.020014524  0.020481749            3 
  298000   0.79070769   -7.7327589    71.275708  0.019931686  0.020419143            2 
  299000   0.78352721    -7.745354    71.376979  0.019893249  0.020355924            8 
  300000   0.77975823   -7.7275293    71.166848  0.019768569  0.020293093            2 
  301000   0.79582518   -7.7347939    71.324393   0.01974651  0.020230708            6 
  302000   0.77310766   -7.7339925    71.357363  0.019690222  0.020167833            3 
  303000   0.79910025   -7.7477569    71.393787  0.019635255  0.020104848            1 
  304000   0.78507207   -7.7249278    71.585136  0.019623119  0.020042143            2 
  305000   0.78534788   -7.7509059    71.417571  0.019512998  0.019979808            6 
  306000   0.78785328    -7.768707    71.464712  0.019462068  0.019917132            2 
  307000   0.78251519   -7.7455985    71.637591    0.0194456  0.019854402            2 
  308000   0.79937158   -7.7966911    71.457019  0.019333609  0.019791841            6 
  309000    0.7675582   -7.7527193    71.599933  0.019309583  0.019729189            2 
  310000   0.77571508    -7.764428     71.59415  0.019245739  0.019667039            3 
  311000   0.75943232   -7.7880533    71.597739  0.019184818  0.019604996            4 
  312000   0.78314801    -7.799203    71.562612  0.019113945  0.019543028            4 
  313000    0.7781949   -7.7900223     71.82043   0.01912152  0.019480953            4 
  314000   0.75313095   -7.8087446    71.830093  0.019063188   0.01941932            2 
  315000   0.77424741   -7.7694167    72.050079  0.019060867  0.019358193            3 
  316000   0.75761855   -7.7994897    72.113614  0.019017303  0.019297734            3 
  317000   0.75355892   -7.7930236    71.948654  0.018913947  0.019236901            2 
  318000   0.75550899   -7.8049957    72.113516  0.018897672  0.019176573            3 
  319000   0.76916515   -7.8033402    72.115807   0.01883903  0.019117103            1 
  320000   0.75319917   -7.7918453    72.310502   0.01883086  0.019057522            4 
  321000   0.74865924   -7.8086384    72.395671  0.018794307  0.018998748            2 
  322000   0.76649134   -7.7987271     72.15514  0.018673691  0.018940101            4 
  323000   0.74524301   -7.7840962    72.425269   0.01868557  0.018881605            4 
  324000   0.74946835   -7.8026509    72.481165  0.018642275  0.018823206            1 
  325000   0.76187771   -7.8341497    72.387135  0.018560804  0.018765229            3 
  326000     0.739236   -7.7993259    72.508917  0.018534999  0.018707303            2 
  327000   0.75570612   -7.8330186    72.687522  0.018523833   0.01864988            4 
  328000   0.73714532   -7.8522802    72.751442  0.018483598  0.018592484            3 
  329000   0.73584851   -7.8543881    72.744728  0.018425716  0.018535346            6 
  330000   0.74951012   -7.8555733    72.793897  0.018382297  0.018478504            4 
  331000   0.75011401   -7.8736118    72.929087  0.018360797  0.018422283            2 
  332000   0.74319799   -7.8662428    72.868939  0.018290396  0.018365903            4 
  333000   0.71507471   -7.8514576    72.811952  0.018221209  0.018309577            2 
  334000    0.7293198   -7.8598483    72.948872  0.018200816  0.018253922            1 
  335000   0.72971013   -7.8510092    73.067428  0.018175977  0.018198017            2 
  336000   0.73603174   -7.8778127    73.150937  0.018142594  0.018141887            4 
  337000   0.73026869   -7.8758412    73.115729  0.018080052  0.018086325            2 
  338000   0.73907265   -7.8513145       73.124    0.0180286  0.018030479            3 
  339000   0.72908955   -7.8900429     73.07537  0.017963464  0.017975252            2 
  340000   0.71848652    -7.901805    73.117833  0.017921038  0.017919579            3 
  341000   0.71765802   -7.8871544    73.178738  0.017883367  0.017863959            4 
  342000   0.73450195   -7.8904974    73.074835  0.017805759  0.017808461            3 
  343000   0.70502424   -7.8599853    73.258998   0.01779859  0.017753222            2 
  344000   0.72867791   -7.8961064    73.074236  0.017702092  0.017697908            2 
  345000    0.7154075   -7.8749562    73.153834  0.017670008  0.017642868            4 
  346000   0.72507977   -7.9273324    73.016705  0.017585912  0.017587748            6 
  347000   0.70151585   -7.9066051     73.01612  0.017535091  0.017532196            3 
  348000    0.7087145   -7.9149897    72.983491  0.017476889  0.017476746            3 
  349000   0.70402562   -7.9438187    73.151007  0.017466811  0.017421458            5 
  350000   0.70971529   -7.9028977    73.123135   0.01741027   0.01736636            3 
  351000   0.70940913   -7.9329382    73.168325  0.017371397  0.017311477            3 
  352000   0.70508216   -7.9372045    73.072555  0.017299374  0.017256953            4 
  353000    0.6999895    -7.935275     73.10304  0.017257564  0.017202271            7 
  354000   0.68435098   -7.9852675      73.1072  0.017209793  0.017147808            3 
  355000   0.70143096   -7.9274394    73.337667  0.017215415  0.017093673            3 
  356000   0.69605952   -7.9665028    73.194295  0.017133496   0.01703952            4 
  357000   0.69035748   -7.9460577    73.223615  0.017092347  0.016985531            2 
  358000   0.69450298   -7.9205178    73.232419  0.017046652   0.01693171            3 
  359000   0.70988087   -7.9540897    73.364038  0.017029721  0.016878128            2 
  360000   0.68843799   -7.9504432    73.350293  0.016979234  0.016824851            4 
  361000   0.68991149   -7.9617807    73.521463  0.016971714  0.016771786            3 
  362000   0.69674473   -7.9483496    73.499336  0.016919737  0.016718781            3 
  363000   0.68805039   -7.9454414     73.36072  0.016841304  0.016666007            5 
  364000   0.69034316    -7.970786    73.417621  0.016808063  0.016613034            2 
  365000   0.67481074   -7.9676333    73.264473  0.016727049  0.016560392            2 
  366000   0.66764792   -7.9699072    73.518477   0.01673918  0.016507759            2 
  367000    0.6759744   -7.9624851    73.351461  0.016655645  0.016455312            7 
  368000    0.6888938    -7.987517    73.215459  0.016579588  0.016402744            5 
  369000   0.66177912   -7.9965917    73.233866  0.016538813  0.016350126            2 
  370000   0.67312762   -7.9798767    73.473422  0.016548068  0.016297942            6 
  371000   0.68425969   -7.9883587    73.359615  0.016477901  0.016246012            3 
  372000   0.68105847   -7.9777445    73.280421  0.016415865  0.016193963            1 
  373000   0.65719462   -7.9916686    73.427694  0.016404757  0.016141944            2 
  374000   0.68045565   -8.0065738    73.390243   0.01635255  0.016090072            2 
  375000   0.66597305    -8.031399    73.324009  0.016294224  0.016038365            6 
  376000   0.66776581   -7.9941401    73.284672   0.01624217  0.015986716           11 
  377000   0.68641102   -8.0125954     73.25752  0.016193086  0.015935163            4 
  378000   0.66017095   -8.0106505    73.310545  0.016161937  0.015884059            3 
  379000   0.66099267   -8.0368934    73.455337   0.01615113  0.015833203            2 
  380000   0.66230853   -8.0388729    73.488122  0.016115816  0.015782367            2 
  381000   0.64542563   -8.0373008        73.28  0.016027996  0.015731353            2 
  382000   0.65083456   -8.0421231    73.328492  0.015996617  0.015680418            4 
  383000   0.65881729   -8.0515209    73.271203  0.015942385  0.015629678            2 
  384000   0.65317755   -8.0598658    73.336066  0.015914945  0.015578919            3 
  385000    0.6549263   -8.0499575    73.395857  0.015886549   0.01552831            3 
  386000   0.65036712   -8.0821076    73.348921  0.015835259  0.015477887            5 
  387000   0.65519549   -8.0486794    73.353491  0.015795325  0.015427584            3 
  388000   0.64122487   -8.0664685    73.343188  0.015752403  0.015377431            3 
  389000   0.64043395   -8.0558836    73.252478  0.015692476  0.015327375            3 
  390000   0.63300659   -8.0628147    73.403104  0.015684424  0.015277707            2 
  391000   0.63551035   -8.0702086    73.388522  0.015641203   0.01522833            5 
  392000   0.64116874   -8.0692957    73.263872  0.015574803  0.015178955            3 
  393000   0.63639228   -8.0544178    73.363657  0.015556331  0.015129783            1 
  394000   0.63732152    -8.102678    73.381512  0.015520624  0.015080843            4 
  395000   0.63076877   -8.1081618    73.510046  0.015508448  0.015032144            1 
  396000   0.62235672   -8.0659949    73.444893  0.015455575   0.01498364            2 
  397000   0.64079109   -8.0966903    73.278044  0.015381621  0.014935142            3 
  398000   0.63265701   -8.1114063    73.175218  0.015321444   0.01488678            3 
  399000   0.63831928    -8.101802    73.464228  0.015343406  0.014838586            2 
  400000     0.628466   -8.0819268    73.465338  0.015305279  0.014790712            4 
  401000   0.63206789   -8.0916167    73.460727  0.015266153  0.014743044            5 
  402000   0.63377986   -8.0829369    73.516521  0.015239743  0.014695616            5 
  403000    0.6169671   -8.1124661    73.411793  0.015180272  0.014648128            3 
  404000   0.61913235    -8.125797    73.462806  0.015153219   0.01460083            3 
  405000   0.62681898   -8.1386612    73.411448  0.015105236  0.014553749            4 
  406000   0.63232311   -8.1322291    73.428881  0.015071609  0.014506831            5 
  407000   0.61764845   -8.1459805     73.26796   0.01500163  0.014459742            3 
  408000   0.62917185   -8.1553709    73.233655  0.014957854  0.014412726            5 
  409000   0.61399609    -8.114378    73.500913  0.014975736  0.014365807            3 
  410000   0.61611601   -8.1656006    73.297311  0.014897827  0.014318984            4 
  411000   0.62819977   -8.1590627    73.138395  0.014829358  0.014272325            3 
  412000      0.62232   -8.1538949    73.313876  0.014828858  0.014225707            2 
  413000    0.6059965   -8.1844662    73.201299  0.014770238  0.014179374            3 
  414000    0.6016426   -8.1657198     73.24264  0.014742883  0.014133237            2 
  415000    0.6002951   -8.1816265    73.323988  0.014723692  0.014087251            2 
  416000   0.60584966   -8.1732315    73.298786   0.01468325  0.014041348            2 
  417000   0.58850644    -8.165948    73.264131  0.014641113  0.013995804            2 
  418000   0.60223809   -8.1625569    73.297133  0.014612666  0.013950394            5 
  419000   0.59152546    -8.185741    73.360359  0.014590366  0.013905152            4 
  420000   0.59646155   -8.1802433    73.308265  0.014545291  0.013860059            7 
  421000   0.59473936    -8.197146    73.318489  0.014512765  0.013815133            3 
  422000   0.59065881   -8.2082558    73.097151  0.014434666  0.013769993            5 
  423000   0.58661437   -8.1959173    73.215647  0.014423886  0.013725011            8 
  424000   0.59885864   -8.2001624    73.116003  0.014370284  0.013680223            3 
  425000   0.57575589   -8.1847192    73.171833  0.014347418  0.013635538            3 
  426000   0.57589944   -8.2059037    73.094414  0.014298594  0.013590993            5 
  427000   0.59978839   -8.1932815    73.141052   0.01427421  0.013546488            4 
  428000   0.57876619   -8.2038462    73.084482  0.014229845  0.013502085            4 
  429000   0.59048847   -8.2198513    73.176037  0.014214459  0.013458032            4 
  430000   0.57364988   -8.2033858    73.139824  0.014174384  0.013413958            6 
  431000   0.57843138   -8.2267286    73.187486  0.014150713  0.013370078            4 
  432000   0.57499379   -8.2312401    73.154984  0.014111687  0.013326391            5 
  433000   0.56670856   -8.2123355     73.03225  0.014055475  0.013282804           10 
  434000   0.57802176   -8.2495551    73.090966  0.014034364  0.013239526            8 
  435000   0.56615507    -8.213076     73.14744   0.01401292  0.013196321            6 
  436000   0.57882684    -8.225326    73.105665  0.013972795  0.013153255            4 
  437000   0.57526706   -8.2346529     73.00469  0.013921566  0.013110353            4 
  438000   0.57216374   -8.2397409    73.133839  0.013914353  0.013067595            5 
  439000   0.55787078   -8.2491279    73.045749  0.013865936  0.013024876            4 
  440000   0.56864514   -8.2439423    72.918144  0.013810255   0.01298237            7 
  441000   0.57561185   -8.2381546    73.002549  0.013794888  0.012939969            3 
  442000    0.5675112   -8.2429133     73.00253  0.013763675   0.01289777            5 
  443000   0.55522966   -8.2368297    72.984346  0.013729185   0.01285571            5 
  444000    0.5647729   -8.2422116    73.129534  0.013725513  0.012813897            4 
  445000   0.55486613   -8.2748884    73.097308  0.013688634    0.0127722            5 
  446000   0.55085412   -8.2692401    73.014988  0.013642561  0.012730695            5 
  447000   0.55851438   -8.2639936    72.956545  0.013601146  0.012689321            6 
  448000   0.56036898   -8.2562032    73.029697  0.013584393  0.012648107            3 
  449000   0.55652059   -8.2894734    72.984333  0.013545719  0.012606908            6 
  450000   0.54550647   -8.2630525    73.011828  0.013520709   0.01256592            3 
  451000   0.53576081   -8.2859259    72.976243  0.013484154  0.012525077            4 
  452000   0.55405015   -8.2731305    73.085662  0.013474495  0.012484321            2 
  453000   0.54408547   -8.2793521     72.92408  0.013415026  0.012443741            3 
  454000   0.54082335   -8.2724312    72.814834  0.013365425  0.012403207            2 
  455000   0.53673492   -8.3108743    72.986652  0.013367519   0.01236292            6 
  456000   0.54257578   -8.2937134    72.926094  0.013327137  0.012322794            2 
  457000   0.54891407   -8.3002982    72.884707  0.013290428  0.012282789            2 
  458000   0.53437615   -8.3028833    72.953671  0.013273958  0.012242811            5 
  459000   0.53154855   -8.2943084    72.946309  0.013243702  0.012202949            5 
  460000   0.53254034   -8.2931971    72.846099  0.013196757  0.012163306            4 
  461000   0.53294723   -8.2887603    72.781325  0.013156422  0.012123722            3 
  462000   0.53019484   -8.3090092    72.852201  0.013140729  0.012084377            6 
  463000   0.52284761   -8.3175961    72.845926  0.013111218  0.012045131            3 
  464000   0.52600078   -8.3109207    72.848206   0.01308337  0.012006143            4 
  465000    0.5186181   -8.3203709     72.71362  0.013031115  0.011967256            6 
  466000   0.52047491   -8.3141541    72.891959  0.013035043  0.011928549            5 
  467000   0.51685605   -8.3212454    72.855494  0.013000624  0.011889976            4 
  468000   0.52080477   -8.3145564    72.848006  0.012971511  0.011851616            2 
  469000   0.51794705   -8.3292049    72.831241  0.012940874  0.011813471            2 
  470000   0.50758613   -8.3307394    72.884278  0.012922744  0.011775405            3 
  471000   0.51907724   -8.3183125    72.869838  0.012892753  0.011737531            4 
  472000   0.51930433   -8.3291982    72.825199  0.012857556  0.011699774            6 
  473000   0.50005626   -8.3440028    72.857988   0.01283615  0.011662158            3 
  474000   0.51138789   -8.3543707    72.814984  0.012801509  0.011624763            4 
  475000   0.51228792   -8.3280272    72.686651  0.012752044  0.011587371            4 
  476000   0.50848747   -8.3441316    72.818134  0.012748273  0.011550217            2 
  477000   0.49610777   -8.3493719     72.69639  0.012700278  0.011513163            9 
  478000     0.508608    -8.345907    72.846853  0.012699939  0.011476239            3 
  479000   0.50717491   -8.3714331    72.818138   0.01266843   0.01143949            4 
  480000   0.49990362   -8.3548823    72.697933  0.012621169  0.011402884            4 
  481000   0.49475454   -8.3589052    72.747144  0.012603455  0.011366336            3 
  482000   0.49588789   -8.3584227    72.780211  0.012583024  0.011329933            4 
  483000   0.48975578   -8.3384668     72.74043  0.012550109  0.011293736            5 
  484000   0.49934547   -8.3551141    72.718598   0.01252042  0.011257626            3 
  485000   0.48852048   -8.3883968     72.73165  0.012496847  0.011221611            3 
  486000   0.48632272   -8.3543252    72.572419   0.01244383  0.011185682            4 
  487000   0.47804589   -8.3891398    72.637959  0.012429493  0.011149939            5 
  488000   0.49767314    -8.360697    72.543562  0.012387903  0.011114262            3 
  489000   0.48736573   -8.3835145    72.606763  0.012373341  0.011078693            2 
  490000   0.49290464   -8.3658095    72.594436  0.012345993  0.011043333            5 
  491000    0.4819987   -8.3870687     72.60014  0.012321816  0.011007981            2 
  492000   0.48531384   -8.3875574    72.660714  0.012307032  0.010972861            3 
  493000   0.48077887   -8.3899695    72.534884  0.012260798  0.010937823            4 
  494000     0.470406   -8.3896071    72.546669  0.012237967  0.010902909            4 
  495000   0.48306257   -8.3941007    72.607274  0.012223447  0.010868144            2 
  496000   0.47582957   -8.3928092    72.677994  0.012210684  0.010833546            2 
  497000   0.48022004    -8.385965    72.651134  0.012181612  0.010799133            4 
  498000   0.46412932   -8.4097993    72.616894  0.012151421  0.010764832            6 
  499000    0.4683519   -8.3962507    72.571785  0.012119537  0.010730636            7 
  500000   0.46094813   -8.4158662    72.513167  0.012085528  0.010696541            2 
  501000    0.4739197   -8.4181773    72.553815  0.012068166  0.010662613            4 
  502000   0.45124125   -8.4070899     72.52174  0.012038802  0.010628732            3 
  503000   0.46520574   -8.4235626    72.440574   0.01200142  0.010595005            5 
  504000    0.4531279   -8.4082491    72.600193     0.012004  0.010561428            3 
  505000   0.45891695   -8.4084076    72.496138  0.011963059   0.01052801            3 
  506000   0.46215457   -8.4028226    72.558414  0.011949673  0.010494732            5 
  507000    0.4614229    -8.429381    72.510815   0.01191828  0.010461599            3 
  508000    0.4617258   -8.4260523    72.305964  0.011861215  0.010428556            7 
  509000     0.469292    -8.438829    72.428443  0.011857964  0.010395609            5 
  510000   0.45165586   -8.4246298    72.343254  0.011820793  0.010362848            5 
  511000   0.45412028   -8.4313384    72.386912   0.01180478  0.010330122            4 
  512000   0.44698343   -8.4348328    72.505053  0.011800953  0.010297593            8 
Loop time of 1178.09 on 48 procs for 500000 steps with 4000 atoms

Performance: 73339.071 tau/day, 424.416 timesteps/s
99.4% CPU use with 48 MPI tasks x no OpenMP threads

MPI task timing breakdown:
Section |  min time  |  avg time  |  max time  |%varavg| %total
---------------------------------------------------------------
Pair    | 69.963     | 76.697     | 82.797     |  37.4 |  6.51
Neigh   | 7.5758     | 7.9966     | 8.3822     |   7.0 |  0.68
Comm    | 72.049     | 79.175     | 87.978     |  43.4 |  6.72
Output  | 0.81464    | 0.81526    | 0.82359    |   0.1 |  0.07
Modify  | 998.61     | 1002.9     | 1007.5     |   6.1 | 85.13
Other   |            | 10.54      |            |       |  0.89

Nlocal:        83.3333 ave          90 max          78 min
Histogram: 4 6 5 6 5 9 6 2 2 3
Nghost:        1995.25 ave        2011 max        1976 min
Histogram: 2 1 4 6 5 7 11 2 7 3
Neighs:        12776.2 ave       14826 max       11376 min
Histogram: 4 4 8 8 6 10 4 3 0 1
FullNghs:      25553.4 ave       28064 max       23787 min
Histogram: 3 8 6 9 5 6 6 2 1 2

Total # of neighbors = 1226565
Ave neighs/atom = 306.64125
Neighbor list builds = 26844
Dangerous builds = 0

#clear
#
#next RN
#
#jump SELF
Total wall time: 0:19:41
