
units lj                  # Use reduced LJ style units
atom_style atomic         # Uncharged point particles
atom_modify map hash      # Needed for indexing of clusters etc
                          # Used to be able to find where atoms are in relation to each other.

lattice fcc 1.0 spacing 1 1 1
Lattice spacing in x,y,z = 1.5874011 1.5874011 1.5874011
region box block 0 10 0 10 0 10 units lattice
create_box 2 box
Created orthogonal box = (0.0000000 0.0000000 0.0000000) to (15.874011 15.874011 15.874011)
  3 by 4 by 4 MPI processor grid
create_atoms 1 box
Created 4000 atoms
  using lattice units in orthogonal box = (0.0000000 0.0000000 0.0000000) to (15.874011 15.874011 15.874011)
  create_atoms CPU = 0.002 seconds
set type 1 type/fraction 2 0.5 78393
Setting atom values ...
  2004 settings made for type/fraction
mass 1 1.0
mass 2 1.0
pair_style lj/cut  3.5
pair_modify tail  yes
pair_coeff 1  1  1.0  1.0   # Intearaction between 1 and 1 set with epsilon = 1 and sigma = 1
pair_coeff 1  2  1.5  0.8
pair_coeff 2  2  0.5  0.88

write_data data.0
System init for write_data ...
Neighbor list info ...
  update every 1 steps, delay 10 steps, check yes
  max neighbors/atom: 2000, page size: 100000
  master list distance cutoff = 3.8
  ghost atom cutoff = 3.8
  binsize = 1.9, bins = 9 9 9
  1 neighbor lists, perpetual/occasional/extra = 1 0 0
  (1) pair lj/cut, perpetual
      attributes: half, newton on
      pair build: half/bin/atomonly/newton
      stencil: half/bin/3d
      bin: standard
WARNING: Not all mixed pair coeffs generated from mixing. Use write_data with 'pair ij' option to store all pair coeffs. (../write_data.cpp:312)


#############################
#   M E L T   S Y S T E M   #
#############################

velocity all create 2.4 2750902 mom yes dist gaussian # Assign velocities
                                                    # Temperature 2.4, random number seed, zero linear momentum
                                                                                # Gaussian distribution

timestep 0.002   # simulation timestep
thermo 1000       # output thermodynamic data every 1000 steps bf 100

# Define a fix  in this case with index 1 applied to all
# particles in the simulation. This fix is for simulations
# in the anisotropic NPT ensemble. Note that we use the MTK
# correction.
fix 1 all npt temp 2.4 2.4 0.1 iso 5.68 5.68 0.5 mtk yes tchain 5 pchain 5 # Use NPT ensemble
                                                                         # Set temperature and pressure and damping
                                                                         # Numbers of thermostats in chain and in barostat
run 10000          # run for 10000 steps
Per MPI rank memory allocation (min/avg/max) = 3.642 | 3.644 | 3.648 Mbytes
Step Temp E_pair E_mol TotEng Press Volume 
       0          2.4   -5.2939675            0   -1.6948675   -4.2078901         4000 
    1000    2.4539911   -4.9099006            0   -1.2298342    5.8022592    3685.7363 
    2000    2.3819599   -4.8516175            0   -1.2795709    5.9583609    3693.4061 
    3000    2.3998009    -4.865111            0   -1.2663096    5.6555537    3716.7417 
    4000    2.3772477   -4.8627121            0    -1.297732    5.4725296     3729.239 
    5000    2.3941113   -4.8478725            0   -1.2576033    5.5565108    3721.4391 
    6000    2.4277027   -4.8974244            0   -1.2567807    5.7619828    3691.1588 
    7000    2.3474139   -4.8944691            0   -1.3742285     5.689929    3685.1865 
    8000    2.4249085   -4.8316372            0   -1.1951839    5.9581617    3708.7362 
    9000    2.4276316   -4.9554357            0   -1.3148988    5.9138177    3652.6138 
   10000    2.4391481   -4.8917402            0   -1.2339327    5.3344336    3722.2566 
Loop time of 2.65314 on 48 procs for 10000 steps with 4000 atoms

Performance: 651303.038 tau/day, 3769.115 timesteps/s
99.6% CPU use with 48 MPI tasks x no OpenMP threads

MPI task timing breakdown:
Section |  min time  |  avg time  |  max time  |%varavg| %total
---------------------------------------------------------------
Pair    | 1.173      | 1.2494     | 1.3899     |   3.8 | 47.09
Neigh   | 0.21384    | 0.22193    | 0.24845    |   1.5 |  8.36
Comm    | 0.76975    | 0.90614    | 0.96809    |   4.9 | 34.15
Output  | 0.00025054 | 0.00025813 | 0.00040163 |   0.0 |  0.01
Modify  | 0.21419    | 0.25971    | 0.30349    |   4.9 |  9.79
Other   |            | 0.01573    |            |       |  0.59

Nlocal:        83.3333 ave          90 max          74 min
Histogram: 1 4 1 3 4 9 13 6 2 5
Nghost:        1723.85 ave        1746 max        1709 min
Histogram: 4 10 3 5 8 8 4 5 0 1
Neighs:        10268.5 ave       11474 max        8423 min
Histogram: 1 1 1 3 8 8 11 6 7 2

Total # of neighbors = 492886
Ave neighs/atom = 123.22150
Neighbor list builds = 901
Dangerous builds = 184

# Equilibrate just above the melting temperature to avoid step fn in T

fix 1 all npt temp 1.25 1.25 0.1 iso 5.68 5.68 0.5 mtk yes tchain 5 pchain 5
run 2000
Per MPI rank memory allocation (min/avg/max) = 3.644 | 3.646 | 3.649 Mbytes
Step Temp E_pair E_mol TotEng Press Volume 
   10000    2.4391481   -4.8917402            0   -1.2339327    5.3344336    3722.2566 
   11000    1.2467827    -7.016656            0   -5.1469495    5.4617298    2884.5027 
   12000    1.2452776   -7.0904913            0   -5.2230418    5.9845653    2848.4649 
Loop time of 0.639062 on 48 procs for 2000 steps with 4000 atoms

Performance: 540792.696 tau/day, 3129.587 timesteps/s
99.7% CPU use with 48 MPI tasks x no OpenMP threads

MPI task timing breakdown:
Section |  min time  |  avg time  |  max time  |%varavg| %total
---------------------------------------------------------------
Pair    | 0.29063    | 0.31371    | 0.34909    |   1.9 | 49.09
Neigh   | 0.041065   | 0.043311   | 0.047623   |   0.6 |  6.78
Comm    | 0.19386    | 0.23334    | 0.25952    |   2.6 | 36.51
Output  | 5.2427e-05 | 5.4562e-05 | 6.8584e-05 |   0.0 |  0.01
Modify  | 0.041381   | 0.04385    | 0.046268   |   0.7 |  6.86
Other   |            | 0.004793   |            |       |  0.75

Nlocal:        83.3333 ave          91 max          76 min
Histogram: 3 0 8 3 11 6 9 2 4 2
Nghost:        2063.17 ave        2080 max        2048 min
Histogram: 5 6 2 4 6 9 5 6 4 1
Neighs:        13408.3 ave       15274 max       11411 min
Histogram: 1 1 5 7 9 9 7 5 2 2

Total # of neighbors = 643599
Ave neighs/atom = 160.89975
Neighbor list builds = 144
Dangerous builds = 12

#############################
# L I N E A R  Q U E N C H  #
#############################

# Define solid atoms. This closely follows ten Wolde  Ruiz-Montero and Frenkel  Faraday Discuss  1996  104  93-110
# Compute components of the per-atom q6 vector
compute q6 all orientorder/atom degrees 1 6 components 6 nnn NULL cutoff 1.3 # compute the Q6 parameter.
                                                                             # Use all neighbours within 1.3 unit cell.

# get number of connections
compute coord_number all coord/atom orientorder q6 0.5

# An atom is solid if it has 8 or more connections (of a possible 14)
variable is_solid atom c_coord_number>=8
group solid dynamic all var is_solid    # Must be dynamic to update
dynamic group solid defined

# do clustering
compute cluster solid cluster/atom 1.3 # Create a cluster where all atoms within are solid and max 1.3 units from another member

# define chunks one chunk per cluster
compute clus_chunks solid chunk/atom c_cluster nchunk every compress yes  # Says which atoms are in which chunk

# count the size of each chunk
compute size_chunks solid property/chunk clus_chunks count


# Find the maximum entry in the vector of chunk sizes
variable max_n equal max(c_size_chunks)


# Thermo style which includes this variable
# thermo_style custom step temp pe vol v_max_n

thermo ${N}  # Print the thermo information every 100 steps
thermo 1000  

# Reset the npt fix at a lower temperature (below freezing)
fix 1  all npt temp  ${temp} ${temp}  0.1  iso  5.68  5.68  0.5  mtk yes tchain  5  pchain  5
fix 1  all npt temp  0.45 ${temp}  0.1  iso  5.68  5.68  0.5  mtk yes tchain  5  pchain  5
fix 1  all npt temp  0.45 0.45  0.1  iso  5.68  5.68  0.5  mtk yes tchain  5  pchain  5

dump dmp2 all dcd ${N} traj.dcd
dump dmp2 all dcd 1000 traj.dcd


compute msd all msd com yes
variable twopoint equal c_msd[4]/6/(step*dt+1.0e-6)
fix 9 all vector 10 c_msd[4]
variable fit equal slope(f_9)/6/(10*dt)
thermo_style custom step temp pe c_msd[4] v_twopoint v_fit v_max_n

fix 1 all npt temp 1.25 ${temp} 0.1 iso 5.68 5.68 0.5 mtk yes tchain 5 pchain 5
fix 1 all npt temp 1.25 0.45 0.1 iso 5.68 5.68 0.5 mtk yes tchain 5 pchain 5
run 500000 # 5000000  # Run for this many steps
Neighbor list info ...
  update every 1 steps, delay 10 steps, check yes
  max neighbors/atom: 2000, page size: 100000
  master list distance cutoff = 3.8
  ghost atom cutoff = 3.8
  binsize = 1.9, bins = 8 8 8
  4 neighbor lists, perpetual/occasional/extra = 1 3 0
  (1) pair lj/cut, perpetual
      attributes: half, newton on
      pair build: half/bin/atomonly/newton
      stencil: half/bin/3d
      bin: standard
  (2) compute orientorder/atom, occasional
      attributes: full, newton on
      pair build: full/bin/atomonly
      stencil: full/bin/3d
      bin: standard
  (3) compute coord/atom, occasional
      attributes: full, newton on
      pair build: full/bin/atomonly
      stencil: full/bin/3d
      bin: standard
  (4) compute cluster/atom, occasional
      attributes: full, newton on
      pair build: full/bin/atomonly
      stencil: full/bin/3d
      bin: standard
Per MPI rank memory allocation (min/avg/max) = 9.839 | 9.844 | 9.847 Mbytes
Step Temp PotEng c_msd[4] v_twopoint v_fit v_max_n 
   12000    1.2452776   -7.0904913            0            0 8.3333333e+20            1 
   13000    1.2510636   -7.1480908   0.44709964 0.0028660232   0.03650132            1 
   14000    1.2487276   -7.0923084   0.83147173 0.0049492363  0.033378308            5 
   15000    1.2546108   -7.0791261    1.2175661  0.006764256  0.032380671            2 
   16000    1.2323174   -7.1385907    1.6613376 0.0086527997   0.03299187            3 
   17000    1.2299407   -7.1691127    2.0760065  0.010176502  0.033837755            1 
   18000    1.2455218   -7.1119551    2.4829663  0.011495214  0.033999083            3 
   19000    1.2379993    -7.108268    2.8907328  0.012678652  0.034022141            2 
   20000     1.232015   -7.1132223     3.249382  0.013539091  0.033874989            2 
   21000    1.2294959   -7.0716236    3.6711987  0.014568249  0.033849082            3 
   22000    1.2485334   -7.1295124    4.0410833  0.015307133  0.033716435            2 
   23000    1.2392833   -7.1429299    4.4065619  0.015965804  0.033513053            4 
   24000    1.2573689   -7.1585942    4.7631303  0.016538647  0.033252865            2 
   25000    1.2330904   -7.1559381    5.1800485  0.017266828  0.033057779            1 
   26000    1.2517509   -7.1469836    5.5607408  0.017822887  0.032903912            1 
   27000    1.2067211   -7.1378047    5.9445464  0.018347365  0.032819464            2 
   28000    1.2167457   -7.2275004    6.3137184  0.018790828  0.032734676            3 
   29000     1.233208   -7.2022662    6.7057518  0.019269402   0.03265757            2 
   30000    1.2138551   -7.1696536    7.2186855  0.020051904  0.032713734            3 
   31000    1.2268372   -7.1882954    7.5307335  0.020243907  0.032728701            2 
   32000    1.2244147   -7.2031531    7.7610336  0.020211025  0.032605078            4 
   33000    1.2236778   -7.1499259    8.1276504  0.020524369   0.03245457            2 
   34000    1.1903751   -7.1988657      8.53029  0.020907573  0.032274226            7 
   35000    1.2042079   -7.1827256    8.8895364  0.021165563  0.032161713            1 
   36000    1.2051967   -7.1827885    9.2642855  0.021445105   0.03206001            2 
   37000    1.1902516   -7.1941131    9.6467517  0.021726918  0.031976611            3 
   38000    1.2147466   -7.2184957    9.8781883  0.021662693  0.031821792            1 
   39000    1.1949194   -7.2174957    10.077783  0.021533724  0.031611443            1 
   40000    1.2089316    -7.251402    10.433301  0.021736043  0.031393117            4 
   41000    1.2105411   -7.2542703    10.824131  0.022000267  0.031191793            2 
   42000    1.2261623   -7.1752064    11.191026  0.022204416  0.031043514            3 
   43000    1.2101334   -7.2646523     11.42114  0.022133992  0.030894144            1 
   44000    1.1961999   -7.2495957    11.880971  0.022501838  0.030761071            2 
   45000    1.2057182   -7.2230246    12.340797  0.022853328   0.03069688            1 
   46000    1.1949119   -7.2477902    12.692748  0.022994108  0.030645933            2 
   47000    1.1940571   -7.2439684    12.999848  0.023049375   0.03059023            1 
   48000    1.2033507   -7.2079024    13.302623  0.023094832  0.030514071            1 
   49000    1.2145488   -7.2864792    13.725456  0.023342612   0.03045043            3 
   50000    1.2034792   -7.2441005    14.142525  0.023570875  0.030402377            1 
   51000    1.1698289   -7.3007632     14.30518  0.023374477  0.030347531            4 
   52000     1.199048   -7.2545827    14.795324  0.023710454  0.030287308            1 
   53000    1.1884625    -7.263034    15.067101  0.023690411  0.030242022            1 
   54000    1.2093003   -7.2106481     15.43968  0.023826666  0.030190506            3 
   55000    1.1998648   -7.2499969    15.656192  0.023721503   0.03013769            4 
   56000    1.1960017   -7.3069904    15.982204  0.023783041  0.030064109            3 
   57000    1.1769584   -7.3031524     16.41354  0.023996404  0.030014255            3 
   58000    1.2072977   -7.2853457    16.801652  0.024140304  0.029982579            2 
   59000    1.1604258   -7.2694462     17.08888  0.024136836  0.029945295            2 
   60000    1.1761977   -7.2512779    17.474823  0.024270588   0.02990054            2 
   61000    1.2105723   -7.2784301    17.633179  0.024089042  0.029836306            2 
   62000    1.1726293   -7.2944527    18.033938  0.024239163  0.029769259            3 
   63000    1.1973031   -7.3060971    18.280143  0.024180084  0.029705468            2 
   64000    1.2260277   -7.2825405    18.611526  0.024233757   0.02964185            2 
   65000    1.1385307    -7.313595    18.943734  0.024286838    0.0295811            2 
   66000     1.156206   -7.2916977    19.338852  0.024417742  0.029528873            1 
   67000     1.167854   -7.3791793    19.617252  0.024399567  0.029482723            2 
   68000    1.1788935   -7.3478519    19.920445   0.02441231  0.029429706            3 
   69000    1.1634541   -7.4216573    20.113088  0.024291169  0.029362954            1 
   70000     1.160104    -7.395935    20.383769  0.024266392   0.02928735            2 
   71000    1.1461408   -7.3166769    20.729289  0.024330152  0.029210542            4 
   72000     1.127855   -7.3426708    21.093859  0.024414188  0.029146682            3 
   73000    1.1500294   -7.3245212    21.349459  0.024371528  0.029074053            3 
   74000    1.1247574   -7.3836421    21.584445  0.024306807  0.028999452            2 
   75000    1.1729338   -7.3851562    21.765015   0.02418335  0.028912327            2 
   76000    1.1326001   -7.3958894     21.90695  0.024020778  0.028814137            2 
   77000    1.1051583   -7.3962161    22.286441  0.024119524  0.028717013            3 
   78000    1.1610051    -7.360392    22.624077  0.024171022  0.028625009            2 
   79000    1.1537779   -7.3644746    22.880112  0.024135139  0.028541582            7 
   80000    1.1496342   -7.3431094    23.352301  0.024325313  0.028462904            2 
   81000    1.1712028   -7.3831802     23.90821  0.024596924  0.028403443            2 
   82000     1.146317   -7.4138592    24.269106  0.024663725  0.028367076            4 
   83000    1.1117487   -7.3951356    24.537935   0.02463648  0.028334224            4 
   84000    1.1423069   -7.4223437    24.789307  0.024592566  0.028292041            5 
   85000    1.1170003   -7.4101757    24.944749  0.024455636  0.028245428            4 
   86000    1.1556769   -7.3768763    25.516789  0.024725571  0.028199809            2 
   87000    1.1301781   -7.4253072    25.614518  0.024534979  0.028152893            1 
   88000    1.1049455   -7.4225536    25.815636  0.024446625  0.028097431            5 
   89000     1.123599   -7.4175839    25.961195  0.024308235  0.028033074            4 
   90000    1.1260006   -7.3876491    26.199762  0.024259039  0.027958273            4 
   91000    1.1324893   -7.4271133    26.534987  0.024299439  0.027890742            6 
   92000    1.1370207    -7.434152    26.775267  0.024252959  0.027821804            2 
   93000    1.1141776   -7.4500837    26.891369  0.024096209  0.027749703            3 
   94000    1.0952262   -7.4593351     27.30524  0.024206773  0.027678207            3 
   95000    1.1218101    -7.415164    27.677713  0.024278695  0.027606871            5 
   96000    1.0973122   -7.4547465    27.844811  0.024170843  0.027542496            3 
   97000    1.1143983   -7.4556486    28.051136  0.024098914  0.027474962            3 
   98000    1.0955355   -7.4345745    28.399382  0.024149134  0.027403686            2 
   99000     1.118553   -7.4798829    28.681959  0.024143063  0.027339429            2 
  100000    1.1276346   -7.4120188    28.980136  0.024150113  0.027277098            2 
  101000    1.0981832   -7.5010182    29.182957  0.024078347  0.027214588            4 
  102000     1.104866   -7.3972879      29.6822  0.024250163  0.027154496            4 
  103000    1.1013685   -7.5242308    29.709491  0.024036805  0.027091947            2 
  104000    1.1381863   -7.5092888    29.872554  0.023936341  0.027025521            4 
  105000     1.111875   -7.4879683    30.165175  0.023940615    0.0269564            1 
  106000    1.1007985   -7.4592917    30.530702  0.024002124  0.026890692            2 
  107000    1.1168055    -7.458224    30.767576  0.023962287  0.026831119            5 
  108000    1.0787143   -7.4613205    31.185072  0.024062556  0.026774803            2 
  109000    1.0821825   -7.5116982    31.249824  0.023891303  0.026714867            2 
  110000    1.1252898   -7.4934545    31.690805  0.024008185  0.026654568            2 
  111000    1.0818326   -7.4837489    31.823445  0.023891475  0.026599335            3 
  112000    1.1004988   -7.4930949    32.082867   0.02387118  0.026542819            2 
  113000    1.0831493    -7.511809    32.322591  0.023836719  0.026484259            3 
  114000    1.0853693   -7.5133091      32.4782  0.023741374  0.026425296            2 
  115000    1.0902557   -7.5356722    32.622488  0.023639484  0.026360601            3 
  116000    1.0975292   -7.5212924    33.019802  0.023721122  0.026294064            3 
  117000    1.0701712   -7.6027671    33.165352  0.023622046  0.026231264            3 
  118000    1.0818354    -7.568841    33.230829    0.0234681  0.026162977            1 
  119000    1.0922871   -7.5270291    33.561294  0.023502307  0.026092284            4 
  120000    1.0594838   -7.5555903    33.567382  0.023310682  0.026019242            7 
  121000     1.057391   -7.5745196    33.760031   0.02325071  0.025942481            6 
  122000    1.0846561   -7.5648155    34.009315  0.023230406  0.025866687            2 
  123000    1.0792422   -7.5615001      34.2436  0.023200271   0.02579344            4 
  124000     1.062346   -7.5820967    34.478819  0.023171249  0.025721166            3 
  125000    1.0643372   -7.5524206    34.610097  0.023073398  0.025646352            4 
  126000    1.0738788    -7.564566    34.808672  0.023021608  0.025572735            3 
  127000    1.0789813   -7.5775929    35.049706  0.022998494  0.025492943            4 
  128000    1.0628463   -7.6102859    35.319995  0.022994788  0.025417948            2 
  129000    1.0496695   -7.5772621    35.445454   0.02289758  0.025342622            2 
  130000    1.0457807     -7.54881     35.63079   0.02284025  0.025264709            3 
  131000    1.0689997   -7.5701997     35.90419  0.022839815  0.025189146            4 
  132000    1.0716052   -7.5723643    36.062622  0.022766807  0.025117616            2 
  133000    1.0458661   -7.6262682    36.508845  0.022875216  0.025047849            2 
  134000    1.0537606   -7.6014795    36.576291  0.022746449  0.024979539            2 
  135000     1.043157   -7.6154337    36.816375  0.022726158  0.024911392            2 
  136000    1.0677509   -7.5977407    37.023192  0.022685779  0.024843928            3 
  137000    1.0802919   -7.6090502    37.227141  0.022644246  0.024777078            8 
  138000    1.0463085   -7.6306774    37.308239   0.02252913  0.024707755            3 
  139000    1.0320392    -7.588454    37.594988  0.022538962  0.024639228            2 
  140000     1.047302   -7.6038978    38.135121  0.022699477  0.024575239            3 
  141000    1.0519292   -7.6480894    38.195287  0.022574047  0.024514188            6 
  142000    1.0533689   -7.6353955    38.419993  0.022546944  0.024451991            4 
  143000    1.0562453   -7.6575786    38.616451  0.022503759  0.024389665            2 
  144000    1.0239347   -7.6459399    38.827182  0.022469434  0.024327156            7 
  145000    1.0229371   -7.6416437    39.005176  0.022416768  0.024264336            3 
  146000     1.041359   -7.6725946    39.165161  0.022354544  0.024201461            3 
  147000    1.0144111   -7.6889225    39.234435  0.022241743  0.024137189            2 
  148000    1.0191851   -7.6563367    39.415355  0.022193331  0.024071235            3 
  149000     1.064868   -7.6888552    39.570713  0.022131271  0.024003737            3 
  150000    1.0158349   -7.6883851     39.89724  0.022165133  0.023939706            2 
  151000    1.0089626   -7.6701546    40.138958  0.022151743  0.023876126            3 
  152000    1.0032511   -7.6891184    40.232879  0.022057499  0.023813153            3 
  153000    1.0361912   -7.7326664    40.474742  0.022045067  0.023749151            8 
  154000    1.0329787   -7.6921091    40.630974  0.021986458  0.023686262            8 
  155000    1.0034065   -7.7045288    40.667713  0.021864362  0.023622858            4 
  156000    1.0074986   -7.7272058    40.814806  0.021802781  0.023558062            3 
  157000    1.0126081   -7.7328964    41.168445  0.021851616  0.023494217            4 
  158000    1.0092953   -7.6844862     41.45175  0.021862737  0.023432424            2 
  159000     1.029272    -7.726582    41.373947  0.021684459  0.023369199            3 
  160000    1.0008712   -7.7405278     41.50782  0.021618656  0.023304539            2 
  161000    1.0251281   -7.7250672    41.779187  0.021624838  0.023238488            5 
  162000    1.0167335   -7.7233138    41.767765  0.021485476  0.023170729            5 
  163000    1.0044034   -7.7261255    41.885991  0.021414106  0.023102723            8 
  164000    1.0166605   -7.7360904    42.150964  0.021418173  0.023033555            4 
  165000    1.0150078   -7.7679112    42.347659  0.021387707  0.022967348            4 
  166000    1.0110433   -7.7534833    42.426848  0.021298618  0.022901929            8 
  167000     1.010044    -7.745861    42.850243  0.021382357  0.022837467            4 
  168000   0.98032284   -7.7604895    42.763132  0.021211871  0.022772028            4 
  169000   0.98813684   -7.7459523    42.815151  0.021112007  0.022705322            2 
  170000    1.0002371   -7.8092659    42.737576  0.020949792  0.022635611            3 
  171000   0.98664016   -7.8168853    42.648891   0.02078406  0.022561097            3 
  172000   0.99383182   -7.8233573    42.961659  0.020814757  0.022486484            2 
  173000    1.0051963   -7.8117437    42.994366  0.020710196   0.02241191            3 
  174000   0.97773958    -7.806877    43.114796  0.020648849  0.022337846            4 
  175000   0.99883274   -7.7937481    43.253805   0.02059705  0.022263237            4 
  176000    0.9992558   -7.8334466    43.336851  0.020519342  0.022189143            3 
  177000   0.99774012   -7.7957131    43.621796  0.020537569  0.022114355            1 
  178000   0.97007144   -7.7987802    43.654081  0.020437304   0.02203886            3 
  179000    0.9814289   -7.8442708    43.716276  0.020352084  0.021964801            1 
  180000   0.98183899   -7.7829564    43.884063  0.020316696  0.021892312            2 
  181000   0.95878031   -7.7968809    44.251919  0.020373812  0.021820983            5 
  182000   0.99576423   -7.7970013    44.533672  0.020390876  0.021753231            2 
  183000   0.98179744   -7.8473205    44.433093  0.020233649  0.021686092            3 
  184000   0.96600175   -7.8305473    44.633349  0.020214379  0.021617032            3 
  185000   0.96932432   -7.8278191    44.668281  0.020120847  0.021548402            4 
  186000   0.96023883   -7.8235847    44.658218  0.020008162  0.021477895            4 
  187000   0.99327081   -7.8426076    44.771634  0.019951709  0.021406495            5 
  188000   0.96582775   -7.8549588    44.986939  0.019941019  0.021335775            5 
  189000    0.9829743   -7.8562938    45.075053  0.019874362  0.021263989            4 
  190000   0.95467481    -7.883014     45.05557  0.019761215  0.021192042            3 
  191000   0.96784453   -7.8603008    45.213892  0.019726829  0.021119649            3 
  192000   0.95482178   -7.8728088    45.274205  0.019650263  0.021048255            3 
  193000   0.93929994    -7.851783    45.313469  0.019565401  0.020976075            3 
  194000   0.92808049   -7.8385143    45.560627  0.019570716  0.020904725            7 
  195000   0.93290827   -7.8914047    45.487508  0.019439106  0.020832775            6 
  196000   0.96471101    -7.856266    45.612208  0.019392945  0.020759751            7 
  197000   0.94967103    -7.928554    45.685159  0.019325363  0.020686406            6 
  198000   0.95347817   -7.9002617    45.830523  0.019288941  0.020612953            2 
  199000   0.95114754   -7.9101815    45.749477  0.019158072  0.020540498            5 
  200000   0.95707089   -7.9521241    45.980895  0.019158706  0.020468215            9 
  201000   0.92459003   -7.9178735    45.998752  0.019070793   0.02039588           16 
  202000   0.94573515   -7.8880683    46.258319  0.019083465  0.020324535            8 
  203000   0.95104364   -7.8915161    46.357976  0.019030368  0.020253548            4 
  204000   0.94107581   -7.9223389    46.335313  0.018927824  0.020183019            2 
  205000   0.92021578   -7.9124158    46.689374   0.01897942  0.020113263            4 
  206000   0.93950992   -7.8964355    46.785953  0.018926356   0.02004436            6 
  207000   0.93015933   -7.9171427    46.799794  0.018840497  0.019974929            4 
  208000   0.93657119    -7.911549    47.007998  0.018833332  0.019907356            4 
  209000   0.94374138    -7.912943    47.164927  0.018805792  0.019840367            3 
  210000   0.94514062   -7.9714122     47.24976  0.018749905  0.019774896            2 
  211000   0.94466932   -7.9578399    47.362579    0.0187056  0.019709675           11 
  212000   0.94622503   -7.9835084    47.419057  0.018639566  0.019644335            6 
  213000   0.92965157   -7.9725236    47.465116  0.018570077  0.019578567            3 
  214000   0.90967132   -7.9547509    47.684711  0.018568813  0.019512572            3 
  215000    0.9346635   -7.9246589    47.715503  0.018494381  0.019447459            5 
  216000   0.91567763   -7.9879213    47.758124  0.018425202  0.019381892            3 
  217000   0.92156069   -8.0032744     48.00002  0.018433187  0.019316834            3 
  218000   0.92504025   -7.9918728    47.956002  0.018331805  0.019252393            3 
  219000   0.92030117   -8.0044849    48.076041  0.018293775  0.019187603            2 
  220000   0.92400818   -7.9875675     48.12758  0.018230144  0.019122733            8 
  221000   0.91916645   -8.0290142    48.010151  0.018103375   0.01905777            4 
  222000    0.9004911   -7.9928952    48.365289  0.018155139  0.018993605            1 
  223000   0.92218293   -8.0144906    48.390959  0.018083318  0.018930753            4 
  224000   0.91191894   -8.0069878    48.598937  0.018079961  0.018868525            2 
  225000   0.92108572    -8.017042    48.560391   0.01798533  0.018806017            2 
  226000   0.92585635   -8.0271608     48.89165  0.018027895  0.018744228            2 
  227000   0.89341906   -8.0320636    48.800809  0.017915128  0.018682487            3 
  228000   0.88747623    -7.986321    48.827701  0.017846382  0.018619865            8 
  229000   0.91043036   -7.9977872    48.945754   0.01781141  0.018556834            5 
  230000   0.89843871   -8.0297712    48.824642  0.017690088  0.018493679            6 
  231000   0.89247902   -8.0448762    48.902337  0.017641536  0.018430371            3 
  232000   0.87762548   -8.0436601    49.008095  0.017603482  0.018367635            6 
  233000   0.90103108   -8.0415142    49.187908  0.017592242  0.018305534            5 
  234000   0.89298262   -8.0833402    49.267862  0.017545535  0.018243382            6 
  235000   0.92634517   -8.0364605    49.336505  0.017495215   0.01818186           10 
  236000   0.89349214    -8.054176    49.462327  0.017465511  0.018120364            4 
  237000    0.8915356   -8.0163184    49.394347  0.017367914  0.018058847           10 
  238000   0.89572377    -8.063237    49.399641  0.017296793  0.017996673            8 
  239000   0.88564408   -8.0827484     49.46277  0.017246433  0.017934418            7 
  240000   0.86934051   -8.0941216    49.473578  0.017178326   0.01787205            3 
  241000   0.87958252   -8.1156413    49.522261   0.01712388  0.017809599            6 
  242000   0.88724638   -8.1374883    49.429946  0.017021331  0.017746833           11 
  243000   0.86302011   -8.0910286    49.646138  0.017025424  0.017684105            8 
  244000   0.87412936   -8.1094166    49.582422  0.016933887  0.017621496           10 
  245000   0.88688699   -8.1318325    49.640104  0.016884389  0.017558167            8 
  246000   0.88429547    -8.141433      49.7139  0.016840752  0.017495494           12 
  247000   0.88988505   -8.1447884     49.55368  0.016718516  0.017432447            7 
  248000   0.88541337   -8.1145705    49.749156  0.016716786  0.017369429            6 
  249000   0.88329455   -8.1339127     49.80707  0.016669033  0.017306588            5 
  250000   0.88170095   -8.1403637    49.869082  0.016623027  0.017244625            5 
  251000   0.85275766   -8.1422127    49.842877    0.0165481  0.017182576            7 
  252000   0.86880536   -8.1485372    50.042309  0.016548383  0.017121239            5 
  253000    0.8635197   -8.1365122    50.182306  0.016529086  0.017060215            9 
  254000    0.8607946   -8.1472832    50.091524  0.016434227  0.016999171            6 
  255000   0.86913654   -8.1422781     50.24015   0.01641835  0.016938872           13 
  256000   0.86722668   -8.1463213     50.40655  0.016408382  0.016879866            8 
  257000   0.86640313   -8.1695844      50.4314  0.016352594  0.016821029            6 
  258000   0.86867561   -8.1554443    50.475893  0.016303583  0.016762496            4 
  259000   0.85332828   -8.1769222    50.497112  0.016247462  0.016704181           10 
  260000   0.84130537   -8.1779867    50.608659  0.016220724  0.016645674            6 
  261000    0.8468471   -8.1954963    50.490459  0.016120836  0.016587262           16 
  262000    0.8467685   -8.2034296    50.634421  0.016105096  0.016528948           12 
  263000   0.85545883   -8.1884908    50.636331  0.016044465  0.016470416           11 
  264000   0.84792609   -8.2006471     50.68143  0.015997926  0.016412441           14 
  265000   0.84898222   -8.1749608    50.727445  0.015952027  0.016354667            5 
  266000   0.85350956   -8.2233699    50.623802  0.015859587  0.016296703           23 
  267000   0.84231566    -8.202997    50.725783  0.015832017  0.016238366            6 
  268000    0.8402952   -8.1715419    50.804804  0.015797514  0.016180258            3 
  269000   0.84799439   -8.1672052    50.870449  0.015759123  0.016122039           15 
  270000    0.8425368   -8.2009498    50.945663   0.01572397  0.016064152            7 
  271000   0.84880713   -8.2215106     50.92767  0.015660415  0.016006325            6 
  272000   0.80547251   -8.2097649    50.806397  0.015565685  0.015948779            3 
  273000    0.8372771   -8.2170752    51.058009  0.015585473  0.015891155            4 
  274000   0.83038202   -8.2237416    51.011582  0.015514471  0.015833889            4 
  275000   0.81267454    -8.204898    51.011954  0.015458168  0.015776407            5 
  276000   0.82883923    -8.228812    51.146411  0.015442757   0.01571923            5 
  277000   0.84527812   -8.2583301     51.01498  0.015347467  0.015662272           12 
  278000    0.8194098     -8.28881    50.965266  0.015277358  0.015605004            3 
  279000   0.81620583   -8.2727157    51.018794  0.015238588  0.015547929            3 
  280000   0.81984947   -8.2784986     51.04589  0.015192229  0.015490566            2 
  281000   0.81928185   -8.2525833    51.101077   0.01515453  0.015433155            9 
  282000   0.83336986   -8.2493573    51.066646  0.015090617  0.015376412            5 
  283000   0.81584439   -8.2940122    51.123014  0.015053891  0.015319329            6 
  284000   0.81796131   -8.2927976    51.132353  0.015003625  0.015262311            8 
  285000   0.80851771   -8.3118019    51.172403  0.014962691  0.015205479           12 
  286000   0.80878949   -8.3072489    51.172072  0.014910277  0.015148939            8 
  287000   0.81024971   -8.3253241    51.014742  0.014812643  0.015092855           10 
  288000   0.80141811   -8.2961637    51.306847  0.014845731   0.01503663            6 
  289000   0.80088279   -8.2981512    51.249893  0.014777939  0.014980737            7 
  290000   0.80184313   -8.3552969    51.226129  0.014720152   0.01492517            5 
  291000   0.80175802   -8.3317217    51.199697  0.014661998  0.014869619            9 
  292000   0.79622017   -8.3491602    51.301138  0.014640736  0.014814237            8 
  293000   0.79260402   -8.3367748    51.221565  0.014568136  0.014758963           14 
  294000   0.80124176   -8.3536899    51.382658  0.014564245  0.014703679            7 
  295000   0.80061846   -8.3620271    51.222531  0.014469642  0.014648787            4 
  296000   0.79338466    -8.391649    51.342895  0.014454644   0.01459412           11 
  297000   0.80543204   -8.3621419    51.306957  0.014395891  0.014539548            6 
  298000   0.79853057   -8.3680979    51.419773  0.014379131  0.014485145            8 
  299000   0.77946057   -8.3710511    51.427276  0.014333131  0.014431234           11 
  300000   0.78882438   -8.3790014     51.43164  0.014286567  0.014377453           17 
  301000   0.77492044   -8.3529479    51.525049  0.014264964  0.014323811           23 
  302000   0.77833281    -8.379232    51.455984  0.014198671  0.014270135           28 
  303000    0.7825788   -8.3626269    51.558251  0.014179937  0.014216885            7 
  304000   0.79447798   -8.3932732    51.538145  0.014127781  0.014163703           12 
  305000    0.7754012   -8.4216161    51.573279   0.01409106  0.014110619           37 
  306000   0.77567529   -8.4380814    51.348644  0.013983836  0.014057325           13 
  307000   0.78009896   -8.3615928    51.454482  0.013967015  0.014004252           22 
  308000   0.78510206   -8.4037886    51.596797  0.013960172  0.013951872           22 
  309000   0.77494648   -8.4155574    51.504378   0.01389007  0.013899383           22 
  310000   0.77113342   -8.4111861    51.633031  0.013879847  0.013847177           23 
  311000    0.7726333   -8.4344442    51.641606  0.013837515  0.013795833           29 
  312000    0.7814132   -8.4323662    51.752697  0.013822836  0.013744657           24 
  313000   0.76820188   -8.4470263    51.718716  0.013769626  0.013693794           17 
  314000   0.77121457   -8.4650019    51.754692  0.013735322  0.013642901           22 
  315000   0.76632253   -8.4685255    51.737112  0.013687067  0.013591927           21 
  316000   0.74384073   -8.4268235    51.750633  0.013647319  0.013541158           19 
  317000   0.78959243   -8.4334484    51.795121  0.013615962  0.013490712           17 
  318000   0.75463722   -8.4412607    51.721974  0.013553976  0.013440184           16 
  319000    0.7549166    -8.468239    51.612472  0.013482882  0.013389524           25 
  320000   0.75177791   -8.4871227    51.640366  0.013448012  0.013338804           16 
  321000   0.75966336   -8.4676838    51.597433  0.013394972  0.013288312           15 
  322000   0.77619254   -8.5128406    51.577448  0.013348201  0.013238209           18 
  323000   0.73904289   -8.4960149    51.512288  0.013290064  0.013187881           17 
  324000   0.74961284    -8.493007    51.558651   0.01326097  0.013137566           15 
  325000   0.74283661   -8.4833938    51.524557  0.013211425  0.013087479           31 
  326000   0.72875324   -8.4865248    51.592147  0.013188177  0.013037584           14 
  327000   0.73213088   -8.5035905    51.756075  0.013189622   0.01298799           23 
  328000   0.74136507   -8.4937316    51.523839  0.013090406  0.012938573           20 
  329000    0.7579117   -8.5228391     51.51658  0.013048779  0.012889322           22 
  330000   0.73012478   -8.5205581     51.55818  0.013019742  0.012840147           28 
  331000    0.7367662   -8.5244287    51.553339  0.012979189  0.012791027           37 
  332000   0.73058198   -8.5371705    51.508796  0.012928915  0.012741764           16 
  333000   0.74378327   -8.5347863    51.575264  0.012906723  0.012693212           29 
  334000   0.73742281   -8.5205065    51.539533  0.012859165  0.012644696           22 
  335000   0.73196909   -8.5327027    51.591908  0.012833808  0.012596315           22 
  336000   0.71870382    -8.516624    51.480181  0.012767902  0.012547893           30 
  337000   0.72407743   -8.5277518    51.472951  0.012728227  0.012499488           28 
  338000   0.73075929   -8.5510445    51.456115  0.012686419  0.012451478           21 
  339000   0.70805349   -8.5593655    51.598091  0.012683897  0.012403827           18 
  340000   0.72189013   -8.5608422     51.60326  0.012647858  0.012356321           19 
  341000   0.73003737   -8.5586671     51.68013  0.012629553  0.012309261           23 
  342000   0.73010538   -8.5478119    51.606004  0.012574562  0.012262216           22 
  343000   0.70121759   -8.5877824    51.667246  0.012552781  0.012215505           26 
  344000   0.72361234   -8.5531541    51.652058  0.012512611   0.01216888           24 
  345000   0.71759569   -8.5526987     51.54239  0.012449853  0.012122432           18 
  346000   0.70332996   -8.5644818    51.629019  0.012434735  0.012076039           42 
  347000   0.71820112   -8.5755303    51.607878  0.012393823   0.01202985           27 
  348000   0.71063458   -8.5671583    51.622567  0.012361726  0.011983912           25 
  349000    0.7203699   -8.5918048    51.708779  0.012346891  0.011938248           32 
  350000   0.68163527   -8.6129339    51.580768  0.012281135   0.01189287           28 
  351000   0.70856367   -8.6011561    51.722198  0.012279724  0.011847669           35 
  352000   0.70039469   -8.6047758    51.708376  0.012241566  0.011802646           43 
  353000   0.70419613   -8.5976385    51.717842  0.012209122   0.01175777           31 
  354000   0.70848987   -8.6129226    51.676755  0.012164961   0.01171314           31 
  355000   0.71475895   -8.6088752    51.551375  0.012101262  0.011668752           30 
  356000   0.69601898   -8.6238985    51.575689  0.012072961  0.011624346           37 
  357000   0.71275206   -8.6192691    51.683623  0.012064338   0.01158013           32 
  358000   0.70199745   -8.6339716    51.664176  0.012026112  0.011536178           45 
  359000   0.69892537   -8.6237361    51.711701  0.012003645  0.011492229           30 
  360000   0.70185583   -8.6329954    51.619982   0.01194907   0.01144844           30 
  361000   0.69853986   -8.6109054    51.634867  0.011919406  0.011404884           35 
  362000   0.69219312   -8.6164382    51.699204   0.01190129  0.011361619           34 
  363000   0.69973867   -8.6325577    51.575632  0.011840136  0.011318451           27 
  364000   0.68625362   -8.6469849    51.636441   0.01182153   0.01127531           36 
  365000   0.69069826   -8.6485996    51.634147  0.011788618  0.011232443           36 
  366000   0.68094649   -8.6557566    51.587313  0.011745745  0.011189811           39 
  367000   0.68105779   -8.6680493    51.675764  0.011733825  0.011147405           38 
  368000   0.68382264   -8.6725863    51.558471  0.011675378  0.011105174           42 
  369000   0.68501097   -8.6575794    51.626107  0.011659012  0.011063002           49 
  370000   0.67394873   -8.6738939    51.628535  0.011628048  0.011020927           27 
  371000   0.68166175   -8.6839558    51.602426  0.011590841  0.010979016           41 
  372000   0.67040049   -8.6777068     51.44812  0.011525116  0.010937416           41 
  373000   0.65521829   -8.6665118    51.546657  0.011516233  0.010896002           44 
  374000   0.67510537   -8.6954281    51.573857  0.011491501  0.010854798           55 
  375000   0.66953831   -8.6784625    51.707901  0.011490645   0.01081383           49 
  376000   0.65732709   -8.6919337    51.608217  0.011437991  0.010773007           58 
  377000   0.65986699   -8.6895452    51.695229  0.011426885   0.01073237           60 
  378000   0.66919166    -8.700898    51.712626  0.011400491  0.010691909           60 
  379000   0.65673682   -8.7095126    51.626918  0.011351565  0.010651579           44 
  380000   0.65473924   -8.6919994     51.57557  0.011310432  0.010611421           50 
  381000   0.64888294   -8.7167562    51.548422  0.011274808  0.010571454           51 
  382000   0.65611089   -8.7232698    51.625433  0.011262093  0.010531496           50 
  383000   0.66019231   -8.7295777    51.561157  0.011218703  0.010491789           43 
  384000   0.65184375    -8.710764    51.586594  0.011195007  0.010452186           63 
  385000   0.65985748   -8.7038474    51.599482  0.011168719  0.010412789           60 
  386000   0.65292026   -8.7301023     51.42086  0.011101222  0.010373628           68 
  387000    0.6353218   -8.7343746      51.4988   0.01108932  0.010334487           44 
  388000   0.64060517    -8.754961    51.561512  0.011074208  0.010295532           46 
  389000   0.64372148   -8.7434772    51.465932  0.011025264  0.010256638           39 
  390000   0.64017991    -8.726126    51.484103  0.011000877  0.010217894           49 
  391000   0.63717544   -8.7471666    51.376411  0.010949789  0.010179432           57 
  392000   0.64085262   -8.7319896    51.523364  0.010953096  0.010141131           63 
  393000   0.63823262   -8.7388483    51.544918  0.010929796  0.010102941           52 
  394000   0.64831936   -8.7510373    51.512954  0.010895295  0.010064965           65 
  395000   0.64633656   -8.7695257     51.44214  0.010852772  0.010027249           52 
  396000   0.63542671   -8.7468519    51.552941  0.010848683 0.0099896401           61 
  397000    0.6258762   -8.7536999    51.536002  0.010817801 0.0099522284           56 
  398000   0.62156299   -8.7761638    51.407714  0.010763759 0.0099149257           61 
  399000    0.6237528   -8.7584535    51.429255  0.010741281 0.0098777664           93 
  400000    0.6290214   -8.7749004    51.347862  0.010697471 0.0098407246           72 
  401000   0.62821338   -8.7821666    51.402474  0.010682143 0.0098037254           57 
  402000   0.63590682   -8.8119405    51.367282  0.010648276 0.0097668842           64 
  403000   0.61015908   -8.8001176    51.402318  0.010629098 0.0097301906           64 
  404000   0.61854825   -8.7782129    51.418605  0.010606148 0.0096936355           67 
  405000   0.61825277   -8.7872225    51.343679  0.010564543 0.0096573114           84 
  406000   0.62326115   -8.7916874    51.401641  0.010550419 0.0096211136           68 
  407000   0.62709142   -8.8025815    51.383483  0.010520779 0.0095849723           66 
  408000   0.61704433     -8.80486    51.372301  0.010492708 0.0095489773           57 
  409000   0.59821244   -8.8139235     51.33187  0.010458816 0.0095131117           60 
  410000   0.62490862   -8.8176191    51.300556  0.010426942 0.0094773667           56 
  411000   0.60480732   -8.8287446    51.279742  0.010397352 0.0094418101           63 
  412000   0.60462846   -8.8326345    51.238756  0.010363826 0.0094064345           70 
  413000    0.5965313   -8.8380732    51.195546  0.010330013 0.0093712014           55 
  414000   0.59976755   -8.8161318    51.319227  0.010329957 0.0093362537           81 
  415000   0.60893966   -8.8230292    51.336701  0.010308575 0.0093014232           65 
  416000   0.60102693   -8.8228686    51.298173  0.010276076 0.0092667526           58 
  417000   0.60423619   -8.8298567    51.297479  0.010251295 0.0092322962           57 
  418000   0.59696093   -8.8369254    51.239267  0.010215165 0.0091979467           58 
  419000   0.60762736   -8.8137055    51.224446  0.010187837 0.0091636954           55 
  420000   0.59920705   -8.8264148    51.390199  0.010196468 0.0091297081           65 
  421000   0.60053124   -8.8568733    51.239329  0.010142385 0.0090958311           62 
  422000   0.60547549   -8.8348503    51.259617  0.010122357 0.0090621167           69 
  423000   0.59121159   -8.8551055    51.274652  0.010101389 0.0090285596           76 
  424000   0.58649429   -8.8374148    51.194349  0.010061782 0.0089951525           64 
  425000   0.59173721   -8.8544706    51.244189   0.01004788 0.0089619342           55 
  426000   0.59687505   -8.8366398    51.284694  0.010032217 0.0089289004           57 
  427000   0.59049114   -8.8575127     51.31008  0.010013677 0.0088959495           64 
  428000   0.57370082   -8.8569152    51.207008 0.0099702119 0.0088631284           66 
  429000   0.58644451   -8.8529178    51.139767 0.0099339097 0.0088304022           60 
  430000   0.58570223   -8.8495223    51.250565   0.00993228 0.0087979565           71 
  431000   0.56984136   -8.8671678    51.219883  0.009903303 0.0087655483           66 
  432000   0.58065098   -8.8572096    51.207443  0.009877979 0.0087333174           56 
  433000   0.57081553   -8.8644197     51.10296 0.0098350577 0.0087011178           73 
  434000   0.57715199   -8.8777868    51.189574 0.0098290272 0.0086691392           70 
  435000    0.5645512   -8.8837324    51.149184 0.0097986942 0.0086372491           70 
  436000   0.58308067   -8.8738046    51.245539 0.0097946366 0.0086055566           66 
  437000   0.57481848   -8.8808306    51.164968 0.0097568589  0.008574034           66 
  438000   0.57700406   -8.8811106    51.107745 0.0097236958 0.0085426468           76 
  439000   0.55510212   -8.9059527    51.135327 0.0097067819 0.0085113904           57 
  440000   0.57931242   -8.8900957    51.118082 0.0096814549 0.0084802651           59 
  441000    0.5609339   -8.9010568    51.189023 0.0096729068 0.0084492163           54 
  442000   0.55684527   -8.8947072    51.144567 0.0096426409 0.0084182979           71 
  443000   0.55974259   -8.9169844     51.12468 0.0096171331 0.0083875075           69 
  444000   0.54815919   -8.9001546    51.060986 0.0095835183 0.0083569474           84 
  445000   0.55477357   -8.9148068    51.055437 0.0095609433 0.0083264751           68 
  446000   0.54490211   -8.9031008    51.060464 0.0095404455 0.0082960968           77 
  447000   0.54244629   -8.9073291    51.112553  0.009528813  0.008265905           87 
  448000   0.55967908   -8.9044283    51.142197 0.0095130574 0.0082358717           57 
  449000   0.55182254   -8.9177491    50.986191 0.0094629158 0.0082058792           54 
  450000   0.54738234   -8.9019479    50.993461 0.0094432336  0.008176078           55 
  451000   0.56030926   -8.9019936    51.110584 0.0094439365 0.0081464197           64 
  452000   0.54473987   -8.9167477    51.052728  0.009412376 0.0081169064          115 
  453000   0.54768133    -8.925439    51.006453 0.0093830855  0.008087596           92 
  454000   0.53389806   -8.9342282    51.044246  0.009369355 0.0080584088           60 
  455000   0.55042574     -8.93719      51.0296 0.0093460807 0.0080293086           50 
  456000   0.52820166   -8.9225435    50.971444 0.0093149569 0.0080003016           61 
  457000   0.52472915   -8.9401586     50.90515 0.0092824854 0.0079714687           56 
  458000   0.53250763    -8.931398    50.986409  0.009277003 0.0079427664           71 
  459000   0.52815803   -8.9384049    51.038292 0.0092662113 0.0079141752           84 
  460000   0.53742875   -8.9561229    50.949905 0.0092300553 0.0078856745           69 
  461000   0.52669202   -8.9511717      50.9321 0.0092068148 0.0078572886           79 
  462000   0.54074535   -8.9573412    50.980123 0.0091955489 0.0078289808           73 
  463000   0.53838318   -8.9546728    50.920692 0.0091649913 0.0078008588           50 
  464000   0.52961678   -8.9436407    51.020607 0.0091631837 0.0077728766           87 
  465000   0.53210119   -8.9473495    50.974559 0.0091352256 0.0077449979           58 
  466000   0.51315521   -8.9639547    50.996792  0.009119598 0.0077172584           93 
  467000   0.52930991   -8.9792299    50.836828 0.0090715254 0.0076896411           58 
  468000   0.52847401   -8.9696895     51.01929 0.0090846313 0.0076622368           68 
  469000   0.52836265    -8.981415    50.948807 0.0090527375 0.0076349089           66 
  470000   0.52731416   -8.9702667    50.873651 0.0090201509 0.0076077887           70 
  471000   0.51741173   -8.9842647     50.91188 0.0090077636 0.0075807332           80 
  472000   0.51576594   -8.9876815    50.890737 0.0089849466 0.0075538019          153 
  473000   0.52374361   -8.9853526    50.938937 0.0089744427 0.0075269295           75 
  474000   0.52195006   -8.9896147    50.893996 0.0089476084 0.0075001848          104 
  475000   0.50552051   -8.9698039    50.897157 0.0089293259 0.0074735148           83 
  476000   0.51235594   -8.9997044    50.834015 0.0088995125 0.0074469911           86 
  477000   0.50640106   -8.9947608     50.89414 0.0088913592  0.007420552           84 
  478000   0.50548075   -9.0051618    50.861356 0.0088670426 0.0073942719          102 
  479000   0.50309404   -8.9982651    50.833043 0.0088436052 0.0073681262           77 
  480000   0.48723158   -9.0111255    50.875141 0.0088324898 0.0073420376           91 
  481000   0.49168304   -9.0009578    50.863544 0.0088121178 0.0073161225           90 
  482000   0.49830311   -9.0047889    50.863619 0.0087938483 0.0072903547           75 
  483000   0.48531912   -9.0084677    50.822207 0.0087684967 0.0072646393           71 
  484000   0.50228776   -9.0129173    50.846713 0.0087545993 0.0072390191           87 
  485000   0.49357362   -9.0143309    50.782892 0.0087255828 0.0072135322           77 
  486000   0.47866118   -8.9989754    50.900895 0.0087278627 0.0071881892           77 
  487000   0.49214945   -9.0119074    50.669485 0.0086703432  0.007162946           97 
  488000   0.47824145   -9.0128556    50.745579 0.0086655702 0.0071377998          118 
  489000   0.48658246   -9.0272809    50.773606 0.0086526254 0.0071127987           88 
  490000   0.47986842    -9.027026    50.845018 0.0086471119 0.0070879064           94 
  491000   0.48586306   -9.0184596    50.739878 0.0086116561 0.0070631849           81 
  492000   0.48849693   -9.0281128    50.756015  0.008596886 0.0070384838           87 
  493000   0.47811119   -9.0351653    50.744527 0.0085775062 0.0070139163           71 
  494000   0.48308536   -9.0277119    50.743822  0.008560024 0.0069894425           75 
  495000   0.48130753   -9.0325544    50.777493 0.0085483995 0.0069651328           91 
  496000    0.4794946    -9.044037    50.708585 0.0085195874 0.0069408977           85 
  497000   0.47168542   -9.0441602     50.76604 0.0085120791 0.0069167523           81 
  498000   0.47957307   -9.0432892    50.728956  0.008488781 0.0068926882           82 
  499000    0.4612164    -9.048228    50.734023 0.0084726158 0.0068687949           79 
  500000   0.46079428   -9.0567463    50.715417 0.0084525695  0.006844978           73 
  501000   0.46637868   -9.0556363    50.763051 0.0084436213 0.0068212787           94 
  502000    0.4614923   -9.0568956    50.672226 0.0084117241 0.0067976638           79 
  503000   0.46437954   -9.0517693    50.674286 0.0083953422 0.0067741518           83 
  504000   0.47009024   -9.0746796     50.68581 0.0083805903 0.0067507582           81 
  505000   0.46875562   -9.0571226    50.725425 0.0083705322 0.0067274794           80 
  506000   0.46453442   -9.0561216    50.685013 0.0083473342 0.0067042615           92 
  507000   0.46569899   -9.0756564    50.588108 0.0083149421 0.0066811796           87 
  508000   0.46160901   -9.0673101    50.596557 0.0082999601 0.0066582279           65 
  509000   0.46080553   -9.0813294    50.628706 0.0082889172 0.0066353408           90 
  510000   0.46491657    -9.079321    50.683515 0.0082816201 0.0066125841           94 
  511000   0.46280157    -9.078155    50.697371  0.008267673 0.0065899351          105 
  512000   0.45993778   -9.0869324    50.608954 0.0082371344 0.0065673683           99 
Loop time of 1283.13 on 48 procs for 500000 steps with 4000 atoms

Performance: 67335.154 tau/day, 389.671 timesteps/s
99.4% CPU use with 48 MPI tasks x no OpenMP threads

MPI task timing breakdown:
Section |  min time  |  avg time  |  max time  |%varavg| %total
---------------------------------------------------------------
Pair    | 89.751     | 95.61      | 102.28     |  24.6 |  7.45
Neigh   | 8.6058     | 8.9314     | 9.3284     |   6.1 |  0.70
Comm    | 81.668     | 87.035     | 93.68      |  29.3 |  6.78
Output  | 0.94461    | 0.94548    | 0.96746    |   0.3 |  0.07
Modify  | 1075.2     | 1079.1     | 1083.1     |   6.3 | 84.10
Other   |            | 11.54      |            |       |  0.90

Nlocal:        83.3333 ave          91 max          77 min
Histogram: 2 2 10 2 11 12 4 2 1 2
Nghost:        2316.33 ave        2340 max        2297 min
Histogram: 4 5 5 5 7 8 7 4 2 1
Neighs:        15756.4 ave       17159 max       14353 min
Histogram: 3 6 2 4 9 7 4 5 6 2
FullNghs:      31514.1 ave       34608 max       29129 min
Histogram: 2 2 10 5 15 5 5 1 2 1

Total # of neighbors = 1512675
Ave neighs/atom = 378.16875
Neighbor list builds = 26632
Dangerous builds = 0

#clear
#
#next RN
#
#jump SELF
Total wall time: 0:21:26
