
units lj                  # Use reduced LJ style units
atom_style atomic         # Uncharged point particles
atom_modify map hash      # Needed for indexing of clusters etc
                          # Used to be able to find where atoms are in relation to each other.

lattice fcc 1.0 spacing 1 1 1
Lattice spacing in x,y,z = 1.5874011 1.5874011 1.5874011
region box block 0 10 0 10 0 10 units lattice
create_box 2 box
Created orthogonal box = (0.0000000 0.0000000 0.0000000) to (15.874011 15.874011 15.874011)
  3 by 4 by 4 MPI processor grid
create_atoms 1 box
Created 4000 atoms
  using lattice units in orthogonal box = (0.0000000 0.0000000 0.0000000) to (15.874011 15.874011 15.874011)
  create_atoms CPU = 0.003 seconds
set type 1 type/fraction 2 0.15 78393
Setting atom values ...
  634 settings made for type/fraction
mass 1 1.0
mass 2 1.0
pair_style lj/cut  3.5
pair_modify tail  yes
pair_coeff 1  1  1.0  1.0   # Intearaction between 1 and 1 set with epsilon = 1 and sigma = 1
pair_coeff 1  2  1.5  0.8
pair_coeff 2  2  0.5  0.88

write_data data.0
System init for write_data ...
Neighbor list info ...
  update every 1 steps, delay 10 steps, check yes
  max neighbors/atom: 2000, page size: 100000
  master list distance cutoff = 3.8
  ghost atom cutoff = 3.8
  binsize = 1.9, bins = 9 9 9
  1 neighbor lists, perpetual/occasional/extra = 1 0 0
  (1) pair lj/cut, perpetual
      attributes: half, newton on
      pair build: half/bin/atomonly/newton
      stencil: half/bin/3d
      bin: standard
WARNING: Not all mixed pair coeffs generated from mixing. Use write_data with 'pair ij' option to store all pair coeffs. (../write_data.cpp:312)


#############################
#   M E L T   S Y S T E M   #
#############################

velocity all create 2.4 1741580 mom yes dist gaussian # Assign velocities
                                                    # Temperature 2.4, random number seed, zero linear momentum
                                                                                # Gaussian distribution

timestep 0.002   # simulation timestep
thermo 1000       # output thermodynamic data every 1000 steps bf 100

# Define a fix  in this case with index 1 applied to all
# particles in the simulation. This fix is for simulations
# in the anisotropic NPT ensemble. Note that we use the MTK
# correction.
fix 1 all npt temp 2.4 2.4 0.1 iso 5.68 5.68 0.5 mtk yes tchain 5 pchain 5 # Use NPT ensemble
                                                                         # Set temperature and pressure and damping
                                                                         # Numbers of thermostats in chain and in barostat
run 10000          # run for 10000 steps
Per MPI rank memory allocation (min/avg/max) = 3.642 | 3.644 | 3.648 Mbytes
Step Temp E_pair E_mol TotEng Press Volume 
       0          2.4   -7.3553801            0   -3.7562801   -3.3553213         4000 
    1000    2.3734417   -4.7476281            0   -1.1883556    5.6636276    4636.1295 
    2000    2.3748342   -4.7336075            0   -1.1722467    5.8653062     4627.984 
    3000    2.3617873   -4.7160257            0   -1.1742304    5.8428081    4638.4703 
    4000    2.3776688   -4.6976701            0   -1.1320586    5.8036347    4653.1778 
    5000    2.3638147   -4.8153372            0   -1.2705015    5.4190742    4624.4661 
    6000    2.4422788   -4.7304202            0   -1.0679178    5.4339084    4670.6405 
    7000    2.3840065   -4.6322833            0   -1.0571675    5.9144599    4671.9144 
    8000    2.3904425   -4.7282155            0   -1.1434481    5.6403505    4650.3635 
    9000    2.4072995   -4.7087118            0   -1.0986653     5.863361    4640.0483 
   10000    2.4648479   -4.7436424            0   -1.0472949    5.6946062    4645.2464 
Loop time of 2.25061 on 48 procs for 10000 steps with 4000 atoms

Performance: 767792.944 tau/day, 4443.246 timesteps/s
99.6% CPU use with 48 MPI tasks x no OpenMP threads

MPI task timing breakdown:
Section |  min time  |  avg time  |  max time  |%varavg| %total
---------------------------------------------------------------
Pair    | 0.93355    | 0.99935    | 1.1191     |   3.2 | 44.40
Neigh   | 0.19255    | 0.20136    | 0.22568    |   1.2 |  8.95
Comm    | 0.67664    | 0.78193    | 0.86122    |   4.8 | 34.74
Output  | 0.00024336 | 0.00024865 | 0.00031525 |   0.0 |  0.01
Modify  | 0.21303    | 0.25302    | 0.29496    |   4.8 | 11.24
Other   |            | 0.01469    |            |       |  0.65

Nlocal:        83.3333 ave          91 max          75 min
Histogram: 4 1 1 9 4 11 10 2 3 3
Nghost:        1491.17 ave        1517 max        1465 min
Histogram: 2 6 3 2 11 9 5 2 4 4
Neighs:        8204.71 ave        9497 max        7071 min
Histogram: 2 2 4 10 6 14 6 1 2 1

Total # of neighbors = 393826
Ave neighs/atom = 98.456500
Neighbor list builds = 902
Dangerous builds = 191

# Equilibrate just above the melting temperature to avoid step fn in T

fix 1 all npt temp 1.25 1.25 0.1 iso 5.68 5.68 0.5 mtk yes tchain 5 pchain 5
run 2000
Per MPI rank memory allocation (min/avg/max) = 3.642 | 3.644 | 3.648 Mbytes
Step Temp E_pair E_mol TotEng Press Volume 
   10000    2.4648479   -4.7436424            0   -1.0472949    5.6946062    4645.2464 
   11000    1.2655329   -6.3579539            0   -4.4601291    5.7156685    3817.6638 
   12000    1.2397433   -6.3792484            0   -4.5200983    5.5004267    3821.3169 
Loop time of 0.491004 on 48 procs for 2000 steps with 4000 atoms

Performance: 703863.387 tau/day, 4073.283 timesteps/s
99.6% CPU use with 48 MPI tasks x no OpenMP threads

MPI task timing breakdown:
Section |  min time  |  avg time  |  max time  |%varavg| %total
---------------------------------------------------------------
Pair    | 0.21773    | 0.23605    | 0.25494    |   1.6 | 48.08
Neigh   | 0.03157    | 0.033536   | 0.034976   |   0.5 |  6.83
Comm    | 0.14979    | 0.16673    | 0.19296    |   2.5 | 33.96
Output  | 5.1621e-05 | 5.3544e-05 | 7.1088e-05 |   0.0 |  0.01
Modify  | 0.040662   | 0.049989   | 0.05788    |   2.2 | 10.18
Other   |            | 0.00465    |            |       |  0.95

Nlocal:        83.3333 ave          93 max          76 min
Histogram: 4 2 8 5 10 11 1 6 0 1
Nghost:        1694.79 ave        1711 max        1663 min
Histogram: 1 0 2 3 4 5 9 13 6 5
Neighs:        9974.75 ave       11316 max        8896 min
Histogram: 3 3 6 8 8 9 4 5 1 1

Total # of neighbors = 478788
Ave neighs/atom = 119.69700
Neighbor list builds = 140
Dangerous builds = 7

#############################
# L I N E A R  Q U E N C H  #
#############################

# Define solid atoms. This closely follows ten Wolde  Ruiz-Montero and Frenkel  Faraday Discuss  1996  104  93-110
# Compute components of the per-atom q6 vector
compute q6 all orientorder/atom degrees 1 6 components 6 nnn NULL cutoff 1.3 # compute the Q6 parameter.
                                                                             # Use all neighbours within 1.3 unit cell.

# get number of connections
compute coord_number all coord/atom orientorder q6 0.5

# An atom is solid if it has 8 or more connections (of a possible 14)
variable is_solid atom c_coord_number>=8
group solid dynamic all var is_solid    # Must be dynamic to update
dynamic group solid defined

# do clustering
compute cluster solid cluster/atom 1.3 # Create a cluster where all atoms within are solid and max 1.3 units from another member

# define chunks one chunk per cluster
compute clus_chunks solid chunk/atom c_cluster nchunk every compress yes  # Says which atoms are in which chunk

# count the size of each chunk
compute size_chunks solid property/chunk clus_chunks count


# Find the maximum entry in the vector of chunk sizes
variable max_n equal max(c_size_chunks)


# Thermo style which includes this variable
# thermo_style custom step temp pe vol v_max_n

thermo ${N}  # Print the thermo information every 100 steps
thermo 1000  

# Reset the npt fix at a lower temperature (below freezing)
fix 1  all npt temp  ${temp} ${temp}  0.1  iso  5.68  5.68  0.5  mtk yes tchain  5  pchain  5
fix 1  all npt temp  0.45 ${temp}  0.1  iso  5.68  5.68  0.5  mtk yes tchain  5  pchain  5
fix 1  all npt temp  0.45 0.45  0.1  iso  5.68  5.68  0.5  mtk yes tchain  5  pchain  5

dump dmp2 all dcd ${N} traj.dcd
dump dmp2 all dcd 1000 traj.dcd


compute msd all msd com yes
variable twopoint equal c_msd[4]/6/(step*dt+1.0e-6)
fix 9 all vector 10 c_msd[4]
variable fit equal slope(f_9)/6/(10*dt)
thermo_style custom step temp pe c_msd[4] v_twopoint v_fit v_max_n

fix 1 all npt temp 1.25 ${temp} 0.1 iso 5.68 5.68 0.5 mtk yes tchain 5 pchain 5
fix 1 all npt temp 1.25 0.45 0.1 iso 5.68 5.68 0.5 mtk yes tchain 5 pchain 5
run 500000 # 5000000  # Run for this many steps
Neighbor list info ...
  update every 1 steps, delay 10 steps, check yes
  max neighbors/atom: 2000, page size: 100000
  master list distance cutoff = 3.8
  ghost atom cutoff = 3.8
  binsize = 1.9, bins = 9 9 9
  4 neighbor lists, perpetual/occasional/extra = 1 3 0
  (1) pair lj/cut, perpetual
      attributes: half, newton on
      pair build: half/bin/atomonly/newton
      stencil: half/bin/3d
      bin: standard
  (2) compute orientorder/atom, occasional
      attributes: full, newton on
      pair build: full/bin/atomonly
      stencil: full/bin/3d
      bin: standard
  (3) compute coord/atom, occasional
      attributes: full, newton on
      pair build: full/bin/atomonly
      stencil: full/bin/3d
      bin: standard
  (4) compute cluster/atom, occasional
      attributes: full, newton on
      pair build: full/bin/atomonly
      stencil: full/bin/3d
      bin: standard
Per MPI rank memory allocation (min/avg/max) = 9.762 | 9.767 | 9.772 Mbytes
Step Temp PotEng c_msd[4] v_twopoint v_fit v_max_n 
   12000    1.2397433   -6.3792484 4.8008103e-30 3.3338959e-32 8.3333333e+20            1 
   13000    1.2531994   -6.3513637   0.53733193 0.0034444353  0.044149374            3 
   14000    1.2547266   -6.3812875    1.0373071 0.0061744466  0.041677822            2 
   15000    1.2393905   -6.4018268    1.6050609 0.0089170048  0.042631321            1 
   16000    1.2555989   -6.4007024    2.1809493   0.01135911  0.044960311            3 
   17000    1.2529039   -6.3946324    2.7401111  0.013431917  0.045727501            1 
   18000     1.256529   -6.3731909    3.2250592  0.014930829  0.045667725            2 
   19000    1.2476897   -6.4016061    3.6901932  0.016185057  0.044881648            2 
   20000    1.2442797   -6.3900345    4.2556673  0.017731947  0.044400625            4 
   21000    1.2573541   -6.4301411    4.7182995   0.01872341  0.044158148            2 
   22000    1.2211257   -6.3989903    5.2666388  0.019949389  0.043920397            1 
   23000    1.2175602   -6.3976876    5.7330142   0.02077179  0.043594238            2 
   24000    1.2372593   -6.4460383    6.2514985  0.021706592  0.043337281            2 
   25000    1.2426746   -6.4206553    6.8161551  0.022720517  0.043247025            1 
   26000    1.2450861   -6.4464148    7.4653203  0.023927308  0.043400313            2 
   27000    1.2205133   -6.4237167    7.9371924  0.024497507  0.043665097            3 
   28000    1.2490831   -6.4592045    8.4083284  0.025024787  0.043731326            2 
   29000    1.2341063   -6.4232722    8.9802855  0.025805418  0.043765495            2 
   30000    1.2237976   -6.4225274    9.4528786  0.026257996   0.04377696            1 
   31000    1.2176246   -6.4500048    9.8963616  0.026603122  0.043688783            3 
   32000     1.212455   -6.4954196     10.25926  0.026716822  0.043489047            3 
   33000    1.1921131   -6.4513139    10.715041  0.027058185  0.043225563            2 
   34000    1.2187611    -6.501531    11.219094  0.027497779  0.042966086            3 
   35000    1.2245415    -6.463844     11.64491  0.027725976  0.042731908            7 
   36000    1.1955693   -6.4912984    12.139409  0.028100483  0.042517561            2 
   37000    1.2199273   -6.4258282    12.648253  0.028487056  0.042325907            2 
   38000     1.202992   -6.4806751    13.018822  0.028550048  0.042111238            2 
   39000    1.2240008   -6.4792204     13.42838  0.028693119  0.041868647            1 
   40000    1.1900766   -6.4617655     13.89737  0.028952855  0.041651119            2 
   41000    1.2036294   -6.4832984    14.313035  0.029091534  0.041440172            2 
   42000    1.2050126   -6.5300943     14.76629  0.029298195  0.041248487            1 
   43000    1.2069116   -6.4941258    15.257064  0.029567954  0.041070105            2 
   44000    1.1874078   -6.4788608    15.741757  0.029813934  0.040910944            6 
   45000    1.1808463   -6.5136174    16.102758  0.029819921  0.040774385            3 
   46000    1.2170901   -6.4710387    16.654468  0.030171137  0.040628033            2 
   47000    1.2154062   -6.4929436    16.942237  0.030039428   0.04046596            1 
   48000    1.2006372   -6.4980808    17.305998  0.030045134  0.040302782            4 
   49000    1.1737986   -6.4911332    17.735755  0.030162849  0.040125863            3 
   50000    1.2186507   -6.5178454    18.239133  0.030398556  0.039942393            2 
   51000      1.19052   -6.5260804    18.667286  0.030502101  0.039798015            3 
   52000     1.167652   -6.5354466    19.132359  0.030660831  0.039666291            2 
   53000    1.1860528   -6.5053489     19.65181  0.030899072  0.039559609            2 
   54000    1.1736545    -6.558284    20.173805  0.031132415  0.039469562            4 
   55000    1.1831606   -6.4931202     20.76498  0.031462091  0.039405686            3 
   56000    1.1771066   -6.5433547     21.17732  0.031513869  0.039371564            2 
   57000    1.1558892   -6.5080657    21.642787  0.031641501  0.039334377            2 
   58000    1.1602903   -6.5138035    21.981525  0.031582651  0.039280216            2 
   59000    1.1875864   -6.5048044     22.37311  0.031600438  0.039214433            1 
   60000    1.1811521   -6.5144323    22.793295  0.031657354   0.03914244            4 
   61000     1.171773   -6.5166321    23.225173  0.031728378  0.039069815            2 
   62000    1.1743691   -6.5782039    23.393315  0.031442627  0.038973739            4 
   63000    1.1704801   -6.5073293    23.771379  0.031443623  0.038856766            2 
   64000    1.1629231   -6.5426583    24.292366  0.031630685  0.038749966            4 
   65000    1.1588038   -6.5395387    24.684726  0.031647084  0.038649568            2 
   66000     1.167706   -6.5340342    25.157653  0.031764713  0.038552932            2 
   67000    1.1522797   -6.5916089     25.52725   0.03175031   0.03846573            3 
   68000    1.1750853   -6.5149584    25.911973  0.031754869  0.038372848            6 
   69000    1.1756157    -6.565199    26.361029  0.031836991  0.038278794            1 
   70000    1.1702359   -6.5826951    26.794287   0.03189796  0.038188534            2 
   71000    1.1375342   -6.5506187    27.257321  0.031992161  0.038105819            3 
   72000     1.128191   -6.5749489    27.643535  0.031994831  0.038038312            4 
   73000    1.1526005   -6.5792022    28.003567  0.031967542  0.037963169            2 
   74000    1.1724192   -6.5839473    28.380521  0.031960046  0.037886493            1 
   75000    1.1447304   -6.5781658    28.858376  0.032064862  0.037807244            3 
   76000    1.1698513   -6.5721532    29.304603   0.03213224  0.037728801            3 
   77000    1.1601792   -6.5740134    29.631952  0.032069212  0.037662542            3 
   78000    1.1438169   -6.6135539    29.980859  0.032030832  0.037588961            3 
   79000    1.1396554   -6.6173813    30.442455  0.032112294  0.037514808            3 
   80000    1.1263791   -6.6000392    30.772838   0.03205504  0.037440081            5 
   81000    1.1339602   -6.5633834    31.183701  0.032081996  0.037357239            6 
   82000     1.150738   -6.6056769    31.360456  0.031870382  0.037272679            3 
   83000    1.1564436    -6.620193    31.842816  0.031970699   0.03718508            1 
   84000    1.1377029   -6.6133489    32.309116  0.032052695  0.037104529            2 
   85000    1.1116614   -6.5937731    32.608245  0.031968868  0.037025647            1 
   86000    1.1400707   -6.6066276    32.964873  0.031942707  0.036941943            1 
   87000    1.1388761   -6.5950974    33.467192  0.032056697  0.036861538            2 
   88000    1.1274135   -6.6089123    33.820011  0.032026526  0.036784333            1 
   89000    1.1498939   -6.5854323    34.034107  0.031867141  0.036695665            3 
   90000    1.1413981   -6.6594776    34.284975  0.031745347  0.036598899            5 
   91000    1.1192817   -6.5977309    34.728387  0.031802552  0.036512008            7 
   92000    1.1228201   -6.6555689    35.062767  0.031759752  0.036418557            7 
   93000    1.1549346   -6.6416734    35.462903  0.031776795   0.03632449            2 
   94000    1.1421366   -6.6399734    36.028065  0.031939774  0.036244233            3 
   95000    1.1207292   -6.6041306     36.09758  0.031664544  0.036158854            2 
   96000    1.1003799   -6.6095013    36.325909  0.031532907  0.036063772            4 
   97000    1.1190287    -6.654128    36.600248  0.031443512  0.035963046            2 
   98000    1.0691488   -6.6479663    37.009769  0.031470892  0.035862669            1 
   99000    1.0972187   -6.6239467    37.479654   0.03154853  0.035769033            4 
  100000    1.1060304    -6.646199     38.03381  0.031694841   0.03568512            5 
  101000    1.0762473    -6.654312    38.282672  0.031586363  0.035606449            1 
  102000     1.106854   -6.6642865    38.594761  0.031531667  0.035526155            2 
  103000    1.0980681   -6.6769423    38.946337  0.031509981  0.035440748            2 
  104000    1.1160706   -6.6965292    39.318913  0.031505539  0.035359914            2 
  105000    1.1080686   -6.6742833    39.667236  0.031481933  0.035276506            2 
  106000    1.0931987   -6.7124764    40.121989  0.031542444  0.035201035            3 
  107000    1.1049818   -6.6610435    40.666048  0.031671377  0.035130884            5 
  108000     1.098632   -6.6831424    40.940234  0.031589687  0.035070443            3 
  109000    1.1058176   -6.6796789    41.294954  0.031571065  0.035009062            6 
  110000    1.0745312   -6.6762408    41.544425  0.031473049   0.03494304            3 
  111000    1.0775343   -6.7201725     41.96507  0.031505308  0.034874603            2 
  112000    1.0781227   -6.6804653    42.405656  0.031551827  0.034812419            3 
  113000    1.0885011   -6.6913994    42.909973  0.031644522  0.034756245            2 
  114000    1.0893054   -6.6787864    43.241268  0.031609114   0.03470261            2 
  115000    1.0728583   -6.6960112    43.665673  0.031641792  0.034652036            3 
  116000    1.0910294   -6.6819133      44.0359  0.031634985  0.034605066            2 
  117000    1.0832653   -6.6905536    44.265252  0.031527957  0.034553265            1 
  118000    1.0855325   -6.7236328    44.313211   0.03129464  0.034497395            2 
  119000    1.1001643   -6.6927095    45.023955   0.03152938  0.034442647            3 
  120000     1.101631   -6.7018292    45.333162  0.031481362  0.034390633            2 
  121000    1.0430073    -6.710848     45.72827  0.031493299  0.034339812            4 
  122000    1.0876447   -6.7133696    46.163679  0.031532568  0.034290145            2 
  123000    1.0754165   -6.7208608    46.571367  0.031552416  0.034246632            2 
  124000    1.0594535    -6.706233    47.007395  0.031590991  0.034201524            3 
  125000     1.033742   -6.7221562    47.143185   0.03142879  0.034154639            3 
  126000    1.0753046   -6.7352586    47.473201   0.03139762  0.034102896            1 
  127000    1.0770918    -6.770501    47.991273  0.031490337  0.034053468            2 
  128000    1.0820678   -6.7470767    48.382063  0.031498739  0.034008521            3 
  129000    1.0544198   -6.7420065    48.660185  0.031434228  0.033959986            6 
  130000     1.052239   -6.7523499    48.969024    0.0313904  0.033911187            3 
  131000    1.0692407   -6.7605359    49.208972  0.031303417  0.033864466            2 
  132000    1.0624716   -6.7555523    49.428107  0.031204613  0.033814675            3 
  133000    1.0635132   -6.7394152    49.743593  0.031167664  0.033759296            4 
  134000    1.0608078   -6.7185276    50.083327  0.031146348  0.033703103            1 
  135000    1.0601801   -6.7733206    50.320542  0.031062063  0.033646147            2 
  136000     1.052569   -6.7551917    50.674104  0.031050309  0.033593086            3 
  137000    1.0579873   -6.7970575    50.725462  0.030854904  0.033532155            3 
  138000    1.0628615   -6.7536643    51.084204  0.030847949  0.033466198            3 
  139000    1.0291536   -6.7751131     51.27135  0.030738219  0.033398088            5 
  140000     1.042172   -6.8258884    51.166391  0.030456185  0.033325607            5 
  141000    1.0458268    -6.768688    51.507558  0.030441819  0.033252003            4 
  142000    1.0516786   -6.7843931    51.560984  0.030258794  0.033174496            3 
  143000     1.025027   -6.7924601    51.747068  0.030155634  0.033089185            3 
  144000    1.0391431   -6.8060392     52.14548  0.030176783  0.033005902            3 
  145000    1.0294561   -6.7928339    52.237693  0.030021662  0.032923029            2 
  146000    1.0453149   -6.7923651    52.657423  0.030055607  0.032837594            3 
  147000    1.0199518   -6.7871509    52.890291  0.029983158  0.032757359            3 
  148000    1.0490698   -6.8300747    53.291253  0.030006336  0.032676725            1 
  149000    1.0270402   -6.7632843    53.416926  0.029875238  0.032595593            3 
  150000    1.0278492   -6.7837503    53.798847  0.029888248  0.032515486            2 
  151000    1.0130942   -6.8247506    54.121889  0.029868592  0.032436735            4 
  152000    1.0194367   -6.8388755    54.269107    0.0297528  0.032358376           10 
  153000    1.0224117   -6.8271612    54.405548  0.029632651  0.032277899           14 
  154000    1.0128428   -6.8260646    54.473486  0.029476995   0.03219338            4 
  155000    1.0272893   -6.8366414    54.748883  0.029434883  0.032106438            2 
  156000    1.0319002   -6.8183396    54.946321  0.029351667  0.032021078            2 
  157000    1.0223523   -6.8194488    55.256904  0.029329567  0.031933668            2 
  158000    1.0295923   -6.8354071    55.302749  0.029168117  0.031846684            2 
  159000    1.0279649   -6.8266841    55.645234  0.029164169  0.031759682            3 
  160000    1.0149033    -6.880387    55.911899  0.029120781  0.031672219            2 
  161000    1.0001923    -6.881523    56.184092  0.029080793  0.031587155            4 
  162000    0.9925733   -6.8497393    56.633055   0.02913223  0.031506557            6 
  163000   0.99979324   -6.8738305    57.024862  0.029153815  0.031429015            9 
  164000    1.0032589   -6.8470442    57.308238  0.029120039  0.031351764            3 
  165000    1.0136327   -6.8643801     57.43937  0.029009783   0.03127498            4 
  166000    1.0118886   -6.8516351    57.497051  0.028863981  0.031194913            4 
  167000   0.99609926   -6.8602745     57.91903  0.028901711  0.031114874            3 
  168000   0.99978419   -6.8915581     58.06067  0.028799935  0.031034674            4 
  169000    1.0037385   -6.8517985    58.192253  0.028694405  0.030951873            2 
  170000    1.0123574   -6.8605431    58.259723  0.028558688  0.030867242            4 
  171000   0.97876143   -6.8891934     58.33915  0.028430385  0.030781149            2 
  172000   0.99440613   -6.8854813    58.699522  0.028439691  0.030694955            1 
  173000   0.98125837   -6.9061887    59.009444  0.028424587  0.030610629            7 
  174000    0.9738633   -6.8387287    59.167166  0.028336765  0.030529655            7 
  175000    1.0060213   -6.8844177    59.464139  0.028316257  0.030450059            2 
  176000   0.99540392    -6.882274    59.844609  0.028335515  0.030369519            2 
  177000   0.97296518   -6.8999972    59.996879  0.028247118  0.030289388            1 
  178000   0.98507156   -6.9125639    60.257902  0.028210628  0.030211504            3 
  179000     1.002497   -6.8983745    60.553216   0.02819051  0.030134985            3 
  180000    0.9593147   -6.9069852    60.779682  0.028138742  0.030059711            4 
  181000   0.96289549   -6.9015165    60.866314  0.028023165  0.029984481            3 
  182000   0.97459925   -6.9276078    61.152633   0.02800029  0.029910195            7 
  183000   0.99363901   -6.8909969    61.731259  0.028110774  0.029837983            1 
  184000   0.97584031   -6.9165643    61.688665  0.027938707   0.02976667            2 
  185000   0.96580804   -6.9375258    61.929608   0.02789622  0.029695287            2 
  186000   0.96859175   -6.9431059    61.944005   0.02775269  0.029619643            2 
  187000   0.96161499   -6.9389039    62.253089  0.027742018  0.029544688            3 
  188000   0.96767523   -6.9158878    62.559314  0.027730192  0.029470845            4 
  189000   0.95478593   -6.9094115    63.164261  0.027850203  0.029400189            4 
  190000   0.95174247   -6.9077858    63.362355  0.027790506  0.029329658            6 
  191000   0.95784736   -6.9430618    63.168703  0.027560516  0.029258721           10 
  192000   0.95559045   -6.9094074    63.702145    0.0276485   0.02918789            6 
  193000   0.94474424   -6.9015254    63.447745  0.027395399    0.0291162            7 
  194000   0.94860164   -6.9589876    63.675687  0.027352099  0.029044806            4 
  195000   0.94157979   -6.9611152    63.909852  0.027311903  0.028972308            4 
  196000   0.94677842   -6.9742409    64.156362  0.027277365  0.028899468            9 
  197000   0.95252605   -6.9655048     64.27111  0.027187441  0.028825541            6 
  198000   0.95294278   -6.9728821    64.252067  0.027042116  0.028749548            3 
  199000   0.94590713   -6.9941762    64.581043  0.027043988  0.028674288            2 
  200000   0.95896034   -6.9476705    64.744076  0.026976698  0.028598764            4 
  201000   0.92576379   -6.9820889    65.016973  0.026955627  0.028523073            1 
  202000   0.95316721   -6.9861784    64.972435   0.02680381  0.028449275            3 
  203000   0.94105601   -6.9704047    65.480091  0.026880169    0.0283764            2 
  204000   0.95479745   -6.9722984    65.811109  0.026883623  0.028305522            3 
  205000   0.94020046   -7.0060015    65.565716   0.02665273  0.028234014            8 
  206000   0.94979755   -6.9939078    66.057795  0.026722409  0.028160174            1 
  207000   0.94538623   -6.9749182    65.976034    0.0265604  0.028087721            4 
  208000   0.94274565   -6.9599171    66.145346  0.026500539  0.028015021            5 
  209000   0.93864973   -7.0099579    66.280772   0.02642774  0.027941474            3 
  210000   0.92347114   -7.0548509    66.217266  0.026276693  0.027866959            4 
  211000   0.94688079   -7.0269418    66.835631  0.026396379  0.027792351            3 
  212000   0.93139412    -7.017245    66.930845  0.026309295  0.027720204            3 
  213000   0.92452438   -7.0167038    67.052049  0.026233196  0.027647132            6 
  214000   0.90874844   -7.0264262    66.995713  0.026088673  0.027573972            3 
  215000   0.92759538   -7.0123122    67.502118  0.026163611  0.027500281            2 
  216000   0.92856776   -7.0086864    67.608203  0.026083412  0.027427688            4 
  217000   0.91322375   -7.0302958    67.653377   0.02598056  0.027354788            4 
  218000   0.92372463   -7.0212471    67.826567  0.025927587  0.027282044            3 
  219000   0.91618537   -7.0165515    68.189451   0.02594728  0.027210523            3 
  220000   0.92593819   -7.0433862    68.190132  0.025829596   0.02713883            8 
  221000   0.91456888   -7.0675289    68.206961  0.025719065  0.027066906            8 
  222000   0.88814015   -7.0618513    68.317479  0.025644699  0.026994376            6 
  223000   0.90422713   -7.0739692    68.319852  0.025530587  0.026921802            3 
  224000    0.9041946   -7.0455278    68.674656  0.025548607  0.026848887            2 
  225000   0.90755872   -7.0688527    68.965602  0.025542815  0.026776845            4 
  226000   0.89704889   -7.0502337    69.201035  0.025516606  0.026705991            3 
  227000   0.91766733   -7.0725937    69.097617  0.025366232  0.026634214            7 
  228000   0.91536154   -7.0465144    69.384148  0.025359703  0.026562611            3 
  229000   0.91018898   -7.0622374    69.399998   0.02525473   0.02649174            2 
  230000   0.92315594    -7.047034    69.576418  0.025208847  0.026420336            5 
  231000    0.9029455   -7.0712877    69.693325  0.025141892  0.026348576            5 
  232000   0.89054902   -7.0972018    69.771283  0.025061524  0.026276801            9 
  233000   0.89941392   -7.0807664    69.583312  0.024886735  0.026202922            2 
  234000   0.91374451   -7.0778668    69.536129  0.024763579  0.026127594            5 
  235000   0.91355622   -7.0736772    69.995775  0.024821197  0.026053041            5 
  236000   0.90064976   -7.0778651    70.187076  0.024783572  0.025978815            4 
  237000   0.89191406    -7.095596    70.061805  0.024634952  0.025903827            4 
  238000   0.90110063    -7.102152    70.044765  0.024525478  0.025828347            4 
  239000   0.88082026   -7.1287615    70.215576  0.024482418  0.025752848            3 
  240000   0.86887152    -7.093852    70.344184  0.024425064  0.025677211            3 
  241000   0.86856037   -7.0993736    70.619339  0.024418858  0.025602812            3 
  242000   0.86517832   -7.1042107    70.596591  0.024310121  0.025528598            5 
  243000    0.8832094   -7.0915639    70.627441  0.024220659  0.025454141            5 
  244000   0.86113853    -7.124662    70.904208  0.024215918  0.025379829            2 
  245000   0.88273103   -7.1232026    71.147743  0.024199912  0.025306167            5 
  246000   0.86060012   -7.1337544    71.405836  0.024188969  0.025233673            6 
  247000    0.8883423   -7.1171734    71.556382  0.024141829  0.025162218            2 
  248000   0.86223234   -7.1383822    71.585286  0.024054196  0.025091163            6 
  249000   0.87435866   -7.1471099    71.648084  0.023978609  0.025019929            3 
  250000   0.84632846     -7.15016    71.829529  0.023943176  0.024949516            3 
  251000   0.88269345   -7.1580149    71.964455  0.023892581  0.024879447           11 
  252000   0.87486672   -7.1470328    72.130516  0.023852684  0.024809668            6 
  253000   0.86770895   -7.1129022    72.081913  0.023742396  0.024739035            3 
  254000   0.88473754   -7.1802667    72.235574  0.023699335  0.024668559            9 
  255000   0.84022205   -7.1284497    72.472307   0.02368376  0.024597991            3 
  256000   0.85070014   -7.1611422    72.426904  0.023576466  0.024526966            5 
  257000   0.86135404   -7.1705742    72.465807  0.023497343  0.024456116            4 
  258000   0.85360368   -7.1702383    72.639661  0.023462423  0.024385995            5 
  259000     0.862182    -7.195536    72.706106  0.023393213  0.024316105            9 
  260000   0.84072527   -7.1722143     72.96082  0.023384878  0.024245618            4 
  261000    0.8535967   -7.1586427    73.181307  0.023365679  0.024176261            5 
  262000   0.84253678   -7.1952963    73.203282  0.023283487  0.024107114            6 
  263000   0.85147655   -7.1774547    73.163075  0.023182216  0.024038475            3 
  264000    0.8418086   -7.1978615    73.342236  0.023150958  0.023969384            5 
  265000   0.84351486   -7.1778973    73.375219  0.023073968  0.023899804            5 
  266000   0.82945194     -7.20455    73.394197   0.02299317  0.023830766            4 
  267000    0.8479951   -7.1998164    73.808539  0.023036373  0.023761719           11 
  268000   0.84224072   -7.1893963    73.815046   0.02295244  0.023694278            4 
  269000   0.82702547   -7.2069872    73.652762  0.022816841  0.023626284            3 
  270000   0.83683161   -7.2105385    73.872686  0.022800212  0.023557112            7 
  271000   0.84121118   -7.2216254    73.939557  0.022736641  0.023488486            5 
  272000   0.82459729   -7.2155146    73.883989  0.022636026  0.023420205            5 
  273000   0.84296046   -7.2282178      74.0331  0.022598626  0.023352317            3 
  274000   0.81707388   -7.2389808    74.417142  0.022632951  0.023284486            3 
  275000   0.84096503   -7.2239101    74.455939  0.022562406  0.023216922            2 
  276000   0.81819655   -7.2423414    74.468071  0.022484321   0.02315049            6 
  277000   0.82592159   -7.2239683     74.71457  0.022477308  0.023084844            8 
  278000   0.81661626   -7.2188933    74.561763  0.022350648  0.023018226            3 
  279000   0.81624298   -7.2872696    74.666738  0.022301893  0.022951419            5 
  280000   0.82636296   -7.2658655    74.658495   0.02221979  0.022885079            6 
  281000   0.82525491   -7.2424007    74.943208  0.022225151  0.022819273           10 
  282000    0.8237105   -7.2565107    75.076855  0.022185832  0.022753515            8 
  283000   0.81016524   -7.2544819    75.226482  0.022151496  0.022688091            4 
  284000   0.82511876   -7.2324571    75.390802  0.022121714  0.022623493            3 
  285000   0.80175143   -7.2453748    75.452917  0.022062256  0.022559694            4 
  286000   0.82156681    -7.252066    75.568345  0.022018749  0.022496508            5 
  287000   0.81357923   -7.2680073    75.513891  0.021926217  0.022432427            6 
  288000   0.79220543   -7.2851692    75.614093  0.021879078  0.022368784            5 
  289000   0.81105384   -7.2636175    75.627812  0.021807328  0.022304852            5 
  290000   0.79892829   -7.2607441    75.803081  0.021782495  0.022240735            4 
  291000   0.81447118   -7.2718305    76.090982  0.021790086  0.022177011            8 
  292000   0.81571156   -7.3098887    75.910644  0.021663997  0.022113839            9 
  293000   0.77857742   -7.2842468    76.017371  0.021620413  0.022050637            5 
  294000   0.79719005   -7.2883386    76.184028  0.021594112  0.021987956            7 
  295000   0.80295802   -7.3097807      76.1055  0.021498729  0.021925022            8 
  296000   0.79339445   -7.3107982    76.111741  0.021427855  0.021862248            5 
  297000    0.8012326   -7.3252066    76.141704  0.021364114  0.021799507            6 
  298000   0.79622094   -7.2968507    76.417429  0.021369527  0.021736961            5 
  299000   0.77407892   -7.3076819    76.426475  0.021300578  0.021674715           11 
  300000   0.79435974   -7.3196005    76.843105  0.021345307  0.021613201            2 
  301000   0.80006701   -7.3358371    76.440481  0.021162924  0.021551515            3 
  302000   0.78996778   -7.3157925      76.7381  0.021174972  0.021489792            7 
  303000   0.77631047   -7.3365824    76.567647  0.021058209  0.021427976           13 
  304000   0.77748072    -7.336982    76.697822  0.021024622  0.021366418            8 
  305000   0.78298374   -7.3212885    76.804888  0.020984942  0.021304623            9 
  306000    0.7709702   -7.3125342    76.788919  0.020912015  0.021243204            2 
  307000   0.78667967   -7.3465073    76.826499  0.020854098  0.021181395            3 
  308000   0.77939389   -7.3246826    77.055328  0.020848303  0.021119366            5 
  309000   0.78007561   -7.3580519    76.950799  0.020752643  0.021057807            6 
  310000     0.759762   -7.3441157    76.904684  0.020673302   0.02099629            7 
  311000   0.76115286   -7.3322023    77.109217  0.020661634  0.020934318            6 
  312000   0.76881824   -7.3573972    77.189102  0.020616747  0.020872761           17 
  313000   0.76216183   -7.3508079    77.342273  0.020591659  0.020812046            3 
  314000   0.77055567    -7.351604    77.466072  0.020558936  0.020751652            5 
  315000   0.76510073    -7.391058    77.490326  0.020500086  0.020691477            9 
  316000   0.76373597   -7.3676924    77.416751   0.02041581  0.020631429            4 
  317000   0.76365007    -7.366829    77.763828  0.020442647  0.020571862            6 
  318000   0.74165157   -7.3719238    77.862838  0.020404308  0.020512884            5 
  319000   0.76293733   -7.3732713    77.793657  0.020322272  0.020453911            5 
  320000   0.75786144    -7.374694    77.982245  0.020307876   0.02039569            5 
  321000   0.76778316   -7.3904052    78.080542   0.02027013  0.020337449            4 
  322000     0.750733   -7.3861647     77.87821  0.020154816   0.02027929            8 
  323000   0.75548729   -7.3895638    77.948497  0.020110551  0.020221075            5 
  324000   0.74128985   -7.3917665    78.127903  0.020094625   0.02016287           14 
  325000   0.75658009   -7.3905569     78.01292  0.020003313  0.020104562            6 
  326000   0.76342441   -7.3960532    78.089348   0.01996149  0.020046215            6 
  327000   0.74707843   -7.3962979     78.07633  0.019897128  0.019988227            6 
  328000   0.73838034   -7.4194781    78.226693  0.019874668  0.019930381            5 
  329000   0.73661121    -7.400303    78.272951  0.019825975  0.019872665            7 
  330000   0.73546896   -7.4264217    78.209454  0.019749862  0.019814858            4 
  331000   0.73565867   -7.4259913    78.282572  0.019708603  0.019757013            5 
  332000   0.74084792   -7.4358334    78.200346  0.019628601  0.019699835            5 
  333000   0.74684952    -7.438923    78.255519  0.019583463  0.019642202           11 
  334000   0.72990283   -7.4424943    78.264614  0.019527099  0.019584599           15 
  335000    0.7495639   -7.4423786    78.530693  0.019534998  0.019527114            7 
  336000    0.7380469   -7.4408086    78.418417  0.019449012  0.019469777           15 
  337000   0.72490729   -7.4402514    78.574334  0.019429855  0.019412684            6 
  338000    0.7272625   -7.4481494    78.594623  0.019377372  0.019355933            6 
  339000   0.72287971   -7.4609384    78.585059  0.019317861  0.019299178            7 
  340000   0.72332644   -7.4750773    78.554641  0.019253588   0.01924256            7 
  341000   0.72333707    -7.468905    78.740018  0.019242429  0.019186089           11 
  342000   0.73008754   -7.4189025    78.710601  0.019178996  0.019129978            5 
  343000   0.73051427   -7.4592937    78.626795   0.01910272  0.019073838            5 
  344000   0.71525912   -7.4664472    78.793355  0.019087538  0.019017871            9 
  345000   0.70721763   -7.4405551    78.752356  0.019022308  0.018961913            7 
  346000    0.7035585     -7.45626    78.647273  0.018942022  0.018905894            6 
  347000   0.69959652   -7.4677155    78.798968  0.018923864  0.018849626            6 
  348000   0.70562994   -7.4623063    78.788914  0.018867077  0.018793584            5 
  349000   0.71758189   -7.4470634     78.76891   0.01880824  0.018737772            5 
  350000   0.71261948    -7.485479    78.888141  0.018782891  0.018682141            6 
  351000    0.6940529   -7.4741494    78.797894  0.018707952  0.018626613            5 
  352000    0.7039427   -7.5062381    79.081224  0.018721881  0.018571402            4 
  353000   0.70471921   -7.4712198    78.942268  0.018636041  0.018516789            4 
  354000   0.71585228   -7.5146774    78.845463  0.018560608  0.018461853            5 
  355000     0.706902   -7.5201203    78.962818  0.018535873   0.01840655           10 
  356000   0.71075756   -7.5345962    78.975638  0.018486807  0.018351512            4 
  357000   0.70621701   -7.4867007    79.112985  0.018467083  0.018296878            8 
  358000    0.6996176   -7.5142182    79.359967   0.01847299  0.018242478            5 
  359000   0.69344608   -7.4769172    79.084749  0.018357648  0.018187941            6 
  360000   0.69561934   -7.5142469    79.181408   0.01832903  0.018133495            6 
  361000   0.70773912   -7.5066796    79.102816  0.018260115  0.018079192            6 
  362000   0.70500647   -7.5237531    79.160268  0.018222898  0.018025001            5 
  363000   0.69839158   -7.5340193    79.233607  0.018189533  0.017971251            6 
  364000   0.68355108   -7.5172836    79.240887  0.018141229    0.0179173            7 
  365000    0.6781609   -7.5373434    79.350832  0.018116628  0.017863617            7 
  366000   0.68014223   -7.5605981    79.252459  0.018044731  0.017810265            3 
  367000   0.68703773   -7.5491108    79.226913  0.017989762  0.017756932            7 
  368000   0.67436565   -7.5525417    79.267279  0.017950018  0.017703881            7 
  369000   0.67128012   -7.5504783    79.237914  0.017894741  0.017650531            9 
  370000   0.68078897   -7.5502011    79.289125  0.017857911  0.017597292            5 
  371000   0.67918424   -7.5830342    79.323817  0.017817569   0.01754443            7 
  372000   0.65696566   -7.5763087    79.473537  0.017803212  0.017491679           17 
  373000   0.66953063   -7.5713797    79.288346  0.017714108  0.017438946            8 
  374000   0.68135157   -7.5650328     79.30651  0.017670791  0.017386303            9 
  375000   0.65644155   -7.5580999    79.291114  0.017620248  0.017333769            5 
  376000   0.68575851   -7.5914478    79.291544   0.01757348  0.017281304            6 
  377000   0.65429132   -7.5929582    79.317062  0.017532507  0.017228702            6 
  378000   0.65515594    -7.581012    79.128885   0.01744464  0.017176019            9 
  379000   0.66774719   -7.5919245    79.183858  0.017410699  0.017123433            6 
  380000    0.6759289   -7.5978081    79.178142  0.017363628  0.017070883            8 
  381000   0.67164706   -7.5894681    79.264375  0.017336915  0.017018555            8 
  382000   0.65820377   -7.5925478    79.327284  0.017305254  0.016966646            9 
  383000   0.65258088   -7.5779883    79.385315  0.017272697   0.01691487            6 
  384000   0.64558224   -7.5870923    79.461595   0.01724427  0.016863418           10 
  385000   0.65879504   -7.5905675    79.466496   0.01720054   0.01681235            4 
  386000   0.67035322   -7.6158225    79.448361  0.017152064  0.016761194            9 
  387000   0.63794702   -7.6104922    79.366509  0.017090118   0.01671001            4 
  388000   0.64307372   -7.6217134    79.357221  0.017044077  0.016658846            7 
  389000    0.6411835   -7.5993411    79.440536   0.01701811  0.016607785            6 
  390000   0.62841203   -7.6015471    79.209129  0.016925028  0.016556727            5 
  391000   0.64389654   -7.6113794    79.365327  0.016915031   0.01650576            8 
  392000   0.63773203   -7.6317448    79.329634  0.016864293   0.01645479           17 
  393000   0.65582385   -7.6569577    79.315625  0.016818411  0.016404022            6 
  394000   0.63696008   -7.6455548    79.286839  0.016769636  0.016353545            5 
  395000   0.63769492    -7.630533    79.647627  0.016803297  0.016303175            7 
  396000   0.62812428   -7.6441131    79.378479  0.016704225  0.016252975            8 
  397000   0.62744276   -7.6474336    79.236802   0.01663241   0.01620286           10 
  398000   0.62766649   -7.6563164    79.354782  0.016615323  0.016153002            7 
  399000   0.62943175    -7.651193    79.502947  0.016604626  0.016103215            8 
  400000   0.61853095   -7.6497109    79.428964  0.016547701  0.016053724            9 
  401000   0.62808578   -7.6699109    79.576076  0.016537007  0.016004214           10 
  402000   0.61984233   -7.6722578    79.520662  0.016484383  0.015954894           13 
  403000   0.62560178   -7.6738097    79.537695  0.016447001  0.015905666            6 
  404000   0.62227087   -7.6627767    79.447244  0.016387633   0.01585663            8 
  405000   0.61664152   -7.6927712     79.47415  0.016352706  0.015807769            7 
  406000   0.61231029   -7.6615568     79.60314  0.016338904   0.01575908            6 
  407000   0.61262189   -7.6771059    79.555027  0.016288908  0.015710554           11 
  408000   0.62479683   -7.6564927    79.500882  0.016237925  0.015662151           10 
  409000   0.61927913   -7.7024563    79.475709  0.016193095  0.015613878           14 
  410000   0.60762138   -7.7080741    79.268302  0.016111444  0.015565475            6 
  411000   0.61875184     -7.70818    79.183073  0.016054962  0.015517183            4 
  412000   0.60367395   -7.7199338    79.160919  0.016011513  0.015468704            6 
  413000   0.59549264   -7.7049892    79.296114  0.016000023  0.015420194            7 
  414000   0.61234644   -7.7168014    79.177086  0.015937417  0.015371947            9 
  415000   0.60899416    -7.706245    79.163349  0.015896255  0.015323746            9 
  416000   0.60726033   -7.7012617    79.156277  0.015856626  0.015275659            9 
  417000    0.6064554   -7.7443025    79.129094  0.015813168  0.015227663            7 
  418000   0.61565919   -7.7314994    79.098642  0.015769267  0.015179916            7 
  419000   0.60836709   -7.7429208    79.251218  0.015761976  0.015132283            9 
  420000   0.59087634   -7.7115042    79.284054  0.015730963  0.015084749           11 
  421000   0.59919397   -7.7218812    79.146902  0.015666449  0.015037543            8 
  422000   0.58108979    -7.734115    79.073761  0.015614882   0.01499028           11 
  423000   0.59367333   -7.7263697    79.058359  0.015574933  0.014943139            8 
  424000   0.57738918   -7.7598717    79.040374  0.015534665  0.014896105           10 
  425000     0.580171   -7.7327081    78.999744  0.015490146  0.014849278           19 
  426000   0.59285029   -7.7395578     79.25538  0.015503791  0.014802738            9 
  427000   0.57660282   -7.7451929    79.146507  0.015446235  0.014756261            7 
  428000   0.58732788   -7.7532653    79.251525  0.015430593  0.014709972            8 
  429000   0.59259528   -7.7479344    79.177588  0.015380262  0.014663808            8 
  430000   0.57884377    -7.767572    79.110588  0.015331509  0.014617753           19 
  431000   0.58436966   -7.7817286    79.115035  0.015296797   0.01457178           13 
  432000   0.57205027   -7.7563056    79.103682  0.015259198  0.014526196           12 
  433000   0.57843037   -7.7702432    79.130834  0.015229183  0.014480711           37 
  434000   0.57115664   -7.7679994    79.190325  0.015205515  0.014435327           18 
  435000   0.57362446   -7.7838911    79.054086  0.015144461  0.014389902           14 
  436000   0.55860203   -7.7801469    79.117677   0.01512188   0.01434481           10 
  437000   0.57608817   -7.7742906    79.188895  0.015100857  0.014299816           29 
  438000   0.56928876   -7.7745266    79.079599  0.015045586  0.014254934           22 
  439000   0.57255191   -7.7682234    79.220437  0.015038048  0.014210201           11 
  440000   0.56551622   -7.7673959    79.174638  0.014995197   0.01416567           13 
  441000   0.56776616   -7.7993542    79.202696  0.014966496  0.014121357            9 
  442000   0.55760578   -7.7960185    79.108903  0.014914952  0.014077108           19 
  443000   0.55245109   -7.7827771    79.191238  0.014896772  0.014033144           12 
  444000    0.5568657   -7.7953319    79.207606  0.014866292   0.01398923           20 
  445000   0.55377903   -7.8075124    79.099868  0.014812709  0.013945524           16 
  446000   0.56030279   -7.8129209    79.072692  0.014774419  0.013901829           14 
  447000   0.55081123   -7.8133003    79.127083  0.014751507  0.013858234           12 
  448000   0.55076636   -7.8081007    78.928487  0.014681638   0.01381472            8 
  449000   0.53951919   -7.8188506    79.136368  0.014687522   0.01377143           10 
  450000    0.5461901   -7.8167792    79.100329  0.014648209  0.013728355           12 
  451000   0.54043492   -7.8078275    79.073561  0.014610784  0.013685265           18 
  452000   0.53937946   -7.8193838    79.068637  0.014577551  0.013642556            6 
  453000   0.54203169   -7.8066097    79.121522    0.0145551  0.013599861           12 
  454000   0.53524934   -7.8392113     79.04392  0.014508796  0.013557388           12 
  455000   0.53940946   -7.8226209    78.954481  0.014460528  0.013514938            9 
  456000   0.54054782    -7.812777    78.999269  0.014437001  0.013472708           16 
  457000   0.54887234    -7.844237    78.984779  0.014402768  0.013430634           12 
  458000   0.53618996   -7.8409722     78.90567  0.014356927  0.013388609            8 
  459000   0.53749177   -7.8459853    79.050579  0.014351957  0.013346845            9 
  460000    0.5300503   -7.8432354    79.094623  0.014328736  0.013305135           14 
  461000   0.52639164   -7.8542506     78.96076  0.014273456  0.013263543            8 
  462000   0.52703929    -7.862831    78.962917   0.01424295  0.013222095           15 
  463000   0.52459132    -7.857622    78.963066  0.014212215  0.013180745            9 
  464000   0.52951474   -7.8561284    78.893111  0.014169021   0.01313958           11 
  465000   0.53774377   -7.8461329    78.939297  0.014146827  0.013098609            7 
  466000   0.51794668   -7.8666072    78.881743  0.014106177  0.013057691           13 
  467000    0.5100821   -7.8662565    78.938822  0.014086157  0.013016941           16 
  468000     0.522958   -7.8742054    78.960697  0.014059953  0.012976366            8 
  469000   0.52316798   -7.8693661    78.957543  0.014029414   0.01293592           14 
  470000   0.51697958   -7.8873932    79.023953  0.014011339  0.012895672            9 
  471000   0.50502028   -7.8854571    78.821986  0.013945857  0.012855435           12 
  472000   0.51308186   -7.8770693    79.044202  0.013955544  0.012815417           11 
  473000   0.51642479    -7.891817    78.932754  0.013906405  0.012775463           11 
  474000    0.5143892   -7.8782356    78.891368   0.01386979  0.012735697           11 
  475000    0.5078563   -7.8951104    78.843335  0.013832164   0.01269598           12 
  476000   0.52179335   -7.8922322    78.929301  0.013818155  0.012656559           11 
  477000   0.51057182   -7.9032124    78.803997  0.013767295  0.012617197           18 
  478000   0.51548267    -7.870866    78.896051  0.013754542  0.012578006           19 
  479000   0.50362202   -7.9127125    78.909929  0.013728241  0.012538958           13 
  480000   0.50765911   -7.8984564    78.764198   0.01367434  0.012499988           33 
  481000   0.49983894   -7.9005671    78.830618  0.013657418  0.012461165           17 
  482000   0.50474681   -7.8970408    78.798818  0.013623585  0.012422524           21 
  483000   0.50116455   -7.9167021    78.593057  0.013559879  0.012383954           12 
  484000   0.49752851   -7.9283884      78.7242  0.013554442  0.012345489           13 
  485000   0.49876168   -7.9106108    78.842928  0.013546895  0.012307176           17 
  486000   0.48402392   -7.9139745    78.730883  0.013499809  0.012268986           11 
  487000   0.50585271   -7.9236404    78.700802  0.013466941   0.01223091           27 
  488000   0.48089209   -7.9248282    78.817214  0.013459224  0.012193014           12 
  489000   0.48916999   -7.9389385    78.869782  0.013440658  0.012155273           18 
  490000   0.48275166   -7.9327503    78.605708  0.013368318  0.012117689           10 
  491000   0.47824927   -7.9309451    78.678667  0.013353474  0.012080228           35 
  492000   0.48483456   -7.9320323    78.808061  0.013348249  0.012042928           20 
  493000   0.46610153   -7.9337994    78.658946  0.013295968  0.012005716           12 
  494000   0.47510502   -7.9391048    78.721027  0.013279526  0.011968617           25 
  495000   0.48329974   -7.9374872    78.729637  0.013254148  0.011931619           12 
  496000   0.47440237   -7.9476587    78.639045  0.013212205  0.011894836           10 
  497000   0.46598581   -7.9399857    78.616208  0.013181792  0.011858085           13 
  498000   0.46595409   -7.9522818    78.604957   0.01315344  0.011821506           19 
  499000   0.47181742   -7.9675324    78.685118  0.013140467  0.011785078           16 
  500000   0.46301745   -7.9515957    78.549824  0.013091637  0.011748738           10 
  501000   0.47425957   -7.9665607    78.540124  0.013063893  0.011712546           27 
  502000   0.46766262   -7.9526334    78.534308  0.013036904  0.011676508           22 
  503000   0.45900357    -7.944964    78.548454  0.013013329  0.011640637           29 
  504000   0.46344247   -7.9694987    78.517539  0.012982397  0.011604804           13 
  505000   0.45413907   -7.9675814     78.63134  0.012975469  0.011569165           15 
  506000   0.45393727   -7.9711646    78.566299  0.012939114  0.011533614           23 
  507000   0.46581011   -7.9821264    78.534004  0.012908285  0.011498226           12 
  508000   0.46519797    -7.978671    78.579183  0.012890286  0.011462991           21 
  509000   0.45936316   -7.9770477    78.507266  0.012853187  0.011427856           16 
  510000   0.45874113    -7.971468    78.577723  0.012839497  0.011392867            9 
  511000   0.44942733   -7.9776146    78.310558  0.012770802  0.011357883           15 
  512000   0.45699138   -7.9832404    78.518262  0.012779665  0.011323079           11 
Loop time of 1126.07 on 48 procs for 500000 steps with 4000 atoms

Performance: 76727.176 tau/day, 444.023 timesteps/s
99.4% CPU use with 48 MPI tasks x no OpenMP threads

MPI task timing breakdown:
Section |  min time  |  avg time  |  max time  |%varavg| %total
---------------------------------------------------------------
Pair    | 69.046     | 72.697     | 75.596     |  19.9 |  6.46
Neigh   | 7.1024     | 7.3073     | 7.5423     |   4.4 |  0.65
Comm    | 64.761     | 69.266     | 74.026     |  27.4 |  6.15
Output  | 0.83651    | 0.83712    | 0.8466     |   0.2 |  0.07
Modify  | 959.16     | 963.44     | 968.79     |   6.0 | 85.56
Other   |            | 12.52      |            |       |  1.11

Nlocal:        83.3333 ave          88 max          77 min
Histogram: 3 1 5 4 4 7 7 4 7 6
Nghost:        1871.52 ave        1897 max        1846 min
Histogram: 2 1 3 4 14 13 6 2 1 2
Neighs:        11661.5 ave       12764 max       10344 min
Histogram: 1 2 4 7 5 7 10 6 5 1
FullNghs:      23322.9 ave       24916 max       21262 min
Histogram: 1 2 5 5 6 6 9 5 6 3

Total # of neighbors = 1119498
Ave neighs/atom = 279.87450
Neighbor list builds = 26895
Dangerous builds = 0

#clear
#
#next RN
#
#jump SELF
Total wall time: 0:18:49
