
units lj                  # Use reduced LJ style units
atom_style atomic         # Uncharged point particles
atom_modify map hash      # Needed for indexing of clusters etc
                          # Used to be able to find where atoms are in relation to each other.

lattice fcc 1.0 spacing 1 1 1
Lattice spacing in x,y,z = 1.5874011 1.5874011 1.5874011
region box block 0 10 0 10 0 10 units lattice
create_box 2 box
Created orthogonal box = (0.0000000 0.0000000 0.0000000) to (15.874011 15.874011 15.874011)
  3 by 4 by 4 MPI processor grid
create_atoms 1 box
Created 4000 atoms
  using lattice units in orthogonal box = (0.0000000 0.0000000 0.0000000) to (15.874011 15.874011 15.874011)
  create_atoms CPU = 0.002 seconds
set type 1 type/fraction 2 0.45 78393
Setting atom values ...
  1799 settings made for type/fraction
mass 1 1.0
mass 2 1.0
pair_style lj/cut  3.5
pair_modify tail  yes
pair_coeff 1  1  1.0  1.0   # Intearaction between 1 and 1 set with epsilon = 1 and sigma = 1
pair_coeff 1  2  1.5  0.8
pair_coeff 2  2  0.5  0.88

write_data data.0
System init for write_data ...
Neighbor list info ...
  update every 1 steps, delay 10 steps, check yes
  max neighbors/atom: 2000, page size: 100000
  master list distance cutoff = 3.8
  ghost atom cutoff = 3.8
  binsize = 1.9, bins = 9 9 9
  1 neighbor lists, perpetual/occasional/extra = 1 0 0
  (1) pair lj/cut, perpetual
      attributes: half, newton on
      pair build: half/bin/atomonly/newton
      stencil: half/bin/3d
      bin: standard
WARNING: Not all mixed pair coeffs generated from mixing. Use write_data with 'pair ij' option to store all pair coeffs. (../write_data.cpp:312)


#############################
#   M E L T   S Y S T E M   #
#############################

velocity all create 2.4 5300450 mom yes dist gaussian # Assign velocities
                                                    # Temperature 2.4, random number seed, zero linear momentum
                                                                                # Gaussian distribution

timestep 0.002   # simulation timestep
thermo 1000       # output thermodynamic data every 1000 steps bf 100

# Define a fix  in this case with index 1 applied to all
# particles in the simulation. This fix is for simulations
# in the anisotropic NPT ensemble. Note that we use the MTK
# correction.
fix 1 all npt temp 2.4 2.4 0.1 iso 5.68 5.68 0.5 mtk yes tchain 5 pchain 5 # Use NPT ensemble
                                                                         # Set temperature and pressure and damping
                                                                         # Numbers of thermostats in chain and in barostat
run 10000          # run for 10000 steps
Per MPI rank memory allocation (min/avg/max) = 3.642 | 3.644 | 3.648 Mbytes
Step Temp E_pair E_mol TotEng Press Volume 
       0          2.4   -5.5879345            0   -1.9888345   -4.1997978         4000 
    1000    2.3885429   -4.9584536            0   -1.3765349    5.6326946    3819.7469 
    2000     2.446897   -5.0204552            0   -1.3510274    5.3412068    3797.7886 
    3000    2.4198365   -5.0274884            0   -1.3986411    6.0241447    3740.8048 
    4000    2.4015128   -4.9954042            0   -1.3940356    5.4752804     3798.294 
    5000    2.4106453   -4.9962391            0   -1.3811752    5.7425373    3787.9406 
    6000    2.4316652   -4.9795167            0   -1.3329307    5.9280468    3776.7377 
    7000    2.4282851   -5.0476345            0   -1.4061175    5.3813102    3791.1195 
    8000    2.4243934   -4.9683451            0   -1.3326641     5.765681    3788.3458 
    9000    2.3977848   -5.0097321            0   -1.4139541    5.6662616    3783.7692 
   10000    2.4221521   -4.9905401            0   -1.3582203    5.3214087    3815.5443 
Loop time of 2.56468 on 48 procs for 10000 steps with 4000 atoms

Performance: 673768.563 tau/day, 3899.124 timesteps/s
99.6% CPU use with 48 MPI tasks x no OpenMP threads

MPI task timing breakdown:
Section |  min time  |  avg time  |  max time  |%varavg| %total
---------------------------------------------------------------
Pair    | 1.1482     | 1.2115     | 1.3008     |   2.9 | 47.24
Neigh   | 0.21297    | 0.21912    | 0.22819    |   0.8 |  8.54
Comm    | 0.80382    | 0.87214    | 0.93757    |   3.6 | 34.01
Output  | 0.00024904 | 0.00025461 | 0.00032536 |   0.0 |  0.01
Modify  | 0.21598    | 0.24608    | 0.27673    |   3.4 |  9.59
Other   |            | 0.01556    |            |       |  0.61

Nlocal:        83.3333 ave          94 max          75 min
Histogram: 2 4 4 10 8 13 4 2 0 1
Nghost:        1698.46 ave        1729 max        1678 min
Histogram: 5 5 9 5 12 5 1 1 1 4
Neighs:        9993.46 ave       11104 max        8681 min
Histogram: 1 2 3 7 8 6 7 9 3 2

Total # of neighbors = 479686
Ave neighs/atom = 119.92150
Neighbor list builds = 904
Dangerous builds = 183

# Equilibrate just above the melting temperature to avoid step fn in T

fix 1 all npt temp 1.25 1.25 0.1 iso 5.68 5.68 0.5 mtk yes tchain 5 pchain 5
run 2000
Per MPI rank memory allocation (min/avg/max) = 3.644 | 3.645 | 3.649 Mbytes
Step Temp E_pair E_mol TotEng Press Volume 
   10000    2.4221521   -4.9905401            0   -1.3582203    5.3214087    3815.5443 
   11000    1.2448903   -7.0328892            0   -5.1660206    5.9064888    2974.0623 
   12000     1.266311   -7.1622629            0   -5.2632713    5.2168439    2968.0507 
Loop time of 0.634711 on 48 procs for 2000 steps with 4000 atoms

Performance: 544499.445 tau/day, 3151.038 timesteps/s
99.6% CPU use with 48 MPI tasks x no OpenMP threads

MPI task timing breakdown:
Section |  min time  |  avg time  |  max time  |%varavg| %total
---------------------------------------------------------------
Pair    | 0.27396    | 0.3049     | 0.34363    |   2.5 | 48.04
Neigh   | 0.038451   | 0.042519   | 0.045841   |   0.7 |  6.70
Comm    | 0.20116    | 0.23669    | 0.26721    |   3.0 | 37.29
Output  | 5.0283e-05 | 5.2216e-05 | 8.5199e-05 |   0.0 |  0.01
Modify  | 0.039434   | 0.04568    | 0.051867   |   1.9 |  7.20
Other   |            | 0.004875   |            |       |  0.77

Nlocal:        83.3333 ave          92 max          75 min
Histogram: 1 3 6 7 11 6 5 5 3 1
Nghost:        2009.23 ave        2031 max        1982 min
Histogram: 1 2 6 5 7 9 2 6 5 5
Neighs:        12875.6 ave       14651 max       11436 min
Histogram: 2 7 3 11 5 8 7 1 0 4

Total # of neighbors = 618031
Ave neighs/atom = 154.50775
Neighbor list builds = 143
Dangerous builds = 13

#############################
# L I N E A R  Q U E N C H  #
#############################

# Define solid atoms. This closely follows ten Wolde  Ruiz-Montero and Frenkel  Faraday Discuss  1996  104  93-110
# Compute components of the per-atom q6 vector
compute q6 all orientorder/atom degrees 1 6 components 6 nnn NULL cutoff 1.3 # compute the Q6 parameter.
                                                                             # Use all neighbours within 1.3 unit cell.

# get number of connections
compute coord_number all coord/atom orientorder q6 0.5

# An atom is solid if it has 8 or more connections (of a possible 14)
variable is_solid atom c_coord_number>=8
group solid dynamic all var is_solid    # Must be dynamic to update
dynamic group solid defined

# do clustering
compute cluster solid cluster/atom 1.3 # Create a cluster where all atoms within are solid and max 1.3 units from another member

# define chunks one chunk per cluster
compute clus_chunks solid chunk/atom c_cluster nchunk every compress yes  # Says which atoms are in which chunk

# count the size of each chunk
compute size_chunks solid property/chunk clus_chunks count


# Find the maximum entry in the vector of chunk sizes
variable max_n equal max(c_size_chunks)


# Thermo style which includes this variable
# thermo_style custom step temp pe vol v_max_n

thermo ${N}  # Print the thermo information every 100 steps
thermo 1000  

# Reset the npt fix at a lower temperature (below freezing)
fix 1  all npt temp  ${temp} ${temp}  0.1  iso  5.68  5.68  0.5  mtk yes tchain  5  pchain  5
fix 1  all npt temp  0.45 ${temp}  0.1  iso  5.68  5.68  0.5  mtk yes tchain  5  pchain  5
fix 1  all npt temp  0.45 0.45  0.1  iso  5.68  5.68  0.5  mtk yes tchain  5  pchain  5

dump dmp2 all dcd ${N} traj.dcd
dump dmp2 all dcd 1000 traj.dcd


compute msd all msd com yes
variable twopoint equal c_msd[4]/6/(step*dt+1.0e-6)
fix 9 all vector 10 c_msd[4]
variable fit equal slope(f_9)/6/(10*dt)
thermo_style custom step temp pe c_msd[4] v_twopoint v_fit v_max_n

fix 1 all npt temp 1.25 ${temp} 0.1 iso 5.68 5.68 0.5 mtk yes tchain 5 pchain 5
fix 1 all npt temp 1.25 0.45 0.1 iso 5.68 5.68 0.5 mtk yes tchain 5 pchain 5
run 2000000 # 5000000  # Run for this many steps
Neighbor list info ...
  update every 1 steps, delay 10 steps, check yes
  max neighbors/atom: 2000, page size: 100000
  master list distance cutoff = 3.8
  ghost atom cutoff = 3.8
  binsize = 1.9, bins = 8 8 8
  4 neighbor lists, perpetual/occasional/extra = 1 3 0
  (1) pair lj/cut, perpetual
      attributes: half, newton on
      pair build: half/bin/atomonly/newton
      stencil: half/bin/3d
      bin: standard
  (2) compute orientorder/atom, occasional
      attributes: full, newton on
      pair build: full/bin/atomonly
      stencil: full/bin/3d
      bin: standard
  (3) compute coord/atom, occasional
      attributes: full, newton on
      pair build: full/bin/atomonly
      stencil: full/bin/3d
      bin: standard
  (4) compute cluster/atom, occasional
      attributes: full, newton on
      pair build: full/bin/atomonly
      stencil: full/bin/3d
      bin: standard
Per MPI rank memory allocation (min/avg/max) = 9.833 | 9.837 | 9.841 Mbytes
Step Temp PotEng c_msd[4] v_twopoint v_fit v_max_n 
   12000     1.266311   -7.1622629 4.0697334e-30 2.8262036e-32 8.3333333e+20            1 
   13000    1.2288658    -7.146393   0.46178461 0.0029601576  0.037534102            1 
   14000     1.249279   -7.1614907   0.88152263 0.0052471583  0.035522415            1 
   15000     1.249658    -7.162341    1.3406975 0.0074483192  0.036309652            1 
   16000    1.2758372   -7.1498043    1.8003334  0.009376736  0.036981848            3 
   17000    1.2675917    -7.166496    2.2068082  0.010817687  0.036677548            4 
   18000    1.2315312   -7.1442418    2.6581967  0.012306466  0.036700924            2 
   19000    1.2468569   -7.1873655    3.0864443  0.013537036  0.036647118            1 
   20000    1.2331284   -7.1776349     3.428622  0.014285925  0.036251083            1 
   21000    1.2331742   -7.1434073    3.8850086  0.015416701  0.035860848            1 
   22000    1.2299029   -7.1211034    4.3370352  0.016428163  0.035772387            1 
   23000    1.2681932   -7.1394902    4.8048805  0.017408987  0.035823415            1 
   24000    1.2381636   -7.1399504    5.2662028  0.018285426  0.035956672            2 
   25000    1.2519134   -7.1209063    5.6392065  0.018797355  0.036016761            2 
   26000    1.2508811   -7.1677242    6.0354165  0.019344283  0.036015441            1 
   27000    1.2635574    -7.150243    6.4398141  0.019875969   0.03586864            3 
   28000    1.2263238   -7.1517284    6.8414527  0.020361466  0.035713272            1 
   29000    1.2714628   -7.1453153    7.2605092  0.020863532  0.035545562            2 
   30000    1.2719921   -7.1381661    7.5988007  0.021107779  0.035364301            7 
   31000    1.2409427   -7.2107159    8.0793972  0.021718809  0.035259427            1 
   32000     1.249927   -7.1899167    8.4574667  0.022024653  0.035161454            3 
   33000    1.2465879   -7.1634074    8.8150437  0.022260211  0.035079228            2 
   34000    1.2665199   -7.1769673    9.1618527  0.022455521  0.034945125            1 
   35000    1.2462775   -7.1338639    9.6132435  0.022888675  0.034799684            1 
   36000    1.2348572   -7.1593505    9.9767713  0.023094378  0.034682989            2 
   37000    1.2617562   -7.1655099    10.427754  0.023485932  0.034584856            2 
   38000    1.2433279   -7.1861411    10.833241  0.023757106  0.034517521            1 
   39000    1.2306267   -7.1548262    11.230231   0.02399622  0.034448999            2 
   40000    1.2290824   -7.1215674    11.692654  0.024359697  0.034423075            1 
   41000    1.2449725   -7.1227515    12.130105  0.024654685  0.034406561            1 
   42000    1.2211714   -7.1772963    12.562666  0.024925925  0.034408495            2 
   43000    1.2566227   -7.1687771    12.959908  0.025116101  0.034419583            1 
   44000    1.2434321   -7.1477565    13.356926  0.025297208  0.034404302            1 
   45000    1.2291872   -7.1499056    13.850994  0.025649989  0.034427009            3 
   46000    1.2072014   -7.1750117    14.291991  0.025891288  0.034448983            1 
   47000    1.2517144   -7.1976797    14.646587  0.025969126   0.03447073            1 
   48000    1.2370659   -7.2001712    15.018906  0.026074489  0.034457073            1 
   49000    1.2419179   -7.1040022    15.529841  0.026411294  0.034471378            1 
   50000    1.2084089   -7.1836556    15.929578  0.026549297   0.03449314            2 
   51000    1.2589155   -7.1868388    16.327764  0.026679353   0.03450882            2 
   52000    1.2300822   -7.1709045    16.876575  0.027045792  0.034540618            2 
   53000    1.2430768   -7.1681707    17.207297  0.027055499  0.034552387            2 
   54000     1.246598   -7.2066634    17.396191  0.026845974  0.034534484            3 
   55000     1.256274   -7.1424818    17.951396  0.027199084  0.034523601            1 
   56000    1.2198924   -7.1304742    18.593268  0.027668553  0.034554113            1 
   57000     1.230529   -7.1578552    18.963759  0.027724794  0.034595924            3 
   58000    1.2450461   -7.1665125    19.224099  0.027620832   0.03462181            3 
   59000    1.2506912   -7.1385669    19.623492  0.027716797  0.034609484            1 
   60000    1.2070451   -7.2060451    19.902803  0.027642782  0.034594005            1 
   61000    1.2142494   -7.2323267    20.255643  0.027671644  0.034555567            1 
   62000    1.2349357    -7.207138    20.692647  0.027812698   0.03451098            2 
   63000    1.2441384   -7.1428746    21.099574  0.027909489  0.034462576            1 
   64000    1.2422135   -7.1825224    21.438925  0.027915267  0.034428711            1 
   65000    1.2555132   -7.1767848    21.653669  0.027761114  0.034368418            1 
   66000    1.2140155   -7.1995602    21.999279  0.027776867  0.034301051            2 
   67000     1.241267   -7.1501121    22.438373  0.027908423  0.034236156            1 
   68000    1.2280109   -7.1747077    22.819895  0.027965557  0.034187753            1 
   69000    1.2257525   -7.1833369    23.156721  0.027967055  0.034130451            1 
   70000    1.2296754   -7.2283308    23.584568  0.028076866  0.034081502            3 
   71000    1.2165386   -7.2152361     24.15664  0.028352864  0.034045742            1 
   72000    1.2104504    -7.150603    24.512305  0.028370723  0.034004851            4 
   73000    1.2243367   -7.2332797    24.717198   0.02821598  0.033963702            3 
   74000    1.2213197   -7.1854242    25.007975  0.028162134  0.033911039            1 
   75000    1.2297226   -7.1965323    25.419904  0.028244338  0.033851087            2 
   76000    1.2396816   -7.2450062    25.773103  0.028259981  0.033794809            2 
   77000    1.2151169   -7.2144911    26.143613  0.028293954  0.033735669            1 
   78000     1.221498   -7.2111084     26.60151  0.028420417  0.033684999            1 
   79000    1.2402271   -7.2166763    26.922296  0.028399046  0.033634401            1 
   80000    1.2361215   -7.1667402    27.283394  0.028420202  0.033584703            3 
   81000    1.2195192   -7.2303684    27.566923  0.028361032  0.033529423            5 
   82000    1.2139578   -7.2119921    28.068465  0.028524862  0.033475706            1 
   83000    1.1937107    -7.203043    28.276689   0.02839025  0.033416238            1 
   84000    1.2143144    -7.208175    28.580851  0.028354019  0.033355969            1 
   85000    1.1939885   -7.2263043    29.013598  0.028444704  0.033293739            3 
   86000    1.1952587   -7.2034973    29.389773  0.028478462  0.033235463            1 
   87000    1.2197179   -7.1785943    29.647721    0.0283982  0.033180802            3 
   88000    1.1952886   -7.2351332    29.999189  0.028408323  0.033122684            1 
   89000    1.2115219   -7.2175293    30.475796  0.028535389  0.033072889            2 
   90000    1.2276284   -7.2440293     30.84444  0.028559667  0.033029819            2 
   91000    1.2217614   -7.1842214    31.467248  0.028816161  0.032996371            1 
   92000    1.2017142   -7.1683574    31.775361   0.02878203  0.032967952            2 
   93000    1.1965825   -7.2463076    32.017226   0.02868927  0.032930317            2 
   94000    1.2003394   -7.2130171     32.40036  0.028723723  0.032895538            3 
   95000    1.2047312    -7.276189     32.76978  0.028745421  0.032855437            2 
   96000     1.220811    -7.234009     33.24003  0.028854193  0.032821152            1 
   97000    1.2311694   -7.2421795    33.409389  0.028702224  0.032783761            2 
   98000    1.1975288   -7.2574612    33.740917  0.028691256  0.032742965            7 
   99000    1.2213789   -7.2512756    34.208278  0.028794846  0.032701037            1 
  100000    1.2033182   -7.2182929    34.588263  0.028823552  0.032661484            1 
  101000    1.2211073   -7.2105727    34.977569   0.02885938  0.032622393            1 
  102000    1.1956214   -7.1999485    35.539769  0.029035759  0.032590791            1 
  103000    1.2061056   -7.2038255    35.483352  0.028708214  0.032555382            1 
  104000    1.2153635   -7.2192036    35.943859  0.028801169  0.032516458            1 
  105000    1.2225891   -7.2440783    36.504502  0.028971826  0.032482976            3 
  106000    1.2094419   -7.2469861    36.894315  0.029004964  0.032455581            2 
  107000    1.1979354   -7.1959104    37.286244   0.02903913  0.032432612            5 
  108000    1.2165748   -7.2036925    37.468356  0.028910768  0.032406331            2 
  109000    1.2330964   -7.2170373    37.775193  0.028880117   0.03237257            2 
  110000    1.2098784   -7.2225269    37.975472  0.028769297  0.032329114            2 
  111000     1.220731   -7.2285801    38.312566  0.028763188   0.03228287            1 
  112000    1.2356148   -7.2060142    38.474996  0.028627229   0.03223531            1 
  113000    1.1911566   -7.2135239    38.868591  0.028664152  0.032182447            1 
  114000    1.1752531    -7.202297    39.228247  0.028675619  0.032134952            2 
  115000     1.191643   -7.1943455    39.837354  0.028867647  0.032090001            1 
  116000    1.2514078   -7.2151904    39.809344  0.028598667   0.03204665            1 
  117000    1.2130279   -7.2640623    40.173804   0.02861382  0.032000702            2 
  118000    1.1817189   -7.2749059    40.401766  0.028532321  0.031951924            2 
  119000     1.204605    -7.282261    40.794664  0.028567692  0.031906902            2 
  120000    1.2175245    -7.239648    41.347315  0.028713413    0.0318634            1 
  121000     1.209856   -7.2544834    41.871903  0.028837399  0.031828224            2 
  122000    1.2212822   -7.2703048    42.046894  0.028720556  0.031795318            3 
  123000     1.249412   -7.2271086    42.336254  0.028683099  0.031760638            2 
  124000    1.1918153   -7.2736562     42.67997  0.028682775   0.03172196            1 
  125000    1.2081282   -7.2316041    43.138615  0.028759077  0.031684446            2 
  126000    1.2162087   -7.2567718    43.333383  0.028659645  0.031646521            1 
  127000    1.1912427    -7.264016    43.780203  0.028727167  0.031610705            1 
  128000     1.220686   -7.3116135    43.966138  0.028623787  0.031578181            2 
  129000     1.199034   -7.2661717    44.619963  0.028824265  0.031546786            1 
  130000     1.200086   -7.2483657    44.744986  0.028682683  0.031517571            3 
  131000    1.1830709   -7.2668962    45.302018  0.028818077  0.031488648            2 
  132000    1.1993275   -7.3155241    45.765498   0.02889236  0.031464882            1 
  133000    1.2142362   -7.2713449    45.951989  0.028791973  0.031440272            1 
  134000    1.2111626   -7.2343693    46.317044  0.028804132  0.031410041            2 
  135000    1.2247678   -7.2686054    46.594484  0.028762027  0.031381502            5 
  136000    1.2370068   -7.2423677    47.052669  0.028831292  0.031351968            1 
  137000    1.2113212   -7.2898414    47.176183  0.028695975  0.031323769            1 
  138000     1.216889   -7.2565949    47.483568  0.028673652  0.031294152            4 
  139000     1.196277   -7.2367612     47.90617  0.028720725  0.031265625            1 
  140000    1.1981051   -7.2369079    48.357198  0.028784047  0.031236014            1 
  141000    1.1830308   -7.2982567    48.433455  0.028624974  0.031203099            1 
  142000      1.21719   -7.2826931    48.944376  0.028723225  0.031170626            1 
  143000    1.1733677   -7.2596815     49.46636   0.02882655  0.031143604            2 
  144000    1.1947341   -7.2319668    49.958318  0.028911063  0.031121379            1 
  145000    1.1877181   -7.3260911    49.976996  0.028722411  0.031097971            3 
  146000    1.1960836   -7.3373298     50.23567  0.028673327  0.031071668            1 
  147000    1.2422522   -7.3142701    50.505254  0.028631096  0.031042905            3 
  148000    1.2202164   -7.2878644    51.205065  0.028831681  0.031017993            2 
  149000    1.1998134   -7.3309106     51.41138  0.028753568  0.030991944            2 
  150000    1.1977237   -7.2681387    51.702958  0.028723865  0.030965165            1 
  151000    1.1633666   -7.2567612    52.229314  0.028824124  0.030938667            4 
  152000    1.2028492   -7.2575638    52.410818  0.028734001  0.030915221            2 
  153000    1.1935832    -7.291913     52.66118   0.02868256  0.030890046            1 
  154000    1.1918353   -7.2642935    53.140448  0.028755654  0.030864451            1 
  155000    1.1752119   -7.2717672      53.7166  0.028879892  0.030843106            1 
  156000    1.1760143   -7.2865783    53.892452  0.028788703   0.03082277            1 
  157000     1.179371   -7.2856967    54.059744  0.028694131  0.030797997            1 
  158000    1.1996964   -7.2587421    54.485307  0.028736976  0.030774435            1 
  159000    1.2023882   -7.2963106    54.367203  0.028494341  0.030746318            1 
  160000     1.198987   -7.2785149    54.833595  0.028559164  0.030717336            2 
  161000    1.1788792   -7.3086568    55.208034  0.028575587  0.030688894            2 
  162000    1.2089371   -7.2866357     55.56978  0.028585278  0.030662507            4 
  163000    1.2001966   -7.3058916    56.023725  0.028641986  0.030636926            1 
  164000    1.1866354   -7.2674531    56.450821   0.02868436  0.030616111            1 
  165000    1.1752617   -7.3066066    56.788374  0.028680997  0.030597777            2 
  166000    1.1840717   -7.2922336    57.198157  0.028713934  0.030578545            1 
  167000    1.1650825   -7.2913538    57.480054  0.028682662   0.03056045            2 
  168000      1.17886   -7.3392353    57.715735  0.028628837  0.030539493            1 
  169000    1.1772207   -7.2970953      58.1438  0.028670513   0.03051882            1 
  170000    1.1537439   -7.3095457    58.463982  0.028658815  0.030498832            2 
  171000    1.1742945    -7.274231    58.962638  0.028734229  0.030479615            1 
  172000    1.1761798   -7.3082699    59.056625  0.028612706  0.030460593            1 
  173000    1.1811587   -7.3184892    59.301891  0.028565458  0.030438475            1 
  174000    1.1717436   -7.2764717     59.68799  0.028586202  0.030416666            2 
  175000    1.1702681   -7.2757781    60.199763  0.028666554  0.030395656            1 
  176000    1.1790579   -7.3111527    60.535315  0.028662554  0.030375031            2 
  177000    1.2001011   -7.2998625    60.897179  0.028670988  0.030353978            2 
  178000    1.1879855   -7.3133746    60.848217  0.028486993  0.030333882            2 
  179000    1.1411363   -7.2884073    61.354218  0.028563416   0.03031078            1 
  180000    1.1754031    -7.277777    61.586038  0.028512055  0.030286589            2 
  181000    1.1886544   -7.3068412    62.012838   0.02855103  0.030264433            1 
  182000    1.1563948   -7.2940022    62.490738  0.028612975  0.030242753            1 
  183000    1.1917504   -7.3411793    62.963013  0.028671682  0.030224634            1 
  184000    1.1687312   -7.3469714    63.022033  0.028542587  0.030206497            1 
  185000    1.1717425   -7.3152935    63.582158  0.028640612  0.030190702            1 
  186000    1.1667194   -7.3455009    63.938683  0.028646363  0.030175601            3 
  187000    1.1819414   -7.2990258     64.53322  0.028758119  0.030159896            6 
  188000    1.1952834   -7.3367355     64.54575  0.028610705  0.030146378            1 
  189000    1.1830125   -7.2909558    65.148174  0.028724944  0.030135194            3 
  190000    1.1582918   -7.2897903     65.73277  0.028830162  0.030125477            2 
  191000    1.1769433   -7.3089044     65.91739  0.028759769  0.030116608            1 
  192000    1.1652614   -7.2991486    66.197049  0.028731358  0.030105239            2 
  193000    1.1836825   -7.3383557    66.535275   0.02872853  0.030093261            2 
  194000    1.1819074   -7.2961155    67.085478  0.028816786  0.030081068            2 
  195000    1.1697455   -7.3434513    67.124417  0.028685648  0.030069608            6 
  196000    1.1784241   -7.3148858    67.797696  0.028825551  0.030059489            2 
  197000    1.1988476   -7.3076236    67.907676  0.028725751  0.030049862            2 
  198000    1.1935209   -7.3380057    68.149262  0.028682349   0.03003982            1 
  199000    1.1852105    -7.275941    68.695828  0.028767097  0.030028871            1 
  200000    1.1714828   -7.3290828     68.97787  0.028740779  0.030018675            2 
  201000    1.1776583   -7.2759648    69.226938  0.028701052  0.030006897            2 
  202000    1.1810432   -7.2990783     69.37891  0.028621662  0.029993479            4 
  203000    1.1471354   -7.2969814    69.590674    0.0285676  0.029977682            2 
  204000    1.1558947   -7.2668256     69.84196  0.028530212  0.029962282            3 
  205000    1.1803825   -7.3176584    70.108959  0.028499577  0.029945606            2 
  206000    1.2020145   -7.3226791    70.518384  0.028526854  0.029927716            2 
  207000    1.2006627   -7.2899558    70.870032  0.028530609  0.029911481            2 
  208000    1.1546003   -7.3289576    71.351346  0.028586276  0.029894476            1 
  209000    1.1930354   -7.3432125    71.544848  0.028526654  0.029878204            3 
  210000    1.1475792   -7.3505932    72.038105  0.028586549  0.029862843            3 
  211000    1.1775469   -7.3274854    72.348279   0.02857357  0.029848824            1 
  212000     1.166358   -7.3474083    72.534902  0.028512147  0.029833376            2 
  213000    1.1803814   -7.2922588    73.095858  0.028597753  0.029819119            3 
  214000    1.1714741   -7.3432171    73.300147  0.028543671   0.02980347            2 
  215000    1.1797638    -7.356571    73.157528  0.028355631  0.029786745            2 
  216000    1.1804289   -7.3729064     73.53156  0.028368657  0.029769031            5 
  217000    1.1613638   -7.3408757    73.890491  0.028375765  0.029751735            2 
  218000    1.1913527   -7.3521913    74.408874  0.028443759  0.029733734            1 
  219000    1.1749305   -7.3401022    74.803937  0.028464207  0.029716729            2 
  220000    1.1550591   -7.3355696    74.749484  0.028314198  0.029698071            2 
  221000    1.1751944   -7.2779964     75.49261  0.028466293  0.029680467            2 
  222000    1.1636838   -7.3439064    75.742798  0.028431981  0.029666316            1 
  223000    1.1450796   -7.3163623    75.847019   0.02834343  0.029650264            1 
  224000    1.1682651   -7.3519597    76.107366  0.028313752  0.029632766            4 
  225000    1.1851858   -7.3469508    76.667811  0.028395486  0.029616956            2 
  226000    1.1561968   -7.3754566    76.898605  0.028354943  0.029601597            2 
  227000    1.1555229   -7.3372517    77.155292  0.028324263  0.029585267            2 
  228000     1.199311   -7.3773169    77.475084  0.028316917  0.029568256            1 
  229000    1.1619781   -7.3394179    77.844445  0.028327673  0.029551346            1 
  230000    1.1364945   -7.3290174    78.263671  0.028356403  0.029534989            1 
  231000    1.1846843   -7.3878026    77.937636   0.02811603  0.029517975            2 
  232000    1.1525922   -7.3772305    78.091895   0.02805025  0.029498611            2 
  233000    1.1441394   -7.3389564    78.902509  0.028219782  0.029478063            1 
  234000    1.1484013   -7.3541663    78.925149  0.028107247  0.029458125            1 
  235000    1.1554986   -7.3569539    79.170179  0.028074531  0.029437894            3 
  236000    1.1937386   -7.4122094    79.217619  0.027972323  0.029416285            1 
  237000    1.1915597   -7.3667935     79.64981  0.028006262  0.029393096            1 
  238000    1.1611505   -7.3880833    79.865091  0.027963967  0.029370818            2 
  239000    1.1511585     -7.38352    80.468341  0.028057301  0.029350127            2 
  240000    1.1736168   -7.4013478    80.766887  0.028044058  0.029331467            1 
  241000    1.1774059   -7.3612671     81.31715  0.028117963  0.029314364            2 
  242000    1.1669039   -7.3471763    81.781835  0.028161789  0.029296331            1 
  243000    1.1435795   -7.3498478    82.164712  0.028177199   0.02927952            3 
  244000    1.1562981   -7.3790349     82.31036  0.028111462  0.029263779            2 
  245000    1.1677568   -7.3976154    82.738198  0.028142244  0.029247581            4 
  246000    1.1568648   -7.3859661    83.251128  0.028201602  0.029232136            2 
  247000    1.1498506    -7.377503    83.450252  0.028154606  0.029218759            2 
  248000    1.1786562   -7.3877409    83.616259  0.028096861   0.02920431            1 
  249000    1.1434547   -7.4076512    83.953715   0.02809696  0.029188589            2 
  250000    1.1739621   -7.3951432    84.278642  0.028092881  0.029173527            1 
  251000    1.1594298   -7.3574652     84.49567  0.028053011  0.029158535            1 
  252000    1.1518799   -7.3530953     84.91644  0.028080833  0.029142427            2 
  253000    1.1504756   -7.3764557     85.14977  0.028046696  0.029127758            2 
  254000    1.1350407   -7.3785109    85.505638  0.028053031  0.029113742            2 
  255000    1.1521465   -7.3525527     85.86463  0.028060337  0.029096835            1 
  256000    1.1249424   -7.3430459    86.040447  0.028007958  0.029079213            2 
  257000    1.1423042   -7.3540283    86.393279  0.028013385  0.029062648            3 
  258000    1.1573836   -7.3835717    86.366813  0.027896257   0.02904525            2 
  259000    1.1521221   -7.3379245    86.748322    0.0279113  0.029026925            4 
  260000    1.1607584   -7.3310842    87.132261  0.027927007  0.029009464            3 
  261000     1.163856   -7.3974613    87.095859  0.027808384  0.028991536            1 
  262000    1.1501731   -7.3867355    87.432642  0.027809364  0.028972622            3 
  263000    1.1413213   -7.3805384    87.489181   0.02772154  0.028953423            2 
  264000    1.1893283   -7.4339275    87.981646  0.027771984  0.028934224            5 
  265000    1.1482304   -7.3951072     88.26229  0.027755437  0.028914065            3 
  266000    1.1583243   -7.4123314    88.352641  0.027679399  0.028892774            2 
  267000    1.1250899   -7.3776767    88.577894  0.027646034  0.028872783            2 
  268000    1.1652243   -7.4737723    88.925882  0.027651083   0.02885285            2 
  269000    1.1559039   -7.4051588     89.35471  0.027681137  0.028832937            2 
  270000    1.1570684    -7.447843    89.666022  0.027674698  0.028814045            3 
  271000    1.1663084   -7.3965853    90.103322  0.027707048  0.028795027            1 
  272000    1.1363641   -7.4583729    90.069203  0.027594731  0.028776599            3 
  273000    1.1308202   -7.3887865    90.724157  0.027693576  0.028757865            2 
  274000    1.1562186   -7.4533768    90.868467  0.027636395  0.028740441            2 
  275000    1.1520499   -7.4026426    91.077543  0.027599255  0.028722339            2 
  276000    1.1551906   -7.3920883    91.470889  0.027618022  0.028703629            3 
  277000    1.1256823   -7.3795065    91.780449  0.027611447  0.028684762            2 
  278000    1.1466611   -7.3753703    92.026334  0.027585832  0.028665879            1 
  279000    1.1510036   -7.4066012    92.185929  0.027534626  0.028646554            1 
  280000     1.164245   -7.3998384    92.461628  0.027518342  0.028627097            1 
  281000    1.1587734   -7.3983014    92.752609  0.027506705   0.02860802            5 
  282000    1.1564066   -7.4123409     93.16667  0.027531522  0.028587816            3 
  283000    1.1436283   -7.4009738    93.347481   0.02748748  0.028568667            4 
  284000    1.1220643   -7.3817561    93.784164  0.027518827  0.028549554            4 
  285000    1.1117532   -7.4034546    93.903105  0.027457048  0.028529214            2 
  286000    1.1515866   -7.3739172    94.179821  0.027441673  0.028509425            2 
  287000    1.1557803   -7.3838368    94.591427  0.027465571  0.028490621            3 
  288000    1.1466936    -7.430716    94.556339  0.027360052   0.02847055            1 
  289000    1.1411313   -7.4407706    95.102627  0.027422903  0.028451126            3 
  290000    1.1214469    -7.420427    95.339456  0.027396395  0.028432485            1 
  291000    1.1275038   -7.4003391    95.982952  0.027486527  0.028414791            2 
  292000    1.1417892   -7.4601232    96.016864  0.027402073  0.028396849            1 
  293000    1.1197594   -7.4083921    96.303437  0.027390056  0.028379495            1 
  294000    1.1449736   -7.4039915    96.737958  0.027420056  0.028362184            2 
  295000    1.1601578   -7.4294708     97.03509  0.027411042  0.028343203            2 
  296000    1.1395434   -7.4638067    96.884945  0.027276167  0.028324789            2 
  297000    1.1518539   -7.4198416    97.171965  0.027264861  0.028306048            2 
  298000    1.1471456   -7.3884749    97.564656  0.027283181  0.028286146            3 
  299000    1.1394988   -7.4080133    97.814867  0.027261669  0.028265741            1 
  300000    1.1392163   -7.4419794     98.01663  0.027226842   0.02824523            2 
  301000    1.1405638   -7.3750435    98.193483   0.02718535  0.028225536            1 
  302000    1.1143296    -7.435236    98.671444   0.02722722  0.028205525            3 
  303000    1.1316095   -7.4530449    98.657392  0.027133496  0.028185362            2 
  304000    1.1510284   -7.3985354    98.944109  0.027122837  0.028165111            1 
  305000    1.1240436   -7.4386241    98.926488  0.027029095  0.028144027            3 
  306000    1.1489673   -7.4814082    99.232386   0.02702407  0.028122959            1 
  307000    1.1249331   -7.4514062    99.277344  0.026948247  0.028101782            2 
  308000    1.1255849   -7.4515473    99.911876  0.027032434  0.028079984            3 
  309000    1.1276921   -7.4341613    99.747941  0.026900739  0.028056882            2 
  310000    1.1517488   -7.4603345    100.29388  0.026960721  0.028034394            2 
  311000    1.1141196   -7.4392438    100.70881  0.026985211  0.028011791            1 
  312000    1.1276414   -7.4726347    100.94026   0.02696054  0.027989305            1 
  313000    1.1553768   -7.4617723    100.76457  0.026827629  0.027966943            3 
  314000    1.1274427   -7.4513009    101.57313  0.026956774  0.027944877            1 
  315000    1.1171087     -7.43534    101.72425  0.026911178  0.027923743            3 
  316000    1.1328804   -7.4610228    102.04476  0.026910537  0.027902349            2 
  317000     1.120662   -7.4068701    102.39586  0.026917944  0.027880956            1 
  318000    1.1312393   -7.4294184    102.84472  0.026950923  0.027859893            3 
  319000    1.1107226   -7.4297172    102.68222  0.026823985  0.027838485            2 
  320000     1.132997   -7.4936301    102.92234  0.026802693  0.027817699            3 
  321000    1.1464813   -7.4749298     103.2882  0.026814175  0.027795803            4 
  322000    1.1266377   -7.4504958    103.50395  0.026786738  0.027774588            4 
  323000     1.106915   -7.4895548    103.38018  0.026671872  0.027752987            1 
  324000     1.100722   -7.4734755    104.07124  0.026767294   0.02773168            1 
  325000    1.1162505   -7.4565319    104.31565  0.026747603  0.027710499            2 
  326000    1.1234189   -7.4308389    104.77873  0.026783928  0.027689966            2 
  327000    1.1238272   -7.4795633    105.07006  0.026776263   0.02766982            4 
  328000    1.1315957   -7.4333722    105.31619  0.026757161  0.027650274            2 
  329000    1.1363233   -7.4499317    106.04934  0.026861536  0.027631655            1 
  330000    1.1214869   -7.4772775    105.75939  0.026706916  0.027612435            2 
  331000     1.123197     -7.45132    105.90632  0.026663223  0.027592811            2 
  332000    1.1369869   -7.4435669    106.81582    0.0268112   0.02757318            5 
  333000    1.1320349   -7.4221929    107.03798  0.026786281   0.02755487            3 
  334000    1.1108669    -7.427397    107.11398  0.026725044   0.02753498            1 
  335000    1.1115709   -7.4436194    107.42262  0.026722045  0.027515272            2 
  336000    1.1270955     -7.45035    107.14256  0.026573056  0.027494922            2 
  337000    1.1377437   -7.4511064    107.37753  0.026552308  0.027474868            1 
  338000    1.1148546   -7.4508463    107.68782   0.02655025   0.02745464            1 
  339000     1.119902   -7.4808807    107.86538   0.02651558   0.02743458            1 
  340000    1.1180411   -7.4614864    108.41599  0.026572547  0.027414263            1 
  341000    1.1215543   -7.4535174    108.64052  0.026549491  0.027393894            3 
  342000    1.1095615   -7.4789218     109.2556  0.026621736   0.02737373            2 
  343000    1.1169026   -7.4575779    109.54901  0.026615406  0.027353918            2 
  344000    1.1230987   -7.4606151    109.40464  0.026503063  0.027334702            2 
  345000    1.1083235   -7.4480268    109.75355  0.026510518   0.02731536            1 
  346000    1.1284755   -7.4989766    109.72242  0.026426401   0.02729624            2 
  347000    1.1460782   -7.4727354    110.13058  0.026448266  0.027276574            3 
  348000    1.1055762   -7.4851044    110.49913   0.02646052  0.027257589            2 
  349000    1.1290014    -7.514939    110.80088  0.026456752   0.02723848            2 
  350000    1.1095428    -7.512461      110.898  0.026404285  0.027219626            1 
  351000    1.1267358   -7.4701067    111.47656  0.026466419  0.027201196            4 
  352000      1.14417   -7.4951723    111.68147  0.026439743  0.027182815            2 
  353000    1.1130468   -7.4939806    112.08577  0.026460286  0.027165225            2 
  354000    1.1362394   -7.4847255    112.30637  0.026437468  0.027148356            5 
  355000    1.1236189   -7.5185376    112.52637  0.026414641   0.02713088            1 
  356000    1.1075363   -7.5018862    113.04642  0.026462177  0.027113452            2 
  357000    1.1067092     -7.50173    113.27796    0.0264421  0.027095881            1 
  358000    1.1031476   -7.4774139    113.12394  0.026332388  0.027078276            2 
  359000    1.0949412   -7.4762721    113.44637  0.026333884  0.027059836            2 
  360000    1.1114848   -7.4880644    113.95826  0.026379226  0.027041552            2 
  361000    1.0935225   -7.4932497    113.63617  0.026231803  0.027023519            3 
  362000     1.117607   -7.4931217    114.08869   0.02626351  0.027005489            1 
  363000    1.1148223   -7.5095767    114.30488   0.02624079  0.026986971            2 
  364000    1.1173397   -7.4780251    114.70544  0.026260402  0.026968028            2 
  365000    1.1046251   -7.4625258    114.68857  0.026184604  0.026948266            2 
  366000    1.0973341   -7.4656304     115.2122  0.026232286  0.026928652            1 
  367000    1.0833776   -7.5192656    115.02592   0.02611851  0.026909052            4 
  368000    1.1291245   -7.4701844    115.84729  0.026233536  0.026889434            1 
  369000    1.0907209   -7.4712868    115.94831  0.026185256  0.026870177            4 
  370000    1.1172768   -7.4364971     116.3693  0.026209302   0.02685129            2 
  371000    1.1016551   -7.5129854    116.23395  0.026108256   0.02683323            1 
  372000    1.1089314   -7.5047861    116.51915  0.026101961  0.026815031            1 
  373000    1.1047614   -7.5349505    116.62972  0.026056684    0.0267962            3 
  374000    1.1160747   -7.5165958    117.16719  0.026106772  0.026777278            2 
  375000    1.0839601   -7.4888806    116.95509   0.02599002  0.026758286            1 
  376000    1.1081771   -7.4962162     117.5217  0.026046476   0.02673963            3 
  377000      1.07857   -7.5104546    117.68793  0.026014131  0.026720691            1 
  378000    1.0989914   -7.4775393    118.55271  0.026135958  0.026702837            6 
  379000    1.1209577   -7.4897261    118.55116  0.026066658  0.026685675            2 
  380000    1.1031246   -7.5104899     118.7282  0.026036886  0.026668643            1 
  381000    1.0967974   -7.5056589    119.09626  0.026049051  0.026651707            1 
  382000    1.1096748   -7.5433028    119.25602   0.02601571  0.026634308            3 
  383000    1.0963775   -7.4593339    119.97322  0.026103833  0.026618112            3 
  384000    1.1084378   -7.5114005    120.34875  0.026117351  0.026602017            3 
  385000    1.1130881   -7.4710097    120.68025  0.026121265  0.026586111            2 
  386000    1.0909487   -7.5095818    120.82651  0.026085169  0.026569778            4 
  387000    1.0786477    -7.496035    120.62589  0.025974568  0.026552786            2 
  388000     1.103874   -7.5119473    121.16045  0.026022432  0.026536149            3 
  389000    1.0936759   -7.5501581    121.38033  0.026002642  0.026519611            2 
  390000    1.0894051   -7.4958794    121.58099  0.025978844  0.026503154            2 
  391000    1.1135316   -7.5344506    121.13437  0.025817215  0.026485558            1 
  392000    1.0546801   -7.5148384     121.6452  0.025859948  0.026467294            1 
  393000    1.0902906   -7.5357457    121.88627  0.025845264  0.026449489            1 
  394000    1.1231712   -7.5424429    121.73296  0.025747242  0.026431415            4 
  395000    1.1041803   -7.5125032      121.513  0.025635653  0.026412448            2 
  396000    1.1014591   -7.5657966     121.8834  0.025648864   0.02639331            1 
  397000    1.0889987    -7.525563      122.544  0.025722922  0.026374051            2 
  398000    1.0993002   -7.5094966    122.74558  0.025700499  0.026354877            4 
  399000    1.0833854   -7.4942568    123.06598  0.025703004    0.0263356            1 
  400000    1.0942643   -7.5033532    122.79466   0.02558222  0.026316256            2 
  401000    1.1076356   -7.5493653    122.92194  0.025544875  0.026296605            1 
  402000    1.1012535   -7.5255012    123.68988  0.025640523   0.02627806            2 
  403000    1.0859402   -7.5906723    123.71513   0.02558212   0.02625842            1 
  404000     1.081786    -7.526523    124.43698  0.025667694  0.026239305            3 
  405000    1.0793936   -7.5498208    124.19265  0.025554044   0.02622015            3 
  406000     1.100265   -7.5364054    124.45828  0.025545624  0.026200864            2 
  407000     1.103226   -7.5687024    124.09033  0.025407521  0.026181194            3 
  408000     1.107674   -7.5132861    124.31786   0.02539172  0.026160836            1 
  409000    1.0931728   -7.5195257    125.00119  0.025468865  0.026141081            2 
  410000    1.1079863   -7.5327459    125.26575  0.025460519  0.026121531            1 
  411000    1.1160429   -7.5089322     125.8107  0.025509064  0.026101989            1 
  412000     1.081816     -7.56901    125.60888  0.025406327  0.026082679            3 
  413000    1.0999115   -7.5291675    125.60842  0.025344717  0.026063062            2 
  414000    1.0825153     -7.54273    125.78771  0.025319587  0.026043297            2 
  415000    1.1002199   -7.5373553    126.49354  0.025400308  0.026023597            3 
  416000    1.0734032   -7.5115165    127.05555  0.025451832  0.026004436            3 
  417000    1.0911152   -7.5526541    126.67474  0.025314696  0.025984977            2 
  418000    1.0878914    -7.534519    126.87132  0.025293326  0.025965392            1 
  419000    1.0780536   -7.5746174    127.18826  0.025295995  0.025946461            2 
  420000    1.1037283   -7.5183385    128.09216   0.02541511  0.025927533            3 
  421000    1.0778511   -7.5526772    127.80498  0.025297897  0.025908105            2 
  422000    1.0784744   -7.5596466    127.74462  0.025226031  0.025887869            4 
  423000    1.0851732   -7.5870741    127.34055   0.02508679  0.025867835            6 
  424000    1.0517418   -7.5342656    128.29887  0.025215972  0.025847462            3 
  425000    1.1076021   -7.5694969     128.1342  0.025124354  0.025827845            2 
  426000    1.0773756   -7.6111061    128.47098  0.025131256  0.025808606            1 
  427000    1.0767998    -7.505961    128.80233  0.025137067  0.025789269            1 
  428000    1.0793446   -7.5601191    129.34947  0.025184866  0.025769737            2 
  429000    1.1066064   -7.5698389    129.04908  0.025067808  0.025749562            2 
  430000    1.0921137   -7.5402945    129.56299  0.025109106  0.025729277            1 
  431000    1.0692541   -7.5187714    129.45924  0.025030788  0.025709296            3 
  432000    1.0782961   -7.5224696    129.79922   0.02503843   0.02568944            3 
  433000    1.0756802   -7.5601543    129.91739  0.025003348  0.025669479            2 
  434000    1.1008209   -7.5714331    129.93696  0.024949493  0.025648906            2 
  435000    1.0927147    -7.545851    130.60702  0.025020501  0.025628688            2 
  436000    1.0860381   -7.5961928    130.43125  0.024929521  0.025608514            2 
  437000    1.0731372   -7.5840738    130.71257  0.024926119  0.025587891            2 
  438000    1.0924721   -7.5627292    130.91359  0.024907457  0.025567668            3 
  439000    1.0753059   -7.5319282     131.3315  0.024930049  0.025547405            2 
  440000    1.0659738   -7.5961342    130.95683   0.02480243  0.025527077            5 
  441000    1.0864802   -7.5813955    131.41572  0.024832903   0.02550689            2 
  442000    1.0765906   -7.5574659    131.91868  0.024871547  0.025486527            2 
  443000     1.085333   -7.5940103    131.67837  0.024770198  0.025466773            2 
  444000    1.1101407   -7.5816589    132.18107  0.024808759  0.025446856            2 
  445000    1.0748406   -7.5664493    132.53516  0.024819319   0.02542687            2 
  446000    1.0916001   -7.5362609    133.32326  0.024910923  0.025407894            1 
  447000    1.0718093   -7.5886769    133.10061  0.024813685   0.02538898            2 
  448000    1.0491057   -7.5747786    133.62468  0.024855781  0.025369841            2 
  449000    1.0790178   -7.5947907    133.24655  0.024730244  0.025350544            1 
  450000    1.0897144   -7.6013494    133.59847  0.024740458  0.025331346            3 
  451000    1.0883612   -7.5604635    134.54068  0.024859697  0.025312281            1 
  452000    1.0958265   -7.5935355    133.65481  0.024641373  0.025292831            2 
  453000    1.0548262   -7.5987464    133.82974  0.024619157  0.025272624            3 
  454000    1.0791651   -7.5444447    134.55476  0.024698011  0.025252571            2 
  455000    1.0822757   -7.6093709    134.75591   0.02468057  0.025232876            5 
  456000    1.0500925   -7.5975681    134.51201  0.024581874  0.025212975            2 
  457000    1.0731089    -7.602192     134.7721  0.024575511  0.025193316            2 
  458000    1.0823274   -7.6117544    135.12058  0.024585259  0.025173969            4 
  459000    1.0775117   -7.5514003    135.51546  0.024603388  0.025154813            1 
  460000     1.063574   -7.5786289    136.10326  0.024656388  0.025136064            2 
  461000     1.074049   -7.5672543    135.83512  0.024554432  0.025116666            3 
  462000    1.0799767   -7.5771869     136.1569  0.024559326  0.025097134            1 
  463000    1.0634561   -7.5948762    136.31826  0.024535323  0.025077426            1 
  464000    1.0689461   -7.5877138    136.64272  0.024540718  0.025057819            2 
  465000    1.0722457   -7.5676731     136.7994  0.024516021  0.025038316            3 
  466000    1.0997182   -7.6090882    136.54518   0.02441795  0.025018442            3 
  467000    1.0743606   -7.5681944    136.91334   0.02443136  0.024998549            3 
  468000    1.0804874   -7.5860022    137.18256  0.024427094  0.024978929            4 
  469000    1.0711642   -7.6070502    137.33953  0.024402902  0.024959412            3 
  470000    1.0512158   -7.6124712    137.65177  0.024406343  0.024939764            3 
  471000    1.0473912   -7.6303601    137.79185  0.024379309  0.024919965            2 
  472000     1.061707   -7.6508087    137.51494  0.024278767  0.024900319            4 
  473000    1.0553147   -7.6235966    137.86582  0.024289257  0.024880772            4 
  474000    1.0690666   -7.5885312    138.58869    0.0243651  0.024861623            3 
  475000    1.0720957   -7.5684335     138.4407  0.024287842  0.024842648            3 
  476000    1.0489384   -7.6174734    138.43858  0.024236446  0.024823125            1 
  477000    1.0532946   -7.5535036    139.41693  0.024356556  0.024804312            1 
  478000    1.0355909   -7.5985537    139.52442  0.024324342  0.024785511            4 
  479000    1.0513204   -7.5935657    139.42992  0.024257119  0.024766821            1 
  480000     1.040956   -7.5958991    139.42765   0.02420619  0.024747932            3 
  481000    1.0604961   -7.6141092    139.94352  0.024245238  0.024728516            1 
  482000    1.0659313   -7.6378262    140.03091  0.024210047  0.024709072            2 
  483000    1.0607374   -7.5993232    140.38196   0.02422049    0.0246902            4 
  484000    1.0563234   -7.6515595    140.34744  0.024164504  0.024671532            1 
  485000    1.0298011   -7.5762201    140.94522  0.024217391  0.024652452            3 
  486000     1.064221   -7.6317445    140.68111  0.024122276  0.024633654            2 
  487000    1.0887772    -7.620732    140.92428  0.024114353  0.024615271            1 
  488000    1.0466948   -7.6195301    141.28046  0.024125761  0.024596871            4 
  489000    1.0517525   -7.6083346    141.60713  0.024132094  0.024578349            1 
  490000    1.0754015   -7.6032546    141.99184  0.024148271  0.024560105            1 
  491000    1.0454731   -7.6418246    142.15711   0.02412714  0.024542031            4 
  492000    1.0402973    -7.596675    142.75127  0.024178738  0.024523891            2 
  493000     1.041161   -7.5974083    142.31628  0.024056166  0.024505752            1 
  494000    1.0729676   -7.5882917    142.87014    0.0241009  0.024488021            1 
  495000    1.0755722   -7.6327135    142.57787  0.024003009  0.024470066            3 
  496000     1.074755   -7.5783571    143.24658  0.024066966  0.024451973            3 
  497000    1.0515868   -7.6340714     143.1645  0.024004779  0.024434263            2 
  498000    1.0572241   -7.5937242    144.19256  0.024128608  0.024416803            2 
  499000    1.0451214   -7.6620114    143.68039  0.023994722  0.024399464            2 
  500000    1.0658631   -7.6255616    144.19281  0.024032135  0.024381671            2 
  501000    1.0574762   -7.6477203    144.31891  0.024005141  0.024363845            2 
  502000    1.0629096   -7.6393933    144.21624  0.023940279  0.024346229            2 
  503000    1.0688609   -7.5823659    145.06692  0.024033618  0.024328698            1 
  504000    1.0720019   -7.6521803    144.74389  0.023932521  0.024311335            5 
  505000    1.0140717    -7.607706    145.43106  0.023998524  0.024294111            1 
  506000    1.0624774    -7.602887    145.66054   0.02398889  0.024277401            1 
  507000    1.0450354   -7.5825093    145.79242  0.023963251  0.024260646            4 
  508000    1.0571499   -7.6219524    146.07109  0.023961793  0.024244223            2 
  509000    1.0343677   -7.6186471    145.77785  0.023866708  0.024227002            2 
  510000    1.0322276   -7.6621847    145.73605   0.02381308  0.024209689            4 
  511000    1.0835007   -7.6784017    145.87903  0.023789796  0.024192295            2 
  512000    1.0579367   -7.5870973    146.99583  0.023925102  0.024175076            2 
  513000    1.0335735   -7.6437161    146.81377  0.023848891  0.024158243            2 
  514000     1.011006   -7.6742109    146.82224  0.023803865  0.024141448            2 
  515000    1.0493137   -7.6571797    147.44744  0.023858809  0.024124538            4 
  516000    1.0376102   -7.6084132    148.00125  0.023902011  0.024107764            2 
  517000    1.0661788   -7.6542277    148.21161  0.023889685  0.024091281            2 
  518000    1.0584188   -7.6563893    147.91388  0.023795669  0.024074314            2 
  519000    1.0282206   -7.6598184    147.82118  0.023734936  0.024057228            1 
  520000    1.0432177   -7.6241261    148.25746  0.023759208  0.024040629            1 
  521000    1.0488426   -7.6369848    148.52255  0.023756005  0.024024004            2 
  522000    1.0563053   -7.6634062    148.40259  0.023691346  0.024007319            1 
  523000    1.0421456   -7.7047255    148.65043  0.023685536  0.023990037            1 
  524000    1.0472293   -7.6571988    148.61502  0.023634704  0.023973024            2 
  525000    1.0384523   -7.6004462    149.34157   0.02370501  0.023956247            1 
  526000    1.0369642   -7.6721268    149.09377  0.023620686  0.023939748            3 
  527000    1.0479439   -7.6430851    149.58101  0.023652911  0.023922902            2 
  528000    1.0450042   -7.6600576    150.21168  0.023707652  0.023906227            1 
  529000     1.050036   -7.6584234     149.6436  0.023573346   0.02388957            4 
  530000    1.0367199   -7.6400345    150.33709  0.023637906   0.02387305            2 
  531000    1.0506643   -7.6332382    150.28857  0.023585777  0.023856579            3 
  532000    1.0579651   -7.6620283    150.64039  0.023596552  0.023840359            2 
  533000    1.0348018   -7.6473592    150.71328  0.023563678   0.02382401            3 
  534000    1.0567087   -7.6401857    151.20886  0.023596888  0.023807589            2 
  535000    1.0221891   -7.6675024    151.17225  0.023547079  0.023791332            1 
  536000    1.0075266   -7.6855952    150.91487  0.023463132  0.023774839            3 
  537000    1.0313656   -7.6880991    151.30842  0.023480512  0.023758132            2 
  538000    1.0417774   -7.6855594    151.66328  0.023491834  0.023741484            1 
  539000    1.0379463    -7.655295    152.09487  0.023514978  0.023725248            2 
  540000    1.0345195   -7.6340307     152.4614  0.023527993  0.023709158            3 
  541000    1.0579261   -7.6600627    152.58947  0.023504231  0.023692956            2 
  542000    1.0296996    -7.728696    151.93311   0.02335995  0.023676601            7 
  543000    1.0320748   -7.6876138    152.56022  0.023413171  0.023660189            2 
  544000    1.0685878    -7.712914    152.41475  0.023347848  0.023644173            2 
  545000    1.0381506   -7.6636854    153.14741  0.023417035  0.023628112            2 
  546000     1.042861   -7.7073052    153.10577  0.023367791  0.023611718            1 
  547000    1.0318238   -7.6976445    153.35543  0.023363106  0.023595618            2 
  548000    1.0386422   -7.6579928    154.40108  0.023479483  0.023579746            3 
  549000    1.0247774   -7.7047767     153.7303  0.023334897  0.023564304            2 
  550000    1.0556536   -7.6482702     154.2014  0.023363849  0.023548452            2 
  551000    1.0207543   -7.6986079    154.56766  0.023376839  0.023532681            2 
  552000    1.0383296   -7.6938578     154.4753  0.023320546  0.023517069            1 
  553000    1.0158232   -7.6898345    154.64225  0.023303533  0.023501322            2 
  554000    1.0477243   -7.6588444    155.19596   0.02334476   0.02348552            2 
  555000    1.0325293   -7.6798262    155.92068  0.023411514  0.023469582            2 
  556000    1.0193377   -7.6849168    155.44785  0.023298538  0.023453926            3 
  557000    1.0381447   -7.6746021     155.6926  0.023293328  0.023437847            2 
  558000    1.0322283   -7.6995558     155.7082  0.023253913  0.023421694            4 
  559000    1.0079531   -7.6812739    155.32487  0.023155169  0.023405603            3 
  560000    1.0180707   -7.6708484    156.71179  0.023320207  0.023389734            1 
  561000    1.0344693   -7.7089768    156.75697  0.023285349  0.023374186            3 
  562000    1.0214743   -7.6706092    156.50797  0.023206995  0.023358258            4 
  563000    1.0305557   -7.7079367    156.66502   0.02318902  0.023342313            2 
  564000    1.0237856   -7.6983517     156.9027  0.023183022  0.023326335            3 
  565000    1.0494582   -7.6758902    157.15977  0.023179908  0.023310277            7 
  566000     1.019291   -7.6956316    156.95696  0.023109093  0.023294476            3 
  567000    1.0269415   -7.7448896    156.83125  0.023049861  0.023278577            3 
  568000    1.0404588   -7.7035822    158.07758  0.023192132  0.023263099            5 
  569000    1.0348206   -7.6823438    157.60917  0.023082772  0.023247928            3 
  570000    1.0372896   -7.6901398     158.6417  0.023193231  0.023232845            2 
  571000    1.0268858   -7.6720031     158.4989  0.023131771  0.023217915            1 
  572000    1.0273714   -7.7211289    158.53123  0.023096041  0.023202701            4 
  573000    1.0337123   -7.6803549    159.06092  0.023132769  0.023187316            1 
  574000    1.0254068   -7.7146454    158.64382  0.023031914  0.023171919            9 
  575000    1.0233002   -7.7135254    158.56693  0.022980714  0.023156358            2 
  576000    1.0366986   -7.6676717    159.07674  0.023014575  0.023140981            3 
  577000    1.0307726   -7.7274942    159.22849  0.022996604  0.023125794            3 
  578000     1.036723   -7.7230454    159.89331  0.023052668  0.023110436            4 
  579000    1.0125254   -7.6907062    159.61488  0.022972781  0.023094805            4 
  580000    1.0460998   -7.7406144    159.91179  0.022975831  0.023079251            2 
  581000    1.0135147    -7.713097    160.16123  0.022972064  0.023063812            3 
  582000     1.031281   -7.7258011     159.8978  0.022894873  0.023048306            2 
  583000    1.0320754   -7.7041318    160.24077  0.022904626  0.023033138            1 
  584000    1.0253667    -7.683689    160.95028  0.022966649  0.023018205            1 
  585000    1.0262438    -7.711509     160.6543  0.022885227   0.02300315            3 
  586000    1.0207134   -7.7314372    160.79321  0.022865928  0.022988004            3 
  587000     1.027352   -7.7141599    161.23227  0.022889306  0.022972603            2 
  588000    1.0161881   -7.7007683    161.58604  0.022900516  0.022957471            3 
  589000    1.0031842   -7.6779183    161.57256  0.022859728  0.022942621            2 
  590000    1.0221244   -7.7006561    161.59216  0.022823751  0.022927935            2 
  591000    1.0182266   -7.7025882    162.10502  0.022857447  0.022913124            4 
  592000    1.0236894   -7.7033392    162.41929  0.022863076  0.022898447            1 
  593000    1.0398291    -7.672613    162.62399  0.022853287  0.022883632            1 
  594000    1.0119672   -7.6812288    162.59591  0.022810874  0.022868995            2 
  595000    1.0041937   -7.7061767    162.85567  0.022808918  0.022854131            5 
  596000    1.0007261   -7.7366869    163.36573  0.022841964  0.022839394            3 
  597000    1.0158507   -7.7185743    163.29123  0.022793304  0.022825016            4 
  598000    1.0006792   -7.7305011    163.44404  0.022776483  0.022810436            4 
  599000    1.0197429   -7.7139658    163.58799  0.022758485  0.022795758            1 
  600000   0.99038504   -7.7400753    163.56532  0.022717406  0.022780948            1 
  601000    1.0043508   -7.7087018    164.40807  0.022796461  0.022766263            2 
  602000    1.0137948   -7.7114641    164.37914  0.022754588  0.022751748            8 
  603000    1.0063838   -7.7406299    164.18859  0.022690518  0.022737406            3 
  604000    1.0103885   -7.7169308    164.70629  0.022724378  0.022722962            2 
  605000    1.0085371   -7.7100611    165.01552  0.022729411   0.02270877            4 
  606000    1.0561892   -7.7306075    165.32052  0.022733845  0.022694661            2 
  607000    1.0245757   -7.7703065    165.03949   0.02265781  0.022680109            3 
  608000    1.0016178   -7.7422105    165.29676  0.022655807  0.022665324            2 
  609000    1.0000408   -7.7151927    165.44068  0.022638298  0.022650613            2 
  610000    1.0107202   -7.7672907    165.10066  0.022554735  0.022635887            4 
  611000    1.0146229   -7.7055657    165.62977  0.022589984  0.022621183            3 
  612000    1.0169244   -7.7255399    166.10873  0.022618291  0.022606673            3 
  613000    1.0033042   -7.7474457    165.59846  0.022512025  0.022592008            1 
  614000    1.0134959   -7.7195462    166.16288  0.022551966  0.022577295            6 
  615000   0.99573824   -7.7297461    166.37091  0.022543484  0.022562799            2 
  616000    1.0075302   -7.7512924    166.10646  0.022471112  0.022548081            2 
  617000    1.0129637   -7.7266552    166.36221  0.022469234    0.0225332            2 
  618000   0.99437684   -7.7701228    166.41434  0.022439905  0.022518176            2 
  619000    1.0044032    -7.777699    166.33519  0.022392998  0.022503227            2 
  620000    1.0130566   -7.7057481    167.42834  0.022503809  0.022488439            5 
  621000    1.0003846   -7.7510053    166.91771  0.022399048  0.022473903            2 
  622000    1.0062008   -7.7710657    167.17704  0.022397782   0.02245927            2 
  623000   0.99123574   -7.7756278    167.05955  0.022346115  0.022444572            3 
  624000   0.97966713   -7.7430649    167.74093  0.022401299  0.022429907            3 
  625000    1.0040633   -7.7645412    168.05005  0.022406673  0.022415314            4 
  626000    1.0133982   -7.7557798    167.77983  0.022334908  0.022400825            3 
  627000    1.0168722   -7.7606444    168.41441  0.022383626  0.022386473            2 
  628000   0.99212076   -7.7674211    168.39152  0.022344947   0.02237179            1 
  629000   0.98264138   -7.7702933    168.49817  0.022323552  0.022357172            2 
  630000   0.99077214   -7.7492899    169.07941  0.022365001  0.022342837            1 
  631000    1.0097568   -7.7341379    169.46768  0.022380834  0.022328463            2 
  632000    1.0104488   -7.7121641    169.15625  0.022304358  0.022314379            1 
  633000   0.98852292   -7.7606165    168.97561  0.022245341  0.022299736            3 
  634000    1.0180776    -7.768772    169.04792  0.022219758  0.022285176            4 
  635000    1.0141593   -7.7543386    169.95366  0.022303629  0.022270506            4 
  636000    1.0131181     -7.80666    169.59794  0.022221953  0.022256072            1 
  637000     1.022426   -7.7884322    170.44642  0.022298066  0.022241755            1 
  638000    1.0027274   -7.7622853    170.23209  0.022235121  0.022227591            3 
  639000   0.99457666   -7.7742757    170.95854  0.022295062  0.022213479            2 
  640000   0.98897655   -7.7629626    170.48617   0.02219872  0.022199396            2 
  641000   0.97882068   -7.8082829    170.39397  0.022152103   0.02218505           10 
  642000   0.97860685   -7.8044041    170.60562  0.022145071  0.022170467            1 
  643000   0.97965756   -7.8071133    171.08131   0.02217228  0.022156002            1 
  644000   0.99625261   -7.7909722    170.99292  0.022126413  0.022141551            2 
  645000   0.98859407    -7.783504    171.45535  0.022151854   0.02212757            1 
  646000    1.0051255   -7.8098976    171.47904   0.02212062   0.02211315            2 
  647000   0.99166548    -7.810537    171.39809  0.022076003  0.022098934            1 
  648000    1.0067518   -7.7960366    171.82238    0.0220965  0.022084285            4 
  649000   0.99683459   -7.7522564     172.0889  0.022096675  0.022069943            3 
  650000    1.0101304   -7.8071242    171.93797   0.02204333  0.022055435            3 
  651000   0.98183127   -7.7861232    171.80565  0.021992531  0.022040635            2 
  652000   0.98459272   -7.7867102    172.28743  0.022020377  0.022025658            2 
  653000   0.97514139   -7.7889211    171.86388  0.021932603  0.022010783            2 
  654000   0.99069679    -7.807868    171.90055   0.02190374  0.021995625            2 
  655000   0.99485748   -7.7985678    172.20854  0.021909484  0.021980775            4 
  656000   0.99627612   -7.8011002    172.31837  0.021890037  0.021965853            3 
  657000    0.9982303   -7.7833013     172.7066  0.021905962  0.021950727            2 
  658000    1.0012633   -7.8206268     172.2755  0.021818073  0.021935535            5 
  659000    1.0039003   -7.7785278    172.37496  0.021797541  0.021919953            4 
  660000   0.99149601   -7.8198601    172.65826  0.021800286   0.02190456            1 
  661000   0.98944167   -7.7900007    172.99081  0.021809229  0.021889293            3 
  662000   0.98465327   -7.8050927    173.59292   0.02185208  0.021874187            2 
  663000   0.98585859   -7.8044044    173.12787  0.021760668  0.021859247            2 
  664000   0.96806911   -7.8254225    173.61595  0.021789151  0.021844265            1 
  665000   0.98132826   -7.8377672    173.54992  0.021748111  0.021829047            3 
  666000   0.98758914   -7.8091241    173.39168  0.021695655   0.02181377            5 
  667000   0.97708566   -7.7745157    174.26088  0.021771724  0.021798495            2 
  668000   0.99866964   -7.7898536    174.31562   0.02174596  0.021783612            1 
  669000    0.9962958   -7.7966409    174.28057  0.021709089  0.021768558            2 
  670000   0.96962451   -7.8396865     174.7815  0.021738992  0.021753377            1 
  671000   0.99730832   -7.7876536    174.60378  0.021684523  0.021738449            2 
  672000   0.97967465    -7.813413    174.33713  0.021619188  0.021723533            4 
  673000   0.97376808   -7.8110588    174.61809  0.021621854  0.021708454            3 
  674000   0.97612475   -7.8321871     174.7051  0.021600531  0.021693053            2 
  675000   0.99341615   -7.8177143     174.8915  0.021591544  0.021677659            5 
  676000    1.0092507   -7.8108812    175.32367  0.021612879  0.021662324            4 
  677000   0.97940635   -7.7992093    175.06305  0.021548874  0.021646706            2 
  678000   0.98629258   -7.7759623    175.44901  0.021564529  0.021631295            3 
  679000   0.96420394   -7.8395944    175.24651  0.021507917  0.021615803            2 
  680000    0.9876463   -7.8135362    175.93077  0.021560143  0.021600325            3 
  681000   0.96401383   -7.7969003    175.69258  0.021499337   0.02158503            1 
  682000   0.99162257   -7.8115127    175.99188  0.021504384  0.021569552            3 
  683000   0.99873079   -7.8148729    176.30271  0.021510823  0.021554359            1 
  684000   0.95891246   -7.8351791    176.18587  0.021465141  0.021539078            2 
  685000   0.99257646   -7.8205709    176.39663  0.021459444  0.021523573            5 
  686000    0.9546277   -7.8366771    176.42794  0.021431965  0.021508362            6 
  687000   0.99193061   -7.8456658    176.80833   0.02144691  0.021492972            2 
  688000   0.97935504   -7.8318679    176.30876  0.021355228  0.021477602            3 
  689000   0.98415615   -7.8448701    176.49507  0.021346767  0.021462231            4 
  690000   0.98938076   -7.8107057    177.07132  0.021385425   0.02144737            1 
  691000   0.98389737   -7.7923803    177.84108  0.021447308  0.021432684            3 
  692000   0.96460545   -7.8276419    177.26832  0.021347341  0.021417636            3 
  693000   0.97368696   -7.7799396    177.81342  0.021382085  0.021402681            3 
  694000   0.98583971   -7.7957322    178.25472  0.021404265   0.02138768            1 
  695000   0.97938676   -7.8044546    177.85414  0.021325436  0.021372613            3 
  696000   0.95955306   -7.8009917    177.87819  0.021297676  0.021357652            2 
  697000   0.99728254   -7.8389434    178.52414   0.02134435  0.021342728            5 
  698000   0.96716405   -7.8664369    178.10751  0.021264029  0.021327761            4 
  699000   0.95884334   -7.8171601    178.73709  0.021308666  0.021312963            1 
  700000   0.96486891   -7.8342871    178.82705  0.021288935  0.021298319            1 
  701000    0.9696226   -7.8002572    179.38119   0.02132444  0.021283707            4 
  702000    1.0047826   -7.8409269    179.00835  0.021249804  0.021269133            4 
  703000   0.97838495   -7.8664183    179.09329  0.021229645  0.021254193            2 
  704000    0.9523733   -7.8356805     179.5206  0.021250071  0.021239398            3 
  705000   0.97638941   -7.8633754    179.62462  0.021232225  0.021224793            7 
  706000   0.98593909   -7.8491429      179.808  0.021223796  0.021210105            1 
  707000   0.94745263   -7.8715943    179.32355  0.021136675  0.021195272            3 
  708000   0.96499473   -7.8404266     180.3729  0.021230332  0.021180535            2 
  709000   0.97099208   -7.8424566    180.52648  0.021218439  0.021165819            3 
  710000   0.96874435     -7.86217     179.8603  0.021110364  0.021150985            3 
  711000   0.97219277    -7.830866    180.22208  0.021123076  0.021136065            2 
  712000   0.97169791   -7.8354252    180.21273  0.021092314  0.021121534            4 
  713000   0.96940377   -7.8555685    180.86874  0.021139404  0.021106751            9 
  714000   0.97806364   -7.8895571    180.65749  0.021085141  0.021091972            2 
  715000   0.98750047   -7.8785616    180.90475  0.021084469  0.021077126            4 
  716000   0.95860084   -7.9004912    180.61817  0.021021668   0.02106222            4 
  717000   0.97248119   -7.8370297    180.70053  0.021001921  0.021047391            3 
  718000   0.97073951   -7.8259179    181.42904  0.021057224   0.02103282            4 
  719000   0.95547245   -7.8663084    181.48553  0.021034484  0.021018183            5 
  720000   0.94592913   -7.8953455    180.77671  0.020923231  0.021002984            3 
  721000   0.94522472   -7.8837187    180.98429  0.020918203  0.020987825            9 
  722000   0.97451978   -7.8675628    181.49661  0.020948362  0.020972706            2 
  723000   0.98333047   -7.8778238    181.68547  0.020941156  0.020957602            1 
  724000   0.94907787   -7.8797696       181.39  0.020878223  0.020942549            5 
  725000   0.97228129   -7.8467402    181.57642  0.020870853  0.020927571            2 
  726000   0.97207523   -7.9067503    181.77381  0.020864763  0.020912747            6 
  727000   0.96832092    -7.868612    182.26491  0.020892356  0.020897932            5 
  728000   0.95558485   -7.8431561    182.60829  0.020902963  0.020883195            1 
  729000   0.97400301   -7.8900652    181.94705  0.020798703  0.020868278            4 
  730000   0.96426236   -7.9006664    182.20982  0.020800208  0.020853468            8 
  731000   0.94384604   -7.8874356    182.80764  0.020839904  0.020838659            4 
  732000   0.96996193   -7.8951792    182.46028   0.02077189  0.020823783            1 
  733000   0.94837545   -7.9200756    182.94977    0.0207992  0.020808988            2 
  734000   0.96633489   -7.8730695    182.80468  0.020754391  0.020794157            2 
  735000   0.95378617   -7.8823092    183.33234  0.020785979  0.020779234            3 
  736000    0.9583729   -7.8929743    183.16267  0.020738527  0.020764446            2 
  737000   0.95979307   -7.8707784    184.05112  0.020810846  0.020749832            3 
  738000   0.95138699   -7.8645613    183.67289  0.020739938  0.020735097            3 
  739000    0.9654487   -7.9103469    183.42037  0.020683397  0.020720332            4 
  740000   0.96686082   -7.8615881    183.95579  0.020715742  0.020705734            2 
  741000   0.98211309   -7.9075787    183.88323  0.020679625  0.020691003            1 
  742000   0.95814122   -7.8970752    184.65479  0.020738409  0.020676158            4 
  743000   0.94650015   -7.8854588    183.60097  0.020592302  0.020661258            2 
  744000   0.95264886   -7.8844362    183.93323   0.02060184  0.020646379            4 
  745000   0.97097958   -7.9150926     184.2955  0.020614709  0.020631527            5 
  746000   0.95176698   -7.8872128    184.83631  0.020647487  0.020616856            5 
  747000   0.94775496   -7.8621167    185.21149  0.020661701  0.020602187            6 
  748000   0.92680899   -7.8964294    184.64311  0.020570757  0.020587536            5 
  749000   0.97606079   -7.8910996     184.7121  0.020550968  0.020572607            3 
  750000   0.95899569   -7.9013372    184.92977  0.020547753  0.020557631            3 
  751000   0.95540857   -7.8706106    185.03579  0.020532156  0.020542675            2 
  752000   0.95426052   -7.8793381     184.9994   0.02050082  0.020527831            4 
  753000   0.95856738   -7.8649736    185.90169  0.020573449  0.020513039            3 
  754000   0.95098809   -7.9014128    185.52997  0.020505081   0.02049824            2 
  755000   0.93690545   -7.9120644    185.54763   0.02047987  0.020483511            2 
  756000   0.94974458   -7.8745761      185.643  0.020463294    0.0204688            6 
  757000   0.94983225   -7.8596351    185.73823  0.020446745  0.020454205            3 
  758000   0.96814871   -7.8701152    186.41288  0.020493941  0.020439479            7 
  759000      0.96467    -7.866568    186.24847  0.020448888  0.020424874            2 
  760000   0.95255598    -7.878551    185.75387  0.020367749  0.020410368            2 
  761000   0.94619369   -7.8838211    186.70045  0.020444639  0.020395622            4 
  762000    0.9101584   -7.8715819    186.18042  0.020360938  0.020380848            2 
  763000   0.95660258   -7.8949127    186.35078  0.020352859  0.020365991            1 
  764000   0.97185079   -7.9531996    186.55267   0.02034824  0.020351051            8 
  765000    0.9405477   -7.9373784    186.47948  0.020313669  0.020335985            2 
  766000    0.9450942   -7.9398746     187.0689  0.020351273   0.02032101            2 
  767000   0.94396047   -7.8872305    187.15467  0.020334058  0.020306142            4 
  768000   0.93145058   -7.9014002    187.25034  0.020317962  0.020291596            6 
  769000    0.9361174   -7.9127114    186.99151  0.020263493  0.020277046            8 
  770000   0.93436841   -7.9515421    186.84788  0.020221632  0.020262387            5 
  771000   0.93923522   -7.9563901    186.80318  0.020190573  0.020247376            5 
  772000   0.93181731   -7.9287262    186.84527  0.020168963  0.020232488            8 
  773000   0.97479158   -7.9481983    187.38562  0.020201123  0.020217549            4 
  774000    0.9310815   -7.9377641    187.45469   0.02018246  0.020202696            3 
  775000   0.94346714   -7.8958535    188.17834  0.020234231  0.020187846            3 
  776000    0.9585817   -7.9270312    187.66398  0.020152919  0.020173119            3 
  777000   0.93596813   -7.8962796    187.97712  0.020160566  0.020158388            1 
  778000   0.96264701   -7.9141495    188.39469   0.02017938  0.020143828            1 
  779000   0.93734394   -7.8967761    188.57418  0.020172677   0.02012911            3 
  780000   0.92618422   -7.9473887    188.39199  0.020127349  0.020114429            2 
  781000   0.95679156   -7.9282923    188.15132  0.020075899  0.020099706            3 
  782000   0.95754655   -7.9095027    188.99098  0.020139704  0.020085017            3 
  783000    0.9118316   -7.9514169    188.02583  0.020011263   0.02007008            3 
  784000   0.95095135    -7.947599     188.7094  0.020058397  0.020055016            2 
  785000   0.95372257   -7.9562322    188.80123  0.020042594  0.020039921            4 
  786000   0.91350278    -7.957756    188.48675  0.019983752   0.02002483            9 
  787000   0.95324201   -7.9473228    188.62745  0.019973258  0.020009664            2 
  788000   0.94370657   -7.9043819    189.05701  0.019993339  0.019994741            6 
  789000   0.93095251   -7.9043234    189.34106  0.019997999  0.019979604            4 
  790000   0.94444343   -7.9206289    188.40871  0.019874337  0.019964517            3 
  791000   0.91034412    -7.918622    188.74358   0.01988449  0.019949374            5 
  792000   0.92781625    -7.925234    189.06395  0.019893093  0.019934096            5 
  793000   0.92587767   -7.9097074    189.19875  0.019882172  0.019918571            3 
  794000   0.93630403   -7.9635463    188.88355   0.01982405  0.019902939            2 
  795000   0.93712092   -7.9686087    188.74457  0.019784546  0.019887348            2 
  796000   0.92373368   -7.9536485    188.91434  0.019777465  0.019871816            4 
  797000   0.94150696   -7.9443743    189.90879  0.019856628  0.019856407            5 
  798000   0.92777385   -7.9505772    188.99517  0.019736338  0.019840942            5 
  799000   0.93408843   -7.9614388    189.03639  0.019715936  0.019825531            5 
  800000   0.92420552    -7.939022    189.25383  0.019713941  0.019810223            7 
  801000   0.95147734    -7.936289    189.64607  0.019730137  0.019794794            2 
  802000   0.93909922   -7.9567464    189.27052  0.019666512  0.019779439            3 
  803000   0.92502741   -7.9972798    189.45521  0.019661188  0.019763803            3 
  804000   0.93200049   -7.9917533    189.06421  0.019596208  0.019748105            4 
  805000   0.93071145   -7.9989665    189.70557  0.019638258  0.019732422            3 
  806000   0.94815451   -7.9643257    189.75107  0.019618597  0.019716827            1 
  807000   0.93536862   -7.9535765    190.45133  0.019666598  0.019701348            4 
  808000   0.93935916   -7.9457767    190.24116  0.019620582  0.019686056            2 
  809000   0.93047752   -7.9837489     190.3769  0.019610311  0.019670705            2 
  810000   0.93869816   -7.9273772    190.81758  0.019631438  0.019655643            2 
  811000   0.93373092   -7.9709484    190.24338  0.019548231  0.019640429            2 
  812000   0.91335119   -7.9805361    190.41125  0.019541384  0.019625076            3 
  813000   0.93163444   -7.9804788    190.86392  0.019563747  0.019609794            4 
  814000   0.92548594   -7.9863687    190.88965  0.019542347  0.019594529            3 
  815000   0.95112319   -8.0260162    190.83319  0.019512596  0.019579162            3 
  816000    0.9311175   -7.9710049    191.16645  0.019522718  0.019563728            5 
  817000   0.93743755   -7.9694357    191.20842  0.019503103  0.019548427            2 
  818000   0.91998097    -7.963209    191.94732  0.019554535  0.019533357            2 
  819000   0.92707257   -7.9605908    191.43104  0.019478127  0.019518121            3 
  820000   0.91989178   -7.9716512    191.38604  0.019449801  0.019502729            2 
  821000    0.9312149   -7.9539609    191.95897  0.019484264  0.019487374            2 
  822000   0.90276254    -7.960457    191.29136  0.019392879  0.019472126            3 
  823000   0.92281273    -7.975531    191.54054  0.019394546  0.019456843            4 
  824000   0.89801555   -7.9765854    191.92282   0.01940967  0.019441435            2 
  825000   0.91794111   -7.9559334    192.02027  0.019395987  0.019426169            7 
  826000     0.938694   -7.9987876    191.97989  0.019368431  0.019411011            3 
  827000   0.91023121   -7.9922581    192.32383  0.019379669  0.019395783            3 
  828000   0.91380912   -7.9689489    191.86181  0.019309764  0.019380572            3 
  829000   0.91142147   -7.9653507    192.29618  0.019330134  0.019365418            3 
  830000   0.91068856   -7.9757648      192.505  0.019327811  0.019350235            3 
  831000   0.92639566   -7.9432587    192.68826  0.019322931  0.019335093            2 
  832000    0.9094885   -7.9502952    192.62501   0.01929337   0.01932004            4 
  833000   0.92157911   -7.9822868    192.48333  0.019256035  0.019304756            4 
  834000   0.91328221    -7.970173    192.04428  0.019189077  0.019289463            6 
  835000   0.91355757   -7.9944579    192.53932  0.019215501  0.019274225            4 
  836000   0.92186473   -8.0033538    192.72413  0.019210938  0.019259156            1 
  837000   0.90683209   -7.9660302    192.92582  0.019208067  0.019244173            3 
  838000   0.90904228   -7.9839577    192.90249  0.019182825  0.019229053            3 
  839000    0.9147365   -7.9725476     193.4514  0.019214482  0.019213993            5 
  840000   0.89426327   -7.9800558    193.70454   0.01921672  0.019199094            2 
  841000   0.91999172     -8.01409     193.4153   0.01916521  0.019184122            2 
  842000   0.89680134   -8.0351272    193.25398  0.019126483  0.019169125            5 
  843000   0.93572958   -8.0065671    193.61625  0.019139605  0.019154023            6 
  844000   0.89984937   -7.9904293    193.43671  0.019099201  0.019138964            3 
  845000   0.91712316   -7.9846978    193.92741  0.019124991  0.019123879            2 
  846000   0.92897727   -8.0175793    193.69339  0.019079334  0.019108845            3 
  847000   0.89494402   -8.0212239    194.05358  0.019092245  0.019093797            4 
  848000   0.91703905   -7.9885842    194.28287  0.019092263  0.019079007            4 
  849000   0.90944631   -7.9959119    195.35751  0.019175256  0.019064174            3 
  850000   0.93222903   -8.0262318    194.24112  0.019043247  0.019049473            3 
  851000   0.90278455   -8.0237455    194.79334  0.019074945  0.019034745            8 
  852000   0.91747656   -8.0360633    194.21502  0.018995991  0.019019949            6 
  853000   0.93773628   -8.0137174    194.68504   0.01901964  0.019004981            6 
  854000    0.8850764   -8.0371924    194.35311  0.018964979  0.018990053            3 
  855000   0.90992106   -8.0278338    194.84075  0.018990327  0.018975242            5 
  856000   0.91725892   -7.9964959    194.78358  0.018962576  0.018960524            5 
  857000   0.91752077   -8.0107635    195.27335  0.018988073  0.018945914           12 
  858000   0.91709567   -8.0194809    194.96211  0.018935714  0.018931242            3 
  859000    0.9072361   -7.9656495    196.57221  0.019069869  0.018916758            2 
  860000   0.87591918   -8.0276771    195.52525  0.018946245  0.018902216            4 
  861000   0.90568102    -7.986077    195.57418  0.018928976  0.018887591            2 
  862000   0.88901318   -8.0387315    195.66089  0.018915399  0.018872908            3 
  863000   0.90764997   -8.0550873    195.50292  0.018878228  0.018858181            5 
  864000   0.92072781   -8.0468635    195.15954  0.018823258  0.018843217            2 
  865000    0.9162107   -8.0041408    195.44403  0.018828905  0.018828401            3 
  866000   0.91884302   -7.9893126    195.44621  0.018807372  0.018813743            2 
  867000    0.8889642   -8.0080169    196.20136  0.018858262  0.018799068            2 
  868000   0.90475719   -8.0637911      195.587  0.018777553  0.018784325            4 
  869000   0.91091372   -8.0426183    196.09469   0.01880463  0.018769508            2 
  870000   0.90634366   -8.0491832    196.29282  0.018801995  0.018754657            2 
  871000    0.9018481   -8.0423372     195.8406  0.018737141  0.018739927            4 
  872000   0.91529413   -8.0613474    196.59965  0.018788193   0.01872529            7 
  873000   0.88872963   -8.0621811    196.70409  0.018776641  0.018710457            4 
  874000   0.89833752    -8.052777    196.18664   0.01870582  0.018695677            3 
  875000   0.88866183   -8.0485116    196.69479  0.018732837  0.018681072            5 
  876000   0.91072381   -8.0014716    197.22111  0.018761522  0.018666366            1 
  877000   0.90268826   -7.9802286    196.80269   0.01870037   0.01865171            2 
  878000    0.8898537   -8.0417612    196.81972  0.018680687  0.018636936            2 
  879000   0.90140308   -8.0505879    196.44805  0.018624199  0.018622092            4 
  880000   0.90394131   -8.0737255    196.40261  0.018598732  0.018607056            3 
  881000   0.89964602    -8.068287    196.64124  0.018600193  0.018592014            9 
  882000   0.90644199   -8.0294866    197.07708  0.018620283  0.018577116            5 
  883000   0.88289221   -8.0895728    196.94321  0.018586562  0.018562209            3 
  884000   0.90664646   -8.0377481    197.65541  0.018632674  0.018547414            3 
  885000   0.88999365   -8.0735024    197.18252  0.018567092  0.018532621            5 
  886000   0.92422771   -8.0487277    197.26371  0.018553772  0.018517872            6 
  887000   0.89608714   -8.0453702    196.75947  0.018485482  0.018503025            9 
  888000    0.9090245   -8.0353842    197.74668  0.018557309  0.018488259            3 
  889000   0.92427459   -8.0631315    196.96565  0.018463222  0.018473422            2 
  890000    0.8876516   -8.0416343     197.2065  0.018465028  0.018458539            1 
  891000   0.89458872   -8.0944466    197.47676  0.018469581  0.018443578            4 
  892000   0.91866407   -8.0528209    197.32831  0.018435007  0.018428625            2 
  893000   0.89407001   -8.1041978     197.3483  0.018416228  0.018413718            3 
  894000   0.90265218   -8.0524773    197.70567   0.01842894  0.018398922            3 
  895000   0.89688186   -8.0287836    198.04491  0.018439935  0.018384065            2 
  896000   0.92525918   -8.0248594    198.00754   0.01841588  0.018369343            2 
  897000   0.88553885   -8.0604602    197.98939  0.018393663  0.018354699            2 
  898000   0.88859814   -8.0726287    197.95531  0.018370018  0.018340054            2 
  899000   0.89314476   -8.0756874    198.03543  0.018357011  0.018325324            2 
  900000   0.90906133   -8.1174041    197.86594   0.01832092  0.018310399            4 
  901000   0.90118603   -8.0646717    198.14371  0.018326278  0.018295664            4 
  902000   0.88497226   -8.0648241    198.46561    0.0183357  0.018281086            4 
  903000   0.90194971   -8.0904442    197.81809  0.018255637  0.018266526            3 
  904000   0.89709105   -8.0690599    199.01332  0.018345624  0.018251913            4 
  905000   0.90259109   -8.0892378    198.88127  0.018313192  0.018237263            4 
  906000    0.8760505   -8.0801444    198.35437  0.018244515  0.018222668            5 
  907000   0.88984389   -8.0740123    198.75325  0.018261048  0.018208082            8 
  908000   0.89188318   -8.0691763    198.74764  0.018240422  0.018193516            3 
  909000   0.87660188    -8.076664    198.72172  0.018217979  0.018178782            4 
  910000   0.89998709   -8.0679728    199.39316  0.018259447  0.018164323            4 
  911000   0.88835223    -8.047118    199.46056  0.018245569   0.01814981            2 
  912000   0.88555944   -8.0781826    199.22093  0.018203667  0.018135194            6 
  913000   0.87903483   -8.0811465    198.86088  0.018150865  0.018120579            2 
  914000   0.89124616   -8.0601567    199.19522   0.01816149  0.018105979            4 
  915000   0.89241275   -8.0549985    199.68599  0.018186338  0.018091497            4 
  916000   0.88419476   -8.0974879    199.00578  0.018104602  0.018076908            3 
  917000   0.88604005   -8.0906415    199.32061  0.018113469  0.018062176            2 
  918000   0.87672871    -8.117969    199.07167   0.01807114  0.018047484            3 
  919000   0.88227947   -8.0982048    199.28989  0.018071263  0.018032823            4 
  920000    0.9000508   -8.1121824    199.23095  0.018046282  0.018017991            7 
  921000   0.88921317   -8.0782533    199.62801  0.018062614  0.018003296            2 
  922000   0.88275737   -8.1034963    199.83319  0.018061569  0.017988653            2 
  923000    0.8707068    -8.077334    199.93468  0.018051163  0.017974127            3 
  924000   0.88689165   -8.0541107    200.41476  0.018074924  0.017959682            4 
  925000   0.87170727   -8.1078184    199.60421  0.017982361  0.017945204            5 
  926000   0.88860166   -8.0901927     200.1936  0.018015983  0.017930673            2 
  927000   0.87856035   -8.0890586    200.28569  0.018004826  0.017916215            3 
  928000   0.88762853   -8.0926512    200.39713  0.017995432   0.01790175            3 
  929000    0.8726863   -8.0771086    200.60042  0.017994296  0.017887363            4 
  930000   0.89392228   -8.1017381    200.88066  0.018000059  0.017873031            4 
  931000    0.8897058   -8.0909347    200.74095   0.01796822  0.017858754            2 
  932000   0.88451568   -8.0582336    200.80773  0.017954911  0.017844378            7 
  933000   0.87037282   -8.0865879    201.39813    0.0179884  0.017829993            6 
  934000     0.881208   -8.1138518    200.83158  0.017918592   0.01781567            5 
  935000   0.86578505    -8.083825    201.33939  0.017944688  0.017801341            4 
  936000   0.86134556   -8.1124465    201.35416  0.017926831  0.017787097            2 
  937000   0.87393976   -8.0879206    200.96819  0.017873372  0.017772873            3 
  938000   0.87158235   -8.1091631    201.34236  0.017887558  0.017758632            3 
  939000   0.86193484   -8.1149894    200.93513  0.017832368  0.017744337            5 
  940000   0.86784829   -8.1043485    200.89824  0.017810128  0.017729993            3 
  941000   0.88123054   -8.0807354    201.57624  0.017851243  0.017715767            9 
  942000   0.89066329    -8.102144    201.19141  0.017798249  0.017701452            5 
  943000   0.89571254   -8.1045845    201.72831  0.017826821   0.01768709            6 
  944000   0.85393034   -8.0925812    201.59342  0.017796029  0.017672779            2 
  945000   0.89500834    -8.071988    201.48318  0.017767476  0.017658495            4 
  946000   0.87816055   -8.1087797    201.40407  0.017741725  0.017644117            3 
  947000   0.85706847   -8.1245201    201.67189  0.017746558  0.017629671            4 
  948000   0.87247192   -8.1121954    201.39931  0.017703878  0.017615262            3 
  949000   0.86099491   -8.1006152      201.849   0.01772471  0.017600848            2 
  950000   0.87890973   -8.1162117    200.84614  0.017618082  0.017586384            7 
  951000    0.8740044   -8.1614615    201.45793  0.017653166  0.017571798            3 
  952000   0.87912944   -8.1181958    201.44691  0.017633658  0.017557223            4 
  953000   0.87410447   -8.1424928    201.53668  0.017623005  0.017542717            2 
  954000   0.86266249   -8.1148356    201.92833  0.017638743  0.017528275            3 
  955000   0.89115318   -8.1086217    201.95605  0.017622692  0.017513916            3 
  956000   0.86826879   -8.1125433    201.64658  0.017577282  0.017499656            5 
  957000   0.87759727   -8.1285293    202.43885  0.017627904  0.017485584            5 
  958000   0.87145963    -8.110643    202.41822  0.017607708  0.017471488            4 
  959000   0.88513443   -8.1232619    202.33324  0.017581964  0.017457384            3 
  960000   0.86864813    -8.139987    202.32894  0.017563276  0.017443203            2 
  961000   0.87960947   -8.1427433    202.28586  0.017541264  0.017429067            2 
  962000   0.86604187   -8.1312432    202.68825  0.017557887  0.017414867            1 
  963000   0.89261194   -8.1317115    202.81329  0.017550475  0.017400608            4 
  964000   0.87381368   -8.1436657    203.10594  0.017557568   0.01738644            7 
  965000   0.85678731   -8.1488802    202.97844  0.017528363  0.017372308            2 
  966000   0.88702827   -8.1492604    203.05792  0.017517073    0.0173583            5 
  967000   0.85944419   -8.1565248    202.46181  0.017447588  0.017344201            5 
  968000   0.88049192   -8.1465172    202.82971  0.017461235  0.017330094            7 
  969000   0.87764912   -8.1395966    203.21413  0.017476275  0.017316044            4 
  970000   0.85183665   -8.1145783    203.70563  0.017500484  0.017301989            6 
  971000   0.87632315   -8.1145459    203.47749  0.017462881  0.017287907            3 
  972000   0.87391911   -8.1114024    203.66331  0.017460846  0.017273843            1 
  973000   0.86832687   -8.1262757    203.33105  0.017414444  0.017259722            5 
  974000   0.85399413   -8.1436928    203.46388  0.017407929  0.017245654            3 
  975000   0.87478341   -8.1263675    203.73929  0.017413614   0.01723155            4 
  976000   0.87901923   -8.1780087    203.59578   0.01738352  0.017217501            4 
  977000   0.85461122    -8.167116    203.20755  0.017332613  0.017203364            2 
  978000   0.85518396   -8.1500729    203.39763  0.017331086   0.01718925            3 
  979000   0.86526857   -8.1595458    203.71801  0.017340655  0.017175095            9 
  980000    0.8829894    -8.148959    203.87342  0.017336175  0.017161014            6 
  981000   0.85589182   -8.1198945    204.09661  0.017337462     0.017147            6 
  982000   0.86801681   -8.1987119    203.64087  0.017281133  0.017132972            4 
  983000   0.86721648   -8.1556127    203.39588  0.017242784  0.017118928            6 
  984000   0.84870272   -8.1547217     203.6886  0.017250051  0.017105016            2 
  985000   0.87852014   -8.1447711    203.80762  0.017242608  0.017090966            2 
  986000   0.86704669   -8.1831495    203.73759  0.017219202  0.017076799           11 
  987000   0.84872101   -8.1734425     203.3798  0.017171546  0.017062658            2 
  988000   0.85610835   -8.1678079    203.86014  0.017194681  0.017048587            3 
  989000   0.84084071   -8.1504167    203.61128  0.017156327  0.017034521            1 
  990000   0.84503926   -8.1995173    203.50718  0.017130234  0.017020447            3 
  991000   0.85826986   -8.1326035    203.92413  0.017148009   0.01700638            3 
  992000   0.85938189   -8.1771608    203.82161  0.017122111  0.016992409            3 
  993000   0.86401688   -8.1681564    204.29829  0.017144872  0.016978344            4 
  994000   0.85666943   -8.1592761    204.30417  0.017128116  0.016964335            2 
  995000   0.85063966   -8.1432226    204.91711  0.017162237  0.016950407            2 
  996000    0.8636785   -8.1924739    204.05257  0.017072672  0.016936374            4 
  997000   0.83962412   -8.1773757    204.25579  0.017072533  0.016922342            4 
  998000     0.854021   -8.1892227     204.6062  0.017084686   0.01690831            2 
  999000     0.832777   -8.1770986    204.59908   0.01706699  0.016894365            3 
 1000000   0.86569643   -8.1809765     204.3297  0.017027475  0.016880298            1 
 1001000    0.8520322   -8.1776032    204.00235  0.016983212  0.016866291            3 
 1002000   0.84187032    -8.189641    204.90032  0.017040944  0.016852234            3 
 1003000   0.83158834     -8.16265     204.9998   0.01703222    0.0168383            3 
 1004000    0.8472705   -8.1538538    204.65143   0.01698634  0.016824395            4 
 1005000    0.8677653   -8.1788274    204.95735  0.016994805  0.016810611            8 
 1006000   0.85528138   -8.1845904    204.86293  0.016970091  0.016796669            4 
 1007000   0.86631164   -8.1898691    204.73379  0.016942551  0.016782761            5 
 1008000   0.85296357   -8.1928345    205.08323  0.016954632  0.016768796            2 
 1009000   0.85421408   -8.1706688    205.16507  0.016944588  0.016754862            2 
 1010000   0.84834828   -8.1715998    205.46139   0.01695226  0.016741038            1 
 1011000   0.87293825   -8.1716425    205.26184  0.016919044  0.016727212            5 
 1012000   0.83841514   -8.1921794    205.44224   0.01691718  0.016713398            6 
 1013000   0.84093065   -8.1518462    205.58134  0.016911924  0.016699612            9 
 1014000   0.86316078   -8.1820406    205.49934  0.016888506  0.016685821           15 
 1015000   0.83793912   -8.2061049     205.6742  0.016886223    0.0166721           11 
 1016000   0.85949874   -8.2093355    205.24326  0.016834256   0.01665836            2 
 1017000   0.85273257   -8.1701802    205.46456  0.016835837  0.016644493            3 
 1018000   0.84209984   -8.2188834    205.31577   0.01680712  0.016630718            6 
 1019000   0.83619072   -8.1848286    205.41018  0.016798346  0.016616864            3 
 1020000   0.85459711   -8.1858842    205.70404  0.016805886  0.016603064           11 
 1021000   0.83821584   -8.2103781    205.42806    0.0167669  0.016589153           14 
 1022000   0.83884768   -8.1799103    205.82286  0.016782686  0.016575395           11 
 1023000   0.84437467   -8.2140953    205.66471  0.016753398  0.016561632            9 
 1024000   0.84496321   -8.2252086    205.42973  0.016717914  0.016547907            9 
 1025000   0.86392732   -8.2248377    206.09647  0.016755811  0.016534135           21 
 1026000   0.85164314   -8.2025221    206.52984  0.016774678  0.016520471            2 
 1027000   0.85853813   -8.2271155    206.23857  0.016734711  0.016506803           19 
 1028000   0.86305141   -8.2231081     205.9239  0.016692923  0.016493089            3 
 1029000   0.84066503   -8.2152045    205.55899  0.016647148  0.016479423            4 
 1030000   0.84130433   -8.1638576    206.35843  0.016695666  0.016465779            7 
 1031000   0.82309842    -8.211698    205.88845  0.016641484  0.016452144            2 
 1032000   0.81873114   -8.2038962     205.9576  0.016630943  0.016438348            2 
 1033000   0.86146375   -8.2074697    205.81266  0.016603151  0.016424639            4 
 1034000    0.8383472   -8.2052743    206.36143  0.016631321  0.016410938            2 
 1035000   0.85504059   -8.2169098    206.28279   0.01660892  0.016397211            4 
 1036000   0.83186916   -8.2007335    206.77331  0.016632345  0.016383543            3 
 1037000   0.83581847   -8.1986394    206.39395  0.016585821  0.016369813            4 
 1038000   0.82036589   -8.2569554    205.59905  0.016506025  0.016356016            1 
 1039000   0.85483549   -8.2032577    206.66667  0.016575768  0.016342254           10 
 1040000   0.86419823   -8.2087823    206.05838  0.016511089  0.016328523            1 
 1041000   0.82885939    -8.214367    206.29411  0.016514098  0.016314865            4 
 1042000   0.84626502   -8.2285724    206.03187  0.016477277  0.016301152            4 
 1043000   0.84634485   -8.2142273    206.71823  0.016516318  0.016287458            5 
 1044000    0.8303533   -8.2310065    206.92416  0.016516935  0.016273843            4 
 1045000   0.83977892   -8.2317447    206.84623  0.016494915  0.016260263            5 
 1046000    0.8265675    -8.214927    206.71541  0.016468723  0.016246706           10 
 1047000   0.83214361   -8.2293224    206.39894  0.016427805  0.016233148            3 
 1048000   0.82292321   -8.2423928    206.57494  0.016426124  0.016219445            5 
 1049000   0.81695872   -8.2560398    206.74007  0.016423583  0.016205749            8 
 1050000   0.84553911   -8.2464319    207.12552  0.016438534  0.016192096            9 
 1051000   0.82107294   -8.2509214    206.51189  0.016374238  0.016178461            4 
 1052000    0.8511099   -8.2275792    207.00688  0.016397883  0.016164754            5 
 1053000    0.8323774    -8.250119    206.72314  0.016359856  0.016151066            2 
 1054000   0.84165981   -8.2313047    207.36528  0.016395104  0.016137401            5 
 1055000   0.83193727   -8.2585449    206.60655  0.016319632  0.016123817            7 
 1056000   0.83404906   -8.2005245    207.31426  0.016360027  0.016110223            5 
 1057000   0.83123113   -8.2454739    207.16836  0.016333047  0.016096676           11 
 1058000   0.84841976    -8.228092    207.24962  0.016324009  0.016083089            7 
 1059000    0.8318753   -8.2273118    207.26069  0.016309466  0.016069504           16 
 1060000   0.83461639   -8.2008016    207.46873  0.016310435  0.016055979            2 
 1061000   0.82952954   -8.2241278    207.15452  0.016270383  0.016042484            6 
 1062000   0.82880821   -8.2038922     207.5578  0.016286707  0.016029015            5 
 1063000   0.82649387   -8.2352008     207.5909  0.016273981  0.016015542           18 
 1064000   0.81775264   -8.2280454    207.49068  0.016250836  0.016002085            4 
 1065000   0.82777175   -8.2423165     207.5604  0.016241033  0.015988634            3 
 1066000   0.82111306   -8.2387158    207.57069  0.016226601  0.015975189            6 
 1067000   0.83279975    -8.245065    207.85423  0.016233539  0.015961813            7 
 1068000   0.83271314   -8.2591215    207.66828  0.016203829  0.015948448            7 
 1069000   0.83734365   -8.2208049    207.78475  0.016197751   0.01593508            3 
 1070000   0.82171824    -8.282577    207.43719  0.016155545  0.015921612            6 
 1071000    0.8410124   -8.2805755    207.74465  0.016164383  0.015908158            4 
 1072000   0.83256115   -8.2830783    207.82498  0.016155548  0.015894781            2 
 1073000   0.81959076   -8.2746205    207.57392  0.016120994  0.015881419            5 
 1074000   0.83516938   -8.2648499    208.36193  0.016167127  0.015868125            1 
 1075000   0.81097969   -8.2595382    208.32715  0.016149391  0.015854901            3 
 1076000    0.8263031   -8.2732923     208.4252  0.016141976  0.015841696            4 
 1077000   0.84195248   -8.2625848      208.591  0.016139818   0.01582848            4 
 1078000   0.81970453   -8.2483953    208.78971  0.016140206  0.015815293            1 
 1079000   0.82258427    -8.262244    208.78711  0.016125047  0.015802097            2 
 1080000   0.81252349   -8.2444733    208.58411  0.016094453     0.015789            4 
 1081000    0.8316588   -8.2807912    208.25179  0.016053946  0.015775822            4 
 1082000   0.83663111   -8.2764227    208.71188  0.016074544  0.015762653            2 
 1083000   0.83129606   -8.2696672    208.35129  0.016031955  0.015749449            3 
 1084000   0.79841287   -8.2838579    208.33354  0.016015801  0.015736233            3 
 1085000   0.84449916   -8.2768847    208.51552  0.016015017  0.015723034           13 
 1086000   0.83259117   -8.2785647    208.54638  0.016002638  0.015709886            4 
 1087000   0.82533647     -8.27771    208.70129  0.015999792  0.015696858            9 
 1088000   0.82273228   -8.2750229    208.83522  0.015995345  0.015683702            6 
 1089000   0.80418559   -8.3058608     208.3787  0.015945722  0.015670491            7 
 1090000   0.81963801   -8.3247169    208.41681  0.015934007  0.015657234            5 
 1091000   0.82204243   -8.3061539    208.16517  0.015900181  0.015643896            2 
 1092000   0.79171957   -8.2904237    208.54881  0.015914897  0.015630594            4 
 1093000    0.7956275   -8.2351838    209.53803  0.015975757  0.015617475            6 
 1094000   0.80855817   -8.2688644    209.20197  0.015935555  0.015604436            5 
 1095000   0.82528066   -8.2900568    208.83939  0.015893409  0.015591303            2 
 1096000    0.8037749   -8.2636115    208.73024  0.015870608  0.015578148            3 
 1097000   0.82022802   -8.2602298    208.73079  0.015856183   0.01556501            5 
 1098000   0.79210957   -8.2876682    209.13855  0.015872689  0.015551863            2 
 1099000   0.79538222   -8.2534506    209.02607  0.015849717  0.015538758            5 
 1100000   0.80926443   -8.2818734    209.02117  0.015834937  0.015525664            2 
 1101000   0.82305403   -8.2736547    209.23449    0.0158367   0.01551265            3 
 1102000   0.81996267    -8.289636    208.85562   0.01579368  0.015499589            3 
 1103000   0.81691924   -8.2784915    208.72283  0.015769328  0.015486364            5 
 1104000   0.81663507   -8.2866201    208.95116  0.015772279  0.015473143           11 
 1105000   0.80759706   -8.3147591    208.94291  0.015757384   0.01545997            3 
 1106000   0.80072601   -8.3290497    208.98685  0.015746447  0.015446793            5 
 1107000   0.81456375   -8.2902198    209.10342  0.015740998  0.015433721            5 
 1108000   0.81716501   -8.2898808    209.69406  0.015771214  0.015420757            6 
 1109000   0.80507424   -8.2774985    209.41544  0.015736057   0.01540774            7 
 1110000    0.8264398   -8.2912805    208.98896  0.015689862  0.015394693            4 
 1111000   0.81190194    -8.277668    209.20463  0.015691916  0.015381723            4 
 1112000   0.79608414   -8.2852056    209.49265  0.015699389  0.015368745            4 
 1113000   0.83042036   -8.2966103    209.60182  0.015693458   0.01535575            4 
 1114000   0.78609017   -8.2980564    209.65827  0.015683593  0.015342749            3 
 1115000   0.81019621   -8.3007416    209.31847  0.015644131  0.015329774            2 
 1116000   0.79765024   -8.2699214    209.49624  0.015643387   0.01531683            3 
 1117000   0.81204847     -8.27664    209.73414  0.015647131  0.015303954            4 
 1118000   0.78931293   -8.2794449    209.50113  0.015615767  0.015290994            3 
 1119000   0.81678131   -8.3287532    209.16455  0.015576746   0.01527796            4 
 1120000    0.8015999    -8.288128    209.45827  0.015584692  0.015264993            3 
 1121000    0.8099681    -8.286179    209.94705  0.015607126  0.015251958            2 
 1122000   0.79556995   -8.3171333    209.23771  0.015540531  0.015238956            1 
 1123000    0.8031894   -8.2951325    209.54374  0.015549402  0.015225956            4 
 1124000   0.80838956   -8.3227367    209.43562  0.015527552   0.01521299            6 
 1125000   0.80614976   -8.2882876    209.86813  0.015545788  0.015200115            7 
 1126000   0.79714084   -8.2905955    209.82842  0.015529042   0.01518722            1 
 1127000   0.81217513   -8.3335252    210.04656  0.015531393  0.015174337            4 
 1128000   0.82436596   -8.3193565    210.21781  0.015530275  0.015161476            5 
 1129000   0.79066118   -8.3014019    210.10216  0.015507983  0.015148559            4 
 1130000   0.79052586   -8.3480681    209.72487  0.015466435  0.015135719            5 
 1131000   0.82216254   -8.3204556    209.73579  0.015453566    0.0151228            3 
 1132000   0.79086359   -8.3033454    210.02038  0.015460864  0.015109965            3 
 1133000   0.81698947   -8.2906924     210.3107  0.015468572  0.015097157            2 
 1134000   0.80894258   -8.3065792    209.70832  0.015410664  0.015084349            4 
 1135000   0.78903927   -8.2950309    210.30467  0.015440871  0.015071533            3 
 1136000   0.80678841   -8.3174081    210.19578  0.015419291   0.01505878            4 
 1137000   0.79109831    -8.341868    210.25684  0.015410205  0.015046008            3 
 1138000   0.79781294   -8.2939412    210.50036  0.015414496  0.015033279            5 
 1139000   0.80143157   -8.2936505    210.64427  0.015411492   0.01502059            3 
 1140000   0.78109146   -8.3115299    210.65707  0.015398908  0.015007892            3 
 1141000   0.79958963   -8.3036158    210.86303  0.015400455  0.014995271            2 
 1142000   0.80124052   -8.2953129    210.75179  0.015378852  0.014982631            2 
 1143000   0.80323534   -8.2922524    210.70732  0.015362155  0.014969916            4 
 1144000   0.78426162   -8.3134401    210.46967  0.015331416  0.014957227            3 
 1145000   0.80396521   -8.3262599    210.40735   0.01531349  0.014944542            3 
 1146000   0.78579289   -8.3103701    210.45446  0.015303553  0.014931847            4 
 1147000   0.77824508   -8.3473071    210.29605  0.015278702  0.014919115            4 
 1148000   0.78670408   -8.3370893    210.58028  0.015286025   0.01490637            5 
 1149000   0.80272491   -8.3208847    210.72465  0.015283192   0.01489369            4 
 1150000   0.79970274    -8.331384     210.5982  0.015260739  0.014880995            7 
 1151000   0.76862176   -8.3624091    210.19705  0.015218437  0.014868303            5 
 1152000   0.78065605   -8.3359162    210.02006  0.015192424  0.014855606            6 
 1153000   0.79590164   -8.3097458    210.57658   0.01521947   0.01484297            6 
 1154000   0.78565114   -8.3482067    210.29554  0.015185986  0.014830328            4 
 1155000   0.79137602   -8.3312559    210.93494  0.015218971   0.01481771            8 
 1156000   0.80095877   -8.3619971    210.37925  0.015165748  0.014805049            5 
 1157000   0.78289583   -8.3812392    210.10848  0.015133137  0.014792427            4 
 1158000   0.78484404   -8.3448761    210.59803  0.015155299  0.014779732            4 
 1159000   0.79082843   -8.3963565    210.81274   0.01515766  0.014767005            5 
 1160000   0.80061724   -8.3789865    210.40774  0.015115499  0.014754251            8 
 1161000    0.7749823   -8.3522646    210.28417  0.015093609  0.014741567            5 
 1162000   0.78421545   -8.3575312    210.69175   0.01510985  0.014728924            4 
 1163000   0.79745307   -8.3611581    210.67998  0.015096014  0.014716262            2 
 1164000   0.78045478   -8.3827936    210.53714  0.015072819  0.014703619            5 
 1165000   0.78873852   -8.3296743    210.70326  0.015071764  0.014690957            3 
 1166000   0.79122983   -8.3555922    210.78362  0.015064581  0.014678361            3 
 1167000   0.77461596   -8.3651883    211.06669  0.015071886  0.014665713            3 
 1168000   0.77768614   -8.3596474    210.76656  0.015037568  0.014653066            2 
 1169000    0.7956119   -8.3795902    210.57813  0.015011272  0.014640467            6 
 1170000   0.77554613   -8.3507971    210.87347  0.015019478  0.014627867            9 
 1171000    0.8046885   -8.3628143    210.74478  0.014997493  0.014615258            4 
 1172000    0.7730436   -8.3810403    210.80829  0.014989213  0.014602635            8 
 1173000   0.77641112    -8.358501    210.85194  0.014979535  0.014590064            8 
 1174000   0.78361128    -8.378065    211.25669  0.014995506  0.014577541            8 
 1175000   0.77245125    -8.383864    210.49662  0.014928838   0.01456493           12 
 1176000   0.77860004   -8.4007441    211.16149  0.014963257  0.014552235           12 
 1177000   0.79069002   -8.3721501    210.79585  0.014924657  0.014539608           14 
 1178000   0.77137648   -8.3940414    210.88824  0.014918523  0.014526958            4 
 1179000   0.78851693   -8.3857913    210.93092  0.014908886  0.014514342            5 
 1180000   0.79893078   -8.3871801    210.89691  0.014893849  0.014501757            3 
 1181000    0.7887945   -8.3839082    210.79598  0.014874116  0.014489134            6 
 1182000   0.78183388   -8.3892209    211.21896  0.014891354  0.014476564            6 
 1183000   0.77590593   -8.3771657    211.24387  0.014880521  0.014464006            4 
 1184000    0.7749513   -8.3756734    211.02667  0.014852666  0.014451542            8 
 1185000   0.77836147   -8.3896744    211.10406  0.014845574  0.014439121            6 
 1186000   0.77079662    -8.374497    211.17523  0.014838057  0.014426621           11 
 1187000   0.77740493   -8.3958002    211.02501  0.014815011  0.014414141            4 
 1188000   0.77434437   -8.4120336    211.08869  0.014807007  0.014401624            7 
 1189000   0.79265677   -8.4101625    210.75437  0.014771122  0.014389113            8 
 1190000   0.76870822   -8.3645977    210.59181  0.014747325  0.014376601           11 
 1191000   0.78805487    -8.378078    211.20576  0.014777901  0.014364108           10 
 1192000   0.78054375   -8.3711825    211.30403  0.014772374   0.01435165           12 
 1193000   0.77210377   -8.3932496    210.56175  0.014708141  0.014339198            6 
 1194000   0.77479965   -8.3839924    211.79593  0.014781961  0.014326742            4 
 1195000    0.7670779    -8.404958    210.97938  0.014712649  0.014314322            4 
 1196000   0.78506267   -8.3986002    211.41776  0.014730892  0.014301878            3 
 1197000   0.77656353   -8.3689336    211.38527  0.014716323  0.014289506            6 
 1198000   0.79152921   -8.3745841    211.68861   0.01472514  0.014277166            4 
 1199000   0.77180294   -8.4140225    211.55915  0.014703861  0.014264844            8 
 1200000   0.78243481   -8.3998666    212.14673  0.014732412  0.014252502            5 
 1201000   0.78977466   -8.3893403    211.92175  0.014704534  0.014240213            4 
 1202000   0.78356735   -8.3794084    211.60132  0.014670086  0.014227956            5 
 1203000   0.77391553     -8.39834    211.31508  0.014638063  0.014215636            4 
 1204000   0.77583371   -8.3824073     211.8772  0.014664812  0.014203338            5 
 1205000   0.76733283   -8.4063159    211.46998   0.01462448  0.014191055            6 
 1206000   0.77494916   -8.3966573    212.01299  0.014649875  0.014178774            8 
 1207000   0.75851905   -8.4294568    211.19194  0.014581051  0.014166515           10 
 1208000   0.77726007   -8.4112064    211.83934  0.014613641  0.014154217            5 
 1209000   0.75052132   -8.4112555    211.68817  0.014591134  0.014141944            3 
 1210000   0.77842947   -8.4195211    211.21673  0.014546606   0.01412962            1 
 1211000   0.78008452   -8.4236957    211.22093  0.014534884  0.014117255            5 
 1212000      0.77051   -8.4415867    211.52151  0.014543558  0.014104822            3 
 1213000   0.76475621   -8.4138691    211.69946  0.014543794  0.014092418            5 
 1214000   0.76843845   -8.4344177    211.12946  0.014492686  0.014080066            4 
 1215000   0.76689244     -8.42822    211.65014  0.014516471  0.014067745            8 
 1216000    0.7755444   -8.4364713    211.45023  0.014490833  0.014055475            5 
 1217000   0.78099018   -8.4238432    211.32601   0.01447042  0.014043159            3 
 1218000    0.7635056   -8.4360016    211.53719  0.014472988  0.014030852            7 
 1219000   0.75758919     -8.42277    211.42303  0.014453311   0.01401852            6 
 1220000   0.75699958   -8.4118642    211.17512   0.01442453  0.014006219            3 
 1221000   0.76852749   -8.4084613    211.78537  0.014454366  0.013993964            5 
 1222000   0.75996189   -8.4355188    211.84628  0.014446691  0.013981704            4 
 1223000   0.75554942   -8.4193554    211.74391  0.014427903   0.01396947            3 
 1224000   0.76464008   -8.4521641    211.29403  0.014385487  0.013957234            3 
 1225000   0.74716187   -8.4449801    211.35516  0.014377902  0.013944996            5 
 1226000   0.77193783   -8.4482262     211.0761  0.014347207  0.013932771            5 
 1227000   0.77234237   -8.4133733    211.94798  0.014394728  0.013920555            4 
 1228000   0.75521631   -8.4269164    211.69836  0.014366067  0.013908379            2 
 1229000   0.75792404   -8.4426694    212.03438  0.014377162  0.013896226            4 
 1230000   0.77795806   -8.4357996    212.23194  0.014378858  0.013884063            4 
 1231000   0.76569913   -8.4657242    211.78057  0.014336622  0.013871904           13 
 1232000   0.77094728    -8.479583    211.32632  0.014294259   0.01385977            1 
 1233000   0.76119691   -8.4479481    211.74751  0.014311132  0.013847637            5 
 1234000   0.76398645   -8.4549356    211.74523  0.014299381  0.013835501            4 
 1235000   0.77354639   -8.4458815    211.52334   0.01427283  0.013823406            2 
 1236000    0.7485662   -8.4691417    212.02627  0.014295191  0.013811318            7 
 1237000   0.76399525   -8.4528308    211.77227  0.014266523  0.013799153            8 
 1238000   0.75859967   -8.4504466    212.28386  0.014289436  0.013787012            5 
 1239000   0.74811386   -8.4545832    211.47782   0.01422369  0.013774864            3 
 1240000   0.75255314   -8.4581966    211.69695  0.014226945  0.013762778            3 
 1241000   0.75677591   -8.4897645     212.0224  0.014237335  0.013750701            4 
 1242000    0.7461627    -8.430686    211.92365  0.014219247  0.013738627            3 
 1243000   0.76063128   -8.4564799    211.32027  0.014167355  0.013726538            1 
 1244000   0.76767529   -8.4674723    211.69832  0.014181292  0.013714436            5 
 1245000   0.74506734   -8.4712838     211.5724  0.014161473  0.013702296            3 
 1246000   0.74961796   -8.4759468    211.21766  0.014126382  0.013690132            9 
 1247000   0.73357688   -8.4597235    211.31433  0.014121514  0.013677963            8 
 1248000   0.74915529   -8.4887293     211.2782  0.014107786   0.01366578            3 
 1249000   0.75115118   -8.4309569    211.74161  0.014127409  0.013653677            7 
 1250000   0.74745013   -8.4920064    211.54762  0.014103175  0.013641578            9 
 1251000   0.75226346   -8.4930628    211.44834  0.014085288  0.013629488            5 
 1252000    0.7439501   -8.4715837    212.08301  0.014116281  0.013617413            2 
 1253000     0.756021   -8.4885251    211.55526  0.014069916  0.013605337           10 
 1254000    0.7749379   -8.4877349    211.81663  0.014076065   0.01359323            4 
 1255000   0.73491523   -8.4753835    211.73296  0.014059293   0.01358114            8 
 1256000   0.76852591   -8.4908865    211.92626  0.014060925  0.013569055            3 
 1257000   0.75836598   -8.4992762    211.17465  0.013999911  0.013557008            3 
 1258000   0.74395424   -8.5001389    211.84668  0.014033299  0.013544965            3 
 1259000   0.74788187    -8.453935    211.60846  0.014006385  0.013532926            5 
 1260000   0.74849941   -8.4669946    211.88952  0.014013857  0.013520965           13 
 1261000   0.74846029   -8.4825384    211.48473  0.013975993  0.013508989            3 
 1262000     0.751802   -8.4628365      211.938  0.013994849  0.013497041            4 
 1263000   0.75970369   -8.4453946    211.95899  0.013985154  0.013485099            3 
 1264000   0.74231673   -8.4673042    211.83111  0.013965659  0.013473174            3 
 1265000   0.73751929    -8.491691    211.54476  0.013935755  0.013461228            5 
 1266000   0.74333721   -8.4978528    211.61329  0.013929258  0.013449277            7 
 1267000   0.75176107   -8.4769573    212.21408   0.01395778  0.013437358            4 
 1268000   0.74999919   -8.4478507    212.87835  0.013990428  0.013425511            5 
 1269000   0.73837988   -8.4920145    211.94516  0.013918122  0.013413688            5 
 1270000   0.74342776   -8.5060703    211.91702  0.013905316  0.013401807            5 
 1271000   0.76759387   -8.5035883    212.13418  0.013908614  0.013389929            3 
 1272000   0.73954586   -8.4681615    212.10071  0.013895487  0.013378057            4 
 1273000   0.75533961   -8.4902075    212.06602    0.0138823  0.013366218            4 
 1274000   0.75286981   -8.5098263    211.77154  0.013852141  0.013354362            8 
 1275000    0.7390382   -8.4868386    212.15552  0.013866374  0.013342539            5 
 1276000   0.72162479    -8.490834     211.9892  0.013844645  0.013330742            7 
 1277000   0.74818625   -8.5126518    211.90246  0.013828143   0.01331894            6 
 1278000   0.74746695   -8.4956204    212.01229  0.013824485  0.013307109            3 
 1279000   0.74826781   -8.4888904    212.19821  0.013825789  0.013295308            8 
 1280000    0.7573932   -8.5138889    212.21047  0.013815786  0.013283508            3 
 1281000   0.73434901   -8.5344366    212.32377  0.013812371  0.013271714            6 
 1282000   0.75360916   -8.5438424    211.33778  0.013737505  0.013259907           10 
 1283000    0.7721611   -8.5081759    212.12525  0.013777945  0.013248089           10 
 1284000    0.7495289   -8.5034999    211.94675   0.01375563  0.013236293            6 
 1285000   0.73951992   -8.5439447    212.07078  0.013752969  0.013224484            4 
 1286000   0.76137921    -8.539131    211.69385  0.013717849   0.01321271            5 
 1287000   0.74357833   -8.5389521    211.76768  0.013711971  0.013200915            7 
 1288000   0.73590394   -8.5548064    211.59073  0.013689876  0.013189153           18 
 1289000   0.73680239   -8.5165709    212.07127  0.013710322  0.013177388           12 
 1290000   0.74927155   -8.5359369    211.82921  0.013684057  0.013165616            7 
 1291000   0.74275562   -8.5280595    211.83516  0.013673842  0.013153834            5 
 1292000   0.73820176   -8.5554406     211.6838  0.013653496   0.01314204            6 
 1293000   0.74084521   -8.5141992     211.5901  0.013636897  0.013130297            7 
 1294000   0.73678199   -8.5292212     211.9932  0.013652318  0.013118505            7 
 1295000   0.75123533   -8.5333145    211.64985  0.013619682  0.013106732           13 
 1296000    0.7411347   -8.5212076    211.87589  0.013623707  0.013094978            9 
 1297000   0.73194166   -8.5430436    212.14468  0.013630473  0.013083221           12 
 1298000   0.73019575   -8.5291879    212.21282  0.013624346  0.013071468            4 
 1299000   0.72744523   -8.5415254    212.06055   0.01360409   0.01305977            5 
 1300000   0.73758093   -8.5396862    212.00009  0.013589749   0.01304805            6 
 1301000   0.74782307   -8.5214477    212.32614  0.013600188  0.013036341            4 
 1302000   0.72803654   -8.5661238     211.6428  0.013546006  0.013024645            4 
 1303000   0.73081498   -8.5518845    211.62759  0.013534637  0.013012934            8 
 1304000   0.73981886     -8.52989    212.35238  0.013570577  0.013001271            8 
 1305000   0.74457023   -8.5459029    211.90263  0.013531458  0.012989591            8 
 1306000    0.7181091   -8.5382421    212.13881  0.013536167  0.012977895            4 
 1307000   0.72468494    -8.552228    211.65473  0.013494946  0.012966209           11 
 1308000   0.72124015   -8.5464361    211.73899  0.013489997   0.01295455            5 
 1309000   0.71857684   -8.5287968    212.06133  0.013500212  0.012942905            3 
 1310000   0.71603311   -8.5673989    211.72285  0.013468375  0.012931244            6 
 1311000    0.7412433   -8.5478518    211.24832  0.013427938  0.012919609            7 
 1312000   0.73394637   -8.5352232    212.04248  0.013468145  0.012907979            3 
 1313000   0.73166159   -8.5470104    211.74208  0.013438822  0.012896349            5 
 1314000   0.73180095   -8.5457081    211.60312  0.013419782  0.012884716            4 
 1315000   0.72745311   -8.5799461    211.92793   0.01343016  0.012873076            3 
 1316000   0.73070623   -8.5527991    211.64788  0.013402221  0.012861483            3 
 1317000   0.73671206   -8.5596884    211.75245  0.013398662  0.012849846            3 
 1318000   0.72912182   -8.5256453    211.59821  0.013378743  0.012838193            7 
 1319000   0.72327705    -8.557201    211.83503  0.013383563  0.012826522           11 
 1320000    0.7442658   -8.5551101    211.53148   0.01335426  0.012814918            4 
 1321000   0.73339181   -8.5438114    211.24336  0.013325975  0.012803317           13 
 1322000   0.71541571   -8.5470004    212.08421  0.013368899  0.012791759           10 
 1323000   0.71367742    -8.558007    211.78806   0.01334014  0.012780206            3 
 1324000   0.73949005    -8.536951    211.85416  0.013334224  0.012768671            5 
 1325000   0.71418248   -8.5356539    212.39806  0.013358369  0.012757188            8 
 1326000   0.73165028   -8.5503728    211.89919  0.013316943  0.012745678            4 
 1327000   0.72493581   -8.5731651    211.49819  0.013281725  0.012734156            5 
 1328000   0.71069808   -8.5549677    211.85131  0.013293883   0.01272262            8 
 1329000   0.73274416   -8.5394661    211.80725  0.013281117    0.0127111           13 
 1330000   0.72368873   -8.5413664    211.94409  0.013279705  0.012699589           16 
 1331000   0.71309427   -8.5494677    211.86694  0.013264897  0.012688146            4 
 1332000   0.70909554   -8.5371466    212.15019  0.013272659  0.012676747            5 
 1333000   0.71806204   -8.5618352    211.73324  0.013236637  0.012665308           25 
 1334000   0.72103592   -8.5633278    212.15679  0.013253173  0.012653911            6 
 1335000   0.72066426   -8.5506946    211.79756  0.013220822  0.012642518           18 
 1336000   0.70550944   -8.5806736    211.78283  0.013210007  0.012631122           14 
 1337000   0.71562031   -8.5322262      212.407   0.01323903   0.01261975           41 
 1338000   0.71319996   -8.5580857    212.08649  0.013209173  0.012608403           28 
 1339000   0.70808931   -8.5749082    211.49996  0.013162806  0.012596985           43 
 1340000   0.70467969   -8.5586626    212.14833  0.013193304  0.012585573           37 
 1341000     0.708298   -8.5908202    211.63797   0.01315175  0.012574165           24 
 1342000   0.71752085   -8.5645646    212.02677  0.013166093   0.01256276            7 
 1343000   0.72206619   -8.5663493    211.66524  0.013133857   0.01255134           12 
 1344000   0.72362013     -8.58546    211.46241  0.013111509  0.012539959           13 
 1345000   0.72372164   -8.5692673    211.79502  0.013122368  0.012528602           13 
 1346000    0.7203397   -8.5654359    211.95154  0.013122309  0.012517257           12 
 1347000   0.72356365   -8.5854615    212.16183  0.013125577  0.012505929           29 
 1348000   0.72072552    -8.573244    211.82129  0.013094788  0.012494562           25 
 1349000   0.71102155   -8.5636827    211.91665  0.013090972  0.012483245           15 
 1350000   0.71226567   -8.5965792    212.09676  0.013092392  0.012471928           26 
 1351000   0.71257285   -8.5508712    212.19229  0.013088594  0.012460634           25 
 1352000   0.69948721   -8.5576566    211.83729  0.013057032  0.012449358           27 
 1353000   0.70303105   -8.5750513    212.31264   0.01307666  0.012438071           23 
 1354000   0.71293678   -8.5933748    212.03552  0.013049946  0.012426777           19 
 1355000   0.71103216   -8.5720609    211.87807  0.013030632  0.012415499            8 
 1356000   0.72315867   -8.5766028    211.43056   0.01299352  0.012404209           18 
 1357000   0.71317641   -8.6073791    211.57273  0.012992676  0.012392933           14 
 1358000   0.69834033   -8.5907975    212.07451    0.0130139  0.012381671           28 
 1359000   0.72097985   -8.6152751    211.61305  0.012976027  0.012370435           17 
 1360000    0.7130973    -8.596149    211.69336  0.012971407    0.0123592           26 
 1361000   0.71318693   -8.5912714    211.32449   0.01293929  0.012347953           10 
 1362000   0.71758364   -8.6066846    211.45051  0.012937501  0.012336729           28 
 1363000    0.7226085   -8.6107277    211.82863  0.012951127  0.012325498           45 
 1364000   0.70740258   -8.5716973    211.91393  0.012946843  0.012314274           18 
 1365000   0.71465855   -8.6191921    211.22391  0.012895232  0.012303056           54 
 1366000   0.69721558   -8.6163094    211.29233  0.012889967  0.012291786           44 
 1367000   0.69661845   -8.6089708    211.67436  0.012903826  0.012280545           42 
 1368000   0.72525178   -8.6112653    211.40913  0.012878237  0.012269328           44 
 1369000   0.70643556   -8.6107683    211.83639  0.012894838  0.012258107           32 
 1370000   0.70240117   -8.6138155    211.91369  0.012890127  0.012246913           30 
 1371000   0.70807188   -8.6319878    211.67789  0.012866392  0.012235772           47 
 1372000   0.69917093   -8.6271116     212.0071  0.012877011  0.012224617           51 
 1373000   0.71051096   -8.6198073    211.56879  0.012841029  0.012213476           52 
 1374000   0.71052762   -8.6172405    211.80255  0.012845861  0.012202353           60 
 1375000   0.70080217   -8.6076409    211.93566  0.012844586  0.012191251           56 
 1376000   0.70310051   -8.6273852    211.55767  0.012812359   0.01218018           30 
 1377000   0.70315079   -8.6011672    212.06945  0.012834026  0.012169088           22 
 1378000   0.69347392    -8.609474     211.9244  0.012815941  0.012157985           42 
 1379000   0.70063336   -8.6127103    211.95968  0.012808779  0.012146923           55 
 1380000   0.71893948   -8.6605436    211.43059  0.012767548  0.012135871           53 
 1381000   0.70660689   -8.6026012    212.21343  0.012805541  0.012124858           64 
 1382000   0.70088129   -8.5983864    211.85807  0.012774847  0.012113853           46 
 1383000   0.70890257   -8.6262033    211.69579  0.012755832  0.012102846           66 
 1384000   0.70634977   -8.6088356     212.1572  0.012774398  0.012091837           60 
 1385000   0.69308931   -8.6513059    211.51653  0.012726626  0.012080814           40 
 1386000   0.69140792   -8.6522782    211.27642  0.012703007  0.012069805           54 
 1387000   0.68327112   -8.6548851     211.5877  0.012712551   0.01205882           59 
 1388000   0.70048515   -8.6292273    211.82388  0.012717572  0.012047871           60 
 1389000   0.69699087    -8.649562    211.83136  0.012708865  0.012036903           65 
 1390000   0.69326369   -8.6517289    211.89514  0.012703546  0.012025962           62 
 1391000    0.7031879   -8.6599184    212.05069  0.012703732  0.012015032           70 
 1392000   0.70793194     -8.64011     212.0657  0.012695504  0.012004099           69 
 1393000    0.6932823   -8.6422675    212.02402  0.012683897  0.011993196           46 
 1394000   0.69342794   -8.6562137    212.31507  0.012692197  0.011982326           70 
 1395000   0.69139837   -8.6201279    212.41475  0.012689053  0.011971457           46 
 1396000   0.69896799   -8.6148826    212.36601  0.012677054  0.011960626           68 
 1397000   0.69018918   -8.6399094    212.38981  0.012669399  0.011949804           64 
 1398000   0.70720845   -8.6291559    211.85502  0.012628458  0.011938986           63 
 1399000    0.6930443   -8.6521193    212.05351  0.012631255   0.01192817           76 
 1400000   0.69538547   -8.6614646    211.75514  0.012604472   0.01191734           71 
 1401000   0.69966172   -8.6375481    212.15852   0.01261947  0.011906516           70 
 1402000   0.68731644   -8.6421511    212.05877  0.012604539  0.011895722           79 
 1403000   0.70079214   -8.6258069    212.14903  0.012600916  0.011884949           73 
 1404000   0.69375841   -8.6272832     212.0209  0.012584336  0.011874174           66 
 1405000   0.70467265   -8.6289932    211.93623  0.012570358  0.011863407           78 
 1406000   0.68657782   -8.6310083    211.87655   0.01255788  0.011852657           61 
 1407000   0.67289147   -8.6220664    212.21211  0.012568829  0.011841937           71 
 1408000   0.68451075   -8.6591485    211.52022  0.012518953  0.011831183           69 
 1409000   0.69313687   -8.6414847    212.16611  0.012548268  0.011820438           77 
 1410000   0.69291032   -8.6716585    211.62053  0.012507123  0.011809694           68 
 1411000   0.69710244   -8.6580182     212.0795  0.012525366  0.011798953           79 
 1412000   0.69101469   -8.6615769    211.92409  0.012507324  0.011788215           82 
 1413000   0.70834545   -8.6593829    212.07234  0.012507215  0.011777476           52 
 1414000   0.69222054   -8.6475298    212.06984  0.012498223  0.011766782           90 
 1415000   0.69738716   -8.6676802    211.86638  0.012477407  0.011756089           85 
 1416000   0.68282915   -8.6466534    212.00076  0.012476504  0.011745409           99 
 1417000   0.66360191   -8.6603349    211.90799  0.012462243  0.011734705          114 
 1418000   0.67807763   -8.6471082    211.49697    0.0124293  0.011724022          100 
 1419000   0.68299148   -8.6408581      211.627  0.012428177   0.01171334           98 
 1420000   0.68022185   -8.6616453    212.11322  0.012447959  0.011702665           99 
 1421000   0.67871762   -8.6802573    212.04364  0.012435118  0.011692016          115 
 1422000   0.69211698   -8.6695323    211.72933  0.012407954  0.011681405          104 
 1423000   0.68276878   -8.6387771    212.11405  0.012421765  0.011670788          109 
 1424000   0.70137589   -8.6677303    211.68171  0.012387741  0.011660175          121 
 1425000   0.69172935   -8.6712241    211.86354  0.012389681  0.011649617          112 
 1426000   0.69125058   -8.6649528    212.06333  0.012392668  0.011639016          109 
 1427000    0.6954696     -8.67373     211.4311  0.012347063  0.011628418          111 
 1428000   0.69268228   -8.6652328    211.74342  0.012356642  0.011617823          112 
 1429000   0.68388706   -8.6702986    211.99761  0.012362819  0.011607251          109 
 1430000   0.67593862   -8.6596923    211.93131  0.012350309  0.011596701          121 
 1431000   0.67603978     -8.66607    211.90425  0.012340103  0.011586149          106 
 1432000   0.67629714    -8.673254    211.96724  0.012335151  0.011575615          108 
 1433000   0.66720325   -8.6805699    212.20444  0.012340337  0.011565088          114 
 1434000   0.68832207   -8.6734801    211.80693  0.012308631  0.011554524          104 
 1435000    0.6692288    -8.687367    211.52631  0.012283758  0.011544015          113 
 1436000   0.68062092   -8.6983276    212.13377  0.012310455  0.011533475          120 
 1437000   0.68187305   -8.6870243    211.49105  0.012264617  0.011522971          133 
 1438000   0.67585614   -8.6994229      211.576  0.012261011  0.011512462          114 
 1439000   0.68440007   -8.6958545    211.53177  0.012249929  0.011501951          136 
 1440000   0.67328569   -8.6946437     211.1906  0.012221679  0.011491436           99 
 1441000   0.68468802   -8.7082907    211.56257  0.012234708  0.011480931          135 
 1442000   0.68245433   -8.7071406    211.61958  0.012229518  0.011470419          118 
 1443000   0.69060019   -8.7025766    211.45821  0.012211724  0.011459925          112 
 1444000   0.67118108   -8.7165045     211.1391  0.012184851  0.011449432          104 
 1445000   0.67475129   -8.6847409    211.72331   0.01221011  0.011438939          115 
 1446000   0.68150377    -8.689642    211.80179  0.012206189  0.011428443          117 
 1447000   0.67599166   -8.7011454    211.38526  0.012173765  0.011417973          125 
 1448000    0.6613568   -8.7299754    211.10379  0.012149159  0.011407507          134 
 1449000   0.69042063   -8.7029885    211.51651  0.012164511  0.011397031          116 
 1450000   0.68045688   -8.7360393    211.07199  0.012130574    0.0113866          141 
 1451000   0.67029837   -8.7464298    211.27404  0.012133818  0.011376146          124 
 1452000   0.66073809   -8.7109932    211.73109  0.012151692  0.011365713          143 
 1453000   0.67491572   -8.7242345    211.15598  0.012110345  0.011355295          136 
 1454000     0.662953   -8.7103693    211.52481  0.012123155  0.011344904          140 
 1455000   0.67327936   -8.7205774     211.3364  0.012104032  0.011334509          144 
 1456000   0.67024738   -8.7052635    211.71392  0.012117326  0.011324109          142 
 1457000    0.6745672   -8.7186831    210.75347  0.012054076  0.011313725          152 
 1458000   0.69551999   -8.7090968    211.58674  0.012093435  0.011303339          138 
 1459000   0.67645164   -8.7146475    211.26611  0.012066833  0.011292961          138 
 1460000   0.67128534   -8.7085502     211.3108  0.012061119  0.011282604          158 
 1461000   0.66173153   -8.7123193     210.9777  0.012033864  0.011272244          147 
 1462000   0.67922967   -8.7047242    211.64091  0.012063435  0.011261927          140 
 1463000   0.66798763   -8.7166278    211.64816  0.012055602  0.011251633          144 
 1464000   0.67158587   -8.6932697    211.60109  0.012044688  0.011241335          125 
 1465000   0.66535951   -8.6858521    211.46989  0.012029004   0.01123109          139 
 1466000   0.66072552   -8.7178392    211.39073  0.012016299  0.011220854          134 
 1467000   0.66858873   -8.7243846    211.67939  0.012024505  0.011210601          127 
 1468000     0.674361    -8.724787    211.33933   0.01199701   0.01120034          148 
 1469000   0.65715808   -8.7278669    210.86344  0.011961847  0.011190073          156 
 1470000   0.66815078   -8.7318286     211.2509  0.011975675  0.011179823          152 
 1471000   0.66352114   -8.7546334    211.27469  0.011968881  0.011169573          137 
 1472000   0.66201082   -8.7561679    211.34137  0.011964525  0.011159325          149 
 1473000   0.64837773    -8.757587    211.20003  0.011948406   0.01114909          155 
 1474000   0.66293845   -8.7040248    211.42485  0.011953011  0.011138828          159 
 1475000   0.66555315   -8.7479589    211.05038   0.01192375    0.0111286          142 
 1476000   0.66803072   -8.7166973    211.14194  0.011920841  0.011118359          144 
 1477000   0.66626964   -8.7405438    211.12858  0.011912017  0.011108138          138 
 1478000   0.65556275   -8.7321304    211.12524  0.011903769  0.011097907          127 
 1479000   0.67018628   -8.7398229     211.2767  0.011904254  0.011087734          134 
 1480000   0.65551996   -8.7650569    211.19179   0.01189143  0.011077554          146 
 1481000   0.66614793   -8.7251097    211.43767  0.011897236   0.01106739          120 
 1482000   0.65645246   -8.7215432    211.44694  0.011889729  0.011057239          139 
 1483000   0.67232499   -8.7466504    210.99406  0.011856263  0.011047084          126 
 1484000   0.65373204   -8.7651397    211.05651  0.011851781  0.011036937          122 
 1485000   0.67010621   -8.7532138    211.38523  0.011862246  0.011026792          125 
 1486000   0.66470157   -8.7409211    211.06376  0.011836236  0.011016672          141 
 1487000   0.66559657   -8.7573833    211.15527  0.011833405  0.011006546          122 
 1488000   0.66207499   -8.7618983    211.13152  0.011824122  0.010996434          119 
 1489000   0.65355232   -8.7451056    211.26725  0.011823777  0.010986358          124 
 1490000   0.66196178   -8.7754069    211.14914  0.011809236  0.010976277          124 
 1491000   0.66173151    -8.747436    211.54043  0.011823185  0.010966205          129 
 1492000   0.65896245   -8.7483554    211.17218  0.011794693  0.010956163          138 
 1493000   0.66726893   -8.7616523    210.85745  0.011769226  0.010946118          121 
 1494000   0.64636078   -8.7664165    210.90865  0.011764204   0.01093607          128 
 1495000   0.66787623   -8.7477305    211.00923  0.011761941  0.010926048          131 
 1496000   0.65695198    -8.761523    211.36463  0.011773876  0.010916031          147 
 1497000   0.67202585   -8.7729944     211.3421  0.011764757  0.010906028          140 
 1498000   0.66950004   -8.7452871    211.25634  0.011752133  0.010896066          153 
 1499000   0.66042507   -8.7515481    211.61126  0.011764024  0.010886115          156 
 1500000   0.64871051   -8.7676245    211.31562  0.011739757  0.010876176          157 
 1501000   0.63171844   -8.7641615    211.49655   0.01174198  0.010866239          147 
 1502000   0.66529145   -8.7582342    211.04349  0.011709026  0.010856306          152 
 1503000   0.64389131   -8.7647467    211.27963  0.011714329  0.010846359          148 
 1504000   0.65068472   -8.7493363    211.51293  0.011719467  0.010836459          152 
 1505000   0.64987824   -8.7402166    211.65053  0.011719299  0.010826577          141 
 1506000   0.66493103   -8.7477977    211.21359  0.011687339  0.010816664          145 
 1507000   0.65302098   -8.7654946     210.7518  0.011654048  0.010806737          130 
 1508000   0.65581531   -8.7456272    211.09864  0.011665486  0.010796812          151 
 1509000   0.65387834    -8.769339    211.15782  0.011661024   0.01078691          138 
 1510000   0.65059018   -8.7608546    211.20528  0.011655921   0.01077703          145 
 1511000   0.65682507   -8.7608099     211.2278  0.011649449  0.010767159          153 
 1512000   0.65555207   -8.7654825    211.09319  0.011634325  0.010757285          147 
 1513000   0.63541146   -8.7645828     211.0217  0.011622698  0.010747411          147 
 1514000   0.63907471   -8.7927153    211.18172  0.011623829  0.010737556          156 
 1515000   0.65261271   -8.7896628    211.33631  0.011624659  0.010727693          138 
 1516000   0.64940843   -8.7844046    211.12116  0.011605165   0.01071783          168 
 1517000   0.64244789   -8.7745421    210.88356  0.011584463  0.010708003          165 
 1518000   0.64789917   -8.7990151    210.88008  0.011576641  0.010698175          154 
 1519000   0.64131668   -8.7795422    211.20694  0.011586951  0.010688389          151 
 1520000    0.6513118   -8.7620673    210.60919  0.011546557  0.010678558          146 
 1521000   0.65780844   -8.7921097    210.92309  0.011556163  0.010668746          143 
 1522000   0.64657091   -8.7868832    211.01763  0.011553747  0.010658964          143 
 1523000   0.65105969   -8.8031142    210.89614  0.011539513  0.010649184          141 
 1524000   0.64407791   -8.7964382    210.81809  0.011527673  0.010639408          139 
 1525000   0.62645408   -8.7849044    211.30476  0.011546708  0.010629616          146 
 1526000    0.6362205   -8.8023121    210.64186  0.011502941  0.010619865          137 
 1527000   0.66506458   -8.7837007    210.67647  0.011497297   0.01061011          136 
 1528000   0.63598621   -8.7974949    210.56522  0.011483705  0.010600372          154 
 1529000   0.64114401   -8.7754272    210.92925  0.011496035  0.010590665          145 
 1530000   0.65053067   -8.8023897    210.94845  0.011489567  0.010580938          131 
 1531000   0.64405838    -8.791017    210.79165  0.011473528  0.010571243          150 
 1532000   0.63469973   -8.7919412    211.08972  0.011482252  0.010561573          154 
 1533000   0.64570575   -8.7947135    211.04402  0.011472278  0.010551903          148 
 1534000   0.64010525   -8.8131749    210.64849  0.011443312  0.010542227          127 
 1535000   0.65045708   -8.7875542    210.77641  0.011442802  0.010532552          145 
 1536000   0.64061122   -8.7846161    210.74232  0.011433502  0.010522885          136 
 1537000    0.6369327   -8.7989484    210.75482  0.011426742  0.010513235          151 
 1538000   0.63594094   -8.7960455    210.85049  0.011424496  0.010503582          143 
 1539000   0.64731823   -8.8013181    210.71928  0.011409968  0.010493949          135 
 1540000   0.63975292   -8.8043776    210.67171  0.011399985  0.010484315          131 
 1541000   0.64346795   -8.7920323    210.99758  0.011410209  0.010474687          138 
 1542000   0.63246429   -8.7985561     211.0589  0.011406123  0.010465067          148 
 1543000   0.62480664   -8.7828067    210.83803  0.011386802  0.010455469          137 
 1544000   0.63264263   -8.8315322    210.53491  0.011363067  0.010445845          157 
 1545000   0.65477137   -8.8183933    210.53663  0.011355805  0.010436257          151 
 1546000   0.63160415   -8.7872356    210.51595  0.011347345  0.010426679          147 
 1547000   0.63532365   -8.8059123    210.59878  0.011344472  0.010417108          149 
 1548000   0.63714299    -8.834322    210.03316  0.011306695  0.010407549          122 
 1549000   0.62980933   -8.7996202    210.72327  0.011336522     0.010398          162 
 1550000   0.62881152   -8.8021789     210.1509  0.011298435  0.010388456          135 
 1551000   0.62797867   -8.8242397    210.36736  0.011302781   0.01037893          137 
 1552000   0.64000167   -8.8085277    210.85934  0.011321915  0.010369414          146 
 1553000   0.63274825    -8.801222    210.85193  0.011314227  0.010359921          166 
 1554000   0.62545483   -8.7983528    210.68173  0.011297819  0.010350431          142 
 1555000   0.64110268   -8.8021194    210.45934  0.011278636  0.010340934          153 
 1556000    0.6282857   -8.8221389    210.90055  0.011295017  0.010331463          131 
 1557000   0.63914561   -8.7880441    210.60769  0.011272088  0.010322001          127 
 1558000   0.63647388   -8.8240388    210.49079    0.0112586  0.010312534          147 
 1559000   0.63004065   -8.8175212    210.32147  0.011242328  0.010303051          144 
 1560000   0.62788959    -8.843762    210.65583  0.011252983  0.010293591          155 
 1561000   0.63517415   -8.8359387    210.22303  0.011222669  0.010284141          152 
 1562000   0.63980222   -8.8134708    210.47677  0.011229021  0.010274699          155 
 1563000   0.62288962   -8.8288525    210.20873  0.011207546  0.010265281          144 
 1564000   0.62222154   -8.8202754    210.34666  0.011207729  0.010255872          145 
 1565000   0.61277409   -8.8332969    210.30343  0.011198266  0.010246458          147 
 1566000   0.63480493   -8.8135238    210.67623  0.011210953  0.010237076          143 
 1567000   0.63814763   -8.8557769    210.27972  0.011182712  0.010227694          153 
 1568000   0.61095012   -8.8091551    210.45616  0.011184958  0.010218309          146 
 1569000   0.63584737   -8.8326048    210.76421   0.01119419  0.010208941          158 
 1570000   0.63072758   -8.8311426    210.39255  0.011167333  0.010199585          155 
 1571000   0.63541887   -8.8013792    210.75278  0.011179333  0.010190243          158 
 1572000   0.62326817   -8.8229304    210.45849  0.011156621  0.010180901          145 
 1573000   0.62504415   -8.8144397    210.24681  0.011138314  0.010171567          145 
 1574000    0.6313534   -8.8255652    210.30962  0.011134562  0.010162236          143 
 1575000   0.63026802   -8.8248943    210.41086   0.01113285   0.01015292          140 
 1576000   0.62283964   -8.8241729    210.61663  0.011136666   0.01014363          141 
 1577000   0.62093581   -8.8234287    210.65918  0.011131853  0.010134343          148 
 1578000   0.63328305   -8.8197989    210.77459  0.011130893  0.010125052          159 
 1579000   0.61537703   -8.8405502    210.52032  0.011110424  0.010115773          151 
 1580000   0.62390702   -8.8480634    210.42328  0.011098274  0.010106516          154 
 1581000   0.62269882   -8.8044819    210.67459  0.011104501  0.010097261          157 
 1582000   0.63235199   -8.8264305    210.30623  0.011078078   0.01008802          168 
 1583000   0.64096012   -8.8369053    210.37832  0.011074875  0.010078772          155 
 1584000   0.62248474   -8.8315635    210.36544  0.011067206  0.010069536          161 
 1585000   0.61479085    -8.831177    210.65183   0.01107528  0.010060316          148 
 1586000   0.62914531   -8.8403073    210.47797  0.011059162  0.010051087          161 
 1587000    0.6288294   -8.8161413    210.59268  0.011058217   0.01004187          149 
 1588000     0.613812    -8.856145     210.3148  0.011036671  0.010032673          172 
 1589000   0.61780206   -8.8708626    210.26876  0.011027311  0.010023482          156 
 1590000   0.62063373   -8.8520222    210.30749  0.011022405  0.010014304          149 
 1591000   0.63800665   -8.8467832    210.39942  0.011020292  0.010005145          150 
 1592000   0.61810651   -8.8483411     210.2747  0.011006841  0.009996003          146 
 1593000   0.62974137   -8.8413265    210.41925  0.011007494 0.0099868654          160 
 1594000   0.62492776   -8.8449826    210.42877  0.011001086  0.009977746          157 
 1595000    0.6090502    -8.829749    210.68656  0.011007657 0.0099686365          167 
 1596000   0.60650538   -8.8372278    210.34641     0.010983 0.0099595331          158 
 1597000   0.61911362   -8.8345366    210.46094  0.010982099 0.0099504405          144 
 1598000    0.6235436    -8.847507    210.54334  0.010979523  0.009941348          151 
 1599000   0.61714026    -8.820523      211.092  0.011001251 0.0099322693          164 
 1600000   0.60590337   -8.8342459    210.37546  0.010957055 0.0099231995          161 
 1601000    0.6146698    -8.830782    210.08908  0.010935305 0.0099141389          157 
 1602000   0.61352431   -8.8526285    210.24293  0.010936482 0.0099050787          169 
 1603000   0.60494301   -8.8464801    210.16515  0.010925616 0.0098960265          180 
 1604000   0.62551129   -8.8531735    210.20936  0.010921101 0.0098869921          168 
 1605000   0.61865537   -8.8328497    210.66597  0.010938005  0.009877989          161 
 1606000   0.61336109   -8.8502232    210.63668  0.010929674  0.009868986          158 
 1607000   0.61294465   -8.8532344    210.33076  0.010907009 0.0098599816          158 
 1608000   0.61614436   -8.8671768    210.18736  0.010892794 0.0098509784          159 
 1609000   0.60827243   -8.8662298    209.95009  0.010873736 0.0098419935          167 
 1610000   0.61060339   -8.8469142      210.426  0.010891615 0.0098330128          169 
 1611000   0.61098681   -8.8312206    210.59804  0.010893753 0.0098240493          150 
 1612000   0.60693006   -8.8639843    210.29944  0.010871559 0.0098150938          143 
 1613000   0.61223592   -8.8634231    210.30994  0.010865362 0.0098061389          157 
 1614000   0.59977052   -8.8473447    210.33925  0.010860143 0.0097972012          151 
 1615000   0.60696461   -8.8541944    210.31936  0.010852392 0.0097882748          159 
 1616000   0.60437381   -8.8685557    210.44809  0.010852315 0.0097793326          136 
 1617000   0.61415843   -8.8748818     209.8045  0.010812436  0.009770399          150 
 1618000   0.60603661   -8.8545151    210.19876  0.010826059  0.009761471          148 
 1619000   0.61517998   -8.8416495     210.1591  0.010817331  0.009752571          152 
 1620000   0.61162096   -8.8602915    210.20402  0.010812964 0.0097436718          148 
 1621000   0.59598862   -8.8693861    210.26957  0.010809663 0.0097347845          162 
 1622000   0.60738273   -8.8567511    210.37901  0.010808621 0.0097259049          171 
 1623000   0.60408336   -8.8671587    210.18084  0.010791787 0.0097170346          152 
 1624000   0.59936657   -8.8529933    210.42618  0.010797731 0.0097081842          159 
 1625000   0.61302187   -8.8564467     210.2777  0.010783472 0.0096993454          156 
 1626000    0.6019872   -8.8878604    210.05708  0.010765533 0.0096905086          152 
 1627000   0.60356745   -8.8594593    210.13514  0.010762914 0.0096816718          152 
 1628000   0.59938176   -8.8843633    209.76315  0.010737262 0.0096728453          162 
 1629000   0.61031732   -8.8750383    210.10151   0.01074798 0.0096640201          162 
 1630000   0.61042086   -8.8612509     210.1567  0.010744208 0.0096552104          156 
 1631000   0.61219703   -8.8610826     209.8882  0.010723901 0.0096464108          158 
 1632000   0.60016225   -8.8809417    210.09608  0.010727945 0.0096376136          154 
 1633000   0.60157064   -8.8765881    210.12254  0.010722726 0.0096288327          160 
 1634000   0.59368001   -8.8739918    210.13896  0.010717001 0.0096200579          157 
 1635000    0.6125242   -8.8787701    210.24443  0.010715822 0.0096112942          171 
 1636000   0.59491124   -8.8654458    210.14803  0.010704362 0.0096025392          165 
 1637000   0.60958454   -8.8705736    209.84428   0.01068236   0.00959378          159 
 1638000   0.60031856   -8.8858825    210.58343  0.010713443  0.009585036          174 
 1639000   0.59036461   -8.8648957    209.71481  0.010662742 0.0095762947          173 
 1640000   0.58472154   -8.8729999    209.72073  0.010656541 0.0095675685          149 
 1641000   0.60665487   -8.8707849    209.66989  0.010647465 0.0095588606          176 
 1642000   0.61093525   -8.8861733    209.85279  0.010650264 0.0095501558          158 
 1643000   0.60077334   -8.8987512     209.8172  0.010641976  0.009541453          166 
 1644000    0.5985004    -8.877464    209.63664   0.01062635 0.0095327547          137 
 1645000   0.59429558   -8.8676309     210.0878  0.010642746 0.0095240703          170 
 1646000   0.59946303   -8.8852512     209.9817  0.010630908 0.0095154019          160 
 1647000   0.60689291   -8.8979604    209.74854  0.010612656 0.0095067236          166 
 1648000   0.60394929   -8.9002921    209.50618  0.010593961 0.0094980477          155 
 1649000   0.58650212   -8.8832575    210.12894  0.010619008 0.0094893854          161 
 1650000   0.59929958   -8.8812435    209.80494  0.010596209 0.0094807411          156 
 1651000   0.58050068   -8.8784581    209.81983  0.010590543 0.0094721067          161 
 1652000   0.58573322   -8.8762744    209.88037  0.010587186 0.0094634831          159 
 1653000   0.59222089   -8.9003254    209.59312    0.0105663 0.0094548732          163 
 1654000   0.59331841   -8.9106479    209.63392  0.010561967 0.0094462639          162 
 1655000   0.59819411   -8.9126711     209.3552  0.010541551 0.0094376529          156 
 1656000   0.59670243   -8.8846992     210.1823  0.010576807 0.0094290762          165 
 1657000   0.58905698   -8.8938411    209.82669  0.010552539 0.0094204853          170 
 1658000   0.59559752   -8.9157116    209.62184  0.010535878 0.0094119069          156 
 1659000   0.59308847   -8.8992802    209.50759  0.010523789 0.0094033372          169 
 1660000   0.58457847   -8.8845893    209.81503  0.010532883 0.0093947904          172 
 1661000   0.60525786    -8.888626    209.87407  0.010529504 0.0093862518          160 
 1662000   0.57910643    -8.913571    209.85233  0.010522078 0.0093777278          162 
 1663000   0.59062566   -8.8900576    209.64708  0.010505466 0.0093692085          167 
 1664000   0.58217303   -8.9038579    209.30049  0.010481796 0.0093606985          174 
 1665000   0.58228755   -8.9042642    209.97803  0.010509411 0.0093521966          161 
 1666000   0.58490066    -8.893048    209.64639  0.010486514 0.0093436943          168 
 1667000    0.5838242   -8.9072563    209.40168   0.01046799 0.0093352065          163 
 1668000   0.57714066   -8.9124174    210.03253  0.010493232 0.0093267311          172 
 1669000   0.59412708    -8.905821    209.64923  0.010467807 0.0093182659          163 
 1670000   0.59465724   -8.8872781    209.62797  0.010460477 0.0093098158          177 
 1671000   0.58274885   -8.8958508    209.99188  0.010472366 0.0093013524          154 
 1672000   0.59341241   -8.9143981    209.65986  0.010449554 0.0092929196          168 
 1673000   0.59532603   -8.9191232     209.5155  0.010436118 0.0092844863          171 
 1674000    0.5851325   -8.9257854    209.20887  0.010414619 0.0092760684          168 
 1675000   0.58571591   -8.9052199     209.7336  0.010434507 0.0092676543          152 
 1676000   0.58844613   -8.9246777    209.72143  0.010427677 0.0092592514          168 
 1677000   0.57181499   -8.9096128    209.94138  0.010432388 0.0092508424          160 
 1678000   0.57815927   -8.9193675    209.77058  0.010417689 0.0092424581          152 
 1679000   0.57241339   -8.8986664     209.9624  0.010421005 0.0092340716          159 
 1680000   0.57985322   -8.9090678    209.76489  0.010405005 0.0092257034          169 
 1681000   0.57191122   -8.9205192    209.78804  0.010399962 0.0092173445          159 
 1682000   0.59772637   -8.9275403    209.76382  0.010392579 0.0092089867          162 
 1683000   0.58808143   -8.9029398    209.70759   0.01038362 0.0092006477          151 
 1684000   0.57634395   -8.9051203    209.46529  0.010365464 0.0091923095          162 
 1685000   0.56595775   -8.9176511    209.58385  0.010365176  0.009183992          153 
 1686000   0.57308187   -8.9118818    209.43557  0.010351699 0.0091756735          177 
 1687000   0.55922985   -8.9035503    209.50482  0.010348983 0.0091673655          168 
 1688000   0.57816036   -8.9176097    209.65514  0.010350274 0.0091590577          163 
 1689000   0.57677038   -8.9200794    209.69193  0.010345961 0.0091507656          166 
 1690000   0.57708113   -8.9433567    209.47904  0.010329341 0.0091424824          174 
 1691000   0.57765418   -8.9186723    210.00551  0.010349178 0.0091342009          175 
 1692000   0.56353847   -8.9143877    209.44138  0.010315277 0.0091259259          165 
 1693000   0.57988363   -8.9019526    209.36332  0.010305342 0.0091176677          167 
 1694000    0.5621022   -8.9278016     209.4675  0.010304383  0.009109433          163 
 1695000   0.58512013   -8.9112785    209.52765  0.010301261 0.0091011976          177 
 1696000   0.57238724   -8.9170998    209.39771  0.010288803 0.0090929645          158 
 1697000   0.58101772   -8.9367794     209.4517  0.010285391 0.0090847376          164 
 1698000   0.57947648   -8.9292129     209.2622  0.010270033 0.0090765159          163 
 1699000   0.58098005   -8.9086595    209.45589  0.010273489 0.0090683103          143 
 1700000   0.57435323   -8.9126516    209.62673   0.01027582 0.0090601005          155 
 1701000     0.579997   -8.9265822    209.30756  0.010254143 0.0090519164          163 
 1702000   0.56814964   -8.9312172    208.92166  0.010229223  0.009043731          142 
 1703000   0.57574005   -8.9298117    209.73495  0.010263014 0.0090355563          164 
 1704000   0.57257154   -8.9248715    209.31985  0.010236691 0.0090273992          157 
 1705000   0.56750383   -8.9287708    208.94582  0.010212406 0.0090192427          164 
 1706000   0.57005984   -8.9356117    209.34671  0.010226002 0.0090110998          171 
 1707000   0.57499517   -8.9431953    209.12912  0.010209389 0.0090029541          171 
 1708000   0.57827833   -8.9277837    209.17115  0.010205462 0.0089948216          179 
 1709000   0.57312009    -8.916883    209.60366   0.01022058 0.0089867017          172 
 1710000   0.57372189   -8.9281671    209.46233  0.010207716 0.0089785992          172 
 1711000   0.57497251   -8.9407223    208.77615   0.01016833 0.0089704963          177 
 1712000    0.5716245   -8.9214177    209.47398  0.010196358 0.0089624057          160 
 1713000   0.56204779    -8.916913    209.18424  0.010176311 0.0089543116          183 
 1714000   0.58297459   -8.9367201    209.29323  0.010175672 0.0089462319          170 
 1715000   0.56706287   -8.9432425    209.05697  0.010158259 0.0089381633          169 
 1716000   0.57542271   -8.9485773    209.06524  0.010152741 0.0089301096          172 
 1717000   0.56405361   -8.9324707    209.39002  0.010162591 0.0089220573          165 
 1718000   0.55603845   -8.9495948    209.04006    0.0101397 0.0089140026          164 
 1719000   0.56436119    -8.944336    209.20708  0.010141898 0.0089059625          165 
 1720000    0.5744028   -8.9325863     208.9213  0.010122156 0.0088979335          181 
 1721000   0.55683702   -8.9305247    209.53996  0.010146231 0.0088899053          176 
 1722000   0.55368556   -8.9430939    209.65755  0.010146029 0.0088819029          172 
 1723000   0.56024654   -8.9376966    209.32019  0.010123824 0.0088738958          156 
 1724000   0.56743817   -8.9527137    208.95281  0.010100194 0.0088658965          166 
 1725000   0.57501726   -8.9421183     209.2667  0.010109502 0.0088579076          167 
 1726000   0.56516165   -8.9283976    209.36094  0.010108195 0.0088499317          184 
 1727000   0.57661603   -8.9508303    209.16091   0.01009269 0.0088419645          173 
 1728000   0.58032124   -8.9336143    209.13949  0.010085816  0.008834016          179 
 1729000   0.56383267   -8.9344057    209.26172  0.010085874 0.0088260803          172 
 1730000   0.56316039   -8.9529038    209.48067  0.010090591 0.0088181411          159 
 1731000   0.56544559   -8.9192765    209.46025  0.010083779  0.008810218          163 
 1732000   0.56940023   -8.9314901    209.09288  0.010060281  0.008802292          171 
 1733000    0.5558194   -8.9371016    209.14709  0.010057082 0.0087943755          172 
 1734000   0.55862275   -8.9499731    209.32804  0.010059979 0.0087864649          179 
 1735000   0.54986975   -8.9303631    208.91065  0.010034133 0.0087785638          170 
 1736000   0.56702115   -8.9685316    208.98997  0.010032161 0.0087706708          166 
 1737000   0.55396947   -8.9363143    209.54748  0.010053132 0.0087627892          171 
 1738000   0.56329323   -8.9355865    209.28429  0.010034728 0.0087549132          173 
 1739000   0.54912056   -8.9344236    208.93874  0.010012399 0.0087470441          168 
 1740000   0.56638534   -8.9596638    208.90912  0.010005226 0.0087391772          179 
 1741000   0.55948685   -8.9384922    208.94523  0.010001208 0.0087313277          156 
 1742000   0.55505246   -8.9512893    208.97485 0.0099968832 0.0087234771          175 
 1743000   0.56602672   -8.9512718    209.22265  0.010002995 0.0087156317          168 
 1744000   0.56322675   -8.9510749    209.28488  0.010000233  0.008707802          158 
 1745000   0.56631703   -8.9598823    208.69924 0.0099665349 0.0086999792          177 
 1746000   0.56082198   -8.9453931     209.4795 0.0099980671 0.0086921702          167 
 1747000   0.54355531   -8.9307633    209.26042 0.0099818936 0.0086843641          163 
 1748000   0.55196951   -8.9612689    208.82926 0.0099556286 0.0086765795          173 
 1749000   0.56587416   -8.9524267    209.15346 0.0099653828 0.0086687883          146 
 1750000   0.55399978    -8.957977    208.91493   0.00994833 0.0086610028          171 
 1751000   0.54826646   -8.9462253    209.01065  0.009947204 0.0086532312          174 
 1752000   0.54967235   -8.9787562    208.67119 0.0099253799 0.0086454676          173 
 1753000    0.5469727   -8.9697998    208.97353 0.0099340907 0.0086377182          168 
 1754000   0.55334817   -8.9541319    209.10609 0.0099347249 0.0086299775          180 
 1755000   0.55111591   -8.9731818    208.82069 0.0099155122 0.0086222456          168 
 1756000   0.55044819    -8.946245    209.02191 0.0099194148 0.0086145206          149 
 1757000   0.53713818   -8.9549688    208.94011 0.0099098894 0.0086068001          170 
 1758000    0.5498646    -8.958517    208.88483 0.0099016321 0.0085990943          168 
 1759000   0.55063061   -8.9711447    208.70527 0.0098874962 0.0085913942          162 
 1760000   0.54843875   -8.9606219    209.06822 0.0098990636 0.0085837017          174 
 1761000    0.5474884   -8.9564688    209.06296 0.0098931933 0.0085760114          159 
 1762000   0.55315597   -8.9508579    209.23831 0.0098958717 0.0085683294          169 
 1763000     0.550906   -8.9658266    208.77929 0.0098685615   0.00856066          173 
 1764000    0.5454686   -8.9605689    209.30523 0.0098878132 0.0085530043          166 
 1765000   0.54597826   -8.9606866    208.92802 0.0098644014 0.0085453486          160 
 1766000   0.57026316   -8.9566631    208.63282 0.0098448858 0.0085377053          174 
 1767000   0.54331593   -8.9866632     209.1791 0.0098650771 0.0085300652          159 
 1768000   0.55417731   -8.9638175    208.90196 0.0098464345 0.0085224332          170 
 1769000    0.5466953   -8.9667478     208.8976 0.0098406634  0.008514816          162 
 1770000   0.54950482   -8.9820286    208.62113 0.0098220869 0.0085072118          168 
 1771000   0.56084954   -8.9844257    209.04737 0.0098365974 0.0084996078          164 
 1772000   0.55048417   -8.9706989    208.64991 0.0098123549 0.0084920108          168 
 1773000   0.53846149   -8.9717872    208.77165 0.0098125424 0.0084844245          165 
 1774000    0.5420816   -8.9781611    208.92791 0.0098143514 0.0084768402          174 
 1775000    0.5460124   -8.9498653    208.69086 0.0097976928 0.0084692722          167 
 1776000   0.55108998   -8.9881085     209.0119 0.0098072401 0.0084617042          179 
 1777000   0.53810691   -9.0019098    208.69408 0.0097868169 0.0084541492          167 
 1778000   0.55492281   -8.9838829    208.82251 0.0097873316 0.0084465978          175 
 1779000   0.53454895   -8.9857692    208.83253 0.0097822996 0.0084390519          165 
 1780000   0.54251136   -8.9630159    208.75644 0.0097732414 0.0084315197          168 
 1781000   0.54130409   -8.9876626    208.86983 0.0097730595 0.0084239958          180 
 1782000   0.53590944   -8.9955526    208.67928 0.0097586644 0.0084164748          170 
 1783000   0.55353465   -8.9627773    208.36104 0.0097383176 0.0084089708          168 
 1784000    0.5489986   -8.9709282    208.88393 0.0097572835 0.0084014886          167 
 1785000   0.53841724   -8.9709295    208.80681  0.009748217 0.0083940123          154 
 1786000   0.54610016   -8.9738458    208.66769 0.0097362678 0.0083865372          165 
 1787000   0.53853146   -8.9924268    208.82428 0.0097381215 0.0083790689          167 
 1788000   0.54554617   -8.9859047    208.67656 0.0097257906 0.0083716144          170 
 1789000   0.52947573   -8.9997613    208.29218 0.0097024493 0.0083641654          168 
 1790000    0.5414498   -8.9810462    208.69513  0.009715788 0.0083567153          173 
 1791000   0.53157688   -8.9937796     208.7333 0.0097121396 0.0083492845          174 
 1792000   0.54041781   -8.9845877    208.76101 0.0097080085 0.0083418689          168 
 1793000   0.53999749   -8.9775982     208.8272 0.0097056702 0.0083344462          175 
 1794000    0.5367861   -8.9826741    208.88506 0.0097029476 0.0083270327          154 
 1795000   0.54584927   -8.9956593    208.73175 0.0096904249 0.0083196259          178 
 1796000   0.54279246   -9.0010842    208.55151 0.0096766663 0.0083122317          168 
 1797000   0.53739572   -8.9639874    208.88459 0.0096867272 0.0083048489          179 
 1798000   0.52380679   -8.9821185    208.71622 0.0096735363 0.0082974659          177 
 1799000   0.53202287    -8.984338    208.45569  0.009656091 0.0082900993          183 
 1800000    0.5276049    -8.991982    208.58154 0.0096565527 0.0082827469          177 
 1801000    0.5289197   -8.9955014    208.63334 0.0096535877 0.0082754023          159 
 1802000   0.54861098   -8.9938778    208.62564 0.0096478745 0.0082680579          186 
 1803000    0.5392512   -8.9965331    208.74309 0.0096479521 0.0082607131          167 
 1804000   0.53756409   -8.9958671    208.56752 0.0096344938  0.008253387          178 
 1805000   0.53441749   -9.0108509    208.86875 0.0096430632 0.0082460634          164 
 1806000   0.53885334   -8.9766834    208.75585 0.0096325142 0.0082387426          174 
 1807000   0.52984602   -8.9755394    208.77277  0.009627964  0.008231444          168 
 1808000   0.53035174   -9.0012903    208.59501 0.0096144454 0.0082241405          166 
 1809000   0.52150652   -9.0013637    208.41885 0.0096010158 0.0082168637          170 
 1810000   0.52793902   -9.0248494    208.58509 0.0096033653 0.0082095891          177 
 1811000   0.54214009   -9.0004927    208.36507 0.0095879383 0.0082023243          170 
 1812000   0.53934481   -8.9911572    208.50718 0.0095891822 0.0081950649          172 
 1813000   0.52438715   -8.9936694     208.6079 0.0095885225 0.0081878153          179 
 1814000   0.53141975   -8.9871193    208.47395 0.0095770835 0.0081805778          171 
 1815000   0.53010545   -9.0090763    208.60406 0.0095777806 0.0081733383          172 
 1816000   0.51976512   -8.9976374    208.30639 0.0095588467 0.0081661167          157 
 1817000   0.52952955   -9.0035922    208.58376 0.0095663069 0.0081588993          177 
 1818000   0.53105171   -9.0164426    208.64373 0.0095637939 0.0081516861          175 
 1819000   0.52709173   -9.0000416    208.55559 0.0095544983 0.0081444838          173 
 1820000   0.52515966   -8.9994094    208.49791 0.0095466077  0.008137298          171 
 1821000   0.53647812   -9.0215614    208.64806 0.0095482363 0.0081301132          170 
 1822000   0.51873167    -8.997104    208.31814 0.0095279062 0.0081229224          174 
 1823000   0.52367537   -8.9866522     208.6605 0.0095383298 0.0081157587          178 
 1824000   0.52144296   -8.9967246    208.32517 0.0095177798  0.008108592          168 
 1825000   0.52475769   -9.0215563    208.48399 0.0095198167  0.008101434          191 
 1826000   0.52181751   -9.0183712    208.10902 0.0094974911 0.0080942841          175 
 1827000   0.53041284   -9.0188611    208.64071 0.0095165441 0.0080871385          176 
 1828000   0.52852382   -9.0019841    208.64934 0.0095117315 0.0080800039          180 
 1829000   0.52102483   -9.0155937    208.65813 0.0095069313 0.0080728727          172 
 1830000   0.52570445   -9.0182702    208.56161 0.0094973413  0.008065753          176 
 1831000   0.52434229   -8.9924821    208.26995   0.00947888 0.0080586359          187 
 1832000   0.52613344    -9.009683    208.30821 0.0094754464 0.0080515267          175 
 1833000   0.52366968   -9.0053857    208.69669 0.0094879383 0.0080444278          192 
 1834000   0.52717819   -8.9953762    208.53135 0.0094752521 0.0080373449          168 
 1835000   0.51517724   -9.0212131    208.44431 0.0094661357 0.0080302587          183 
 1836000   0.51578446   -9.0209586    208.69822 0.0094725044 0.0080231828          176 
 1837000   0.52264168   -9.0187856    208.48854 0.0094578364 0.0080161216          167 
 1838000   0.52760179   -9.0042184    208.79715 0.0094666825 0.0080090678          172 
 1839000   0.52527292   -9.0167872     208.4271 0.0094447661 0.0080020228          162 
 1840000   0.52246563   -9.0071062    208.62271 0.0094484921 0.0079949862          174 
 1841000   0.51798506   -9.0289351    208.12338 0.0094207579 0.0079879451          175 
 1842000   0.51626426   -9.0338259    208.46556 0.0094311238  0.007980914          174 
 1843000   0.52259789   -9.0067584    208.39341  0.009422744  0.007973892          174 
 1844000   0.51177181   -8.9942598    208.69326 0.0094311848 0.0079668753          172 
 1845000   0.51224184   -9.0156543    208.23109 0.0094051982 0.0079598708          173 
 1846000   0.51918725   -9.0117285    208.29867  0.009403154 0.0079528706          176 
 1847000   0.50259126   -9.0368333    208.47134 0.0094058534 0.0079458838          162 
 1848000    0.5090624   -9.0243665    208.35275 0.0093954161 0.0079389034          170 
 1849000   0.51098335   -9.0204759    208.30984 0.0093884008 0.0079319259          171 
 1850000   0.50824023   -8.9991871    208.33008  0.009384238 0.0079249635          169 
 1851000   0.51058762   -9.0287619    208.31311 0.0093784039 0.0079180051          175 
 1852000   0.51544207    -9.011326    208.49588 0.0093815639 0.0079110535          171 
 1853000   0.51271402   -9.0077608    208.29798  0.009367601  0.007904115          187 
 1854000   0.51208527   -9.0401477    208.70934 0.0093810383 0.0078971923          175 
 1855000   0.51717911   -9.0266685    208.41386 0.0093627072  0.007890267          175 
 1856000   0.53074633   -9.0119642    207.96173 0.0093373623 0.0078833453          179 
 1857000    0.5104184   -9.0256358     208.3365 0.0093491517 0.0078764373          173 
 1858000   0.51543413   -9.0245787    208.56098 0.0093541884  0.007869535          173 
 1859000   0.51448137   -9.0223638    208.14223 0.0093303851 0.0078626354          164 
 1860000   0.50431434   -9.0233154    208.40751 0.0093372541 0.0078557524          168 
 1861000   0.50384786   -9.0184229    208.27931 0.0093264959 0.0078488653          173 
 1862000   0.51700119   -9.0229889    208.18167 0.0093171172 0.0078419992          172 
 1863000   0.51402433   -9.0268645     208.4376 0.0093235642  0.007835135          168 
 1864000   0.52904838   -9.0234007    208.44043 0.0093186887 0.0078282813          173 
 1865000   0.51814806   -9.0214235    208.02173 0.0092949833 0.0078214273          177 
 1866000   0.50241188   -9.0429521     208.4253 0.0093080251 0.0078145795          170 
 1867000   0.51672872   -9.0286149    207.80965   0.00927556 0.0078077472          169 
 1868000   0.51291706   -9.0343165    208.06533 0.0092820009 0.0078009228          173 
 1869000   0.50637513   -9.0347749    208.60318 0.0093010155 0.0077941058          167 
 1870000   0.51149231   -9.0352942    208.52843 0.0092927109 0.0077873037          172 
 1871000   0.50889121    -9.028485    208.46032 0.0092847104 0.0077805012          159 
 1872000   0.50777189   -9.0342657    208.04437 0.0092612343  0.007773702          170 
 1873000   0.50264527   -9.0422183     208.2684 0.0092662574 0.0077669181          185 
 1874000   0.51532283   -9.0428152    207.96364 0.0092477605 0.0077601373          177 
 1875000   0.50427577   -9.0333483    208.08759 0.0092483375 0.0077533656          177 
 1876000   0.49868972   -9.0314082    208.35352 0.0092552201 0.0077466014          158 
 1877000   0.50042891   -9.0385912    208.25135 0.0092457533  0.007739839          167 
 1878000   0.50161436   -9.0594672    208.22178 0.0092395179 0.0077330855          176 
 1879000   0.50906751   -9.0246687    208.33797  0.009239754 0.0077263468          176 
 1880000   0.49062626   -9.0510832     208.2427  0.009230616 0.0077196064          164 
 1881000   0.49485707   -9.0532254    208.23374  0.009225312 0.0077128751          169 
 1882000   0.50204407   -9.0283249     208.0492 0.0092122389  0.007706154          163 
 1883000   0.49042719   -9.0319634     208.2003 0.0092140333 0.0076994429          176 
 1884000   0.51091347   -9.0499518    208.24678 0.0092111985 0.0076927333          162 
 1885000   0.50305646   -9.0542961    208.24853 0.0092063893 0.0076860312          170 
 1886000   0.49812206   -9.0272543    208.33895 0.0092055031 0.0076793393          178 
 1887000   0.50890223   -9.0550901    208.23213 0.0091959074 0.0076726543          179 
 1888000   0.50367574   -9.0639331    208.04391 0.0091827291 0.0076659737          174 
 1889000   0.49057388   -9.0430675    208.12231 0.0091813266 0.0076592979          168 
 1890000   0.49310337   -9.0335061    208.28699 0.0091837299 0.0076526255          172 
 1891000   0.50577802   -9.0382571    207.64378  0.009150528 0.0076459642          164 
 1892000    0.4904162   -9.0619075    207.98281  0.009160624 0.0076393109          172 
 1893000   0.49474549   -9.0416995     208.3117 0.0091702633 0.0076326577          161 
 1894000   0.49144475   -9.0559158    208.04041 0.0091534851 0.0076260225          174 
 1895000   0.49332692   -9.0404591    208.01715  0.009147632 0.0076193891          171 
 1896000   0.49009853   -9.0649116    207.92289 0.0091386641 0.0076127643          167 
 1897000   0.49595417   -9.0547845     207.9993 0.0091372034 0.0076061453          167 
 1898000   0.49475797   -9.0413429    207.93335 0.0091294937 0.0075995357          159 
 1899000   0.49709216   -9.0466729    208.04328 0.0091295101 0.0075929361          177 
 1900000   0.49682272   -9.0513355    208.17062 0.0091302903 0.0075863468          170 
 1901000   0.50148591   -9.0422159    208.00526 0.0091182386 0.0075797565          179 
 1902000   0.49723689   -9.0518122    207.98441  0.009112531 0.0075731834          178 
 1903000   0.49032094   -9.0435925    208.10084  0.009112841 0.0075666152          179 
 1904000   0.49236746   -9.0398181    208.00117 0.0091036927 0.0075600494          173 
 1905000   0.49354046   -9.0542623    208.06794 0.0091018348 0.0075534878          171 
 1906000    0.4802034   -9.0396293    208.04307 0.0090959721 0.0075469461          170 
 1907000   0.49530158   -9.0482071    208.07909 0.0090927761 0.0075404051          163 
 1908000   0.47792923   -9.0487869    207.92849 0.0090814329 0.0075338723          179 
 1909000   0.48827708   -9.0490541    208.10708 0.0090844718 0.0075273498          173 
 1910000   0.48596761   -9.0433964    207.99981 0.0090750354  0.007520836          173 
 1911000   0.49115455   -9.0509587    208.12226 0.0090756264 0.0075143162          167 
 1912000   0.49654543   -9.0465774    207.87399 0.0090600589 0.0075078121          170 
 1913000   0.49050391   -9.0576658    207.66999  0.009046436 0.0075013156          165 
 1914000    0.4972701   -9.0539794    207.85791 0.0090498918  0.007494822          172 
 1915000    0.4829283   -9.0670341    207.82839 0.0090438813 0.0074883342          171 
 1916000   0.48547427   -9.0767511    208.03093 0.0090479704 0.0074818512          181 
 1917000   0.48594164   -9.0656958    207.81691 0.0090339465 0.0074753768          177 
 1918000   0.48278245   -9.0590586     208.0099 0.0090376218 0.0074689141          175 
 1919000   0.48623806   -9.0527887    208.03013 0.0090337904 0.0074624566          171 
 1920000   0.49109936   -9.0616808    207.89239  0.009023107 0.0074560118          168 
 1921000     0.478823   -9.0514645    207.98278 0.0090223311 0.0074495732          169 
 1922000    0.4849732   -9.0655865    207.93782 0.0090156877 0.0074431413          176 
 1923000   0.48553236   -9.0592954    208.00554 0.0090139341  0.007436717          173 
 1924000   0.47781446   -9.0753711    207.91402  0.009005285 0.0074302952          181 
 1925000    0.4827078   -9.0507059    207.98394 0.0090036339 0.0074238802          170 
 1926000   0.48264731   -9.0607491    207.66137  0.008985002 0.0074174765          176 
 1927000   0.49273755   -9.0648876    207.85227  0.008988595 0.0074110757          174 
 1928000   0.48636515   -9.0619045    208.05758 0.0089928068 0.0074046829          166 
 1929000   0.48668646    -9.063174    207.71229 0.0089732284 0.0073982943          161 
 1930000   0.47326087   -9.0867817    208.12105 0.0089862285 0.0073919168          173 
 1931000   0.48256327   -9.0606415    207.77194 0.0089665087 0.0073855491          175 
 1932000   0.48811082   -9.0694145    207.79772 0.0089629797 0.0073791886          173 
 1933000   0.48200071   -9.0584592    207.36487 0.0089396824 0.0073728371          163 
 1934000   0.46311378   -9.0861973    207.75079 0.0089516884 0.0073664857          179 
 1935000   0.47911714    -9.058788    207.84748 0.0089512264  0.007360155          165 
 1936000   0.48629369   -9.0611994    207.89413 0.0089486108 0.0073538201          164 
 1937000   0.48427584   -9.0625091    207.53017 0.0089283328 0.0073474922          174 
 1938000     0.468117    -9.078677    207.54717 0.0089244569 0.0073411642          169 
 1939000   0.47844379   -9.0720764    207.74941  0.008928546 0.0073348436          165 
 1940000   0.47390981   -9.0811467    208.06988 0.0089377094 0.0073285411          174 
 1941000   0.47956367   -9.0782682    207.79897 0.0089214738 0.0073222402          170 
 1942000   0.47768577   -9.0767111    207.91002 0.0089216453 0.0073159463          172 
 1943000   0.47626728   -9.0725988    207.56031 0.0089020548 0.0073096649          177 
 1944000   0.47498137   -9.0661727    208.07697 0.0089196232  0.007303385          176 
 1945000   0.49029002   -9.0706776    207.77646 0.0089021619  0.007297111          168 
 1946000   0.46408269   -9.0770296    207.79533 0.0088983953 0.0072908514          157 
 1947000   0.48008919   -9.0808707    207.86242 0.0088966968 0.0072845976          183 
 1948000   0.47721695   -9.0959479     207.7063  0.008885451 0.0072783461          171 
 1949000   0.47158393   -9.0784809    207.43357  0.008869231  0.007272105          178 
 1950000   0.47146639   -9.0698018    207.64736 0.0088738187 0.0072658694          176 
 1951000   0.46737476   -9.0705526    207.90156 0.0088801281 0.0072596365          180 
 1952000   0.46578334    -9.070628    207.98741  0.008879244 0.0072534108          159 
 1953000   0.46981437   -9.0542712    207.65607 0.0088605592 0.0072471953          162 
 1954000   0.47248144   -9.0713893     207.8773 0.0088654599 0.0072409864          176 
 1955000   0.47782905   -9.0852879     207.6445 0.0088510016 0.0072347772          182 
 1956000   0.47263434   -9.0916331     207.9304 0.0088586573 0.0072285786          169 
 1957000   0.46843411   -9.0760636    207.35634 0.0088296856 0.0072223875          159 
 1958000   0.47406591   -9.0928367    207.46047 0.0088296082 0.0072161976          177 
 1959000   0.48199785   -9.0984956    207.30702 0.0088185732 0.0072100152          172 
 1960000   0.46801101   -9.0804899    207.84658 0.0088370144 0.0072038375          173 
 1961000   0.47387422   -9.0780051     207.4651  0.008816297 0.0071976706          176 
 1962000   0.48376121   -9.0898836    207.83849 0.0088276628 0.0071915109          165 
 1963000   0.46074477   -9.0960552     207.8483 0.0088235823 0.0071853562          171 
 1964000    0.4776207   -9.0756085    207.65775 0.0088110042 0.0071792132          166 
 1965000   0.46708114    -9.076401     208.0505 0.0088231763 0.0071730769          175 
 1966000   0.47363104   -9.0891641    207.41491 0.0087917476 0.0071669428          179 
 1967000   0.46969492    -9.085035    207.72597 0.0088004563 0.0071608157          167 
 1968000   0.46954275    -9.102225     207.4904 0.0087860097 0.0071546933          167 
 1969000   0.47675486   -9.0899808    207.52666 0.0087830821 0.0071485819          160 
 1970000   0.46496983   -9.0837811    207.59087 0.0087813397 0.0071424727          184 
 1971000   0.47309089   -9.0761979    207.73727 0.0087830744 0.0071363764          171 
 1972000    0.4755092   -9.0859934    207.69364 0.0087767766 0.0071302865          158 
 1973000   0.46281053   -9.1005323    207.38591 0.0087593303 0.0071242012          177 
 1974000   0.46097775    -9.088992    207.68941 0.0087677058 0.0071181224          171 
 1975000   0.46679161    -9.105492     207.4547 0.0087533628 0.0071120501          169 
 1976000   0.45892765   -9.1025058    207.38094 0.0087458224 0.0071059858          174 
 1977000    0.4609864   -9.0935297    207.53579 0.0087479259 0.0070999243          171 
 1978000   0.46721324   -9.1012669     207.4538  0.008740049 0.0070938701          176 
 1979000   0.47494721   -9.0975807    207.22799 0.0087261237 0.0070878273          171 
 1980000   0.45839706   -9.0987831    207.68672 0.0087410238  0.007081784          184 
 1981000   0.45625128   -9.1043884    207.75671 0.0087395555 0.0070757523          176 
 1982000   0.46118899   -9.0930673    207.64476  0.008730439 0.0070697322          177 
 1983000   0.45983061   -9.1008014    207.47707 0.0087189895 0.0070637092          184 
 1984000   0.46918858   -9.0897018    207.69574 0.0087237795 0.0070577024          172 
 1985000    0.4569126   -9.0993364    207.47435 0.0087100904 0.0070516965          178 
 1986000   0.46153926   -9.0984223    207.59672  0.008710839 0.0070456978          173 
 1987000   0.45845413    -9.107706    207.69451 0.0087105565 0.0070397059          166 
 1988000   0.46192468    -9.083463    207.47161 0.0086968315 0.0070337254          181 
 1989000   0.46083275   -9.1031324     207.5728 0.0086966984  0.007027753          180 
 1990000   0.45220642   -9.1099364    207.42587 0.0086861756 0.0070217828          172 
 1991000   0.46660414   -9.0997945    207.47591 0.0086839071 0.0070158206          172 
 1992000   0.45195045   -9.1049678    207.45024 0.0086784739 0.0070098631          172 
 1993000   0.45517777   -9.0918289    207.44531 0.0086739133 0.0070039145          164 
 1994000   0.44919474   -9.0967262    207.85192 0.0086865562 0.0069979666          169 
 1995000   0.46874377   -9.1124192    207.33528 0.0086606214 0.0069920293          164 
 1996000   0.44835205   -9.0912345    207.80033 0.0086756986 0.0069860931          173 
 1997000   0.46140592   -9.1076626     207.5217  0.008659727 0.0069801708          169 
 1998000   0.45627639   -9.0970573    207.58746 0.0086581358 0.0069742537          175 
 1999000   0.46419055   -9.1129777     207.5286 0.0086513508 0.0069683402          173 
 2000000   0.46456969   -9.1245741     207.3643  0.008640179 0.0069624353          161 
 2001000   0.46411656   -9.1095812    207.33367 0.0086345858  0.006956535          165 
 2002000   0.46142533   -9.1136344    207.22095 0.0086255807 0.0069506467          165 
 2003000   0.45477361   -9.1107796    207.35139 0.0086267011 0.0069447661          164 
 2004000   0.45932032   -9.1078631    207.06818 0.0086106195  0.006938885          171 
 2005000   0.44941732   -9.1240506    207.19423 0.0086115641 0.0069330054          170 
 2006000   0.45133001   -9.1153723    207.17747  0.008606575  0.006927135          165 
 2007000   0.46006603   -9.1114286    207.25208 0.0086053843 0.0069212742          168 
 2008000   0.45037045   -9.1107547    207.16907 0.0085976539 0.0069154206          176 
 2009000    0.4538736   -9.1073303    207.48057 0.0086062956 0.0069095777          174 
 2010000   0.45134684   -9.1146318    207.24653 0.0085923106 0.0069037387          171 
 2011000   0.44838171   -9.1154706    207.37071 0.0085931836 0.0068979053          169 
 2012000   0.44854702   -9.1087634    207.32641 0.0085870779 0.0068920717          173 
Loop time of 5025.58 on 48 procs for 2000000 steps with 4000 atoms

Performance: 68768.121 tau/day, 397.964 timesteps/s
99.4% CPU use with 48 MPI tasks x no OpenMP threads

MPI task timing breakdown:
Section |  min time  |  avg time  |  max time  |%varavg| %total
---------------------------------------------------------------
Pair    | 345.25     | 373.04     | 400.09     |  74.8 |  7.42
Neigh   | 33.431     | 34.801     | 36.308     |  12.5 |  0.69
Comm    | 322.21     | 347.39     | 378.18     |  79.7 |  6.91
Output  | 4.3883     | 4.3902     | 4.4291     |   0.3 |  0.09
Modify  | 4205.1     | 4220.8     | 4233.9     |  10.4 | 83.99
Other   |            | 45.17      |            |       |  0.90

Nlocal:        83.3333 ave          92 max          77 min
Histogram: 3 1 8 9 11 5 7 1 2 1
Nghost:        2267.56 ave        2293 max        2239 min
Histogram: 1 3 5 2 10 11 4 7 3 2
Neighs:        15178.3 ave       17541 max       13917 min
Histogram: 6 8 7 8 8 6 3 0 1 1
FullNghs:      30318.1 ave       33033 max       27004 min
Histogram: 1 2 3 3 10 10 10 4 1 4

Total # of neighbors = 1455269
Ave neighs/atom = 363.81725
Neighbor list builds = 106609
Dangerous builds = 0

#clear
#
#next RN
#
#jump SELF
Total wall time: 1:23:49
