
units lj                  # Use reduced LJ style units
atom_style atomic         # Uncharged point particles
atom_modify map hash      # Needed for indexing of clusters etc
                          # Used to be able to find where atoms are in relation to each other.

lattice fcc 1.0 spacing 1 1 1
Lattice spacing in x,y,z = 1.5874011 1.5874011 1.5874011
region box block 0 10 0 10 0 10 units lattice
create_box 2 box
Created orthogonal box = (0.0000000 0.0000000 0.0000000) to (15.874011 15.874011 15.874011)
  3 by 4 by 4 MPI processor grid
create_atoms 1 box
Created 4000 atoms
  using lattice units in orthogonal box = (0.0000000 0.0000000 0.0000000) to (15.874011 15.874011 15.874011)
  create_atoms CPU = 0.003 seconds
set type 1 type/fraction 2 0.87 78393
Setting atom values ...
  3472 settings made for type/fraction
mass 1 1.0
mass 2 1.0
pair_style lj/cut  3.5
pair_modify tail  yes
pair_coeff 1  1  1.0  1.0   # Intearaction between 1 and 1 set with epsilon = 1 and sigma = 1
pair_coeff 1  2  1.5  0.8
pair_coeff 2  2  0.5  0.88

write_data data.0
System init for write_data ...
Neighbor list info ...
  update every 1 steps, delay 10 steps, check yes
  max neighbors/atom: 2000, page size: 100000
  master list distance cutoff = 3.8
  ghost atom cutoff = 3.8
  binsize = 1.9, bins = 9 9 9
  1 neighbor lists, perpetual/occasional/extra = 1 0 0
  (1) pair lj/cut, perpetual
      attributes: half, newton on
      pair build: half/bin/atomonly/newton
      stencil: half/bin/3d
      bin: standard
WARNING: Not all mixed pair coeffs generated from mixing. Use write_data with 'pair ij' option to store all pair coeffs. (../write_data.cpp:312)


#############################
#   M E L T   S Y S T E M   #
#############################

velocity all create 2.4 2750902 mom yes dist gaussian # Assign velocities
                                                    # Temperature 2.4, random number seed, zero linear momentum
                                                                                # Gaussian distribution

timestep 0.002   # simulation timestep
thermo 1000       # output thermodynamic data every 1000 steps bf 100

# Define a fix  in this case with index 1 applied to all
# particles in the simulation. This fix is for simulations
# in the anisotropic NPT ensemble. Note that we use the MTK
# correction.
fix 1 all npt temp 2.4 2.4 0.1 iso 5.68 5.68 0.5 mtk yes tchain 5 pchain 5 # Use NPT ensemble
                                                                         # Set temperature and pressure and damping
                                                                         # Numbers of thermostats in chain and in barostat
run 10000          # run for 10000 steps
Per MPI rank memory allocation (min/avg/max) = 3.642 | 3.644 | 3.648 Mbytes
Step Temp E_pair E_mol TotEng Press Volume 
       0          2.4   -3.3406884            0   0.25841159    -2.808294         4000 
    1000    2.4094841   -2.5180326            0    1.0952899    5.3757492    3938.8615 
    2000    2.3904776   -2.4426525            0    1.1421675    5.6267778    3970.3766 
    3000    2.3948085   -2.4710956            0    1.1202191    5.5978618    3956.5933 
    4000    2.3502557   -2.4449885            0    1.0795137    5.5225572    3969.7461 
    5000    2.3907497   -2.4280508            0    1.1571772    5.6839327    3988.6441 
    6000    2.4254191   -2.4802236            0    1.1569954    5.6846558    3934.1625 
    7000    2.3815589   -2.5062091            0    1.0652363    5.3555411    3947.2445 
    8000    2.4150361   -2.4512614            0    1.1703872    5.7453635    3952.3747 
    9000    2.3721536   -2.4943955            0    1.0629453    5.5571096    3927.6078 
   10000    2.3555851   -2.4959724            0    1.0365219    5.4325439    3943.5244 
Loop time of 2.45197 on 48 procs for 10000 steps with 4000 atoms

Performance: 704739.792 tau/day, 4078.355 timesteps/s
99.6% CPU use with 48 MPI tasks x no OpenMP threads

MPI task timing breakdown:
Section |  min time  |  avg time  |  max time  |%varavg| %total
---------------------------------------------------------------
Pair    | 1.1244     | 1.1668     | 1.2742     |   2.7 | 47.59
Neigh   | 0.20742    | 0.21542    | 0.22596    |   0.7 |  8.79
Comm    | 0.70126    | 0.82482    | 0.87418    |   3.6 | 33.64
Output  | 0.00024272 | 0.00024701 | 0.00031528 |   0.0 |  0.01
Modify  | 0.20926    | 0.22959    | 0.25562    |   2.4 |  9.36
Other   |            | 0.01508    |            |       |  0.62

Nlocal:        83.3333 ave          90 max          74 min
Histogram: 2 5 2 4 2 5 8 8 8 4
Nghost:        1659.46 ave        1690 max        1631 min
Histogram: 2 3 4 10 7 4 9 6 2 1
Neighs:        9689.27 ave       10741 max        8468 min
Histogram: 4 3 5 3 6 7 4 3 10 3

Total # of neighbors = 465085
Ave neighs/atom = 116.27125
Neighbor list builds = 907
Dangerous builds = 187

# Equilibrate just above the melting temperature to avoid step fn in T

fix 1 all npt temp 1.25 1.25 0.1 iso 5.68 5.68 0.5 mtk yes tchain 5 pchain 5
run 2000
Per MPI rank memory allocation (min/avg/max) = 3.643 | 3.645 | 3.649 Mbytes
Step Temp E_pair E_mol TotEng Press Volume 
   10000    2.3555851   -2.4959724            0    1.0365219    5.4325439    3943.5244 
   11000     1.259191   -3.6624022            0   -1.7740879    5.9260841    3034.9159 
   12000    1.2376717   -3.6332508            0   -1.7772074    5.9218987    3042.9542 
Loop time of 0.624969 on 48 procs for 2000 steps with 4000 atoms

Performance: 552987.209 tau/day, 3200.157 timesteps/s
99.6% CPU use with 48 MPI tasks x no OpenMP threads

MPI task timing breakdown:
Section |  min time  |  avg time  |  max time  |%varavg| %total
---------------------------------------------------------------
Pair    | 0.27215    | 0.29834    | 0.35254    |   2.7 | 47.74
Neigh   | 0.039515   | 0.042181   | 0.05008    |   0.8 |  6.75
Comm    | 0.17604    | 0.23671    | 0.26861    |   3.5 | 37.88
Output  | 5.031e-05  | 5.1288e-05 | 6.6869e-05 |   0.0 |  0.01
Modify  | 0.03832    | 0.042947   | 0.046877   |   1.1 |  6.87
Other   |            | 0.004737   |            |       |  0.76

Nlocal:        83.3333 ave          93 max          73 min
Histogram: 1 0 3 8 7 10 9 8 1 1
Nghost:        1979.00 ave        2005 max        1951 min
Histogram: 5 1 2 4 10 7 9 6 1 3
Neighs:        12546.7 ave       13903 max       10848 min
Histogram: 2 1 7 3 7 4 6 10 6 2

Total # of neighbors = 602242
Ave neighs/atom = 150.56050
Neighbor list builds = 144
Dangerous builds = 14

#############################
# L I N E A R  Q U E N C H  #
#############################

# Define solid atoms. This closely follows ten Wolde  Ruiz-Montero and Frenkel  Faraday Discuss  1996  104  93-110
# Compute components of the per-atom q6 vector
compute q6 all orientorder/atom degrees 1 6 components 6 nnn NULL cutoff 1.3 # compute the Q6 parameter.
                                                                             # Use all neighbours within 1.3 unit cell.

# get number of connections
compute coord_number all coord/atom orientorder q6 0.5

# An atom is solid if it has 8 or more connections (of a possible 14)
variable is_solid atom c_coord_number>=8
group solid dynamic all var is_solid    # Must be dynamic to update
dynamic group solid defined

# do clustering
compute cluster solid cluster/atom 1.3 # Create a cluster where all atoms within are solid and max 1.3 units from another member

# define chunks one chunk per cluster
compute clus_chunks solid chunk/atom c_cluster nchunk every compress yes  # Says which atoms are in which chunk

# count the size of each chunk
compute size_chunks solid property/chunk clus_chunks count


# Find the maximum entry in the vector of chunk sizes
variable max_n equal max(c_size_chunks)


# Thermo style which includes this variable
# thermo_style custom step temp pe vol v_max_n

thermo ${N}  # Print the thermo information every 100 steps
thermo 1000  

# Reset the npt fix at a lower temperature (below freezing)
fix 1  all npt temp  ${temp} ${temp}  0.1  iso  5.68  5.68  0.5  mtk yes tchain  5  pchain  5
fix 1  all npt temp  0.45 ${temp}  0.1  iso  5.68  5.68  0.5  mtk yes tchain  5  pchain  5
fix 1  all npt temp  0.45 0.45  0.1  iso  5.68  5.68  0.5  mtk yes tchain  5  pchain  5

dump dmp2 all dcd ${N} traj.dcd
dump dmp2 all dcd 1000 traj.dcd


compute msd all msd com yes
variable twopoint equal c_msd[4]/6/(step*dt+1.0e-6)
fix 9 all vector 10 c_msd[4]
variable fit equal slope(f_9)/6/(10*dt)
thermo_style custom step temp pe c_msd[4] v_twopoint v_fit v_max_n

fix 1 all npt temp 1.25 ${temp} 0.1 iso 5.68 5.68 0.5 mtk yes tchain 5 pchain 5
fix 1 all npt temp 1.25 0.45 0.1 iso 5.68 5.68 0.5 mtk yes tchain 5 pchain 5
run 500000 # 5000000  # Run for this many steps
Neighbor list info ...
  update every 1 steps, delay 10 steps, check yes
  max neighbors/atom: 2000, page size: 100000
  master list distance cutoff = 3.8
  ghost atom cutoff = 3.8
  binsize = 1.9, bins = 8 8 8
  4 neighbor lists, perpetual/occasional/extra = 1 3 0
  (1) pair lj/cut, perpetual
      attributes: half, newton on
      pair build: half/bin/atomonly/newton
      stencil: half/bin/3d
      bin: standard
  (2) compute orientorder/atom, occasional
      attributes: full, newton on
      pair build: full/bin/atomonly
      stencil: full/bin/3d
      bin: standard
  (3) compute coord/atom, occasional
      attributes: full, newton on
      pair build: full/bin/atomonly
      stencil: full/bin/3d
      bin: standard
  (4) compute cluster/atom, occasional
      attributes: full, newton on
      pair build: full/bin/atomonly
      stencil: full/bin/3d
      bin: standard
Per MPI rank memory allocation (min/avg/max) = 9.826 | 9.833 | 9.839 Mbytes
Step Temp PotEng c_msd[4] v_twopoint v_fit v_max_n 
   12000    1.2376717   -3.6332508 4.2931783e-30 2.9813737e-32 8.3333333e+20            2 
   13000    1.2389033   -3.7000709   0.94312697 0.0060456855  0.080228484            2 
   14000    1.2467946   -3.7241896    1.8983916  0.011299949  0.080409597            2 
   15000    1.2609488    -3.698801    2.8395641  0.015775356  0.079351083            2 
   16000    1.2369346   -3.6742766    3.8403626  0.020001888  0.079652005            2 
   17000    1.2423727   -3.7033856    4.8301569  0.023677239  0.080649686            2 
   18000    1.2284329   -3.6892919     5.822343  0.026955291  0.081038081            3 
   19000    1.2533539   -3.7375602    6.8803259  0.030176867  0.081605215            3 
   20000    1.2615014   -3.7389328    7.8558234  0.032732597  0.082051349            2 
   21000    1.2608893   -3.6971854     8.726823  0.034630249  0.082075997            1 
   22000    1.2521388   -3.6772321    9.7322518  0.036864589  0.081670683            2 
   23000    1.2467532   -3.7142057    10.663477  0.038635784  0.081463338            3 
   24000     1.208794   -3.7089313    11.531285  0.040039185  0.081299902            2 
   25000     1.243358   -3.7303451    12.418521  0.041395068   0.08084332            1 
   26000    1.2206543   -3.7039917    13.277794   0.04255703  0.080291513            1 
   27000     1.246775   -3.7032615    14.221863  0.043894639   0.07974569            2 
   28000    1.2313178   -3.6697787    15.063243  0.044831079  0.079263513            1 
   29000    1.2082891   -3.7691471    16.045907  0.046108929  0.078968603            6 
   30000    1.2402862   -3.7118821    16.937071  0.047047418  0.078816598            2 
   31000    1.2227725   -3.7390587    17.975266  0.048320607  0.078625714            2 
   32000    1.2190318   -3.7200084    18.898698  0.049215359  0.078517321            1 
   33000    1.2074742   -3.7505172    19.714064   0.04978299  0.078438409            2 
   34000    1.2293919     -3.73244    20.675186  0.050674474   0.07826954            1 
   35000    1.2123481   -3.7371584    21.468944  0.051116533   0.07809851            1 
   36000    1.2334897   -3.7465314    22.321851  0.051670951  0.077911432            1 
   37000    1.2263904   -3.7607696    23.061019   0.05193923  0.077678934            2 
   38000    1.2152131   -3.7726535    23.875985  0.052359617  0.077379928            5 
   39000    1.2154607   -3.6984673    24.782303  0.052953638  0.077033706            1 
   40000    1.2209422   -3.7606409    25.522357  0.053171576  0.076719683            2 
   41000    1.2086199   -3.7395296    26.570846  0.054005783  0.076444751            3 
   42000    1.2042711   -3.7547884    27.334627   0.05423537  0.076230883            3 
   43000    1.2118662   -3.7229641    28.437851  0.055112114  0.076073852            3 
   44000    1.2025404   -3.7287295    29.465826  0.055806488  0.075994546            2 
   45000    1.1889767   -3.7564801     30.35456  0.056212148  0.075963977            6 
   46000    1.1867561   -3.7416084    31.524108  0.057108891  0.075947017            1 
   47000    1.2052341   -3.7536523    32.166368  0.057032566  0.075985757            2 
   48000    1.2002895   -3.7880708    33.176165  0.057597508  0.075982116            2 
   49000    1.1795583   -3.7989408    33.981643  0.057791909  0.075964999            3 
   50000    1.2062352    -3.779381     35.03855  0.058397583  0.075963543            1 
   51000     1.190536   -3.7735949    35.796149  0.058490439   0.07593848            3 
   52000    1.1639766   -3.7837495    36.560046  0.058589817  0.075839338            3 
   53000    1.2029126   -3.7897602    37.030139  0.058223488  0.075696791            5 
   54000    1.1718298   -3.8038796    37.551387  0.057949671  0.075508307            1 
   55000    1.1779424   -3.7859307    38.600629  0.058485801  0.075301404            5 
   56000    1.1722968   -3.7703243    39.431252  0.058677457  0.075106146            2 
   57000    1.2077316   -3.7786047    40.407386  0.059075126  0.074919059            5 
   58000    1.1801532   -3.7664974    41.484899   0.05960474  0.074782582            3 
   59000    1.1900776   -3.7737611    42.179804  0.059575993  0.074646577            2 
   60000    1.1750747   -3.7725689     43.18539  0.059979708  0.074538794            1 
   61000    1.1611507   -3.7917991    44.119964  0.060273175  0.074460879            2 
   62000     1.194301   -3.8174482    44.572475   0.05990924  0.074361042            2 
   63000     1.175543   -3.8101816    45.362668  0.060003529  0.074228056            3 
   64000    1.1483692   -3.8122967    46.360444  0.060365161  0.074087272            2 
   65000    1.1591338   -3.8201207    47.048289  0.060318319  0.073975798            2 
   66000    1.1560432   -3.7763991    48.271159  0.060948433  0.073857159            3 
   67000    1.1552541   -3.8049578    48.962391  0.060898496   0.07376002            3 
   68000    1.1841198   -3.8031131      50.1383  0.061443994  0.073683593            1 
   69000    1.1811031   -3.8141598    50.780893   0.06132958  0.073602733            3 
   70000    1.1573699   -3.8010324    51.825182  0.061696645  0.073558834            4 
   71000    1.1640791   -3.8282658     52.59633  0.061732781   0.07351689            4 
   72000    1.1693481   -3.8235624    53.694801   0.06214676  0.073501899            2 
   73000    1.1623391   -3.8223704    54.751739  0.062501984  0.073489555            4 
   74000    1.1405833   -3.8482301    55.195553  0.062157153  0.073464271            2 
   75000    1.1704782   -3.8227108    56.076872  0.062307635  0.073419166            1 
   76000    1.1462465   -3.8142729    56.807922  0.062289388  0.073366874            2 
   77000    1.1530881    -3.816061    57.289713  0.062001854  0.073301671            1 
   78000     1.132765   -3.8527161    57.662155  0.061604866  0.073204648            2 
   79000    1.1573595     -3.85639    58.639382  0.061855887  0.073075607            4 
   80000    1.1413819   -3.8614531    59.341644  0.061814212  0.072946873            1 
   81000    1.1423662    -3.847931    59.973658  0.061701294  0.072818201            2 
   82000    1.1274163   -3.8698812    60.721844  0.061709191  0.072682487            2 
   83000    1.1431209   -3.8649966    61.424326   0.06167101  0.072542903            3 
   84000    1.1162274   -3.8379679    62.490603  0.061994646  0.072410369            5 
   85000    1.1262641   -3.8385454    63.112695  0.061875191  0.072286907            2 
   86000     1.119034   -3.8302749    64.061154  0.062074762  0.072160166            2 
   87000    1.1270213   -3.8505772    64.657361  0.061932338  0.072047989            7 
   88000    1.1373094   -3.8496239    65.825855   0.06233509  0.071948231            3 
   89000    1.1343124   -3.8954777    66.509217  0.062274548   0.07185355            2 
   90000    1.1298116   -3.8580207    67.376568  0.062385711  0.071756462            3 
   91000    1.1038932   -3.8459399    68.199192  0.062453472  0.071670069            4 
   92000    1.1271601   -3.8624426     68.81535  0.062332744  0.071572578            5 
   93000    1.1112118   -3.8710724     70.11487  0.062826944  0.071484263            3 
   94000    1.1046738   -3.8910517    70.428438  0.062436558  0.071405587            4 
   95000     1.118863   -3.8945559    71.158462  0.062419703   0.07131309            4 
   96000    1.1029453   -3.8666447    72.149152  0.062629472  0.071215012            2 
   97000    1.0988968   -3.8785168    72.726295  0.062479634  0.071112793            4 
   98000    1.0973418   -3.9005261    72.963044  0.062043405  0.071006697            4 
   99000    1.1350871   -3.8851703    73.984133  0.062276206  0.070898388            3 
  100000    1.0930001   -3.8825591    74.599004  0.062165836  0.070792042            4 
  101000    1.1164068   -3.8876988    75.304546  0.062132463  0.070684239            4 
  102000    1.0961816   -3.8548066    76.227991   0.06227777  0.070574293            2 
  103000    1.1110847   -3.8999812    76.334325  0.061759162  0.070444292            2 
  104000    1.1134949   -3.8663386    77.290567  0.061931544  0.070315605            2 
  105000    1.0899869   -3.8811169    78.047921  0.061942794  0.070184012            1 
  106000    1.0793582   -3.8903016     78.34639  0.061593074   0.07003917            2 
  107000    1.0988983   -3.9070103    79.044933  0.061561474  0.069892184            3 
  108000    1.0889897   -3.9107344    79.811055  0.061582604  0.069748625            2 
  109000    1.1088859   -3.9028584    80.949413   0.06188793    0.0696172            3 
  110000    1.0992918   -3.9043806    81.369624  0.061643654  0.069503463            4 
  111000    1.0888666   -3.8998355     82.52416  0.061955075    0.0693874            3 
  112000    1.0964331   -3.8960762    83.423819  0.062071293  0.069274102            2 
  113000    1.1233802   -3.9409304    83.846881  0.061833983  0.069159705            3 
  114000    1.0718573   -3.9263036    84.480315  0.061754616  0.069040778            1 
  115000    1.0920384   -3.9386969    85.136382   0.06169303  0.068925381            4 
  116000      1.09152   -3.9399079    85.900022  0.061709786  0.068815891            1 
  117000     1.056121   -3.9291021    86.678165  0.061736585  0.068701602            2 
  118000    1.0949417   -3.9238151    87.101042  0.061512035  0.068590785            2 
  119000    1.0603753   -3.9435916     87.82912  0.061504986  0.068476947            2 
  120000    1.0632601   -3.9418816    88.575639   0.06151086  0.068370251            2 
  121000     1.061615   -3.9785402    89.466175  0.061615823  0.068263586            3 
  122000    1.0643345   -3.9761396    90.064696  0.061519601  0.068158707            4 
  123000    1.0609591   -3.9195318    91.610556  0.062066772  0.068061291            1 
  124000    1.0646467    -3.951578    91.639476  0.061585669  0.067967541            3 
  125000    1.0787268    -3.948175    92.304254  0.061536169  0.067862328            2 
  126000     1.076425   -3.9479313    92.626802  0.061261112   0.06775644            2 
  127000    1.0639143   -3.9498064     93.23869  0.061180243  0.067646476            3 
  128000    1.0702723   -3.9700996    94.211188  0.061335409  0.067541797            2 
  129000    1.0711283   -3.9763244     94.66715  0.061154489  0.067445038            3 
  130000    1.0634619   -3.9849662    95.511117  0.061225074  0.067350828            2 
  131000    1.0493037   -3.9855722    96.272273  0.061241904  0.067251554            4 
  132000    1.0483249   -3.9357747     97.68293  0.061668516  0.067158843            4 
  133000    1.0557934   -3.9828471    97.403936  0.061030035  0.067062108            2 
  134000    1.0623509   -3.9514105    98.425521  0.061209901  0.066970458            3 
  135000    1.0545809   -3.9759833    99.194936  0.061231442  0.066876623            2 
  136000    1.0396433   -3.9901446    99.662443  0.061067673  0.066780317            2 
  137000    1.0650081   -3.9947442    99.700896  0.060645314  0.066673207            2 
  138000    1.0244591   -3.9691728    101.10619  0.061054463  0.066570294            4 
  139000    1.0534481   -3.9772329    101.79907  0.061030615  0.066462858            3 
  140000    1.0415952   -3.9772651     101.4698  0.060398691  0.066350274            1 
  141000    1.0214153   -3.9796282    102.47016  0.060561561  0.066236726            1 
  142000    1.0491109   -3.9904572     103.1076  0.060509153  0.066131499            3 
  143000    1.0390025   -3.9822468    103.54297  0.060339728  0.066016969            1 
  144000    1.0418479   -4.0029089    103.80436  0.060071965  0.065900155            3 
  145000    1.0462345   -4.0004082    104.46051  0.060034775   0.06577769            2 
  146000    1.0421498   -4.0136293    104.85046  0.059846153  0.065653868            2 
  147000    1.0369318   -4.0239771    105.11464  0.059588798  0.065525053            5 
  148000    1.0279554   -3.9832157    106.00145  0.059685501  0.065400489            5 
  149000    1.0385686    -4.013633    106.65159  0.059648538  0.065274562            2 
  150000    1.0180083   -4.0299894    107.53942  0.059744121  0.065152218            6 
  151000    1.0331689   -3.9941147    108.33611  0.059788142  0.065035937            5 
  152000    1.0138155   -4.0398336    108.77761  0.059636847  0.064920419            4 
  153000     1.031281   -4.0330381    109.46182  0.059619729     0.064797            1 
  154000    1.0190411   -4.0083643    109.49457  0.059250309   0.06467543            6 
  155000     1.015723   -3.9945743    110.18505  0.059239274  0.064547292            2 
  156000     1.029996   -4.0109232    110.42703  0.058988798  0.064421058            3 
  157000    1.0107673   -4.0489989    111.20811  0.059027658  0.064297666            3 
  158000    1.0006599   -4.0390155    111.83865  0.058986631  0.064169496            4 
  159000    1.0193013   -4.0664413    112.31869  0.058867235  0.064050427            2 
  160000    1.0094437     -4.05312    113.43826  0.059082429  0.063928945            3 
  161000    1.0173852   -4.0561776     113.4467  0.058719823  0.063808165            3 
  162000      1.02044   -4.0499943    113.96471  0.058623819  0.063688337            3 
  163000    1.0069964   -4.0534044    115.14652  0.058868362  0.063571937            3 
  164000    1.0017722   -4.0657093    115.50481   0.05869147  0.063461381            3 
  165000   0.98914557    -4.091557    115.88007  0.058525287  0.063345523            3 
  166000    1.0099397   -4.0575265    116.38845  0.058427935  0.063227193            4 
  167000   0.99926712   -4.0633778    116.92634  0.058346477   0.06311036            3 
  168000   0.99295011    -4.056364     117.3605  0.058214535  0.062991397            4 
  169000   0.98465182   -4.0445596    118.55058  0.058456893  0.062873373            3 
  170000    1.0112899   -4.0730562    118.82441  0.058247258  0.062760063            4 
  171000    1.0024876   -4.0638269    119.97538  0.058467532  0.062653278            2 
  172000    0.9887122    -4.068479    120.36843  0.058318036  0.062542514            3 
  173000   0.98113198   -4.0968953    120.37981  0.057986422  0.062433634            3 
  174000    0.9811683   -4.0701066    121.31679  0.058101913  0.062324089            3 
  175000    1.0137175   -4.0505689    121.51122  0.057862487  0.062215366            3 
  176000   0.98996138   -4.0967004    121.89186  0.057713951  0.062103398            2 
  177000    1.0031943   -4.0987392    122.30628  0.057582995   0.06198658            3 
  178000   0.99115084   -4.0760088    122.93941  0.057555902  0.061870655            3 
  179000   0.97921742   -4.0716635    123.45812  0.057475846  0.061748709            3 
  180000   0.96054864   -4.0819969    123.92351  0.057371997  0.061628737            3 
  181000   0.97827773   -4.1154683    124.16748   0.05716735  0.061507133            4 
  182000   0.96311411   -4.1148935     124.9002  0.057188735  0.061385431            4 
  183000   0.98197702   -4.0879118    125.62243  0.057205112  0.061268589            3 
  184000    1.0043385   -4.0911439    125.98459  0.057058237  0.061153053            4 
  185000   0.95548492   -4.1003317    127.07011  0.057238789  0.061040523            6 
  186000   0.97530032   -4.0893038    127.84873  0.057279897  0.060929226            2 
  187000   0.97298821   -4.1274499    127.58372  0.056855488   0.06081867            5 
  188000    0.9695197   -4.1273405    127.85587  0.056673701  0.060707303            5 
  189000   0.99226422   -4.1136149    128.47643  0.056647454  0.060590166            4 
  190000   0.96539654   -4.0950395     129.0225  0.056588815  0.060477522            2 
  191000    0.9685531   -4.1013543    129.51904  0.056509179  0.060361885            2 
  192000   0.96105548   -4.1402229    129.83823  0.056353396  0.060246862            5 
  193000   0.94182519   -4.1356559     130.4835  0.056340024  0.060132886            2 
  194000   0.96386488   -4.1348005    131.04826   0.05629221  0.060016304            2 
  195000   0.97400187    -4.144997    131.05722  0.056007359  0.059902648            3 
  196000   0.96294764   -4.1359156    131.63008  0.055965171   0.05978837            4 
  197000   0.96358763   -4.1387411    131.97459  0.055826816  0.059673092            5 
  198000   0.93788946   -4.1429425    132.70844  0.055853721  0.059558305            2 
  199000   0.94247423   -4.1142406    133.23729  0.055794508  0.059438594            4 
  200000   0.96940766   -4.1401214    133.09676  0.055456985  0.059319122            2 
  201000   0.94472376   -4.1494354    133.39061  0.055302904  0.059194275            2 
  202000   0.96154628   -4.1528397    133.58716  0.055110212  0.059070281            7 
  203000   0.94129391    -4.165682     134.1024  0.055050247  0.058946476            3 
  204000   0.95419485    -4.139929    135.10126  0.055188425  0.058823456            2 
  205000   0.93328125   -4.2081316    135.24513  0.054977696  0.058704232            4 
  206000   0.95209647   -4.1485666    136.53187  0.055231338  0.058584256            3 
  207000   0.94770659   -4.1756877    136.11149  0.054795284  0.058470171            5 
  208000   0.94976764   -4.1626404    137.34598  0.055026436  0.058355911            3 
  209000   0.94353322   -4.1852899    137.94424  0.055001692  0.058242836            3 
  210000   0.93548559   -4.1730795    138.76187  0.055064234  0.058134272            7 
  211000   0.95229508   -4.1716222    138.68781  0.054774018  0.058022982            3 
  212000   0.93140874   -4.1435226    139.89806  0.054991376  0.057912818            4 
  213000   0.92909727   -4.1781491    139.65706  0.054638912  0.057804646            3 
  214000   0.92907029   -4.1718899    140.12193  0.054564614  0.057693571            2 
  215000   0.92253409   -4.1877821    140.32055  0.054387808  0.057582384            7 
  216000   0.90624869   -4.1850852    140.32989  0.054139617  0.057469204            3 
  217000   0.91475671   -4.1698184    141.73807  0.054430904  0.057356622            3 
  218000   0.93608074   -4.1942675    141.49537  0.054088444  0.057247278            3 
  219000   0.93453557   -4.1919839    142.12992  0.054082922   0.05713711            4 
  220000   0.90256251   -4.2122664    142.73829  0.054067535  0.057027571            3 
  221000   0.89166163   -4.2055701     142.6698  0.053797059  0.056917103            8 
  222000   0.93071225   -4.1917057    143.34738  0.053809078  0.056807053            3 
  223000   0.91385095   -4.2153693    143.34121  0.053565476  0.056696938            2 
  224000   0.91933937   -4.1935756    144.64617  0.053811818  0.056587762            7 
  225000   0.91241187   -4.2070929    144.40543  0.053483493   0.05647523            3 
  226000   0.89736409    -4.200949    144.66611   0.05334296  0.056360774            2 
  227000   0.89116604   -4.2351495    145.11277  0.053271941  0.056245687            4 
  228000   0.91968091   -4.2385172    145.25625  0.053090736  0.056130003            7 
  229000   0.90106343   -4.2327215    145.83713  0.053070279  0.056016233            3 
  230000   0.90343157   -4.2117832    146.12413  0.052943526  0.055901512            3 
  231000   0.91504045   -4.2682253    146.47758  0.052841839  0.055786433            8 
  232000   0.89491451   -4.2599962    147.00163   0.05280231  0.055671593            7 
  233000   0.89686982   -4.2456769    147.45029  0.052736153  0.055559303            3 
  234000   0.87306939   -4.2483637    147.52981  0.052539107  0.055447502            4 
  235000   0.89867426   -4.2313003    147.98985  0.052478672  0.055333815            5 
  236000   0.89184415   -4.2365528    148.23152  0.052341639  0.055220636            4 
  237000   0.89468072   -4.2493361    149.35584   0.05251612  0.055109779            6 
  238000   0.89762596   -4.2570541    149.39617  0.052309582  0.054997326            5 
  239000   0.89953719   -4.2812493    149.73798  0.052209894  0.054885455            3 
  240000   0.88948506   -4.2417771    150.79403  0.052359039  0.054774778            2 
  241000   0.88811783   -4.2398259     150.8129  0.052148306  0.054664274            5 
  242000   0.87271738   -4.2529344    151.20375  0.052067407  0.054553913            3 
  243000    0.8635248    -4.270428    151.00284  0.051784238  0.054443926            4 
  244000   0.85914415   -4.2620657    151.79749  0.051843406  0.054336136            3 
  245000   0.88660488    -4.276297    151.91142   0.05167055  0.054229811            3 
  246000    0.8729754   -4.2797639    152.09382  0.051522296  0.054121993            7 
  247000   0.88066312   -4.2771848    153.04668  0.051635183  0.054013239            5 
  248000   0.88067385   -4.2993795    153.29643  0.051510896   0.05390642            2 
  249000   0.87996346   -4.2692622    153.98726  0.051535229  0.053798613            6 
  250000   0.89461229   -4.2887568    154.02666  0.051342219  0.053690707            3 
  251000   0.87562253   -4.2888342    154.02922  0.051138518  0.053582217            5 
  252000   0.88960226   -4.2503813    154.36584  0.051046904  0.053474593            3 
  253000   0.86612618   -4.2798401    154.81531  0.050993186  0.053366767            3 
  254000   0.86842968   -4.3040358    155.42741  0.050993245  0.053258118            3 
  255000   0.87188873   -4.3069119    155.76398  0.050903262  0.053148068            2 
  256000   0.85222796   -4.2874144    156.15601  0.050832036  0.053039417            5 
  257000   0.86417371   -4.3296187    155.82648  0.050527392  0.052928723            4 
  258000   0.86912317   -4.3201104    156.50372  0.050550297  0.052820604            7 
  259000   0.87689505    -4.349999    156.57929  0.050379437  0.052711258            6 
  260000   0.87173554   -4.3186585    157.54747  0.050495984   0.05260161            2 
  261000   0.87024419   -4.2904687    156.91065  0.050099187  0.052492954            2 
  262000   0.86593347   -4.3262198    157.72732  0.050167722  0.052384693           10 
  263000   0.84190896   -4.2959301    157.70607  0.049970239  0.052275794            7 
  264000   0.83885204   -4.3045795    158.42847  0.050008988  0.052167931            8 
  265000   0.84005346   -4.3333867    158.24858  0.049763704   0.05206041            3 
  266000    0.8562095   -4.3502472    159.17583  0.049867115  0.051951091            5 
  267000   0.83036025   -4.3539068    159.29226  0.049716686  0.051841649            3 
  268000   0.83781194   -4.3279304    159.52089  0.049602266  0.051732946            3 
  269000   0.83378226   -4.3423395    159.79852  0.049503878  0.051625368            4 
  270000   0.85248158   -4.3441966    159.76504  0.049310199  0.051517694            3 
  271000   0.84370082   -4.3415763    160.21867  0.049267734  0.051408251            6 
  272000   0.83217804   -4.3456117    160.09102  0.049047493  0.051298512            4 
  273000   0.83204766   -4.3321726    161.21903  0.049212157  0.051189763            4 
  274000   0.82869237   -4.3799433    160.77381  0.048897143   0.05108019            4 
  275000   0.83330927   -4.3424297    161.55394  0.048955741  0.050972057            4 
  276000    0.8174944   -4.3467014    161.90768  0.048885168  0.050865206            5 
  277000   0.83652753   -4.3714766    162.33368  0.048836846  0.050759679            3 
  278000   0.82161811    -4.348843    162.68095  0.048765274  0.050655047            6 
  279000   0.81717169    -4.329567    163.75987  0.048912744  0.050550189            3 
  280000   0.81926575   -4.3740378    163.03761  0.048523098  0.050445916            7 
  281000   0.81014586   -4.3678065    163.56989   0.04850827  0.050340427            8 
  282000   0.82860209    -4.380127    163.24948  0.048241572  0.050235152            3 
  283000   0.82091295   -4.3550046    164.36951  0.048400916  0.050130348           11 
  284000   0.81143518   -4.3901737    164.21818  0.048186084  0.050027514            4 
  285000   0.80675301    -4.387589    164.56853  0.048119453  0.049923118            3 
  286000   0.80952025   -4.3901055     164.7705  0.048010054  0.049819091            6 
  287000   0.82512033    -4.371817    165.12821  0.047946634  0.049713995            9 
  288000   0.82346713   -4.3629029    165.86728  0.047994005  0.049611253            6 
  289000   0.80066161   -4.3972204    165.61153   0.04775419  0.049507779            3 
  290000   0.79947484   -4.4085677    166.52581  0.047852244  0.049404694            6 
  291000   0.79198862   -4.4078828    165.74651  0.047464636  0.049301284            4 
  292000   0.80602383   -4.3924781    167.12916  0.047696677  0.049197457            2 
  293000   0.80812163   -4.3867213    166.58033  0.047377796   0.04909317            7 
  294000    0.7797029    -4.414947     166.8675  0.047298044  0.048989993            4 
  295000   0.80699943   -4.4141614    166.90707  0.047148891  0.048884874            5 
  296000   0.77993742     -4.42878    167.19707  0.047071248  0.048779118           10 
  297000   0.79483768   -4.4188456    166.86769  0.046820338  0.048673018            5 
  298000   0.80687626   -4.3929733    167.63998  0.046879188  0.048567946            5 
  299000   0.79340117   -4.4250848    167.29835  0.046627189  0.048461516            4 
  300000   0.78463423   -4.4238195     168.2431  0.046734195  0.048355804            5 
  301000   0.78797168   -4.4241492    168.17061  0.046558861  0.048251183            4 
  302000   0.78967475   -4.4265461    168.72487  0.046557636  0.048146279            3 
  303000   0.78264011   -4.4515679    168.73155  0.046405818   0.04804129           10 
  304000    0.7932456   -4.4380589    169.17513   0.04637476  0.047936562            5 
  305000   0.77935244   -4.4410416    169.34063  0.046267932  0.047832414            5 
  306000   0.77638787   -4.4481174    169.33892  0.046116263  0.047727891            7 
  307000   0.79076295    -4.456841    169.36213  0.045972348  0.047623073           10 
  308000   0.79693077   -4.4492587    169.56969  0.045879245  0.047518515            7 
  309000   0.79625131   -4.4648334    169.74187  0.045777203  0.047413717            4 
  310000   0.76638904   -4.4507988    170.48294  0.045828748  0.047309301            4 
  311000    0.7643319   -4.4320398    170.84686  0.045778902  0.047206304            3 
  312000   0.76792501   -4.4449673    170.89757  0.045645718  0.047101592            6 
  313000   0.75903222    -4.470613    170.81709  0.045478459  0.046998268            3 
  314000   0.74883585   -4.4612866    171.34263  0.045473098  0.046895865            6 
  315000   0.79479372   -4.4864692    170.99013  0.045235483  0.046793485           10 
  316000    0.7830242   -4.4908072    171.66742  0.045270944  0.046689994            5 
  317000   0.76216271   -4.4732529    171.62561  0.045117141  0.046587281           12 
  318000   0.75391584   -4.4983302    172.13923   0.04510986  0.046484705            8 
  319000   0.75839649   -4.4822559     173.0809  0.045214445  0.046384439            5 
  320000   0.75931527   -4.4897944    173.24072   0.04511477  0.046284432            5 
  321000   0.75593543   -4.4837254    173.22856  0.044971069   0.04618463            6 
  322000   0.75549304   -4.4741073    173.76728  0.044970827  0.046086087            3 
  323000   0.76082796    -4.485908    174.14074  0.044927951  0.045988105            5 
  324000    0.7577512   -4.4904879    174.41577  0.044860024  0.045890777            4 
  325000   0.75798521   -4.5092748    173.87595  0.044583577   0.04579271            5 
  326000   0.76191831   -4.5095573    174.40367  0.044581714  0.045694703            5 
  327000   0.75813272   -4.5147891    174.86342  0.044562543  0.045596453            3 
  328000   0.73302266   -4.5128928    174.64225  0.044370489   0.04549886            9 
  329000   0.74393838    -4.532569    175.64924  0.044490688  0.045401388            5 
  330000   0.74404789   -4.5187478    175.46965  0.044310517  0.045304919            6 
  331000   0.74236692   -4.5161891    175.99115  0.044307943  0.045209569            5 
  332000   0.74121758   -4.5403607    175.63108  0.044084106  0.045114096            5 
  333000   0.72747823   -4.5327578    175.18573  0.043840274  0.045016825            6 
  334000   0.71330294   -4.5256337     175.9261  0.043893739  0.044920196            6 
  335000   0.72032596   -4.5547271    176.05519  0.043794822  0.044823234           10 
  336000   0.71997714   -4.5219961    176.71649  0.043828495  0.044726604            9 
  337000   0.72131626   -4.5306965    175.98586  0.043517769  0.044630571           13 
  338000   0.73605026   -4.5700875    177.33339  0.043721251  0.044534193           10 
  339000   0.73313544   -4.5676009    177.31783  0.043588454  0.044438409            5 
  340000   0.72444184   -4.5492963    177.91894  0.043607584   0.04434383            5 
  341000   0.70980464   -4.5648108    177.93234  0.043482978  0.044249717           11 
  342000   0.71210097   -4.5435427    177.31018  0.043204235  0.044154848            4 
  343000   0.72792207   -4.5556752    177.83349  0.043205416  0.044059701            5 
  344000   0.73362129   -4.5637854    177.94749  0.043107435  0.043964966            6 
  345000   0.71072419    -4.540413    178.10548  0.043020647  0.043869984            9 
  346000   0.70574818   -4.5521277       178.01  0.042873315  0.043773585            6 
  347000   0.71893105   -4.5806835    177.86719  0.042715463  0.043676408            9 
  348000   0.72527164   -4.5805102    178.03111   0.04263197  0.043579239            6 
  349000   0.71816221   -4.5883081    178.29498  0.042572822  0.043481956           13 
  350000   0.71435098    -4.580816    178.23017  0.042435755  0.043384252            6 
  351000   0.70866583   -4.5830869    178.26398  0.042322882   0.04328747            9 
  352000   0.69317266   -4.5942218    179.22265  0.042429604   0.04319098            5 
  353000   0.67837982   -4.5966195    179.01132  0.042259519  0.043095066            6 
  354000   0.70878466   -4.6130315    179.83208  0.042333352  0.042999276           16 
  355000   0.68160277   -4.6049268    178.92407  0.042000956  0.042904307           18 
  356000   0.71062202   -4.5823186    179.71146  0.042067289   0.04281025            9 
  357000   0.68427752    -4.593865    179.97637  0.042011291  0.042716434            7 
  358000   0.70200128   -4.6036182    180.19729  0.041945365  0.042622762           11 
  359000   0.68108215   -4.6215597    180.21993  0.041833782  0.042529441            4 
  360000   0.69479808   -4.6143965      180.505  0.041783565  0.042436197            5 
  361000   0.70319945   -4.6199305    180.37784  0.041638468  0.042343907           10 
  362000   0.68526181   -4.6241569    180.35241   0.04151759  0.042251092            5 
  363000   0.70501972   -4.6038543    180.94956  0.041540302  0.042158805           11 
  364000   0.68323079   -4.6267558    180.88829  0.041412153  0.042065681            8 
  365000    0.6919179     -4.63749    181.21884  0.041374165  0.041972583            9 
  366000   0.68807858   -4.6346971    180.99043  0.041209115  0.041879112            3 
  367000   0.67615735   -4.6493092    181.31955  0.041171559  0.041785796            4 
  368000   0.68954882   -4.6668013    181.03326  0.040994851  0.041692601            5 
  369000   0.69525846    -4.614661    181.87108  0.041072963  0.041599778            7 
  370000   0.68642066   -4.6550234     181.6356  0.040908919  0.041507567            9 
  371000   0.67138441   -4.6487064    181.55375  0.040780268  0.041414751           21 
  372000   0.67648234    -4.668864    181.94994  0.040759394  0.041322074            8 
  373000   0.66328461   -4.6605434    182.41118  0.040753169  0.041229098            6 
  374000   0.66619996   -4.6488139    182.23771   0.04060555   0.04113649            7 
  375000    0.6752458   -4.6627884    182.51509  0.040558908  0.041044293            8 
  376000   0.66814688   -4.6803631    182.42226  0.040430465  0.040951376            8 
  377000   0.66655509   -4.6510259     182.5054    0.0403416  0.040859198            8 
  378000   0.67343034   -4.6632372    183.15178  0.040377377   0.04076751           10 
  379000   0.67102839   -4.6927198    182.42576  0.040111205  0.040675732            5 
  380000   0.67323004   -4.6628737    183.04722  0.040141935  0.040583864            7 
  381000   0.65852222   -4.6739061    182.93583  0.040012212  0.040491717            6 
  382000   0.65213808   -4.6718666      183.245  0.039974912  0.040400504            6 
  383000    0.6556206   -4.6751834    183.09419  0.039837726  0.040309147           13 
  384000   0.64472653   -4.7005792     183.5868  0.039840884  0.040218302           13 
  385000   0.65417473   -4.7136324    183.63252  0.039747298  0.040126827            9 
  386000   0.64730902   -4.7247292      183.809  0.039682426  0.040035159            4 
  387000   0.67002252   -4.7197826    183.20741  0.039450348  0.039944084            9 
  388000   0.65136929   -4.7032252    183.36983  0.039383555  0.039852961           12 
  389000   0.64953707   -4.7096939    183.49708  0.039309573  0.039761456            9 
  390000   0.63270118   -4.7154599    184.08286  0.039333945  0.039670069            7 
  391000   0.64651566   -4.6993215    183.77672  0.039168099   0.03957905            6 
  392000   0.65052384   -4.7108983    183.88596  0.039091403   0.03948836            6 
  393000   0.65126161   -4.7172083     183.7832  0.038970144  0.039397882            9 
  394000   0.64323154   -4.7478629     183.9484  0.038906176   0.03930667            9 
  395000    0.6353773    -4.713208    184.55952  0.038936608   0.03921534           20 
  396000   0.64022441   -4.7186161     184.2743  0.038778262  0.039125032           11 
  397000   0.63779632   -4.7496499    183.74736  0.038569974  0.039034051           15 
  398000   0.63615808   -4.7505245    184.16149  0.038559777  0.038943191            9 
  399000   0.63872624    -4.717384    184.03723  0.038437182  0.038852883            6 
  400000   0.62494121   -4.7408377    184.27855  0.038391365  0.038761754           10 
  401000   0.63808095   -4.7484665    184.76157  0.038396004  0.038670502           11 
  402000   0.62896055    -4.749898    184.57751  0.038262336  0.038579668           23 
  403000   0.61537485   -4.7295642    184.74083  0.038201164  0.038489001           14 
  404000   0.62678971   -4.7646097      184.442  0.038044967  0.038398802           32 
  405000   0.61948207   -4.7673903    184.66982  0.037997905  0.038308453           15 
  406000   0.61231375   -4.7737134    184.93548  0.037958843  0.038217729           14 
  407000   0.62199603   -4.7577178    184.69274  0.037815875   0.03812657           13 
  408000   0.62554145   -4.7446934    184.95543  0.037776844  0.038036334           11 
  409000   0.63636043    -4.766284     185.2472  0.037743929  0.037946581            8 
  410000   0.61900413   -4.7807662    184.58428   0.03751713  0.037856215           15 
  411000   0.60375036   -4.7965374    184.66108   0.03744142  0.037765195           21 
  412000   0.59993041   -4.7948075    184.73493  0.037365479  0.037674398            5 
  413000   0.60689873   -4.7788205    185.21585  0.037372043  0.037583893           10 
  414000   0.60549635   -4.7910667     184.4999  0.037137661  0.037493313           14 
  415000   0.60854897   -4.8017003    184.65993  0.037080306  0.037402542           20 
  416000   0.61871708   -4.7920069    184.87196  0.037033645  0.037312255           18 
  417000   0.61270605   -4.7932171    185.26621  0.037023622  0.037222188            9 
  418000   0.59104688   -4.8310104    184.83088  0.036848261  0.037131857            7 
  419000   0.60482655   -4.8225654    184.69164  0.036732625  0.037042066           12 
  420000   0.58209871   -4.8097426    185.18525  0.036743105  0.036952708           15 
  421000   0.58971505    -4.825699    184.97873   0.03661495  0.036863392            7 
  422000   0.60132849   -4.8138661    185.31282  0.036594158  0.036773967           15 
  423000   0.58109622   -4.8125533    185.63136  0.036570401  0.036685548            9 
  424000   0.59702179   -4.8104164    185.35665  0.036430158  0.036597313           12 
  425000   0.58724993   -4.8100229    185.66187  0.036404289  0.036509909           12 
  426000   0.58017947   -4.8198196    185.50133  0.036287428  0.036422835           22 
  427000   0.57251757   -4.8287717    186.14267   0.03632761  0.036335445           11 
  428000   0.58615913    -4.822606    186.31164   0.03627563  0.036247817           15 
  429000   0.58902214   -4.8303045    185.93483  0.036117876   0.03616025           18 
  430000     0.586171   -4.8118264     186.6765  0.036177616  0.036072604            9 
  431000   0.59455856   -4.8495536    185.72711  0.035910113  0.035985091            8 
  432000    0.5863513   -4.8383439    186.02939  0.035885299  0.035897597            7 
  433000    0.5695382   -4.8486317    185.87642  0.035772982  0.035810166           15 
  434000   0.56932871    -4.866633    186.41219  0.035793431   0.03572372           10 
  435000   0.57840475   -4.8595213    186.09802  0.035650961  0.035637226           11 
  436000   0.56895017   -4.8698873    186.44398  0.035635317  0.035550474           10 
  437000   0.57143911   -4.8729218    186.42979  0.035551065  0.035464093           21 
  438000   0.58559065    -4.889098    186.17417  0.035421265  0.035377344           12 
  439000   0.57109694   -4.8952888    186.18366   0.03534238  0.035290927            8 
  440000   0.55563915   -4.8659898     186.5561  0.035332595  0.035205162           14 
  441000   0.56454655   -4.8938941    186.12519  0.035171048  0.035119246           16 
  442000   0.56868916   -4.8959318    186.44008  0.035150845  0.035033393           13 
  443000   0.57268598   -4.8913777    186.66877  0.035114517  0.034948277           10 
  444000   0.55374194   -4.9190126    186.64376  0.035030736  0.034862791           17 
  445000   0.56498167   -4.8922004    186.40685   0.03490765  0.034777733           25 
  446000   0.54021784   -4.9001492    186.79711  0.034902299  0.034692849            9 
  447000   0.55826308   -4.9045244    186.83588  0.034831446  0.034608389           13 
  448000   0.55045952   -4.8897751    187.14591  0.034811366  0.034524458           22 
  449000   0.54891648   -4.9049739    186.65976  0.034643608  0.034439991           32 
  450000   0.54598466   -4.9090125    186.46059  0.034529739  0.034355107           23 
  451000   0.55623509   -4.9070698    186.50453  0.034461294  0.034270478           28 
  452000   0.53915552   -4.8964868    187.05502  0.034486544  0.034186024            9 
  453000   0.55176137   -4.9069316    186.64207  0.034334451  0.034102112           13 
  454000   0.54568321   -4.9040252    186.72742   0.03427449  0.034017992           11 
  455000   0.54144331   -4.9014062    186.87233  0.034225701  0.033934078            7 
  456000   0.53013107   -4.9188905    187.00311  0.034174545  0.033849863           21 
  457000   0.54489417   -4.9588958    186.57479  0.034021661  0.033765509           25 
  458000   0.55424518   -4.9360624    186.31745  0.033900555  0.033680827           25 
  459000   0.54062471   -4.9232529    186.71444  0.033898773  0.033596427           24 
  460000   0.52355979   -4.9459079    186.22613  0.033736617  0.033512104           54 
  461000   0.54463877   -4.9152738    186.34935   0.03368571  0.033427933           12 
  462000   0.51933392   -4.9512744    186.46048  0.033632843  0.033344136           17 
  463000   0.54764007   -4.9443298    187.07003  0.033669911   0.03326072           10 
  464000   0.53000915   -4.9672215    186.48516  0.033492305  0.033177407           26 
  465000   0.53634225   -4.9547878    186.52701  0.033427779  0.033093927           11 
  466000   0.51711861   -4.9627041    186.29461  0.033314487  0.033010145           17 
  467000   0.52062103   -4.9631862    186.10045  0.033208502  0.032926063           49 
  468000    0.5258372   -4.9632146    185.90353   0.03310248  0.032842003           33 
  469000   0.51898736   -4.9813818    185.87452  0.033026744  0.032757764           31 
  470000   0.51938271   -4.9692354    186.06478  0.032990209  0.032673932           28 
  471000   0.52160948   -4.9685412    185.49543  0.032819433  0.032590117           13 
  472000   0.51777734   -4.9896362    185.89752  0.032820889  0.032506266           22 
  473000   0.51362485   -4.9978108     185.7155  0.032719433  0.032422581           14 
  474000   0.51081995   -4.9954332    185.73802  0.032654363  0.032338838           21 
  475000   0.51760072   -4.9979586    185.75958    0.0325894  0.032254968           15 
  476000   0.50409529   -5.0145395    185.72269  0.032514476  0.032171323           23 
  477000   0.52335865   -5.0214858    185.55376  0.032416799  0.032088063           29 
  478000   0.49901672   -5.0060796    185.99107  0.032425221  0.032005252           40 
  479000    0.5038652   -5.0119891    185.81452  0.032326812  0.031922632           25 
  480000    0.4982046   -5.0210073     185.8217  0.032260712   0.03183978           41 
  481000   0.49365301   -5.0075781    185.74427  0.032180226  0.031757266           27 
  482000    0.4964029   -5.0141774    185.69142  0.032104326  0.031674955           14 
  483000   0.49357686    -5.006401    185.63423  0.032027991  0.031592731           16 
  484000   0.50100901   -5.0276068    186.17439   0.03205482  0.031510752           14 
  485000   0.48979456   -5.0102721    185.98301  0.031955843  0.031429094           32 
  486000   0.49079241   -5.0273059    185.88079  0.031872564  0.031347728           29 
  487000   0.50123897   -5.0288073    185.89169  0.031808982  0.031266362           23 
  488000   0.48999566   -5.0296328    185.93352  0.031750943  0.031185475           11 
  489000   0.47974061   -5.0369117    185.55393  0.031621325  0.031104416           23 
  490000   0.48349609    -5.059357      185.333  0.031519217  0.031023308           18 
  491000   0.48180057   -5.0383678    185.67145  0.031512466  0.030942225           20 
  492000   0.48618136   -5.0647943    185.13034  0.031356764   0.03086138           21 
  493000   0.48242328   -5.0552205    185.26146  0.031315325  0.030780524           42 
  494000    0.4800703   -5.0572902    185.96171  0.031370058  0.030699744           62 
  495000    0.4787553   -5.0589641    185.48754  0.031226858   0.03061933           36 
  496000   0.47376765   -5.0554356    184.82809  0.031053107  0.030538971          140 
  497000   0.47582735   -5.0494309    185.43768  0.031092837  0.030458594           73 
  498000   0.47317542   -5.0836529    185.23127  0.030995862  0.030378548           40 
  499000   0.47181108    -5.078267    185.19722   0.03092806  0.030298548           59 
  500000   0.47195695   -5.0811875     185.1848  0.030864133  0.030218419           67 
  501000   0.47163764   -5.1015146    185.09924  0.030788297  0.030138432          113 
  502000   0.46663228   -5.0909151    185.04146  0.030717374  0.030058534          179 
  503000   0.46743404   -5.0842924    184.90238  0.030633264  0.029978772          164 
  504000   0.46004602   -5.0956035    185.25803  0.030631288  0.029899336           84 
  505000   0.45551789   -5.1024487     185.0645  0.030538696  0.029820432           73 
  506000   0.46717855   -5.1030711    184.91203  0.030453232  0.029741562           90 
  507000   0.45785199   -5.1132328    184.77969  0.030371415  0.029662903          100 
  508000   0.46637102     -5.11576    185.20707  0.030381737  0.029584268          153 
  509000   0.46240544   -5.1171154    184.95924  0.030281474  0.029505888          217 
  510000   0.45337596   -5.1101348    185.00617  0.030229766  0.029427501          135 
  511000   0.44185396   -5.1167393    185.23208  0.030207449  0.029349331          119 
  512000   0.44657078   -5.1346332    184.52668   0.03003364  0.029271305          181 
Loop time of 1261.39 on 48 procs for 500000 steps with 4000 atoms

Performance: 68496.093 tau/day, 396.389 timesteps/s
99.4% CPU use with 48 MPI tasks x no OpenMP threads

MPI task timing breakdown:
Section |  min time  |  avg time  |  max time  |%varavg| %total
---------------------------------------------------------------
Pair    | 84.623     | 90.689     | 97.801     |  34.3 |  7.19
Neigh   | 8.4835     | 8.7933     | 9.1865     |   5.3 |  0.70
Comm    | 79.754     | 86.951     | 94.541     |  39.2 |  6.89
Output  | 0.87668    | 0.87736    | 0.89846    |   0.3 |  0.07
Modify  | 1058       | 1062.5     | 1066.9     |   5.8 | 84.24
Other   |            | 11.54      |            |       |  0.92

Nlocal:        83.3333 ave          89 max          75 min
Histogram: 2 2 2 1 2 14 4 16 2 3
Nghost:        2296.25 ave        2316 max        2276 min
Histogram: 1 5 6 6 6 5 5 8 3 3
Neighs:        15525.0 ave       17286 max       13513 min
Histogram: 4 0 1 7 9 10 4 10 1 2
FullNghs:      31051.1 ave       33471 max       27515 min
Histogram: 1 3 2 1 4 10 11 9 5 2

Total # of neighbors = 1490454
Ave neighs/atom = 372.61350
Neighbor list builds = 27019
Dangerous builds = 0

#clear
#
#next RN
#
#jump SELF
Total wall time: 0:21:04
