
units lj                  # Use reduced LJ style units
atom_style atomic         # Uncharged point particles
atom_modify map hash      # Needed for indexing of clusters etc
                          # Used to be able to find where atoms are in relation to each other.

lattice fcc 1.0 spacing 1 1 1
Lattice spacing in x,y,z = 1.5874011 1.5874011 1.5874011
region box block 0 10 0 10 0 10 units lattice
create_box 2 box
Created orthogonal box = (0.0000000 0.0000000 0.0000000) to (15.874011 15.874011 15.874011)
  3 by 4 by 4 MPI processor grid
create_atoms 1 box
Created 4000 atoms
  using lattice units in orthogonal box = (0.0000000 0.0000000 0.0000000) to (15.874011 15.874011 15.874011)
  create_atoms CPU = 0.002 seconds
set type 1 type/fraction 2 0.36 78393
Setting atom values ...
  1453 settings made for type/fraction
mass 1 1.0
mass 2 1.0
pair_style lj/cut  3.5
pair_modify tail  yes
pair_coeff 1  1  1.0  1.0   # Intearaction between 1 and 1 set with epsilon = 1 and sigma = 1
pair_coeff 1  2  1.5  0.8
pair_coeff 2  2  0.5  0.88

write_data data.0
System init for write_data ...
Neighbor list info ...
  update every 1 steps, delay 10 steps, check yes
  max neighbors/atom: 2000, page size: 100000
  master list distance cutoff = 3.8
  ghost atom cutoff = 3.8
  binsize = 1.9, bins = 9 9 9
  1 neighbor lists, perpetual/occasional/extra = 1 0 0
  (1) pair lj/cut, perpetual
      attributes: half, newton on
      pair build: half/bin/atomonly/newton
      stencil: half/bin/3d
      bin: standard
WARNING: Not all mixed pair coeffs generated from mixing. Use write_data with 'pair ij' option to store all pair coeffs. (../write_data.cpp:312)


#############################
#   M E L T   S Y S T E M   #
#############################

velocity all create 2.4 9580093 mom yes dist gaussian # Assign velocities
                                                    # Temperature 2.4, random number seed, zero linear momentum
                                                                                # Gaussian distribution

timestep 0.002   # simulation timestep
thermo 1000       # output thermodynamic data every 1000 steps bf 100

# Define a fix  in this case with index 1 applied to all
# particles in the simulation. This fix is for simulations
# in the anisotropic NPT ensemble. Note that we use the MTK
# correction.
fix 1 all npt temp 2.4 2.4 0.1 iso 5.68 5.68 0.5 mtk yes tchain 5 pchain 5 # Use NPT ensemble
                                                                         # Set temperature and pressure and damping
                                                                         # Numbers of thermostats in chain and in barostat
run 10000          # run for 10000 steps
Per MPI rank memory allocation (min/avg/max) = 3.642 | 3.644 | 3.648 Mbytes
Step Temp E_pair E_mol TotEng Press Volume 
       0          2.4   -6.0964775            0   -2.4973775   -4.1129651         4000 
    1000    2.3763658   -4.9786241            0   -1.4149665    5.5256727    4030.6725 
    2000    2.4628208   -5.0001713            0   -1.3068637     5.808265    4005.0879 
    3000    2.4198076   -5.0095415            0   -1.3807375     5.684623    4005.3335 
    4000    2.4017692   -5.0132882            0   -1.4115349     5.949077    3973.7041 
    5000    2.4178047   -4.9981718            0   -1.3723715    6.0095115    3985.6499 
    6000    2.4014925   -5.0245383            0   -1.4232001    5.6386474    3999.6949 
    7000    2.3935864   -5.0464459            0   -1.4569638    5.6301594    3990.4129 
    8000    2.4126978   -5.0145624            0   -1.3964204    5.6241094    4013.4197 
    9000    2.4267456   -5.0192986            0   -1.3800902    5.6494518    4001.6951 
   10000    2.4308585   -5.0004928            0   -1.3551165    5.6322348    4006.7606 
Loop time of 2.48835 on 48 procs for 10000 steps with 4000 atoms

Performance: 694434.981 tau/day, 4018.721 timesteps/s
99.6% CPU use with 48 MPI tasks x no OpenMP threads

MPI task timing breakdown:
Section |  min time  |  avg time  |  max time  |%varavg| %total
---------------------------------------------------------------
Pair    | 1.0709     | 1.1523     | 1.2395     |   3.6 | 46.31
Neigh   | 0.19999    | 0.21352    | 0.22728    |   1.1 |  8.58
Comm    | 0.73043    | 0.84364    | 0.91637    |   4.2 | 33.90
Output  | 0.00023193 | 0.00023965 | 0.00032955 |   0.0 |  0.01
Modify  | 0.21092    | 0.26379    | 0.32029    |   5.8 | 10.60
Other   |            | 0.01484    |            |       |  0.60

Nlocal:        83.3333 ave          95 max          76 min
Histogram: 4 4 9 8 7 13 1 1 0 1
Nghost:        1636.71 ave        1672 max        1608 min
Histogram: 2 4 7 10 7 7 2 4 3 2
Neighs:        9522.10 ave       10682 max        8351 min
Histogram: 2 3 5 6 4 11 7 6 3 1

Total # of neighbors = 457061
Ave neighs/atom = 114.26525
Neighbor list builds = 906
Dangerous builds = 199

# Equilibrate just above the melting temperature to avoid step fn in T

fix 1 all npt temp 1.25 1.25 0.1 iso 5.68 5.68 0.5 mtk yes tchain 5 pchain 5
run 2000
Per MPI rank memory allocation (min/avg/max) = 3.643 | 3.645 | 3.649 Mbytes
Step Temp E_pair E_mol TotEng Press Volume 
   10000    2.4308585   -5.0004928            0   -1.3551165    5.6322348    4006.7606 
   11000    1.2424273   -6.9172952            0   -5.0541201    5.7502946    3202.7324 
   12000    1.2435646    -7.024153            0   -5.1592723    5.8392321    3167.4441 
Loop time of 0.617642 on 48 procs for 2000 steps with 4000 atoms

Performance: 559547.217 tau/day, 3238.120 timesteps/s
99.5% CPU use with 48 MPI tasks x no OpenMP threads

MPI task timing breakdown:
Section |  min time  |  avg time  |  max time  |%varavg| %total
---------------------------------------------------------------
Pair    | 0.2519     | 0.28159    | 0.31503    |   2.6 | 45.59
Neigh   | 0.037176   | 0.040414   | 0.043411   |   0.7 |  6.54
Comm    | 0.1797     | 0.21009    | 0.24256    |   3.0 | 34.02
Output  | 5.0007e-05 | 5.3902e-05 | 0.0001594  |   0.0 |  0.01
Modify  | 0.037961   | 0.053146   | 0.085645   |   7.1 |  8.60
Other   |            | 0.03235    |            |       |  5.24

Nlocal:        83.3333 ave          93 max          77 min
Histogram: 5 9 3 9 3 10 4 2 2 1
Nghost:        1917.15 ave        1940 max        1900 min
Histogram: 5 4 5 8 8 4 6 5 1 2
Neighs:        12048.9 ave       13709 max       10482 min
Histogram: 4 4 4 6 8 3 9 4 3 3

Total # of neighbors = 578348
Ave neighs/atom = 144.58700
Neighbor list builds = 143
Dangerous builds = 9

#############################
# L I N E A R  Q U E N C H  #
#############################

# Define solid atoms. This closely follows ten Wolde  Ruiz-Montero and Frenkel  Faraday Discuss  1996  104  93-110
# Compute components of the per-atom q6 vector
compute q6 all orientorder/atom degrees 1 6 components 6 nnn NULL cutoff 1.3 # compute the Q6 parameter.
                                                                             # Use all neighbours within 1.3 unit cell.

# get number of connections
compute coord_number all coord/atom orientorder q6 0.5

# An atom is solid if it has 8 or more connections (of a possible 14)
variable is_solid atom c_coord_number>=8
group solid dynamic all var is_solid    # Must be dynamic to update
dynamic group solid defined

# do clustering
compute cluster solid cluster/atom 1.3 # Create a cluster where all atoms within are solid and max 1.3 units from another member

# define chunks one chunk per cluster
compute clus_chunks solid chunk/atom c_cluster nchunk every compress yes  # Says which atoms are in which chunk

# count the size of each chunk
compute size_chunks solid property/chunk clus_chunks count


# Find the maximum entry in the vector of chunk sizes
variable max_n equal max(c_size_chunks)


# Thermo style which includes this variable
# thermo_style custom step temp pe vol v_max_n

thermo ${N}  # Print the thermo information every 100 steps
thermo 1000  

# Reset the npt fix at a lower temperature (below freezing)
fix 1  all npt temp  ${temp} ${temp}  0.1  iso  5.68  5.68  0.5  mtk yes tchain  5  pchain  5
fix 1  all npt temp  0.45 ${temp}  0.1  iso  5.68  5.68  0.5  mtk yes tchain  5  pchain  5
fix 1  all npt temp  0.45 0.45  0.1  iso  5.68  5.68  0.5  mtk yes tchain  5  pchain  5

dump dmp2 all dcd ${N} traj.dcd
dump dmp2 all dcd 1000 traj.dcd


compute msd all msd com yes
variable twopoint equal c_msd[4]/6/(step*dt+1.0e-6)
fix 9 all vector 10 c_msd[4]
variable fit equal slope(f_9)/6/(10*dt)
thermo_style custom step temp pe c_msd[4] v_twopoint v_fit v_max_n

fix 1 all npt temp 1.25 ${temp} 0.1 iso 5.68 5.68 0.5 mtk yes tchain 5 pchain 5
fix 1 all npt temp 1.25 0.45 0.1 iso 5.68 5.68 0.5 mtk yes tchain 5 pchain 5
run 5000000 # 5000000  # Run for this many steps
Neighbor list info ...
  update every 1 steps, delay 10 steps, check yes
  max neighbors/atom: 2000, page size: 100000
  master list distance cutoff = 3.8
  ghost atom cutoff = 3.8
  binsize = 1.9, bins = 8 8 8
  4 neighbor lists, perpetual/occasional/extra = 1 3 0
  (1) pair lj/cut, perpetual
      attributes: half, newton on
      pair build: half/bin/atomonly/newton
      stencil: half/bin/3d
      bin: standard
  (2) compute orientorder/atom, occasional
      attributes: full, newton on
      pair build: full/bin/atomonly
      stencil: full/bin/3d
      bin: standard
  (3) compute coord/atom, occasional
      attributes: full, newton on
      pair build: full/bin/atomonly
      stencil: full/bin/3d
      bin: standard
  (4) compute cluster/atom, occasional
      attributes: full, newton on
      pair build: full/bin/atomonly
      stencil: full/bin/3d
      bin: standard
Per MPI rank memory allocation (min/avg/max) = 9.819 | 9.825 | 9.831 Mbytes
Step Temp PotEng c_msd[4] v_twopoint v_fit v_max_n 
   12000    1.2435646    -7.024153 7.8886091e-34 5.4782005e-36 8.3333333e+20            3 
   13000    1.2293452   -7.0128346   0.45777108 0.0029344299  0.037463498            2 
   14000    1.2556472   -7.0326706   0.91344002 0.0054371428  0.036907091            1 
   15000    1.2735436   -7.0004752     1.356068 0.0075337108  0.037540188            1 
   16000    1.2508303   -7.0513217    1.8271905 0.0095166169  0.037591973            2 
   17000    1.2424661   -7.0107646     2.257722  0.011067264  0.037533576            2 
   18000    1.2399359   -7.0338774    2.7181464  0.012584011  0.037383101            2 
   19000     1.218046   -7.0305654    3.1634018  0.013874569  0.037665347            2 
   20000    1.2188511   -7.0439699    3.5636866  0.014848694  0.037446237            1 
   21000    1.2222813   -6.9950252    3.9925841  0.015843587  0.037233209            2 
   22000    1.2413465   -7.0185327    4.4324572   0.01678961  0.037019899            1 
   23000    1.2336017    -7.040353    4.8159225  0.017448994  0.036792875            1 
   24000    1.2640638   -7.0410483    5.1943724  0.018036015  0.036457818            1 
   25000    1.2719978   -7.0697593     5.610974  0.018703246  0.036163837            2 
   26000    1.2413698   -7.0421563    6.1042485  0.019564899  0.035922131            2 
   27000    1.2564529    -7.045617    6.5291306  0.020151637  0.035889884            2 
   28000    1.2429345   -6.9844994    6.9769448  0.020764716  0.035883434            2 
   29000    1.2637641   -7.0293136    7.4776848    0.0214876  0.035913756            1 
   30000    1.2729278   -7.0609477    7.8972019  0.021936672  0.036019554            2 
   31000    1.2224345    -7.024999    8.3675824  0.022493501  0.036070296            1 
   32000    1.2276862   -7.0477971    8.8393987  0.023019267   0.03615964            2 
   33000    1.2210694   -7.0273264    9.2312556  0.023311251  0.036228761            1 
   34000    1.2312985   -7.0262653    9.6137599  0.023563137  0.036214645            3 
   35000    1.2647669   -7.0002229    9.9828688  0.023768735  0.036165261            1 
   36000     1.264689   -7.0499477     10.51781  0.024346783   0.03614053            1 
   37000    1.2583436   -7.0320588    11.005934   0.02478814  0.036194912            2 
   38000    1.2289969   -7.0430286    11.498042  0.025215004  0.036271899            3 
   39000    1.2425937   -7.0225773     11.91515  0.025459722  0.036334141            3 
   40000    1.2563085   -7.0327994    12.286499  0.025596873  0.036358808            1 
   41000    1.2588656   -7.0516312    12.855654  0.026129378   0.03640892            2 
   42000    1.2425946   -7.0555132    13.265551  0.026320537  0.036457482            2 
   43000    1.2219791   -7.0129546    13.792286  0.026729237  0.036534661            1 
   44000    1.2526338   -7.0562547    14.216428  0.026925054  0.036623708            1 
   45000    1.2559109   -7.0418908    14.547328  0.026939495  0.036663586            2 
   46000    1.2524424   -6.9904069    14.981468   0.02714034  0.036676311            1 
   47000    1.2537119   -7.0512166    15.219526  0.026984975  0.036624772            4 
   48000    1.2423393   -7.0302935    15.681123  0.027224171  0.036576125            2 
   49000    1.2496234   -7.0568668    16.003306  0.027216506  0.036517454            1 
   50000    1.2683524   -7.0261502    16.506745  0.027511242  0.036461195            2 
   51000    1.2480016   -7.0044607    17.145094  0.028014859  0.036452277            1 
   52000    1.2527416    -7.040274    17.451127  0.027966549  0.036444413            2 
   53000    1.2694138   -7.0258749    17.782578  0.027960028  0.036407159            1 
   54000    1.2265697   -7.0052431    18.400613  0.028396008  0.036380227            1 
   55000    1.2471629   -7.0371061    18.837169  0.028541166  0.036370581            1 
   56000    1.2541597   -7.0768908    19.340477  0.028780471   0.03638075            2 
   57000    1.2241788    -7.044702    19.852101  0.029023539  0.036409796            1 
   58000    1.2630973   -7.0420892    20.318008  0.029192541  0.036456095            3 
   59000    1.2672172   -7.0726979    20.798904  0.029376982   0.03650057            3 
   60000    1.2565733   -7.0388121    21.315609  0.029605012  0.036545971            3 
   61000    1.2270228   -7.0267026    21.807191  0.029791244  0.036595317            1 
   62000    1.2292258    -7.011296    22.211734   0.02985448   0.03664666            2 
   63000    1.2553584   -7.0546859    22.619625  0.029920139  0.036691517            1 
   64000    1.2091589   -7.0060807    23.087884  0.030062349  0.036728796            2 
   65000    1.2534549   -7.0557599    23.352917  0.029939637  0.036741459            3 
   66000    1.2158708   -7.0172633    23.697783  0.029921443  0.036736532            2 
   67000    1.2260191   -7.0588178    24.127775   0.03000967  0.036718448            2 
   68000    1.2852369   -7.0440376    24.542701  0.030076839  0.036703194            2 
   69000     1.254976    -7.025386    25.095462  0.030308529  0.036697282            2 
   70000    1.2442073   -7.0519033    25.476339  0.030328975  0.036689239            1 
   71000      1.22608   -7.0146017    25.797021  0.030278194  0.036673882            2 
   72000    1.2515834   -7.0300323    25.994748  0.030086514  0.036635527            1 
   73000    1.2228603   -7.0470258    26.475558   0.03022324   0.03658418            2 
   74000    1.2449926   -7.0295413    26.936347  0.030333724  0.036536575            1 
   75000    1.2595658    -7.071941      27.2388  0.030265333  0.036492566            2 
   76000    1.2233048    -7.027384    27.772877  0.030452716  0.036449986            2 
   77000    1.2190132   -7.0650727    28.049719  0.030356838  0.036410017            3 
   78000    1.2303744   -7.0415136    28.375139   0.03031532  0.036369342            1 
   79000    1.2449037   -7.0313281     28.91046  0.030496265  0.036319712            2 
   80000    1.2411571   -7.0847245    29.241607  0.030460007   0.03626722            1 
   81000    1.2486122   -7.0634311    29.664348  0.030518876  0.036220586            2 
   82000    1.2214812   -7.0390785    30.119937  0.030609692  0.036173951            2 
   83000    1.2256636   -7.0842557    30.538366  0.030661009  0.036138589            2 
   84000    1.2532807   -7.0714542    31.096696  0.030849896  0.036109035            2 
   85000    1.2413029   -7.1026085    31.325509  0.030711283  0.036080195            1 
   86000    1.2509622   -7.0791311     31.86022  0.030872306  0.036052799            2 
   87000    1.2196097   -7.0319277    32.384806  0.031019929   0.03603223            2 
   88000    1.2309473   -7.0675789    32.766109  0.031028512  0.036011371            2 
   89000    1.2338924   -7.1009431    33.299962   0.03117974  0.035997735            1 
   90000    1.2506716    -7.030998    34.009298   0.03149009  0.035994603            1 
   91000    1.2454173   -7.0050623    34.438929   0.03153748  0.035998157            1 
   92000    1.2435783   -7.0280925    34.879426  0.031593682  0.036006455            1 
   93000    1.2526882   -7.0494421    35.263442  0.031598066  0.036015437            2 
   94000    1.2562663   -7.0453209    35.701428  0.031650202  0.036023918            1 
   95000    1.2181457    -7.088448    36.215059  0.031767596  0.036033915            1 
   96000    1.2140228   -7.0414269     36.51059   0.03169322  0.036043964            1 
   97000    1.2456988   -7.0639373    37.121035  0.031890924  0.036047922            1 
   98000    1.2539948   -7.0320739    37.362715  0.031771016  0.036053812            3 
   99000    1.2395282   -7.0639549    37.964848  0.031956943  0.036059313            1 
  100000    1.2454017    -7.071447    38.361273  0.031967727  0.036067135            1 
  101000    1.2500158   -7.0788855    38.910263  0.032104177  0.036086458            1 
  102000    1.2575461   -7.0564647    39.672702  0.032412338  0.036114569            1 
  103000    1.2418179   -7.0582918    40.115677  0.032456049   0.03614228            1 
  104000    1.2301517   -7.0604604    40.421332  0.032388888  0.036167816            2 
  105000    1.2124656   -7.0806363    40.492542  0.032136938  0.036189082            2 
  106000    1.1944906   -7.0407959    41.215365  0.032402016  0.036198942            1 
  107000    1.2194412   -7.0131843    41.885814   0.03262135  0.036213464            2 
  108000    1.2438372   -7.0220905    42.438295  0.032745597   0.03623825            2 
  109000    1.2291685   -7.0480543    42.846561  0.032757309  0.036262263            2 
  110000    1.2418992   -7.0665379    43.338512  0.032832206  0.036292509            2 
  111000    1.2116224   -7.0516261    43.562152  0.032704318  0.036315881            2 
  112000    1.2075422    -7.030959    44.227151  0.032907107  0.036336927            1 
  113000     1.238395   -7.0021093    44.465344  0.032791551  0.036358205            1 
  114000    1.2295723   -7.0697607    44.810265  0.032756042  0.036377468       -1e+20 
  115000    1.2392491    -7.031604    45.285212  0.032815371  0.036388323            1 
  116000     1.240162   -7.0526758    45.456037  0.032655199  0.036393337            4 
  117000    1.2285143   -7.0247021      46.0444  0.032795157  0.036396395            3 
  118000    1.2405249   -7.0404184    46.377227  0.032752279  0.036404251            2 
  119000     1.222684   -7.0799261    46.992516  0.032907924  0.036414219            1 
  120000    1.2512418   -7.0500529    47.367877  0.032894359   0.03642194            2 
  121000    1.2232268   -7.0567544    47.658775  0.032822847  0.036425343            1 
  122000    1.2242299    -7.021822    48.124695  0.032872059  0.036421097            2 
  123000    1.2469722   -7.0756014    48.454584  0.032828309  0.036419471            1 
  124000    1.2432755   -7.0563637    48.766659  0.032773292  0.036416254            1 
  125000    1.2211967   -7.0880912    49.164724  0.032776482  0.036413695            2 
  126000    1.2309664   -7.0630464    49.574224  0.032787185  0.036403621            1 
  127000    1.2174949   -7.0751864    50.299497  0.033004919  0.036400504            1 
  128000    1.2345255   -7.0407331    50.817906  0.033084574  0.036405219            2 
  129000    1.2366272   -7.0659134    51.398729  0.033203313  0.036413264            2 
  130000    1.2206764   -7.0431597    51.872497  0.033251601  0.036420016            1 
  131000    1.2096879    -7.103277    51.842487  0.032978681  0.036423076            3 
  132000    1.2413506   -7.0939471    52.704892   0.03327329  0.036425216            1 
  133000    1.2137144   -7.0636353    53.331286  0.033415592  0.036438523            1 
  134000    1.2066884   -7.0884772    53.670428  0.033377131   0.03645403            2 
  135000     1.210701   -7.0259809    54.298225  0.033517423  0.036465345            2 
  136000    1.2447322    -7.021669    54.645616  0.033483833  0.036472469            3 
  137000    1.2084664   -7.0675166    54.810803  0.033339905  0.036479057            3 
  138000    1.2351137   -7.0106141    55.556405  0.033548554  0.036486575            1 
  139000    1.2636199   -7.0646239    55.753442  0.033425325  0.036495683            1 
  140000    1.2243311   -7.1147262    56.009643  0.033339073  0.036500655            1 
  141000    1.2280865    -7.076831    56.440603   0.03335733  0.036505137            4 
  142000    1.2272113   -7.0798824    56.903494  0.033394069  0.036507297            1 
  143000    1.2291341   -7.0663399    57.424263  0.033464022  0.036506954            2 
  144000     1.206408   -7.0597758    57.873713  0.033491732  0.036504356            9 
  145000    1.2179236   -7.1093841     58.15535  0.033422615  0.036500459            1 
  146000    1.2416447     -7.00503    59.021042  0.033687809  0.036502888            1 
  147000    1.2391688   -7.1457911    59.243157  0.033584556  0.036505314            4 
  148000    1.2385049   -7.0688487    59.975388  0.033769925   0.03650837            1 
  149000    1.2447457   -7.0670918     60.47175  0.033820889  0.036518994            1 
  150000     1.204118   -7.0802279    60.613598  0.033674221  0.036527189            1 
  151000    1.2094334   -7.1045375    60.777184  0.033541492  0.036533176            4 
  152000    1.2298172   -7.0998793    61.489426  0.033711308  0.036534898            1 
  153000    1.2453456   -7.0864194    61.787826    0.0336535  0.036539487            1 
  154000    1.2567379   -7.0911624    62.385595  0.033758439  0.036541097            1 
  155000    1.2318453   -7.1014348    62.809631  0.033768619  0.036541452            2 
  156000    1.2358823   -7.1082853     63.22432  0.033773675  0.036544836            7 
  157000    1.2095387   -7.0758461    63.853288  0.033892403  0.036548284            2 
  158000    1.2541888   -7.0835308    64.158464  0.033838852  0.036551833            1 
  159000    1.2334093   -7.1222435    64.425484  0.033765977  0.036552795            2 
  160000     1.213569    -7.041629    64.850897  0.033776509   0.03655125            1 
  161000    1.2315511   -7.0401974    64.973842  0.033630353     0.036548            1 
  162000    1.2393754   -7.0414117    65.669054  0.033780378  0.036545367            1 
  163000    1.2466324   -7.1103558    65.821025  0.033650831  0.036542347            1 
  164000    1.2401462   -7.0739388    66.270566  0.033674068  0.036537236            2 
  165000    1.2110027   -7.0435338    66.840555  0.033757856  0.036531669            2 
  166000     1.210187   -7.0562816    67.069281  0.033669318  0.036525237            1 
  167000    1.2451457    -7.052117     67.16722  0.033516577  0.036515288            1 
  168000    1.2501481   -7.0465212    68.125816  0.033792567  0.036503663            1 
  169000    1.2542764   -7.1090883     68.39803  0.033726839  0.036495074            1 
  170000    1.2407532   -7.0889068    68.838156  0.033744194  0.036488189            1 
  171000    1.2171112    -7.101099     69.27661  0.033760531  0.036480823            1 
  172000    1.2463738    -7.053325    69.557062  0.033700127  0.036473449            2 
  173000     1.206097   -7.0766887    70.137852  0.033785092  0.036465674            2 
  174000    1.2372425   -7.0656063    70.686251  0.033853568  0.036460187            1 
  175000    1.2472787   -7.1325139    70.930675  0.033776512  0.036451851            1 
  176000    1.2263608   -7.0893047    71.314986  0.033766565  0.036444714            2 
  177000    1.2198757   -7.0763819    71.636512  0.033727171  0.036436246            1 
  178000    1.1894315   -7.0713304    71.994103  0.033705104  0.036426169            1 
  179000    1.2414511   -7.1230718    72.172408  0.033599817  0.036414625            2 
  180000    1.2158152   -7.0875278    72.622857  0.033621693  0.036401475            1 
  181000    1.2174436   -7.0914045    72.938999  0.033581491  0.036384304            1 
  182000    1.2104938   -7.1091337    73.216872  0.033524209  0.036365958            2 
  183000    1.1979707   -7.0837787    73.836023  0.033622961  0.036349926            6 
  184000     1.232734   -7.1101019    74.390902  0.033691532  0.036336587            2 
  185000    1.2545097   -7.1150769    74.989492  0.033779051  0.036328318            1 
  186000    1.2131924   -7.0669005    75.189142  0.033686892  0.036319844            1 
  187000    1.2183813   -7.0941598    75.999194  0.033867733  0.036312192            1 
  188000    1.2268637   -7.0723546    76.400491  0.033865466  0.036307685            2 
  189000    1.2107756   -7.0704429    76.895706  0.033904632  0.036302719            2 
  190000     1.220897   -7.1241175     77.06458  0.033800254  0.036294081            1 
  191000    1.2133794   -7.1327917    77.387299  0.033764092  0.036283046            1 
  192000     1.207808   -7.1149355     77.54591  0.033657079  0.036272858            1 
  193000    1.2459501   -7.0880286    77.953179   0.03365854  0.036260662            1 
  194000    1.1952823   -7.0513518    78.457665  0.033701746  0.036247932            1 
  195000    1.2045729   -7.0491621    78.853782  0.033698197  0.036232507            1 
  196000    1.2376743   -7.1091066    79.130501   0.03364392  0.036217614            1 
  197000    1.2162561   -7.0807284    79.498978  0.033629009  0.036200666            1 
  198000    1.2062307   -7.0729861    79.682727  0.033536501  0.036183204            2 
  199000    1.1938573   -7.1114091    80.085751  0.033536746  0.036166244            2 
  200000    1.2211115   -7.1017221    80.579589  0.033574829  0.036147894            1 
  201000    1.2310848   -7.0852438    81.098056  0.033622743  0.036129514            1 
  202000     1.237392   -7.0749831     81.58097  0.033655516  0.036114167            1 
  203000    1.2142256   -7.0891868    81.979635   0.03365338  0.036099675            1 
  204000    1.2018136   -7.1023523    82.542003  0.033718138  0.036086735            2 
  205000    1.2092011   -7.0637927    83.102167  0.033781369  0.036074895            2 
  206000    1.2171311   -7.1424517    83.009758  0.033579999  0.036059408            1 
  207000    1.1938512   -7.0910776    83.479254  0.033606785  0.036043675            2 
  208000    1.2073861   -7.1338996    83.825393  0.033583891  0.036027489            1 
  209000     1.236345   -7.0974411    83.986674  0.033487509  0.036009328            1 
  210000    1.2237057   -7.0858791    84.032095   0.03334607  0.035988029            1 
  211000    1.2355483   -7.0584624    84.547134  0.033391443  0.035969353            1 
  212000    1.2095111    -7.080269    84.892612  0.033369737  0.035948918            1 
  213000     1.244346   -7.1016564    85.473906  0.033440495  0.035928125            1 
  214000    1.2306516    -7.077284    85.785527  0.033405579  0.035908669            1 
  215000    1.2141129   -7.0791487    86.472611  0.033516516  0.035889784            1 
  216000    1.2209512   -7.0673121    86.741586  0.033465118  0.035869427            1 
  217000    1.2436547   -7.0744741    87.132391   0.03346098  0.035850104            2 
  218000    1.2277009   -7.1698701      87.4749  0.033438417  0.035831305            1 
  219000    1.2196355   -7.0885509    88.297856   0.03359888  0.035812364            1 
  220000    1.2191968   -7.0309196    88.360464  0.033469873  0.035795268            1 
  221000    1.2065089   -7.0519603    88.941417  0.033537488  0.035778079            3 
  222000    1.2117289   -7.0875056    89.542354  0.033611995  0.035763626            1 
  223000    1.2313402   -7.0891106    89.852617  0.033577211   0.03575041            1 
  224000    1.2193613   -7.0964183     90.31645   0.03359987  0.035736046            3 
  225000    1.2495514   -7.1106819    90.599687   0.03355544  0.035723545            1 
  226000    1.1881759   -7.0954253    91.194765  0.033626388  0.035710302            4 
  227000    1.2112436    -7.085535    91.642649  0.033642676  0.035698083            1 
  228000    1.2190571    -7.125953    91.968972   0.03361439  0.035687185            1 
  229000    1.1982034   -7.0835988    92.546927  0.033677921  0.035676817            1 
  230000    1.2214475   -7.0671598    93.080167  0.033724698  0.035666846            2 
  231000    1.2038977   -7.0844345    93.605488  0.033768213  0.035658757            2 
  232000    1.2277571   -7.1014084    93.996821  0.033763226  0.035650061            2 
  233000    1.2020946   -7.0767246    94.139451  0.033669331  0.035639582            1 
  234000    1.2298539   -7.0778167    94.681041  0.033718319  0.035629479            1 
  235000    1.2348198   -7.0967129    95.037747  0.033701329  0.035620371            6 
  236000    1.2212279   -7.1198607    95.056011  0.033564975  0.035610493            2 
  237000    1.2091799   -7.0776943    95.862467  0.033706915  0.035600199            2 
  238000    1.2123411   -7.1145973    96.116603  0.033654273  0.035589835            1 
  239000    1.2325427   -7.1030772    96.670913  0.033706734  0.035578929            1 
  240000     1.217919   -7.0890537    96.997867  0.033679815  0.035568016            2 
  241000    1.2155274   -7.1210302    97.141925  0.033589877  0.035556925            2 
  242000    1.2075994   -7.1072595     97.44861  0.033556684  0.035545313            1 
  243000    1.2200236   -7.0793545    98.323408   0.03371859  0.035536052            1 
  244000    1.2058953   -7.0797844    98.724587  0.033717414   0.03552477            2 
  245000     1.229489   -7.1668093    98.721391  0.033578704  0.035515334            1 
  246000    1.2244783   -7.0942118     99.22362  0.033612337  0.035505283            1 
  247000    1.2072325   -7.1027998    99.610118  0.033606652  0.035494463            1 
  248000    1.1983632   -7.1462374    99.370638  0.033390671  0.035482363            4 
  249000    1.2178751    -7.123604    100.46226  0.033621907  0.035471774            2 
  250000    1.2168126   -7.1063368    100.74277  0.033580922  0.035462242            2 
  251000    1.2394034   -7.1245499    101.04613  0.033547852  0.035450174            3 
  252000    1.2200767   -7.0862228    102.13179  0.033773741  0.035440653            1 
  253000    1.1976588   -7.0852948    102.06547  0.033618402  0.035429806            1 
  254000    1.2119751   -7.0917464    102.51746  0.033634337  0.035418814            2 
  255000    1.1878997   -7.1236966    103.15202  0.033709811  0.035409412            3 
  256000    1.2115136   -7.1082214    103.41327  0.033663175  0.035399553            2 
  257000    1.1960791   -7.1080048    103.99374  0.033720408  0.035389957            6 
  258000    1.2076129   -7.1125125    104.27432  0.033680337  0.035380409            1 
  259000    1.2035951   -7.1435941    104.46723  0.033612365  0.035370309            1 
  260000    1.1868374   -7.1034568    104.75928  0.033576691   0.03536078            1 
  261000    1.1918461   -7.1237567     105.1366  0.033568517  0.035350675            2 
  262000    1.1895165   -7.1164765    105.88065   0.03367705  0.035339295            2 
  263000    1.2037917   -7.1258965    106.06223  0.033606537  0.035329531            1 
  264000    1.2023383   -7.1393707    106.68764  0.033676655  0.035319279            4 
  265000    1.2077789   -7.1656193    106.71186  0.033557188  0.035309584       -1e+20 
  266000    1.2194795   -7.1254943    107.17543  0.033576263  0.035299749            2 
  267000    1.2017611   -7.1381514     107.2542  0.033475093  0.035290785            2 
  268000    1.2019004   -7.0800517    107.89957  0.033550861  0.035279965            1 
  269000      1.17038   -7.1075841    107.92189  0.033433052  0.035267813            5 
  270000    1.1930975   -7.1301387    108.59319  0.033516417  0.035256414            1 
  271000    1.2063441   -7.0649421    109.76263  0.033752345  0.035245882            2 
  272000    1.2150882   -7.1504989    108.91243   0.03336778  0.035235242            3 
  273000    1.2182664   -7.1280534    109.83468   0.03352707   0.03522408            1 
  274000    1.1969435   -7.0867534    110.66629  0.033657632  0.035215739            2 
  275000    1.2280001   -7.1203619    111.05739  0.033653755  0.035207413            3 
  276000    1.2232848   -7.0791328    111.91489  0.033790727  0.035202115            2 
  277000    1.2109535   -7.1356279    112.18971  0.033751418  0.035196094            2 
  278000    1.1889595   -7.1581063    111.93092  0.033552435  0.035189426            2 
  279000    1.2174117   -7.1563874     112.8478  0.033706033  0.035181614            1 
  280000    1.2100097   -7.1280062     113.2577  0.033707648  0.035174617            2 
  281000    1.2197093   -7.1206327      113.744   0.03373191   0.03516889            2 
  282000    1.2119561   -7.1240623    114.31939  0.033782326  0.035164353            1 
  283000    1.2384026   -7.1026206    114.72148  0.033781355  0.035159841            1 
  284000    1.1801277   -7.1363661    115.29006  0.033829243  0.035155367            4 
  285000    1.2260406   -7.0804022    115.68089  0.033824822  0.035151382            2 
  286000    1.2083399   -7.1512622     116.1856  0.033853614  0.035147323            1 
  287000     1.191014   -7.1365924    116.45644  0.033814299  0.035142818            2 
  288000    1.1761535   -7.1523878      116.906  0.033826968  0.035139484            1 
  289000    1.1954208    -7.171641    116.73198   0.03365974  0.035134582            1 
  290000    1.1990064   -7.1442106     118.0532  0.033923333  0.035130038       -1e+20 
  291000     1.230174    -7.141118     117.7412  0.033717411  0.035125486            2 
  292000    1.2485784   -7.1284455    117.95896  0.033664085  0.035118884            1 
  293000    1.2096544   -7.1011879    118.87391  0.033809417  0.035113045            2 
  294000    1.1984021   -7.1421486    119.23543  0.033796889  0.035107789            2 
  295000    1.1756631   -7.2003744    119.00804   0.03361809  0.035101786            2 
  296000    1.1630994   -7.1548972    119.48025  0.033637457  0.035096161            3 
  297000    1.2126491   -7.1108091    120.31832  0.033759349  0.035089939            2 
  298000    1.2114271   -7.1008578    120.76667  0.033771439  0.035084471            2 
  299000    1.2196617   -7.1446141    120.81163  0.033671022  0.035079314            1 
  300000    1.2330934    -7.161357    121.02855  0.033619041  0.035072794            2 
  301000    1.2223984   -7.1498487    121.93378  0.033757968   0.03506558            2 
  302000    1.2140646   -7.1409307    121.83846  0.033619885  0.035059102            1 
  303000     1.181045   -7.0844476    122.73637  0.033755878  0.035052189            2 
  304000    1.2233976   -7.0942896    122.86823  0.033680984  0.035047015            3 
  305000    1.2002082   -7.1329431    123.44787  0.033728925   0.03504136            1 
  306000    1.2271526   -7.1748002    123.65053  0.033673893  0.035034136            1 
  307000    1.2106342   -7.0902987    124.08915  0.033683266  0.035027442            2 
  308000    1.2036846   -7.0978531    124.19333  0.033602091  0.035019638            1 
  309000    1.2136455   -7.1095849     124.5644   0.03359342   0.03501183            2 
  310000     1.204974   -7.1232644    124.75492  0.033536268  0.035003173            1 
  311000    1.1960103    -7.125971    125.59785  0.033654301  0.034994993            5 
  312000    1.1896957   -7.0937414    126.21054  0.033710081  0.034988309            1 
  313000    1.2056369   -7.1232025    126.38191  0.033648006  0.034982248            2 
  314000    1.2103672   -7.1733843    126.48399  0.033567939  0.034975566            3 
  315000    1.2313891   -7.0810192    127.49853   0.03372977  0.034968768            2 
  316000     1.198822   -7.1133644    127.56662  0.033640987  0.034962692            1 
  317000    1.1789361   -7.1619967    127.72533  0.033576586  0.034955561            1 
  318000    1.2320101   -7.1264375    128.61215  0.033703394  0.034947611            2 
  319000    1.2159936   -7.1222176    128.65228  0.033608224  0.034940206            1 
  320000    1.1981487   -7.1216149    128.76336  0.033532126  0.034932377            2 
  321000    1.1817038   -7.1285102    129.60542  0.033646266  0.034924722            2 
  322000    1.2111004   -7.1338064    129.71649  0.033570521  0.034918042            1 
  323000    1.1888245   -7.1292582    130.15337  0.033579301  0.034909865            2 
  324000    1.2156351    -7.163368     129.8671  0.033402032  0.034900961            2 
  325000    1.2011513   -7.1470314      131.236  0.033650256  0.034892629            1 
  326000    1.1947191   -7.1589101    131.57175  0.033632861  0.034886361            1 
  327000    1.2261502    -7.099479    132.05235  0.033652485   0.03487968            1 
  328000    1.2095493   -7.1596635    132.17521    0.0335811  0.034873297            2 
  329000    1.1962781   -7.0965929     132.9103  0.033665224  0.034865043            1 
  330000    1.1855927   -7.1385179    132.90104  0.033560868   0.03485873            1 
  331000    1.1945951    -7.141518    133.31336  0.033563283  0.034851542            1 
  332000    1.2184793   -7.1290938     134.0626  0.033650251  0.034844761            4 
  333000    1.2167428   -7.1150974    134.59067  0.033681349  0.034839162            2 
  334000      1.18501   -7.1393938      134.505   0.03355913  0.034833643            1 
  335000    1.2004369    -7.119799    134.81482  0.033536024  0.034826749            1 
  336000    1.1989119   -7.1634614    135.20482   0.03353294  0.034819857            1 
  337000     1.199995   -7.1454385    135.58889  0.033528409   0.03481188            2 
  338000    1.2043905   -7.1687851    135.48643  0.033403951  0.034803948            2 
  339000    1.2002565   -7.1045833    136.78006  0.033623417  0.034796121            1 
  340000    1.1926706   -7.1520386    137.10777  0.033604846  0.034789174       -1e+20 
  341000     1.203385   -7.1209249    137.80746  0.033677289  0.034783434            2 
  342000     1.193441   -7.1508373    137.85926  0.033591438  0.034778219            1 
  343000    1.1859166   -7.1052751    139.06332  0.033786035  0.034773742            2 
  344000     1.176423   -7.1154563     139.5898  0.033815358  0.034769046            1 
  345000    1.2176209   -7.1592254    139.52984   0.03370286  0.034764637            1 
  346000     1.226705   -7.1032098    139.92105  0.033699674  0.034759075            2 
  347000    1.1795564   -7.1157023     140.2167   0.03367356  0.034753192            1 
  348000    1.1962288   -7.1422249    140.90543  0.033741722  0.034749506            2 
  349000    1.1667645   -7.1538793    140.84711  0.033631115  0.034744707            3 
  350000    1.1918658   -7.1275123    141.37214  0.033660033   0.03473825            1 
  351000    1.2187281   -7.1503355    141.20077  0.033523449   0.03473054            1 
  352000    1.2024133   -7.1368519    141.57318  0.033516378  0.034722507            3 
  353000    1.2180214   -7.1101479    141.77427  0.033468903  0.034714255            2 
  354000    1.1832021   -7.1305146    142.58209  0.033564522  0.034705846            2 
  355000    1.1945976   -7.1635903    142.48991  0.033448336  0.034697465            2 
  356000    1.2053502   -7.1135819    142.32423  0.033315596   0.03468795            1 
  357000    1.1736811    -7.124762    143.07303  0.033397065  0.034678923            2 
  358000    1.2186361   -7.1010999    143.68741  0.033446789  0.034669256            2 
  359000    1.1895942   -7.1426694    143.91161  0.033405666    0.0346595            1 
  360000    1.1903678   -7.1703186    143.78605  0.033283807  0.034650003            1 
  361000    1.2005724   -7.1483732    144.51864   0.03336072  0.034640741            2 
  362000    1.2234131   -7.1304244    144.53119  0.033271452  0.034631003            2 
  363000     1.202725   -7.1647382    144.86758   0.03325702  0.034620002            2 
  364000    1.1816096   -7.1624824    145.60257  0.033333922  0.034609387            1 
  365000    1.2133891   -7.1316798    146.37701  0.033419409  0.034599014            3 
  366000    1.1821229   -7.1490037    145.96708  0.033234763  0.034588033            1 
  367000    1.1955387   -7.1560007    146.36538  0.033234646  0.034577128            2 
  368000    1.1799751   -7.1854061    146.51325  0.033177819  0.034566119            3 
  369000    1.1885136   -7.1738772    147.11827  0.033224542  0.034555904            3 
  370000    1.1877657   -7.1430111    148.20346  0.033379158  0.034546402            2 
  371000    1.2180553   -7.1606843    147.68521  0.033172779  0.034537302            1 
  372000    1.2176581   -7.1325023    148.58747  0.033285724  0.034527532            2 
  373000    1.2046576   -7.1177665    149.40201  0.033378466  0.034517648            1 
  374000    1.1836681   -7.1593377    148.86031  0.033168517  0.034507187            2 
  375000    1.1836461    -7.161199     149.4587  0.033213044  0.034495531            1 
  376000    1.2273948    -7.176639    149.27773  0.033084602  0.034483608            1 
  377000    1.1887711    -7.180152    149.66611  0.033082695  0.034471158            3 
  378000    1.1724394   -7.1197985    150.43801  0.033165347  0.034459121            3 
  379000    1.1732402   -7.1484177     150.6446  0.033123264  0.034447581            3 
  380000     1.195856   -7.1490924    151.28149  0.033175765  0.034437006            1 
  381000    1.1909923   -7.1285301    152.20728   0.03329118  0.034427938            2 
  382000    1.1883284   -7.1206617    153.04971  0.033387807  0.034418688            1 
  383000    1.2130328   -7.1597578    153.38534   0.03337366  0.034410737            2 
  384000    1.2013289   -7.1542338    153.20583  0.033247793  0.034402005            1 
  385000    1.1657269   -7.1498069    153.08503  0.033135287  0.034392383            2 
  386000    1.1843027   -7.1923609    153.37399  0.033111829  0.034382628            1 
  387000     1.182067   -7.1831803    153.85936  0.033130784  0.034372731            2 
  388000    1.1862634   -7.1844538    154.59239  0.033202834  0.034363179            1 
  389000    1.1740932   -7.1798968    155.43661  0.033298331  0.034354771            1 
  390000    1.1957291   -7.1952248    155.19406  0.033161124   0.03434623            1 
  391000    1.1763333   -7.1697669    156.10659  0.033270799  0.034337781       -1e+20 
  392000    1.1744446   -7.1753023    156.19092  0.033203852  0.034329225            1 
  393000    1.1924675   -7.1889372    156.18602  0.033118325  0.034320579            2 
  394000    1.1854419   -7.1640696    156.68833  0.033140509  0.034311661            1 
  395000    1.2152555    -7.099984    157.12283  0.033148276    0.0343022            1 
  396000    1.1928064   -7.1237834    158.18671  0.033288448  0.034293663            1 
  397000    1.1760864   -7.1848271    157.89251  0.033142843  0.034284653            2 
  398000    1.1827177   -7.1606052      157.767  0.033033292  0.034275002            2 
  399000    1.1995797   -7.1680088    158.35038  0.033072344  0.034264581            1 
  400000    1.2009622   -7.1611902    158.72189   0.03306706  0.034255144            2 
  401000    1.1869704    -7.162398    159.84796  0.033218611  0.034245425            1 
  402000     1.207556    -7.112208    159.22015  0.033005836  0.034236471            1 
  403000    1.1954429   -7.1517127    160.14511  0.033115201  0.034227674            1 
  404000    1.1849661   -7.1789902    160.54603  0.033115931  0.034217605            3 
  405000    1.1792047   -7.1792825    160.95138  0.033117567  0.034208272            4 
  406000    1.1991648   -7.1758036    161.55563  0.033160022  0.034199069            1 
  407000    1.1808607    -7.138651    162.27344  0.033225519  0.034191194            1 
  408000    1.1864039   -7.1706897    161.72655  0.033032384  0.034182782            2 
  409000     1.171382   -7.1916705    162.42496  0.033093919  0.034174512            1 
  410000    1.1839475   -7.1540291    162.45794  0.033019907    0.0341659            3 
  411000    1.1992768   -7.1896399    163.02732  0.033055011  0.034156527            1 
  412000    1.1939069   -7.1537183    163.68677  0.033108165  0.034148063            1 
  413000    1.1809473   -7.2139647    163.85138  0.033061216  0.034139053            2 
  414000    1.2069105   -7.1789471    164.66776  0.033145684  0.034131145            1 
  415000    1.1817678   -7.1841636    165.41625  0.033216114  0.034123099            1 
  416000    1.1834846   -7.1707335    166.03165  0.033259545  0.034115966            1 
  417000    1.1993536   -7.1985334    165.86563  0.033146608  0.034109743            2 
  418000    1.1770104   -7.2006569    166.24296  0.033142536  0.034103287            1 
  419000    1.1707777   -7.1708971    166.73476  0.033161248  0.034095776            2 
  420000     1.194092   -7.1941954    167.24377  0.033183287  0.034088172            3 
  421000    1.1942065   -7.1436077    167.83525  0.033221547  0.034080966            1 
  422000    1.1765199    -7.151119    168.38604  0.033251587  0.034074344            1 
  423000    1.1739161    -7.189464    167.63401  0.033024824  0.034067389            2 
  424000    1.1849508   -7.2245479    167.86613  0.032992557  0.034059158            2 
  425000    1.1971149   -7.1998354    168.45827  0.033031033  0.034050971            1 
  426000     1.197728   -7.1552509     169.4155  0.033140747  0.034042676            1 
  427000    1.1618344   -7.1692478    169.67019   0.03311284  0.034035238            2 
  428000    1.2113717   -7.1632458    170.26658  0.033151592  0.034027808            2 
  429000    1.1657941   -7.2195801    170.69544  0.033157623  0.034021215            1 
  430000    1.1711201   -7.1560956    171.48428  0.033233388  0.034014832            2 
  431000    1.2062806    -7.184662     171.7409  0.033205898  0.034009966            3 
  432000     1.180524   -7.1708315    171.89356  0.033158481  0.034004709            1 
  433000    1.2022921   -7.1213194    172.67047  0.033231422  0.033998935            2 
  434000    1.1514984   -7.1587085    172.27602  0.033079113   0.03399256            1 
  435000    1.1504784   -7.2075239    172.50966  0.033047828  0.033985566       -1e+20 
  436000    1.1798936   -7.1547043    173.22587   0.03310892  0.033978002            1 
  437000    1.2102606   -7.1579093    173.04206  0.032998105  0.033970961            5 
  438000    1.1994093   -7.1513339    173.60722  0.033030293  0.033962881            1 
  439000    1.1985964   -7.2008112    173.89182  0.033009076  0.033954579            1 
  440000    1.1880059   -7.2061008    173.44892  0.032850175  0.033945738            1 
  441000    1.1738335   -7.1531836     174.8486  0.033040173   0.03393658            3 
  442000    1.2002022   -7.2370954    174.28697  0.032859535  0.033927615            1 
  443000    1.1681387   -7.2132988    175.52082  0.033017461   0.03391924            1 
  444000    1.1755507   -7.2057729     174.8892  0.032824549  0.033911415            1 
  445000    1.1724475   -7.1792205    176.44692  0.033042495  0.033903478            1 
  446000    1.1872316   -7.1804935     175.8906  0.032864461  0.033895568            2 
  447000    1.1944059   -7.1610956    176.96725  0.032991657  0.033886918            1 
  448000    1.1754965   -7.1660915    176.76225  0.032879883  0.033878698            1 
  449000    1.1840517   -7.1665382    177.68992  0.032978828  0.033870013            1 
  450000    1.1810906   -7.1466557    178.03847  0.032970087  0.033861372            2 
  451000    1.1708317   -7.1683274    177.49683  0.032796901  0.033853096            1 
  452000    1.1556409   -7.1851191     178.4935  0.032908093  0.033843836            1 
  453000    1.1792027   -7.1471642    178.89418  0.032909157  0.033834398            2 
  454000    1.2080541   -7.1821449     179.0175  0.032859306   0.03382479            2 
  455000    1.2043617   -7.1951756    178.62597   0.03271538  0.033815184            2 
  456000    1.1842415   -7.2038112    179.61439  0.032824267   0.03380509            2 
  457000    1.1739852   -7.2320518      178.941  0.032629649  0.033795059            1 
  458000    1.1890386   -7.1498262    180.21533   0.03279027  0.033784753            2 
  459000    1.1689066   -7.2118411    180.62955  0.032794036  0.033775798            1 
  460000    1.1391149   -7.1715419     180.8866  0.032769311  0.033766341            1 
  461000    1.1822655   -7.2196063    180.65711  0.032656745   0.03375678            1 
  462000    1.1968406   -7.1929575    180.81496   0.03261453  0.033747119       -1e+20 
  463000    1.1546217     -7.20605    181.45688  0.032659626  0.033737145            1 
  464000    1.1655072   -7.1686387    181.47342  0.032592209  0.033726418            1 
  465000     1.202785   -7.1877093    182.22202  0.032656277  0.033716161            1 
  466000    1.2046627   -7.2178188     182.5861  0.032651306  0.033706093            1 
  467000    1.1734291   -7.2222405    182.92498   0.03264186  0.033696069            3 
  468000    1.1633801   -7.1761236    184.00936  0.032765199  0.033686631            1 
  469000    1.1912199   -7.1393993    184.26965  0.032741587  0.033676802            1 
  470000    1.1841922   -7.2147081     184.0008  0.032624255  0.033666705            1 
  471000    1.1481408   -7.2054624     184.0465  0.032563076  0.033656922            2 
  472000    1.1851503   -7.1685477    184.34376  0.032546568  0.033646709            1 
  473000    1.1662099   -7.1861873    184.96412  0.032587055  0.033635821            2 
  474000    1.1612049    -7.213265    185.32451  0.032581664    0.0336254            5 
  475000    1.1598075   -7.2052696    185.14802  0.032482109  0.033614749            2 
  476000    1.1601807   -7.1624887    186.47629  0.032646409  0.033604307            1 
  477000    1.2052867   -7.1856138    186.32303  0.032551194   0.03359403            2 
  478000    1.1794335   -7.2175726    186.72674  0.032553476   0.03358347            1 
  479000    1.1448035   -7.1799471    187.60747  0.032638739  0.033573369            1 
  480000    1.1845878     -7.20062    187.66973  0.032581551  0.033563422            1 
  481000    1.1596062   -7.1809092    187.73711  0.032525487  0.033553644            1 
  482000    1.1486385   -7.2083503    187.80579  0.032469881  0.033543323            1 
  483000    1.1856578   -7.1735797    188.66799  0.032551412  0.033533481            3 
  484000    1.1467976   -7.1874027    189.12044  0.032562059  0.033523959            1 
  485000    1.1519666   -7.1828035    189.75462  0.032603887  0.033515006            3 
  486000    1.1891921   -7.1427715    190.54638  0.032672561   0.03350607            1 
  487000    1.1758023    -7.222077    190.37774  0.032576615  0.033497204            2 
  488000    1.2089123    -7.237137    190.76142  0.032575379  0.033488029            3 
  489000    1.1572934   -7.1525033     191.5974  0.032651227  0.033478687            2 
  490000    1.1638141   -7.1891235     191.6824  0.032599048   0.03347006            4 
  491000    1.1524164   -7.2203879     192.0216  0.032590223  0.033461322            1 
  492000    1.1691057   -7.1858417    192.98176  0.032686613  0.033452924            3 
  493000    1.1939647   -7.2304396    192.90648  0.032607586  0.033444934            2 
  494000    1.1964256   -7.1616603    193.63521  0.032664509  0.033437108            1 
  495000    1.1911035   -7.2152466    194.19498  0.032692758  0.033429412            3 
  496000    1.1683297    -7.193455    194.60303  0.032695402  0.033421426            1 
  497000     1.171504   -7.1892058    194.53261  0.032617808  0.033413703            2 
  498000    1.1680105   -7.1680448    195.23722  0.032670217  0.033405948            1 
  499000    1.1753656   -7.2089667    195.11178  0.032583797  0.033398426            1 
  500000    1.1530225   -7.1615598    195.85753  0.032642922  0.033390163            2 
  501000     1.163711   -7.2284762    195.81502  0.032570695  0.033382642            4 
  502000    1.1841315   -7.1784152     196.7309  0.032657852  0.033375344            1 
  503000    1.1754207   -7.1409397    197.25718  0.032680116  0.033367717            2 
  504000    1.1760795   -7.2147828    196.94308  0.032563339  0.033359616            2 
  505000    1.1685237    -7.181943    198.04498  0.032680689  0.033351534            4 
  506000    1.1675733    -7.216939    198.34583  0.032665651  0.033344163            1 
  507000    1.1843224     -7.24561    198.07978  0.032557491  0.033336682       -1e+20 
  508000    1.1975443   -7.2377287    198.50601  0.032563323  0.033328323            2 
  509000     1.187729   -7.2073255    198.45664  0.032491263  0.033320034            1 
  510000    1.1888026   -7.2277348    199.18934  0.032547278  0.033312001            2 
  511000     1.168343   -7.2351542    199.33436  0.032507234  0.033303935            2 
  512000    1.1720669   -7.2009521    200.69024  0.032664427  0.033296673            4 
  513000    1.1714245   -7.2135917     200.7201  0.032605605  0.033289384            3 
  514000    1.1743937   -7.1835034    200.41719  0.032493059  0.033281941            2 
  515000    1.1934933   -7.1966191    201.10944  0.032541981    0.0332744            2 
  516000    1.1568342   -7.1839712    200.83047  0.032433861  0.033266264            3 
  517000     1.149666   -7.2187323    201.80599  0.032528368  0.033258266            2 
  518000    1.1747898    -7.174375     201.5232  0.032420078  0.033249462            1 
  519000    1.1542373   -7.2225708    201.40016  0.032337854  0.033241075            1 
  520000    1.1429711   -7.1688237    203.12494  0.032552073  0.033232883            1 
  521000     1.141519   -7.2348054    202.39304  0.032372527  0.033223685            1 
  522000    1.1674964   -7.1922135    202.91825  0.032394356  0.033214606            2 
  523000    1.1745916   -7.2275543    202.96696  0.032340178  0.033205853            1 
  524000    1.1718859   -7.1943012      203.407  0.032348442  0.033197115            2 
  525000    1.1832068   -7.1947305    204.10809  0.032398109  0.033188031            1 
  526000    1.1795614   -7.2129892    204.23813  0.032357118  0.033178991            1 
  527000    1.1655883   -7.1966627    205.00821   0.03241749  0.033170227            3 
  528000    1.1762496    -7.225505    205.46609  0.032428361  0.033162392            2 
  529000    1.1750681   -7.2192762    206.21711  0.032485368  0.033154246            1 
  530000    1.1624868   -7.1871711    206.16867  0.032416458  0.033146346            6 
  531000    1.1639622   -7.1801705    205.95885  0.032322481  0.033138588            2 
  532000    1.1745141   -7.2499532    206.61722  0.032364853  0.033130065            1 
  533000    1.1604113   -7.2020506    206.94601  0.032355536  0.033121608            1 
  534000    1.1706713   -7.2363928    206.68916  0.032254862   0.03311288            2 
  535000    1.1416173   -7.2143126     207.5901  0.032334906  0.033103895            1 
  536000     1.155078   -7.2320168    207.19853  0.032213703  0.033094662            1 
  537000    1.1700628   -7.2455302    207.70268  0.032231948   0.03308593            1 
  538000    1.1713993   -7.1942868     208.4528  0.032288228  0.033076893            2 
  539000    1.1771073   -7.2127024    208.69114  0.032265173  0.033067724            1 
  540000    1.1985248   -7.2369732    208.85506  0.032230719  0.033058886            2 
  541000    1.1517518   -7.1962185    209.49947  0.032270405  0.033050748            1 
  542000    1.1547914   -7.2494648    210.39471   0.03234851  0.033042724            1 
  543000    1.1785914   -7.2014012    211.31998  0.032430936  0.033035259            2 
  544000    1.1830521    -7.207232    211.28995   0.03236672   0.03302837            2 
  545000    1.1543162   -7.2238662    212.09361  0.032430215  0.033021346            1 
  546000    1.1443812   -7.2283189    212.06604  0.032366612  0.033014473            1 
  547000     1.152286   -7.2328179    212.78971  0.032417688  0.033007278            1 
  548000    1.1696996   -7.2248874    212.67887  0.032341677  0.032999819            1 
  549000    1.1676113   -7.1888961     214.1329  0.032503476  0.032992564            1 
  550000     1.165638   -7.2361879    213.01889  0.032275589   0.03298534            2 
  551000    1.1461697   -7.2281176    214.16099  0.032389744  0.032978071            1 
  552000    1.1621078   -7.2372467    214.72625  0.032416402  0.032970796            1 
  553000    1.1528382   -7.2235625    214.34409  0.032300194  0.032963461            2 
  554000    1.1876303   -7.1774298     214.5953  0.032279678   0.03295644            2 
  555000    1.1624739   -7.2192861    215.34612  0.032334252  0.032949876            2 
  556000    1.1714502   -7.2115664    215.74319   0.03233561  0.032943156            3 
  557000    1.1627009   -7.2193047    215.73154  0.032275813  0.032936508            2 
  558000    1.1619818   -7.2187848    216.00099  0.032258213  0.032928946            1 
  559000    1.1848482   -7.2009931    216.92073  0.032337617  0.032921368            2 
  560000    1.1718112   -7.2447919    216.24528  0.032179357  0.032914067            4 
  561000    1.1596719   -7.2378371    217.04761  0.032241178  0.032906493            1 
  562000    1.1956742   -7.2375365    217.52196  0.032254147  0.032899068            1 
  563000    1.1708037   -7.2314864    217.89491  0.032252059  0.032891832            1 
  564000    1.1586554    -7.233076    217.91447  0.032197764  0.032884614            3 
  565000    1.1878361   -7.2659582    218.45953  0.032221169  0.032876859            1 
  566000     1.145014   -7.1932878    218.98805  0.032242056  0.032869366            2 
  567000     1.172293   -7.2486946    218.70602  0.032143742   0.03286191            3 
  568000    1.1619985   -7.2306517    219.48175  0.032200962  0.032854796            1 
  569000    1.1373449   -7.2213373    219.71116  0.032177967  0.032848057            3 
  570000    1.1602154   -7.2193593    220.28555  0.032205489  0.032840644            1 
  571000    1.1718384   -7.2366272    221.04592  0.032260059  0.032833975            2 
  572000    1.1692941   -7.1993041     220.7957  0.032167205   0.03282717            1 
  573000     1.169506   -7.1946651    222.42596  0.032348162  0.032820614            2 
  574000    1.1329466   -7.2363087    221.83734  0.032206351  0.032813451            5 
  575000    1.1658174   -7.2062239      222.571  0.032256666  0.032806138            2 
  576000    1.1808568   -7.2281138    222.21064   0.03214853  0.032798635            1 
  577000    1.1546661   -7.2539922    222.27981  0.032102804  0.032790886            2 
  578000    1.1457561   -7.1677599    223.13394  0.032170406  0.032783339            1 
  579000    1.1417072   -7.2062574     223.2821  0.032136169  0.032775642            1 
  580000    1.1389746    -7.254811     223.1039  0.032055159  0.032768045            1 
  581000    1.1760326   -7.2169882    224.21898  0.032159923  0.032760543            1 
  582000    1.1853254   -7.2352864    223.64547  0.032022547  0.032752752            1 
  583000     1.162871   -7.2064554    225.54808  0.032239576  0.032745045            2 
  584000    1.1412121   -7.2329164    225.08599  0.032118435  0.032737264            2 
  585000     1.157916   -7.2108113    225.72751  0.032154916  0.032729799            1 
  586000    1.1679493   -7.2081508    225.89242  0.032123496  0.032721982            2 
  587000    1.1582501    -7.219213    225.59321  0.032026294  0.032714445            1 
  588000    1.1499633   -7.2550977    226.00168  0.032029717  0.032706191            3 
  589000    1.1434518   -7.1988554    225.80173  0.031947047  0.032698719            1 
  590000    1.1464122   -7.2492942     227.2239  0.032093771  0.032691176            1 
  591000    1.1538406   -7.2046126    227.81156   0.03212233  0.032683732            3 
  592000     1.151568   -7.2263316    227.95681  0.032088515  0.032675606            1 
  593000    1.1552577   -7.2378731    227.65598  0.031992127  0.032667657            1 
  594000    1.1260684   -7.2473402    228.28052  0.032025887  0.032659608            2 
  595000    1.1906955   -7.2421774    227.78554  0.031902737  0.032651453            1 
  596000    1.1529737   -7.2461099    228.61444  0.031965106  0.032643066            1 
  597000     1.161355   -7.2045357    229.35229  0.032014558  0.032634549            1 
  598000    1.1644798   -7.2583604    229.45106  0.031974785  0.032626451            1 
  599000    1.1619137   -7.2620717    228.73859  0.031822286  0.032617733            1 
  600000    1.1717077    -7.202031     229.8973  0.031930181  0.032609298            1 
  601000    1.1569015   -7.2506317      229.639  0.031841237  0.032600847            2 
  602000    1.1677652   -7.2730953     230.5073  0.031908541  0.032592172            2 
  603000    1.1669313   -7.2251645    230.85088  0.031903107  0.032583369            3 
  604000    1.1347285   -7.2429146    230.48243  0.031799453  0.032574636            1 
  605000    1.1361088   -7.1892496    232.25489  0.031991031  0.032565717            1 
  606000    1.1959487   -7.2140508    231.61107  0.031849707  0.032556965            2 
  607000    1.1876487   -7.2190744    231.64836  0.031802356  0.032548114            2 
  608000    1.1493081   -7.2428547    231.51793  0.031732173  0.032539058            3 
  609000    1.1340634   -7.2391847     232.2042  0.031773974  0.032530248            1 
  610000    1.1901247   -7.2054363    232.59363  0.031775086  0.032521186            3 
  611000    1.1372205   -7.2566479    232.52064  0.031713125  0.032512059            2 
  612000    1.1456555   -7.2197309    233.13367   0.03174478  0.032502483            1 
  613000    1.1631729   -7.2680241     233.5668  0.031751876  0.032493032            3 
  614000    1.1579096   -7.2610387    233.61982  0.031707359  0.032483617            2 
  615000     1.178803   -7.2879162    233.45072  0.031632889  0.032473819            2 
  616000    1.1544948   -7.2333613    234.13262  0.031673785  0.032464398            1 
  617000    1.1466282   -7.2360021    234.45539  0.031666044  0.032454742            2 
  618000    1.1497444   -7.2686659    234.74433  0.031653766  0.032445339            1 
  619000    1.1445628   -7.2446014    235.33365  0.031681967  0.032435688            1 
  620000    1.1769214   -7.2384458    235.35734  0.031634051  0.032426433            1 
  621000    1.1504033   -7.2466401     236.5968  0.031749437  0.032417467            4 
  622000    1.1275286   -7.2132694    237.01335    0.0317542  0.032408544            1 
  623000     1.148026   -7.2317853    236.46011  0.031629228  0.032399091            1 
  624000    1.1714139   -7.1823702    237.70549  0.031744857  0.032390424            1 
  625000    1.1624061    -7.257348    237.77485  0.031703314  0.032381807            1 
  626000    1.1579193   -7.2303107    238.60648  0.031763376  0.032373135            3 
  627000    1.1393945   -7.2357685    238.59516  0.031711211  0.032364734            1 
  628000    1.1504384   -7.2909251    238.48014  0.031645453  0.032356457            1 
  629000    1.1583555   -7.2620395     239.8418  0.031775544  0.032348328            2 
  630000    1.1831378   -7.2383974     239.0255  0.031617129  0.032339895            1 
  631000    1.1278067   -7.2456903      240.402  0.031748811  0.032331716            1 
  632000     1.166276   -7.2103535    241.45302   0.03183716  0.032323621            3 
  633000    1.1664414    -7.258022    240.73228  0.031691981  0.032315934            1 
  634000    1.1475669   -7.2849386    241.31688  0.031718833  0.032307987            1 
  635000    1.1219915   -7.2801016     241.1117  0.031641955  0.032299794            1 
  636000    1.1531595   -7.2435072     242.3267  0.031751402  0.032291922            1 
  637000    1.1608258   -7.2514846    242.47114  0.031720452  0.032284165            2 
  638000    1.1521994   -7.2571635    242.33614  0.031653101  0.032276175            2 
  639000     1.166884   -7.2435335    242.25899  0.031593504  0.032267965            3 
  640000    1.1406272   -7.2256365    242.50283  0.031575889  0.032259764            2 
  641000    1.1622687   -7.2421021    242.51213  0.031527837   0.03225141            1 
  642000     1.147108    -7.245026    243.34346  0.031586638  0.032242682            2 
  643000    1.1435262   -7.2459436    243.63268  0.031574997  0.032233756            2 
  644000       1.1646    -7.235602    243.78365  0.031545504  0.032225206            3 
  645000    1.1519014   -7.2336676    243.98307   0.03152236  0.032216261            1 
  646000    1.1588038   -7.2242891    244.49272  0.031539308  0.032207175            1 
  647000    1.1613049   -7.2641281     244.2061  0.031453645  0.032198011            1 
  648000    1.1551935   -7.2899197    244.74853  0.031474862  0.032188923            1 
  649000    1.1399654   -7.2321562     244.3807  0.031379134  0.032179532            2 
  650000    1.1468083   -7.2445872    245.23986  0.031441007  0.032170583            2 
  651000     1.145198    -7.198939    246.72142  0.031582364  0.032161656            3 
  652000    1.1481664   -7.2484153     245.7519  0.031410007  0.032152803            1 
  653000    1.1397485   -7.2366102    246.64392  0.031475742  0.032143742            1 
  654000    1.1617097   -7.3007726    246.08755  0.031356722  0.032134559            2 
  655000    1.1598692   -7.1991386    247.82612  0.031530041  0.032125544            1 
  656000    1.1348159   -7.2515536    247.81324   0.03148034  0.032117021            1 
  657000    1.1428245   -7.2149413    248.35163  0.031500715  0.032108398            2 
  658000    1.1288326   -7.2566481    248.81124  0.031511049  0.032099665            1 
  659000    1.1509908   -7.2254951     249.9342  0.031605235  0.032091134            3 
  660000    1.1438739   -7.2047764    249.98122  0.031563285  0.032083171            1 
  661000     1.129301   -7.2776913     249.7652    0.0314883  0.032074936            1 
  662000    1.1359804   -7.2538909    249.45895  0.031402184  0.032067016            2 
  663000     1.144097   -7.2692564    250.28572  0.031458737  0.032058594            1 
  664000    1.1746506   -7.2719613    250.69591   0.03146284  0.032051027            1 
  665000    1.1688523   -7.2468429    251.48817  0.031514808  0.032043462            3 
  666000    1.1090308   -7.2794853    251.95259  0.031525599  0.032035672            3 
  667000    1.1333927    -7.227354    252.48257  0.031544549  0.032027767            1 
  668000    1.1420416   -7.2300237    252.60237  0.031512272  0.032019796            2 
  669000    1.1355414   -7.2819214    252.15605  0.031409573  0.032011724       -1e+20 
  670000    1.1172693   -7.2647226     251.7287   0.03130954  0.032003654            1 
  671000    1.1573425   -7.2572725    252.80033  0.031395967  0.031995128            1 
  672000    1.1413943   -7.2234222    253.64153  0.031453563  0.031987151            2 
  673000    1.1427148   -7.2445606    253.34422  0.031370012   0.03197921            1 
  674000     1.149892   -7.2566241    254.30146  0.031441822  0.031971352            1 
  675000    1.1350117   -7.2770974    254.45006  0.031413588  0.031963514            1 
  676000    1.1548263   -7.2189272    256.06841  0.031566619  0.031956145            1 
  677000    1.1537891   -7.2421599    255.56653  0.031458214  0.031948604            1 
  678000     1.145639   -7.3073676    255.10118  0.031354619  0.031940739            2 
  679000    1.1576122   -7.3032689    255.68764  0.031380417  0.031932754            1 
  680000    1.1641018   -7.2650602    255.80923   0.03134917  0.031925113            2 
  681000    1.1485434   -7.2877666    256.31055  0.031364483  0.031917361            1 
  682000    1.1541962   -7.3057148    256.53465  0.031345876  0.031909607            2 
  683000     1.133803   -7.2353814    257.20919  0.031382283  0.031901939            1 
  684000    1.1261426   -7.2644364    257.66831  0.031392338  0.031894566            1 
  685000    1.1352195   -7.2995697    257.10689  0.031278211  0.031886653            1 
  686000    1.1595537   -7.2484315    257.87974  0.031326499  0.031878517            1 
  687000    1.1243716    -7.258052     258.3804   0.03134163  0.031870662            1 
  688000    1.1335561    -7.265164    259.15044  0.031389346  0.031862843            1 
  689000    1.1113927   -7.2659743    259.19756  0.031349487  0.031854917            1 
  690000    1.1470475   -7.2955248     259.1718  0.031300942  0.031846742            4 
  691000    1.1664757   -7.3247775    257.56901  0.031062351  0.031838251            1 
  692000     1.123863   -7.2754324     259.3756  0.031235019  0.031829871            1 
  693000    1.1604278   -7.2439181    260.14405  0.031282353  0.031821568            1 
  694000    1.1654649   -7.2489544    260.78824   0.03131463  0.031813553            2 
  695000    1.1348164   -7.2069083    261.35769  0.031337853  0.031805898            1 
  696000    1.1335627   -7.2904706    261.19748  0.031273644  0.031798125            1 
  697000    1.1322639   -7.2785644     261.5591  0.031272011  0.031790131            3 
  698000    1.1327099   -7.2655925    262.08893  0.031290464  0.031782224            1 
  699000    1.1441445   -7.2757032    261.72836  0.031202713  0.031774381            1 
  700000    1.1570431   -7.2565463    262.50308  0.031250366  0.031766789            2 
  701000    1.1509267    -7.261722    262.85745  0.031247914  0.031758885            1 
  702000    1.1389809   -7.2663166    263.38944  0.031266553  0.031750865            1 
  703000    1.1184412   -7.2898309    263.48202  0.031233052  0.031742269            1 
  704000    1.1449685   -7.2262635    263.35859  0.031174075  0.031733805            1 
  705000    1.1376486   -7.2736836    263.78691  0.031180486  0.031725301            1 
  706000    1.1307844   -7.2779086    264.02635  0.031164584  0.031716652            3 
  707000    1.1100688    -7.289736    263.06099  0.031006718  0.031707839            2 
  708000    1.1377351   -7.2585531    264.12121  0.031087713  0.031699067       -1e+20 
  709000    1.1325396   -7.2788079    264.53523  0.031092528  0.031690416            1 
  710000    1.1356966   -7.2959132    264.53134  0.031048279  0.031681894            2 
  711000    1.1379819   -7.2969545    265.50275  0.031118466  0.031673258            2 
  712000    1.1314158   -7.3137235    264.58846   0.03096775  0.031664174            1 
  713000    1.1264779   -7.2314031    265.57809  0.031039982  0.031655318            1 
  714000    1.1454871   -7.2797808     266.1283  0.031060726  0.031646739            2 
  715000     1.131305   -7.2456761    266.54372  0.031065701  0.031637904            2 
  716000    1.1646999   -7.2839721    267.05485  0.031081802  0.031629731            2 
  717000    1.1480644   -7.2340205    267.13869  0.031048197  0.031621501            4 
  718000    1.1550351   -7.2886564    267.48304  0.031044921  0.031613001            1 
  719000    1.1459415   -7.2804012    267.24242  0.030973855  0.031604241            1 
  720000    1.1521502   -7.2467859    267.74685  0.030989218   0.03159512            2 
  721000    1.1375801   -7.2499386    268.25763  0.031005274  0.031586338            2 
  722000    1.1244185   -7.2808103    268.22807  0.030958919  0.031577454            1 
  723000    1.1280946   -7.3033232    268.56567   0.03095501  0.031568752            1 
  724000     1.161872    -7.271274    269.16879  0.030981675  0.031560347            3 
  725000    1.1328695   -7.3013774    269.86184  0.031018602  0.031551854            2 
  726000    1.1448312   -7.3194501    269.90266  0.030980562  0.031543345            2 
  727000    1.1415627   -7.2429083    271.12442  0.031077994  0.031534897            4 
  728000    1.1524815   -7.3058674    269.97099  0.030903273  0.031526361            1 
  729000    1.1430315   -7.2622574    270.34981  0.030904185   0.03151741            1 
  730000    1.1355981   -7.2558322    271.23894  0.030963349   0.03150873            4 
  731000    1.1353672   -7.2570733    271.09511  0.030904596  0.031500437            2 
  732000    1.1443187   -7.2978702    272.09839  0.030976593  0.031492201            1 
  733000    1.1188688   -7.2580112    271.80586  0.030901076  0.031483636            2 
  734000    1.1404221   -7.2391104    273.04813  0.031000014  0.031475351            2 
  735000    1.1258231   -7.2598083    273.26204  0.030982091  0.031467311            2 
  736000     1.097831   -7.2731987    273.53485  0.030970885    0.0314591            1 
  737000    1.1293296   -7.2321939    273.82656  0.030961846   0.03145065            1 
  738000    1.1137151   -7.2778577    272.92303  0.030817867  0.031442174            2 
  739000    1.1364741   -7.2553499    273.18124  0.030805282  0.031432999            1 
  740000    1.1244167   -7.2792718    273.26135  0.030772675  0.031423722            1 
  741000     1.135582   -7.2984804    273.25661  0.030730612  0.031414563            1 
  742000    1.1117956    -7.274072    274.16088  0.030790755  0.031405683            2 
  743000    1.1166006   -7.2765095    274.78785  0.030819633   0.03139676            2 
  744000    1.1411412   -7.2727879    275.12129  0.030815556  0.031387721            1 
  745000    1.1377644   -7.2605971    276.33237  0.030909661  0.031378883            2 
  746000    1.1233593   -7.2833832    275.10434  0.030731048  0.031370302            1 
  747000    1.1217391   -7.2677508    275.91364  0.030780191  0.031361473            2 
  748000    1.1222318   -7.2848245    276.48319  0.030802494  0.031352843            2 
  749000    1.1323631    -7.293727    276.44318  0.030756918   0.03134426            2 
  750000    1.1145051   -7.2848854    276.88207  0.030764674  0.031335424            3 
  751000    1.1142631    -7.290686    277.49007  0.030791175  0.031326599            1 
  752000    1.1318366    -7.285037    276.95155  0.030690553  0.031317593            1 
  753000    1.1479841   -7.2999219    277.38972  0.030698287  0.031308425            2 
  754000    1.1454567   -7.2787573    276.90086  0.030603543  0.031298709            3 
  755000    1.1344317   -7.2766701    277.84514  0.030667234  0.031288819            2 
  756000    1.1463439   -7.2991714    276.77449  0.030508652  0.031278487            1 
  757000    1.1351141   -7.2755328    277.94994  0.030597747  0.031268236            3 
  758000    1.1280308   -7.2916047     276.1404  0.030358443  0.031257757            1 
  759000    1.1336261   -7.2623141    278.09109  0.030532619  0.031247619            2 
  760000    1.1121678   -7.2954818    279.06068  0.030598758  0.031237682            1 
  761000    1.1297672   -7.3149108     278.3967  0.030485841  0.031227804            1 
  762000    1.1269417   -7.2810734    279.95467  0.030616215  0.031218324            1 
  763000    1.1485225   -7.3396165    278.82305  0.030452495  0.031208655            1 
  764000    1.1450835   -7.2901341    279.45857  0.030481956  0.031198591            2 
  765000    1.1380285   -7.3056272    279.23138  0.030417362  0.031188646            1 
  766000    1.1454973   -7.2692869    280.53089  0.030519026  0.031178595            2 
  767000    1.1370521   -7.3206746     280.7748  0.030505737  0.031168869            2 
  768000    1.1400058   -7.3150571    281.12266  0.030503761  0.031158952            1 
  769000    1.1263526   -7.3500408    279.87394  0.030328775  0.031149046            2 
  770000    1.1460865   -7.3318015    280.75596  0.030384844  0.031139156            1 
  771000     1.112672   -7.3064921    281.61663   0.03043846  0.031129356            2 
  772000    1.1216736    -7.216479    284.03614  0.030660205  0.031119897            2 
  773000    1.1453636   -7.3285174    282.74908  0.030481789  0.031110246            1 
  774000    1.1026535   -7.2765958    282.69533   0.03043662  0.031101103            4 
  775000    1.1286277   -7.2999391    283.07278  0.030437934  0.031091808            3 
  776000    1.1222402   -7.2655698    284.12969  0.030512209  0.031082537            2 
  777000    1.1323984   -7.2908663    283.62328  0.030418627  0.031073161            1 
  778000    1.1389104   -7.2942646     284.4295  0.030465885  0.031063671            1 
  779000    1.1525147   -7.2924442    283.79172  0.030358549  0.031053911            1 
  780000    1.1140952   -7.3019341    284.64564  0.030410859  0.031044729            3 
  781000    1.1277826   -7.2804503    285.06962  0.030417159  0.031035306            2 
  782000    1.1226643    -7.295801    284.37595  0.030304343  0.031025837            4 
  783000    1.1341013   -7.3262169     285.1093  0.030343689  0.031015997            2 
  784000    1.1114271   -7.3255039    285.06334    0.0303001  0.031006424            2 
  785000     1.098642   -7.2907284    286.08881  0.030370362  0.030996769            1 
  786000    1.1286657   -7.3145385    287.23343  0.030453078  0.030987569            2 
  787000    1.1053511    -7.311462    286.10794  0.030295207  0.030978075            1 
  788000    1.1224059   -7.3277038    286.56878  0.030305497  0.030968394            1 
  789000    1.1227018   -7.3617906    286.76115  0.030287405   0.03095848            1 
  790000    1.1389609   -7.3429469    287.43312   0.03031995  0.030948838            2 
  791000    1.1494396   -7.3143153    288.12432  0.030354438  0.030939511            1 
  792000     1.135006   -7.3718535    288.27256  0.030331709  0.030930067            3 
  793000    1.1586084   -7.3172471    289.23272  0.030394359  0.030920785            2 
  794000    1.1412422   -7.3205724    289.71404  0.030406595     0.030912            2 
  795000    1.1393228   -7.3271379    290.60882   0.03046214  0.030903176            6 
  796000     1.136813   -7.2945407    290.09651  0.030370238  0.030894307            1 
  797000    1.1480046   -7.3113619    291.54115  0.030483181  0.030885888            1 
  798000    1.1283363   -7.3103499    291.61435  0.030452627  0.030877226            1 
  799000    1.1245206   -7.3371106    291.41315  0.030393529  0.030868914            6 
  800000    1.1074529   -7.2854418    292.48874  0.030467577  0.030860412            4 
  801000    1.0928296   -7.3226724    292.25324  0.030405039  0.030851927            1 
  802000    1.0955524   -7.2919895    292.14378  0.030355754  0.030843094            1 
  803000    1.1003043   -7.3594064    291.87408  0.030289963   0.03083446            2 
  804000    1.1098594   -7.2771459     292.5007  0.030317236  0.030825818            1 
  805000    1.1068434   -7.2613668    292.39283  0.030268409    0.0308173            1 
  806000    1.1319006   -7.3106689     293.5632  0.030351861  0.030808827            1 
  807000    1.1614618   -7.2902881    293.83477  0.030342294   0.03080054            2 
  808000    1.1414827   -7.3232847    293.37564  0.030257389  0.030792202            2 
  809000    1.1299789   -7.2847213    294.45383   0.03033105  0.030783389            1 
  810000     1.118745   -7.2732308    294.70594  0.030319541  0.030774964            2 
  811000    1.1446672   -7.3114043    294.99795   0.03031216  0.030766234            1 
  812000    1.1311323   -7.3199975    295.02219  0.030277319  0.030757599            3 
  813000    1.1437229   -7.2624012    295.61717  0.030301063  0.030749124            1 
  814000    1.1107385   -7.3261326    296.20762  0.030324285  0.030740901            2 
  815000    1.1090671   -7.2965749    295.98827  0.030264649  0.030732118            1 
  816000    1.1474408   -7.3109847    296.38373  0.030267946  0.030723751            1 
  817000    1.1206104   -7.2984615     296.8504  0.030278499  0.030715145            1 
  818000    1.1239742   -7.3359417    296.86312  0.030242779  0.030706622            1 
  819000    1.1370311    -7.313206    297.43608  0.030264151  0.030698343            5 
  820000    1.1146845   -7.3501646     297.0509  0.030188099  0.030689831            3 
  821000    1.0766617   -7.2913204    297.80891  0.030228269  0.030681407            2 
  822000    1.1308839   -7.3207649    298.18986  0.030230116  0.030673065            3 
  823000    1.1359359   -7.3099336    298.37558  0.030212189  0.030665045            2 
  824000    1.1188197   -7.3086951    299.46533  0.030285734  0.030656966            1 
  825000    1.1206558   -7.2805406    299.58946  0.030261562  0.030648822            1 
  826000    1.1387115   -7.3384126    299.13015  0.030178586   0.03064109            1 
  827000    1.1454243   -7.3205186     299.5664  0.030186054   0.03063297            2 
  828000    1.1238604   -7.3245063     301.0152  0.030295411  0.030624731            1 
  829000       1.1018   -7.3251087    300.51562  0.030208647  0.030616965            1 
  830000    1.1229473   -7.3009648    300.32004  0.030152615  0.030609183            2 
  831000     1.112883   -7.3232046    300.71127  0.030155563  0.030601375            1 
  832000      1.13076   -7.3204132    301.82098  0.030230467  0.030593562            3 
  833000    1.1088331   -7.3326236    301.73209  0.030185283  0.030585799            1 
  834000    1.1144253   -7.3222012    302.74521  0.030250321   0.03057839            2 
  835000    1.1492868   -7.3104419    302.74721  0.030214292  0.030570938            3 
  836000    1.1297103   -7.3644301    302.16413  0.030120029  0.030563344            1 
  837000    1.1303054   -7.3356956    303.46576  0.030213636   0.03055557            2 
  838000    1.1319772   -7.3283776    303.70205  0.030201079  0.030547826            2 
  839000    1.1024058   -7.3231175    302.96824  0.030092197  0.030539855            2 
  840000    1.1038076   -7.2706465    305.19727  0.030277507  0.030531838            1 
  841000    1.1216929   -7.3220137    304.43722  0.030166193  0.030524019            3 
  842000    1.1596893   -7.3483432     303.8197   0.03006925  0.030515869            1 
  843000    1.1171379   -7.3274802    305.58935  0.030208516  0.030507829            2 
  844000    1.1140106   -7.3015562    306.02997  0.030216229  0.030500118            2 
  845000    1.1294982   -7.3240681    305.03705  0.030082549  0.030492114            4 
  846000    1.1069517   -7.3292836    306.49213   0.03019032  0.030484018            1 
  847000    1.1305726     -7.32689    306.01008  0.030107249  0.030476259            3 
  848000    1.1201924   -7.2785732    306.59622  0.030129345   0.03046831            2 
  849000    1.1312972   -7.2668551    306.65817  0.030099938  0.030460192            1 
  850000    1.0963094   -7.3004251    306.91978  0.030090175  0.030452128            2 
  851000    1.1136886   -7.3507369    307.02011   0.03006464  0.030444256            2 
  852000    1.1193848   -7.3497403    306.83239  0.030010992  0.030436024            1 
  853000    1.1128544   -7.3379998    307.43245  0.030034432   0.03042772            1 
  854000    1.1058655   -7.3410202    308.00964  0.030055585   0.03041978            2 
  855000    1.0968143   -7.3139156    309.56093  0.030171631  0.030412154            1 
  856000    1.1024497   -7.3267684    308.49025  0.030032151  0.030404414            2 
  857000    1.1078962     -7.30081    308.73287  0.030020699  0.030396573            2 
  858000    1.1068172   -7.3341938    309.77784  0.030087203  0.030389009            1 
  859000    1.1319206   -7.3441235    309.54702  0.030029784  0.030380931            1 
  860000    1.1218474   -7.3203162    310.76643  0.030113026  0.030373318            1 
  861000     1.118115   -7.3225977    310.54343  0.030056469  0.030365616            1 
  862000    1.1134648   -7.2986344    311.49684  0.030113771   0.03035799            2 
  863000    1.1093719   -7.3501077    311.02589    0.0300334  0.030350581            3 
  864000    1.1005602   -7.3333051    310.73951  0.029971018  0.030342921            2 
  865000    1.1069979   -7.4030455    311.30518  0.029990865   0.03033519            1 
  866000    1.0933065   -7.3287092    310.72703  0.029900599  0.030327271            1 
  867000    1.1279891    -7.382675    311.81607  0.029970787  0.030319532            1 
  868000    1.1338767   -7.3497931    312.51099  0.030002975  0.030311614            1 
  869000    1.1146692   -7.3694029    312.49135  0.029966566  0.030303783            2 
  870000    1.1102261    -7.309711    312.92666  0.029973818  0.030296093            1 
  871000    1.1084785   -7.2960607    313.95551  0.030037841  0.030288512            2 
  872000    1.1102722   -7.3457284    312.70333  0.029883728  0.030280867            1 
  873000    1.1144865   -7.3847723    313.20382  0.029897272  0.030273306            2 
  874000    1.1071557   -7.3174753    314.72126  0.030007748  0.030265649            3 
  875000    1.1031904   -7.3868818    314.16216  0.029920206  0.030257996            3 
  876000    1.1041091   -7.3604156    314.25889  0.029895253  0.030250397            1 
  877000      1.12487   -7.3794762    314.44215  0.029878577  0.030242721            3 
  878000     1.114093   -7.2986427    316.05142  0.029997287  0.030235153            1 
  879000    1.0800915   -7.3931908    314.72516  0.029837425  0.030227454            2 
  880000    1.1018083   -7.3003044    316.49258  0.029970889  0.030219691            3 
  881000    1.1259008   -7.3525703    316.84298  0.029970013  0.030212458            1 
  882000    1.1321024   -7.3687907    316.68751  0.029921345  0.030205171            2 
  883000    1.0878465   -7.3199205    316.83689  0.029901557  0.030197906            2 
  884000    1.1121603   -7.3731518     316.1904  0.029806787  0.030190597            1 
  885000    1.1135415   -7.3463602    318.42942  0.029983938  0.030183377            1 
  886000    1.1086508   -7.3402441    317.26505   0.02984058  0.030176162            2 
  887000    1.1269559   -7.3899387    317.39461   0.02981911   0.03016896            2 
  888000    1.1151346   -7.3160986    318.94261    0.0299308  0.030161649            1 
  889000    1.0931968   -7.3442184    318.58015  0.029863156  0.030154405            1 
  890000    1.1003672   -7.3218812    319.61377  0.029926383  0.030147141            3 
  891000    1.0980693    -7.357607    319.04124  0.029839248  0.030139873            1 
  892000    1.1070492   -7.3745945    319.38954  0.029838336  0.030132498            1 
  893000    1.1003998   -7.3495035    319.77917  0.029841281   0.03012513            1 
  894000    1.1116873   -7.3365768    319.80575  0.029810379  0.030117892            2 
  895000    1.1068603   -7.3483856    320.57345  0.029848552  0.030110527            2 
  896000    1.1144432   -7.3491147    321.12606  0.029866635  0.030102947            2 
  897000    1.1150984   -7.3540932    320.14142  0.029741864  0.030095493            2 
  898000    1.0994351    -7.363651    320.83575  0.029773177  0.030087868            3 
  899000     1.110246    -7.341139    320.72638  0.029729921  0.030080268            1 
  900000    1.0976407   -7.3624102    321.49798  0.029768332  0.030072645            2 
  901000    1.1143006   -7.3404502    321.55624  0.029740681  0.030065147            2 
  902000    1.1063318   -7.3721996    321.41075  0.029694268  0.030057479            2 
  903000    1.1103327   -7.3253872    322.08804  0.029723887   0.03004949            1 
  904000    1.1119129   -7.3375285    321.90025  0.029673696  0.030041411            1 
  905000    1.0908758   -7.3456885    321.08599  0.029565929  0.030033244            2 
  906000    1.0997334   -7.3391968    322.02947  0.029620076  0.030024912            3 
  907000    1.1167893    -7.337781    322.21495  0.029604461  0.030016682            1 
  908000     1.109722   -7.3664914    322.15037   0.02956593   0.03000817            3 
  909000    1.1092448   -7.3569634    322.40719  0.029556948  0.029999885            1 
  910000    1.0989787   -7.3584714    323.34373  0.029610232  0.029991787            2 
  911000    1.0880836   -7.3252969    323.47289  0.029589544   0.02998336            2 
  912000    1.1079177   -7.3408489    323.94413  0.029600158  0.029974967            3 
  913000     1.082328   -7.3302609    323.01619   0.02948304  0.029966244            2 
  914000    1.0920241   -7.3448625    323.84746  0.029526574  0.029957713            1 
  915000     1.095375   -7.3427875    323.73294  0.029483874  0.029949263            3 
  916000    1.0870661   -7.3349924    324.75434  0.029544609  0.029940511            3 
  917000    1.0842703   -7.3292859    324.84789  0.029520892  0.029931766            1 
  918000    1.1103461   -7.3522508    324.59116  0.029465429  0.029923039            1 
  919000    1.1172042   -7.3709198    324.68183  0.029441588  0.029914395            1 
  920000    1.1099461   -7.3758052     325.6198  0.029494547    0.0299058            2 
  921000    1.1084748   -7.3749703     326.0282  0.029499476  0.029897166            2 
  922000    1.1317268   -7.3798925    325.36039  0.029407122  0.029888654            1 
  923000    1.1060034   -7.3674921    325.87599  0.029421812  0.029880178            1 
  924000     1.109689   -7.3151902    326.71391   0.02946554  0.029871908            2 
  925000    1.1122407   -7.3424967    327.37547  0.029493285  0.029863638            1 
  926000    1.1125725   -7.3871097    326.25795  0.029360866  0.029855332            2 
  927000    1.1257848   -7.3553511    326.79723  0.029377673   0.02984661            1 
  928000     1.089666   -7.3651136    327.03412  0.029367288  0.029837961            2 
  929000    1.1122299   -7.3313995    328.23366  0.029443277  0.029829676            1 
  930000    1.1028916   -7.3467155    328.78931  0.029461408  0.029820996            2 
  931000    1.0961915   -7.3572948    327.83368  0.029344225  0.029812483            2 
  932000    1.1146875   -7.3925893    328.84528   0.02940319  0.029803997            1 
  933000    1.0816039   -7.3657862    328.80525    0.0293681  0.029795306            3 
  934000    1.0882751   -7.3368551    329.31294  0.029381954  0.029786826            3 
  935000     1.111304    -7.436694    328.24622  0.029255456   0.02977819            1 
  936000    1.0933297   -7.3665141     329.7342  0.029356678  0.029769574            1 
  937000    1.0881164   -7.3565054    330.32468  0.029377862  0.029761181            4 
  938000    1.1056223   -7.3826743    330.16327  0.029332203  0.029752681            3 
  939000    1.1041575   -7.3911963    330.30347  0.029313407  0.029744078            2 
  940000    1.0943346   -7.3714928    330.45589  0.029295735  0.029735616            1 
  941000    1.1068484   -7.3718893    331.68611  0.029373549  0.029727235            2 
  942000    1.1127028   -7.3692836    331.64249  0.029338507  0.029718864            3 
  943000    1.1159054   -7.3543016    331.29721  0.029276883  0.029710532            2 
  944000    1.1204545   -7.3600319    332.27952  0.029332585  0.029702204            2 
  945000    1.1031518   -7.3625334    332.68134  0.029336979  0.029693927            3 
  946000    1.1007414   -7.3541409    332.80262   0.02931665  0.029685896            3 
  947000    1.1053039   -7.3914834    332.59456  0.029267385  0.029677818            4 
  948000    1.0816614   -7.3416247    333.32597  0.029300806   0.02966963            1 
  949000    1.0944831   -7.3524538    333.22298  0.029260887  0.029661365            1 
  950000     1.095446   -7.3979702    333.37255  0.029243206  0.029653043            1 
  951000    1.1185968   -7.3796326    334.44908  0.029306789  0.029644692            1 
  952000     1.115225   -7.3862807    333.60582   0.02920219  0.029636589            1 
  953000    1.1016536   -7.3894299    333.64022  0.029174556  0.029628453            1 
  954000    1.1355199   -7.3509708    335.26992  0.029286331  0.029620242            1 
  955000    1.0815824   -7.3641716    335.20002  0.029249565  0.029612281            5 
  956000    1.1131267   -7.3457559    336.44889  0.029327832  0.029604531            1 
  957000    1.0908819   -7.3823679    335.81617   0.02924209  0.029596489            2 
  958000    1.0906058    -7.386915    335.96796   0.02922477  0.029588509            2 
  959000    1.0968575   -7.3488285    336.05933  0.029202236  0.029580458            1 
  960000    1.0837115   -7.4098226    335.62876  0.029134441  0.029572261            2 
  961000    1.1225477    -7.361074    337.63481  0.029278079  0.029564075            1 
  962000    1.0842861   -7.4123586    337.17829  0.029208098   0.02955596            1 
  963000    1.1021431   -7.3732873    336.97406  0.029160095  0.029547928            1 
  964000    1.1097424   -7.3674119    338.53231   0.02926455  0.029540013            1 
  965000    1.1195035   -7.3645811    339.39686  0.029308883    0.0295322            1 
  966000    1.0700845   -7.3770192    338.54175  0.029204775  0.029524356            2 
  967000    1.0878219   -7.3703582    339.05043   0.02921841  0.029516341            2 
  968000    1.0908221   -7.3935701    338.67644  0.029156029  0.029508529            2 
  969000    1.1098535   -7.3475407    339.41355  0.029189332  0.029500633            3 
  970000    1.1234848   -7.3636133     339.8966  0.029200739   0.02949306            1 
  971000    1.1132312   -7.3905979    339.78832  0.029161373  0.029485358            2 
  972000    1.0747222   -7.3832864    340.22977  0.029169219  0.029477694            1 
  973000    1.1095779   -7.3766432    340.97139  0.029202757   0.02946992            2 
  974000    1.1003582   -7.3829897    339.53098  0.029049536  0.029462034            2 
  975000    1.1232742   -7.3587071    340.53956  0.029105945  0.029454276            1 
  976000    1.1087172   -7.3716121    341.10661   0.02912454  0.029446347            1 
  977000    1.0859336   -7.4073259    340.79777  0.029068387  0.029438212            3 
  978000    1.0747202   -7.3539526    342.25817  0.029163102  0.029430464            1 
  979000       1.1074   -7.4053317    340.87417  0.029015506  0.029422736            2 
  980000    1.1053323   -7.3907927    342.23649  0.029101743   0.02941488            4 
  981000    1.0849147   -7.4164302    342.13027  0.029063054  0.029406991            1 
  982000     1.106687   -7.4462643     341.7513  0.029001298  0.029399019            2 
  983000    1.0748813   -7.3736929    342.89656  0.029068884  0.029390793            4 
  984000    1.0775857   -7.3673396     343.7544  0.029111992  0.029383021            1 
  985000    1.0935486   -7.3881729    344.28715  0.029127508  0.029375204            2 
  986000    1.0758506   -7.3806897    342.95485  0.028985366  0.029367401            1 
  987000    1.1077017   -7.3753197    344.53537  0.029089444  0.029359808            3 
  988000    1.0651718   -7.4006592    344.75803  0.029078782  0.029352244            2 
  989000    1.0852434   -7.3715435    345.83332  0.029139983   0.02934455            3 
  990000    1.0821509   -7.4010473    345.49093  0.029081728  0.029336776            1 
  991000    1.0978374   -7.3788686    346.28697  0.029119321  0.029329036            2 
  992000    1.0905438    -7.358324    345.77856  0.029047258  0.029321093            2 
  993000    1.0870186   -7.3707138    345.70354   0.02901171  0.029313106            2 
  994000    1.0921683   -7.4003022     345.6251  0.028975948  0.029305376            2 
  995000    1.0870892   -7.3987254    344.95437  0.028890651  0.029297558            2 
  996000    1.0982882   -7.3966816    346.52069  0.028992695  0.029289718            3 
  997000    1.1021653    -7.404829    345.68635  0.028893878  0.029281726            1 
  998000    1.0903105   -7.3679281    347.00837  0.028975315  0.029273885            1 
  999000    1.1114623   -7.3376586    347.12102  0.028955707  0.029265946            1 
 1000000    1.0987971   -7.3839951    346.25595  0.028854663  0.029257892            2 
 1001000    1.1027085    -7.416056    346.96942  0.028885233  0.029249592            1 
 1002000    1.1104598   -7.4180674    347.21554  0.028876874  0.029241381            2 
 1003000    1.0786866    -7.401736    348.31501  0.028939433  0.029233347            3 
 1004000    1.0824538   -7.3772306    348.35227  0.028913701  0.029225442            1 
 1005000    1.0928726   -7.3710957    348.73031  0.028916277  0.029217476            2 
 1006000     1.115832   -7.4097061    348.48138  0.028866914    0.0292095            3 
 1007000    1.1055896   -7.3772421     349.5323  0.028925215  0.029201609            1 
 1008000     1.092498   -7.3947652    349.19567  0.028868689  0.029193661            2 
 1009000    1.0707678   -7.3851994    350.44827  0.028943531  0.029185637            1 
 1010000    1.1049085   -7.3879412     350.3297   0.02890509    0.0291777            2 
 1011000    1.0841021   -7.3649846    349.71076  0.028825483  0.029169766            1 
 1012000    1.1059453   -7.3648321    350.98431   0.02890187  0.029161926            1 
 1013000     1.094698   -7.3894222    350.16379   0.02880584  0.029153906            2 
 1014000    1.0868239   -7.4138801    351.26907  0.028868267  0.029146004            2 
 1015000    1.0599683   -7.3973017    351.37369  0.028848415  0.029138074            1 
 1016000    1.0592637   -7.4048804    350.99937  0.028789318   0.02913038            3 
 1017000     1.074133   -7.3803831    351.96757  0.028840345  0.029122457            1 
 1018000    1.0785732   -7.3897412    351.62244  0.028783762  0.029114435            2 
 1019000    1.0612316   -7.3804831    352.07645  0.028792644  0.029106233            2 
 1020000    1.0820159   -7.3673487    351.82457  0.028743838  0.029098046            4 
 1021000    1.0988278   -7.3877747     352.9588  0.028808259  0.029089733            3 
 1022000    1.0803275   -7.3474396    352.94755  0.028779154  0.029081503            1 
 1023000    1.0835856   -7.3849608     353.2878  0.028778739  0.029073579            4 
 1024000    1.0863304    -7.370493    353.82544  0.028794388  0.029065551            1 
 1025000    1.0991983   -7.4035568    353.56022  0.028744733   0.02905726            1 
 1026000     1.060761   -7.3892601    354.07862  0.028758822  0.029049199            3 
 1027000      1.08463   -7.3839754     353.9716  0.028722136  0.029041007            3 
 1028000    1.0630483   -7.3828531    354.04397  0.028700063  0.029032676            2 
 1029000    1.0826655   -7.4311874    353.59984  0.028636203  0.029024501            2 
 1030000    1.0776529   -7.3928252    354.61767   0.02869075  0.029016364            2 
 1031000    1.0778264   -7.4095984     354.9376  0.028688781  0.029008317            1 
 1032000    1.1020173   -7.3767761    354.03033  0.028587721  0.029000228            2 
 1033000    1.0725739   -7.4460386    354.66522  0.028611263  0.028992133            2 
 1034000    1.1140651   -7.4040109    355.43238   0.02864542  0.028983966            1 
 1035000    1.0725317   -7.3937519    356.70912  0.028720541  0.028975957            3 
 1036000    1.1072964   -7.4321601    355.18169  0.028569956  0.028967809            1 
 1037000    1.0701889   -7.4055533    356.53068   0.02865081  0.028959726            1 
 1038000    1.0985241   -7.4158697    356.74206  0.028640178  0.028951682            2 
 1039000    1.1142148   -7.4064488    356.97363  0.028631186  0.028943609            2 
 1040000     1.080017   -7.4394499    356.23329  0.028544334  0.028935121            2 
 1041000     1.078856   -7.4218498    356.02351  0.028500121  0.028926875            3 
 1042000    1.0669343   -7.4259888    356.71307  0.028527916  0.028918488            2 
 1043000    1.0710177   -7.3840461    357.14654  0.028535198  0.028910279            1 
 1044000     1.073764   -7.4253972    357.48752  0.028535083  0.028901929            2 
 1045000     1.081682   -7.4435694    357.54595  0.028512436   0.02889358            1 
 1046000    1.0722362   -7.4325571    358.26313  0.028542314  0.028885157            3 
 1047000    1.1051167   -7.4274217    356.92411  0.028408478  0.028876767            2 
 1048000    1.1093394   -7.4189279    358.08787  0.028473908  0.028868361            2 
 1049000     1.070445   -7.4143897    358.25494  0.028460036  0.028860054            1 
 1050000    1.0935201   -7.4276297    357.46742   0.02837043  0.028851628            3 
 1051000    1.0933177   -7.3832431     359.7177   0.02852186  0.028843229            1 
 1052000      1.08809   -7.3627187     360.4871  0.028555695  0.028835251            1 
 1053000    1.0775576   -7.4208808       359.54  0.028453625  0.028827259            1 
 1054000    1.0801257    -7.382783    360.60831  0.028511093  0.028819031            1 
 1055000    1.0869387   -7.4007005    359.79952  0.028420184  0.028810961            1 
 1056000    1.0956294   -7.3997095     360.8719  0.028477896   0.02880275            5 
 1057000    1.0849606   -7.3674727    362.53804  0.028582312  0.028794693            1 
 1058000     1.090954   -7.3860843    361.59096    0.0284807  0.028786594            1 
 1059000    1.0810471   -7.3885106    362.56746  0.028530647  0.028778465            1 
 1060000    1.0595747   -7.4054217    361.91968  0.028452805  0.028770448            2 
 1061000    1.0763246   -7.3920956    363.04683  0.028514517  0.028762372            2 
 1062000    1.0799713   -7.4177637    362.33807  0.028432052  0.028754297            2 
 1063000      1.08458   -7.3752792     363.6045  0.028504586  0.028746195            1 
 1064000    1.0764364   -7.3969837     362.5859  0.028398019  0.028738025            2 
 1065000    1.0859752   -7.4071016    363.69984  0.028458516  0.028729742            3 
 1066000    1.0735903   -7.3770516    364.05482   0.02845957  0.028721622            3 
 1067000    1.0915003    -7.410543    364.32359  0.028453888  0.028713459            1 
 1068000    1.1132497   -7.4114963     363.9356  0.028396973  0.028705287            1 
 1069000    1.0811113   -7.4213172    364.43404  0.028409264  0.028697177            1 
 1070000    1.1073282    -7.438799    364.10153  0.028356817  0.028689051            2 
 1071000    1.0795001   -7.3897873    365.16183  0.028412841  0.028681099            1 
 1072000    1.0970254   -7.3919341    365.15407  0.028385733   0.02867306            1 
 1073000    1.0783128   -7.3884535    365.78844  0.028408546   0.02866496            3 
 1074000    1.1046619   -7.4299385    365.39669  0.028351699  0.028656887            2 
 1075000    1.0835456   -7.4239258    365.73548  0.028351588  0.028648938            2 
 1076000    1.0741195   -7.4198621    365.39041  0.028298514  0.028640904            1 
 1077000    1.0759336   -7.4091405    366.19898  0.028334802  0.028632992            1 
 1078000    1.0624199   -7.4212812    365.81588  0.028278902  0.028624914            2 
 1079000    1.0681503    -7.413643    367.88365  0.028412392    0.0286168            3 
 1080000    1.0709289   -7.3862333    367.98895  0.028394209  0.028609257            3 
 1081000    1.0792928    -7.400188     367.8549  0.028357608  0.028601566            1 
 1082000    1.0743233   -7.4059689     369.4079  0.028451009  0.028593658            3 
 1083000    1.0497836   -7.3982475    368.53095   0.02835726  0.028586052            2 
 1084000    1.0708169   -7.4551854    367.98204  0.028288902  0.028578261            2 
 1085000     1.082295   -7.4515311    369.20603  0.028356838  0.028570369            2 
 1086000    1.0755481   -7.4287736    369.74936  0.028372419  0.028562534            2 
 1087000    1.0637825   -7.4517832    369.12915   0.02829877  0.028554591            2 
 1088000    1.0804583   -7.4163447    369.43475  0.028296167  0.028546609            2 
 1089000    1.0781496   -7.4205534    370.02353  0.028315238  0.028538665            1 
 1090000    1.1095812   -7.3985134    368.63881  0.028183395  0.028530831            1 
 1091000    1.0795592   -7.4284732    370.79979  0.028322624  0.028523026            2 
 1092000    1.0688641   -7.4289402    369.45509   0.02819407  0.028515227            1 
 1093000    1.0565782   -7.3690289    370.83952  0.028273827  0.028507482            2 
 1094000    1.0876162   -7.4114822    370.93311  0.028255112  0.028499635            1 
 1095000    1.0717286   -7.3968761    371.68498  0.028286528  0.028491732            2 
 1096000    1.0921249    -7.427866    371.29576  0.028231125  0.028483903            1 
 1097000    1.0628288   -7.4198063    371.68506  0.028234963  0.028476138            1 
 1098000    1.0972877   -7.4051008     371.2165  0.028173687    0.0284682            2 
 1099000    1.0792406   -7.4414757    371.95308  0.028203903  0.028460428            2 
 1100000     1.067474   -7.3723378    373.38767  0.028286945  0.028452446            2 
 1101000    1.0943235   -7.4005218    372.26652  0.028176394  0.028444738            5 
 1102000    1.0601351   -7.4286809    371.91884  0.028124534  0.028436802            1 
 1103000    1.0615603   -7.4450356    372.22058  0.028121833  0.028428852            2 
 1104000    1.0515203    -7.430242    371.53794  0.028044833  0.028420879            1 
 1105000    1.0912074    -7.403307    373.03893  0.028132649   0.02841296            2 
 1106000    1.0721514   -7.4156123    372.90994  0.028097494  0.028405041            2 
 1107000    1.0939702   -7.4246474    373.77568  0.028137284  0.028397095            4 
 1108000    1.0845889   -7.4410557     373.5958   0.02809836  0.028389145            1 
 1109000    1.0942035   -7.4139313    373.92389  0.028097677  0.028380938            3 
 1110000    1.1127962   -7.4580133    374.03449  0.028080668  0.028372874            3 
 1111000      1.09039   -7.4244511    375.56338   0.02817007  0.028365065            2 
 1112000     1.084738   -7.4586932     375.0151  0.028103649   0.02835729            2 
 1113000     1.083711   -7.4493927    375.31578  0.028100912  0.028349396            2 
 1114000    1.0725878    -7.453047    375.74017  0.028107433  0.028341544            2 
 1115000    1.0692918   -7.3976504    376.86339  0.028166173  0.028333776            1 
 1116000    1.0972053   -7.4410968    375.74052  0.028057088  0.028326107            1 
 1117000    1.0911289   -7.4924525     377.1539  0.028137414  0.028318439            2 
 1118000    1.0701535   -7.4489247    375.33703  0.027976821  0.028310545            3 
 1119000    1.0724665   -7.3835254    376.61159  0.028046737  0.028302654            1 
 1120000    1.0694511    -7.433715     378.2912  0.028146666  0.028294951            2 
 1121000    1.0808008   -7.4597522    376.42527  0.027982848  0.028287075            1 
 1122000    1.0943387   -7.4236288    377.92363  0.028069194  0.028279327            1 
 1123000    1.0841434   -7.4525088    377.19093  0.027989829  0.028271515            1 
 1124000    1.0729866   -7.4384191    377.55135  0.027991648  0.028263712            2 
 1125000    1.1009523   -7.4614032    378.76022  0.028056312  0.028255928            1 
 1126000    1.0651812   -7.4355193    378.57532  0.028017712  0.028248374            1 
 1127000    1.0631801   -7.4121051    379.02311  0.028025962  0.028240604            2 
 1128000    1.0609293   -7.4813818    378.33716   0.02795044  0.028232882            1 
 1129000    1.0641723    -7.404682    380.60328  0.028092949    0.0282251            2 
 1130000     1.093846   -7.4387641    379.43093  0.027981632  0.028217614            2 
 1131000    1.0933395   -7.4248536    381.01209  0.028073393  0.028210267            2 
 1132000    1.0634642   -7.4570249    381.48783  0.028083615  0.028202945            3 
 1133000     1.098254    -7.454361       381.52  0.028061195  0.028195447            2 
 1134000    1.0726945   -7.4148217    381.44498  0.028030936  0.028188085            1 
 1135000     1.059522   -7.4258277    381.45723  0.028007139  0.028180756            4 
 1136000    1.0768249   -7.4293566    383.31064  0.028118445  0.028173405            2 
 1137000    1.0676814   -7.4238952    382.97278  0.028068952  0.028166194            1 
 1138000    1.0667756   -7.4843109    382.44351  0.028005529  0.028158821            2 
 1139000    1.0726114   -7.4451313    383.56597  0.028063065  0.028151204            1 
 1140000     1.062185   -7.3992637    382.95842  0.027994036  0.028143726            1 
 1141000    1.0628297   -7.4361859    382.37852  0.027927148  0.028136205            3 
 1142000    1.0523676   -7.4273867    384.15466  0.028032301  0.028128552            1 
 1143000    1.0659326   -7.4714627     382.6689  0.027899453  0.028121051            2 
 1144000    1.0720918   -7.4121705    384.19215  0.027986025  0.028113707            2 
 1145000    1.0355087   -7.4291803    383.82355  0.027934756  0.028106239            2 
 1146000    1.0515611   -7.4474474    384.94669  0.027992051  0.028098908            2 
 1147000    1.0772203   -7.4827921    383.80866  0.027884965  0.028091471            2 
 1148000    1.0802069   -7.4214886     384.6698  0.027923186  0.028084116            2 
 1149000    1.0681217   -7.4471797    385.53093  0.027961338  0.028076728            3 
 1150000    1.0677862   -7.4695864    386.33062  0.027994972   0.02806937            1 
 1151000    1.0577627   -7.4175572    384.93041  0.027869274  0.028062003            1 
 1152000    1.0758183    -7.406049    386.32116  0.027945686  0.028054972            1 
 1153000     1.072999   -7.4434629    385.96738  0.027895879  0.028047894            2 
 1154000     1.074654   -7.4665031    385.81141  0.027860443  0.028040639            2 
 1155000    1.0770835   -7.4582258    387.36406  0.027948345  0.028033373            1 
 1156000    1.0662563   -7.4448839    387.11749  0.027906393  0.028026073            2 
 1157000    1.0516237   -7.4625165    386.83324  0.027861801  0.028018949            2 
 1158000    1.0690751   -7.4085248    388.39242  0.027949944  0.028011735            4 
 1159000    1.0601164   -7.4527549    387.38824  0.027853626   0.02800445            3 
 1160000    1.0759185   -7.4645706    387.67141  0.027849958  0.027997159            1 
 1161000    1.0840972   -7.4540259     387.9465  0.027845715  0.027989849            2 
 1162000    1.0850515   -7.4444224    389.75908  0.027951741  0.027982656            1 
 1163000    1.0484674   -7.4341037     389.5029  0.027909351  0.027975384            1 
 1164000     1.058364    -7.486118    388.90277  0.027842409  0.027968323            2 
 1165000    1.0561052    -7.449204    388.55966  0.027793967   0.02796107            1 
 1166000    1.0632841   -7.4303474    390.08983   0.02787949  0.027953827            3 
 1167000    1.0468354   -7.4495354    389.23594  0.027794626  0.027946723            1 
 1168000    1.0806314   -7.4197816    391.37596  0.027923513  0.027939541            2 
 1169000    1.0971938   -7.4367113    391.09707  0.027879746  0.027932431            1 
 1170000    1.0633478   -7.4534983    389.95716  0.027774726  0.027925257            2 
 1171000    1.0621464   -7.4417651    391.95091  0.027892891  0.027918121            2 
 1172000    1.0481528   -7.4738981    391.02837  0.027803496  0.027910944            3 
 1173000    1.0625823   -7.4689646    389.73746  0.027688083  0.027903832            3 
 1174000    1.0561596   -7.4689645    391.89286  0.027817494  0.027896716            1 
 1175000     1.071435   -7.4788416    391.93419  0.027796751  0.027889513            2 
 1176000    1.0642064   -7.4950795    392.98809  0.027847795  0.027882525            4 
 1177000    1.0677594   -7.4426405    392.08648    0.0277603  0.027875484            2 
 1178000    1.0579625   -7.4376026    392.37876  0.027757411    0.0278685            2 
 1179000    1.0548742   -7.4589539    393.21822  0.027793202   0.02786164            1 
 1180000    1.0374588   -7.4554845    393.64754  0.027799968  0.027854791            1 
 1181000    1.0827309   -7.4646474    393.08192  0.027736517  0.027847995            1 
 1182000    1.0695604    -7.436528      394.748  0.027830513  0.027841087            1 
 1183000    1.0676014   -7.4379701     395.2756  0.027844153  0.027834227            2 
 1184000    1.0629259   -7.4345392     395.0419  0.027804188   0.02782753            1 
 1185000    1.0810259   -7.4373072    395.62085  0.027821438  0.027820789            1 
 1186000    1.0975746   -7.4367982    395.30458  0.027775758  0.027813896            1 
 1187000    1.0655519   -7.4539723    394.98224  0.027729727  0.027806824            1 
 1188000    1.0541331   -7.4435482    396.50429  0.027813151  0.027799909            1 
 1189000    1.0626363   -7.4783488    395.81675  0.027741572  0.027793106            2 
 1190000     1.057259   -7.4734911    396.56092  0.027770372  0.027786341            3 
 1191000    1.0654698   -7.4562375    395.84814  0.027697183   0.02777962            1 
 1192000    1.0343502   -7.4499573    397.30739  0.027775964  0.027772902            2 
 1193000    1.0550349   -7.4888431    396.20542  0.027675707  0.027766134            4 
 1194000     1.058547   -7.4262481    397.47628  0.027741226   0.02775946            4 
 1195000    1.0587423   -7.4493003    397.36088  0.027709964  0.027752675            4 
 1196000    1.0681086   -7.4634406    396.42065  0.027621283  0.027745555            1 
 1197000    1.0606843    -7.462519    396.68733  0.027616773   0.02773851            3 
 1198000    1.0722259    -7.484389    397.44808  0.027646639  0.027731468            2 
 1199000    1.0478478   -7.4459838    398.62827  0.027705606  0.027724454            1 
 1200000    1.0826007   -7.4183749    397.64363  0.027614141  0.027717456            2 
 1201000    1.0376731   -7.4554395    399.61166  0.027727704   0.02771049            2 
 1202000    1.0668447   -7.4771138    398.46301  0.027625001  0.027703347            1 
 1203000    1.0586501   -7.4417159    399.15789  0.027650173  0.027696079            2 
 1204000    1.0629115   -7.4766772    397.60186  0.027519509  0.027688882            1 
 1205000    1.0633286   -7.4429455    398.39535  0.027551546  0.027681532            2 
 1206000    1.0445378   -7.4735535    399.47835  0.027603534  0.027674255            1 
 1207000    1.0427279   -7.4217353    400.01025  0.027617388  0.027667078            2 
 1208000    1.0606424   -7.4868009    399.28095  0.027544216  0.027659825            1 
 1209000    1.0584854   -7.4385704    399.84345  0.027560205  0.027652686            3 
 1210000    1.0691478   -7.4676158    399.54438   0.02751683  0.027645679            1 
 1211000    1.0469221   -7.4669896    400.44055  0.027555777  0.027638514            2 
 1212000    1.0418069   -7.4453399    400.83693  0.027560295  0.027631516            1 
 1213000    1.0541695   -7.4378953    402.06981  0.027622273  0.027624526            1 
 1214000    1.0787019   -7.4440152    401.83315  0.027583275  0.027617726            2 
 1215000    1.0506239   -7.4572914    401.67854  0.027549968  0.027610781            4 
 1216000    1.0633656   -7.4284529    402.79735  0.027603985  0.027603943            2 
 1217000    1.0758309   -7.4639072    402.25048  0.027543857  0.027597112            2 
 1218000    1.0486342   -7.3694756    404.36679  0.027666037  0.027590399            1 
 1219000    1.0626853   -7.4303254    403.52137  0.027585546  0.027583679            1 
 1220000    1.0614267    -7.460944    403.58134  0.027567031  0.027576879            3 
 1221000    1.0522623   -7.4989131    402.82277  0.027492681  0.027569862            2 
 1222000    1.0495067   -7.4447778    403.32471  0.027504413   0.02756292            2 
 1223000    1.0612112    -7.426181    404.45219  0.027558748  0.027556042            1 
 1224000    1.0624979   -7.4818779     403.3194   0.02745911  0.027549081            2 
 1225000    1.0452639   -7.4803776    403.54392  0.027451967  0.027541989            2 
 1226000    1.0515138   -7.4875772    404.78134  0.027513685  0.027534826            3 
 1227000    1.0511586   -7.4630164    403.59882  0.027410949  0.027527605            4 
 1228000    1.0847428   -7.5076284    402.52909  0.027316035  0.027520512            3 
 1229000    1.0375322   -7.4614166    405.07973  0.027466757  0.027513322            1 
 1230000    1.0436273   -7.4614256     405.0038  0.027439282  0.027506216            1 
 1231000    1.0730753   -7.4686088    404.58853   0.02738888  0.027499232            2 
 1232000    1.0525814   -7.4755248    405.76399  0.027446158   0.02749237            1 
 1233000    1.0395314   -7.4954548    405.16293  0.027383275  0.027485274            4 
 1234000    1.0459008   -7.5530676    404.24195  0.027298889  0.027477974            2 
 1235000    1.0847544   -7.4626774    405.26141  0.027345574  0.027470766            1 
 1236000    1.0271077   -7.4586049    406.58537  0.027412714  0.027463726            1 
 1237000    1.0431445   -7.5073613    405.50519  0.027317784  0.027456393            1 
 1238000    1.0689766   -7.4576685    405.44131  0.027291419  0.027449093            1 
 1239000    1.0323059   -7.4688268    405.94533  0.027303291  0.027441953            2 
 1240000     1.045695    -7.474133    407.20648  0.027366027  0.027434671            2 
 1241000    1.0455292   -7.4462122    408.28955  0.027416704  0.027427599            1 
 1242000    1.0457916   -7.4584273    406.70788  0.027288505  0.027420588            1 
 1243000    1.0444986   -7.4931808    407.10662  0.027293284  0.027413409            2 
 1244000    1.0669511    -7.490421    407.47889  0.027296281  0.027406088            3 
 1245000    1.0610405   -7.4978379    408.06572  0.027313636   0.02739884            1 
 1246000    1.0468229   -7.4808724    408.71053   0.02733484  0.027391627            2 
 1247000    1.0632978   -7.4650827    410.10033  0.027405796  0.027384574            2 
 1248000    1.0399909    -7.484172    407.65566  0.027220597   0.02737738            3 
 1249000    1.0392642   -7.4677578    409.05174  0.027291949   0.02737001            2 
 1250000    1.0310557   -7.4755324    408.81937  0.027254625  0.027362681            2 
 1251000    1.0529069   -7.4965103    409.22546   0.02725989  0.027355537            1 
 1252000    1.0300788   -7.4449614    410.69966  0.027336239  0.027348377            3 
 1253000    1.0531473    -7.443147    409.32631  0.027223085  0.027341269            3 
 1254000    1.0486701   -7.4622007    409.54793  0.027216104  0.027333947            1 
 1255000    1.0648509   -7.4763768    409.39319  0.027184143  0.027326618            1 
 1256000    1.0617725   -7.4849855    408.90875  0.027130357  0.027319361            2 
 1257000    1.0446028   -7.4775795    410.06615  0.027185504  0.027311996            1 
 1258000    1.0492524   -7.4948655    410.51831  0.027193847  0.027304545            1 
 1259000    1.0646589   -7.5062386    409.48967  0.027104161  0.027297121            3 
 1260000    1.0385394   -7.4834073    410.50526  0.027149819  0.027289609            1 
 1261000    1.0484974   -7.4953837    409.91125  0.027089033  0.027282066            4 
 1262000    1.0317055   -7.4533837    410.68733  0.027118814  0.027274676            2 
 1263000    1.0614906    -7.530171    410.77208  0.027102935  0.027267213            2 
 1264000    1.0400776   -7.5248029    409.27625  0.026982875   0.02725959            2 
 1265000    1.0523192    -7.520669    409.93178  0.027004729  0.027251953            2 
 1266000     1.048756    -7.501642    410.85523  0.027044183  0.027244444            1 
 1267000    1.0490278   -7.4692041    412.56349  0.027135194  0.027237056            1 
 1268000    1.0153871   -7.4772839    413.17028  0.027153673  0.027229712            3 
 1269000    1.0634751    -7.462153    412.85176  0.027111358  0.027222392            2 
 1270000    1.0637321    -7.508534    412.96578  0.027097492  0.027215252            3 
 1271000    1.0643252   -7.4979411    412.62541  0.027053856  0.027207918            3 
 1272000    1.0294147   -7.5319366    412.52995  0.027026333  0.027200349            1 
 1273000    1.0547116    -7.525846    412.10742  0.026977443  0.027192704            4 
 1274000    1.0733173   -7.4753789    414.60566   0.02711968  0.027185288            1 
 1275000    1.0346936   -7.4608605    414.60974  0.027098676  0.027178115            1 
 1276000      1.04174   -7.4874851    414.20587  0.027051062  0.027170604            1 
 1277000    1.0486237   -7.4693372    413.42623  0.026979002  0.027163163            4 
 1278000    1.0616851   -7.4846891    414.13423  0.027004058  0.027155721            1 
 1279000     1.051126   -7.4706313    414.14675   0.02698376  0.027148355            2 
 1280000    1.0370329   -7.4899343    414.75991  0.027002598  0.027140976            5 
 1281000    1.0578751   -7.5256868     414.5245  0.026966205   0.02713365            1 
 1282000    1.0465039   -7.5063721    415.18338  0.026987999  0.027126174            2 
 1283000    1.0310306   -7.5056184     416.5125  0.027053293  0.027118864            2 
 1284000    1.0320893   -7.5087918    415.74493  0.026982407  0.027111615            1 
 1285000    1.0675785   -7.4864786    416.44254   0.02700665  0.027104371            1 
 1286000    1.0585556   -7.4650008    416.62751  0.026997635  0.027097135            2 
 1287000    1.0525535   -7.4992532    416.04595  0.026939002  0.027089965            1 
 1288000    1.0635103   -7.4777228    416.92343   0.02697486  0.027082698            4 
 1289000    1.0747163   -7.4727308    415.85348  0.026884761  0.027075403            1 
 1290000    1.0593674   -7.5293082    416.18628  0.026885419  0.027067935            1 
 1291000     1.039517   -7.5336408     416.9241  0.026912219   0.02706054            1 
 1292000    1.0545355   -7.4656312    418.26238  0.026977708   0.02705323            1 
 1293000     1.044674   -7.4882481    418.85995  0.026995356  0.027046192            1 
 1294000    1.0551984   -7.5250614     418.7143  0.026965114  0.027039015            2 
 1295000    1.0450205   -7.4875094    419.21014  0.026976199  0.027031878            1 
 1296000    1.0488361   -7.4978831    418.16134  0.026887946  0.027024779            1 
 1297000    1.0491115    -7.473023    419.13623  0.026929853  0.027017647            1 
 1298000    1.0566441   -7.4787757    420.92421  0.027023897  0.027010634            2 
 1299000    1.0380111   -7.4698929    419.71414  0.026925465  0.027003761            2 
 1300000    1.0618729    -7.506879    420.01703  0.026924169  0.026996791            3 
 1301000    1.0588465   -7.4674802    421.75821  0.027015002  0.026989832            2 
 1302000    1.0554268   -7.4981193    419.94746  0.026878358  0.026982829            3 
 1303000    1.0299094    -7.476214    421.88469  0.026981625  0.026976121            1 
 1304000    1.0603631   -7.4744962    422.26847   0.02698546  0.026969371            3 
 1305000    1.0303092   -7.5203361     422.4659  0.026977388  0.026962438            2 
 1306000    1.0380727   -7.4653183    422.94948  0.026987588  0.026955431            3 
 1307000     1.065693   -7.4958277    422.21443  0.026920073  0.026948553            1 
 1308000    1.0429359   -7.5035971    423.11669  0.026956976  0.026941855            2 
 1309000    1.0392133   -7.4861743     423.3515  0.026951331  0.026935114            5 
 1310000    1.0434796   -7.4601529    424.92507  0.027030857  0.026928455            5 
 1311000    1.0365022   -7.5070847    422.45216  0.026853048  0.026921761            1 
 1312000    1.0755118   -7.5127511    424.56599  0.026966844  0.026915004            2 
 1313000    1.0538783   -7.4874683      423.386  0.026871414  0.026908219            2 
 1314000    1.0499615    -7.502951      424.327  0.026910642  0.026901658            1 
 1315000    1.0308282   -7.5336568     424.6386  0.026909924  0.026895021            1 
 1316000    1.0423226   -7.5249581    424.41836   0.02687553  0.026888201            1 
 1317000    1.0212746   -7.4966102    424.00112  0.026828722  0.026881343            2 
 1318000    1.0129869   -7.4426626    425.71351  0.026916636  0.026874646            2 
 1319000    1.0232185   -7.4961954     425.2102   0.02686443  0.026867934            3 
 1320000    1.0477225   -7.5058258    424.97806  0.026829423  0.026861231            3 
 1321000    1.0477753   -7.5065754    426.04212  0.026876238  0.026854517            2 
 1322000    1.0381387   -7.4915201    425.61877  0.026829221  0.026847715            5 
 1323000    1.0464888   -7.5302314    425.03465   0.02677215  0.026840633            2 
 1324000    1.0240181   -7.5236148    425.81295  0.026800916  0.026833547            3 
 1325000    1.0437003   -7.4643799    426.69357  0.026836074  0.026826473            2 
 1326000    1.0365668   -7.4643392    425.42744  0.026736264  0.026819344            1 
 1327000    1.0529677   -7.5142838    426.77634  0.026800825  0.026812178            1 
 1328000    1.0405728   -7.4748303    426.19888  0.026744408  0.026805228            2 
 1329000    1.0682376   -7.5335963    425.60017  0.026686742  0.026798118            3 
 1330000    1.0706994   -7.5213759    426.24071  0.026706812   0.02679091            1 
 1331000     1.042093   -7.5057563    425.45979  0.026637853  0.026783707            3 
 1332000    1.0592236   -7.5259624    427.25455   0.02673014  0.026776339            2 
 1333000    1.0360783   -7.5078452    427.99962  0.026756665   0.02676928            2 
 1334000     1.046123   -7.5086596    429.59239  0.026836107  0.026762214            2 
 1335000    1.0295587    -7.475547    428.19986   0.02672908  0.026755296            1 
 1336000     1.045449   -7.5134325    428.04357  0.026699324  0.026748193            1 
 1337000    1.0381101   -7.5195358    427.80655  0.026664582  0.026741198            4 
 1338000    1.0280737   -7.4959586      428.051  0.026659878  0.026734151            2 
 1339000    1.0310278   -7.5399997    427.08797  0.026580033  0.026726951            2 
 1340000    1.0414495   -7.5157957    428.44655  0.026644686  0.026719817            3 
 1341000    1.0355445   -7.4857522    429.35481  0.026681258   0.02671276            2 
 1342000    1.0289795   -7.5421164    428.76798  0.026624937  0.026705661            3 
 1343000    1.0319814   -7.5124911    429.61795  0.026657852  0.026698616            4 
 1344000    1.0290193   -7.5236149    430.24765  0.026677062  0.026691575            1 
 1345000    1.0297935   -7.4676056    429.93273  0.026637716  0.026684549            1 
 1346000     1.041924   -7.5321556     429.6416  0.026599901  0.026677465            2 
 1347000    1.0335538   -7.5532242    430.36665  0.026625009  0.026670309            1 
 1348000    1.0302039   -7.5201687    430.99325  0.026643994  0.026663321            1 
 1349000    1.0347608   -7.5523457    431.01305  0.026625466  0.026656253            3 
 1350000    1.0354839   -7.5532184    429.26003  0.026497532  0.026649051            1 
 1351000    1.0202905   -7.4966683    431.67748  0.026627034  0.026641918            2 
 1352000    1.0463411   -7.4735797    431.83973   0.02661734  0.026634863            2 
 1353000    1.0290882   -7.4910166    431.92206  0.026602739  0.026627916            1 
 1354000    1.0165828   -7.5015503    432.44833   0.02661548  0.026620959            2 
 1355000     1.005274   -7.4771545    433.04125  0.026632303  0.026614095            2 
 1356000    1.0531824   -7.5770539    431.39662  0.026511592  0.026607082            2 
 1357000    1.0459367   -7.5583031    433.13523  0.026598822  0.026600084            1 
 1358000    1.0758057     -7.51142    431.89814  0.026503322  0.026593145            1 
 1359000    1.0332103   -7.5262714    432.68039  0.026531787  0.026586244            2 
 1360000    1.0591976   -7.5162323    433.71521  0.026575687  0.026579263            3 
 1361000    1.0361134   -7.5196717    433.74778  0.026558154  0.026572379            1 
 1362000    1.0677352   -7.5570714    433.16182  0.026502804  0.026565414            1 
 1363000     1.040658   -7.5334296    433.81202  0.026523112  0.026558344            1 
 1364000    1.0374132   -7.5358157    433.84407  0.026505625  0.026551311            2 
 1365000    1.0257533   -7.5565502    433.41603  0.026460075  0.026544172            3 
 1366000    1.0308982   -7.5762697    433.59782  0.026451795  0.026536982            2 
 1367000    1.0314997   -7.5297087    434.74779  0.026502547  0.026530001            1 
 1368000    1.0312149   -7.5128994    435.35224  0.026519995  0.026523041            1 
 1369000    1.0299623   -7.4838535    435.51301   0.02651041  0.026516106            1 
 1370000    1.0253493   -7.5176439    434.37069  0.026421575  0.026509147            2 
 1371000     1.039908   -7.4755791    434.59597  0.026415996  0.026502072            2 
 1372000      1.03257   -7.5395568    433.84617  0.026351201  0.026495032            1 
 1373000    1.0180373   -7.5106232    434.54685  0.026374536  0.026487983            2 
 1374000    1.0443757    -7.522858    436.09355  0.026449148  0.026481011            1 
 1375000    1.0175671   -7.4976532    435.71222  0.026406801  0.026474163            2 
 1376000    1.0234061   -7.5496758    436.56089  0.026439007  0.026467023            2 
 1377000    1.0444444   -7.5694716    434.52496  0.026296597  0.026459776            3 
 1378000    1.0149858   -7.5393188    436.33191  0.026386787  0.026452688            2 
 1379000    1.0462166   -7.5099569    436.00581  0.026347946  0.026445618            1 
 1380000    1.0332823   -7.5454926    436.66592  0.026368715  0.026438569            4 
 1381000    1.0255012   -7.5239245     436.9708  0.026368018  0.026431437            2 
 1382000    1.0223903   -7.5554541    437.22792  0.026364443  0.026424286            3 
 1383000    1.0212788   -7.5228992    437.01771  0.026332714  0.026417059            3 
 1384000    1.0077851   -7.5466786    436.02977  0.026254201  0.026409713            1 
 1385000    1.0166633   -7.5150624    438.05937  0.026357363   0.02640248            1 
 1386000    1.0220149   -7.5266699    438.04799  0.026337662  0.026395327            2 
 1387000    1.0219904   -7.4925029    438.53951  0.026348204  0.026388293            4 
 1388000    1.0252057   -7.5370105    438.20485  0.026309129  0.026381311            1 
 1389000    1.0222893   -7.5270142    438.10094  0.026283953   0.02637433            2 
 1390000    1.0438236    -7.496986    439.73069  0.026362751  0.026367265            2 
 1391000    1.0249554   -7.5516047    438.13888  0.026248435  0.026360061            2 
 1392000    1.0440752   -7.5471507    439.58196   0.02631597  0.026352802            4 
 1393000    1.0188922   -7.5170779    439.89796  0.026315982  0.026345755            4 
 1394000    1.0037637   -7.5689587    438.41991  0.026208746  0.026338624            2 
 1395000    1.0148015   -7.5570979     439.1822  0.026235496  0.026331414            2 
 1396000    1.0369237   -7.5376456    441.02375  0.026326633  0.026324164            1 
 1397000    1.0368582   -7.5016825    438.99671  0.026186871   0.02631704            2 
 1398000    1.0143358   -7.4984727    440.56259   0.02626148   0.02630983            1 
 1399000    1.0205444     -7.56324    440.25034  0.026224109  0.026302792            2 
 1400000    1.0305426   -7.4930404    442.46406  0.026337146  0.026295669            3 
 1401000    1.0375518   -7.5030326     441.3029   0.02624928  0.026288718            2 
 1402000    1.0453138   -7.5000608    441.08495  0.026217603  0.026281693            3 
 1403000    1.0224797   -7.5077819    441.20907  0.026206288  0.026274618            2 
 1404000    1.0281988    -7.555796    441.20939  0.026187642  0.026267592            1 
 1405000    1.0281062   -7.5163153    442.96248  0.026272982  0.026260524            3 
 1406000    1.0408492   -7.5692849    440.59789  0.026114147  0.026253354       -1e+20 
 1407000    1.0106025   -7.5112013    441.32876  0.026138875  0.026246333            1 
 1408000    1.0241028   -7.5409284    442.33912  0.026180109  0.026239204            4 
 1409000    1.0275775   -7.5318141    443.23648  0.026214601  0.026232057            1 
 1410000    1.0281615   -7.5420257    443.15079  0.026190945  0.026224968            3 
 1411000    1.0190632   -7.5241275    441.76269  0.026090402  0.026217922            3 
 1412000    1.0072518   -7.5162557    443.39169  0.026168065  0.026210807            1 
 1413000    1.0179493   -7.5347847    443.12033  0.026133542  0.026203678            1 
 1414000    1.0569358   -7.5386425    444.47224  0.026194733  0.026196617            2 
 1415000    1.0261174   -7.5821092    443.15113  0.026098417  0.026189559            4 
 1416000    1.0195774   -7.5391246    444.12281  0.026137171  0.026182506            2 
 1417000    1.0061383   -7.5595806    444.09999  0.026117383   0.02617556            3 
 1418000    1.0342123   -7.5557429    444.85022  0.026143055   0.02616855            1 
 1419000    1.0256383   -7.4942731    445.99504  0.026191863  0.026161644            1 
 1420000    1.0268928   -7.5455039    445.27961  0.026131432  0.026154773            2 
 1421000    1.0204348    -7.547552    445.03877  0.026098919   0.02614794            4 
 1422000     1.036778   -7.5543656    444.27559  0.026035841  0.026141149            1 
 1423000    1.0210599     -7.53301    446.34117  0.026138509  0.026134345            1 
 1424000    1.0354371   -7.5639729    445.91228  0.026095054  0.026127608            2 
 1425000    1.0062026   -7.5058223    448.39646  0.026222015  0.026120861            2 
 1426000    1.0165378   -7.5350224    447.29808  0.026139439  0.026114251            1 
 1427000      1.03007    -7.551933    447.08499  0.026108677  0.026107404            1 
 1428000    1.0225806   -7.5681951    446.63168   0.02606394  0.026100488            3 
 1429000     1.022878   -7.5282818    447.63184  0.026104026  0.026093655            2 
 1430000     1.007911   -7.5319055    448.58335  0.026141221  0.026087022            1 
 1431000    1.0027472   -7.5026344    449.04312  0.026149727  0.026080413            2 
 1432000    1.0285276   -7.5373317     449.0025  0.026129103  0.026073789            1 
 1433000    1.0100841   -7.5212706    447.20681  0.026006444  0.026066963            1 
 1434000    1.0178179   -7.5625768    447.75692  0.026020277  0.026060009            3 
 1435000    1.0309784   -7.5373457    448.98206   0.02607329   0.02605301            3 
 1436000    1.0191035   -7.5251947     447.6448   0.02597753   0.02604611            3 
 1437000    1.0266986   -7.5463987    448.51387  0.026009851  0.026039007            2 
 1438000    1.0163977   -7.5741084    448.38741  0.025984435  0.026032048            2 
 1439000    1.0467845   -7.5727811    449.12308  0.026008981  0.026024965            4 
 1440000    1.0313919   -7.5638106      449.127  0.025991146  0.026017925            1 
 1441000    1.0462872   -7.5178244     449.1717  0.025975694  0.026010937            2 
 1442000    1.0106093   -7.5627313    449.27099  0.025963418  0.026003905            1 
 1443000    1.0537322   -7.5565681    448.51094  0.025901533  0.025996898            1 
 1444000    1.0268241   -7.5591331    448.72552  0.025895979  0.025989862            1 
 1445000    1.0289994   -7.5710891    449.52926   0.02592441  0.025982767            1 
 1446000    1.0175589   -7.5393244    450.60998  0.025968763  0.025975756            2 
 1447000    1.0187831   -7.5068346     451.0197  0.025974412   0.02596874            1 
 1448000    1.0182221   -7.5500313     449.0742  0.025844509  0.025961698            2 
 1449000    1.0143468   -7.5865431    450.89227  0.025931232  0.025954695            4 
 1450000    1.0197923   -7.5660301     450.1348  0.025869816  0.025947506            1 
 1451000    1.0215244   -7.5762838    449.73995   0.02582931  0.025940283            2 
 1452000    1.0036074   -7.5437776    452.03276   0.02594311  0.025933245            3 
 1453000    1.0203014   -7.4994959    451.37616  0.025887598   0.02592639            2 
 1454000    1.0177102   -7.5403684    451.01083  0.025848856  0.025919315            1 
 1455000     1.024719   -7.5519569    451.10581   0.02583653  0.025912182            4 
 1456000    1.0165966   -7.5310991     452.3993  0.025892817  0.025905057            1 
 1457000    1.0067309    -7.559782    452.36379  0.025873015  0.025897868            1 
 1458000    1.0048132   -7.5682859    451.95963  0.025832169  0.025890725            1 
 1459000     1.016396    -7.516468    451.62656   0.02579544  0.025883639            2 
 1460000    1.0283867   -7.5599731    451.65503  0.025779397  0.025876596            1 
 1461000    1.0109139     -7.54379    452.70323  0.025821539  0.025869419            1 
 1462000     1.020326    -7.565426    451.58098   0.02573991  0.025862086            3 
 1463000    1.0037102   -7.5648782    452.27961   0.02576211   0.02585486            1 
 1464000    1.0192205    -7.548361    452.50043  0.025757083  0.025847764            2 
 1465000     1.035414   -7.5774378    452.54274  0.025741908  0.025840598            1 
 1466000    1.0138025   -7.5931326    453.30864  0.025767886  0.025833452            1 
 1467000    1.0109042   -7.5471965    451.67022  0.025657249  0.025826283            3 
 1468000    1.0421167   -7.5872107    452.72217  0.025699487  0.025819133            3 
 1469000    1.0169916     -7.58994    453.16216  0.025706953  0.025811982            2 
 1470000    1.0162136   -7.5754296    454.81919  0.025783401  0.025805029            3 
 1471000    1.0192968   -7.6031877    452.59406  0.025639818  0.025797931            2 
 1472000    1.0208272   -7.5606611    455.97749  0.025813943  0.025790906            1 
 1473000    1.0044173   -7.5459285    454.30396   0.02570174  0.025783784            2 
 1474000     1.027071   -7.6065364    454.61501  0.025701889  0.025776669            1 
 1475000    1.0085695   -7.5468597    454.64439  0.025686124  0.025769546            4 
 1476000    1.0230502   -7.5436395    455.48765  0.025716331  0.025762467            1 
 1477000    1.0095183   -7.5841232    455.49934  0.025699579  0.025755356            2 
 1478000    1.0074455    -7.550939     455.1486  0.025662415  0.025748152            2 
 1479000     1.007511   -7.5884713    455.19251  0.025647538   0.02574094            4 
 1480000    1.0015347   -7.5341178    457.46414  0.025758116  0.025733732            1 
 1481000    1.0253155   -7.5866666     455.4827  0.025629231  0.025726602            3 
 1482000     1.019155   -7.5842575    454.82678  0.025575055  0.025719307            2 
 1483000    1.0026463   -7.5621608    456.28244  0.025639606  0.025712146            2 
 1484000    1.0355842   -7.5779683    455.60262  0.025584154  0.025704933            1 
 1485000    1.0209162   -7.5885373    456.95904  0.025643044  0.025697635            2 
 1486000    1.0287569   -7.6251554    455.60875  0.025550064   0.02569038            1 
 1487000    1.0059715   -7.5727984    457.58725   0.02564376  0.025683183            3 
 1488000     1.047119   -7.5765896     456.6064  0.025571595  0.025676027            2 
 1489000    1.0095591   -7.5652267    456.79797  0.025565143  0.025668691            1 
 1490000   0.98706716   -7.6084666    456.07094  0.025507323  0.025661433            3 
 1491000    1.0271356   -7.5317798    458.97509  0.025652531  0.025654259            1 
 1492000    1.0418834   -7.6039346    456.37002  0.025489836  0.025647018            3 
 1493000    1.0177131   -7.5931257    456.54488  0.025482523  0.025639705            2 
 1494000    1.0047421    -7.567854    457.94518  0.025543573   0.02563243            2 
 1495000   0.99078656   -7.5645529    457.79214  0.025517956  0.025625105            3 
 1496000    1.0406902   -7.5471581    459.17995  0.025578205  0.025617883            3 
 1497000    1.0224367     -7.58969    457.81363  0.025485061  0.025610587            3 
 1498000   0.99379347   -7.5704891    458.83887  0.025525082  0.025603322            1 
 1499000    1.0080503   -7.5497781    460.42319   0.02559613  0.025596111            1 
 1500000    1.0274432   -7.5321674    461.43749  0.025635416  0.025589053            1 
 1501000    1.0044521   -7.5414524    460.25283  0.025552567  0.025581876            5 
 1502000    1.0270748   -7.5947086    459.41885  0.025489284  0.025574755            1 
 1503000    1.0286567   -7.6071678    458.46333  0.025419346  0.025567476            2 
 1504000    1.0037807   -7.5812768    459.47332  0.025458406  0.025560277            1 
 1505000   0.98845839   -7.6026666    459.66948  0.025452352  0.025553112            1 
 1506000   0.98620409   -7.5997154    461.06239  0.025512527  0.025545877            2 
 1507000     1.018294   -7.5634824    462.26297  0.025561987  0.025538748            1 
 1508000    1.0140806   -7.5669469    460.37668  0.025440798  0.025531663            1 
 1509000    1.0107221   -7.6138805    460.03565  0.025405106   0.02552445            2 
 1510000    1.0052443   -7.5473548    461.80656  0.025486013  0.025517235            1 
 1511000    1.0348581   -7.5774799    460.74367  0.025410526  0.025509946            3 
 1512000    1.0174594   -7.5824103    461.75796  0.025449623   0.02550264            2 
 1513000    0.9974859   -7.6193679    462.03213  0.025447903   0.02549539            1 
 1514000    1.0045659    -7.587635    461.95354  0.025426769  0.025488135            1 
 1515000    0.9934677   -7.5906985    461.76245  0.025399474  0.025480908            2 
 1516000    1.0086007   -7.5686211    463.08821  0.025455596   0.02547372            2 
 1517000   0.99099915   -7.6041171    460.89793  0.025318498  0.025466507            1 
 1518000    1.0008457   -7.5587801    463.15937  0.025425964   0.02545936            2 
 1519000    1.0036712   -7.5424217    461.96453  0.025343676  0.025452183            1 
 1520000    1.0078349   -7.5583136    461.56881  0.025305308  0.025444885            1 
 1521000   0.99769747     -7.57968    462.39097  0.025333715  0.025437594            1 
 1522000    1.0003025   -7.5917505    462.54447  0.025325475  0.025430196            1 
 1523000    1.0075674   -7.5816459    462.47959  0.025305296  0.025422919            2 
 1524000     1.025038   -7.5680282    462.96889  0.025315447  0.025415587            4 
 1525000    1.0125318   -7.5601693    463.20733  0.025311876  0.025408314            3 
 1526000    1.0067039    -7.586173    463.62412  0.025318049  0.025400972            3 
 1527000    1.0143038    -7.590216    463.57175  0.025298611  0.025393762            2 
 1528000   0.99542292     -7.57767    464.62671  0.025339589   0.02538656            4 
 1529000    1.0156667    -7.534688    465.29901  0.025359658  0.025379462            5 
 1530000    1.0037524   -7.5878563    464.81252  0.025316586  0.025372358            2 
 1531000    1.0069641   -7.5993513    464.70546  0.025294222  0.025365152            2 
 1532000    1.0033454   -7.6098612    464.94783  0.025290896  0.025357997            2 
 1533000    1.0029158   -7.5734251    466.63424  0.025366071  0.025350902            3 
 1534000    1.0312184   -7.6062634    465.86144  0.025307553  0.025343902            2 
 1535000    1.0214696   -7.5604066    466.54952  0.025328421  0.025336794            2 
 1536000    1.0238053   -7.5884308    465.64315  0.025262758  0.025329706            2 
 1537000     1.013182   -7.5739503    466.34596  0.025284426  0.025322704            3 
 1538000   0.97333912   -7.5865855    465.79446  0.025238105  0.025315663            3 
 1539000    1.0171602   -7.5999609    466.73698  0.025272741  0.025308585            3 
 1540000    1.0076533   -7.6056383    465.83798  0.025207683  0.025301455            2 
 1541000     1.008533   -7.6101066     467.7894  0.025296853   0.02529442            3 
 1542000   0.98927545   -7.5920093    467.31851     0.025255  0.025287469            1 
 1543000    1.0245215   -7.6105895    468.18707  0.025285541  0.025280365            2 
 1544000    1.0206406   -7.5810039    466.65177    0.0251863  0.025273249            2 
 1545000    1.0026887   -7.6158226    467.18788  0.025198915  0.025266187            6 
 1546000   0.99447483   -7.5817487    467.52026  0.025200531  0.025259194            2 
 1547000    1.0090838   -7.5832417    468.29836  0.025226156  0.025252042            4 
 1548000   0.98930479   -7.5857369    468.38808   0.02521469  0.025244919       -1e+20 
 1549000    1.0129841   -7.6108971    467.28727   0.02513919  0.025237794            1 
 1550000    1.0156764   -7.6322248    468.02041  0.025162388  0.025230724            1 
 1551000    1.0012246   -7.5731927    469.97159  0.025250999  0.025223604            4 
 1552000    1.0234317    -7.572294    468.45063  0.025153062  0.025216555            1 
 1553000    1.0187128   -7.5482781    470.40947  0.025241976  0.025209676            1 
 1554000    1.0024984   -7.5786704     470.6072  0.025236336   0.02520277            2 
 1555000    1.0096789   -7.5795846    469.14837  0.025141927  0.025195791            1 
 1556000   0.98764607    -7.582236    470.20268  0.025182234  0.025188757            4 
 1557000    1.0206216   -7.5921008    470.99475  0.025208454  0.025181826            2 
 1558000    1.0085516   -7.6534806    469.04796  0.025088145  0.025174735            2 
 1559000     1.000258   -7.5957285    470.65546  0.025157979  0.025167721            3 
 1560000   0.98303972   -7.5737912    470.90182  0.025155012  0.025160777            3 
 1561000    1.0219771   -7.6182737    468.09727  0.024989178  0.025153773            1 
 1562000    1.0159159   -7.5772728    471.81782  0.025171672  0.025146805            1 
 1563000    1.0043252   -7.5620598    472.51501  0.025192739  0.025140008            4 
 1564000    1.0002149   -7.5945253    472.05801  0.025152281  0.025133208            1 
 1565000    1.0025841   -7.6149895    471.70841  0.025117594  0.025126386            4 
 1566000    1.0026368   -7.6141053    472.73121  0.025155982  0.025119502            2 
 1567000    1.0260712   -7.6047672    472.43791  0.025124331  0.025112553            2 
 1568000    1.0106687   -7.5570098    473.46864  0.025163087  0.025105732            3 
 1569000   0.99422536   -7.6041738    472.28639  0.025084257  0.025098997            4 
 1570000    1.0130257   -7.5734274    472.68559  0.025089468  0.025092063            2 
 1571000    1.0012224   -7.5936548    473.82862   0.02513413  0.025085173            3 
 1572000   0.99165076   -7.5904647    473.20679  0.025085177    0.0250783            3 
 1573000   0.99107788   -7.6300518    473.44691  0.025081951  0.025071371            2 
 1574000    1.0050869   -7.6023681    473.04251  0.025044605  0.025064511            1 
 1575000   0.99875044   -7.5866326    473.78507  0.025067993  0.025057676            1 
 1576000    1.0041263   -7.6239648    472.89464  0.025005004  0.025050579            3 
 1577000      1.01085   -7.5950446    475.30242  0.025116382  0.025043638            1 
 1578000   0.97931797   -7.5755611    473.01913  0.024979886  0.025036604            2 
 1579000   0.99958447   -7.5985389    474.14567   0.02502352  0.025029618            2 
 1580000    1.0214901   -7.5921503    473.21163  0.024958419  0.025022547            4 
 1581000    0.9878328   -7.6308476    473.96897  0.024982552  0.025015411            2 
 1582000    1.0107482   -7.6177574    472.79979  0.024905172  0.025008237            2 
 1583000   0.98805123   -7.6080994    473.43908  0.024923093  0.025000969            2 
 1584000   0.98782571   -7.6175669    473.04231  0.024886485  0.024993797            2 
 1585000   0.98980223   -7.6366462    472.84641  0.024860484   0.02498659            2 
 1586000    1.0008861   -7.6138842    473.51886  0.024880142  0.024979345            2 
 1587000   0.99321664   -7.6100144    473.09331  0.024842119  0.024972027            1 
 1588000   0.99911987   -7.6329103    472.71677  0.024806715  0.024964697            3 
 1589000    1.0117426    -7.606808    472.28025  0.024768211  0.024957372            1 
 1590000   0.99407341   -7.6279695     473.6337  0.024823569  0.024949976            2 
 1591000    1.0149897   -7.6127444    473.51468  0.024801733  0.024942533            1 
 1592000   0.98835843   -7.6186706     473.1046  0.024764688  0.024935064            2 
 1593000     1.001479   -7.6000069    473.23996  0.024756223  0.024927626            2 
 1594000   0.97914982   -7.5955363    474.11982  0.024786691   0.02492031            1 
 1595000    0.9978779   -7.6591474    473.06392  0.024715984  0.024912909            1 
 1596000    1.0080933   -7.6270118    473.38454  0.024717238  0.024905384            4 
 1597000   0.98948838   -7.5924377    473.86937   0.02472706  0.024897931            2 
 1598000   0.97647901   -7.6258233    474.36156  0.024737253  0.024890606            3 
 1599000   0.99901989   -7.6064514    475.31993  0.024771729  0.024883252            2 
 1600000     1.010429   -7.5972806    475.41702  0.024761303  0.024875798            1 
 1601000    1.0068515   -7.5977098    475.98857  0.024775587  0.024868473            2 
 1602000    0.9897742   -7.6343948    476.32777  0.024777766  0.024861111            5 
 1603000   0.99129868   -7.6122022    476.22278   0.02475685  0.024853892            1 
 1604000   0.98611683   -7.6200149    475.68552  0.024713504  0.024846554            2 
 1605000   0.99801513   -7.6049772     476.8733  0.024759777  0.024839178            2 
 1606000    1.0065469   -7.6240061    475.32228  0.024663879  0.024831749            2 
 1607000    0.9907174   -7.6277366    475.39712  0.024652412  0.024824225            4 
 1608000   0.97918539   -7.5981925    475.97317  0.024666935  0.024816712            5 
 1609000   0.99030245    -7.618891    474.98675  0.024600516  0.024809265            2 
 1610000   0.99677875   -7.6123096    476.60352  0.024668919  0.024801772            5 
 1611000    1.0200342   -7.6551357    475.93257    0.0246189  0.024794287            2 
 1612000   0.99540455   -7.6484775    476.32916  0.024624129    0.0247868            2 
 1613000   0.99978494   -7.5987971    477.79887  0.024684794  0.024779375            1 
 1614000   0.98179669   -7.6554029      477.292  0.024643329  0.024771995            5 
 1615000   0.99516932   -7.6008341    477.43961  0.024635687  0.024764573            2 
 1616000   0.98395821   -7.6367619    477.12472  0.024604204  0.024757125            3 
 1617000    1.0031245   -7.5965352    479.26192   0.02469913  0.024749779            3 
 1618000    1.0054862   -7.6126024    479.86877   0.02471512  0.024742453            3 
 1619000     1.002034   -7.6186441    476.62994  0.024533145  0.024735059            1 
 1620000    1.0143351   -7.6339247    477.78944  0.024577646  0.024727799            2 
 1621000    1.0032779   -7.6029483    478.77425  0.024613112  0.024720555            2 
 1622000   0.98319196   -7.6157817    479.59394  0.024640051  0.024713183            3 
 1623000   0.97015209   -7.6263258    478.49217  0.024568298  0.024705971            3 
 1624000   0.99780832   -7.6466658     480.0708  0.024634175  0.024698588            3 
 1625000   0.95767193   -7.6321253    479.10438  0.024569455  0.024691263            1 
 1626000   0.98305348   -7.6415981    479.06048  0.024552095  0.024683871            3 
 1627000   0.99896574   -7.6343482    480.07637  0.024589037  0.024676516            1 
 1628000   0.96742871   -7.6262713    480.36667  0.024588793  0.024669225            5 
 1629000   0.99270388   -7.6146992    480.63231  0.024587288  0.024661914            1 
 1630000    1.0071571   -7.6356427    480.23874  0.024552083  0.024654681            3 
 1631000   0.97874393   -7.6462112    480.65634  0.024558366   0.02464744            2 
 1632000   0.99396333   -7.6363482    481.15603  0.024568833  0.024640223            4 
 1633000   0.99015514     -7.63762    479.65318  0.024477096  0.024632944            1 
 1634000   0.96915742   -7.6686614    480.58931  0.024509859   0.02462554            2 
 1635000   0.98405765   -7.6214599    481.00396  0.024516002  0.024618174            1 
 1636000   0.99772506   -7.6409214    481.05273  0.024503501  0.024610805            2 
 1637000    1.0043098   -7.6441473    481.36088  0.024504219  0.024603502            5 
 1638000    0.9944649    -7.609488     481.9633  0.024519908  0.024596226            2 
 1639000     0.998981   -7.6301672    481.18056  0.024465149  0.024589072            1 
 1640000   0.99673355   -7.6476168    481.77729  0.024480553  0.024581852            2 
 1641000   0.99128469   -7.6516336    481.46306  0.024449678  0.024574622            2 
 1642000   0.99328308   -7.6109055    482.05884  0.024465024  0.024567372            2 
 1643000   0.99364081   -7.6119693    482.40124  0.024467501  0.024560112            2 
 1644000    1.0032198   -7.6463001     482.1645  0.024440617  0.024552964            2 
 1645000   0.98918245   -7.6350427    484.45443  0.024541764  0.024545788            3 
 1646000    1.0003139   -7.6026881    484.41332  0.024524773  0.024538614            1 
 1647000   0.99815367   -7.6313023    483.92062  0.024484954  0.024531551            3 
 1648000   0.97963118   -7.6488897    483.78746  0.024463363  0.024524425            1 
 1649000    1.0021053   -7.6225581    484.73997  0.024496663  0.024517305            3 
 1650000    1.0003937   -7.6416956    486.07744  0.024549366  0.024510176            2 
 1651000    0.9901085   -7.6176936    484.25318  0.024442418  0.024503044            3 
 1652000   0.98979938   -7.6132127    485.70912  0.024501065  0.024495936            1 
 1653000   0.99382686    -7.604927    485.87884  0.024494799  0.024488777            1 
 1654000   0.98175011   -7.6356624    483.64459  0.024367422  0.024481628            1 
 1655000    1.0025216   -7.6204326     485.2139  0.024431717  0.024474497            1 
 1656000    0.9910952   -7.6334198    486.28562  0.024470895  0.024467356            3 
 1657000    0.9838634   -7.6239795     488.0011  0.024542401  0.024460316            3 
 1658000   0.99420395   -7.6419468    485.38432  0.024396075  0.024453211            4 
 1659000   0.98484102   -7.6383409    487.05395  0.024465237  0.024446141            1 
 1660000    0.9754543   -7.6264148    486.84747  0.024440134   0.02443917            3 
 1661000   0.99495747    -7.632189    487.36196  0.024451232  0.024432239            2 
 1662000   0.98906875   -7.6427952    487.14236  0.024425509  0.024425349            1 
 1663000   0.99830737   -7.6154046    488.87622  0.024497706  0.024418461            3 
 1664000   0.99047136   -7.5974945    487.82197  0.024430187  0.024411612            3 
 1665000   0.97035605   -7.6602257    487.93913  0.024421378  0.024404694            1 
 1666000   0.97470171   -7.6421184    487.60762  0.024390137  0.024397769            1 
 1667000   0.99881866   -7.6646751     488.5273  0.024421481  0.024390792            3 
 1668000   0.99508604   -7.6207008    489.88922  0.024474881  0.024383918            1 
 1669000    1.0006036   -7.6035741    488.24344  0.024378043  0.024377028            3 
 1670000    0.9807581   -7.6198671    488.78727  0.024390582  0.024370224            2 
 1671000   0.96882994   -7.6347203    488.35443    0.0243544   0.02436331            2 
 1672000   0.98763576   -7.6080432    489.59065  0.024401448  0.024356411            1 
 1673000   0.95697269   -7.6371466    487.53891  0.024284664  0.024349572            2 
 1674000   0.98149523   -7.6305232    489.45565  0.024365574  0.024342601            1 
 1675000   0.98778901    -7.637811    488.91058  0.024323909  0.024335686            1 
 1676000    1.0114393   -7.6298898    489.82851  0.024355037  0.024328829            5 
 1677000   0.98012754   -7.6162273    489.97558  0.024347822  0.024321922            2 
 1678000    1.0092483   -7.6177825    490.79509  0.024374011  0.024315076            3 
 1679000   0.98685248   -7.6388632    489.18488  0.024279575    0.0243082            1 
 1680000   0.97308402   -7.6560609    489.08203  0.024260021  0.024301233            1 
 1681000    1.0058151    -7.670235     488.9498  0.024239034  0.024294148            1 
 1682000   0.97420845   -7.6450974    489.38918  0.024246392  0.024287046            3 
 1683000   0.97865977   -7.6418305    490.37769  0.024280931  0.024280024            1 
 1684000   0.99220476   -7.6451501    490.23968  0.024259683  0.024273096            1 
 1685000   0.96280109   -7.6111647    490.72251  0.024269165  0.024266183            1 
 1686000   0.98426967   -7.6613806    490.49096  0.024243325  0.024259214            2 
 1687000   0.98091474   -7.6674097     490.6757   0.02423808  0.024252298            1 
 1688000   0.96368952     -7.68025    489.82984  0.024181963  0.024245345            3 
 1689000   0.98782287    -7.688322     490.2012  0.024185968    0.0242383            3 
 1690000   0.97511847   -7.6635666    491.33534  0.024227581  0.024231234            3 
 1691000   0.96643078   -7.6024021    491.30192  0.024211606  0.024224241            1 
 1692000   0.98461639   -7.6263429    491.53882  0.024208965  0.024217307            1 
 1693000   0.97207081   -7.6421785    491.27013   0.02418144  0.024210307            2 
 1694000   0.95982698   -7.7097541    491.09428  0.024158514  0.024203298            2 
 1695000    1.0011995   -7.6861736     491.4629  0.024162384  0.024196239            1 
 1696000   0.95741489   -7.6586596    492.86637  0.024217097  0.024189165            1 
 1697000   0.97529799   -7.6622009    492.88283  0.024203635  0.024182155            1 
 1698000   0.96041822   -7.6773996    492.56893  0.024173976   0.02417519            1 
 1699000    1.0016502   -7.6110142    494.26722  0.024243046  0.024168272            2 
 1700000   0.97199683   -7.6576715    492.85439  0.024159529  0.024161342            1 
 1701000   0.97267223   -7.6509533    492.49076  0.024127511  0.024154284            3 
 1702000   0.97772914   -7.6440824    492.63141  0.024120222  0.024147356            2 
 1703000   0.98507659    -7.662797    491.66398  0.024058719  0.024140357            1 
 1704000   0.97182995   -7.6381066     495.0447  0.024209932    0.0241334            3 
 1705000   0.94907756   -7.6775684    493.04158  0.024097829  0.024126471            2 
 1706000   0.96646488   -7.6740108    494.15399  0.024138042  0.024119511            1 
 1707000   0.98872044   -7.6541307    493.88971  0.024110999  0.024112602            1 
 1708000   0.99240911   -7.6765589    494.30376  0.024117084  0.024105704            2 
 1709000   0.99165948   -7.6462332    495.62459  0.024167378  0.024098795            2 
 1710000   0.94469794   -7.6801035    493.09662   0.02403005  0.024091843            2 
 1711000   0.98895746   -7.6382646    494.90159  0.024103916  0.024084856            3 
 1712000   0.97748945   -7.6465227    494.88791   0.02408917  0.024077854            1 
 1713000   0.97429581   -7.6312062    494.23927  0.024043553  0.024070917            2 
 1714000    1.0048414   -7.6497531    497.63289   0.02419452  0.024064063            1 
 1715000   0.96435054   -7.6547899    496.68522  0.024134365  0.024057245            1 
 1716000   0.97627308   -7.6758785    496.38652  0.024105794  0.024050424            2 
 1717000   0.97052358     -7.67775    495.08827  0.024028745  0.024043517            2 
 1718000   0.99223938   -7.6553489    495.26408  0.024023287  0.024036574            2 
 1719000   0.97225269   -7.6706137    495.81722  0.024036127  0.024029546            3 
 1720000   0.98848767   -7.6791675    495.87088  0.024024752  0.024022536            2 
 1721000   0.96542399   -7.6318618    495.64579  0.023999893   0.02401561            2 
 1722000   0.96412512   -7.6485896    497.17008  0.024059721  0.024008698            3 
 1723000   0.96369048   -7.6579454    497.45299   0.02405944  0.024001846            1 
 1724000   0.96889739   -7.6591186    496.91028  0.024019252  0.023994875            3 
 1725000   0.98257017   -7.6536971    497.17276  0.024018008  0.023987923            1 
 1726000   0.95128309   -7.6551823    497.52303  0.024021004  0.023980962            2 
 1727000   0.97449421   -7.6397307    496.57846  0.023961516   0.02397397            2 
 1728000   0.97231131   -7.6716282    496.55486  0.023946511  0.023966892            2 
 1729000   0.99223776   -7.6728313    496.98522  0.023953404  0.023959819            4 
 1730000   0.98704661   -7.6676733    497.01792  0.023941133  0.023952866            2 
 1731000   0.97340629   -7.6577934    497.50651  0.023950824  0.023945969            5 
 1732000   0.97444766   -7.6831004     498.2854  0.023974471  0.023939062            1 
 1733000   0.97388405   -7.6729199    497.99407  0.023946628  0.023932139            4 
 1734000   0.98382487   -7.6968702     496.4816  0.023860131  0.023925148            3 
 1735000   0.98625263   -7.6556791    498.66024   0.02395102   0.02391812            2 
 1736000   0.96706985   -7.6998104    496.49444  0.023833258   0.02391112            3 
 1737000   0.97041877   -7.6445007     499.3975  0.023958813  0.023904193            1 
 1738000   0.99244095    -7.658269    498.01331  0.023878659  0.023897305            2 
 1739000   0.94857045   -7.6832241    499.05341   0.02391477    0.0238904            1 
 1740000   0.98462912   -7.6695588    499.26375  0.023911099  0.023883589            2 
 1741000   0.96097671   -7.6675706    498.39063  0.023855573  0.023876718            2 
 1742000   0.97376342   -7.6416581    500.98536  0.023966004  0.023869769            2 
 1743000   0.95031163   -7.6561234    499.66735   0.02388924   0.02386297            1 
 1744000   0.99357403   -7.6614669    500.16014  0.023899089  0.023856153            1 
 1745000   0.97697819    -7.668616    499.75762  0.023866171  0.023849305            5 
 1746000   0.97790619   -7.6830356    499.36532  0.023833778  0.023842499            2 
 1747000   0.96373172   -7.6792866    500.56296  0.023877264  0.023835641            3 
 1748000   0.95699004   -7.6532342    501.49658  0.023908113  0.023828729            1 
 1749000   0.97202953   -7.6718646    500.83488  0.023862916  0.023821868            2 
 1750000    0.9858863   -7.6775322    503.15571  0.023959796  0.023815022            2 
 1751000   0.99122062   -7.6346073    502.49302  0.023914573  0.023808273            2 
 1752000   0.96108209   -7.6723488     500.5227  0.023807206  0.023801527            1 
 1753000   0.94873911   -7.6595117     502.8769  0.023905538  0.023794743            2 
 1754000   0.97105104   -7.6786936    502.18718   0.02385914  0.023788065            2 
 1755000   0.96855758   -7.6650105    501.96612  0.023835048  0.023781225            1 
 1756000   0.95822963   -7.6792716     502.5099  0.023847281  0.023774412            2 
 1757000   0.94555892   -7.6946455    502.35256  0.023826246  0.023767631            2 
 1758000    0.9857495   -7.6532066    501.10854  0.023753723  0.023760842            2 
 1759000   0.98693532   -7.6562328    503.23922  0.023841161  0.023754067            1 
 1760000   0.96547125   -7.6776091    502.97809  0.023815251  0.023747378            2 
 1761000   0.97672493   -7.6572373     502.9446  0.023800142  0.023740623            2 
 1762000   0.96224914   -7.6720659     502.2294  0.023752809  0.023733943            4 
 1763000   0.95782397   -7.7141889      503.638  0.023805918  0.023727079            2 
 1764000   0.95901355   -7.6647705    503.49767  0.023785793  0.023720295       -1e+20 
 1765000     0.964065   -7.6733831    503.40599  0.023767988  0.023713459            4 
 1766000   0.95898558   -7.6928971    503.12656  0.023741344  0.023706657            1 
 1767000   0.97481259   -7.6493947    505.00276  0.023816391  0.023699944            3 
 1768000   0.97386418   -7.6529601    504.37009    0.0237731  0.023693385            2 
 1769000   0.97024151     -7.70333    503.94685  0.023739723  0.023686706            2 
 1770000   0.98989107   -7.6410377     505.9875  0.023822387  0.023680087            1 
 1771000   0.98425306   -7.6703328    505.73667  0.023797133  0.023673381            2 
 1772000   0.98404982   -7.6802751    504.91324  0.023744979  0.023666718            3 
 1773000   0.98694568    -7.724324    504.53752  0.023713927  0.023660062            2 
 1774000   0.95719655   -7.6714193    506.55717  0.023795433  0.023653375            1 
 1775000   0.96789401    -7.725588    505.68479   0.02374107  0.023646695            1 
 1776000    0.9865568   -7.6980966    506.63053  0.023772078  0.023640068            3 
 1777000   0.98524363   -7.6658046    506.24327   0.02374054  0.023633481            2 
 1778000   0.97965359   -7.6986659    506.53872  0.023741035  0.023626829            1 
 1779000   0.98205393   -7.6881209    505.90018  0.023697779  0.023620122            3 
 1780000   0.96982335   -7.7048836    505.21672  0.023652468  0.023613421            3 
 1781000   0.99935738   -7.6364351    508.35302  0.023785936  0.023606732            1 
 1782000    0.9822245   -7.7150962    506.05238  0.023665001  0.023600044            1 
 1783000   0.95814247   -7.6990275    506.93212  0.023692845  0.023593377            2 
 1784000   0.98662824   -7.6764797    507.43131  0.023702883  0.023586716            1 
 1785000   0.96240982   -7.6784026    506.95383  0.023667312  0.023580071            1 
 1786000   0.95281735   -7.6934328    506.83379   0.02364846  0.023573406            4 
 1787000    0.9781217   -7.6970428    507.66568   0.02367402  0.023566615            3 
 1788000   0.95794964   -7.7026222    506.13339  0.023589364  0.023559829            2 
 1789000   0.96285383   -7.7103278    507.09078  0.023620774  0.023553092            2 
 1790000   0.96326173   -7.6833788    508.02562    0.0236511  0.023546327            2 
 1791000   0.95994642   -7.7165052    505.76704  0.023532805   0.02353958            2 
 1792000   0.95782547   -7.6829984    507.02462  0.023578154  0.023532682            2 
 1793000   0.98369418   -7.6952894    506.91312  0.023559822  0.023525924            2 
 1794000   0.94544482   -7.7081051    507.96893  0.023595733   0.02351913            1 
 1795000   0.98379714    -7.687388    507.81309  0.023575352  0.023512313            4 
 1796000   0.94964982   -7.6904589     507.9972  0.023570768  0.023505521            2 
 1797000   0.97835917   -7.6957753    507.97129   0.02355645   0.02349877            2 
 1798000   0.93523848   -7.6825041    508.65116  0.023574859  0.023491951            1 
 1799000   0.95958065   -7.7237117    507.02189  0.023486283  0.023485052            1 
 1800000   0.96740071   -7.6655849    509.06755  0.023567942  0.023478176            3 
 1801000   0.97215612   -7.6952763    506.65318  0.023443142  0.023471359            1 
 1802000   0.94695594   -7.7064197    507.47431  0.023468105  0.023464406            3 
 1803000    0.9661539    -7.737159    506.80786  0.023424287  0.023457479            1 
 1804000   0.95939879   -7.7076831    508.20968  0.023476057  0.023450571            2 
 1805000   0.96988546   -7.7422881    508.18957  0.023462122  0.023443669            2 
 1806000   0.96690023   -7.7115222    508.11839  0.023445847  0.023436776            1 
 1807000    0.9567769   -7.6795736    509.35476  0.023489889  0.023429866            1 
 1808000   0.95478901   -7.6528971    509.90641  0.023502323  0.023423097            1 
 1809000   0.97433838   -7.7213764    508.76201  0.023436614   0.02341625            2 
 1810000   0.98695552    -7.693144    509.39544  0.023452829  0.023409443            2 
 1811000   0.97003673   -7.7064106    509.62475   0.02345043  0.023402606            1 
 1812000    0.9874269   -7.7270677    508.90031  0.023404172  0.023395771            2 
 1813000   0.92481575   -7.7266043    509.97622  0.023440716  0.023388949            2 
 1814000   0.96872952   -7.7051043    509.17624  0.023391044  0.023382173            2 
 1815000   0.95685012   -7.7399309    508.53883   0.02334889  0.023375291            2 
 1816000   0.95246439   -7.7187637    510.43396  0.023422997  0.023368399            3 
 1817000   0.95803971   -7.6672269    511.08572  0.023439998  0.023361557            2 
 1818000   0.97270195   -7.7165539    510.98772  0.023422613  0.023354688            1 
 1819000   0.96314417   -7.6828993    510.99682  0.023410153  0.023347873            1 
 1820000   0.94406441   -7.7111289    509.16347  0.023313346  0.023340991            1 
 1821000   0.95432105    -7.696602    510.39653  0.023356971  0.023334127            2 
 1822000   0.96160735   -7.7036985    510.28004  0.023338824    0.0233272            3 
 1823000   0.98851207   -7.7263909    511.40076  0.023377252  0.023320266            2 
 1824000   0.93856579   -7.7072939    509.63389  0.023283712  0.023313339            4 
 1825000   0.97130855   -7.7408545    509.60734  0.023269742  0.023306364            1 
 1826000   0.97264706   -7.7040793     511.4056  0.023339065  0.023299482            2 
 1827000   0.95731238   -7.6922481    511.03832  0.023309538  0.023292607            3 
 1828000   0.95920992    -7.723521    511.73032  0.023328333   0.02328567            2 
 1829000   0.94203077   -7.7068521    512.64763  0.023357373  0.023278784            3 
 1830000   0.96954795    -7.701787    512.45109   0.02333566  0.023271941            1 
 1831000   0.96870686   -7.6932935    512.82697  0.023340022  0.023265132            4 
 1832000    0.9527254   -7.6940431    512.18987  0.023298302  0.023258302            1 
 1833000   0.95704532   -7.7068141    513.45713  0.023343205  0.023251459            1 
 1834000   0.96753554   -7.7211917    511.83232  0.023256649  0.023244503            2 
 1835000   0.97159208   -7.6900993    512.30682  0.023265523  0.023237687            2 
 1836000   0.96288711   -7.6770989    514.01836  0.023330535  0.023230853            1 
 1837000   0.95671298   -7.7039531    510.95522   0.02317888  0.023224053            3 
 1838000   0.96265278   -7.7193957    512.56024  0.023239039  0.023217185            1 
 1839000   0.96067099   -7.7101964    513.61086   0.02327401  0.023210378            3 
 1840000   0.93526619   -7.6983062    514.39476  0.023296864  0.023203565            8 
 1841000   0.96630797   -7.6956058    513.93536  0.023263415  0.023196798            2 
 1842000   0.96855108    -7.687073    513.55045  0.023233372  0.023189971            1 
 1843000   0.97961382    -7.666796    515.27397  0.023298697   0.02318329            3 
 1844000   0.95828767   -7.7216029    513.30051  0.023196878  0.023176528            6 
 1845000   0.96978635   -7.6954473    513.97818  0.023214913  0.023169813            1 
 1846000   0.95888131   -7.7250061    514.90272  0.023244074  0.023163112            1 
 1847000   0.95602877   -7.7167273    513.85282  0.023184119  0.023156232            2 
 1848000   0.96361349   -7.7361691    513.85318   0.02317159  0.023149393            2 
 1849000   0.96258264   -7.7341755    513.21032  0.023130085  0.023142583            2 
 1850000   0.97706377   -7.7084858    515.58727  0.023224652  0.023135858            2 
 1851000   0.96028731   -7.7183521    515.90726  0.023226511  0.023129104            5 
 1852000   0.97534092   -7.7191258    514.75122  0.023161952  0.023122298            3 
 1853000    0.9585822   -7.7046382    515.28617   0.02317351  0.023115527            1 
 1854000   0.94711287   -7.7134695    514.99193  0.023147785  0.023108759            2 
 1855000   0.93619525   -7.7032114    516.50809  0.023203418  0.023102052            1 
 1856000   0.95484691   -7.7031889    515.07494  0.023126569  0.023095302            5 
 1857000   0.95825569   -7.7049519    515.99471   0.02315539  0.023088514            3 
 1858000   0.93968846   -7.7095464    516.60883  0.023170472  0.023081769            2 
 1859000   0.94757498    -7.676032    517.53621  0.023199579  0.023074974            2 
 1860000   0.95794844    -7.645717    517.39547  0.023180801  0.023068231            3 
 1861000   0.92782835   -7.7298277    517.00936  0.023151055  0.023061552            1 
 1862000   0.94762219   -7.7696033    516.18828  0.023101874  0.023054868            3 
 1863000   0.95272073   -7.7347819    516.04497  0.023083064  0.023048196            1 
 1864000   0.95268983   -7.6805794    517.97146  0.023156807  0.023041536            2 
 1865000    0.9624169   -7.6894023    518.47293  0.023166798  0.023034882            2 
 1866000   0.95709005   -7.6852908    519.43631  0.023197406  0.023028265            5 
 1867000   0.96503133   -7.6866643    516.68809  0.023062314  0.023021633            1 
 1868000   0.97042355   -7.7040965    517.92047  0.023104946  0.023014942            4 
 1869000    0.9543647   -7.7296375    518.84086  0.023133621  0.023008256            2 
 1870000   0.95264195   -7.6942157    519.72697  0.023160738  0.023001678            2 
 1871000   0.95930082    -7.675298     520.1406  0.023166783   0.02299509            1 
 1872000   0.95031323   -7.6926998    518.55844  0.023083976  0.022988495            4 
 1873000    0.9673978   -7.6970695    519.66478  0.023120875  0.022981932            1 
 1874000   0.96215229   -7.7132166    517.94721   0.02303216  0.022975313            3 
 1875000    0.9638769   -7.7013649    517.58582  0.023003814  0.022968625            1 
 1876000   0.96506057    -7.727637    519.12356   0.02305986  0.022961904            2 
 1877000   0.96043719   -7.7369883    517.36713  0.022969594  0.022955153            4 
 1878000   0.95542971   -7.7319264    518.75437  0.023018919  0.022948369            1 
 1879000   0.95260521   -7.6816443    520.68867  0.023092455  0.022941645            3 
 1880000   0.97417316   -7.7110672    518.61603  0.022988299  0.022934896            3 
 1881000   0.95227287   -7.7255268    517.61185   0.02293159  0.022928074            2 
 1882000   0.93022203   -7.6927861    519.93752  0.023022384  0.022921252            3 
 1883000   0.94820213   -7.7339333    517.93934  0.022921727  0.022914399            4 
 1884000   0.91450651   -7.7618182    517.79154  0.022903023  0.022907525            3 
 1885000   0.94868971   -7.7384737    519.37776  0.022960997   0.02290062            4 
 1886000   0.94366585   -7.7499801    518.50908   0.02291044  0.022893752            4 
 1887000   0.95294463   -7.7302727    518.02078  0.022876735  0.022886923            3 
 1888000   0.93319555   -7.7293935    519.39484  0.022925266  0.022880084            2 
 1889000    0.9404287   -7.6982302    520.19542  0.022948448  0.022873179            2 
 1890000   0.95911158   -7.7538413    518.99016  0.022883164  0.022866379            1 
 1891000   0.94352889   -7.7312521    519.93587  0.022912739  0.022859513            3 
 1892000   0.94988653   -7.6969985    520.50535  0.022925711  0.022852656            1 
 1893000   0.94437407   -7.7297883    519.02792  0.022848561  0.022845776            2 
 1894000    0.9427785    -7.740036     518.7439  0.022824001  0.022838944            3 
 1895000   0.95920958   -7.7160763     521.3121  0.022924894  0.022832179            1 
 1896000    0.9610115   -7.7270794     520.6576  0.022884036  0.022825397            2 
 1897000    0.9606623   -7.7117873    520.62168  0.022870395  0.022818629            3 
 1898000    0.9304749   -7.7609141    519.86334   0.02282505  0.022811874            3 
 1899000   0.94036313   -7.7250913    520.48406   0.02284027  0.022805096            2 
 1900000   0.93926872   -7.7613811    520.66072  0.022835997  0.022798301            2 
 1901000   0.94491227   -7.7299758    520.94788  0.022836572  0.022791542            2 
 1902000   0.93411674   -7.7717669    520.60759  0.022809656  0.022784742            2 
 1903000   0.94850102   -7.7414399    521.26888  0.022826628  0.022777898            1 
 1904000    0.9282134   -7.7185783    521.91594  0.022842959  0.022771217            2 
 1905000   0.94535032   -7.7639843    521.46285  0.022811148  0.022764537            1 
 1906000   0.97623484   -7.7580811    520.81208  0.022770728  0.022757823            1 
 1907000   0.94369206   -7.7225216    522.07869  0.022814136  0.022751095            2 
 1908000   0.95578787   -7.7373387    521.85786  0.022792534  0.022744298            2 
 1909000   0.94476141   -7.6881873    522.90507  0.022826308  0.022737556            6 
 1910000   0.95297375   -7.7274275    523.95159  0.022860017  0.022730854            1 
 1911000   0.93936024   -7.6814781    524.12987  0.022855829  0.022724166            1 
 1912000   0.93675568   -7.7439454     523.9791  0.022837304  0.022717522            4 
 1913000   0.95332999   -7.7439577    522.75767  0.022772159    0.0227109            3 
 1914000   0.94275075   -7.7063241     523.7614  0.022803962   0.02270426            2 
 1915000   0.92803139   -7.7194991    524.43401  0.022821323  0.022697764            2 
 1916000   0.94413443   -7.7260935    524.58765  0.022816095  0.022691215            4 
 1917000   0.94709417   -7.7239635    525.44888  0.022841631  0.022684654            1 
 1918000   0.92845198   -7.7322435    523.42834  0.022741933  0.022678028            2 
 1919000   0.93054377   -7.6991583    524.19998  0.022763591  0.022671393            2 
 1920000   0.95080566   -7.6944704    525.79927  0.022821149  0.022664857            1 
 1921000   0.94901488   -7.7385961    524.64699  0.022759283  0.022658258            3 
 1922000   0.97718636   -7.7328099    524.98319  0.022762018  0.022651761            4 
 1923000   0.94817218   -7.7490613    524.80776  0.022742579  0.022645164            2 
 1924000   0.95208237   -7.7506478    525.37226  0.022755209  0.022638561            1 
 1925000   0.93305449   -7.7468047     524.8019  0.022718697  0.022631965            5 
 1926000   0.93661818   -7.7322943    525.67774  0.022744797  0.022625347            3 
 1927000   0.94521479   -7.7494825    525.69269   0.02273364  0.022618789            2 
 1928000   0.95209327   -7.7340235    526.94089  0.022775799  0.022612182            2 
 1929000    0.9408813   -7.7097188     526.3249  0.022737381  0.022605556            3 
 1930000   0.95045403   -7.7227023    525.95785  0.022709752  0.022598911            4 
 1931000   0.94408253   -7.7356382    527.38284  0.022759487  0.022592215            2 
 1932000   0.93166633   -7.7078272    526.30768  0.022701332  0.022585679            1 
 1933000   0.96151636   -7.7137595    526.38302  0.022692836  0.022579145            1 
 1934000   0.93148458   -7.6963947    527.71722  0.022738591  0.022572562            2 
 1935000   0.92677301   -7.7513323    526.09646   0.02265704  0.022566009            1 
 1936000   0.94015077   -7.7414093    526.00876  0.022641562  0.022559432            2 
 1937000   0.94578952   -7.7352253    526.05542   0.02263188  0.022552759            1 
 1938000   0.91096928   -7.7540348    527.24065  0.022671167  0.022546062            2 
 1939000   0.93601912   -7.7746505    528.20936  0.022701107  0.022539375            3 
 1940000   0.93106656   -7.7229914    526.96054  0.022635762  0.022532732            1 
 1941000   0.92612698   -7.7614879    525.45529  0.022559475  0.022526136            3 
 1942000   0.93056628   -7.7568367    526.48489   0.02259204  0.022519405            4 
 1943000   0.93113711    -7.750376    526.62139  0.022586266  0.022512694            4 
 1944000   0.93171814    -7.757046    527.06151  0.022593514  0.022505995            1 
 1945000   0.93349216   -7.7603445    528.34364  0.022636831  0.022499268            2 
 1946000   0.96388741     -7.76102    527.70938  0.022598038  0.022492622            2 
 1947000     0.936466   -7.7518833    528.30666  0.022611996  0.022485969            1 
 1948000   0.95435132   -7.7941143    527.92008   0.02258385  0.022479287            2 
 1949000   0.94463259   -7.7440314     528.9095  0.022614567  0.022472715            1 
 1950000   0.94465214   -7.7440762    527.90238  0.022559931  0.022466114            2 
 1951000   0.94434756   -7.7848121    527.43095  0.022528231  0.022459414            1 
 1952000   0.93387722   -7.7886226    527.01291  0.022498844  0.022452782            1 
 1953000   0.92423015   -7.7581069    529.12735  0.022577545  0.022446106            2 
 1954000   0.94522376   -7.7735756    528.35734  0.022533152  0.022439476            1 
 1955000    0.9349072   -7.7589887     528.2806  0.022518355  0.022432971            3 
 1956000   0.94574781   -7.7412867    528.66806   0.02252335  0.022426432            2 
 1957000   0.95263701   -7.7585428    528.36197  0.022498806  0.022419851            2 
 1958000   0.94146992   -7.7414522    528.90655  0.022510493  0.022413302            1 
 1959000   0.95951044   -7.7448596    529.70812    0.0225331  0.022406727            2 
 1960000   0.93945522   -7.7355187     528.5808  0.022473673  0.022400188            2 
 1961000   0.94393951   -7.7512125    530.12941  0.022528022  0.022393578            2 
 1962000   0.93994667   -7.7621777    530.43724  0.022529614  0.022387054            2 
 1963000   0.93151413   -7.7536564    528.68428  0.022443721   0.02238042            2 
 1964000   0.93135944   -7.7857488    528.77072  0.022435961  0.022373796            1 
 1965000   0.90943147   -7.7381079    528.64259  0.022419109  0.022367135            2 
 1966000   0.95824441   -7.7753446    529.61092   0.02244875  0.022360443            2 
 1967000   0.94863677   -7.7514908    530.71446   0.02248409  0.022353815            2 
 1968000   0.93690599   -7.7459185    530.42386   0.02246036  0.022347228            1 
 1969000    0.9272539   -7.7825291    529.90828  0.022427132  0.022340695            3 
 1970000    0.9038125   -7.7956486    529.04526  0.022379241  0.022334045            1 
 1971000   0.93244791   -7.7683823    529.71423  0.022396171  0.022327411            4 
 1972000    0.9367582   -7.7249661    530.71842  0.022427249  0.022320834            3 
 1973000   0.93169631   -7.7966673    529.38234   0.02235945  0.022314193            2 
 1974000   0.95907188   -7.7767163    530.24527  0.022384552  0.022307524            2 
 1975000   0.92269168   -7.7764047    530.70299  0.022392531  0.022300857            2 
 1976000    0.9398647   -7.7480217    531.53193  0.022416157  0.022294247            2 
 1977000   0.93426506   -7.7318514    531.77217  0.022414945  0.022287666            2 
 1978000    0.9276634   -7.7316603    530.51401  0.022350607  0.022281038            1 
 1979000   0.92673791   -7.7490743    530.94843  0.022357606  0.022274437            6 
 1980000   0.93761572   -7.7690928    530.72534  0.022336925  0.022267752            3 
 1981000   0.90821356   -7.7905874    530.28167  0.022306986   0.02226103            2 
 1982000   0.93579925   -7.7896911     529.6855  0.022270665  0.022254261            2 
 1983000   0.93176334   -7.7728944    532.12545   0.02236197  0.022247476            2 
 1984000   0.92386693   -7.7483448    531.77501   0.02233598  0.022240764            2 
 1985000   0.96155171   -7.7684538    530.73489  0.022281062   0.02223403            3 
 1986000    0.9284674   -7.7902457    529.93999  0.022236488  0.022227222            1 
 1987000   0.91226371   -7.7693113    532.07551  0.022314859  0.022220489            1 
 1988000   0.94939723   -7.7802631    532.08922   0.02230421  0.022213742            1 
 1989000   0.93276543    -7.770979    532.31521  0.022302464  0.022206977            3 
 1990000   0.93732983   -7.7862082    531.33566  0.022250237  0.022200174            2 
 1991000   0.93112207   -7.7839412    531.49633  0.022245786  0.022193395            2 
 1992000    0.9218821   -7.8048389    529.86553  0.022166396   0.02218664            1 
 1993000   0.90639165   -7.7670005    532.19099  0.022252508   0.02217992            1 
 1994000   0.93816516   -7.7570329    533.59492  0.022300022  0.022173272            4 
 1995000   0.93845847   -7.7914124    531.80779  0.022214193    0.0221666            3 
 1996000   0.93091858   -7.8018257    534.03463  0.022296035  0.022159922            1 
 1997000   0.92549317   -7.7797537    532.28858  0.022212009  0.022153286            3 
 1998000   0.93098439   -7.7582329    534.00822  0.022272615  0.022146596            1 
 1999000   0.94104844   -7.7490281    532.63387   0.02220418  0.022139922            5 
 2000000   0.93381529   -7.7827046    532.34334  0.022180973  0.022133231            1 
 2001000   0.91120428    -7.761109    533.15848  0.022203835  0.022126561            1 
 2002000    0.9331319   -7.7935514    533.29256  0.022198325  0.022119833            2 
 2003000   0.94519122   -7.7731705    533.41675  0.022192409  0.022113181            2 
 2004000   0.95504902   -7.7598651    532.80982  0.022156097  0.022106508            3 
 2005000   0.93261354   -7.7981904    532.67592  0.022139481  0.022099744            1 
 2006000   0.92900816   -7.7662469    532.87237  0.022136605  0.022092985            3 
 2007000   0.94203625   -7.7447701    534.90362  0.022209916  0.022086241            2 
 2008000   0.92988037   -7.7805264    533.60619  0.022145011  0.022079472            4 
 2009000   0.96351664   -7.7890549    534.64529   0.02217709  0.022072751            1 
 2010000   0.92569819   -7.7691697    532.79657   0.02208941  0.022066019            3 
 2011000   0.92246543   -7.7912796    531.99894  0.022045373  0.022059194            2 
 2012000   0.92753507   -7.7812627    533.07399  0.022078942  0.022052412            4 
 2013000   0.92415058   -7.8145831     533.6373  0.022091294  0.022045513            3 
 2014000   0.94015038   -7.7959415    532.30998  0.022025405  0.022038623            1 
 2015000   0.93972945    -7.794696    532.81271  0.022035265  0.022031697            2 
 2016000   0.93385914   -7.7430181    533.66712  0.022059653  0.022024867            1 
 2017000   0.91973564   -7.7626184    533.57689  0.022044988   0.02201804            1 
 2018000    0.9065693   -7.7672459    534.41833  0.022068811  0.022011271            2 
 2019000   0.92823747   -7.7192512    534.40145  0.022057184  0.022004504            2 
 2020000   0.92500723     -7.75182    534.01588  0.022030358  0.021997683            2 
 2021000   0.93623872   -7.7766636    534.17667  0.022026087  0.021990818            2 
 2022000   0.91044371   -7.7817391    533.77499   0.02199864  0.021983977            3 
 2023000   0.92210834   -7.7710928    534.30271  0.022009503  0.021977126            3 
 2024000   0.92978486   -7.7733099    534.89136  0.022022866  0.021970258            1 
 2025000   0.93909874   -7.7761147    534.82165  0.022009121  0.021963396            1 
 2026000   0.92166483   -7.7873832    535.16315  0.022012304   0.02195652            3 
 2027000   0.93611806   -7.7849123    535.96984  0.022034609  0.021949597            6 
 2028000   0.91612633   -7.8216812    534.99556   0.02198371  0.021942727            1 
 2029000    0.9324734    -7.798444    534.99771  0.021972963  0.021935866            2 
 2030000    0.9262055   -7.7475353    535.78824  0.021994591  0.021928988            3 
 2031000   0.92211685     -7.76775    535.39146  0.021967481  0.021922175            3 
 2032000   0.95156957   -7.7748875    535.25852  0.021951219   0.02191537            2 
 2033000   0.94006395   -7.8148655    535.67114  0.021957335  0.021908561            1 
 2034000   0.91961598   -7.7992555    535.31825  0.021932082  0.021901707            1 
 2035000   0.95174178   -7.8032861    535.18388  0.021915802  0.021894888            2 
 2036000   0.92748668   -7.7895978    535.51149  0.021918447  0.021888034            3 
 2037000   0.92142317   -7.8151633    535.44216   0.02190485  0.021881141            4 
 2038000   0.94147311   -7.7907817    535.30434  0.021888467  0.021874223            2 
 2039000    0.9307353   -7.7738773    536.44062  0.021924171  0.021867388            4 
 2040000   0.91385142   -7.8025371    535.75567  0.021885444  0.021860546            3 
 2041000   0.89781345   -7.7727448    537.20835  0.021934034  0.021853734            3 
 2042000   0.93266436   -7.7869257    536.69441  0.021902319  0.021846947            4 
 2043000   0.91042263   -7.7962593    536.75369  0.021894016  0.021840172            1 
 2044000   0.92897642   -7.8219794     536.6458  0.021878906  0.021833379            3 
 2045000   0.93626278   -7.7992699    539.17997  0.021971474  0.021826627            3 
 2046000   0.93233392   -7.7821697    537.45898   0.02189064  0.021819877            4 
 2047000    0.9324686   -7.7871343    537.39736  0.021877437  0.021813149            3 
 2048000   0.92729391   -7.7875178    538.00318  0.021891406  0.021806532            2 
 2049000    0.9264969   -7.8006551    538.22218  0.021889628  0.021799941            5 
 2050000   0.91739448   -7.7832163    538.77919  0.021901593  0.021793315            1 
 2051000   0.90018646   -7.7866333      539.045  0.021901715   0.02178663            1 
 2052000   0.91683508   -7.7590522    539.56056  0.021911979      0.02178            2 
 2053000   0.93078308   -7.8044427    538.94222  0.021876206  0.021773421            5 
 2054000   0.92251916   -7.7865294    539.30616  0.021880321  0.021766771            1 
 2055000   0.92860448   -7.7647609    539.40374  0.021873631  0.021760205            1 
 2056000   0.92765469   -7.7977663    538.89697  0.021842452  0.021753597            3 
 2057000   0.90046328   -7.8119124      539.326  0.021849214  0.021746923            1 
 2058000   0.93846315   -7.8022548    538.71988  0.021814054  0.021740208            1 
 2059000    0.9338588   -7.8140655    539.80086   0.02184721  0.021733521            2 
 2060000   0.89054484   -7.8303675    538.34275  0.021777619  0.021726882            3 
 2061000   0.90600546   -7.8191166    538.76289   0.02178404  0.021720178            3 
 2062000   0.92205923   -7.7736648    540.60063  0.021847746  0.021713502            2 
 2063000   0.93511598   -7.7490434    541.75873  0.021883937  0.021706885            1 
 2064000   0.92396659   -7.7811073    540.24597  0.021812257  0.021700236            2 
 2065000   0.91697609   -7.8035836    539.45532  0.021769787  0.021693557            2 
 2066000   0.89225427   -7.8153316    539.04158  0.021742561  0.021686854            3 
 2067000   0.92526553   -7.7812089     539.3147  0.021743054  0.021680162            1 
 2068000    0.9211381   -7.8022017    538.21304  0.021688146  0.021673432            2 
 2069000   0.91505267   -7.7820666     540.3902  0.021765353  0.021666715            2 
 2070000    0.9128122      -7.8213     540.0085  0.021739472  0.021659983            1 
 2071000   0.91311319   -7.8062212    540.15345  0.021734808  0.021653263            1 
 2072000   0.92353134   -7.8251423    540.91605  0.021754989  0.021646588            1 
 2073000   0.91174391   -7.7906626    541.74319  0.021777745  0.021640006            2 
 2074000    0.9372604   -7.7739059    541.62149  0.021762355  0.021633365            5 
 2075000   0.92361036   -7.7915136     540.4258  0.021703847  0.021626727            4 
 2076000   0.93020607   -7.7987094    541.37364   0.02173144  0.021620055            4 
 2077000    0.9024972   -7.8044318     541.1753  0.021713019  0.021613333            1 
 2078000    0.9273437   -7.7729579     539.8879  0.021650942  0.021606655            1 
 2079000    0.9379049   -7.7785102    541.30296  0.021697248  0.021600019            2 
 2080000   0.90826099      -7.7815    541.61726   0.02169941  0.021593351            2 
 2081000    0.9208929   -7.8130758    539.59297  0.021607919  0.021586672            2 
 2082000   0.92899191   -7.7942001    542.52422  0.021714866  0.021579992            2 
 2083000   0.92786036   -7.8296162    540.84341  0.021637198  0.021573329            2 
 2084000   0.92148339    -7.788001    541.60417  0.021657236  0.021566693            1 
 2085000   0.92539685   -7.8060418     541.8816  0.021657938  0.021560036            2 
 2086000    0.9256976   -7.8187911    540.69631  0.021600204  0.021553323            1 
 2087000   0.89340492   -7.8414004    541.98331  0.021641244  0.021546622            2 
 2088000   0.92115577   -7.8178434    542.12885  0.021636688  0.021539966            1 
 2089000   0.92785466   -7.8495835    542.10114  0.021625225  0.021533291            1 
 2090000    0.9134065   -7.8065223    543.06938  0.021653484  0.021526603            1 
 2091000   0.91703246   -7.8215094    541.88286  0.021595842  0.021519936            1 
 2092000   0.90394554   -7.8209416    541.95389  0.021588348  0.021513275            1 
 2093000   0.92228737   -7.7928886    542.16414  0.021586405  0.021506601            2 
 2094000   0.90895683   -7.8136806    541.63985  0.021555231  0.021499943            2 
 2095000    0.9147409   -7.8154622    542.00099  0.021559308  0.021493254            1 
 2096000   0.91471706   -7.8117336    542.56791  0.021571561  0.021486545            1 
 2097000   0.90371426   -7.7820967    543.57864   0.02160144  0.021479843            2 
 2098000   0.90680564   -7.7822181    543.70194  0.021596041  0.021473228            1 
 2099000   0.91027751   -7.8025011    543.26316  0.021568333  0.021466547            1 
 2100000    0.9078515   -7.8148159    542.26809  0.021518575  0.021459896            4 
 2101000   0.91604929   -7.8075231    541.81692  0.021490438  0.021453167            2 
 2102000   0.91902011    -7.822146    542.66061  0.021513662  0.021446476            2 
 2103000   0.91439656   -7.8094914     545.5962  0.021619758  0.021439781            1 
 2104000   0.92893657   -7.7964816    543.83887  0.021539879  0.021433111            1 
 2105000   0.92473514   -7.8218513     542.6755  0.021483591  0.021426411            4 
 2106000   0.91234471   -7.7863069    543.88228  0.021521141  0.021419714            1 
 2107000   0.92030529   -7.8108094    543.21778  0.021484645  0.021413062            2 
 2108000   0.90229739   -7.8056291    543.95403  0.021503559  0.021406423            2 
 2109000   0.92422452   -7.7877391    545.64146  0.021560039   0.02139981            3 
 2110000   0.92018161    -7.799553    545.06111    0.0215269  0.021393234            1 
 2111000   0.89396254   -7.7932419    544.32947  0.021487821  0.021386635            2 
 2112000   0.92013987   -7.8157873    543.86634  0.021459373  0.021380012            2 
 2113000   0.90908972   -7.8088931     544.9078   0.02149029  0.021373358            1 
 2114000   0.94191615    -7.812748    544.95203  0.021481868  0.021366748            5 
 2115000   0.89430329   -7.8258653    543.70513  0.021422582  0.021360086            1 
 2116000   0.91971355   -7.7955604    545.97524  0.021501861  0.021353506            2 
 2117000   0.91279666   -7.7902976    545.62847  0.021478054  0.021346874            2 
 2118000   0.90326138   -7.7892329    546.22795    0.0214915  0.021340218            4 
 2119000   0.91836902   -7.8237862    546.16754  0.021478982  0.021333636            1 
 2120000   0.88002154   -7.7768149    544.91325  0.021419546  0.021327072            4 
 2121000   0.92536032   -7.8390271    545.43887  0.021430099  0.021320451            1 
 2122000   0.93685543   -7.8084786    545.45387  0.021420589  0.021313864            1 
 2123000   0.91898759   -7.8426958    545.94224  0.021429669   0.02130725            2 
 2124000   0.92074831   -7.8357375    545.58318  0.021405492  0.021300568            4 
 2125000    0.9129739   -7.8217511    546.83683  0.021444582  0.021293974            3 
 2126000    0.9054203   -7.8283762    546.80503  0.021433248    0.0212874            2 
 2127000   0.90029551   -7.8148454    548.54095  0.021491183  0.021280789            2 
 2128000   0.93332908   -7.8705841    546.50228  0.021401249  0.021274224            2 
 2129000    0.9176966   -7.8117876    548.26835  0.021460324  0.021267712            2 
 2130000   0.90572111   -7.8431511    546.48411  0.021380443  0.021261162            1 
 2131000   0.89826749   -7.8321545    547.20556  0.021398622  0.021254579            2 
 2132000   0.92470407   -7.8462831    547.03586  0.021381952  0.021248023       -1e+20 
 2133000    0.9134808   -7.8186955    547.80712   0.02140206  0.021241472            1 
 2134000   0.88273222   -7.8289967    547.80693  0.021392023  0.021234954            1 
 2135000   0.90539192   -7.8470483    546.98862  0.021350063  0.021228452            1 
 2136000   0.91593698   -7.8673232    546.46144  0.021319501  0.021221906            1 
 2137000   0.91925178   -7.8358857    547.48553  0.021349459  0.021215382            1 
 2138000   0.93042809   -7.8551559    545.98478  0.021280978  0.021208849            2 
 2139000   0.90758037   -7.8518315    546.64008  0.021296559  0.021202238            1 
 2140000    0.9045388   -7.8324852    547.96319  0.021338131  0.021195675            2 
 2141000   0.91086978   -7.8358615    548.91239  0.021365109  0.021189082            4 
 2142000   0.90401106   -7.8448651    548.79216  0.021350457  0.021182495            1 
 2143000   0.91040579   -7.8526109    547.75111  0.021300012  0.021175928            5 
 2144000   0.91913743    -7.818674     548.3833   0.02131465  0.021169341            2 
 2145000   0.91815217   -7.8217007     548.8405  0.021322475  0.021162825            4 
 2146000   0.89897114    -7.820047    548.41165  0.021295886  0.021156321            1 
 2147000   0.90411158   -7.8401035    548.16259    0.0212763   0.02114974            2 
 2148000   0.91789994   -7.8209693    549.19593  0.021306484  0.021143249            1 
 2149000    0.9081309   -7.8206095     549.1544  0.021294959  0.021136747            1 
 2150000   0.91341075   -7.8635023     548.5566  0.021261884  0.021130325            2 
 2151000   0.90732392   -7.8421017    550.16961   0.02131449  0.021123816            3 
 2152000   0.92480823   -7.8361347    549.14146  0.021264771  0.021117334            1 
 2153000   0.92429041    -7.806448    549.26457   0.02125966  0.021110811            1 
 2154000   0.89897192   -7.8237806    548.28861  0.021212032  0.021104297            2 
 2155000   0.90970984   -7.8274818    548.63114  0.021215435  0.021097769            4 
 2156000   0.89500669   -7.8149937    549.32078   0.02123225    0.0210913            2 
 2157000   0.90283997   -7.8369721     550.5299   0.02126912  0.021084782            3 
 2158000   0.90563357   -7.8324137    548.93226   0.02119757   0.02107826            2 
 2159000   0.91252007   -7.9019188    548.43936  0.021168726  0.021071689            2 
 2160000   0.89617259   -7.8129738    549.31939  0.021192878  0.021065106            1 
 2161000   0.91985692   -7.8756945    548.31042  0.021144162  0.021058535            1 
 2162000   0.89311259     -7.80996    548.61156   0.02114599  0.021051963            3 
 2163000   0.90773027   -7.8741188    548.10137  0.021116558   0.02104536            2 
 2164000   0.90344092   -7.8533823    548.08182  0.021106047  0.021038713            2 
 2165000    0.8940613   -7.8671578    550.13883  0.021175475  0.021032042            3 
 2166000   0.89854303   -7.8649297    550.48489  0.021179012   0.02102542            1 
 2167000   0.87051984   -7.8279112    549.20812   0.02112014  0.021018846            2 
 2168000   0.89818464   -7.8383393    549.06012  0.021104709  0.021012252            1 
 2169000   0.87248637   -7.8539574    550.84105  0.021163403  0.021005603            2 
 2170000    0.8877332   -7.8418087    549.65871  0.021108245    0.0209989            5 
 2171000   0.92854771   -7.8147302    548.70405  0.021061878  0.020992167            1 
 2172000   0.90475287   -7.8334095    548.97296  0.021062498  0.020985505            2 
 2173000   0.88633173   -7.8734252    548.27846  0.021026172  0.020978815            2 
 2174000    0.8922843   -7.8676547    549.13478  0.021049325  0.020972148            2 
 2175000   0.89117067   -7.8329175    550.82448  0.021104386  0.020965533            2 
 2176000   0.89595527   -7.7981991    550.31694   0.02107525  0.020958938            3 
 2177000   0.91029703   -7.8603768    549.52815  0.021035376  0.020952334            1 
 2178000   0.89552807   -7.8502968    549.07902  0.021008533  0.020945758            3 
 2179000   0.88910343   -7.8297604    549.79435  0.021026249   0.02093916            3 
 2180000   0.90089339   -7.8003377    550.46468  0.021042228  0.020932572            3 
 2181000   0.92230775    -7.836515    549.97632   0.02101392  0.020925949            1 
 2182000    0.8967156    -7.839853    551.47397  0.021061487  0.020919289            1 
 2183000   0.91767805   -7.8164605    551.39902  0.021048978  0.020912639            3 
 2184000   0.90137494    -7.878351    550.21829  0.020994288  0.020905999            2 
 2185000    0.8787589   -7.8527837    550.74024  0.021004586  0.020899281            2 
 2186000    0.8975361   -7.8969323    549.83139   0.02096033  0.020892558            2 
 2187000   0.89465628   -7.8692685    549.54794  0.020939946  0.020885885            5 
 2188000   0.89534533   -7.8289937    551.82204  0.021016988   0.02087923            2 
 2189000   0.90033656   -7.8740632    551.48259  0.020994464  0.020872611       -1e+20 
 2190000   0.90596377   -7.7972599    552.50401  0.021023745   0.02086599            1 
 2191000   0.91865443   -7.8424445    551.03273   0.02095819  0.020859367            3 
 2192000   0.89924383   -7.8765154    549.24103  0.020880514  0.020852721            6 
 2193000   0.89706851   -7.8839256    551.41632  0.020953653  0.020846074            3 
 2194000   0.90170554   -7.8549737    551.25111  0.020937827   0.02083943            5 
 2195000   0.90626852   -7.8476764     549.9581  0.020879199  0.020832791            1 
 2196000   0.89410831   -7.8708717    551.49117  0.020927868  0.020826142            1 
 2197000   0.90293339   -7.8351886    550.70357  0.020888468  0.020819468            2 
 2198000   0.92295099   -7.8695569    550.77227  0.020881569  0.020812777            5 
 2199000   0.91892861   -7.8524731    551.39778  0.020895778  0.020806142            2 
 2200000   0.89403829   -7.8570381    550.69674  0.020859725   0.02079949            1 
 2201000   0.90997083   -7.8468806    550.97655  0.020860841  0.020792838            1 
 2202000   0.91174275   -7.8460779    550.42064   0.02083033  0.020786183            2 
 2203000   0.90895549    -7.834295    551.93552  0.020878178  0.020779558            2 
 2204000   0.89143491   -7.8496246    553.29883  0.020920252  0.020772914            1 
 2205000   0.90615747   -7.8437531    551.39442  0.020838791  0.020766248            2 
 2206000   0.89175413   -7.8536098    551.13821  0.020819666  0.020759632            2 
 2207000    0.9013804   -7.8729102    551.72245  0.020832293  0.020752953            2 
 2208000   0.92046205   -7.8566348    551.55678  0.020816605  0.020746307            2 
 2209000   0.91031362   -7.8279364    552.86033  0.020856358  0.020739627            1 
 2210000   0.90110709   -7.8305051    553.36724  0.020866035  0.020732954            1 
 2211000   0.89532533   -7.9135232    551.82766   0.02079857   0.02072629            1 
 2212000   0.89340209   -7.8617459    551.04896  0.020759831  0.020719638            1 
 2213000   0.88632054   -7.8742851    552.11944  0.020790761  0.020713031            5 
 2214000   0.88067741   -7.8730793    553.16409   0.02082069  0.020706385            2 
 2215000   0.90005175   -7.8723974    552.97164   0.02080405  0.020699761            1 
 2216000   0.89332644   -7.8547484    555.00063  0.020870962  0.020693155            1 
 2217000    0.9138286   -7.8412335    553.41344  0.020801889  0.020686531            2 
 2218000   0.89747298   -7.8769759    553.25911  0.020786711  0.020679973            2 
 2219000    0.8963511   -7.8430128    554.00818  0.020805475  0.020673393            2 
 2220000   0.90028043   -7.8706397    553.28389  0.020768915  0.020666797            3 
 2221000   0.87559993    -7.871608    554.51403  0.020805719    0.0206602            2 
 2222000   0.90991677   -7.8307549    553.33777  0.020752241  0.020653541            5 
 2223000   0.90991355   -7.8264028     555.1612  0.020811261   0.02064695            3 
 2224000   0.89309802   -7.8572455    553.04487  0.020722604  0.020640357            2 
 2225000   0.89455382   -7.8614204    552.99944  0.020711589  0.020633765            4 
 2226000   0.87526887   -7.8810698    554.03467   0.02074104  0.020627182            4 
 2227000     0.911844   -7.8593054    553.86171  0.020725255  0.020620609            2 
 2228000   0.90207532   -7.8750765    553.18078  0.020690484  0.020614041            2 
 2229000   0.90550834   -7.8810996    552.93505  0.020672015  0.020607421            3 
 2230000   0.89796178   -7.8685327    554.15904  0.020708484  0.020600795            4 
 2231000   0.91827259    -7.874058    554.60283  0.020715779  0.020594184            1 
 2232000   0.87513768   -7.8553079    554.29676   0.02069507  0.020587568            2 
 2233000   0.87897032   -7.8670135    555.10809   0.02071608  0.020580957            1 
 2234000   0.87024848   -7.8548788    554.69852  0.020691529  0.020574309            1 
 2235000   0.90695102   -7.8467585     553.3349  0.020631428  0.020567623            4 
 2236000   0.91828481   -7.8758012    553.61495  0.020632638  0.020560949            4 
 2237000   0.88661056   -7.8734071    555.11817  0.020679413  0.020554324            3 
 2238000   0.90190055   -7.8838133    554.91318   0.02066254  0.020547731            2 
 2239000   0.89823708   -7.8865346    553.91217  0.020616055  0.020541114            4 
 2240000   0.90386824   -7.9024294    555.55171  0.020667846  0.020534465            2 
 2241000   0.87784966   -7.8635228    554.80086  0.020630703  0.020527888            2 
 2242000   0.88736208   -7.8574048      555.464  0.020646149  0.020521326            2 
 2243000   0.89153848   -7.8884044    555.82513  0.020650362  0.020514733            2 
 2244000   0.88289977   -7.8859386     555.7609  0.020638774  0.020508133            1 
 2245000   0.89535114   -7.8675397    555.93255  0.020635952  0.020501567            4 
 2246000   0.87645411   -7.8683517    558.26137   0.02071317  0.020495008            2 
 2247000   0.86651695   -7.8232583    555.07145   0.02058565  0.020488486            4 
 2248000   0.90716087   -7.8802193    555.42957  0.020589768  0.020481985            2 
 2249000   0.90539836   -7.8633958    554.97296  0.020563694  0.020475451            6 
 2250000    0.8857096   -7.9263272    557.38675  0.020643954  0.020468953            1 
 2251000   0.91001231    -7.890063    556.59469   0.02060546  0.020462399            2 
 2252000   0.90584088   -7.8509922      556.227  0.020582704  0.020455891            2 
 2253000   0.89144021   -7.8713475    556.24035  0.020574062  0.020449402            1 
 2254000   0.87340358   -7.8562021    557.57361  0.020614227  0.020442915            5 
 2255000   0.89745222   -7.8796912    557.58194  0.020605393  0.020436414            1 
 2256000   0.88411213   -7.8363871    558.30558   0.02062299  0.020429987            2 
 2257000   0.87994057   -7.8874687    556.63558  0.020552192  0.020423489            2 
 2258000   0.89403503     -7.89213    556.21481  0.020527562  0.020416944            1 
 2259000   0.90013744   -7.8570579    557.93569  0.020581957  0.020410452            1 
 2260000   0.87570707   -7.8752177    558.11024  0.020579286  0.020404001            2 
 2261000   0.88504692   -7.8637582    558.56923  0.020587101  0.020397497            4 
 2262000   0.89163436   -7.8693442    556.98964  0.020519807  0.020391057            2 
 2263000   0.89463022   -7.9013709     557.3839  0.020525258  0.020384536            2 
 2264000   0.89469918    -7.866782    557.81048  0.020531894  0.020378085            2 
 2265000   0.87333248   -7.8709236    557.76987  0.020521334  0.020371622            1 
 2266000   0.88987691    -7.890064    558.03885   0.02052217  0.020365111            1 
 2267000   0.91308082   -7.9077885    557.18793  0.020481838  0.020358636            2 
 2268000   0.88739028   -7.8957797    558.64763  0.020526442  0.020352179            2 
 2269000   0.89289183   -7.8914053    558.87987  0.020525924  0.020345694            5 
 2270000   0.90493617   -7.8898663    557.16147  0.020453798  0.020339228            4 
 2271000   0.89233809   -7.8759232    559.04839  0.020514032  0.020332756            7 
 2272000    0.8607888   -7.8841721    559.28626  0.020513727  0.020326288            2 
 2273000   0.89397174   -7.8675616    558.19657  0.020464752  0.020319793            2 
 2274000   0.88018343   -7.9070758    558.51208  0.020467314  0.020313277            2 
 2275000   0.88708172   -7.9191488    558.71091  0.020465601  0.020306791            1 
 2276000   0.90062068   -7.8885371    558.93871   0.02046495  0.020300291            4 
 2277000   0.88282913   -7.8826505    558.11084  0.020425664  0.020293831            2 
 2278000    0.8844359   -7.8588841    560.93196  0.020519899   0.02028736            2 
 2279000   0.88296544   -7.8837579    558.33128  0.020415799  0.020280922            2 
 2280000   0.89783369    -7.897365    558.07242  0.020397384  0.020274428            3 
 2281000   0.88426883   -7.8687775    559.29502  0.020433108   0.02026793            1 
 2282000    0.8925588   -7.8839854    559.15527   0.02041905  0.020261424            3 
 2283000   0.90081023   -7.8629631    560.22403  0.020449118  0.020254957            2 
 2284000     0.893532   -7.8445324    560.54919  0.020452028  0.020248503            2 
 2285000   0.90112333   -7.8640211    559.62668  0.020409434  0.020242068            2 
 2286000   0.86142441   -7.8974578      559.712  0.020403616  0.020235597            2 
 2287000   0.92253513   -7.9084205    557.60367  0.020317872  0.020229101            3 
 2288000   0.86897756   -7.9016479    559.82302  0.020389824   0.02022265            3 
 2289000   0.86791662   -7.9155526    559.32649   0.02036284  0.020216203            2 
 2290000   0.90161534    -7.882067    561.35133  0.020427632  0.020209781            1 
 2291000   0.89189557   -7.9176674    560.43967  0.020385555  0.020203428            1 
 2292000   0.86140707   -7.8991586    562.19578   0.02044051  0.020197069            2 
 2293000   0.89370318   -7.8702546    561.20882  0.020395727  0.020190688            4 
 2294000   0.90061141   -7.8905385    560.43186  0.020358611  0.020184317            2 
 2295000   0.87655987   -7.9104084    560.19738  0.020341227  0.020177925            3 
 2296000   0.87621788   -7.8906475    561.13273  0.020366316  0.020171577            2 
 2297000   0.89129432   -7.8643284    562.66528  0.020413049  0.020165251            5 
 2298000   0.88537335   -7.8935269    560.93209  0.020341314  0.020158959            1 
 2299000   0.90286746   -7.8969874    561.46173  0.020351665  0.020152603            2 
 2300000   0.86787823   -7.8859435    562.34529   0.02037483  0.020146287            3 
 2301000   0.88669662   -7.8818033    562.67269  0.020377832  0.020139975            3 
 2302000   0.89557618   -7.8728697    562.55759  0.020364813  0.020133672            3 
 2303000   0.89592351   -7.8884566    563.08885  0.020375194  0.020127385            2 
 2304000   0.88130391   -7.8916483    560.81387  0.020284067  0.020121062            2 
 2305000   0.88524733   -7.8766416    563.21997  0.020362255  0.020114742            2 
 2306000   0.87556989   -7.9345846    562.06439  0.020311665  0.020108401            1 
 2307000   0.87320006   -7.8702388    562.99607  0.020336515  0.020102104            1 
 2308000   0.89595141   -7.9130344    562.02435  0.020292618   0.02009575            3 
 2309000   0.87330843   -7.8923494    563.55471  0.020339061  0.020089485            2 
 2310000   0.88969417   -7.8860574    564.16556  0.020352293  0.020083243            3 
 2311000   0.87776095   -7.8949604    563.03552  0.020302737  0.020076946            4 
 2312000   0.89592139   -7.8639712    562.79316  0.020285221  0.020070661            1 
 2313000   0.88118182   -7.8953469    562.69436  0.020272891  0.020064354            2 
 2314000   0.88545479   -7.9034554    562.57449  0.020259813   0.02005801            1 
 2315000   0.87556103   -7.9151698    561.82759  0.020224175   0.02005165            2 
 2316000   0.90605505   -7.9139232    561.60884  0.020207572  0.020045268            3 
 2317000   0.89925874   -7.9018445    562.41641  0.020227896  0.020038935            2 
 2318000   0.87737186    -7.874976    564.03607  0.020277397  0.020032628            4 
 2319000   0.88557793    -7.899989    562.15472  0.020201046  0.020026246            5 
 2320000   0.89165305   -7.9298109    561.01348  0.020151346  0.020019826            4 
 2321000   0.86953658   -7.9124945    562.49863  0.020195987  0.020013403            3 
 2322000   0.87630171   -7.9074829     562.2806  0.020179465  0.020006978            5 
 2323000   0.89647897   -7.9155628    560.74335  0.020115632  0.020000551            1 
 2324000   0.87779546    -7.911755    561.84072  0.020146325  0.019994091            1 
 2325000   0.87929489   -7.9115337    562.68907  0.020168067  0.019987637            2 
 2326000   0.88895986   -7.9028448    561.71212  0.020124395  0.019981204            1 
 2327000   0.90659554   -7.9137906     562.8733  0.020157331    0.0199748            5 
 2328000   0.88516774   -7.9083266    562.57767   0.02013809  0.019968386            2 
 2329000   0.88784442    -7.916962    563.85082  0.020174997  0.019961973            2 
 2330000   0.88714189   -7.9033286    563.44573   0.02015185  0.019955544            1 
 2331000    0.8653902   -7.9404766    562.23245   0.02009983   0.01994912            4 
 2332000   0.88054621   -7.9090987      562.474  0.020099843  0.019942638            3 
 2333000   0.84950203   -7.9277097    562.54449  0.020093745  0.019936206            2 
 2334000    0.8832138   -7.9080151    564.34415  0.020149391  0.019929805            4 
 2335000   0.87564532   -7.8998442    564.11001  0.020132406  0.019923429            2 
 2336000   0.87447363    -7.889906    563.16557  0.020090096   0.01991707            3 
 2337000   0.85732314   -7.9139066     564.2759  0.020121092  0.019910688            2 
 2338000   0.86468813   -7.8947476    564.13349   0.02010741  0.019904303            1 
 2339000   0.88248597   -7.9241775    563.41225  0.020073117   0.01989794            4 
 2340000   0.86648292   -7.9196563    563.31867  0.020061206  0.019891564            3 
 2341000     0.885876   -7.8781725     565.4256  0.020127638  0.019885227            1 
 2342000   0.88351991   -7.8660399    565.99361  0.020139254   0.01987893            2 
 2343000   0.86473257   -7.9159862    564.58996  0.020080736  0.019872642            3 
 2344000   0.88882434    -7.899434    565.82934  0.020116231  0.019866336            2 
 2345000   0.86132483   -7.8804296    566.03583   0.02011499  0.019860031            2 
 2346000   0.87337274   -7.8866029    564.55452  0.020053798   0.01985376            2 
 2347000   0.85311644   -7.9176828    565.76656  0.020088288  0.019847458            5 
 2348000   0.87211298   -7.8972265    564.86609  0.020047774  0.019841152            1 
 2349000   0.87246225   -7.9154895    564.21734  0.020016225  0.019834794            2 
 2350000   0.87567891   -7.9061758    564.79732  0.020028274  0.019828473            1 
 2351000   0.87141155   -7.8903504    567.42796     0.020113  0.019822161            2 
 2352000   0.87309116   -7.9279955    565.05632  0.020020419   0.01981582            2 
 2353000   0.85547782   -7.9060866    564.83169  0.020003956  0.019809445            4 
 2354000   0.89028418   -7.8900807    565.78613  0.020029246  0.019803073            2 
 2355000   0.88174615    -7.935541    563.79824  0.019950398  0.019796698            2 
 2356000   0.85624306   -7.8799826    567.10455  0.020058876  0.019790324            3 
 2357000   0.86525773   -7.9196164    565.59568  0.019997019   0.01978397            8 
 2358000   0.87096915   -7.8897397    565.07226   0.01997004  0.019777598            2 
 2359000   0.87159363   -7.9114975    566.52838  0.020013013  0.019771233            2 
 2360000   0.87690753   -7.9645993    564.45413   0.01993129  0.019764879            2 
 2361000   0.87800462   -7.9354358    565.10334  0.019945762  0.019758465            6 
 2362000   0.88370998   -7.9318471    565.27541  0.019943389  0.019752049            1 
 2363000    0.8681038   -7.9335623    565.78559  0.019952941   0.01974567            3 
 2364000   0.86984433     -7.90969     566.7551  0.019978677   0.01973933            2 
 2365000   0.89015574   -7.8900043    566.35034  0.019955967   0.01973302            1 
 2366000   0.88844943   -7.9102827    567.25067  0.019979243  0.019726743            5 
 2367000   0.88646802   -7.9119747     565.2569  0.019900609  0.019720432            2 
 2368000   0.86090961   -7.9522174     565.5199  0.019901461   0.01971411            3 
 2369000    0.8558708   -7.9155157    565.60628  0.019896098  0.019707762            2 
 2370000    0.8767589   -7.9340778    565.88828  0.019897619  0.019701469            1 
 2371000   0.87225894   -7.8769772     567.7939  0.019956203    0.0196952            2 
 2372000   0.86903223   -7.8850974    567.52172  0.019938228  0.019688936            1 
 2373000   0.88088121   -7.8901901    568.68126  0.019970546  0.019682657            2 
 2374000   0.86265445   -7.8875228    568.99264  0.019973064  0.019676436            2 
 2375000    0.8662179   -7.9197429    567.80743  0.019923068  0.019670192            1 
 2376000   0.87715696   -7.9361568    567.17035  0.019892338  0.019663983            2 
 2377000   0.87009301   -7.8816138    569.00877  0.019948421  0.019657786            3 
 2378000   0.88174154   -7.8936765    568.53796  0.019923534   0.01965162            4 
 2379000   0.87965147   -7.8776183    567.82397  0.019890149  0.019645454            6 
 2380000   0.88236297   -7.8992165    569.60983  0.019944322  0.019639309            1 
 2381000   0.86103963    -7.909624    568.93075  0.019912178  0.019633141            3 
 2382000   0.84716304   -7.8976887    569.90638  0.019937951  0.019626973            3 
 2383000   0.88522061    -7.900811    569.25455  0.019906789  0.019620864            1 
 2384000   0.87117656   -7.9270464    569.74099  0.019915443  0.019614754            2 
 2385000   0.87858024   -7.9143074    568.68878  0.019870328  0.019608627            1 
 2386000   0.87561459   -7.9030206    568.84306  0.019867388  0.019602472            1 
 2387000     0.851366   -7.9350039    569.42583   0.01987941  0.019596348            1 
 2388000   0.85719023   -7.9169402    568.01925  0.019822001  0.019590205            2 
 2389000   0.85610553   -7.9140812    570.94975  0.019915926  0.019584064            3 
 2390000   0.86925059   -7.9322059    569.36232  0.019852243  0.019577927            1 
 2391000   0.88106467   -7.9611688    568.92263  0.019828615  0.019571792            2 
 2392000   0.86938892   -7.9435071    569.01828  0.019823658  0.019565616            3 
 2393000   0.87452698     -7.91321    569.20203  0.019821773  0.019559438            1 
 2394000     0.845067    -7.915722    569.66351  0.019829557  0.019553309            1 
 2395000   0.88826325   -7.9242282    569.90428  0.019829655   0.01954715            2 
 2396000   0.87116187   -7.9090617    569.16098  0.019795527  0.019540978            1 
 2397000   0.88456064   -7.9343366    569.41088  0.019795956  0.019534803            2 
 2398000   0.86133525   -7.9256739    569.46375  0.019789538  0.019528581            2 
 2399000   0.87653253   -7.9460968     569.5631   0.01978474  0.019522383            1 
 2400000   0.85488155   -7.9338286    571.08456  0.019829325  0.019516179            2 
 2401000   0.86140056   -7.9376168    570.55875  0.019802817   0.01951007            1 
 2402000   0.86516326   -7.9323064     571.1285  0.019814339  0.019503944            2 
 2403000   0.87103947   -7.9460667    569.45782  0.019748156  0.019497805            1 
 2404000   0.87171378   -7.9214539    570.18326  0.019765088  0.019491676            2 
 2405000   0.88392959   -7.9144672    570.52504  0.019768712  0.019485539            2 
 2406000   0.85628443   -7.9618685    571.63857  0.019799064  0.019479387            4 
 2407000   0.88518345   -7.9375334    571.80029  0.019796437  0.019473263            3 
 2408000   0.87323546   -7.9526411    570.12387    0.0197302  0.019467147            2 
 2409000   0.85756593   -7.9709331    570.91804  0.019749482  0.019461018            2 
 2410000   0.87486816   -7.9859127    570.10768  0.019713267  0.019454884            2 
 2411000   0.84720594   -7.9282076    571.86907  0.019765971  0.019448695            3 
 2412000   0.87410902   -7.9520209    569.18548  0.019665059  0.019442526            5 
 2413000   0.87321746   -7.9700329    571.11972  0.019723709  0.019436358            4 
 2414000   0.86602652   -7.9665959    570.20527  0.019683971  0.019430198            2 
 2415000   0.88040864   -7.9420425    571.86344  0.019733038   0.01942406            2 
 2416000   0.85729781   -7.9588384    570.34726  0.019672574   0.01941792            2 
 2417000   0.86595645   -7.9570021    571.09307  0.019690148  0.019411781            4 
 2418000   0.88014465   -7.9432827    572.11718    0.0197173  0.019405675            3 
 2419000   0.85158118   -7.9604325    571.80218  0.019698298  0.019399548            3 
 2420000   0.84004767    -7.932866    571.27352  0.019671953  0.019393445            2 
 2421000   0.86232052   -7.9429944    572.53655  0.019707303  0.019387348            1 
 2422000   0.89190912   -7.9304546    572.68409  0.019704242  0.019381292            7 
 2423000   0.87245181   -7.9577954    572.68598  0.019696175  0.019375246            4 
 2424000   0.86283199    -7.930082    572.88939  0.019695042   0.01936917            1 
 2425000    0.8654326    -7.979369    572.15994  0.019661854  0.019363081            2 
 2426000   0.85701982   -7.9507876    573.15337  0.019687873  0.019356995            2 
 2427000     0.840679   -7.9608211    573.53356  0.019692816   0.01935094            1 
 2428000    0.8641293   -7.9825855    572.72252  0.019656869  0.019344867            2 
 2429000   0.87103685   -7.9574617    572.85951  0.019653476  0.019338818            5 
 2430000   0.85568977   -7.9734775     571.8403  0.019610435  0.019332768            3 
 2431000    0.8688419   -7.9331808    573.88249  0.019672374  0.019326733            3 
 2432000   0.87566857   -7.9383726    574.14206  0.019673179  0.019320716            2 
 2433000   0.87154139   -7.9372888     575.0517   0.01969625  0.019314753            1 
 2434000   0.87182981   -7.9301459     574.0527  0.019653954  0.019308753            3 
 2435000   0.87264576   -7.9246026    573.51559  0.019627501  0.019302732            2 
 2436000   0.87373386   -7.9172581    574.83576  0.019664606  0.019296781            2 
 2437000   0.87029023   -7.9387203    574.15256  0.019633175  0.019290831            3 
 2438000   0.86506188   -7.9364661    574.83148  0.019648328  0.019284893            4 
 2439000   0.86763622    -7.922663    575.98761  0.019679773   0.01927895            4 
 2440000   0.86994332   -7.9545341    574.11011  0.019607586  0.019272999            2 
 2441000    0.8597104   -7.9446959    574.53081  0.019613915  0.019267032            1 
 2442000   0.86425652   -7.9678318    574.42098  0.019602136  0.019261071            2 
 2443000   0.86539267   -7.9496395    574.21992  0.019587253   0.01925512            4 
 2444000   0.87685174    -7.969876    574.02115  0.019572462   0.01924919            2 
 2445000   0.86515181   -7.9632707    575.10289  0.019601325  0.019243253            1 
 2446000   0.87234516   -7.9786753    574.18677    0.0195621  0.019237341            1 
 2447000   0.84477872   -7.9252076    576.75792  0.019641667  0.019231397            1 
 2448000   0.86717564    -7.963975    575.46818  0.019589739  0.019225492            1 
 2449000   0.86036724   -7.9775971    574.66252  0.019554326  0.019219551            5 
 2450000   0.85217715   -7.9687078    574.93133  0.019555487  0.019213552            2 
 2451000   0.87206202   -7.9420788    575.50729  0.019567091  0.019207607            6 
 2452000   0.86877713   -7.9509508    575.96204  0.019574566  0.019201725            5 
 2453000   0.84838116    -7.920394    576.33856  0.019579378  0.019195821            3 
 2454000   0.84810321    -7.938301    576.17471  0.019565835  0.019189885            2 
 2455000   0.84809257   -7.9921765    574.24024  0.019492201  0.019183933            2 
 2456000    0.8732416   -7.9677433    574.32051  0.019486988  0.019177934            2 
 2457000   0.85304335   -7.9842519    575.70478  0.019526007  0.019171953            1 
 2458000   0.85210334   -7.9577182    576.25947  0.019536868  0.019165994            1 
 2459000   0.86049524   -7.9515722      575.702  0.019510031  0.019160031            2 
 2460000   0.85472809   -7.9653443    576.94908  0.019544345  0.019154058            4 
 2461000   0.86311024     -7.94147    575.95459  0.019502729  0.019148097            8 
 2462000   0.83532048   -7.9797949    575.72443  0.019487017  0.019142123            2 
 2463000   0.84322265   -7.9816723     576.6499  0.019510418  0.019136152            2 
 2464000   0.86134978    -7.981116    575.11152  0.019450471  0.019130218            1 
 2465000   0.86842133    -7.965199     575.3314  0.019450013  0.019124249            4 
 2466000   0.85455965   -7.9654667    576.31205  0.019475265  0.019118254            3 
 2467000   0.84333181   -7.9763493    576.12442  0.019461033  0.019112276            3 
 2468000   0.85961816   -7.9593425    575.36452  0.019427489  0.019106275            2 
 2469000    0.8586816   -7.9628351    575.37533  0.019419985  0.019100333            1 
 2470000   0.84861659   -7.9712775    577.12982  0.019471316  0.019094406            2 
 2471000   0.83541716    -7.992031    576.42069  0.019439521  0.019088496            2 
 2472000   0.85079576   -7.9871037      574.801  0.019377056  0.019082556            3 
 2473000   0.84392776   -7.9815727    576.48585  0.019425996   0.01907659            3 
 2474000   0.84920132   -7.9734671    576.62733  0.019422909  0.019070675            3 
 2475000   0.86998189   -7.9566311    577.82974  0.019455547  0.019064762            2 
 2476000   0.85473826   -7.9730702    577.25019  0.019428184  0.019058859            1 
 2477000   0.85046696   -7.9879627    577.35162  0.019423752  0.019052907            3 
 2478000   0.86149784    -8.005231    575.41617  0.019350826  0.019046893            2 
 2479000   0.86326615   -7.9778685    576.34824  0.019374353  0.019040913            3 
 2480000   0.87529127   -7.9328696    576.16109  0.019360252  0.019034927            2 
 2481000   0.84880498   -7.9481908    577.32685  0.019391605  0.019028936            3 
 2482000   0.84603478   -7.9684889    577.40324  0.019386356  0.019022953            5 
 2483000   0.85273677   -8.0205547    576.30738   0.01934177  0.019016969            1 
 2484000    0.8601215   -7.9829375    577.74917  0.019382353  0.019010973            4 
 2485000   0.85627441    -7.971704    576.27585  0.019325146  0.019004961            4 
 2486000   0.85307935   -7.9420201    576.33036    0.0193192  0.018998951            3 
 2487000   0.86217632   -7.9612678    577.39895  0.019347237   0.01899296            1 
 2488000     0.847279   -8.0171728    575.36325  0.019271277  0.018986947            3 
 2489000    0.8430886   -7.9526513    577.28691   0.01932794  0.018980956            4 
 2490000   0.86378753   -7.9929085    575.99623  0.019276982  0.018974948            2 
 2491000   0.82985854    -7.999547    576.29671  0.019279296  0.018968962            3 
 2492000   0.86870616   -7.9699352    577.85498  0.019323669  0.018962945            1 
 2493000   0.84732681   -7.9942544    576.24318   0.01926204  0.018956947            2 
 2494000   0.86286548   -7.9720896    576.93868  0.019277556  0.018950948            2 
 2495000   0.85817218   -7.9512709    576.71092  0.019262222  0.018944957            2 
 2496000   0.84535578   -7.9470453    577.07471   0.01926665  0.018938979            3 
 2497000   0.85489617   -7.9629927    576.73258  0.019247516  0.018933026            2 
 2498000   0.85301334   -7.9813217    578.48767  0.019298361  0.018927035            2 
 2499000   0.85333304   -7.9949269    577.59793  0.019260969   0.01892106            2 
 2500000   0.86700681   -7.9898749    577.28041   0.01924268  0.018915042            2 
 2501000   0.84954027   -8.0119712    576.78489  0.019218475  0.018909018            2 
 2502000   0.85120336   -7.9922033    576.85164  0.019213018  0.018902972            4 
 2503000   0.85995121    -8.014079    576.68096  0.019199659  0.018896936            1 
 2504000   0.84806589   -8.0055886    577.45743  0.019217833  0.018890903            3 
 2505000   0.84495634   -7.9559892    578.01148  0.019228592  0.018884862            1 
 2506000   0.85127621   -7.9662664    579.14317  0.019258552   0.01887883            2 
 2507000   0.85754007   -7.9675908    577.90311   0.01920965  0.018872798            2 
 2508000   0.85066881   -7.9939733    576.73642  0.019163225  0.018866764            2 
 2509000   0.83139341   -7.9584011    578.27709  0.019206759  0.018860724            2 
 2510000   0.83550949    -7.997926     577.1573  0.019161929  0.018854721            4 
 2511000    0.8660783   -7.9863789    578.70192  0.019205559  0.018848721            3 
 2512000   0.86493918   -7.9759345    578.04391  0.019176085  0.018842717            1 
 2513000   0.84371699   -8.0092419    578.18664  0.019173187  0.018836688            6 
 2514000   0.87286889   -7.9937407    577.97621  0.019158585  0.018830699            2 
 2515000   0.85650918   -7.9918692    579.52072  0.019202144  0.018824708            2 
 2516000   0.85764577   -8.0042602     577.2617  0.019119691  0.018818683            2 
 2517000   0.83781151   -7.9852233    577.26337   0.01911215  0.018812611            2 
 2518000   0.84263031   -8.0239905    577.14379  0.019100602  0.018806543            2 
 2519000   0.86830738   -8.0070315    578.39533  0.019134423  0.018800504            2 
 2520000   0.84557677   -7.9994794    577.99114  0.019113464  0.018794476            1 
 2521000   0.83208502   -7.9653637     579.1819  0.019145243  0.018788501           10 
 2522000   0.85057461   -7.9613129    577.47159  0.019081139  0.018782508            3 
 2523000   0.85066057   -7.9714597    578.96949  0.019123051  0.018776545            2 
 2524000   0.82785733   -7.9940247    578.48326  0.019099421  0.018770586            2 
 2525000   0.86627809   -7.9803607    579.01524  0.019109414  0.018764677            2 
 2526000   0.82253341   -7.9727978    578.92302  0.019098806  0.018758792            1 
 2527000   0.85774105   -7.9734698    579.74014  0.019118195  0.018752889            2 
 2528000   0.87357186   -7.9630854    579.69932  0.019109287  0.018746962            3 
 2529000   0.84525065   -7.9844548    579.84751  0.019106614  0.018741058            2 
 2530000   0.84499926   -7.9688605    580.27145  0.019113025  0.018735135            4 
 2531000   0.85027548   -7.9725296    579.46558   0.01907894   0.01872927            4 
 2532000   0.85146503   -7.9847096    579.96199  0.019087743  0.018723366            3 
 2533000   0.85704675    -7.978113    580.77281  0.019106883  0.018717446            2 
 2534000   0.85115353   -8.0018228    578.68556  0.019030701  0.018711549            1 
 2535000   0.86058019   -8.0210276    579.61639  0.019053793  0.018705626            2 
 2536000   0.86549858   -7.9919614    580.43498  0.019073179  0.018699694            3 
 2537000   0.81779134   -8.0187197    579.26969  0.019027384  0.018693757            2 
 2538000   0.84591406   -8.0446646     577.8891  0.018974557  0.018687814            2 
 2539000   0.85351829   -7.9987961    579.50414  0.019020091  0.018681885            1 
 2540000   0.83577685   -7.9952708    579.84094  0.019023653  0.018675947            2 
 2541000   0.83785674   -7.9738268    581.63157  0.019074891  0.018670061            2 
 2542000   0.84348655      -7.9989    580.61459  0.019034048   0.01866417            1 
 2543000   0.85287833   -8.0093644    580.86163  0.019034658  0.018658286            3 
 2544000   0.83905799   -8.0206542    580.63968  0.019019906   0.01865239            3 
 2545000   0.84026385   -7.9859565    581.19435  0.019030594  0.018646493            1 
 2546000   0.86589571   -8.0082283    581.18905  0.019022946  0.018640599            4 
 2547000   0.84481985    -7.984205     580.8196   0.01900339  0.018634678            2 
 2548000   0.85056448   -7.9956574    581.04264  0.019003226  0.018628803            2 
 2549000   0.84282012    -8.005524    581.03226  0.018995432  0.018622924            2 
 2550000   0.83492258   -8.0094964    581.24369  0.018994892  0.018616982            4 
 2551000   0.82793758   -8.0539474    580.22185  0.018954065  0.018611044            4 
 2552000   0.84931348   -8.0134089    580.50393  0.018955849  0.018605099            5 
 2553000   0.84972357   -7.9935547    580.82276  0.018958831  0.018599189            3 
 2554000    0.8436516   -8.0120718    580.21775  0.018931668   0.01859326            2 
 2555000   0.83541802   -8.0561108    579.76549  0.018909507  0.018587315            1 
 2556000   0.83092155   -8.0116781    580.01362  0.018910199  0.018581345            3 
 2557000   0.84045048   -8.0188437    580.32425  0.018912927  0.018575386            2 
 2558000   0.84550504   -8.0601043    579.29034  0.018871851  0.018569454            2 
 2559000   0.86192704   -8.0420892    579.77901   0.01888039  0.018563491            2 
 2560000   0.82992562   -8.0543216    579.51016  0.018864263  0.018557521            2 
 2561000   0.84705461   -8.0366281    580.26266  0.018881383  0.018551566            2 
 2562000   0.85197276   -8.0026211    580.82446  0.018892287  0.018545627            2 
 2563000   0.83442917   -7.9944691    582.32307  0.018933641  0.018539691            2 
 2564000   0.85343845   -7.9926988    581.90591  0.018912699  0.018533786            3 
 2565000   0.83878365   -7.9791556    580.62653   0.01886376  0.018527896            1 
 2566000   0.84594286   -8.0010152    581.01441  0.018869005  0.018521974            5 
 2567000   0.85209882   -7.9757599    581.57707  0.018879921  0.018516041            1 
 2568000   0.81620347   -7.9889405    583.09431  0.018921804  0.018510125            1 
 2569000   0.81812357   -8.0300544    580.33279   0.01882486  0.018504212            1 
 2570000   0.85665771   -8.0148622    580.05361  0.018808483  0.018498263            2 
 2571000   0.85135374   -8.0072605     581.8235  0.018858534  0.018492305            7 
 2572000   0.84902323   -8.0095537    580.77842  0.018817341  0.018486366            2 
 2573000   0.82347813   -7.9920061    581.22079  0.018824355  0.018480439            1 
 2574000   0.83521141   -7.9717597    581.65335  0.018831046  0.018474502            1 
 2575000   0.84349051   -8.0056043    581.73504  0.018826377  0.018468579            1 
 2576000    0.8376746   -8.0168286    583.21289  0.018866876   0.01846264            1 
 2577000   0.83500846   -8.0205131    581.16007  0.018793172  0.018456678            2 
 2578000   0.85068716   -8.0380652    580.08976  0.018751285  0.018450709            3 
 2579000   0.82385041    -7.994226    580.00221  0.018741185  0.018444753            2 
 2580000   0.81828001   -8.0127593    581.87763  0.018794497  0.018438833            1 
 2581000    0.8526992   -8.0310794    580.45649   0.01874133   0.01843288            7 
 2582000   0.83873843   -8.0189544    581.47077  0.018766808  0.018426916            1 
 2583000    0.8423615   -8.0257346    581.83553   0.01877131  0.018420991            1 
 2584000   0.83584788   -8.0297623    581.08385  0.018739804  0.018415019            2 
 2585000   0.84269602    -7.975669    582.58757  0.018781031  0.018409084            2 
 2586000   0.82956778   -8.0136111    580.62168  0.018710418  0.018403138            2 
 2587000   0.83310219   -8.0209488     582.6482  0.018768464  0.018397198            3 
 2588000    0.8339834   -8.0009546    581.93224  0.018738158  0.018391298            1 
 2589000    0.8196488   -7.9916021    583.37107  0.018777233  0.018385377            2 
 2590000   0.84065479   -8.0278421    582.82278  0.018752342  0.018379491            2 
 2591000   0.82627914   -8.0292328    581.26985  0.018695158  0.018373539            2 
 2592000   0.82344237   -8.0078661    582.59753   0.01873063  0.018367566            5 
 2593000   0.84576222   -8.0490056    581.54035  0.018689432   0.01836162            1 
 2594000   0.84237542   -8.0593009    580.86158  0.018660421  0.018355655            1 
 2595000   0.80510619   -8.0033272    583.14225  0.018726469  0.018349704            5 
 2596000    0.8531371   -8.0783274    580.97641  0.018649731  0.018343732            1 
 2597000   0.84708866   -8.0540673    581.33997  0.018654215  0.018337758            4 
 2598000   0.85000117   -8.0549682    582.46132  0.018683004  0.018331846            4 
 2599000   0.83631985   -8.0293718    582.50386  0.018677179  0.018325922            2 
 2600000   0.84466938   -8.0267493    581.50328  0.018637926  0.018320038            2 
 2601000   0.83363063   -8.0337391    583.47717  0.018694001   0.01831417            2 
 2602000   0.83404097   -8.0214597    583.66734  0.018692907  0.018308315            2 
 2603000   0.83950425   -8.0341902    582.73792  0.018655971  0.018302384            2 
 2604000   0.84039537   -8.0340907    581.80788  0.018619044  0.018296469            6 
 2605000   0.82491347   -8.0244635    581.84949  0.018613228  0.018290536            2 
 2606000   0.83053457   -7.9947278     583.0239   0.01864364  0.018284621            5 
 2607000   0.83056719   -8.0561789    581.73757   0.01859537  0.018278693            1 
 2608000   0.85647744   -8.0157204    581.03292  0.018565725  0.018272737            2 
 2609000   0.84107793   -8.0379509    581.58867   0.01857636   0.01826682            2 
 2610000   0.83563301   -8.0396731     582.1493  0.018587142   0.01826085            1 
 2611000   0.84511632   -8.0525045    583.13672  0.018611538  0.018254878            4 
 2612000    0.8204563   -8.0606075     582.5672  0.018586243  0.018248928            3 
 2613000   0.84833145   -8.0499395    581.65681  0.018550096  0.018242965            1 
 2614000   0.82520777   -8.0578887     582.5181  0.018570457  0.018237028            1 
 2615000   0.82011528   -8.0217303    583.16084  0.018583838   0.01823109            4 
 2616000   0.86020457   -8.0564436    584.11493  0.018607127  0.018225161            1 
 2617000   0.84464605   -8.0312469    581.78512  0.018525828  0.018219247            2 
 2618000   0.83393529   -8.0416533    582.84312  0.018552429  0.018213301            1 
 2619000   0.83453513   -8.0395835     581.9453  0.018516778  0.018207351            3 
 2620000    0.8375838   -8.0494001    581.98507  0.018510976  0.018201375            2 
 2621000   0.83712867   -8.0562302    584.07628  0.018570402  0.018195404            2 
 2622000   0.82525527   -8.0198234    584.27156  0.018569526  0.018189475            2 
 2623000   0.83577432   -8.0185155    583.14524  0.018526663  0.018183539            6 
 2624000   0.83898576   -8.0059549    584.88856  0.018574967   0.01817763            1 
 2625000   0.82940451   -8.0168078    583.20047  0.018514301  0.018171739            4 
 2626000   0.83257504   -8.0266765    583.88766  0.018529058  0.018165844            1 
 2627000   0.84616081   -8.0198937    584.44902  0.018539811  0.018159965            2 
 2628000   0.81397349   -8.0373051    584.21282  0.018525267  0.018154084            2 
 2629000   0.82742825   -8.0381302    584.02138  0.018512152   0.01814815            1 
 2630000   0.82839028   -8.0705367    582.68315  0.018462711   0.01814217            2 
 2631000   0.82731217   -8.0587067    582.91388  0.018463001  0.018136191            3 
 2632000    0.8189272   -8.0630251    581.97781  0.018426349  0.018130199            1 
 2633000   0.83349456   -8.0512915    583.57317  0.018469843   0.01812422            2 
 2634000   0.83334363   -8.0394649    584.34339  0.018487199  0.018118288            2 
 2635000   0.82288802   -8.0546742    582.82169  0.018432058  0.018112339            4 
 2636000   0.81419257   -8.0518303    583.61452   0.01845013  0.018106393            3 
 2637000   0.83504283    -8.011043    583.95587  0.018453921  0.018100476            1 
 2638000   0.84715393   -8.0225527    585.04438  0.018481311  0.018094575            3 
 2639000   0.82697066   -8.0083219    585.23269  0.018480254  0.018088684            2 
 2640000   0.84494602    -8.038723     583.2562  0.018410865  0.018082767            3 
 2641000   0.84909163   -8.0372615    584.47462   0.01844234  0.018076878            2 
 2642000   0.82368934   -8.0015523    585.60533  0.018471024  0.018070993            7 
 2643000   0.82233289    -8.010678    583.65468  0.018402531  0.018065117            3 
 2644000   0.83354982   -8.0436073     583.6447  0.018395257  0.018059239            2 
 2645000   0.82945607    -7.981417    585.80895  0.018456489  0.018053372            5 
 2646000   0.82520678   -8.0550155    583.22187  0.018368036  0.018047501            5 
 2647000   0.81472417   -8.0334741     584.2161  0.018392397  0.018041591            2 
 2648000   0.83807004   -8.0536564    583.59031  0.018365758  0.018035706            2 
 2649000   0.82878906   -8.0098144    584.21249  0.018378397  0.018029826            2 
 2650000    0.8231297   -8.0171662    584.87388   0.01839226  0.018023947            3 
 2651000   0.84719516    -8.056846    583.37866  0.018338321  0.018018035            1 
 2652000   0.82779563   -8.0469579    584.51639  0.018367157  0.018012156            3 
 2653000   0.84704408   -8.0168211    586.52919  0.018423457  0.018006304            1 
 2654000   0.83167093   -8.0465532    585.08457  0.018371156  0.018000435            2 
 2655000   0.82188303   -8.0553893    584.80889  0.018355583  0.017994547            2 
 2656000   0.83094608   -8.0791542    583.23021  0.018299141   0.01798866            2 
 2657000   0.82236058    -8.084977    584.96587   0.01834669  0.017982758            1 
 2658000   0.83405066    -8.070797    583.46798  0.018292826  0.017976821            2 
 2659000   0.82885273   -8.0404159     583.8767  0.018298756  0.017970908            2 
 2660000   0.83521268   -8.0564347    583.60534  0.018283375  0.017965018            4 
 2661000   0.83852651   -8.0463512    583.69105  0.018279189  0.017959119            2 
 2662000   0.83412503   -8.0804847    584.35158     0.018293  0.017953211            4 
 2663000   0.82036715   -8.0693801    584.93252   0.01830431  0.017947314            3 
 2664000   0.83714389   -8.0635921    584.18872  0.018274172   0.01794142            5 
 2665000   0.83036065   -8.0611347    585.75764  0.018316374  0.017935533            3 
 2666000   0.82007666    -8.043433    585.11477  0.018289409  0.017929672            1 
 2667000   0.83535029   -8.0774944    585.36438  0.018290351  0.017923777            2 
 2668000   0.82494809   -8.0979989    584.50118  0.018256534  0.017917903            1 
 2669000   0.80937623   -8.0370083    585.23568  0.018272627  0.017911991            3 
 2670000   0.82196557   -8.0560531    586.85819  0.018316423  0.017906112            1 
 2671000   0.82537777   -8.0722629    585.30509   0.01826111  0.017900252            2 
 2672000   0.82639284   -8.0575408     585.6288  0.018264371  0.017894376            1 
 2673000   0.81867472   -8.0223165    585.58989  0.018256325  0.017888496            1 
 2674000   0.84633292   -8.0306057    586.02977  0.018263206  0.017882599            2 
 2675000   0.80931761   -8.0666285    585.43106  0.018237728  0.017876729            3 
 2676000    0.8165901   -8.0556713    584.06709  0.018188437  0.017870862            2 
 2677000   0.83334193   -8.0502755    585.70549  0.018232645  0.017864962            3 
 2678000   0.83552013   -8.0781217    583.78636  0.018166118   0.01785905            1 
 2679000   0.84763355   -8.0591503     585.7613   0.01822077  0.017853124            2 
 2680000   0.80740474   -8.0688074    585.99529  0.018221247  0.017847216            2 
 2681000   0.81260864    -8.063986    585.18165   0.01818916  0.017841298            1 
 2682000   0.82946189   -8.0687233    583.26018  0.018122675  0.017835365            3 
 2683000    0.8326711   -8.0699984    586.31222  0.018210716   0.01782947            3 
 2684000   0.83754275   -8.0610771    584.06325  0.018134105  0.017823556            4 
 2685000   0.79803556   -8.0805911    585.80156  0.018181302  0.017817672            2 
 2686000   0.81832311   -8.0769092    583.68003  0.018108713  0.017811758            2 
 2687000   0.82259812   -8.0634772    585.14578  0.018147432   0.01780586            2 
 2688000   0.83260271   -8.0724466    586.29629  0.018176348  0.017799964            5 
 2689000   0.82140085   -8.0618507    586.64314  0.018180338  0.017794086            1 
 2690000   0.83077728   -8.0222758    586.67356  0.018174522  0.017788217            3 
 2691000   0.81558935   -8.0666866    586.39175  0.018159041  0.017782342            5 
 2692000   0.82367829   -8.0492784    586.50197  0.018155707  0.017776477            2 
 2693000   0.84220253   -8.0663789    585.43199  0.018115856  0.017770584            1 
 2694000   0.85293748   -8.0699559    584.59169  0.018083138  0.017764702            2 
 2695000   0.82551913   -8.0732385    584.97923  0.018088412   0.01775881            1 
 2696000   0.81939445   -8.0869335    585.07955  0.018084803  0.017752922            1 
 2697000   0.83332482   -8.0644803    586.11816  0.018110189  0.017747031            2 
 2698000   0.82980128   -8.0618976    587.32658  0.018140801  0.017741179            3 
 2699000   0.81374064   -8.0828917    587.15242  0.018128703  0.017735311            2 
 2700000   0.81503279   -8.0647666    584.82103  0.018050032  0.017729445            1 
 2701000   0.83119902   -8.0509641    586.47662  0.018094429  0.017723589            2 
 2702000   0.81989139   -8.0521442    586.07363  0.018075303  0.017717736            5 
 2703000   0.81627408   -8.0698437    585.51727  0.018051463  0.017711843            2 
 2704000   0.82392683   -8.0947328    584.22725  0.018005031   0.01770593            2 
 2705000   0.79625754   -8.0599394    585.63774  0.018041828  0.017700038            1 
 2706000    0.8215919   -8.0285742    587.15502  0.018081887  0.017694181            3 
 2707000   0.82722111   -8.0657915    585.94992  0.018038109  0.017688354            1 
 2708000   0.81221933   -8.0473711    586.02007  0.018033606  0.017682526            2 
 2709000   0.82137058   -8.0831667     585.5159   0.01801144  0.017676651            5 
 2710000   0.82797626   -8.0453321    587.56666  0.018067855  0.017670819            1 
 2711000   0.83586184    -8.062154    585.01702  0.017982818  0.017664968            6 
 2712000   0.81175048   -8.0488314    588.41049   0.01808046  0.017659123            2 
 2713000   0.83491655   -8.0719009    587.60625  0.018049092   0.01765332            2 
 2714000   0.81494339   -8.0710556    588.11804  0.018058156  0.017647509            3 
 2715000   0.80663194   -8.1132138    585.89465  0.017983261  0.017641683            1 
 2716000   0.81797342   -8.0852598    586.87852  0.018006828  0.017635811            2 
 2717000   0.80081946   -8.0827393    587.95716  0.018033283  0.017629999            1 
 2718000   0.82182245   -8.0830458    586.99782  0.017997235  0.017624174            1 
 2719000   0.82203354   -8.1233837    586.71433  0.017981928  0.017618356            2 
 2720000   0.80925801   -8.0916896    587.87419  0.018010852  0.017612504            2 
 2721000   0.81871769   -8.0935744    587.53795  0.017993935  0.017606702            1 
 2722000    0.8311095   -8.0930822    586.00292  0.017940329  0.017600881            2 
 2723000   0.80978698   -8.0888901    587.24679  0.017971808  0.017595093            9 
 2724000   0.81104227   -8.0611356    588.25381  0.017996017  0.017589314            1 
 2725000   0.81030332   -8.0936535    588.51039   0.01799726   0.01758356            1 
 2726000   0.81002615   -8.1176655    587.85224  0.017970538  0.017577751            3 
 2727000   0.82826454   -8.1203302    588.22808  0.017975433  0.017571943            1 
 2728000   0.81869721   -8.0688948    588.16279   0.01796685  0.017566167            2 
 2729000   0.81437128   -8.0722576    589.15987  0.017990713  0.017560401            2 
 2730000   0.80998521   -8.0758765    588.60951  0.017967323  0.017554628            2 
 2731000   0.80473588   -8.1044144    586.99428  0.017911457  0.017548831            5 
 2732000   0.81209999   -8.0786724    586.89075  0.017901743  0.017543014            1 
 2733000   0.81658297   -8.1116929    587.47411  0.017912981  0.017537186            1 
 2734000   0.78918538   -8.1156688    587.52117  0.017907863   0.01753133            1 
 2735000   0.82120821   -8.1001518    587.50607  0.017900855  0.017525475            2 
 2736000   0.80386005   -8.1270096    586.47017  0.017862761  0.017519636            1 
 2737000   0.80648717   -8.0812684    588.27917  0.017911313   0.01751383            4 
 2738000   0.82308995    -8.113368    587.86435  0.017892146  0.017508041            1 
 2739000   0.80384035   -8.0957878    587.88542  0.017886255  0.017502263            2 
 2740000    0.8006031   -8.1089151    586.43988  0.017835763  0.017496433            3 
 2741000   0.81120901     -8.09567    588.45904  0.017890643  0.017490641            2 
 2742000   0.81201161    -8.058921    588.32315  0.017879989  0.017484872            2 
 2743000   0.81549015   -8.0972487    588.49154  0.017878586  0.017479091            1 
 2744000   0.82520713   -8.0746319    588.98054  0.017886921  0.017473296            2 
 2745000   0.82087084   -8.0984084    589.12558  0.017884808  0.017467523            1 
 2746000   0.80065603   -8.0792451     588.5188  0.017859881  0.017461736            3 
 2747000   0.78674413   -8.0954425    586.76484  0.017800171  0.017455932            4 
 2748000   0.80437428   -8.0757185    589.04035  0.017862699  0.017450133            1 
 2749000    0.8175317   -8.0832786    589.78481  0.017878768  0.017444341            1 
 2750000   0.80047868   -8.1249993    587.18436  0.017793466  0.017438531            1 
 2751000   0.81181602   -8.1041783    587.75615  0.017804318  0.017432713            3 
 2752000    0.8114252   -8.1354539    588.56108  0.017822223   0.01742688            1 
 2753000   0.80014817   -8.1050446    587.89553  0.017795603  0.017421069            5 
 2754000   0.80933741   -8.1203368    588.53559  0.017808508  0.017415282            2 
 2755000   0.81777078   -8.0972192    588.37568  0.017797207  0.017409509            2 
 2756000    0.8060235   -8.1007756    588.60163  0.017797582  0.017403707            2 
 2757000   0.80721788   -8.0786385     589.3818  0.017814708  0.017397944            4 
 2758000   0.81436379   -8.0995741    589.71914  0.017818442  0.017392176            4 
 2759000   0.81716527   -8.0783369    589.23419  0.017797336  0.017386407            5 
 2760000   0.80624055   -8.0839305    590.19852  0.017820004  0.017380664            3 
 2761000    0.8149797   -8.0820473    590.16335  0.017812488  0.017374918            2 
 2762000   0.80654044      -8.0893    589.19025  0.017776679   0.01736916            1 
 2763000   0.79417033   -8.0771758    590.65965  0.017814563  0.017363378            4 
 2764000     0.818045   -8.1066674    588.74535  0.017750403  0.017357578            2 
 2765000   0.84391807   -8.0637846    589.39597  0.017763592  0.017351813            1 
 2766000   0.80670156   -8.1049095    588.55707  0.017731895  0.017346016            1 
 2767000   0.81671867   -8.0815369    588.39078  0.017720479  0.017340209            2 
 2768000   0.81577909   -8.0662291    588.11425  0.017705752  0.017334414            3 
 2769000   0.82349121   -8.0836703    587.90415  0.017693035  0.017328628            2 
 2770000   0.80325267   -8.0843293    588.77274  0.017712778  0.017322838            3 
 2771000   0.80720082   -8.1224684    588.54596  0.017699566  0.017317049            5 
 2772000   0.81059525   -8.0831808    590.11362  0.017740309  0.017311253            1 
 2773000   0.81564713   -8.0746392    589.85454  0.017726125  0.017305462            2 
 2774000   0.80583108   -8.1040119    589.34881  0.017704543   0.01729969            3 
 2775000   0.80085263   -8.0886523    588.34303  0.017667959  0.017293909            2 
 2776000   0.80432774   -8.1190386    589.16184  0.017686174  0.017288158            2 
 2777000   0.78998861   -8.0986667    589.04161  0.017676198  0.017282406            4 
 2778000   0.80632171   -8.1022821    588.58062  0.017656006  0.017276643            1 
 2779000   0.79391044   -8.0987117    589.23538  0.017669287  0.017270876            2 
 2780000   0.81439807   -8.1133924    588.15502  0.017630546    0.0172651            2 
 2781000   0.80149384   -8.0849943    589.93907  0.017677666   0.01725933            3 
 2782000   0.81320096   -8.1019677    587.67726   0.01760356  0.017253559            4 
 2783000   0.81198714   -8.1327874    588.17865  0.017612249  0.017247789            1 
 2784000   0.80887076   -8.0862564    589.97814  0.017659786  0.017241994            2 
 2785000   0.81361818   -8.1151691    588.59456  0.017612046  0.017236226            2 
 2786000   0.81249605   -8.1428385     587.1787  0.017563374   0.01723042            1 
 2787000   0.81722772   -8.1176207    589.60146  0.017629514  0.017224611            1 
 2788000   0.79912496   -8.0965678    589.29019  0.017613887  0.017218836            1 
 2789000    0.8139169   -8.0859805    589.06327  0.017600791  0.017213043            6 
 2790000   0.79520282   -8.1183466    588.54274  0.017578935  0.017207249            2 
 2791000   0.79500256   -8.1027288    587.66204  0.017546341  0.017201433            1 
 2792000   0.81230299    -8.124151    588.78925    0.0175737  0.017195617            2 
 2793000   0.81043727   -8.0724648    588.74046  0.017565953   0.01718982            3 
 2794000   0.79166712   -8.1025134    589.11829  0.017570934  0.017184048            3 
 2795000   0.80571712   -8.1358696    589.04709  0.017562525  0.017178256            5 
 2796000   0.79949597   -8.1115659    588.29558  0.017533845  0.017172447            1 
 2797000   0.81304298   -8.1104569    588.68854  0.017539284  0.017166652            1 
 2798000   0.80052258   -8.1048574      589.274  0.017550453  0.017160861            2 
 2799000   0.81349728   -8.0898422    589.19289  0.017541767  0.017155086            2 
 2800000   0.80258868   -8.1159538    589.40312  0.017541759  0.017149302            1 
 2801000   0.79852058   -8.0994863    589.06655  0.017525483   0.01714353            2 
 2802000   0.81322051   -8.0784231    590.28667  0.017555516  0.017137762            2 
 2803000   0.80330334   -8.1036153    589.97334  0.017539938  0.017132006            2 
 2804000   0.80729128   -8.1172632    589.20241  0.017510771   0.01712627            2 
 2805000    0.8175438   -8.1002631    590.22605  0.017534939  0.017120519            2 
 2806000   0.81026842   -8.1112042    589.86278  0.017517901  0.017114774            3 
 2807000   0.82340517   -8.1369537    588.97218  0.017485221  0.017109046            2 
 2808000   0.82016296   -8.1059229    590.46048  0.017523162  0.017103313            3 
 2809000   0.81019819   -8.0948616    590.88457  0.017529505  0.017097577            4 
 2810000   0.79740587   -8.0746178    590.18456  0.017502508  0.017091864            3 
 2811000   0.79484301   -8.1082144    589.61678  0.017479449  0.017086151            3 
 2812000   0.79534782   -8.1079439    591.03393   0.01751523  0.017080392            3 
 2813000   0.81732324   -8.1047409    589.85322  0.017474026  0.017074648            2 
 2814000   0.78624513   -8.1246901    588.79996  0.017436625  0.017068894            2 
 2815000   0.79902429   -8.1196951    588.76913  0.017429518  0.017063134            2 
 2816000   0.79454646   -8.1024297    590.76189    0.0174823  0.017057391            2 
 2817000   0.81976715    -8.095928    590.90389  0.017480295  0.017051637            2 
 2818000   0.79868225   -8.1129202    589.58109  0.017434974  0.017045912            2 
 2819000   0.78924836   -8.1153096    590.30876    0.0174503  0.017040161            5 
 2820000   0.80454137   -8.0938765    590.43835  0.017447942  0.017034386            1 
 2821000   0.78944712   -8.1056082    590.92524   0.01745614  0.017028635            1 
 2822000   0.77543946   -8.1298246    590.00671   0.01742283   0.01702289            2 
 2823000   0.79368517   -8.0951741    589.42151  0.017399383  0.017017139            2 
 2824000   0.79893459   -8.1283937    589.38515  0.017392149  0.017011379            4 
 2825000   0.78390567   -8.1048105    589.83309  0.017399206  0.017005622            2 
 2826000   0.79910885   -8.1204866    590.60601  0.017415841  0.016999861            1 
 2827000   0.79939156   -8.1272043    590.33067  0.017401564  0.016994123            2 
 2828000   0.78927715   -8.1386808    588.73224   0.01734831  0.016988344            4 
 2829000   0.79749451   -8.1154952    589.00325  0.017350161  0.016982558            8 
 2830000   0.79147244   -8.1237224    590.49459  0.017387944  0.016976797            2 
 2831000    0.8067278   -8.1247318    590.42192  0.017379663  0.016971041            5 
 2832000   0.80302406   -8.1334111    591.23197  0.017397363  0.016965272            4 
 2833000   0.79257696   -8.1351907    589.00297  0.017325655  0.016959492            2 
 2834000   0.79610677   -8.1446728    590.05032  0.017350339  0.016953707            2 
 2835000   0.80762289   -8.1457665    590.02011  0.017343331  0.016947905            2 
 2836000   0.80427593   -8.1306413    590.54539   0.01735265   0.01694214            3 
 2837000   0.80471522   -8.1308399    589.20033  0.017307024  0.016936379            4 
 2838000   0.79802615   -8.1317506    589.81594  0.017319002  0.016930621            4 
 2839000   0.80545369   -8.1645039    590.60538  0.017336074  0.016924856            3 
 2840000   0.79316921     -8.16156    589.95538  0.017310897  0.016919077            2 
 2841000   0.79613913   -8.1386776    590.42006  0.017318434  0.016913298            2 
 2842000   0.80429377   -8.1282334    588.95112  0.017269268  0.016907532            2 
 2843000   0.78620509   -8.1290182    591.39834  0.017334926  0.016901789            2 
 2844000   0.79365017   -8.1327517    590.56661   0.01730446  0.016896032            1 
 2845000   0.79686781   -8.1550902    589.87066  0.017277992  0.016890305            1 
 2846000   0.80042499   -8.1339078    590.28423  0.017284031  0.016884553            1 
 2847000   0.79754678   -8.1362086    591.69626  0.017319291  0.016878817            5 
 2848000   0.79929724   -8.1311465    591.08653  0.017295369  0.016873119            2 
 2849000   0.79085491   -8.1620633    590.96848  0.017285845  0.016867413            2 
 2850000   0.79434046   -8.1635204    589.92987  0.017249411   0.01686167            1 
 2851000   0.80871159   -8.1415478    590.23564  0.017252299  0.016855938            3 
 2852000   0.79409519   -8.1432221    589.87038  0.017235577  0.016850225            1 
 2853000    0.7943027   -8.1380709    590.11614  0.017236714  0.016844509            2 
 2854000   0.80129313   -8.1187031    590.23723   0.01723421  0.016838782            1 
 2855000   0.81059453    -8.104934    591.27659  0.017258511  0.016833087            2 
 2856000   0.79646447   -8.1250008    591.48234  0.017258472   0.01682738            2 
 2857000    0.7881997   -8.1167459    593.32314  0.017306124  0.016821715            2 
 2858000   0.76748202    -8.103635    591.68571  0.017252324   0.01681604            4 
 2859000   0.80118753   -8.1242041    591.85085  0.017251103  0.016810368            3 
 2860000   0.79429068   -8.1282839    591.66788   0.01723974  0.016804686            3 
 2861000   0.79472933   -8.1329697    590.56652  0.017201635  0.016798981            1 
 2862000   0.78943931   -8.1821925    590.86283  0.017204252  0.016793267            2 
 2863000   0.79810472   -8.1624359    591.20459   0.01720819   0.01678754            3 
 2864000    0.7921882   -8.1598439    589.02557  0.017138779  0.016781789            2 
 2865000   0.79051691   -8.1553101    590.73716  0.017182582  0.016776054            1 
 2866000   0.79375145   -8.1604104    591.77094  0.017206645  0.016770342            4 
 2867000   0.79852517   -8.1413464    591.50076   0.01719279   0.01676465            2 
 2868000   0.78314786   -8.1613907     590.5496  0.017159159  0.016758943            2 
 2869000   0.80743279   -8.1570086    591.07115  0.017168327  0.016753224            1 
 2870000   0.79833092   -8.1528899    591.08522  0.017162753  0.016747516            1 
 2871000    0.7829345   -8.1602541    590.58325  0.017142205   0.01674181            2 
 2872000   0.80985504   -8.1813653    589.70157  0.017110654  0.016736086            2 
 2873000   0.79085211   -8.1345811    590.69773  0.017133592  0.016730339            3 
 2874000   0.79513708   -8.1403336    590.74141  0.017128897  0.016724626            2 
 2875000   0.77840953   -8.1049613    590.96938  0.017129547  0.016718928            3 
 2876000    0.7897155   -8.1563133    589.86148  0.017091489  0.016713233            2 
 2877000   0.78485438   -8.1685358    589.80817  0.017084005  0.016707517            2 
 2878000   0.78970044   -8.1567385    590.80871  0.017107039  0.016701816            2 
 2879000   0.81550118   -8.1414729    591.76878  0.017128887  0.016696139            3 
 2880000   0.77994035   -8.1527456    591.45701  0.017113918  0.016690468            2 
 2881000    0.7774989   -8.1678109    590.85227  0.017090486  0.016684788            1 
 2882000   0.79428139   -8.1400442    591.48348  0.017102807  0.016679155            2 
 2883000   0.76884719   -8.1542173    592.07188  0.017113882  0.016673528            3 
 2884000   0.79692072   -8.1393638    592.87171   0.01713106  0.016667891            2 
 2885000   0.79167133   -8.1419632    592.82664   0.01712382  0.016662258            2 
 2886000    0.7817691   -8.1251561    594.44631  0.017164654  0.016656633            2 
 2887000   0.78476241   -8.1677596    591.68246   0.01707893  0.016651005            2 
 2888000   0.77506123   -8.1479243    592.95278  0.017109672  0.016645365            2 
 2889000   0.81040883   -8.1374702    591.06486  0.017049292  0.016639735            3 
 2890000   0.79221999   -8.1446574    592.29771  0.017078942  0.016634099            2 
 2891000   0.77998452   -8.1522984    592.08147  0.017066801  0.016628463            1 
 2892000   0.80672548   -8.1693152    591.76117   0.01705167  0.016622846            2 
 2893000   0.76331656   -8.1449668    592.03446  0.017053648  0.016617222            2 
 2894000   0.78372375   -8.1486092    592.75387  0.017068471  0.016611598            1 
 2895000   0.78764112   -8.1995023    592.34771  0.017050884  0.016605946            2 
 2896000   0.78619767    -8.138037    592.49947  0.017049363  0.016600302            2 
 2897000   0.79685821   -8.1705784    592.94019  0.017056156  0.016594703            1 
 2898000   0.78017033    -8.143493     592.0788    0.0170255  0.016589119            1 
 2899000   0.78386786   -8.1401292    592.62078  0.017035207  0.016583539            2 
 2900000   0.79488835   -8.1311307    593.47043  0.017053748  0.016577957            2 
 2901000   0.78115652   -8.1261663    592.93094  0.017032372   0.01657239            3 
 2902000   0.78456318    -8.120664    593.72746  0.017049376  0.016566807            3 
 2903000   0.79511931   -8.1445595    592.87843  0.017019131  0.016561218            5 
 2904000   0.79568584   -8.1228269    593.63482  0.017034975  0.016555626            2 
 2905000   0.78053177   -8.1483019     593.7535  0.017032516  0.016550051            1 
 2906000   0.76784444   -8.1607067     594.1765  0.017038785  0.016544458            2 
 2907000   0.79340907    -8.139938    592.73782  0.016991681  0.016538839            1 
 2908000   0.78417082   -8.1405947    593.08725  0.016995852  0.016533258            4 
 2909000   0.81251023   -8.1490996    592.13451  0.016962716  0.016527666            3 
 2910000    0.7916318   -8.1355797    593.62212  0.016999488   0.01652205            1 
 2911000   0.77430535   -8.1446341    593.47759  0.016989511  0.016516483            2 
 2912000   0.78495963   -8.1390595    593.20948  0.016976004   0.01651089            2 
 2913000   0.79303858   -8.1670984    594.20241  0.016998581  0.016505309            1 
 2914000   0.77738081   -8.1626292    592.82466  0.016953348  0.016499717            4 
 2915000   0.77641678   -8.1502576    592.93785  0.016950768  0.016494129            2 
 2916000   0.77852453   -8.1563637     593.9105  0.016972751  0.016488558            1 
 2917000   0.77781588   -8.1538742    594.35076   0.01697951  0.016482992            5 
 2918000   0.78527646    -8.144419    593.26861  0.016942786  0.016477443            1 
 2919000   0.79191297   -8.1196133    593.18413   0.01693457  0.016471868            2 
 2920000   0.79276395   -8.1338523    594.39344  0.016963283  0.016466309            2 
 2921000   0.79367248   -8.1481034    593.69973  0.016937685   0.01646076            5 
 2922000    0.7866576   -8.1593556    593.53702  0.016927248  0.016455198            2 
 2923000   0.77975725   -8.1443932    595.04832  0.016964543  0.016449631            2 
 2924000    0.7913992   -8.1412303    594.93188  0.016955423  0.016444095            2 
 2925000   0.78914707   -8.1622211    595.28185  0.016959597  0.016438551            2 
 2926000   0.77233406    -8.169724    592.87548  0.016885267  0.016433001            2 
 2927000   0.77141768   -8.1582876    592.70477  0.016874638  0.016427446            2 
 2928000   0.78883843   -8.1733815    593.01828  0.016877797   0.01642189            2 
 2929000   0.78973905   -8.1633811    594.33814  0.016909586  0.016416348            2 
 2930000   0.77044865   -8.1361841    595.30092  0.016931198  0.016410808            3 
 2931000   0.77389333   -8.1372036    594.23673  0.016895164  0.016405264            1 
 2932000   0.79427395   -8.1272313    593.81595  0.016877443  0.016399714            2 
 2933000   0.80182115   -8.1644045    593.80393  0.016871347  0.016394172            3 
 2934000   0.79216148   -8.1681299    592.59543  0.016831272  0.016388626            3 
 2935000   0.76482423   -8.1647529    594.46417  0.016878597  0.016383094            2 
 2936000    0.7763516   -8.1839304    593.45506  0.016844206   0.01637756            1 
 2937000   0.78088019   -8.1636435    594.68644  0.016873409  0.016372053            2 
 2938000   0.79121376   -8.1602802    594.39618  0.016859433  0.016366529            2 
 2939000   0.78694823   -8.1756409     594.4159  0.016854256  0.016361014            2 
 2940000   0.76997401   -8.1783447    593.57922  0.016824808  0.016355474            3 
 2941000   0.76844822    -8.165306     594.8804  0.016855956  0.016349953            2 
 2942000   0.78388569   -8.1752162    593.72567  0.016817518  0.016344411            2 
 2943000   0.77799342   -8.1828992    593.74961  0.016812482   0.01633887            3 
 2944000   0.78491655   -8.2003445    594.10476  0.016816824  0.016333346            2 
 2945000   0.78613952   -8.1590801    594.89991  0.016833614  0.016327808            2 
 2946000   0.79027724     -8.17274    594.20836  0.016808338  0.016322292            2 
 2947000   0.78376687   -8.1697008    594.21855  0.016802923  0.016316784            3 
 2948000   0.78568939   -8.2029426    595.25216  0.016826441  0.016311252            2 
 2949000   0.77746703   -8.1544798    594.32782  0.016794614  0.016305749            2 
 2950000   0.79255451   -8.1831737    594.15719  0.016784101  0.016300219            2 
 2951000   0.77296634   -8.2154935    592.87705  0.016742264  0.016294665            4 
 2952000   0.79596287   -8.1756224    594.46112   0.01678131  0.016289102            2 
 2953000   0.77529258   -8.1699862    593.77322  0.016756215  0.016283574            4 
 2954000   0.77182505   -8.1755179    593.92736  0.016754891  0.016278038            1 
 2955000   0.77803898   -8.1907568     592.6396  0.016712905  0.016272511            3 
 2956000   0.77479496   -8.1841035     593.2296  0.016723884  0.016266961            2 
 2957000    0.7747805   -8.1899905    594.52136  0.016754632  0.016261422            9 
 2958000   0.77764821    -8.186853    595.05128  0.016763897  0.016255888            3 
 2959000   0.78655658    -8.165899    594.33783  0.016738139  0.016250376            3 
 2960000   0.78161937   -8.1838386    594.04153  0.016724142   0.01624486            1 
 2961000   0.78626924   -8.1551167    594.97375   0.01674473  0.016239341            1 
 2962000   0.78708262   -8.1791882    593.93084  0.016709736  0.016233823            4 
 2963000   0.76863895   -8.1984413    594.22179  0.016712279  0.016228286            3 
 2964000   0.79476338   -8.1635294     593.7111  0.016692282  0.016222751            5 
 2965000   0.79009428   -8.1878113    594.57325  0.016710884  0.016217224            2 
 2966000   0.78876886   -8.1713895    593.20058  0.016666683  0.016211712            1 
 2967000   0.79017001   -8.1836251    593.50231   0.01666954  0.016206192            4 
 2968000   0.79489668   -8.1819397    594.25793   0.01668514  0.016200668            2 
 2969000   0.76486324    -8.177734    594.42558  0.016684225  0.016195143            2 
 2970000   0.78581293   -8.1566083     595.0623  0.016696473  0.016189636            2 
 2971000   0.77534908   -8.1602397    594.49337  0.016674895  0.016184132            2 
 2972000   0.78561666   -8.1608367    595.72954  0.016703946  0.016178614            2 
 2973000   0.77730535   -8.1936931    594.99742  0.016677806  0.016173117            1 
 2974000    0.7653096   -8.1947913    595.15401  0.016676586  0.016167586            2 
 2975000   0.77391757   -8.1766818    594.52215  0.016653282  0.016162051            2 
 2976000   0.76733415   -8.1911702    595.02895  0.016661877  0.016156529            1 
 2977000   0.76773707   -8.1593605    595.38206  0.016666164   0.01615104            3 
 2978000   0.76792786   -8.1841241    594.32191  0.016630902  0.016145545            1 
 2979000   0.77148781   -8.1956787    595.63485  0.016662047  0.016140043            2 
 2980000   0.77035548   -8.1687238    595.45786  0.016651506  0.016134547            1 
 2981000   0.78129279   -8.1576722    594.44646  0.016617647   0.01612907            1 
 2982000   0.78105467   -8.1656178       594.24  0.016606304  0.016123612            4 
 2983000   0.76770122   -8.1836125    594.27507  0.016601717  0.016118112            1 
 2984000   0.77431803   -8.1827001    595.50188  0.016630414  0.016112626            3 
 2985000   0.76650476   -8.1618248    594.49251  0.016596664  0.016107125            2 
 2986000   0.76784771   -8.1827929    595.73729  0.016625845  0.016101621            3 
 2987000   0.78661366   -8.1993278    594.88361  0.016596463  0.016096111            2 
 2988000   0.75827632   -8.1961489    594.62647  0.016583737  0.016090607            1 
 2989000   0.77635539   -8.1693824    594.70986  0.016580514  0.016085102            2 
 2990000   0.77632122   -8.1759015    595.47819  0.016596382  0.016079596            1 
 2991000   0.77427021   -8.1831308    595.13315   0.01658122  0.016074125            1 
 2992000   0.76209263   -8.1738635    597.13587  0.016631458  0.016068648            1 
 2993000   0.78689928   -8.1902075    595.55733   0.01658195  0.016063192            3 
 2994000   0.78867655   -8.1963148    593.45993  0.016518034  0.016057698            2 
 2995000   0.77584118   -8.1864795    594.29332  0.016535707  0.016052208            3 
 2996000   0.76650545   -8.1997249    594.26112  0.016529293   0.01604674            5 
 2997000   0.78043306   -8.1724436    595.77066  0.016565751  0.016041255            2 
 2998000   0.78734567   -8.2005301    595.65867  0.016557112  0.016035774            3 
 2999000   0.78249412   -8.2055502    595.83233  0.016556417  0.016030287            2 
 3000000   0.77559512   -8.1919421     594.5301  0.016514725  0.016024799            4 
 3001000   0.79417536   -8.1934317    596.36597  0.016560201  0.016019332            1 
 3002000   0.76154921   -8.2081827    594.67798  0.016507828  0.016013867            1 
 3003000    0.7721267   -8.1777079    595.96578  0.016538067  0.016008418            1 
 3004000   0.77779161   -8.1872747    594.87315  0.016502251  0.016002978            1 
 3005000     0.772223   -8.2109866    595.12314  0.016503692  0.015997538            3 
 3006000   0.78391527   -8.1809179    597.33919  0.016559636  0.015992085            3 
 3007000     0.766929   -8.1705453    595.56725  0.016505023   0.01598663            5 
 3008000   0.76170621   -8.1825816    595.63467  0.016501404  0.015981161            2 
 3009000   0.75305651   -8.2100262    594.98846  0.016478023  0.015975701            3 
 3010000   0.77775698   -8.1837489    594.66714  0.016463653  0.015970232            1 
 3011000   0.77298876   -8.1653378    596.36749  0.016505244  0.015964774            2 
 3012000   0.76860217   -8.2029777    596.25774  0.016496728  0.015959287            3 
 3013000   0.76966488   -8.2242108    595.43772  0.016468573    0.0159538            6 
 3014000   0.76960129   -8.2046485     595.3616  0.016461004  0.015948322            3 
 3015000   0.77224108   -8.1836333    595.79738  0.016467589  0.015942861            1 
 3016000   0.77564418   -8.1736376    595.53258  0.016454813  0.015937392            6 
 3017000   0.76263608   -8.1857313    595.38085  0.016445168  0.015931919            1 
 3018000   0.76387759   -8.1810999    596.38605  0.016467474  0.015926453            2 
 3019000   0.76978877   -8.1854362    595.85212  0.016447282  0.015920983            5 
 3020000   0.76445963   -8.2007997    594.49565  0.016404405  0.015915502            5 
 3021000    0.7749326   -8.2146139    595.54738  0.016427987  0.015910007            2 
 3022000   0.76739611    -8.221427    594.60311  0.016396512  0.015904549            1 
 3023000    0.7667354    -8.216964    595.45496  0.016414571  0.015899091            6 
 3024000    0.7664065   -8.2369602    594.95331  0.016395318  0.015893617            3 
 3025000   0.77022509   -8.2424118    595.39956  0.016402192  0.015888122            3 
 3026000   0.75735205   -8.2326707    595.13062  0.016389365  0.015882635            4 
 3027000   0.76527464   -8.1999162    595.86714  0.016404227   0.01587717            4 
 3028000   0.75307968   -8.1861167    595.00625  0.016375117  0.015871718            4 
 3029000   0.75965978   -8.1930071    594.29981  0.016350275  0.015866269            2 
 3030000   0.74098594   -8.2081679    594.32334  0.016345526  0.015860816            1 
 3031000   0.77792679   -8.2021296    595.46692  0.016371575  0.015855351            1 
 3032000   0.76937101   -8.2092232    595.04349  0.016354537  0.015849892            1 
 3033000   0.75850293   -8.2173339    594.91893  0.016345723  0.015844425            2 
 3034000   0.75582603   -8.1958664    596.49799  0.016383707  0.015838977            1 
 3035000   0.74854724   -8.1885657    595.02292  0.016337807  0.015833509            3 
 3036000   0.76409417   -8.2174995    594.45862  0.016316936  0.015828037            5 
 3037000   0.77563609   -8.2133039    594.60032  0.016315452  0.015822558            2 
 3038000   0.78954844    -8.219854    594.04302  0.016294794  0.015817081            2 
 3039000   0.74973156    -8.225256    593.43494  0.016272758  0.015811594            1 
 3040000   0.74586461   -8.2024697    594.50921  0.016296853  0.015806117            1 
 3041000   0.74671077   -8.2062031    595.46967  0.016317814   0.01580065            2 
 3042000     0.760751   -8.2029736    595.86906  0.016323391  0.015795199            1 
 3043000    0.7621566   -8.2023234     596.5229  0.016335932  0.015789752            1 
 3044000    0.7563499   -8.2199192     594.5182  0.016275684  0.015784293            2 
 3045000    0.7552558   -8.2025861    596.17319  0.016315632  0.015778803            2 
 3046000   0.77233581    -8.223473    594.96283  0.016277162   0.01577334            2 
 3047000   0.75225044   -8.2166301    594.79718   0.01626729  0.015767873            1 
 3048000   0.75808642   -8.1891101    594.62344  0.016257202  0.015762378            1 
 3049000   0.75811827   -8.2098116    593.37754  0.016217818  0.015756916            1 
 3050000   0.76539146   -8.2123377    593.31094  0.016210681  0.015751435            3 
 3051000   0.75102924   -8.2349414    593.55299  0.016211979   0.01574594            2 
 3052000   0.77307765   -8.2260789    595.18812  0.016251314   0.01574045            3 
 3053000   0.77347039   -8.1967888    595.43438  0.016252713   0.01573497            3 
 3054000   0.75489507   -8.2396643    595.53232  0.016250063  0.015729483            3 
 3055000   0.75977563   -8.2634057    594.16145   0.01620735     0.015724            3 
 3056000   0.75665689   -8.2338459    594.05074  0.016199027  0.015718517            1 
 3057000   0.75685682   -8.2331753    595.05159  0.016221012  0.015713041            1 
 3058000   0.77194354   -8.2342383    594.02865  0.016187831  0.015707558            1 
 3059000   0.75914561   -8.2088027    595.55511  0.016224123  0.015702083            1 
 3060000   0.76069576   -8.2259563     594.5099  0.016190357   0.01569663            1 
 3061000   0.76498506   -8.2704109    593.94698  0.016169742  0.015691174            1 
 3062000   0.78948242   -8.2587202    594.76084  0.016186611  0.015685697            2 
 3063000   0.74495469   -8.2501233    594.16242  0.016165046   0.01568022            2 
 3064000    0.7570759   -8.2373986    594.47575  0.016168292  0.015674733            1 
 3065000   0.76474855   -8.1919356    594.96085  0.016176206  0.015669262            1 
 3066000   0.76485836   -8.2368843    594.53347  0.016159314  0.015663796            2 
 3067000   0.76738825   -8.2513813    594.07868  0.016141688  0.015658321            3 
 3068000   0.75957983   -8.2433871    595.54164  0.016176164  0.015652874            1 
 3069000   0.74806186   -8.2330769    595.73745   0.01617621  0.015647431            2 
 3070000   0.76624277   -8.2325222    595.22784  0.016157107  0.015641986            2 
 3071000   0.75895102   -8.2082081    595.63684  0.016162945  0.015636539            1 
 3072000    0.7652422   -8.2128097    595.52884  0.016154754  0.015631082            3 
 3073000   0.77566407    -8.242617    594.67734  0.016126406  0.015625649            2 
 3074000   0.76722637   -8.2359121    595.63135  0.016147022  0.015620218            4 
 3075000   0.75535046   -8.2333834     595.2318  0.016130943  0.015614785            2 
 3076000   0.76183716   -8.2314071    594.54861   0.01610719  0.015609346            4 
 3077000    0.7610962   -8.2515565    594.89747  0.016111404  0.015603902            5 
 3078000   0.74963519   -8.2524149     595.3605  0.016118705  0.015598457            1 
 3079000   0.75382301   -8.2226348    596.22502  0.016136869  0.015593013            2 
 3080000   0.75495427   -8.2432969    595.34342  0.016107776  0.015587591            8 
 3081000   0.76685961   -8.2482175    595.69799  0.016112139  0.015582157            3 
 3082000    0.7460945   -8.1993183    595.97194  0.016114318  0.015576714            6 
 3083000    0.7591661   -8.2160047     595.4382  0.016094664  0.015571292            1 
 3084000   0.74914337    -8.223081    595.74618  0.016097767   0.01556587            1 
 3085000   0.77231045   -8.2476878    595.37288  0.016082466  0.015560444            2 
 3086000   0.75402087   -8.2187424    595.48424  0.016080261  0.015555034            5 
 3087000   0.75409122   -8.2351415    594.87722  0.016058666  0.015549599            3 
 3088000   0.76555526    -8.252893    594.67405  0.016047983  0.015544184            1 
 3089000   0.76406655   -8.2026933    595.56826  0.016066911  0.015538759            4 
 3090000   0.75081408   -8.2489439    595.20493  0.016051913  0.015533346            2 
 3091000   0.75200904   -8.2405969    596.03169  0.016069009  0.015527925            2 
 3092000   0.76142917   -8.2567337    594.49392  0.016022367  0.015522505            3 
 3093000   0.76701539   -8.2324504    595.38324  0.016041148  0.015517106            2 
 3094000   0.76083939   -8.2437993    594.46862  0.016011329  0.015511711            2 
 3095000   0.76144576   -8.2577451    596.30706  0.016055656  0.015506309            5 
 3096000   0.74922225   -8.2230944    595.83922  0.016037877  0.015500898            1 
 3097000   0.75518193   -8.2239896    595.29481   0.01601805  0.015495474            3 
 3098000   0.76604306   -8.2457862    594.78238  0.015999096  0.015490066            2 
 3099000   0.75447906   -8.2378701     596.1462  0.016030607  0.015484636            3 
 3100000   0.75289417    -8.230994    595.37631   0.01600474  0.015479226            3 
 3101000   0.75924254    -8.266608    595.69716  0.016008201  0.015473809            2 
 3102000   0.74544838   -8.2501701    595.18766  0.015989352  0.015468412            3 
 3103000   0.74013071   -8.2306702    595.98837  0.016005703   0.01546301            1 
 3104000   0.75031736    -8.270238    594.99515  0.015973882  0.015457597            2 
 3105000   0.74824306    -8.267157    595.22107    0.0159748  0.015452167            2 
 3106000   0.74570018   -8.2359962    595.08696  0.015966059  0.015446771            3 
 3107000    0.7477403   -8.2392391    595.23443  0.015964876  0.015441374            2 
 3108000    0.7565793   -8.2593395    594.99953  0.015953441  0.015435986            3 
 3109000   0.75017569   -8.2397277    595.60143  0.015964443  0.015430598            6 
 3110000   0.74441721   -8.2363536    595.86699  0.015966425  0.015425208            2 
 3111000   0.76882467   -8.2302276    596.25517  0.015971691  0.015419821            2 
 3112000   0.74910562   -8.2377937    597.17546  0.015991202   0.01541446            2 
 3113000    0.7737691   -8.2326636     596.2931  0.015962445   0.01540908            4 
 3114000   0.76239496   -8.2489654    595.47786  0.015935503  0.015403722            1 
 3115000   0.75481589   -8.2337543    595.17797  0.015922364  0.015398354            2 
 3116000   0.75444092   -8.2270262    596.66749  0.015957089  0.015392985            3 
 3117000   0.75144578   -8.2326326    596.88135  0.015957688  0.015387619            2 
 3118000   0.76475498   -8.2412523    596.01937  0.015929532  0.015382247            1 
 3119000   0.75206496   -8.2288869    595.88143  0.015920739  0.015376859            3 
 3120000   0.76728688   -8.2444998    596.34678  0.015928066  0.015371487            1 
 3121000    0.7464579   -8.2723259    596.32505  0.015922382  0.015366119            2 
 3122000   0.75617995   -8.2152887    595.99477  0.015908466  0.015360766            1 
 3123000   0.75217173   -8.2377345    595.66569  0.015894591  0.015355418            1 
 3124000   0.75141679    -8.246788    596.95395  0.015923868  0.015350043            8 
 3125000   0.75706993   -8.2374635    595.53775  0.015881007  0.015344668            2 
 3126000   0.75568516   -8.2815201     595.5814   0.01587709   0.01533929            2 
 3127000   0.74729474   -8.2508292    597.25769  0.015916685  0.015333915            1 
 3128000   0.74662344   -8.2548238    595.47317  0.015864055  0.015328531            3 
 3129000    0.7467469   -8.2563315    595.37813  0.015856454  0.015323156            3 
 3130000   0.75348561   -8.2429165    596.19288   0.01587308  0.015317803            9 
 3131000   0.75116513   -8.2519829    595.72497  0.015855557  0.015312455            2 
 3132000   0.74867598   -8.2702667    595.63917  0.015848211  0.015307101            5 
 3133000   0.76164207   -8.2389663    597.66855  0.015897131  0.015301764            4 
 3134000   0.75272933   -8.2675066    595.80082  0.015842396  0.015296413            1 
 3135000   0.73897584   -8.2537849    596.46828  0.015855085  0.015291062            2 
 3136000   0.75981509   -8.2669263    596.48168  0.015850385  0.015285715            3 
 3137000   0.75219882   -8.2074338     596.8247  0.015854444  0.015280387            2 
 3138000   0.75301651   -8.2246594    596.61586  0.015843846  0.015275079            2 
 3139000   0.74851631   -8.2495164    597.01031   0.01584927  0.015269764            3 
 3140000   0.74197375   -8.2459051    596.56528  0.015832412  0.015264439            2 
 3141000   0.72365438    -8.269207    596.27453  0.015819657  0.015259101            2 
 3142000   0.74470823   -8.2798876    595.68634  0.015799022  0.015253761            2 
 3143000    0.7629502   -8.2667404    597.37792  0.015838846  0.015248417            6 
 3144000   0.75062649   -8.2570042    595.36294    0.0157804  0.015243075            3 
 3145000   0.73848701   -8.2890033    595.76167  0.015785948  0.015237728            4 
 3146000   0.75044938   -8.2718407    595.53361  0.015774889  0.015232372            1 
 3147000   0.76394564   -8.2892223    595.85304  0.015778335   0.01522701            2 
 3148000   0.73817019   -8.2725101    595.27651  0.015758061  0.015221644            1 
 3149000   0.74332147   -8.2274464    595.89531  0.015769432  0.015216288            2 
 3150000   0.73805133   -8.2675797    595.48968  0.015753695  0.015210951            3 
 3151000   0.75271354   -8.2113851    596.75857  0.015782254  0.015205625            2 
 3152000    0.7417038   -8.2610285    595.81508  0.015752302  0.015200281            2 
 3153000   0.76065476   -8.2484203    596.41221  0.015763088  0.015194924            2 
 3154000   0.75881075   -8.2445212    597.55889  0.015788387  0.015189581            4 
 3155000   0.74691539   -8.2647795    596.60196  0.015758108  0.015184223            2 
 3156000   0.75662844    -8.261479     597.0553  0.015765085  0.015178876            4 
 3157000   0.76350635   -8.2490881    596.99922  0.015758611  0.015173545            4 
 3158000   0.73885982   -8.2617242      595.956  0.015726093  0.015168202            4 
 3159000   0.74249687   -8.2465986    596.50048  0.015735477  0.015162859            1 
 3160000   0.75829374   -8.2748531    596.63488  0.015734042   0.01515752            3 
 3161000   0.72750405   -8.2430641    597.17051  0.015743186  0.015152193            6 
 3162000   0.74013214   -8.2715036    597.12478  0.015737001  0.015146848            2 
 3163000   0.75372038   -8.2651438    595.31076  0.015684233   0.01514152            4 
 3164000   0.73091915   -8.2643908    595.67635  0.015688905  0.015136195            2 
 3165000   0.73565371   -8.2822527    596.28222  0.015699901  0.015130855            4 
 3166000   0.74665962   -8.2786881    595.65641  0.015678469  0.015125534            4 
 3167000   0.75808616   -8.2689053    596.00131  0.015682594  0.015120214            2 
 3168000   0.73338512   -8.2656615    597.30386  0.015711907  0.015114894            2 
 3169000   0.75002065   -8.2912939    596.34558   0.01568175  0.015109574            3 
 3170000    0.7458885   -8.2859724    595.62254  0.015657796  0.015104243            3 
 3171000    0.7468169   -8.3228771    595.36478  0.015646084  0.015098909            4 
 3172000   0.75356974   -8.2916587    595.80782  0.015652791  0.015093569            2 
 3173000   0.72784595   -8.2601584    597.59165  0.015694707   0.01508825            6 
 3174000   0.73444013   -8.2742514    596.35578  0.015657314  0.015082929            2 
 3175000   0.72788375   -8.3001831    595.91862  0.015640909  0.015077626            2 
 3176000   0.75249906   -8.2958124    596.10671  0.015640919  0.015072315            3 
 3177000   0.72700008   -8.2758684    596.71197  0.015651872  0.015066996            2 
 3178000   0.74833463   -8.2922948    595.24209  0.015608404  0.015061682            1 
 3179000   0.74445084   -8.2975394    596.87371  0.015646265  0.015056367            2 
 3180000   0.74687609   -8.2827381    596.82825  0.015640153  0.015051041            3 
 3181000   0.72283176   -8.2786764    595.73066  0.015606483  0.015045725            1 
 3182000   0.74711552   -8.2948254    595.56577   0.01559726  0.015040388            1 
 3183000   0.74659305   -8.2943301    596.39892  0.015614172  0.015035055            3 
 3184000   0.74159632   -8.3037324    596.09387  0.015601284   0.01502974            3 
 3185000    0.7560165    -8.298069     596.8433  0.015615994  0.015024432            1 
 3186000   0.73448756   -8.2945958    595.28077  0.015570223  0.015019113            2 
 3187000   0.73880638   -8.2980542    596.61892  0.015600327  0.015013785            3 
 3188000   0.74294075   -8.2797136    595.13051  0.015556527  0.015008463            6 
 3189000   0.75984019   -8.3226716    596.01774  0.015574834  0.015003152            1 
 3190000   0.74107301   -8.2718479    597.08759    0.0155979   0.01499784            1 
 3191000    0.7369108   -8.2709295     596.1876  0.015569508  0.014992547            4 
 3192000    0.7353868   -8.2606123     597.4525  0.015597653  0.014987252            2 
 3193000   0.74085061    -8.281718    596.88827  0.015578042  0.014981973            2 
 3194000   0.74733961   -8.2721905    596.74486  0.015569423  0.014976682            1 
 3195000   0.74790123   -8.3074649    595.83764  0.015540888  0.014971395            4 
 3196000   0.73969781   -8.2971983    596.65564  0.015557354  0.014966111            2 
 3197000   0.74755557   -8.2709036    595.83662  0.015531139  0.014960824            4 
 3198000   0.73688791   -8.3096797    595.48079   0.01551701  0.014955543            2 
 3199000   0.74158149    -8.276655    596.01058  0.015525961  0.014950263            3 
 3200000     0.747947   -8.3022864    595.49416   0.01550766  0.014944999            1 
 3201000   0.73735621   -8.3023036    595.71666  0.015508608   0.01493971            2 
 3202000   0.72723112   -8.2907908    595.94286  0.015509652   0.01493443            2 
 3203000      0.72956   -8.2872842     595.2774  0.015487496   0.01492916            3 
 3204000   0.73463852   -8.2630149    595.50676  0.015488628  0.014923903            3 
 3205000   0.74209585   -8.2832733    597.89451  0.015545879  0.014918645            2 
 3206000   0.73944506   -8.2919279    596.32399  0.015500208   0.01491339            2 
 3207000   0.73610056   -8.2569625    596.60384  0.015502646   0.01490815            3 
 3208000    0.7231439   -8.2552899    597.23318  0.015514162   0.01490289            3 
 3209000   0.73543163   -8.2847377    596.77836  0.015497516  0.014897644            1 
 3210000   0.74897034   -8.2531754    597.84463  0.015520369   0.01489241            4 
 3211000   0.75291973   -8.2781754    597.53231  0.015507431  0.014887193            1 
 3212000     0.742695   -8.2756829    597.34472  0.015497736  0.014881985            3 
 3213000   0.71992234   -8.3165235    596.88806  0.015481068  0.014876766            2 
 3214000   0.75104287   -8.2884917    597.06465   0.01548083   0.01487154            1 
 3215000   0.73688907   -8.2920534    596.46915  0.015460579  0.014866313            5 
 3216000   0.72925658   -8.2831994    596.34056   0.01545244  0.014861087            2 
 3217000   0.72050072   -8.3269815    595.71525  0.015431438  0.014855842            8 
 3218000   0.73713327   -8.2881057    597.22917  0.015465848  0.014850595            6 
 3219000   0.72677335   -8.3088607    595.06421  0.015404997  0.014845349            2 
 3220000   0.74241062    -8.279619    596.69062  0.015442304  0.014840104            2 
 3221000    0.7419285   -8.2912379    597.16256   0.01544972   0.01483486            2 
 3222000   0.73434445   -8.3070611    596.74648  0.015434163  0.014829613            3 
 3223000      0.73935    -8.308148    597.48473  0.015448462  0.014824372            3 
 3224000   0.73008432   -8.2938011    597.01801  0.015431607  0.014819146            1 
 3225000    0.7441689   -8.3169962     596.0103  0.015400783  0.014813904            5 
 3226000    0.7499725   -8.3026476    596.89359  0.015418826  0.014808666            2 
 3227000    0.7533104   -8.3069108    596.01856  0.015391451  0.014803437            1 
 3228000   0.73291578   -8.2849576    596.43426  0.015397415  0.014798203            1 
 3229000   0.73437248   -8.2842813    596.19327  0.015386427  0.014792959            3 
 3230000   0.71389064    -8.325555    596.47807  0.015389011  0.014787727            2 
 3231000    0.7213569   -8.3217922    595.72459  0.015364815  0.014782483            2 
 3232000   0.73377016   -8.3163471    595.40724  0.015351878  0.014777251            1 
 3233000    0.7279337   -8.2819274     595.7629  0.015356297  0.014772011            2 
 3234000   0.75352124   -8.3194554    596.18137  0.015362332  0.014766775            1 
 3235000   0.73026105   -8.3035847    596.27994  0.015360122  0.014761559            2 
 3236000   0.73639446   -8.3070213    596.28006  0.015355379  0.014756342            3 
 3237000    0.7118653   -8.3228643    597.12315  0.015372339  0.014751114            4 
 3238000   0.72857801    -8.320197    595.77028  0.015332774   0.01474587            4 
 3239000   0.73826203   -8.3354181    595.44217  0.015319599  0.014740623            2 
 3240000   0.74596702   -8.3076643    595.80927  0.015324312  0.014735381            5 
 3241000   0.73421177   -8.3180927    594.96013  0.015297751  0.014730155            3 
 3242000   0.72606631   -8.3170724    595.72757  0.015312759  0.014724917            2 
 3243000   0.75374793   -8.2964629    594.92952   0.01528753  0.014719688            2 
 3244000   0.74369812   -8.3233024    596.90343  0.015333524  0.014714464            2 
 3245000   0.70629111   -8.3136127    596.11497  0.015308551  0.014709232            3 
 3246000   0.72967015   -8.3179171    596.49968  0.015313711  0.014704006            2 
 3247000   0.72876035   -8.3391886    594.31821  0.015253008  0.014698768            3 
 3248000   0.73610411    -8.315451    595.29786  0.015273447  0.014693527            3 
 3249000   0.72189382   -8.3560305    595.41983  0.015271874  0.014688285            2 
 3250000   0.74294359   -8.3376421    595.26262  0.015263144  0.014683055            9 
 3251000   0.73516738     -8.32521     595.6977  0.015269602  0.014677843            2 
 3252000   0.72869489   -8.3001561    596.97432   0.01529762  0.014672624            4 
 3253000   0.73256562   -8.2981873    596.24034  0.015274115    0.0146674            1 
 3254000    0.7228579   -8.3148391    596.01695    0.0152637  0.014662176            3 
 3255000   0.72951405   -8.3184198    595.34708  0.015241861  0.014656952            4 
 3256000   0.73234608   -8.3275008    594.96283  0.015227345  0.014651734            3 
 3257000   0.72970082   -8.3000825    595.89882  0.015246618  0.014646508            1 
 3258000   0.74264373   -8.3371367    596.62342  0.015260472  0.014641299            2 
 3259000   0.73638141   -8.3095944    597.44556  0.015276812  0.014636086            4 
 3260000   0.72487131   -8.3467657    596.31921  0.015243334  0.014630884            4 
 3261000   0.73105943   -8.3122388     595.0887  0.015207214  0.014625681            2 
 3262000   0.72112798   -8.3132443    596.09102  0.015228158  0.014620458            2 
 3263000   0.72852557   -8.3087146    596.94174  0.015245218  0.014615248            2 
 3264000   0.73642684   -8.3234299    595.33889  0.015199625  0.014610035            2 
 3265000   0.72223629    -8.323446    595.96844  0.015211037  0.014604828            4 
 3266000    0.7321055   -8.3421467    596.97338  0.015232021  0.014599615            4 
 3267000   0.72089324    -8.385756    595.21359  0.015182471  0.014594371            4 
 3268000   0.72496878   -8.3315349    595.81085  0.015193055  0.014589143            2 
 3269000   0.73594232   -8.3244398    595.48405  0.015180077  0.014583931            6 
 3270000   0.72410796   -8.3404796    596.17601  0.015193069  0.014578703            7 
 3271000    0.7136121   -8.3120028    596.06678  0.015185641  0.014573485            3 
 3272000   0.73892553   -8.3375355    595.04776  0.015155047  0.014568274            3 
 3273000   0.72459884   -8.3202265     594.9225  0.015147227  0.014563062            3 
 3274000   0.73161128    -8.335258     596.7557  0.015189261  0.014557848            4 
 3275000   0.73949925   -8.3146491    596.76906  0.015184963  0.014552647            2 
 3276000   0.72136017   -8.3262176    595.74499  0.015154278  0.014547441            4 
 3277000   0.73717358   -8.3462895    596.87089  0.015178285  0.014542235            4 
 3278000   0.72259103   -8.3179728    597.15106  0.015180778  0.014537034            1 
 3279000   0.73903781   -8.3508665    595.61052  0.015136996  0.014531845            1 
 3280000   0.71855261   -8.3319384    597.43579  0.015178755   0.01452665            3 
 3281000   0.72453735   -8.3074707    596.91114  0.015160803  0.014521473            1 
 3282000   0.72352533   -8.3210524    595.84106  0.015129013  0.014516313            4 
 3283000    0.7314723   -8.3124439    597.27362  0.015160768  0.014511143            3 
 3284000    0.7285435   -8.3215442    596.08951  0.015126104  0.014505974            1 
 3285000   0.73862954   -8.3309074    594.68763  0.015085937  0.014500806            1 
 3286000   0.72379255   -8.2951331    596.80724  0.015135099  0.014495624            2 
 3287000   0.72437213   -8.3158724    597.08017  0.015137414  0.014490447            2 
 3288000   0.71279419   -8.3428876    596.96603  0.015129918  0.014485274            2 
 3289000    0.7152773   -8.3340282    596.33775  0.015109399  0.014480106            2 
 3290000   0.72424386   -8.3194854    595.05813  0.015072394  0.014474925            2 
 3291000   0.75272098   -8.3305534    596.14541  0.015095346  0.014469742            2 
 3292000   0.71688566   -8.3460638    595.95035  0.015085823  0.014464583            4 
 3293000   0.73222388   -8.3525933    595.88116  0.015079491  0.014459425            1 
 3294000   0.71690655   -8.3450779    595.16359  0.015056759  0.014454258            1 
 3295000   0.73553208   -8.3435051    596.17731  0.015077828  0.014449084            1 
 3296000   0.73389416   -8.3349244    596.48439  0.015081017   0.01444393            3 
 3297000   0.71308885   -8.3136156    595.54237  0.015052633  0.014438778            2 
 3298000   0.72051901   -8.3306785    595.44387   0.01504558  0.014433636            3 
 3299000   0.73648091   -8.3295164    597.22618  0.015086041  0.014428499            2 
 3300000   0.71586974   -8.3447276    596.72338  0.015068772   0.01442335            2 
 3301000   0.71910658   -8.3407514    597.21612  0.015076646  0.014418205            2 
 3302000   0.71883405   -8.3692335    596.79537  0.015061462  0.014413061            4 
 3303000   0.73517379   -8.3508122    596.91958  0.015060036  0.014407913            2 
 3304000   0.72095766   -8.3510975    596.10011  0.015034809   0.01440277            3 
 3305000    0.7149773   -8.3268609    595.74135  0.015021214  0.014397621            4 
 3306000   0.72260876   -8.3368579    596.73593   0.01504174  0.014392472            3 
 3307000   0.71871646   -8.3403773    595.30882   0.01500123  0.014387332            4 
 3308000   0.74621763   -8.3322099    596.56029  0.015028222   0.01438219            6 
 3309000    0.7202658   -8.3601186    596.76824  0.015028917  0.014377058            1 
 3310000   0.71554858   -8.3608605    597.21228  0.015035556  0.014371941            3 
 3311000   0.71758148   -8.3617109     595.8236  0.014996064  0.014366818            1 
 3312000   0.70030644   -8.3455802    596.64858  0.015012293    0.0143617            5 
 3313000   0.72231388   -8.3454168    597.08094  0.015018637   0.01435659            1 
 3314000   0.71871031   -8.3340411    596.27466  0.014993831  0.014351471            3 
 3315000   0.70007722    -8.352003    596.55832  0.014996438  0.014346364            3 
 3316000   0.72535587     -8.34388    596.30814  0.014985629  0.014341269            2 
 3317000   0.73681894   -8.3097191    597.49855  0.015011018  0.014336185            2 
 3318000   0.72181677   -8.3417369    596.28565  0.014976031   0.01433108            3 
 3319000   0.71370348   -8.3331239     596.5655  0.014978545     0.014326            4 
 3320000   0.72711512   -8.3427161    595.52137  0.014947826  0.014320906            1 
 3321000   0.72853728   -8.3206671    597.26281  0.014987022  0.014315816            2 
 3322000   0.72751095   -8.3210326    597.02575  0.014976564  0.014310739            1 
 3323000   0.72840665   -8.3144006    596.62688  0.014962054  0.014305651            2 
 3324000   0.71407358   -8.3226628    596.81777  0.014962339  0.014300578            2 
 3325000   0.71192415   -8.3129681    597.22572  0.014968063  0.014295506            1 
 3326000    0.7226213   -8.3333945    596.45468  0.014944244  0.014290434            2 
 3327000   0.72069776   -8.3147881    596.29504  0.014935754  0.014285366            2 
 3328000   0.72760614   -8.3028492    598.08077  0.014975981  0.014280298            3 
 3329000   0.70950663   -8.3388673    596.00718  0.014919575  0.014275243            2 
 3330000   0.71654546   -8.3391681    597.80365  0.014960051  0.014270183            2 
 3331000   0.72106687   -8.3312692     596.6913  0.014927732  0.014265131            2 
 3332000   0.71201853   -8.3079501    597.28598  0.014938125  0.014260074            3 
 3333000   0.71645028   -8.3269726    597.80701   0.01494667  0.014255022            1 
 3334000   0.74087985   -8.3331483    597.69562  0.014939403  0.014249969            1 
 3335000   0.72740209   -8.3209222    596.12839  0.014895762  0.014244916            2 
 3336000    0.7188619    -8.361687    596.71306  0.014905902  0.014239863            2 
 3337000   0.73107106   -8.3386333    596.86248  0.014905166  0.014234793            5 
 3338000   0.71981185    -8.349665    595.94437   0.01487778   0.01422974            2 
 3339000   0.70316708   -8.3451412    596.83515  0.014895556  0.014224674            2 
 3340000   0.71423832   -8.3524297    596.75918  0.014889201  0.014219616            3 
 3341000   0.70689509   -8.3435959    597.17219  0.014895046  0.014214547            2 
 3342000   0.72304184   -8.3233985     598.6148  0.014926561  0.014209478            2 
 3343000   0.73319154   -8.3488884    596.85152  0.014878141  0.014204431            2 
 3344000   0.70397505    -8.348783     596.5426  0.014865994  0.014199389            3 
 3345000   0.72272602   -8.3584168    596.80585  0.014868108  0.014194334            3 
 3346000    0.7204078   -8.3631532    597.37465   0.01487783  0.014189273            3 
 3347000   0.70849062   -8.3690631    597.05726  0.014865483  0.014184205            2 
 3348000   0.71723647   -8.3757377    596.22392  0.014840301  0.014179147            1 
 3349000   0.70884028   -8.3571371    596.55718  0.014844162  0.014174098            1 
 3350000    0.7256618   -8.3506262    596.74231  0.014844336  0.014169062            1 
 3351000   0.73360078   -8.3355791    597.59001  0.014860987  0.014164027            1 
 3352000   0.71153014   -8.3152067    597.53442  0.014855172  0.014158999            4 
 3353000   0.71869056   -8.3698229     595.9805  0.014812121  0.014153967            3 
 3354000   0.71139711   -8.3525604    596.11215  0.014810976  0.014148921            2 
 3355000   0.70717556   -8.3412456     597.0259  0.014829257  0.014143882            1 
 3356000   0.71855038   -8.3561017     596.6452  0.014815385  0.014138849            2 
 3357000   0.71456184   -8.3610343    597.66122  0.014836194  0.014133814            3 
 3358000   0.71636491   -8.3631075    597.13776  0.014818785  0.014128784            4 
 3359000   0.71042937   -8.3691896    597.20356  0.014816006  0.014123771            2 
 3360000   0.71715195   -8.3488444    597.70962  0.014824147  0.014118755            2 
 3361000   0.71495542   -8.3372343    597.30613  0.014809733  0.014113725            4 
 3362000   0.72347138   -8.3683335     597.2556  0.014804075  0.014108698            1 
 3363000   0.71651135    -8.370852    597.09814  0.014795771  0.014103672            2 
 3364000   0.70823969   -8.3655425    595.47134  0.014751074  0.014098633            2 
 3365000    0.7196349   -8.3922707    595.69735  0.014752287  0.014093585            1 
 3366000   0.70427337   -8.3784518    597.17078  0.014784382  0.014088557            1 
 3367000   0.72331203   -8.3609466    597.87708  0.014797472  0.014083538            2 
 3368000   0.71276373   -8.3422741    597.64843  0.014787422  0.014078535            4 
 3369000   0.70563336   -8.3488585    596.83292   0.01476286  0.014073527            2 
 3370000   0.71266296   -8.3772397    597.31926  0.014770506  0.014068507            4 
 3371000   0.70865937   -8.3445321    597.83128  0.014778782   0.01406348            9 
 3372000   0.69542645   -8.3848389    596.48812  0.014741205  0.014058459            1 
 3373000   0.72270598   -8.3583376    597.37155  0.014758661  0.014053448            1 
 3374000   0.71979816   -8.3354784    596.90186  0.014742686  0.014048428            3 
 3375000   0.69973736   -8.3594063    595.40059  0.014701249  0.014043407            1 
 3376000   0.72194157    -8.374173    597.35744  0.014745198  0.014038398            4 
 3377000   0.72611599   -8.3697063    597.07154  0.014733776  0.014033386            3 
 3378000   0.72208382   -8.3470509    597.18826  0.014732294  0.014028376            3 
 3379000   0.72403213   -8.4002922    596.05925   0.01470009  0.014023361            4 
 3380000   0.70790405    -8.382938    597.24566  0.014724992  0.014018346            4 
 3381000   0.71012351   -8.3936929    597.33139  0.014722749  0.014013336            3 
 3382000   0.70373226   -8.3805661    598.10706  0.014737509  0.014008315            2 
 3383000   0.69905234   -8.3683027    598.38174  0.014739919  0.014003306            3 
 3384000   0.70638654   -8.3602682    596.80078  0.014696631   0.01399831            2 
 3385000   0.70677941   -8.3779703    597.30118  0.014704608  0.013993309            3 
 3386000   0.72621545   -8.3794046    597.79207  0.014712347  0.013988323            2 
 3387000   0.69227431   -8.3883244    596.71014  0.014681383  0.013983328            4 
 3388000    0.6821751   -8.3997082    596.29257  0.014666779   0.01397833            2 
 3389000   0.70713068   -8.3667683    596.09606  0.014657619   0.01397333            1 
 3390000   0.70824631   -8.3732034    595.85505  0.014647371  0.013968337            4 
 3391000   0.70713794   -8.3828679     596.6143   0.01466171  0.013963341            2 
 3392000   0.71545267   -8.3624598    597.93948  0.014689944  0.013958354            4 
 3393000   0.70645139   -8.3854842    596.86113   0.01465913   0.01395338            1 
 3394000   0.68390106   -8.3660506     595.9238  0.014631796  0.013948396            2 
 3395000   0.69715544   -8.3789259    596.27195  0.014636032   0.01394341            7 
 3396000     0.708774     -8.37381     595.9173   0.01462302  0.013938422            1 
 3397000   0.70740228   -8.3553967    596.63201  0.014636248  0.013933458            1 
 3398000   0.70723397   -8.3585661    596.82484  0.014636669  0.013928487            1 
 3399000   0.71260868   -8.3706369    596.61623  0.014627249  0.013923519            2 
 3400000   0.69408104   -8.3477598    597.75026  0.014650742  0.013918552            2 
 3401000   0.69827756   -8.3544351    597.50745  0.014640484  0.013913592            4 
 3402000   0.70358211   -8.3674075     597.2015  0.014628687  0.013908623            2 
 3403000   0.70568144    -8.358797     596.6775  0.014611556  0.013903664            1 
 3404000   0.71014173   -8.3609341     596.4202  0.014600964  0.013898701            3 
 3405000   0.71983337   -8.3779201    596.44546  0.014597295  0.013893744            2 
 3406000     0.712332   -8.3735468    596.22042  0.014587503  0.013888791            1 
 3407000   0.69163349   -8.3708024    596.54916  0.014591262  0.013883827            3 
 3408000    0.7250674   -8.3668389    597.58089  0.014612209  0.013878854            2 
 3409000   0.71548136   -8.3622487    596.62419  0.014584536  0.013873897            2 
 3410000   0.71527492   -8.3525808     598.4091  0.014623878  0.013868931            2 
 3411000   0.70652879   -8.3662491     596.5444  0.014574035  0.013863974            2 
 3412000   0.70811029   -8.3745467    595.50088  0.014544277  0.013859029            5 
 3413000   0.70926116   -8.3781775    597.11438  0.014579412  0.013854084            1 
 3414000   0.70920237   -8.3659801    596.73623  0.014565911  0.013849138            2 
 3415000   0.71242405   -8.3616369    598.21008   0.01459761  0.013844197            3 
 3416000   0.69978007   -8.3964597    597.61267  0.014578763  0.013839245            1 
 3417000   0.70137917   -8.3616136    597.22424  0.014565024  0.013834299            3 
 3418000   0.73164451   -8.4027927    596.58364  0.014545144  0.013829352            2 
 3419000    0.7007739   -8.3801825    596.70237  0.014543784  0.013824403            3 
 3420000   0.71308998   -8.3899827    595.89412  0.014519837  0.013819451            2 
 3421000   0.71245355    -8.387399    597.75025  0.014560807    0.0138145            2 
 3422000    0.7012529   -8.3655928    597.34535  0.014546692  0.013809548            1 
 3423000   0.71334744   -8.3803966    596.25678  0.014515941  0.013804599            5 
 3424000   0.71776848   -8.3773478    597.07991  0.014531735  0.013799666            3 
 3425000   0.70533058   -8.3892564    596.58776  0.014515517  0.013794725            5 
 3426000   0.70009453   -8.4035704     596.1013  0.014499448  0.013789787            2 
 3427000   0.70184484    -8.405616    595.25118  0.014474545  0.013784845            2 
 3428000   0.70961622   -8.4084415    597.16185   0.01451677  0.013779898            2 
 3429000   0.70737431   -8.3936829     597.6141  0.014523527   0.01377496            2 
 3430000   0.69984105   -8.4112482    596.11023  0.014482756  0.013770023            3 
 3431000   0.69401799   -8.4137854    596.25337  0.014482011   0.01376509            2 
 3432000   0.68927777   -8.4128335    596.37223  0.014480678  0.013760154            4 
 3433000   0.71468103   -8.3969164    597.36136   0.01450047  0.013755221            3 
 3434000   0.70956692   -8.3865093    597.71699  0.014504877  0.013750294            1 
 3435000   0.69141332   -8.4368667    595.30608  0.014442166  0.013745373            1 
 3436000   0.68545146   -8.3988228    597.32776  0.014486995  0.013740449            1 
 3437000   0.70161188   -8.3848736    597.22514  0.014480291  0.013735531            1 
 3438000   0.70028101   -8.3786974    597.37364  0.014479679  0.013730615            2 
 3439000   0.69429327   -8.3829621    598.33864  0.014498852    0.0137257            5 
 3440000   0.71118453   -8.4016329    597.72508  0.014479774  0.013720783            2 
 3441000   0.70700308   -8.3835379    598.02584   0.01448285  0.013715875            1 
 3442000   0.69859416   -8.3659376    596.09733  0.014431952  0.013710977            2 
 3443000   0.68194143   -8.4079027    598.04539   0.01447491  0.013706084            1 
 3444000   0.72108289   -8.3765228    595.75696  0.014415335  0.013701187            3 
 3445000   0.70752901   -8.3974494    596.87931    0.0144383  0.013696294            1 
 3446000   0.72099135   -8.3742229    597.24696  0.014443001  0.013691403            1 
 3447000   0.70477915   -8.3763623    598.06727  0.014458642  0.013686522            2 
 3448000   0.68822475   -8.3723235    596.90279  0.014426305  0.013681661            2 
 3449000    0.7010785   -8.3951555     597.3901  0.014433896  0.013676781            1 
 3450000   0.68372602   -8.4123867    595.84824  0.014392469  0.013671897            4 
 3451000   0.69972285   -8.4088545    597.58231  0.014430173  0.013667019            1 
 3452000   0.70369075   -8.3952575    596.40572  0.014397589  0.013662131            2 
 3453000   0.68657171    -8.394852    597.36473  0.014416564   0.01365725            1 
 3454000   0.69675139   -8.4189656    597.22681  0.014409062  0.013652367            1 
 3455000   0.69950484   -8.4496041    596.92169  0.014397532   0.01364747            3 
 3456000   0.69068328   -8.4119074    596.23193  0.014376735  0.013642583            6 
 3457000   0.69283958   -8.3891564    596.74722  0.014384997  0.013637685            2 
 3458000   0.69646983   -8.4160056    596.96611  0.014386112  0.013632799            3 
 3459000   0.69065148   -8.4297103    595.40242  0.014344281    0.0136279            3 
 3460000   0.70294046    -8.405517    597.12531  0.014381631  0.013623011            3 
 3461000   0.71274739   -8.4032507     597.7111   0.01439158  0.013618132            2 
 3462000   0.69028668   -8.4137753    596.45263  0.014357131  0.013613249            5 
 3463000   0.72120831   -8.4238564    595.42803  0.014328329  0.013608375            4 
 3464000   0.69861975   -8.4146459    596.64108  0.014353375  0.013603506            2 
 3465000   0.70797047   -8.3979055    597.44501  0.014368567  0.013598626            1 
 3466000   0.69423001   -8.4048358    596.89776  0.014351264  0.013593765            4 
 3467000   0.69597443   -8.4180978     597.4334  0.014359999  0.013588903            1 
 3468000   0.69983612   -8.4088637    596.34928  0.014329808  0.013584044            5 
 3469000    0.6860626   -8.3795157    596.72666  0.014334743  0.013579198            2 
 3470000   0.69211043   -8.3738211    598.55067  0.014374416  0.013574353            3 
 3471000   0.70680157   -8.4003397    597.54959   0.01434624   0.01356951            2 
 3472000   0.68566352   -8.4065132    597.01152  0.014329193  0.013564669            2 
 3473000   0.68914956    -8.408851    596.47434  0.014312178  0.013559827            2 
 3474000   0.69775814   -8.4126342    597.41667  0.014330663  0.013554978            2 
 3475000   0.69570976   -8.4060773    598.07329  0.014342285  0.013550125            1 
 3476000   0.67657313    -8.403524    596.50716  0.014300613  0.013545279            1 
 3477000   0.70403006   -8.4084966    597.64778  0.014323837  0.013540431            2 
 3478000   0.69044435   -8.3833791    596.89988  0.014301799  0.013535583            4 
 3479000   0.70173707   -8.3818444    597.25874  0.014306284  0.013530741            1 
 3480000   0.69511729   -8.3689952    598.04562  0.014321016  0.013525915            4 
 3481000   0.70658515   -8.4098674    597.44018  0.014302408  0.013521112            2 
 3482000    0.6952873   -8.3933135    598.17345  0.014315849    0.0135163            3 
 3483000   0.69999416   -8.3941821    596.78263  0.014278463  0.013511489            2 
 3484000   0.68122174   -8.3890174     598.8633  0.014324132  0.013506696            5 
 3485000    0.6916991   -8.3974388    598.55778  0.014312716  0.013501898            1 
 3486000   0.68515409   -8.4141525    597.76218  0.014289591  0.013497096            1 
 3487000   0.70612083   -8.3777161    600.18076  0.014343293  0.013492291            6 
 3488000   0.69177347   -8.3802341    597.25047  0.014269172  0.013487509            3 
 3489000   0.68649632   -8.3702863     597.5658  0.014272614  0.013482739            6 
 3490000   0.70072094   -8.4147854    597.49876  0.014266923  0.013477963            3 
 3491000    0.7087498   -8.3735762    597.71759   0.01426806  0.013473177            3 
 3492000   0.69517095   -8.4035313    598.98434  0.014294204  0.013468399            2 
 3493000   0.70255034   -8.3955327    598.07837  0.014268498  0.013463618            5 
 3494000   0.69488634   -8.4029458    598.63105  0.014277596  0.013458836            4 
 3495000   0.68694144    -8.382447    597.63585  0.014249782  0.013454052            1 
 3496000   0.69453821   -8.4132641    598.21068  0.014259408  0.013449277            2 
 3497000   0.72191011   -8.4062816    598.61737  0.014265022   0.01344449            4 
 3498000   0.68184591   -8.3895033    598.05211  0.014247477  0.013439715            4 
 3499000    0.6872694   -8.4054027     597.9509  0.014240995   0.01343493            2 
 3500000    0.6899057   -8.3935983    599.58162  0.014275753   0.01343015            1 
 3501000   0.69886823   -8.4196352    597.68582   0.01422655   0.01342537            2 
 3502000   0.69496154   -8.4223541    597.39695  0.014215614  0.013420586            3 
 3503000    0.6939727   -8.3975781    597.34983  0.014210435  0.013415819            3 
 3504000   0.68584263   -8.3924154    596.97518  0.014197469  0.013411045            5 
 3505000   0.69483072   -8.4179329    597.45856  0.014204911  0.013406276            2 
 3506000    0.6872094   -8.3938072    597.50199  0.014201892  0.013401502            1 
 3507000   0.68880823   -8.4080405    597.46916  0.014197062  0.013396733            3 
 3508000   0.70731631   -8.3805224    597.01308  0.014182181  0.013391971            2 
 3509000   0.69457999    -8.410705    597.39657  0.014187246  0.013387202            2 
 3510000   0.69240573   -8.4011154    599.14852  0.014224799  0.013382437            2 
 3511000   0.68848137   -8.4064847    597.07438  0.014171518  0.013377681            1 
 3512000    0.6889953    -8.428776    597.98949  0.014189196  0.013372932            1 
 3513000   0.66917024    -8.382436    596.98134  0.014161242  0.013368176            2 
 3514000   0.68327455   -8.4047848    597.49951  0.014169501  0.013363413            2 
 3515000   0.68871972   -8.3917709    598.84436  0.014197353  0.013358645            3 
 3516000   0.70227663   -8.4264532    597.86639  0.014170136  0.013353885            2 
 3517000   0.68330414    -8.407602    597.95241  0.014168145   0.01334913            1 
 3518000   0.68696681   -8.3952889    597.64095   0.01415674  0.013344377            1 
 3519000   0.69093848   -8.4201057    597.33166  0.014145393  0.013339625            2 
 3520000   0.69518989   -8.4154478    597.60678  0.014147888  0.013334884            2 
 3521000   0.68464603    -8.429356    598.70584  0.014169882  0.013330132            1 
 3522000   0.67570949   -8.4410319    596.55809  0.014115041  0.013325367            1 
 3523000   0.69783095   -8.4236421    596.76471  0.014115922  0.013320599            1 
 3524000   0.70251222   -8.4307176       597.14  0.014120791   0.01331585            2 
 3525000    0.6964029    -8.418047    596.84465  0.014109803  0.013311093            1 
 3526000   0.69589679   -8.3997117    596.51817  0.014098085   0.01330633            1 
 3527000   0.68237742   -8.4371216    598.55577  0.014142231  0.013301573            3 
 3528000   0.70296814   -8.4530935    597.27319  0.014107927  0.013296831            2 
 3529000   0.68461871   -8.4286359    596.77606   0.01409219  0.013292091            2 
 3530000   0.68486862   -8.4417329    596.42884  0.014080001  0.013287337            5 
 3531000   0.67709027   -8.4336919    597.54767  0.014102418  0.013282587            2 
 3532000   0.68375418   -8.4366288    597.01949  0.014085964  0.013277842            2 
 3533000    0.6808109   -8.4248352    597.33549   0.01408943  0.013273107            3 
 3534000   0.66679716   -8.4489624    596.42836  0.014064053  0.013268365            4 
 3535000   0.68007315   -8.4391307    597.70618  0.014090197  0.013263633            2 
 3536000   0.67946085   -8.4319277    598.44677  0.014103666  0.013258903            1 
 3537000   0.68364664      -8.4535    597.32173  0.014073172  0.013254188            2 
 3538000   0.67703604   -8.4373872    597.42053  0.014071522  0.013249455            1 
 3539000   0.68502858    -8.437487    597.44757  0.014068182  0.013244725            1 
 3540000   0.69023156   -8.4289305    596.79847  0.014048928  0.013239998            4 
 3541000    0.6999677   -8.4285316    597.63153  0.014064566  0.013235267            1 
 3542000   0.68126851   -8.4322933    596.84353  0.014042056  0.013230536            3 
 3543000   0.67448449   -8.4370507    597.44689  0.014052284  0.013225813            1 
 3544000   0.69341733   -8.4526705    598.02378  0.014061883  0.013221087            3 
 3545000    0.6760109   -8.4269357    597.43128  0.014043989  0.013216363            2 
 3546000   0.67807809   -8.4446932    597.47183  0.014040981  0.013211654            1 
 3547000   0.69862385   -8.4197457    597.52404  0.014038249   0.01320694            2 
 3548000   0.68099039   -8.4381492    598.20905  0.014050382  0.013202244            3 
 3549000   0.69563477   -8.4437891    597.93035  0.014039879  0.013197539            3 
 3550000   0.68597572    -8.434206    597.47643  0.014025268  0.013192831            3 
 3551000   0.68766153   -8.4366276    598.05958  0.014035004  0.013188134            2 
 3552000    0.6760075   -8.4214326    597.77061  0.014024273   0.01318343            1 
 3553000   0.69532527    -8.439694    596.96856  0.014001514  0.013178732            2 
 3554000   0.68533095    -8.440834    596.72959  0.013991971  0.013174024            3 
 3555000   0.68342545   -8.4503958    596.67804  0.013986827  0.013169318            2 
 3556000   0.68526587   -8.4236491    598.82686   0.01403325  0.013164616            2 
 3557000   0.69586048   -8.4513178    597.18136  0.013990754  0.013159911            3 
 3558000   0.68528044    -8.458705    597.92094  0.014004144  0.013155206            2 
 3559000    0.6919966   -8.4259255    598.20627   0.01400689  0.013150514            1 
 3560000   0.66655523     -8.43058    597.52889    0.0139871  0.013145823            1 
 3561000   0.70202765   -8.4236813    597.26828  0.013977073  0.013141134            3 
 3562000    0.6843772   -8.4441816    597.93517  0.013988751  0.013136448            1 
 3563000   0.67557586   -8.4449103    597.88174  0.013983575  0.013131752            1 
 3564000   0.69654715   -8.4285206    598.25358  0.013988346  0.013127067            1 
 3565000   0.68153143   -8.4165624    597.69223    0.0139713  0.013122388            1 
 3566000   0.68065865   -8.4344978     597.9265  0.013972857   0.01311771            2 
 3567000   0.68076522   -8.4271198    598.63069  0.013985391  0.013113027            1 
 3568000   0.67197918   -8.4509149     597.6961  0.013959643  0.013108341            1 
 3569000   0.69133493   -8.4539429    595.49002  0.013904222  0.013103648            2 
 3570000   0.68725206   -8.4631901    596.49826  0.013923862  0.013098958            3 
 3571000   0.67138713   -8.4395649    596.48703  0.013919701  0.013094267            2 
 3572000   0.67487886   -8.4480999    597.29021  0.013934542  0.013089573            1 
 3573000   0.67293694   -8.4379981    597.45372  0.013934456  0.013084882            2 
 3574000   0.68658313   -8.4645514    596.74927  0.013914131    0.0130802            1 
 3575000   0.68021284   -8.4588893      597.236  0.013921585  0.013075508            4 
 3576000   0.67364243   -8.4694958    596.95256  0.013911087  0.013070824            3 
 3577000   0.68189768    -8.463063     598.3806  0.013940467  0.013066149            1 
 3578000   0.68589738   -8.4427935    596.46835  0.013892034  0.013061462            2 
 3579000   0.69156286   -8.4502858    596.22797  0.013882555  0.013056789            1 
 3580000   0.69342086   -8.4563695    597.14218  0.013899958  0.013052119            1 
 3581000   0.66686496   -8.4561179     595.7669  0.013864072   0.01304744            3 
 3582000   0.68296879   -8.4553875     597.4517  0.013899398  0.013042759            2 
 3583000   0.67775383    -8.468184     597.8682  0.013905205  0.013038091            2 
 3584000   0.66145465   -8.4549917    597.19628  0.013885702  0.013033421            2 
 3585000    0.6753527   -8.4674279    597.29994  0.013884239   0.01302875            3 
 3586000   0.65840952   -8.4739216    597.97283  0.013896004  0.013024079            2 
 3587000   0.66607336   -8.4629589    596.44257  0.013856579   0.01301941            3 
 3588000   0.68650133   -8.4587051    596.13219  0.013845508  0.013014738            4 
 3589000   0.68399482   -8.4763329    596.83068  0.013857868  0.013010078            1 
 3590000    0.6950325   -8.4841407    597.24507  0.013863627  0.013005423            7 
 3591000   0.66930321   -8.4628999    596.84658  0.013850519  0.013000766            2 
 3592000   0.68356482   -8.4608896    597.80404  0.013868876  0.012996112            2 
 3593000   0.66740283    -8.423904    597.35854  0.013854684  0.012991458            3 
 3594000   0.67136412   -8.4646343    597.42464  0.013852361  0.012986798            2 
 3595000   0.67789171   -8.4518945    596.86019  0.013835424  0.012982154            5 
 3596000   0.68673511   -8.4783535    597.67594  0.013850481  0.012977506            1 
 3597000   0.65842865   -8.4661294    597.22684  0.013836226  0.012972856            5 
 3598000   0.67198976   -8.4656304    597.83425  0.013846448  0.012968203            3 
 3599000   0.67048789   -8.4779591    596.97712  0.013822754   0.01296356            4 
 3600000   0.68360821    -8.488568    596.63424  0.013810978  0.012958914            1 
 3601000   0.67303262   -8.4766406    596.66997  0.013807969   0.01295427            1 
 3602000   0.67739953    -8.463881     596.9223  0.013809974  0.012949638            2 
 3603000   0.67467978    -8.451622    596.81566  0.013803674  0.012944989            1 
 3604000   0.66214244   -8.4804479    597.55619  0.013816967  0.012940343            2 
 3605000   0.66278474   -8.4870546    596.65986  0.013792415  0.012935707            1 
 3606000    0.6581927   -8.4729864    596.94715  0.013795229  0.012931056            1 
 3607000   0.66848958   -8.4828531     597.0893  0.013794689  0.012926403            1 
 3608000   0.69445277   -8.4877239    597.09872  0.013791083  0.012921751            1 
 3609000   0.67579226   -8.4495689     597.6225  0.013799356  0.012917109            2 
 3610000    0.6756293   -8.4647602    596.25591  0.013763987  0.012912463            1 
 3611000   0.68627192   -8.4765515    595.73224   0.01374809  0.012907813            1 
 3612000    0.6778586   -8.4584771     596.5443  0.013763019  0.012903171            1 
 3613000   0.66522092   -8.4737138    597.48929  0.013781006  0.012898524            1 
 3614000   0.66768342    -8.473924    596.27555  0.013749206  0.012893879            2 
 3615000   0.66766995   -8.4900945    595.92459  0.013737312  0.012889236            1 
 3616000   0.67165797   -8.4869144    596.61477  0.013749418  0.012884599            2 
 3617000   0.66947656   -8.4600593    596.57575  0.013744718  0.012879972            4 
 3618000   0.66586576   -8.4551254    596.49625  0.013739088  0.012875339            1 
 3619000   0.66458112   -8.4683549    597.03481  0.013747693  0.012870711            4 
 3620000   0.68136464   -8.4757962    596.44379   0.01373029  0.012866089            3 
 3621000   0.66930521    -8.457258    596.05121  0.013717463  0.012861474            3 
 3622000   0.66909406   -8.4772056    596.49891  0.013723976  0.012856854            1 
 3623000   0.67879544   -8.4482341    596.35596    0.0137169  0.012852235            5 
 3624000   0.67302948   -8.4718369     596.4049  0.013714241  0.012847625            5 
 3625000   0.68330531    -8.473512    596.11252  0.013703736  0.012843023            1 
 3626000   0.66337995   -8.4839197    595.91119   0.01369533  0.012838408            2 
 3627000   0.68501031   -8.4842707    597.06167  0.013717987  0.012833795            2 
 3628000   0.68139865   -8.4831083    596.48272  0.013700908  0.012829191            1 
 3629000   0.66023033   -8.4632747    595.73693  0.013680007  0.012824585            4 
 3630000    0.6767557    -8.478158    596.56507  0.013695249  0.012819984            1 
 3631000   0.67777481   -8.4866676    596.40931  0.013687903  0.012815379            1 
 3632000   0.67150178   -8.4994444    595.52727  0.013663897  0.012810779            3 
 3633000    0.6568384   -8.4700639    596.67043  0.013686357  0.012806171            2 
 3634000   0.68161156   -8.4600048    597.14829  0.013693549  0.012801576            3 
 3635000    0.6786645   -8.4627924    597.97071  0.013708636  0.012796992            3 
 3636000     0.679484   -8.4605804    596.60406  0.013673544  0.012792401            2 
 3637000   0.68451821   -8.4982916    596.47938  0.013666927  0.012787818            2 
 3638000   0.67136943   -8.4588008     597.1341  0.013678168  0.012783238            1 
 3639000   0.67490363   -8.4831532     596.5489  0.013661008  0.012778655            2 
 3640000    0.6710909   -8.4664704    597.35218  0.013675645  0.012774072            1 
 3641000     0.654727   -8.4956335    598.06167  0.013688128  0.012769486            1 
 3642000   0.67875687   -8.4937149    595.95918  0.013636262  0.012764893            1 
 3643000   0.69173245   -8.4711599    596.83507  0.013652555  0.012760311            2 
 3644000   0.66234982   -8.4784889    596.23607  0.013635109  0.012755738            2 
 3645000   0.66271486   -8.4965312     595.7492  0.013620238  0.012751153            2 
 3646000   0.67961914   -8.4928366    596.27036  0.013628414  0.012746581            3 
 3647000   0.66024846   -8.4887857    595.99251  0.013618328  0.012742007            2 
 3648000    0.6596798   -8.4611554     596.6873  0.013630466  0.012737441            2 
 3649000   0.65182634   -8.4719812    595.87549  0.013608191  0.012732882            2 
 3650000   0.66354158   -8.4602258    596.62047  0.013621472   0.01272832            3 
 3651000   0.66516191    -8.511748    596.96483  0.013625601  0.012723756            6 
 3652000   0.67036978   -8.4955052    596.59352  0.013613397  0.012719183            2 
 3653000   0.66720547   -8.5158382     597.6763  0.013634371   0.01271462            3 
 3654000   0.66417288   -8.4953546    596.91228  0.013613216  0.012710062            4 
 3655000   0.67002422   -8.5054773    596.76879   0.01360622  0.012705505            1 
 3656000   0.66426711   -8.4905205    596.44117   0.01359503  0.012700949            4 
 3657000   0.66487243   -8.5037371     596.8088   0.01359969  0.012696389            2 
 3658000   0.66737762   -8.4989447    596.49209  0.013588757  0.012691828            3 
 3659000    0.6665273   -8.5053127    595.62495  0.013565295  0.012687267            1 
 3660000   0.67137493   -8.4965005    597.33139  0.013600441  0.012682714            3 
 3661000   0.68253049   -8.5011924    596.83964  0.013585533  0.012678165            2 
 3662000   0.66491064   -8.4786761    596.06092  0.013564103  0.012673616            4 
 3663000   0.66040181   -8.5037824    595.49314  0.013547482  0.012669069            2 
 3664000   0.65733651   -8.4978927    596.30421  0.013562232  0.012664516            1 
 3665000   0.67540945   -8.4831909    595.99869  0.013551585  0.012659968            2 
 3666000    0.6674035   -8.4967128    596.92088  0.013568851  0.012655425            3 
 3667000   0.66034939   -8.5190551    595.93381  0.013542719  0.012650868            3 
 3668000   0.65225269   -8.5157414    596.54726  0.013552964  0.012646322            3 
 3669000   0.65797682   -8.4839195    596.68661  0.013552435  0.012641767            3 
 3670000   0.66476461   -8.5046306    596.64376  0.013547769   0.01263722            6 
 3671000   0.65681706    -8.489836    596.68553  0.013545027  0.012632679            3 
 3672000   0.67019713    -8.466386    595.77667  0.013520712  0.012628145            5 
 3673000   0.66023047   -8.4911327    595.58547  0.013512693  0.012623616            4 
 3674000   0.66400794   -8.5016197    596.91595  0.013539193  0.012619082            4 
 3675000   0.66245268   -8.5051381    596.45638  0.013525088  0.012614537            5 
 3676000   0.67002258   -8.4955933    596.02874  0.013511714  0.012610001            1 
 3677000   0.66511674   -8.4963537    596.56333  0.013520155  0.012605469            5 
 3678000   0.66094625   -8.4679811    596.23673  0.013509079  0.012600938            1 
 3679000   0.67121502   -8.5112663    596.12518  0.013502881  0.012596407            2 
 3680000   0.65520479   -8.4990786     595.9883  0.013496112  0.012591876            2 
 3681000    0.6566958   -8.5116276    596.59581  0.013506199  0.012587352            1 
 3682000    0.6665518   -8.4942632     597.5301  0.013523676  0.012582828            2 
 3683000   0.66295686    -8.505456    595.70917  0.013478803  0.012578305            2 
 3684000   0.64488967    -8.523605    596.47644    0.0134925   0.01257378            1 
 3685000   0.67063585   -8.5084925    597.58728  0.013513959  0.012569258            1 
 3686000   0.65311554    -8.485258    596.77602  0.013491952  0.012564744            2 
 3687000   0.66165162   -8.5083997     596.4883   0.01348179  0.012560229            2 
 3688000    0.6527463   -8.5045332    595.24702  0.013450086  0.012555714            2 
 3689000   0.64785908   -8.5045593     596.0274  0.013464069  0.012551204            2 
 3690000   0.64519568   -8.5101234    596.15867  0.013463385  0.012546693            1 
 3691000   0.64973743    -8.503556    596.89772  0.013476423  0.012542176            2 
 3692000   0.65157994   -8.5036038    596.25853  0.013458345  0.012537663            2 
 3693000   0.65891088   -8.4917995    596.92404  0.013469718  0.012533164            7 
 3694000   0.67104757   -8.4881822    597.14041  0.013470953  0.012528665            1 
 3695000   0.66284646   -8.4920081    596.24367  0.013447083  0.012524163            2 
 3696000   0.66534295    -8.491557    597.00385  0.013460585  0.012519664            1 
 3697000   0.66086184   -8.5115183    596.47066  0.013444925  0.012515163            2 
 3698000   0.66033904   -8.5213574    594.85648  0.013404914  0.012510666            2 
 3699000   0.67196076   -8.5021657    596.84958  0.013446192  0.012506173            1 
 3700000   0.65747676   -8.4904256    597.40458  0.013455058  0.012501691            3 
 3701000   0.68081906   -8.5104204     596.0095   0.01342001  0.012497206            1 
 3702000    0.6700073   -8.4940792    597.03595  0.013439491  0.012492723            1 
 3703000   0.65955773   -8.5017745    597.09587   0.01343721  0.012488253            2 
 3704000   0.66863239   -8.5035338     597.1946  0.013435804  0.012483781            1 
 3705000    0.6641672    -8.467269    596.75822  0.013422362   0.01247931            1 
 3706000   0.66713412   -8.4968467     596.1645   0.01340539   0.01247484            1 
 3707000   0.66189215   -8.4785161     597.7881  0.013438272  0.012470372            2 
 3708000   0.66786545   -8.4964503    597.30377  0.013423763  0.012465906            2 
 3709000   0.65799296   -8.4932304    595.96694  0.013390108  0.012461447            3 
 3710000   0.64826132   -8.5024645    596.15488  0.013390721  0.012456982            3 
 3711000   0.66020812   -8.4985556     596.1485  0.013386969  0.012452525            1 
 3712000   0.65600265     -8.51024    596.67878  0.013395267  0.012448068            2 
 3713000   0.65163862   -8.4872687    596.12268  0.013379179  0.012443609            1 
 3714000   0.66276154   -8.5053821    596.92017   0.01339347  0.012439149            2 
 3715000   0.65839382   -8.4935072    596.05509   0.01337046  0.012434686            1 
 3716000   0.66136658   -8.4936575    595.17113  0.013347038  0.012430225            2 
 3717000   0.65321888   -8.4976927    597.24729  0.013389994  0.012425771            3 
 3718000   0.64711099   -8.4971586    595.86571  0.013355427  0.012421316            2 
 3719000   0.65161687   -8.5075198    596.71759  0.013370924  0.012416865            4 
 3720000   0.65421718   -8.4939537     597.1452  0.013376909   0.01241242            3 
 3721000   0.65915558    -8.511975    596.97807  0.013369571  0.012407964            2 
 3722000    0.6523169    -8.515707    597.22957   0.01337161  0.012403515            3 
 3723000    0.6598347    -8.518058     596.8901  0.013360419  0.012399065            2 
 3724000   0.65095708   -8.5068066    597.25308  0.013364954  0.012394614            1 
 3725000   0.64792841   -8.5038186    596.80385  0.013351316   0.01239017            2 
 3726000   0.65361144   -8.4972405    596.79511  0.013347538  0.012385728            1 
 3727000   0.65835128   -8.5123031    596.14205  0.013329355  0.012381283            2 
 3728000   0.66128551   -8.5110832    596.20182  0.013327115  0.012376834            4 
 3729000   0.66316008   -8.4866746    595.74824  0.013313405   0.01237239            2 
 3730000   0.64700145   -8.4994617    596.24847  0.013321011  0.012367937            1 
 3731000   0.67538941    -8.503059    597.94306   0.01335529  0.012363506            1 
 3732000   0.65440304   -8.4886717    595.96313  0.013307501  0.012359065            3 
 3733000    0.6457575    -8.503748     597.2073  0.013331711  0.012354637            3 
 3734000    0.6481715   -8.4925922    597.07626  0.013325216  0.012350208            3 
 3735000   0.65744847   -8.5120958    596.83637  0.013316296  0.012345768            4 
 3736000   0.65077588   -8.5114905    596.96403  0.013315579  0.012341342            2 
 3737000   0.66310663   -8.5191092    594.44903  0.013255932  0.012336907            2 
 3738000    0.6486063   -8.5119654    595.22345  0.013269651  0.012332472            4 
 3739000   0.66144262    -8.507926    595.71339  0.013277021  0.012328041            2 
 3740000   0.66188026   -8.5386252    596.60832  0.013293412  0.012323601            4 
 3741000   0.64407705   -8.5166239    596.31286  0.013283277  0.012319157           11 
 3742000   0.65025394   -8.5209981    596.13126  0.013275683  0.012314714            7 
 3743000   0.65368886   -8.5181883    595.75057   0.01326366  0.012310274           13 
 3744000    0.6647042   -8.5196164    595.44787   0.01325338  0.012305845           13 
 3745000   0.66281233    -8.508705    595.54407  0.013251982  0.012301414           13 
 3746000   0.64538498    -8.545361    595.30561   0.01324314  0.012296986           10 
 3747000   0.65606728   -8.5186305    595.80878  0.013250796  0.012292548            2 
 3748000   0.64910827   -8.5136303    595.10466  0.013231605  0.012288106            7 
 3749000   0.65596596   -8.5250799     595.5748  0.013238526  0.012283666           14 
 3750000   0.64472912   -8.5353441    595.44789  0.013232175  0.012279233            2 
 3751000   0.64060355   -8.5153929    594.77033  0.013213595  0.012274801            4 
 3752000   0.66789489    -8.538291    595.82164  0.013233423  0.012270369            3 
 3753000    0.6464895   -8.5261893    596.68872   0.01324915   0.01226595            2 
 3754000   0.64419533   -8.5258617    595.87952  0.013227658  0.012261536            3 
 3755000   0.63691065   -8.5192524    595.14218  0.013207771  0.012257116            3 
 3756000   0.65509732   -8.5347355     595.3003  0.013207763  0.012252693            1 
 3757000   0.64917916   -8.5178069    595.65795  0.013212181  0.012248277            3 
 3758000     0.640295    -8.511077    596.01483  0.013216579   0.01224387            4 
 3759000   0.64654204   -8.5210558    596.36508  0.013220827  0.012239467            6 
 3760000   0.64608686   -8.5311582    594.99591  0.013186966  0.012235057            6 
 3761000   0.63922109   -8.5474866    595.51578  0.013194979  0.012230653            2 
 3762000    0.6474074   -8.5243178    596.56642  0.013214744   0.01222625            1 
 3763000   0.66019117   -8.5290702    595.37819  0.013184919  0.012221849            4 
 3764000   0.65719038    -8.518457    594.22819  0.013155955  0.012217444            2 
 3765000   0.65764262   -8.5276387    595.91823  0.013189868  0.012213042            4 
 3766000   0.64356185   -8.5345933    595.36238  0.013174066  0.012208645            6 
 3767000   0.66127955   -8.5321865    596.23744  0.013189927  0.012204245            8 
 3768000   0.65544114   -8.5216881    595.50349  0.013170194   0.01219985            5 
 3769000   0.64471754      -8.5568    595.12125  0.013158248  0.012195453            2 
 3770000   0.63738933   -8.5180802    596.97715  0.013195781  0.012191061            5 
 3771000   0.64322056   -8.5199945    596.44079  0.013180429  0.012186669            9 
 3772000   0.65345718   -8.5259572    596.03342  0.013167935  0.012182279            5 
 3773000   0.65027346   -8.5419487    596.19201  0.013167948  0.012177899            2 
 3774000   0.64512494   -8.5286343    595.69942  0.013153582  0.012173514           11 
 3775000   0.65275161   -8.5226682    595.78201  0.013151921  0.012169148            9 
 3776000   0.63667222    -8.557519    594.82031  0.013127214  0.012164779            7 
 3777000   0.65491245   -8.5262296    595.41209  0.013136795  0.012160407            4 
 3778000   0.65006639   -8.5194332    595.71391  0.013139975  0.012156033            5 
 3779000   0.63241281   -8.5373054    595.70648  0.013136334  0.012151662            3 
 3780000    0.6507161   -8.5190354    596.34665  0.013146972  0.012147292            2 
 3781000   0.64056172   -8.5470748    596.14166  0.013138977  0.012142921           10 
 3782000   0.64304306    -8.554029    595.96671  0.013131648  0.012138552            3 
 3783000   0.64981746   -8.5284582    595.63024  0.013120765  0.012134177            6 
 3784000   0.63412599   -8.5160107    595.66277  0.013118014  0.012129805           10 
 3785000   0.64806252   -8.5162072    596.50083  0.013132999  0.012125434            9 
 3786000   0.65085964   -8.5298302    595.24392  0.013101865   0.01212107           10 
 3787000   0.64392127   -8.5326824    595.33588  0.013100429    0.0121167            7 
 3788000   0.64600787   -8.5414306    594.04576  0.013068589  0.012112332            3 
 3789000   0.64253298    -8.533693    595.38514  0.013094597  0.012107968            3 
 3790000   0.64232454   -8.5395955    595.99442  0.013104539  0.012103619            2 
 3791000   0.64374971   -8.4996466    596.09625   0.01310332  0.012099264            9 
 3792000   0.64995887   -8.5284972    595.64428  0.013089932   0.01209491           10 
 3793000   0.65715766   -8.5211664    595.13241  0.013075235  0.012090554            4 
 3794000    0.6395788   -8.5254067    595.05246  0.013070033  0.012086199           10 
 3795000   0.63678774   -8.5470061    595.22942  0.013070475  0.012081847           12 
 3796000   0.62915308   -8.5273683     596.2111  0.013088582  0.012077495           16 
 3797000   0.64751128    -8.533859    595.26549  0.013064382  0.012073141            8 
 3798000   0.64799245   -8.5450852    595.62232  0.013068771  0.012068788            8 
 3799000   0.64357414    -8.545461    596.35784  0.013081465  0.012064435            6 
 3800000   0.63943442   -8.5361625    594.91267   0.01304633   0.01206009            8 
 3801000   0.65642537   -8.5143985    595.27406  0.013050821  0.012055751            6 
 3802000   0.64298592   -8.5418595     595.3173  0.013048337  0.012051419            8 
 3803000   0.65170699    -8.520009    596.01484   0.01306019   0.01204709            2 
 3804000   0.64282901    -8.526794    595.52758  0.013046083  0.012042758           10 
 3805000   0.62764609   -8.5242879    594.79616  0.013026635  0.012038426            6 
 3806000   0.63552166     -8.56053    595.29229  0.013034075  0.012034092            9 
 3807000   0.64129711   -8.5503383    594.93481  0.013022827  0.012029756            9 
 3808000   0.63353011   -8.5640915    594.66232  0.013013444  0.012025424           12 
 3809000   0.63633771   -8.5491952    594.27976  0.013001657  0.012021087            8 
 3810000   0.64513509   -8.5601107    595.08436  0.013015843  0.012016751            7 
 3811000   0.63559513   -8.5563902    594.52485  0.013000194  0.012012414            6 
 3812000   0.63180631   -8.5289097    595.86892  0.013026166  0.012008083            7 
 3813000   0.64065554   -8.5671442    595.32018  0.013010757  0.012003753            9 
 3814000   0.64084148   -8.5399915    595.13148  0.013003222  0.011999428            9 
 3815000   0.64186025   -8.5595673    596.23369   0.01302389  0.011995103           14 
 3816000   0.64864856    -8.551959    594.79424  0.012989043  0.011990775           11 
 3817000   0.63034591   -8.5606646    595.01669  0.012990496  0.011986448           14 
 3818000   0.64609292   -8.5676377    594.83285  0.012983081  0.011982119            9 
 3819000    0.6357096   -8.5538935    594.66555  0.012976031  0.011977798           10 
 3820000   0.65713967   -8.5835499     595.5626  0.012992203   0.01197347            8 
 3821000   0.63853628   -8.5771256    594.39558  0.012963351   0.01196914            7 
 3822000   0.64737421   -8.5507212    595.96276   0.01299413  0.011964824           13 
 3823000   0.63101075   -8.5625183    595.69772  0.012984953  0.011960509            7 
 3824000   0.64377965   -8.5688956     595.0197  0.012966782  0.011956194           10 
 3825000   0.63445778    -8.564671    595.21796  0.012967712  0.011951877           11 
 3826000   0.64537949   -8.5697461    595.03276  0.012960288  0.011947553           12 
 3827000   0.64215508   -8.5753638    595.22789  0.012961151  0.011943225            9 
 3828000   0.63044907   -8.5632576    596.15677  0.012977986  0.011938907           14 
 3829000   0.65399201   -8.5679332    595.01566  0.012949762   0.01193459           13 
 3830000   0.65414204   -8.5794194    592.78457  0.012897837  0.011930273           10 
 3831000   0.63543762   -8.5882317    593.73332  0.012915107  0.011925955            6 
 3832000   0.62949989   -8.5574028    593.84546  0.012914176  0.011921641            2 
 3833000   0.64070583   -8.5596815     595.0309  0.012936579  0.011917327           13 
 3834000   0.62726229   -8.5884812    595.05929  0.012933822  0.011913014            2 
 3835000   0.64109619   -8.5834555    594.01028  0.012907655  0.011908707           10 
 3836000   0.64685613   -8.5562187    594.46187    0.0129141    0.0119044            1 
 3837000   0.64324544   -8.5905513    595.33177  0.012929628  0.011900102            3 
 3838000    0.6183249   -8.5724252    595.35409  0.012926743  0.011895798           11 
 3839000   0.62464907   -8.5608046    594.63917  0.012907857  0.011891492           12 
 3840000   0.63496196   -8.5945329    595.18468  0.012916334  0.011887185           11 
 3841000   0.64762981   -8.6171685    594.33439  0.012894524  0.011882887            9 
 3842000   0.63874655    -8.597534    593.85036  0.012880669  0.011878586            8 
 3843000   0.63961244   -8.5914143    594.51943  0.012891826  0.011874288           11 
 3844000   0.63514525   -8.5751363    594.76372  0.012893768  0.011869993            4 
 3845000   0.63652674   -8.5700069    595.19514  0.012899765  0.011865704            7 
 3846000   0.62761415   -8.5791599      594.402  0.012879225  0.011861414            4 
 3847000   0.64255254   -8.5823199    593.82599    0.0128634  0.011857134            9 
 3848000   0.64423236   -8.5792236    594.50972  0.012874864  0.011852852           10 
 3849000   0.63672466   -8.5884327    594.74908  0.012876701  0.011848571            2 
 3850000   0.64470539   -8.5845071     593.9693  0.012856478  0.011844289            8 
 3851000   0.63856652   -8.5712009      595.062  0.012876785  0.011840005            5 
 3852000   0.63784898    -8.589462    594.54899  0.012862344  0.011835722            5 
 3853000   0.63044973    -8.581845    593.98836   0.01284688  0.011831439            8 
 3854000    0.6484323   -8.5779237    593.96137  0.012842963  0.011827159            7 
 3855000   0.63403553   -8.5958696    593.95449  0.012839483  0.011822886           11 
 3856000   0.62911555   -8.5922492    593.67301   0.01283007  0.011818612            3 
 3857000   0.63246787   -8.5761047    593.30306  0.012818751  0.011814343            9 
 3858000    0.6455211   -8.5992359    593.28475  0.012815033  0.011810071           11 
 3859000   0.63187747   -8.5819282    594.52255  0.012838442    0.0118058            7 
 3860000   0.64871559   -8.5953058    595.03425  0.012846163   0.01180153           10 
 3861000   0.62239219   -8.5917463    594.38982  0.012828926  0.011797263           13 
 3862000   0.62781304   -8.5776612    594.64716  0.012831158     0.011793            5 
 3863000   0.63714991    -8.599749    595.55205  0.012847356  0.011788741           10 
 3864000   0.63412893   -8.5760823    594.57051  0.012822863  0.011784479            7 
 3865000   0.62581362   -8.5752446    593.82881  0.012803553  0.011780221           14 
 3866000   0.62280517   -8.5957719     594.7165  0.012819376  0.011775967            9 
 3867000   0.63117546    -8.591887    594.17172  0.012804321  0.011771715            8 
 3868000   0.64835203   -8.5787847    594.31808  0.012804164  0.011767465           12 
 3869000   0.63328129   -8.5897229     593.4864  0.012782941  0.011763218            9 
 3870000   0.63862868   -8.5901319    594.79835  0.012807889  0.011758968            6 
 3871000   0.63757329   -8.5953618    594.02535  0.012787939   0.01175472           11 
 3872000    0.6236085   -8.5813197    594.79574  0.012801217  0.011750474           13 
 3873000   0.63729272   -8.5852862    594.82226  0.012798482  0.011746231            5 
 3874000   0.62503507    -8.605579    594.60251  0.012790451  0.011741989            7 
 3875000   0.63255355   -8.5962491    594.22731  0.012779082  0.011737743            3 
 3876000    0.6327656   -8.5993885    593.79808  0.012766557  0.011733507            9 
 3877000   0.63773831   -8.5591643     595.2465  0.012794396   0.01172927            2 
 3878000   0.63399354   -8.5872266    594.38056  0.012772489  0.011725044            4 
 3879000   0.63326193   -8.6042015    594.67946  0.012775618  0.011720808            2 
 3880000   0.63858059   -8.6031535    593.76438  0.012752671   0.01171657           10 
 3881000   0.61871433   -8.5850764    595.05111  0.012777014  0.011712335            4 
 3882000   0.63208404   -8.5920431    595.61791   0.01278589  0.011708106            8 
 3883000   0.63450626   -8.5832923    593.99564  0.012747782  0.011703869           11 
 3884000   0.61338362   -8.6026683    594.15331  0.012747882  0.011699635            9 
 3885000   0.62056647   -8.5795076    593.17042  0.012723518  0.011695407           13 
 3886000   0.62258667   -8.6042177    595.06665  0.012760908  0.011691178            7 
 3887000   0.63094162   -8.5979211    595.19768  0.012760434  0.011686961            7 
 3888000   0.62879152   -8.5825149    594.10822  0.012733801  0.011682743            5 
 3889000   0.63335195   -8.5912072    594.20271  0.012732551  0.011678528            7 
 3890000   0.62863205   -8.5970633    592.95006  0.012702443  0.011674308            3 
 3891000   0.61585317   -8.5912757    593.71943  0.012715656  0.011670087            6 
 3892000   0.61317587   -8.5821535    594.01018  0.012718615  0.011665868            7 
 3893000    0.6230326   -8.5917706    593.53642  0.012705206  0.011661654            4 
 3894000   0.62659136   -8.6018007    594.16149   0.01271532  0.011657443           10 
 3895000   0.63060511   -8.5827425    593.66215  0.012701373  0.011653227            6 
 3896000   0.61479972   -8.6176712    592.48711  0.012672979   0.01164901            7 
 3897000   0.62955616   -8.6004859    594.65469  0.012716078  0.011644796            8 
 3898000   0.62672792   -8.5926054    593.59169  0.012690091  0.011640584            7 
 3899000   0.62449976   -8.5956884    593.94076  0.012694297  0.011636372            6 
 3900000   0.62042163   -8.5916397    594.30858  0.012698901  0.011632164            1 
 3901000   0.62577541   -8.6007361    593.77815  0.012684315  0.011627957            3 
 3902000   0.64195427   -8.6006273    594.03783   0.01268661  0.011623742            8 
 3903000   0.63553837   -8.5823746    595.08861  0.012705795  0.011619541            2 
 3904000   0.62508924   -8.5904786    594.29217   0.01268554  0.011615341            1 
 3905000   0.62518812   -8.6016732    593.39478  0.012663141  0.011611144            8 
 3906000   0.63755315   -8.5969173    593.29383  0.012657745  0.011606948            4 
 3907000   0.62741143   -8.5934022    593.41217   0.01265703  0.011602748            1 
 3908000   0.62393855   -8.6071396    594.48786  0.012676729  0.011598549            7 
 3909000   0.62920287   -8.5791126    593.28524  0.012647848  0.011594358           11 
 3910000   0.61142132   -8.6089497    593.91779  0.012658094  0.011590171            6 
 3911000    0.6322843   -8.5901384    593.75293  0.012651345  0.011585995            3 
 3912000    0.6255057   -8.5921787     593.6925  0.012646824   0.01158182            5 
 3913000   0.62261174   -8.6032111     594.2078  0.012654566  0.011577643            2 
 3914000   0.64749593   -8.6099451      594.299  0.012653275  0.011573466            2 
 3915000   0.62375947   -8.6032631    593.95464  0.012642713  0.011569293            5 
 3916000   0.61689967   -8.5782225    594.77376  0.012656915  0.011565121            2 
 3917000   0.62872421   -8.5853595     593.9807  0.012636812   0.01156095            3 
 3918000     0.632469   -8.5930097    594.58209  0.012646378  0.011556781            2 
 3919000   0.62469926   -8.6071406    593.99748   0.01263072  0.011552613            6 
 3920000    0.6339588    -8.594708    593.16626  0.012609827  0.011548443            3 
 3921000   0.64005074    -8.597128    593.43093  0.012612236  0.011544282            4 
 3922000   0.61948473   -8.5945808    594.98855  0.012642116  0.011540123            2 
 3923000   0.62435629   -8.5892502    594.44693  0.012627388  0.011535966            2 
 3924000   0.61838261   -8.6053438    593.54608  0.012605039  0.011531808            7 
 3925000   0.60889468   -8.5783867     595.3951  0.012641085  0.011527648            3 
 3926000   0.62238925   -8.5934799     593.8159  0.012604345  0.011523487            4 
 3927000   0.61115736   -8.6193722     594.3219  0.012611873  0.011519331            8 
 3928000   0.63223833   -8.6076448    592.73186  0.012574929  0.011515177            4 
 3929000   0.61632128    -8.588777    594.37329  0.012606543  0.011511023            3 
 3930000   0.61914952   -8.6216756    594.28391   0.01260144  0.011506868            5 
 3931000   0.62513964   -8.5858914    594.27464  0.012598038  0.011502713            2 
 3932000   0.62448842     -8.63251    594.69774  0.012603801  0.011498567            6 
 3933000   0.60727557   -8.5982689    594.71617  0.012600987   0.01149442            4 
 3934000   0.62449003   -8.6066613    593.74885  0.012577293  0.011490267            7 
 3935000   0.62125394    -8.609834    594.67077  0.012593621  0.011486121            2 
 3936000   0.62027879   -8.6033325    593.89182  0.012573929  0.011481983            2 
 3937000   0.62358683   -8.6048488    594.64924  0.012586767  0.011477844            5 
 3938000   0.62005497     -8.61382    594.33046  0.012576825  0.011473705            2 
 3939000   0.62831344   -8.5887137    593.70465  0.012560393  0.011469569            3 
 3940000   0.62382886   -8.5984359    594.75589  0.012579439  0.011465436            2 
 3941000    0.6341809   -8.6158248    593.94247  0.012559047  0.011461309            3 
 3942000   0.61746365   -8.5957767    593.99551  0.012556983  0.011457181            5 
 3943000   0.62674073   -8.6264468     594.0983   0.01255597  0.011453053            3 
 3944000   0.61931774   -8.6015159    594.10226  0.012552871   0.01144893            1 
 3945000   0.61483902   -8.5793787    593.31695    0.0125331  0.011444812            3 
 3946000   0.62122998   -8.5865532    595.09442  0.012567461  0.011440697            2 
 3947000   0.60117417   -8.6109857    592.88874  0.012517708  0.011436584            2 
 3948000   0.61317337    -8.641247    593.45154  0.012526417  0.011432462            1 
 3949000   0.61101553   -8.6160352    594.14437  0.012537866  0.011428343            2 
 3950000   0.61439508   -8.6366987    592.78741  0.012506063  0.011424224            2 
 3951000    0.6271305   -8.5911999    593.57617  0.012519535  0.011420102            2 
 3952000   0.63866064   -8.6061845    594.64044  0.012538808  0.011415988            5 
 3953000   0.63083569   -8.6109388    593.93798  0.012520828  0.011411872            6 
 3954000   0.62473399   -8.6045898    594.32156  0.012525745  0.011407762            5 
 3955000   0.62164745   -8.6258828    594.05577  0.012516978  0.011403653            8 
 3956000   0.63119894   -8.6222236    594.55011  0.012524227  0.011399546            2 
 3957000   0.62437235    -8.601096    594.75407  0.012525357   0.01139544            3 
 3958000   0.60851732   -8.6211227    593.67257  0.012499422  0.011391335            7 
 3959000   0.61470653   -8.6084062    594.22959   0.01250799  0.011387229            7 
 3960000   0.61060235   -8.6204491    593.51291   0.01248975  0.011383117           10 
 3961000    0.6193729   -8.6101392    593.38713   0.01248395   0.01137901            3 
 3962000   0.61821083   -8.6109191    594.23025  0.012498533  0.011374903           11 
 3963000     0.629168   -8.6039566    593.40968  0.012478124  0.011370802            8 
 3964000   0.62390057   -8.6153706    594.19124  0.012491407  0.011366705            4 
 3965000   0.61326074   -8.6323394    593.03573  0.012463971  0.011362606            3 
 3966000   0.60689314   -8.6297558     593.4493  0.012469518  0.011358505            4 
 3967000   0.60319109   -8.6130978    593.11618  0.012459377  0.011354409           10 
 3968000   0.62111819   -8.6175485    592.89616  0.012451616  0.011350317            2 
 3969000    0.6035111   -8.6224512    593.65456  0.012464402  0.011346229            3 
 3970000   0.63346561   -8.6276571    592.56161  0.012438321  0.011342138            4 
 3971000   0.62733043   -8.6241736    594.05361  0.012466499  0.011338055            5 
 3972000   0.61063583   -8.6028531    592.42565  0.012429206  0.011333968            4 
 3973000    0.6186867   -8.6217718     593.5653  0.012449981  0.011329886            5 
 3974000   0.61492585   -8.6350053    594.91288  0.012475106  0.011325799            2 
 3975000   0.61817578   -8.6135791     594.7455  0.012468459  0.011321716            5 
 3976000   0.62880095    -8.614208    594.70519  0.012464478  0.011317635            7 
 3977000   0.63056321   -8.6403791    592.81946  0.012421831  0.011313547            6 
 3978000   0.61028921   -8.6404116    592.09552  0.012403543  0.011309463            5 
 3979000   0.61164848   -8.6253237    591.80547  0.012394351  0.011305379            2 
 3980000   0.61449873   -8.6434418    594.52954  0.012448274  0.011301295            2 
 3981000   0.61060787   -8.6329971    593.40809  0.012421672  0.011297213            3 
 3982000   0.61940719    -8.626316    593.15016  0.012413154   0.01129314            4 
 3983000   0.61340623    -8.631909    593.60833  0.012419624  0.011289066            3 
 3984000    0.6159214    -8.654497    592.55375  0.012394448  0.011284985            3 
 3985000   0.61075606   -8.6302065    594.64889   0.01243515  0.011280909            4 
 3986000   0.60778777   -8.6465048    592.84046  0.012394223  0.011276835            6 
 3987000   0.60770748   -8.6369088    593.04095  0.012395305  0.011272761            5 
 3988000   0.60715965   -8.6215259    593.46743  0.012401108  0.011268689            6 
 3989000   0.60466169   -8.6158708    594.73674  0.012424516   0.01126462            3 
 3990000   0.60791962   -8.6351181    593.85807  0.012403051  0.011260555            4 
 3991000   0.60973325   -8.6159506    593.36565  0.012389661  0.011256497            3 
 3992000   0.61511103   -8.6319971    592.25994  0.012363476  0.011252439            7 
 3993000   0.61252684   -8.6472427     592.3303  0.012361848  0.011248379            3 
 3994000   0.62266613   -8.6245403    593.22808  0.012377484  0.011244324            4 
 3995000   0.60200304   -8.6347619    593.46965  0.012379425  0.011240271            1 
 3996000   0.59923588   -8.6210773    593.11202  0.012368869  0.011236222            3 
 3997000    0.6229783   -8.6347269    593.68589  0.012377739  0.011232165            3 
 3998000   0.59160499   -8.6269928    592.83426  0.012356892  0.011228115            3 
 3999000   0.60447738   -8.6282322     593.2618  0.012362711  0.011224068            1 
 4000000   0.61768933   -8.6134473    592.89264   0.01235193  0.011220022            2 
 4001000    0.6076525   -8.6252244    594.36588  0.012379528   0.01121598            4 
 4002000    0.6194226   -8.6443793     593.6291  0.012361092  0.011211941            3 
 4003000   0.60992799   -8.6239404     593.6236   0.01235789  0.011207901            8 
 4004000   0.61930891   -8.6301673    594.25294  0.012367902  0.011203864            2 
 4005000    0.6165184   -8.6303749    594.01525  0.012359868  0.011199834            3 
 4006000     0.620169   -8.6484917    593.68742  0.012349963  0.011195796            7 
 4007000   0.60084654   -8.6161232    592.89226  0.012330344  0.011191762            3 
 4008000   0.61068467   -8.6402952    593.35662  0.012336922   0.01118773            4 
 4009000   0.61618374   -8.6311195    593.48009  0.012336412  0.011183703            1 
 4010000   0.62855921   -8.6319534     594.0785  0.012345771  0.011179677            7 
 4011000   0.60443671   -8.6307516    593.06309  0.012321597  0.011175661            4 
 4012000   0.62426295   -8.6321562    593.00763  0.012317373  0.011171641            2 
 4013000   0.60881938   -8.6264181    594.14932  0.012338012   0.01116762            4 
 4014000   0.60390059   -8.6279702    593.99982  0.012331835   0.01116361            3 
 4015000   0.61698029   -8.6205432    593.87518  0.012326176  0.011159596            7 
 4016000   0.61164864   -8.6381623    593.18477  0.012308781  0.011155588            4 
 4017000   0.60525975   -8.6474652    594.03331   0.01232332  0.011151578            1 
 4018000   0.59276821   -8.6379114     594.0777  0.012321174  0.011147571            2 
 4019000   0.61468309   -8.6235421    593.66591  0.012309569  0.011143564            1 
 4020000   0.60558583   -8.6378828    592.76847  0.012287904  0.011139559            4 
 4021000   0.61020169   -8.6421188    593.58876  0.012301848  0.011135552            2 
 4022000   0.60661063   -8.6286586     592.9654  0.012285874  0.011131552            6 
 4023000   0.60204492   -8.6154141    593.26185   0.01228896  0.011127551            8 
 4024000   0.61365887   -8.6402019    593.51909  0.012291234  0.011123551            4 
 4025000   0.61126227   -8.6522784    592.53948  0.012267898  0.011119547            5 
 4026000   0.59832695   -8.6395309    593.47179  0.012284149  0.011115551            6 
 4027000   0.61889218   -8.6442575    594.06061  0.012293283  0.011111555            4 
 4028000   0.60494482   -8.6598994    593.36865  0.012275915  0.011107559            6 
 4029000   0.61698788   -8.6531024    592.36427  0.012252095  0.011103566            3 
 4030000   0.60303309   -8.6595081     592.2089  0.012245842  0.011099576            4 
 4031000   0.62572296   -8.6407749     593.7531  0.012274727  0.011095586            2 
 4032000   0.61352948   -8.6537353    593.23566  0.012260988  0.011091603            5 
 4033000   0.61101742    -8.651943    592.23513  0.012237274  0.011087615            4 
 4034000   0.59286967   -8.6496329    592.20819  0.012233684  0.011083626            7 
 4035000   0.61466943   -8.6447818    593.47242  0.012256762  0.011079634            6 
 4036000   0.60752407   -8.6546173      592.278  0.012229063  0.011075645            2 
 4037000   0.61194261    -8.635842    592.91715  0.012239228   0.01107166            2 
 4038000   0.59999562   -8.6548723      592.658  0.012230849  0.011067676            7 
 4039000   0.60240068   -8.6229541    594.42116  0.012264198  0.011063695            2 
 4040000   0.59993191   -8.6402217    593.54531  0.012243096  0.011059717            5 
 4041000   0.60762391   -8.6460399    592.52925  0.012219113  0.011055738            2 
 4042000   0.59232033   -8.6595653    592.69256  0.012219457  0.011051765            5 
 4043000   0.61305203   -8.6391328    592.81174  0.012218892   0.01104779            5 
 4044000   0.61025582   -8.6448378    592.76606  0.012214929  0.011043812            2 
 4045000   0.62196747   -8.6556319     592.1507  0.012199232  0.011039837            1 
 4046000   0.59931518   -8.6494392    592.43852  0.012202145  0.011035862            8 
 4047000   0.58555803   -8.6400408    591.94475  0.012188962  0.011031891            6 
 4048000   0.59413221   -8.6512436    593.16291  0.012211028  0.011027922            6 
 4049000   0.59929494   -8.6498616    593.21064  0.012208995  0.011023946            3 
 4050000   0.60818661   -8.6505001    593.14632  0.012204657  0.011019978            6 
 4051000   0.60658956   -8.6571321    592.57017  0.012189792  0.011016014            3 
 4052000   0.61169443    -8.664295    592.13483   0.01217783   0.01101205            5 
 4053000   0.62253835   -8.6524168    592.84887  0.012189507  0.011008084            4 
 4054000   0.60812989   -8.6555112    593.23236  0.012194383  0.011004125            4 
 4055000   0.60186625   -8.6501776    593.63898  0.012199732  0.011000169            4 
 4056000   0.60416529   -8.6245155    593.67374  0.012197439  0.010996215            6 
 4057000   0.61326666   -8.6530546    592.29465  0.012166105  0.010992262            4 
 4058000    0.5970551   -8.6449361    592.61271  0.012169638  0.010988304            6 
 4059000   0.60649756   -8.6590522    592.95574  0.012173683  0.010984348            4 
 4060000   0.61218687   -8.6581957     592.1273   0.01215368  0.010980395            5 
 4061000   0.59764604   -8.6561506     592.4785  0.012157894  0.010976449            7 
 4062000   0.60253121   -8.6461023    593.01155  0.012165837  0.010972496            4 
 4063000    0.5918285   -8.6454439    592.88023  0.012160149  0.010968548            3 
 4064000   0.59712455   -8.6649981    593.40403  0.012167898  0.010964598            3 
 4065000   0.59392149   -8.6600868    592.68565  0.012150177  0.010960648            3 
 4066000   0.59027827    -8.672006     592.7431  0.012148367  0.010956703            2 
 4067000   0.60355869   -8.6512813    592.09397  0.012132079  0.010952758            4 
 4068000    0.5896823   -8.6811541    592.52104  0.012137845  0.010948811            2 
 4069000   0.59580292    -8.655888    593.52972   0.01215552  0.010944869            6 
 4070000   0.60485918   -8.6449066    593.58537  0.012153673  0.010940934            8 
 4071000   0.60161157   -8.6739959    591.98815  0.012117992     0.010937            6 
 4072000    0.5976331   -8.6652268    591.91147  0.012113447  0.010933068            5 
 4073000   0.59473063   -8.6417293    592.96268  0.012131981  0.010929134            5 
 4074000    0.5974025   -8.6708191    592.44599  0.012118434  0.010925199            6 
 4075000   0.58461743   -8.6615996    591.82273  0.012102714  0.010921268            6 
 4076000   0.59159102   -8.6568193    592.93131   0.01212241  0.010917337            6 
 4077000   0.60073846   -8.6539269    591.32082  0.012086518  0.010913406            9 
 4078000   0.59892357   -8.6721464     593.7175   0.01213253  0.010909477            7 
 4079000   0.59696335   -8.6647408    591.68902  0.012088114  0.010905558            4 
 4080000   0.59541154   -8.6647699    592.51743  0.012102072  0.010901643            5 
 4081000   0.60530485    -8.660189    591.04401  0.012069019   0.01089772            5 
 4082000   0.59934189   -8.6494042    593.06155   0.01210725  0.010893803            2 
 4083000   0.59747694   -8.6600671    592.59224  0.012094706   0.01088989            5 
 4084000   0.59100779   -8.6739424    593.05093  0.012101105  0.010885974            5 
 4085000   0.59866926   -8.6533018    593.71284  0.012111645  0.010882062            4 
 4086000   0.59389967   -8.6610652    593.25833  0.012099411  0.010878149            9 
 4087000   0.59675262   -8.6399151    592.23117  0.012075507  0.010874238            7 
 4088000   0.60498372   -8.6714835    592.90894   0.01208637  0.010870328            2 
 4089000   0.60081101    -8.657489    592.02219  0.012065342  0.010866414            8 
 4090000   0.59691143    -8.671168    590.93436  0.012040227  0.010862511            5 
 4091000   0.60293328   -8.6533256    592.65138   0.01207226  0.010858609            5 
 4092000   0.59108508   -8.6679937    593.05706  0.012077571  0.010854705            4 
 4093000   0.60286136   -8.6551273    592.41263    0.0120615  0.010850803            1 
 4094000   0.57726456   -8.6559041    592.95283   0.01206955  0.010846906            3 
 4095000    0.6024067   -8.6652724    591.82759  0.012043704  0.010843009            4 
 4096000   0.58979219   -8.6451499    592.54777  0.012055415  0.010839115            3 
 4097000   0.60557769   -8.6526373    592.33495  0.012048144  0.010835217            4 
 4098000   0.59882708   -8.6676205    592.26336  0.012043748   0.01083133            3 
 4099000   0.59373882   -8.6714085    592.64021  0.012048471  0.010827442            1 
 4100000   0.59829991   -8.6895071    592.49828  0.012042648  0.010823548            7 
 4101000    0.6000557   -8.6758158    591.17154  0.012012752  0.010819663            9 
 4102000   0.59306644   -8.6754871     592.5934  0.012038709  0.010815774            5 
 4103000   0.61754277   -8.6587375    593.62412  0.012056709  0.010811891            5 
 4104000   0.58960199   -8.6830657    592.90174  0.012039103  0.010808009            7 
 4105000   0.59634539   -8.6575077    592.94885  0.012037126  0.010804126            5 
 4106000   0.58046197   -8.6759978    593.46426  0.012044655  0.010800244            5 
 4107000   0.59064003   -8.6627166    593.26575  0.012037695  0.010796362            1 
 4108000   0.59278819   -8.6670818    592.27537  0.012014674  0.010792481            6 
 4109000   0.59088798   -8.6709068    593.56399  0.012037884  0.010788607            8 
 4110000   0.59300286   -8.6645831    591.70722  0.011997308  0.010784737            5 
 4111000   0.59613929   -8.6797105    591.34115  0.011986969  0.010780868            8 
 4112000    0.5885362   -8.6507941    593.15775  0.012020869  0.010776995            4 
 4113000   0.60458857   -8.6501966     591.8448  0.011991345  0.010773127            8 
 4114000   0.60030003   -8.6548969    592.22218  0.011996074  0.010769266            8 
 4115000    0.5890626   -8.6594876    592.02523   0.01198917  0.010765405            9 
 4116000   0.58637396   -8.6668817    592.85684  0.012003094  0.010761539            7 
 4117000   0.58733734   -8.6909133    592.23017  0.011987494  0.010757676            8 
 4118000   0.58702227   -8.6661261    592.63779  0.011992832  0.010753811            6 
 4119000   0.59669265   -8.6763119    591.79036  0.011972776  0.010749955            5 
 4120000   0.59435465   -8.6686891    591.97872   0.01197368  0.010746093            4 
 4121000   0.58704572   -8.6830176    591.44803  0.011960043  0.010742236            5 
 4122000   0.59730357   -8.6742025    592.11636  0.011970653  0.010738379            3 
 4123000   0.59205189   -8.6682658    592.65917   0.01197872  0.010734526            4 
 4124000   0.59870806   -8.6795524    591.15998  0.011945522  0.010730668            6 
 4125000   0.58629945   -8.6668347    592.25707  0.011964789  0.010726812            2 
 4126000   0.59532917   -8.6906316    592.15742  0.011959877  0.010722964            5 
 4127000   0.58377337   -8.6765069    592.44958  0.011962878  0.010719116            5 
 4128000   0.58874494   -8.6669938    592.41049  0.011959191  0.010715271            5 
 4129000   0.57723361   -8.6718388    591.63692  0.011940682  0.010711427            1 
 4130000   0.59771119   -8.6874616    592.60544  0.011957333  0.010707578            2 
 4131000   0.59509289   -8.6659092    592.14167  0.011945083  0.010703735            3 
 4132000   0.60317012   -8.6687699    592.51473  0.011949716  0.010699895            4 
 4133000   0.59279245   -8.6761175    592.65473  0.011949648  0.010696053            5 
 4134000   0.58407849   -8.6736469    591.68755  0.011927261  0.010692212            3 
 4135000   0.58805537   -8.6795905    591.85625  0.011927776  0.010688376            3 
 4136000   0.57814511   -8.6711705    592.13332  0.011930475  0.010684542            3 
 4137000    0.5872217    -8.680208    591.75639  0.011919998  0.010680704            5 
 4138000   0.58993354   -8.6707684    592.53235  0.011932744   0.01067687            3 
 4139000   0.59402371   -8.6853487    591.33133   0.01190568  0.010673034            2 
 4140000   0.57623266   -8.6818911    590.60067  0.011888097  0.010669196            7 
 4141000   0.59124695    -8.669468    591.37903   0.01190089  0.010665362            6 
 4142000   0.58820775   -8.6857425    592.03436  0.011911201  0.010661532            3 
 4143000   0.59256252    -8.702809    591.98627  0.011907359  0.010657704            1 
 4144000   0.59003027   -8.6840404     591.6511  0.011897746  0.010653878            6 
 4145000   0.58599437   -8.6770252    592.13375  0.011904579  0.010650056            2 
 4146000   0.59606253   -8.6834083    590.97351  0.011878387  0.010646231            4 
 4147000   0.59690612   -8.6735182    591.48221  0.011885745  0.010642409            2 
 4148000   0.58613151   -8.6995877    591.65153  0.011886281  0.010638585            2 
 4149000   0.58780779   -8.6937358    591.31584  0.011876674  0.010634767            5 
 4150000    0.5949858   -8.6953717    591.65523  0.011880627  0.010630947            6 
 4151000   0.58390016   -8.6946241    592.14221  0.011887541  0.010627131            1 
 4152000   0.58152833   -8.6790716    591.00935  0.011861941   0.01062332            2 
 4153000   0.59645123    -8.706608    592.22361   0.01188345  0.010619507            4 
 4154000   0.58607623   -8.6788767    591.17035   0.01185946  0.010615694            2 
 4155000    0.5841452   -8.6864992    591.86993  0.011870636  0.010611884            5 
 4156000   0.59321431   -8.6855187    591.01911   0.01185072  0.010608078            3 
 4157000   0.58334011   -8.6901201    590.87911  0.011845063  0.010604273            5 
 4158000   0.58925734   -8.6858812    590.64006  0.011837423   0.01060047            1 
 4159000   0.58290214   -8.6804381    591.19578  0.011845712  0.010596668            3 
 4160000    0.5714033   -8.6842742    591.47851  0.011848528  0.010592867            4 
 4161000   0.59354213   -8.6781394    592.22969  0.011860724  0.010589071            3 
 4162000   0.58909176   -8.6850576    592.22639  0.011857809  0.010585268            6 
 4163000    0.5758139   -8.7092406    591.22221  0.011834859  0.010581467            3 
 4164000   0.59295745   -8.6876457    590.83451  0.011824258  0.010577662            2 
 4165000   0.58849494   -8.7083352    590.86907   0.01182211  0.010573864            3 
 4166000   0.58180261   -8.7023118    590.78056  0.011817502   0.01057007            7 
 4167000   0.57557448   -8.7024252    591.31821  0.011825418  0.010566274            2 
 4168000   0.58161608   -8.6730928    591.94383  0.011835089  0.010562482            2 
 4169000   0.59697355   -8.7133773    591.49919  0.011823363  0.010558688            3 
 4170000   0.58030848   -8.6877136    591.73234  0.011825187  0.010554896            5 
 4171000   0.57417479   -8.6761173    591.40081  0.011815728  0.010551107            5 
 4172000   0.58033579   -8.6836593    591.25919  0.011810067  0.010547319            2 
 4173000   0.57736532   -8.6883731     591.5916  0.011813875  0.010543535            5 
 4174000   0.59570503   -8.6942903     591.1099  0.011801427  0.010539753            5 
 4175000   0.58905662   -8.6848879    591.48349  0.011806058  0.010535971            2 
 4176000   0.59687998   -8.7198614    590.94073    0.0117924  0.010532189            4 
 4177000   0.58641982   -8.6927667    590.97481  0.011790256  0.010528406            2 
 4178000   0.58755708   -8.6910785    590.98153  0.011787568  0.010524628            3 
 4179000   0.59772478   -8.7013858    591.32376  0.011791572  0.010520851            5 
 4180000   0.59102363   -8.7001483    590.91441   0.01178059  0.010517077            4 
 4181000   0.59199235   -8.6965273    591.04025  0.011780281    0.0105133            2 
 4182000   0.58103149   -8.6801731    590.06475  0.011758025  0.010509531            3 
 4183000   0.57932525   -8.6931945    591.06758  0.011775193   0.01050576            3 
 4184000   0.56907939   -8.7041533    591.77507   0.01178647  0.010501993            3 
 4185000   0.59690874   -8.6924082    590.79744  0.011764186  0.010498232            7 
 4186000   0.56802345   -8.6883399    591.37624  0.011772899  0.010494469            2 
 4187000   0.57988823   -8.6953862    591.05313  0.011763656  0.010490715            4 
 4188000   0.57447042   -8.7011826    590.81691  0.011756147  0.010486954            1 
 4189000   0.56877289   -8.6841624    591.08053  0.011758584  0.010483196            3 
 4190000   0.57970831    -8.676097    590.85377  0.011751268  0.010479441            4 
 4191000   0.58828829   -8.6948147    592.15399  0.011774318  0.010475683            2 
 4192000   0.57881586   -8.7037188    590.87473  0.011746078  0.010471929            2 
 4193000   0.58599737   -8.7042215    591.09218  0.011747599  0.010468184            3 
 4194000   0.57853206   -8.6859075    590.51044  0.011733239  0.010464432            2 
 4195000    0.5826357   -8.7026243    591.25573  0.011745247  0.010460687            4 
 4196000   0.57769946   -8.6821271    592.03215  0.011757868  0.010456947            3 
 4197000   0.57734833   -8.7106559    591.27728  0.011740078  0.010453211            3 
 4198000   0.58058658   -8.7156488    591.07104  0.011733187   0.01044947            6 
 4199000   0.60013697   -8.7024228    591.88348  0.011746517  0.010445732            6 
 4200000   0.58218547    -8.688668    592.10064  0.011748029  0.010441997            4 
 4201000   0.57877033   -8.6989526    591.59016  0.011735106   0.01043827            3 
 4202000   0.58437134   -8.6804773    591.37842  0.011728114  0.010434539            4 
 4203000   0.58145348    -8.684818    591.11673  0.011720135  0.010430813            3 
 4204000   0.58003035   -8.6866141    591.99389  0.011734734  0.010427087            2 
 4205000   0.57399626   -8.6912117    591.70856  0.011726289  0.010423362            4 
 4206000   0.58072664   -8.6829838     591.4087   0.01171756  0.010419637            5 
 4207000   0.58365117    -8.694693    590.93624  0.011705416  0.010415914            5 
 4208000   0.57478231   -8.6859427    591.15477  0.011706962   0.01041219            3 
 4209000    0.5806137   -8.7129524    590.90501  0.011699236  0.010408467            2 
 4210000   0.57555788   -8.7145254    590.90027  0.011696363  0.010404745            2 
 4211000   0.57500508    -8.700364    592.04815  0.011716302  0.010401025            5 
 4212000   0.57074651   -8.6891417    591.88348  0.011710262  0.010397309            2 
 4213000   0.58987773   -8.6983583    592.03939  0.011710566  0.010393595            4 
 4214000   0.58931085   -8.7289138    591.01948  0.011687618  0.010389883            5 
 4215000   0.58226245   -8.6978957    592.00345  0.011704299  0.010386173            5 
 4216000   0.59150838   -8.7164078    592.25003  0.011706397  0.010382465            2 
 4217000   0.57792469   -8.7181029     590.7233  0.011673451  0.010378756            4 
 4218000   0.56856208   -8.7041064    591.10171  0.011678159  0.010375049            5 
 4219000   0.57084617   -8.7106052    592.24567  0.011697987  0.010371343            3 
 4220000   0.58126306   -8.6951964     591.6277  0.011683012  0.010367643            4 
 4221000   0.58255388   -8.7102828    590.97943  0.011667445  0.010363939            4 
 4222000   0.57796917   -8.6985674    591.46172  0.011674201  0.010360238            3 
 4223000   0.58908638   -8.6957655    591.33139  0.011668865  0.010356539            2 
 4224000   0.59144613   -8.6992527    591.92315  0.011677777  0.010352842            3 
 4225000   0.56659946   -8.6940864    590.89545  0.011654743  0.010349142            2 
 4226000   0.55584028   -8.6886677    591.95013  0.011672782  0.010345448            4 
 4227000   0.57067943   -8.6996703    591.97723  0.011670555  0.010341754            3 
 4228000    0.5605795    -8.699363    590.53602  0.011639389  0.010338063            2 
 4229000   0.57719415   -8.7216501    592.03601  0.011666194  0.010334372            6 
 4230000   0.57058508   -8.7033586    590.66948  0.011636515  0.010330682            2 
 4231000    0.5745405   -8.7087987    591.26692  0.011645531  0.010326993            5 
 4232000   0.57447421   -8.7129938    591.89188  0.011655086  0.010323307            1 
 4233000   0.57574074   -8.7106915    590.91632  0.011633127  0.010319624            2 
 4234000   0.56269177    -8.702285    590.77141  0.011627527  0.010315942            2 
 4235000   0.56636644   -8.7108513    590.72096  0.011623789  0.010312265            2 
 4236000   0.57783746   -8.7058972    591.61326  0.011638599  0.010308587            3 
 4237000     0.574995   -8.7088769    591.86692  0.011640841  0.010304912            4 
 4238000   0.55979378   -8.6905673    590.89502  0.011618983  0.010301238            5 
 4239000   0.56779083   -8.7061983    589.94314   0.01159753  0.010297561            2 
 4240000   0.56609569   -8.7085318    591.14202  0.011618357  0.010293887            4 
 4241000   0.57306656    -8.710753    590.43302  0.011601686  0.010290212            3 
 4242000   0.57149279   -8.7060543    590.75305  0.011605238  0.010286538            3 
 4243000   0.56715091    -8.716654    590.20597  0.011591758  0.010282866            4 
 4244000   0.57937892   -8.6872917     591.5652  0.011615716  0.010279198            8 
 4245000   0.56956885   -8.7138833    591.37967  0.011609338  0.010275532           13 
 4246000    0.5682765   -8.6982419    590.94943   0.01159816  0.010271864            7 
 4247000   0.56213341   -8.7048996    591.04359  0.011597276  0.010268198            2 
 4248000   0.55868663   -8.7080634    590.39423  0.011581808  0.010264534            5 
 4249000   0.56184969   -8.7124718    591.41288   0.01159906  0.010260872            4 
 4250000   0.56074083   -8.7037495    591.79923  0.011603906  0.010257214            6 
 4251000   0.57488911   -8.7115284     591.6225  0.011597712  0.010253555            5 
 4252000   0.57712192   -8.7184153    590.90011  0.011580827  0.010249898            2 
 4253000   0.56794198   -8.7142231    590.29714  0.011566289   0.01024624            5 
 4254000    0.5708847   -8.7054465    591.38544   0.01158489  0.010242583            7 
 4255000   0.57934204    -8.717573    590.98268  0.011574279  0.010238933            4 
 4256000   0.57195858   -8.7055183    591.12268  0.011574301  0.010235281            4 
 4257000   0.56988695     -8.71378    591.77544   0.01158436  0.010231633            1 
 4258000   0.56795721   -8.7250196    590.47328  0.011556155  0.010227983            3 
 4259000    0.5666135   -8.7079929    590.95491  0.011562865  0.010224337            3 
 4260000    0.5681771   -8.7312845     590.5201  0.011551645  0.010220693            5 
 4261000   0.55997949   -8.7227086    590.59421  0.011550384  0.010217051            5 
 4262000   0.56473718   -8.7112643    591.26531  0.011560795  0.010213412            4 
 4263000   0.57002726    -8.717087    590.63961  0.011545852  0.010209771            6 
 4264000    0.5788235   -8.7146271     590.8355  0.011546973  0.010206133            4 
 4265000   0.55927964   -8.7365197    591.35332  0.011554383  0.010202492            5 
 4266000   0.57092184   -8.7252311    591.61178  0.011556723  0.010198859            3 
 4267000   0.56847513   -8.7138267    591.08048  0.011543639  0.010195226            3 
 4268000    0.5572064    -8.712115    590.77482  0.011534966  0.010191591            6 
 4269000   0.56451996   -8.7047677    590.85376  0.011533805  0.010187956            5 
 4270000   0.56584134   -8.7299468    591.05438  0.011535019  0.010184321            2 
 4271000   0.58416098   -8.7151176    591.40321  0.011539125  0.010180687            3 
 4272000   0.56943413   -8.7291663    591.06392  0.011529805  0.010177061            6 
 4273000   0.57638513   -8.7162101    590.46784  0.011515482  0.010173434            4 
 4274000   0.56874091   -8.7193815    590.00232  0.011503711  0.010169809            5 
 4275000   0.57075242   -8.7148549    590.77877  0.011516155  0.010166188            7 
 4276000    0.5772228   -8.7182422    590.75544  0.011513008  0.010162567            9 
 4277000   0.56970427   -8.7195022    590.55007  0.011506314  0.010158945            2 
 4278000   0.56974699   -8.7238322    591.42157  0.011520601  0.010155326            5 
 4279000   0.56412786   -8.7300979    590.78257  0.011505464   0.01015171            6 
 4280000   0.56455343   -8.7113925     590.7167  0.011501493  0.010148091            3 
 4281000   0.57202297   -8.7199372    590.99261  0.011504177  0.010144479            5 
 4282000   0.56851136    -8.732778     590.4641  0.011491205  0.010140865            9 
 4283000   0.56587971    -8.728025    591.05934  0.011500104  0.010137252            7 
 4284000   0.55593396   -8.7195894    591.16709  0.011499516  0.010133642            4 
 4285000   0.56223771   -8.7282579    590.90971  0.011491826  0.010130032            4 
 4286000   0.56997444   -8.7174872    590.92843  0.011489509  0.010126423            9 
 4287000   0.56252152   -8.7278951    590.69763  0.011482342  0.010122817            7 
 4288000   0.55809837   -8.7346634    590.85456  0.011482715  0.010119211            6 
 4289000   0.56731256   -8.7088403     589.9712  0.011462874  0.010115607            7 
 4290000   0.57300791   -8.7191764    591.10685  0.011482262  0.010112009            7 
 4291000    0.5555935    -8.732981    590.47435  0.011467303   0.01010841            9 
 4292000   0.55784588   -8.7131371     589.9361   0.01145418  0.010104811            7 
 4293000   0.55313342   -8.7103227    590.71798  0.011466689  0.010101212            4 
 4294000   0.55756001   -8.7333956    590.84993   0.01146658  0.010097615            5 
 4295000   0.55608351   -8.7193279    590.92518   0.01146537  0.010094017            6 
 4296000   0.55162338   -8.7244404    589.82321  0.011441325  0.010090421            4 
 4297000   0.56481901   -8.7348123    590.02633  0.011442602  0.010086828           10 
 4298000   0.56114183    -8.731661    590.12962  0.011441942  0.010083238            3 
 4299000   0.56820089   -8.7434445    590.21876  0.011441009   0.01007965            6 
 4300000   0.56347277   -8.7386881    589.94467  0.011433036  0.010076062            4 
 4301000   0.56083903   -8.7392548    589.71473  0.011425923  0.010072479            6 
 4302000   0.57678402   -8.7380325    589.33486  0.011415908  0.010068895           10 
 4303000   0.57587821   -8.7248233     590.2507  0.011430992  0.010065313            7 
 4304000   0.57228009   -8.7275551    590.77994  0.011438583  0.010061731           10 
 4305000   0.56426911   -8.7223711    589.88016  0.011418509  0.010058152            5 
 4306000   0.56696356   -8.7380193    590.92125  0.011436005  0.010054578            6 
 4307000   0.57111306   -8.7476424    590.50936   0.01142538  0.010051002            7 
 4308000   0.56772513   -8.7444344    590.82429   0.01142882  0.010047424            7 
 4309000   0.57009041   -8.7308611    589.91564  0.011408595  0.010043848            6 
 4310000   0.56027461   -8.7158997    590.91214  0.011425215  0.010040278            5 
 4311000   0.55754844   -8.7409798    589.17574     0.011389   0.01003671            5 
 4312000   0.55056889   -8.7000215    590.23552   0.01140684   0.01003314            4 
 4313000   0.55937377   -8.7470834    589.59145  0.011391751  0.010029572            3 
 4314000   0.55638645   -8.7358462    590.32285  0.011403239  0.010026005            8 
 4315000   0.55287523   -8.7387596    591.50267  0.011423381   0.01002244            6 
 4316000   0.56066776   -8.7452502    590.78341  0.011406847  0.010018878            8 
 4317000   0.56021131   -8.7468205    590.20788  0.011393095  0.010015316            6 
 4318000   0.56784084   -8.7342828    590.87718  0.011403373  0.010011757            6 
 4319000   0.56116189     -8.73831     590.8295  0.011399813  0.010008201            3 
 4320000    0.5557523   -8.7224372     589.9899  0.011380978  0.010004652            9 
 4321000   0.55915132   -8.7367449    590.53514  0.011388859    0.0100011            6 
 4322000   0.56571168   -8.7527611    591.42937  0.011403466 0.0099975484            8 
 4323000   0.56295382   -8.7508635    589.97706  0.011372833  0.009993993            7 
 4324000   0.56349129   -8.7379865    590.49516  0.011380187 0.0099904412            7 
 4325000   0.57230476   -8.7306067    590.90225    0.0113854 0.0099868908            7 
 4326000   0.57798094   -8.7232313    589.80555  0.011361642 0.0099833421            7 
 4327000   0.55797996   -8.7323416     591.1815  0.011385515 0.0099797924            8 
 4328000   0.56947858   -8.7330993    590.61191  0.011371918 0.0099762456            3 
 4329000   0.56493113   -8.7328301    590.22551  0.011361852 0.0099726965            4 
 4330000   0.56123321   -8.7545194    589.11437  0.011337844  0.009969151            6 
 4331000    0.5583141   -8.7432238    589.43811  0.011341455 0.0099656052            3 
 4332000   0.56728729   -8.7466261    589.99057  0.011349465 0.0099620612            2 
 4333000   0.56088711   -8.7340397    589.85706  0.011344278 0.0099585191            7 
 4334000   0.56551704   -8.7520492    590.64706   0.01135685 0.0099549739            4 
 4335000   0.55347171    -8.749386     590.2806  0.011347186 0.0099514367            3 
 4336000   0.55598755   -8.7281042    590.20346  0.011343086 0.0099478998            3 
 4337000   0.56047088   -8.7318875    591.65497  0.011368361 0.0099443648            3 
 4338000    0.5569033   -8.7537252    590.32949  0.011340278 0.0099408334            5 
 4339000   0.56595528    -8.745358    590.75065  0.011345753 0.0099373013            5 
 4340000   0.55415475   -8.7360176    590.30057  0.011334496 0.0099337713            4 
 4341000   0.55033191    -8.746397    590.16105  0.011329207  0.009930246            4 
 4342000   0.56117376   -8.7518434    588.98434  0.011304014 0.0099267231            7 
 4343000   0.54699587   -8.7353855    589.11715   0.01130396 0.0099232044            8 
 4344000    0.5533379    -8.745792    590.14073  0.011320993 0.0099196831            5 
 4345000   0.56701769   -8.7216175    590.06387  0.011316914 0.0099161634            7 
 4346000   0.55400968   -8.7303823    589.63362   0.01130606 0.0099126444            7 
 4347000   0.55390112   -8.7492176    590.37958  0.011317759 0.0099091284            6 
 4348000    0.5644861   -8.7579421    590.14599  0.011310679 0.0099056057            5 
 4349000   0.55585241   -8.7452961     590.2466  0.011310006 0.0099020922            9 
 4350000   0.54888081   -8.7541193    589.60328  0.011295082 0.0098985767            8 
 4351000   0.55500075   -8.7382059    589.90014  0.011298172  0.009895067            5 
 4352000   0.56282386   -8.7581019     590.1821  0.011300975 0.0098915565            3 
 4353000   0.55463617   -8.7513202    590.93447  0.011312782 0.0098880489            5 
 4354000   0.55457685   -8.7489323    589.70156  0.011286586 0.0098845433            7 
 4355000   0.56218981   -8.7431325    589.52858  0.011280685 0.0098810381            6 
 4356000   0.55614947   -8.7512791    589.90805  0.011285354 0.0098775322            6 
 4357000   0.55848399   -8.7606053    591.02223  0.011304075 0.0098740337            6 
 4358000   0.55478345   -8.7488533    589.90255   0.01128007 0.0098705376            5 
 4359000   0.55949538   -8.7279511    590.25571  0.011284234   0.00986704            6 
 4360000   0.54977588   -8.7552923    590.30623  0.011282611 0.0098635443            5 
 4361000   0.55310494   -8.7269722    589.88513  0.011271978 0.0098600477            7 
 4362000   0.56191965   -8.7785411    589.89063  0.011269499 0.0098565485            6 
 4363000   0.55203797    -8.757307    590.07432  0.011270424 0.0098530531            6 
 4364000   0.55694936   -8.7556335    589.76929  0.011262017 0.0098495612            5 
 4365000   0.56442507   -8.7592151    590.43449  0.011272136 0.0098460743            5 
 4366000   0.55351081   -8.7365668    589.43544  0.011250486 0.0098425822            6 
 4367000   0.56256667   -8.7590073      590.348  0.011265323 0.0098390918            7 
 4368000   0.54702047   -8.7459053    589.96259  0.011255391 0.0098356018            7 
 4369000   0.53611291   -8.7544454    589.36993  0.011241511 0.0098321102            4 
 4370000   0.56151131   -8.7540284    590.16183  0.011254039 0.0098286225           10 
 4371000   0.55715127   -8.7587114    588.75434  0.011224631 0.0098251368            7 
 4372000   0.54351681   -8.7685027    589.96861  0.011245208 0.0098216503            5 
 4373000   0.56885016   -8.7637219    589.40014  0.011231804 0.0098181658            7 
 4374000   0.53820036   -8.7457278    589.64782  0.011233955  0.009814683            6 
 4375000   0.55032627   -8.7478542    589.37295  0.011226151 0.0098112025            7 
 4376000   0.55704619   -8.7651918    589.10115   0.01121841 0.0098077241            7 
 4377000   0.55672805   -8.7591496    589.34233  0.011220439 0.0098042448            5 
 4378000   0.56120822   -8.7634562    589.95807  0.011229596 0.0098007654            4 
 4379000   0.55174806   -8.7556707    589.23025  0.011213181 0.0097972902            4 
 4380000   0.55312022   -8.7668704     589.1069  0.011208274 0.0097938165            5 
 4381000   0.54538278    -8.759398    589.05786  0.011204783 0.0097903399            7 
 4382000   0.55788457   -8.7537228    589.03814  0.011201851 0.0097868645            6 
 4383000   0.55504244   -8.7434034    589.41002  0.011206366 0.0097833937            7 
 4384000   0.55401178   -8.7467701    590.14815   0.01121784 0.0097799272            8 
 4385000   0.55335702   -8.7492122    590.95893   0.01123069 0.0097764641            5 
 4386000   0.55769062   -8.7888178    589.16947   0.01119413 0.0097730005            9 
 4387000   0.54430382   -8.7627502    589.17178  0.011191623 0.0097695368            6 
 4388000   0.54244898    -8.763871    590.50472  0.011214386 0.0097660773            4 
 4389000   0.54369092    -8.746944    590.04055  0.011203018 0.0097626179            5 
 4390000   0.53708826   -8.7560317    590.46177  0.011208462 0.0097591618            5 
 4391000   0.55223928   -8.7686491    589.16422  0.011181284 0.0097557035            6 
 4392000   0.54129501   -8.7280078     590.0556  0.011195651 0.0097522475            4 
 4393000   0.53756855   -8.7761718    589.68235  0.011186022 0.0097487927            4 
 4394000   0.54841836   -8.7770761    589.99419  0.011189391 0.0097453381            6 
 4395000   0.55194542   -8.7660667      589.013   0.01116824 0.0097418886            5 
 4396000   0.54206706    -8.749632    590.37882  0.011191591 0.0097384352            8 
 4397000   0.53432684   -8.7561013    588.87696  0.011160582 0.0097349852            6 
 4398000   0.53580049    -8.756159    589.47613  0.011169398 0.0097315385            6 
 4399000   0.55080924   -8.7664093    590.07417  0.011178188 0.0097280916            9 
 4400000   0.54384471   -8.7659045    588.81485  0.011151796 0.0097246458            5 
 4401000   0.54009772   -8.7279343    589.01785  0.011153106 0.0097212021           10 
 4402000   0.55153991   -8.7638287    589.56688  0.011160966 0.0097177605            4 
 4403000    0.5388431   -8.7418304    589.58574  0.011158788 0.0097143208            5 
 4404000   0.54241794   -8.7593595    588.77729  0.011140957 0.0097108825            6 
 4405000    0.5413488   -8.7635094    589.42296  0.011150643 0.0097074453            7 
 4406000   0.54191561    -8.764637    589.48511  0.011149287 0.0097040129            6 
 4407000   0.54615042   -8.7613034    588.97873  0.011137182 0.0097005809            4 
 4408000   0.55003799   -8.7889475    589.98683  0.011153713 0.0096971506            5 
 4409000   0.55607877   -8.7389627    589.71243  0.011145997 0.0096937244            5 
 4410000   0.55674669   -8.7536315    589.42948  0.011138123 0.0096902967            6 
 4411000   0.53934231   -8.7667396     589.9256  0.011144971 0.0096868664            7 
 4412000     0.540135   -8.7604149    588.64062  0.011118174 0.0096834406            7 
 4413000    0.5490263   -8.7716194    589.66672  0.011135031 0.0096800156            6 
 4414000    0.5475723   -8.7792479    588.77056   0.01111559 0.0096765891            8 
 4415000   0.54487248   -8.7516954    589.00841  0.011117561 0.0096731634            4 
 4416000   0.55223968   -8.7662347    589.72179  0.011128506 0.0096697386            5 
 4417000   0.55506084   -8.7580081    590.03709  0.011131935 0.0096663192            6 
 4418000   0.53745955   -8.7773304    589.73555  0.011123728 0.0096629001            5 
 4419000   0.55232465   -8.7795752     588.3516  0.011095112 0.0096594834            3 
 4420000   0.54647255   -8.7704798    588.76206   0.01110034  0.009656065           12 
 4421000   0.54500298   -8.7694863    590.43033  0.011129276 0.0096526517            6 
 4422000   0.55969288   -8.7728416    589.92487  0.011117233 0.0096492366            4 
 4423000   0.54247695   -8.7724614    589.36381  0.011104149 0.0096458306            4 
 4424000   0.55083716    -8.772546    589.04623  0.011095657 0.0096424189           10 
 4425000   0.53976148   -8.7768821    588.58687  0.011084498 0.0096390108            7 
 4426000   0.53621848   -8.7736129    588.90791  0.011088039 0.0096356032            6 
 4427000   0.53971138   -8.7672058    588.79523  0.011083413 0.0096321995            7 
 4428000    0.5412553   -8.7695725    589.51507  0.011094457 0.0096287957            8 
 4429000   0.55385937   -8.7645559    589.91301   0.01109944 0.0096253941            8 
 4430000   0.54813734   -8.7692535    588.35284  0.011067585 0.0096219922            6 
 4431000   0.53686575   -8.7597368    589.62613  0.011089034 0.0096185908            6 
 4432000   0.55113328   -8.7723551    588.93427  0.011073523 0.0096151916            4 
 4433000   0.54430045   -8.7494451    589.20815  0.011076174 0.0096117906            6 
 4434000   0.53407275   -8.7729465    589.08286  0.011071321 0.0096083983            4 
 4435000   0.54337369   -8.7941755    590.50017  0.011095456 0.0096050033            3 
 4436000    0.5521165   -8.7886151     589.1304  0.011067223 0.0096016121            4 
 4437000   0.53445419   -8.7715596    589.19248  0.011065894  0.009598221            3 
 4438000   0.53512377   -8.7749542    590.07729  0.011080015  0.009594829            4 
 4439000   0.55858715   -8.7470769    589.10475  0.011059262 0.0095914403            8 
 4440000   0.54590256   -8.7803801    589.29096  0.011060266 0.0095880561            3 
 4441000   0.52868794     -8.79561    589.18338  0.011055757 0.0095846715            4 
 4442000   0.53518882   -8.7737565    588.94428  0.011048782 0.0095812877            4 
 4443000   0.54452307   -8.7669019    588.97393  0.011046851 0.0095779076            6 
 4444000   0.53161927   -8.7799797     588.6552  0.011038389 0.0095745297            9 
 4445000   0.53416744   -8.7891827     589.4861  0.011051483 0.0095711528            4 
 4446000   0.54015246   -8.7675555    589.39954  0.011047375 0.0095677769            6 
 4447000   0.53265139   -8.7616775    589.02648    0.0110379 0.0095644029            5 
 4448000   0.53883801   -8.7687638    589.43756   0.01104312 0.0095610308            3 
 4449000   0.54048351   -8.7734407    588.85198  0.011029669 0.0095576575            5 
 4450000   0.54153129     -8.78148    589.48418   0.01103903 0.0095542911            8 
 4451000   0.54255918   -8.7841037     590.0428  0.011047008 0.0095509214            7 
 4452000   0.53484553   -8.7723603    589.21288  0.011028992 0.0095475532            4 
 4453000   0.53879517   -8.7651625    587.83398  0.011000711 0.0095441905            3 
 4454000   0.53380544   -8.7748834    589.71243  0.011033386 0.0095408266            6 
 4455000   0.53501872    -8.771665     588.4135  0.011006612 0.0095374668            4 
 4456000   0.53716928   -8.7943852    589.13673  0.011017668 0.0095341048            4 
 4457000   0.53962107   -8.7699107    588.84274  0.011009699 0.0095307432            6 
 4458000   0.54145211    -8.786784     588.1215  0.010993747  0.009527381            6 
 4459000   0.53681554   -8.7553377    589.04808  0.011008598 0.0095240241            6 
 4460000    0.5403208   -8.7777868    588.80361  0.011001562 0.0095206729            5 
 4461000    0.5268378    -8.774616    589.22128  0.011006898 0.0095173194           10 
 4462000   0.54073022   -8.7727192    589.85934  0.011016348 0.0095139672            6 
 4463000   0.53308431   -8.7704289    588.95718  0.010997034 0.0095106154            5 
 4464000   0.54021665   -8.7819637    587.87204  0.010974314 0.0095072646           10 
 4465000    0.5336236   -8.7848592    589.12059  0.010995159  0.009503915            8 
 4466000   0.53961139   -8.7838196    589.18135   0.01099383 0.0095005661            8 
 4467000   0.53647904    -8.800676    588.26569  0.010974287 0.0094972196            8 
 4468000   0.54306929   -8.8051095    589.62913  0.010997261 0.0094938734            5 
 4469000   0.54047116   -8.7733886    588.68251  0.010977148 0.0094905295            9 
 4470000    0.5404624   -8.7827629    588.64295  0.010973955 0.0094871832            4 
 4471000    0.5444184   -8.8066508    589.20849  0.010982041 0.0094838425            4 
 4472000   0.54133263   -8.7991319    588.98062   0.01097534 0.0094805033            4 
 4473000   0.54624935   -8.7739698    587.38944  0.010943242  0.009477164            9 
 4474000   0.54628631   -8.7677348    588.25665  0.010956949 0.0094738267            5 
 4475000   0.53550051   -8.7813735    589.68415  0.010981083  0.009470493            6 
 4476000      0.53479   -8.7946931    588.94943  0.010964951 0.0094671603            8 
 4477000   0.54065046   -8.7852578    588.46351  0.010953457 0.0094638281            4 
 4478000   0.53812662   -8.8020884    588.75111  0.010956363 0.0094604926           10 
 4479000   0.52962195   -8.7844637    588.18785  0.010943437 0.0094571636            9 
 4480000   0.53445871   -8.7835371    589.68951  0.010968927 0.0094538344            8 
 4481000   0.52339774   -8.7722894    588.67336  0.010947582 0.0094505076            5 
 4482000   0.53384424   -8.7695653    589.31278  0.010957028  0.009447183            3 
 4483000   0.53910128   -8.7955727    588.93222   0.01094751 0.0094438612            6 
 4484000   0.53847987   -8.7892677    588.91374  0.010944725 0.0094405421            2 
 4485000   0.53863966   -8.7774747    588.19296  0.010928892 0.0094372228            4 
 4486000   0.52982618   -8.8022935    589.11887  0.010943656  0.009433902            4 
 4487000   0.51945019    -8.791279    588.71304   0.01093368 0.0094305829            5 
 4488000   0.54277453    -8.788917    589.07183  0.010937905 0.0094272651            6 
 4489000   0.52475162   -8.7931016    588.64172  0.010927484 0.0094239508            5 
 4490000   0.54051621   -8.7931011    589.23984  0.010936152 0.0094206377            7 
 4491000   0.53038448   -8.7954518    588.77732  0.010925134  0.009417324            8 
 4492000   0.53973126   -8.7816734    589.11894  0.010929039 0.0094140141            2 
 4493000   0.53043291   -8.7830206    588.14841  0.010908606 0.0094107072            6 
 4494000   0.53439106   -8.7892752    588.90059  0.010920127 0.0094074008            4 
 4495000   0.53911672   -8.7711387    589.32488  0.010925563 0.0094040973            9 
 4496000   0.53941021   -8.7901648     589.2672  0.010922064 0.0094007921            5 
 4497000   0.53218315   -8.7776246    587.76816  0.010891857 0.0093974901            9 
 4498000   0.52347412   -8.7930644    589.44321  0.010920469 0.0093941882            5 
 4499000   0.53251143   -8.7819436    589.15266   0.01091266 0.0093908851            3 
 4500000   0.52438035   -8.7848621    587.49474  0.010879532  0.009387583            5 
 4501000    0.5436649   -8.8032418    588.28535  0.010891753 0.0093842829            5 
 4502000   0.52597334   -8.7957251    588.18887  0.010887548 0.0093809873            7 
 4503000   0.53202461   -8.7848479    588.86329  0.010897611 0.0093776921            6 
 4504000   0.52886408   -8.7783648    588.98883  0.010897514 0.0093743998            4 
 4505000   0.52048414   -8.7662277    588.46906   0.01088548 0.0093711088            7 
 4506000   0.53734491   -8.7824375    588.13569  0.010876899 0.0093678171            7 
 4507000   0.52931113   -8.7788338    587.92696  0.010870626 0.0093645282            6 
 4508000   0.53478708    -8.779432    588.62103  0.010881045 0.0093612405            7 
 4509000   0.53095119   -8.7882037      589.168  0.010888741  0.009357954            4 
 4510000   0.53410604   -8.7857207    589.06841  0.010884486 0.0093546745            6 
 4511000   0.53702426   -8.7819483    588.51398  0.010871832  0.009351391            6 
 4512000   0.52829773   -8.8106021    588.94504  0.010877383 0.0093481122            4 
 4513000   0.53390108   -8.7855855    589.10468  0.010877921 0.0093448327            7 
 4514000   0.53797541   -8.7902262    587.46587  0.010845257  0.009341556            7 
 4515000   0.53560671   -8.7796219    589.15027  0.010873944 0.0093382805            8 
 4516000    0.5271023   -8.7876332    588.37653  0.010857258 0.0093350028            7 
 4517000   0.52787313    -8.792332    587.85779  0.010845284 0.0093317299            5 
 4518000   0.53289904   -8.8012713    588.65886  0.010857659 0.0093284594            8 
 4519000   0.53946215    -8.794251     588.7356  0.010856672 0.0093251861            5 
 4520000   0.52743028   -8.7842947    588.21908  0.010844747 0.0093219171            5 
 4521000   0.52671297   -8.7987075    588.95114  0.010855842 0.0093186501            8 
 4522000   0.52806306   -8.8049101    588.68691  0.010848572 0.0093153833            5 
 4523000   0.52773799   -8.7893622    588.87513  0.010849641 0.0093121188            3 
 4524000   0.53090256   -8.7834157    588.15584  0.010833993 0.0093088576           11 
 4525000   0.52493003   -8.7986359     589.2518  0.010851783 0.0093055925            8 
 4526000   0.51480104   -8.8168867    588.03411  0.010826965 0.0093023338            6 
 4527000    0.5277509   -8.7895581    587.81755  0.010820587 0.0092990713            8 
 4528000   0.52480883    -8.784361    589.01572  0.010840248 0.0092958126            7 
 4529000   0.53327355    -8.797115    588.42002  0.010826894 0.0092925561            6 
 4530000   0.51862686   -8.8059822    588.08728  0.010818383 0.0092892978            8 
 4531000   0.52348768   -8.7886076    588.25751  0.010819126 0.0092860432            7 
 4532000   0.52959656   -8.7994932    587.97577  0.010811558 0.0092827942            7 
 4533000    0.5333005    -8.770941    588.42857  0.010817497 0.0092795446           10 
 4534000      0.53046   -8.8101233    588.75411  0.010821094 0.0092762959            5 
 4535000   0.52798485   -8.7936209    589.12563  0.010825535 0.0092730508            9 
 4536000   0.52922722   -8.7921564    588.00399  0.010802542 0.0092698016            8 
 4537000   0.53660251   -8.8000651    589.15065  0.010821223 0.0092665551            4 
 4538000   0.53972408   -8.8164577    588.34875  0.010804113 0.0092633121            7 
 4539000   0.53068005   -8.7987732    588.60548  0.010806446 0.0092600701            8 
 4540000   0.52295608   -8.8091803    588.06669  0.010794176 0.0092568266            7 
 4541000   0.52556386   -8.7999211    588.07004   0.01079186 0.0092535879            9 
 4542000   0.52338387   -8.7994138    587.55244  0.010779988 0.0092503507            7 
 4543000   0.51463354   -8.7866544    588.39897  0.010793143 0.0092471131            7 
 4544000   0.52095474   -8.8018625    589.28038  0.010806932 0.0092438778            8 
 4545000   0.53172745   -8.7886985    588.23796  0.010785441  0.009240644            8 
 4546000   0.51890325   -8.7793076    588.20215  0.010782412 0.0092374133            6 
 4547000    0.5285327   -8.8103813    587.82006  0.010773038 0.0092341813            6 
 4548000    0.5213909   -8.8046737    588.17257  0.010777129 0.0092309568            3 
 4549000   0.51893381   -8.7913142    588.04427  0.010772409 0.0092277292            8 
 4550000   0.53020602    -8.805971    589.05467  0.010788547  0.009224505            3 
 4551000   0.51732056   -8.8085044    587.49307  0.010757582 0.0092212844            4 
 4552000   0.51371781   -8.8073378    588.87555  0.010780528 0.0092180614            4 
 4553000   0.52326916     -8.79421    588.57034  0.010772574 0.0092148378            6 
 4554000   0.51838219   -8.8077593    587.65962  0.010753543 0.0092116164            9 
 4555000   0.51579025    -8.803125    588.48752  0.010766329 0.0092083984            6 
 4556000   0.52946031   -8.8075868    588.10543  0.010756977 0.0092051789            7 
 4557000    0.5153204   -8.7979652    588.51274  0.010762065 0.0092019618            5 
 4558000    0.5268302   -8.7932375    588.79161  0.010764802  0.009198746            5 
 4559000   0.52515567   -8.8017118    587.69397  0.010742377 0.0091955322            5 
 4560000   0.51999107   -8.7972064    588.95696  0.010763102 0.0091923168            4 
 4561000   0.51464541   -8.8026588    588.49296  0.010752265 0.0091891072            6 
 4562000   0.51339777   -8.8083395    588.08052  0.010742374 0.0091858938            6 
 4563000   0.51867832   -8.8156452    588.67106  0.010750805 0.0091826851            7 
 4564000   0.52001634   -8.7988873    587.55313  0.010728037 0.0091794742            4 
 4565000   0.52583677   -8.8114285    588.93344  0.010750884 0.0091762672            4 
 4566000   0.51780888    -8.801907    588.96416   0.01074909 0.0091730648            4 
 4567000    0.5206569    -8.822778    588.72676  0.010742405 0.0091698612            4 
 4568000   0.52473804   -8.7867774    588.01344   0.01072704 0.0091666609            6 
 4569000   0.52810484   -8.8161361    586.89724  0.010704334 0.0091634642            6 
 4570000   0.52362351   -8.8204128    589.00834  0.010740488 0.0091602625            4 
 4571000    0.5128309   -8.8139237    587.90637  0.010718048 0.0091570649            7 
 4572000   0.51999042   -8.8125551     588.3871  0.010724466 0.0091538684            5 
 4573000   0.51929165   -8.8044423    587.98406  0.010714776  0.009150674            3 
 4574000   0.51676704   -8.7994023    588.14819  0.010715424 0.0091474774            5 
 4575000   0.51716888   -8.8074796    588.37711  0.010717252  0.009144284            7 
 4576000   0.52765353   -8.8145355    588.87533  0.010723983 0.0091410946            6 
 4577000   0.52802516   -8.8133917    588.28383   0.01071087 0.0091379058            4 
 4578000   0.51043917   -8.8256977    588.37861  0.010710256 0.0091347196            7 
 4579000    0.5308015   -8.7965813    587.92677  0.010699694 0.0091315347            4 
 4580000    0.5279239   -8.8246158    587.98574   0.01069843 0.0091283499            3 
 4581000   0.52339444   -8.8126226    587.90729  0.010694668 0.0091251666            8 
 4582000   0.51388431   -8.8135423    587.60355   0.01068681 0.0091219862            5 
 4583000   0.52510329   -8.8065383    587.46764  0.010682007 0.0091188057            5 
 4584000   0.51621321   -8.8078261    588.45062  0.010697546 0.0091156258            7 
 4585000   0.51744844   -8.8073625    587.35205  0.010675246 0.0091124477            3 
 4586000   0.51713873   -8.8222644    587.52883  0.010676131 0.0091092704            5 
 4587000   0.52179656   -8.8235509    588.19728  0.010685947 0.0091060936            6 
 4588000   0.51305981   -8.8095841    588.83144  0.010695137 0.0091029171            4 
 4589000   0.51414489     -8.81685    587.96267   0.01067703 0.0090997415            3 
 4590000   0.51867808   -8.8312837    587.22033  0.010661226 0.0090965675            5 
 4591000   0.51061236   -8.8302698    587.95245  0.010672193 0.0090933934            5 
 4592000   0.52394033   -8.8048805    587.71434  0.010665548 0.0090902232            5 
 4593000   0.51277094   -8.8291415    588.69614  0.010681039 0.0090870553            4 
 4594000   0.51742585   -8.8056542    587.95469  0.010665264 0.0090838904            5 
 4595000    0.5182445   -8.8093336    587.93033  0.010662501 0.0090807275            6 
 4596000   0.53469073   -8.8006469    588.66771  0.010673551  0.009077568            6 
 4597000   0.51232108   -8.8089725    587.97975  0.010658758 0.0090744101            3 
 4598000   0.51953726   -8.8105588    588.56007  0.010666958 0.0090712513            6 
 4599000   0.51860711   -8.8235492    587.48804  0.010645214 0.0090680943            4 
 4600000    0.5166863   -8.8206593    587.83691  0.010649219 0.0090649396            3 
 4601000   0.51737764   -8.7997286    587.67289  0.010643934 0.0090617881            7 
 4602000   0.51574306    -8.799467    587.99479   0.01064745 0.0090586365           10 
 4603000   0.51610324   -8.8076949    588.65389   0.01065707 0.0090554828            7 
 4604000   0.51990962   -8.8314141    588.54668  0.010652814 0.0090523321            3 
 4605000   0.51482586   -8.8000499    588.22797  0.010644734 0.0090491802            6 
 4606000   0.51459123   -8.8157411    587.97339  0.010637816 0.0090460317            4 
 4607000   0.51983227   -8.8328728    588.78156  0.010650126  0.009042885            9 
 4608000   0.50633768   -8.8060439    588.63384  0.010645143 0.0090397381            4 
 4609000   0.51217329   -8.8165273    588.14439  0.010633984 0.0090365947            7 
 4610000   0.52662934   -8.7988639    588.08159  0.010630542 0.0090334548            8 
 4611000   0.51013112   -8.8247704    587.49405  0.010617618 0.0090303176            6 
 4612000   0.50647536   -8.8110091    587.21094  0.010610201 0.0090271791            6 
 4613000   0.51362209   -8.8406235    587.62672  0.010615412  0.009024039            7 
 4614000   0.50506284   -8.8268806    588.54481  0.010629693 0.0090209021            6 
 4615000   0.50907922   -8.8129218    587.74617  0.010612968 0.0090177675            5 
 4616000   0.52035867   -8.8327051    588.15851  0.010618113 0.0090146327            6 
 4617000   0.51229572   -8.8158166    588.65056  0.010624694 0.0090115018            7 
 4618000    0.5070018   -8.8131421    588.21399  0.010614515 0.0090083718            6 
 4619000   0.50496905   -8.8167611    587.48466  0.010599059 0.0090052413            7 
 4620000   0.51772618    -8.822553    588.65819  0.010617933 0.0090021118            6 
 4621000   0.51476281   -8.8300843    588.52267  0.010613191 0.0089989864            5 
 4622000   0.51832943   -8.8097019     588.1497   0.01060417   0.00899586            6 
 4623000   0.51640905   -8.8114882    588.18241  0.010602466 0.0089927359            6 
 4624000    0.5036175   -8.8332668    587.83275  0.010593872  0.008989609            7 
 4625000   0.50422114   -8.8212864    587.19033  0.010580006 0.0089864861            7 
 4626000   0.51836493   -8.8105788    588.50129  0.010601335 0.0089833649            7 
 4627000   0.52282545   -8.8290988    586.95613  0.010571215 0.0089802432            8 
 4628000   0.51040819   -8.8255761    588.02006  0.010588088  0.008977126            8 
 4629000   0.51735783    -8.806977    587.24158  0.010571786 0.0089740108            6 
 4630000   0.51215474   -8.8281076    588.62729  0.010594444 0.0089708942            7 
 4631000   0.50860746   -8.8152706    588.41296  0.010588299 0.0089677793            7 
 4632000   0.50785127   -8.8137133    587.54726  0.010570439 0.0089646646            5 
 4633000   0.51515067   -8.8364178    588.18345    0.0105796  0.008961555            8 
 4634000   0.51989582   -8.8269278    587.55588  0.010566031 0.0089584464            5 
 4635000    0.5117727   -8.8430079    587.65678  0.010565566 0.0089553367            6 
 4636000   0.51220147   -8.8391363    587.61828  0.010562595 0.0089522267            7 
 4637000   0.51169286   -8.8393681    587.58563   0.01055973 0.0089491194            5 
 4638000   0.51308781   -8.8086951    588.48579  0.010573627 0.0089460116            5 
 4639000    0.5071266   -8.8360892    587.05905  0.010545718 0.0089429076            4 
 4640000   0.51295761   -8.8262362    587.46101  0.010550665  0.008939802            8 
 4641000   0.51127746   -8.8115782    588.14667  0.010560703  0.008936699            7 
 4642000    0.5137692   -8.8325688    587.06166   0.01053895 0.0089335993            6 
 4643000   0.51267286    -8.826255    587.65463  0.010547323 0.0089305022            3 
 4644000   0.50601127   -8.8268442    586.82225  0.010530115 0.0089274009            2 
 4645000   0.51224149   -8.8325497    587.54925  0.010540891 0.0089243038            9 
 4646000   0.51466286   -8.8358707    588.03331  0.010547304 0.0089212086            6 
 4647000    0.5069181   -8.8201149     587.8678  0.010542067 0.0089181156            7 
 4648000   0.50684992   -8.8152876    587.80783  0.010538723 0.0089150232            7 
 4649000    0.5055584   -8.8235979     587.4862  0.010530691 0.0089119375            2 
 4650000   0.50645543   -8.8185406    588.43547  0.010545439 0.0089088507            5 
 4651000   0.51148545   -8.8353485    587.81864  0.010532119  0.008905765            7 
 4652000   0.50850544   -8.8356835    588.12398  0.010535325  0.008902683            4 
 4653000   0.51502268   -8.8388611    587.63507  0.010524305  0.008899599            8 
 4654000   0.51632731   -8.8196932    588.23035  0.010532702 0.0088965155            7 
 4655000   0.51083881   -8.8188685    587.18571  0.010511738  0.008893433            5 
 4656000   0.50333173   -8.8131074     588.0125  0.010524279  0.008890352            5 
 4657000   0.50853444   -8.8334923    587.51449  0.010513107 0.0088872715            3 
 4658000   0.50463592   -8.8348015     587.2903  0.010506839 0.0088841965            8 
 4659000   0.50497379   -8.8377345    587.70418  0.010511987 0.0088811196            6 
 4660000   0.50005549   -8.8222796     587.4161   0.01050458 0.0088780442            6 
 4661000   0.51681557   -8.8263205    587.36008  0.010501325 0.0088749709            9 
 4662000   0.51680155   -8.8122072    587.04433  0.010493428  0.008871899            6 
 4663000   0.50766121   -8.8251443    587.49416  0.010499217 0.0088688279            4 
 4664000   0.50337921    -8.824564    587.61529   0.01049913 0.0088657573            5 
 4665000   0.50262483   -8.8452793    588.85751  0.010519069   0.00886269            8 
 4666000    0.5122343   -8.8147229    587.59751  0.010494312 0.0088596236            6 
 4667000   0.51945057   -8.8206574    587.14886  0.010484052 0.0088565577            5 
 4668000   0.51671364   -8.8374387    587.65356  0.010490816 0.0088534923            5 
 4669000   0.50288639   -8.8350379    586.72289  0.010471958 0.0088504246            4 
 4670000   0.49614406   -8.8347629    587.68038  0.010486802 0.0088473616            7 
 4671000   0.50765327   -8.8307796    587.72564  0.010485364 0.0088442997            3 
 4672000   0.50540028   -8.8300888    587.29829  0.010475498  0.008841239            3 
 4673000   0.49717155   -8.8126786    587.82041  0.010482567 0.0088381806           10 
 4674000   0.51356235   -8.8198516    587.59782  0.010476355 0.0088351248            4 
 4675000   0.50400602   -8.8419245     588.1174  0.010483376 0.0088320682            6 
 4676000   0.50575363   -8.8263123    587.60016  0.010471916 0.0088290143            5 
 4677000   0.50526214   -8.8309094    588.16619  0.010479763 0.0088259622            8 
 4678000    0.5022625    -8.832972    587.68715  0.010468989 0.0088229101            6 
 4679000   0.51165587    -8.830306    586.82593  0.010451413 0.0088198566            5 
 4680000   0.49911399   -8.8420818    587.26056  0.010456919 0.0088168097            8 
 4681000    0.4972966   -8.8422824    586.60722  0.010443054 0.0088137628            7 
 4682000   0.50048438    -8.828789    587.66404  0.010459633 0.0088107175            6 
 4683000   0.51249248   -8.8475416    586.61876  0.010438799 0.0088076711            6 
 4684000   0.50612114   -8.8259742    587.28127  0.010448357 0.0088046274            7 
 4685000   0.49764593    -8.836318    588.14259  0.010461448 0.0088015853            6 
 4686000   0.50145193   -8.8235697    587.23842  0.010443136 0.0087985439            7 
 4687000   0.49772041   -8.8407936     587.4761  0.010445134 0.0087955042            6 
 4688000   0.49651944   -8.8392587    586.63345  0.010427927 0.0087924642            6 
 4689000   0.50812726   -8.8306203    587.80297  0.010446488 0.0087894266            7 
 4690000   0.50541266   -8.8421259      587.522  0.010439268 0.0087863902            7 
 4691000   0.50178067   -8.8336512    587.14781  0.010430395 0.0087833555            5 
 4692000   0.50068693   -8.8381883     586.6867  0.010419983 0.0087803249            6 
 4693000   0.50670333   -8.8163814    586.96948  0.010422784 0.0087772933            8 
 4694000   0.50239176   -8.8359259    588.33658  0.010444834 0.0087742627            5 
 4695000    0.4955238   -8.8273711     587.8455  0.010433893 0.0087712307            7 
 4696000   0.48076835   -8.8416138    587.67057  0.010428566 0.0087682019            6 
 4697000   0.49283493   -8.8309062    586.84642  0.010411724  0.008765175            7 
 4698000   0.50167603   -8.8388584    587.27784   0.01041716  0.008762153            9 
 4699000   0.51207731   -8.8362105    587.27454  0.010414885 0.0087591293           10 
 4700000   0.50122186   -8.8295673    587.25086  0.010412249 0.0087561074            4 
 4701000   0.49996612   -8.8402294    587.34531  0.010411709 0.0087530872            4 
 4702000   0.50364278   -8.8380274    587.05278   0.01040431  0.008750068            6 
 4703000   0.49560625   -8.8512557     587.1018  0.010402966 0.0087470479            6 
 4704000   0.49644131   -8.8453557     587.2469  0.010403325 0.0087440271            8 
 4705000    0.4934502    -8.850252    587.29083  0.010401892 0.0087410095            8 
 4706000   0.48499992   -8.8439917    587.18311  0.010397774 0.0087379935           10 
 4707000   0.50229978   -8.8363025    587.50275  0.010401224 0.0087349799            6 
 4708000   0.49834876   -8.8167607    587.11681  0.010392184 0.0087319681            8 
 4709000    0.5033899   -8.8406571    588.80106  0.010419782 0.0087289583            5 
 4710000   0.49673416   -8.8461342    586.68253  0.010380087 0.0087259499            5 
 4711000   0.50851989   -8.8422693    586.87204  0.010381236 0.0087229398            9 
 4712000    0.5048944   -8.8435122    587.17605   0.01038441 0.0087199287            3 
 4713000   0.49317492   -8.8538017    587.15793  0.010381886 0.0087169202            4 
 4714000    0.5020809   -8.8423395    587.60787  0.010387637 0.0087139122            7 
 4715000   0.49787429   -8.8326239    586.28382  0.010362033 0.0087109096            5 
 4716000   0.50099454   -8.8372957    587.74488  0.010385653 0.0087079072            7 
 4717000   0.49370555    -8.839759    587.35006  0.010376476 0.0087049078            8 
 4718000   0.49354773   -8.8394028    586.84679  0.010365388 0.0087019072            5 
 4719000   0.48938955   -8.8398132    586.46311  0.010356416 0.0086989102            3 
 4720000   0.50474016   -8.8395968     588.2723  0.010386164 0.0086959123            4 
 4721000   0.49439051   -8.8396938    586.29791  0.010349112  0.008692918            8 
 4722000   0.50359594   -8.8567278    586.99891  0.010359292 0.0086899239            7 
 4723000   0.49222726   -8.8358402    586.30501  0.010344855 0.0086869349            5 
 4724000   0.49581254   -8.8437315    586.51628  0.010346392  0.008683944            4 
 4725000   0.49837585   -8.8303455    586.95103   0.01035187  0.008680953            3 
 4726000   0.49418795    -8.848294    586.71767  0.010345565 0.0086779627            8 
 4727000   0.49902505   -8.8339085    587.16599   0.01035128 0.0086749758            7 
 4728000     0.501049   -8.8521059    587.94849  0.010362882 0.0086719902            6 
 4729000   0.49310833   -8.8351135    587.34916   0.01035013 0.0086690042            7 
 4730000   0.50246038   -8.8497779    586.65428  0.010335699 0.0086660195            8 
 4731000   0.50113238   -8.8375508    587.47095  0.010347899 0.0086630368            7 
 4732000   0.49329359   -8.8431345    586.74324  0.010332897 0.0086600541            7 
 4733000   0.48953703   -8.8374443    587.24009  0.010339462 0.0086570738            7 
 4734000    0.4970045   -8.8490951     586.7822  0.010329218 0.0086540909            7 
 4735000   0.49595261   -8.8334418    587.17203  0.010333897  0.008651112            4 
 4736000   0.50076832   -8.8519301    586.89856  0.010326903 0.0086481362            5 
 4737000   0.49168639   -8.8445297    587.08505  0.010328004 0.0086451622            6 
 4738000   0.49805454    -8.857155    585.90546  0.010305077 0.0086421882            5 
 4739000   0.50025989   -8.8521909    586.92571  0.010320843 0.0086392142            3 
 4740000   0.49956513   -8.8416635    586.60283  0.010312989 0.0086362418            5 
 4741000   0.49153236   -8.8597254    586.61811  0.010311083 0.0086332738            6 
 4742000   0.49445361   -8.8659591    587.13314  0.010317959 0.0086303054            5 
 4743000   0.50629922   -8.8544198    586.17479  0.010298946 0.0086273376            5 
 4744000   0.49388865   -8.8448023    586.51461  0.010302744 0.0086243714            5 
 4745000   0.48990868   -8.8302172     587.0788  0.010310481  0.008621408            5 
 4746000   0.48615066   -8.8512169    586.65403   0.01030085 0.0086184444            5 
 4747000   0.49889095   -8.8423178     587.4005  0.010311785  0.008615485            5 
 4748000   0.49437698   -8.8632711    586.77584  0.010298649  0.008612524            6 
 4749000   0.48802565   -8.8516582    586.99037  0.010300245 0.0086095614            7 
 4750000   0.50325715   -8.8464031    587.57342  0.010308306 0.0086066021            6 
 4751000   0.50159242    -8.851689    586.39362  0.010285442 0.0086036456            5 
 4752000   0.48324885   -8.8464622    587.32776  0.010299659 0.0086006869            5 
 4753000   0.48311808   -8.8426473    586.91937  0.010290332 0.0085977318            4 
 4754000    0.4958255   -8.8540854    587.16127  0.010292408 0.0085947786            6 
 4755000   0.49568965   -8.8599974    586.47802  0.010278269 0.0085918255            3 
 4756000   0.48777841   -8.8475541    587.10211  0.010287043  0.008588875            7 
 4757000    0.4857906   -8.8535436    587.41391  0.010290342 0.0085859255            4 
 4758000    0.4859217   -8.8586719    587.22106  0.010284802 0.0085829757            3 
 4759000   0.48775404   -8.8482111    587.44052  0.010286484 0.0085800285            4 
 4760000   0.49851974   -8.8473954    586.77929  0.010272747  0.008577084            3 
 4761000   0.49058788   -8.8527278    587.02925  0.010274964 0.0085741422            2 
 4762000   0.49325248   -8.8592761    586.37098  0.010261287 0.0085711976            5 
 4763000   0.49265164    -8.860096    586.63406  0.010263735 0.0085682571            5 
 4764000   0.49342105   -8.8597576    586.86716  0.010265658 0.0085653188            4 
 4765000   0.49774429   -8.8503521    586.95664  0.010265069 0.0085623806            4 
 4766000   0.48996033   -8.8587334    587.35382   0.01026986 0.0085594454            4 
 4767000    0.4954516   -8.8704264    587.03941  0.010262209 0.0085565079            5 
 4768000   0.48453027   -8.8481241    586.46352  0.010249992 0.0085535727            6 
 4769000   0.48190905   -8.8400996    587.34166  0.010263187 0.0085506407            6 
 4770000   0.48475825    -8.856811    587.14584  0.010257614  0.008547709            4 
 4771000   0.49372818   -8.8617118     586.2999  0.010240689 0.0085447753            5 
 4772000   0.48289024   -8.8619886    587.24818  0.010255102 0.0085418475            7 
 4773000   0.48811101   -8.8545134    586.38181  0.010237828 0.0085389203            4 
 4774000   0.48899393   -8.8657068    586.86772  0.010244165 0.0085359922            5 
 4775000   0.49285184   -8.8506561     586.9127  0.010242805 0.0085330659            5 
 4776000   0.48560434   -8.8547598    587.42505    0.0102496  0.008530142            6 
 4777000   0.49131557   -8.8741103    586.68549  0.010234553 0.0085272184            5 
 4778000   0.47761027   -8.8572911    586.07128  0.010221698 0.0085242966            3 
 4779000   0.48439519   -8.8665241    587.40007   0.01024273 0.0085213734            7 
 4780000   0.48931425   -8.8671409    586.41054  0.010223336 0.0085184557            5 
 4781000    0.4830784   -8.8565866    586.33411  0.010219865 0.0085155382            3 
 4782000   0.49138889   -8.8733807      586.711  0.010224296 0.0085126215            8 
 4783000   0.49141275   -8.8617551    586.64802  0.010221061 0.0085097057            2 
 4784000   0.48164902    -8.872247    586.23543  0.010211738 0.0085067897            5 
 4785000   0.48559907    -8.863843     587.4654  0.010231024 0.0085038739            6 
 4786000   0.48044676   -8.8541943    586.14142  0.010205833 0.0085009607            4 
 4787000    0.4869851   -8.8476665    586.47922  0.010209582 0.0084980498            3 
 4788000   0.47467826   -8.8547995    585.94257  0.010198109 0.0084951381            2 
 4789000   0.48444896   -8.8523115    586.33592  0.010202824 0.0084922285            5 
 4790000   0.48069749    -8.870693    586.40076  0.010201823 0.0084893186            4 
 4791000    0.4820218   -8.8620499    586.50007  0.010201421 0.0084864125            2 
 4792000    0.4734924   -8.8748203    585.56038   0.01018295 0.0084835058            6 
 4793000   0.48469967   -8.8680387    585.40275  0.010178085 0.0084805992            4 
 4794000   0.48193657   -8.8629514     586.6268   0.01019724 0.0084776952            2 
 4795000   0.47642122   -8.8542611    586.07388  0.010185504 0.0084747922            6 
 4796000   0.47940993   -8.8580519    585.91317  0.010180588 0.0084718914            5 
 4797000   0.48626452   -8.8687708    586.08883  0.010181517 0.0084689904            4 
 4798000   0.48015261   -8.8667373    585.73309  0.010173216 0.0084660908            9 
 4799000   0.48344496   -8.8651995    586.64066  0.010186856 0.0084631955            5 
 4800000   0.48426268   -8.8639206    585.61907  0.010166998 0.0084603013            4 
 4801000   0.47557083   -8.8666046    587.34299  0.010194803 0.0084574068            4 
 4802000   0.48741818   -8.8535013    586.55073  0.010178931  0.008454515            9 
 4803000   0.49069379   -8.8664964     585.2969  0.010155058   0.00845162            2 
 4804000   0.48127312   -8.8630753    586.80301   0.01017907 0.0084487288            4 
 4805000   0.48142754   -8.8639052    587.48461  0.010188772 0.0084458375            3 
 4806000   0.48759358   -8.8635288    585.98157   0.01016059 0.0084429472            5 
 4807000   0.47878269   -8.8715044    586.37784  0.010165346 0.0084400609            6 
 4808000   0.48661683   -8.8753233     585.5501  0.010148886  0.008437175            5 
 4809000   0.47783562   -8.8771907    586.72317  0.010167103 0.0084342892            5 
 4810000    0.4804602   -8.8594441    585.96413  0.010151839 0.0084314069            7 
 4811000   0.47180176   -8.8655655    586.76245  0.010163557 0.0084285276            8 
 4812000   0.46564183   -8.8630204    587.19418  0.010168921 0.0084256502            8 
 4813000   0.47662651   -8.8825713    586.07835  0.010147489 0.0084227721            4 
 4814000   0.47308196   -8.8631793    586.37061   0.01015044 0.0084198931            6 
 4815000   0.48176223   -8.8711023    586.76162  0.010155099 0.0084170149            4 
 4816000   0.47748843   -8.8743391    586.35962  0.010146034 0.0084141398            3 
 4817000    0.4750709   -8.8636728    586.92917  0.010153781 0.0084112664            5 
 4818000   0.47715966   -8.8615892    587.18318  0.010156067 0.0084083935            5 
 4819000   0.48359985     -8.86739     585.2796  0.010121042 0.0084055208            3 
 4820000   0.48181823   -8.8794352    586.25518  0.010135809 0.0084026519            3 
 4821000   0.48525439   -8.8665822    585.85827  0.010126846 0.0083997844            8 
 4822000   0.47847023   -8.8801126    586.22063  0.010131008 0.0083969166            4 
 4823000   0.47489361   -8.8726984    585.98202  0.010124784 0.0083940508            4 
 4824000   0.47946465   -8.8619827    585.87393  0.010120818 0.0083911877            8 
 4825000   0.47496804   -8.8625124    586.06966  0.010122101 0.0083883228           11 
 4826000    0.4810302   -8.8639825    586.21621  0.010122534 0.0083854623            3 
 4827000   0.49082447   -8.8684083    587.79233  0.010147647 0.0083826029            2 
 4828000    0.4904684   -8.8660516    586.25818  0.010119065 0.0083797429            7 
 4829000   0.47423506   -8.8638818    586.49368  0.010121034 0.0083768859            4 
 4830000   0.46747771   -8.8786995    586.32706  0.010116064 0.0083740275            4 
 4831000   0.48139676   -8.8638352    586.14038   0.01011075 0.0083711736            4 
 4832000   0.48206864   -8.8706164    587.73116  0.010136092 0.0083683191            4 
 4833000    0.4778185   -8.8716843    586.42961  0.010111553 0.0083654664            6 
 4834000   0.47360431   -8.8753359    586.60857  0.010112546 0.0083626129            4 
 4835000   0.48587271   -8.8553021    586.70625  0.010112138 0.0083597633            3 
 4836000   0.48622046   -8.8829946    586.16021  0.010100638 0.0083569136            6 
 4837000   0.48185101   -8.8685494    586.59619  0.010106061 0.0083540662            4 
 4838000   0.47949902   -8.8626095    585.78881  0.010090065   0.00835122            7 
 4839000   0.47533342   -8.8578318    586.10725  0.010093464 0.0083483746            5 
 4840000   0.47791702   -8.8707056     586.6657  0.010100993 0.0083455312            3 
 4841000   0.47763231   -8.8726554    587.20048  0.010108113 0.0083426887            3 
 4842000   0.47500179   -8.8683678    586.53612  0.010094591 0.0083398455            7 
 4843000   0.47677011   -8.8843974    585.80716  0.010079964 0.0083370045            6 
 4844000   0.46890901   -8.8700763    586.58783  0.010091313 0.0083341639            5 
 4845000   0.47533846   -8.8780639    586.57888  0.010089076 0.0083313245            5 
 4846000   0.47103865   -8.8801732    586.93495  0.010093117 0.0083284871            7 
 4847000   0.48762447   -8.8737358    586.38203  0.010081529 0.0083256505            6 
 4848000   0.48231507   -8.8927723    586.75937  0.010085935 0.0083228175            4 
 4849000   0.47460669   -8.8772708    585.40864  0.010060642  0.008319985            4 
 4850000   0.48288394   -8.8571561    586.37948  0.010075249  0.008317154            4 
 4851000   0.46360098   -8.8653137    586.27523  0.010071381 0.0083143239            5 
 4852000   0.47984902   -8.8785997    586.36703  0.010070882  0.008311495            2 
 4853000   0.46968976   -8.8651545    585.08537  0.010046799 0.0083086656            5 
 4854000   0.46837027   -8.8789725    586.02637  0.010060884 0.0083058392            4 
 4855000   0.47811778   -8.8760869    586.97272  0.010075055 0.0083030135            4 
 4856000   0.47222791   -8.8907452    585.67287  0.010050674 0.0083001882            3 
 4857000   0.47522861   -8.8780102    586.34715  0.010060173 0.0082973672            4 
 4858000   0.47052686    -8.878323    586.23275   0.01005614 0.0082945462            5 
 4859000   0.47784856   -8.8864143    586.49163  0.010058511 0.0082917299            2 
 4860000   0.46573919   -8.8724023    585.77158  0.010044094  0.008288909            5 
 4861000    0.4742893   -8.8689698    586.63983  0.010056913 0.0082860873            4 
 4862000   0.47970458   -8.8746775    586.02897  0.010044374 0.0082832717            6 
 4863000   0.47922771   -8.8650355    585.09885   0.01002637 0.0082804546            5 
 4864000   0.47239303   -8.8675694    586.77853  0.010053086 0.0082776404            3 
 4865000   0.47251305    -8.860413     587.1845  0.010057974 0.0082748271            5 
 4866000   0.47500575   -8.8941038    586.38522  0.010042219 0.0082720159            5 
 4867000   0.47755565   -8.8743211    586.06458  0.010034665 0.0082692082            7 
 4868000   0.47907302   -8.8666195    586.36769  0.010037793  0.008266397            4 
 4869000   0.48185587   -8.8807318     585.2163  0.010016025  0.008263589            4 
 4870000   0.46063555   -8.8846956     586.1765  0.010030399 0.0082607819            6 
 4871000   0.46109578   -8.8819056    585.82205  0.010022276 0.0082579757            6 
 4872000   0.47035216    -8.887811    585.85404  0.010020766 0.0082551698            7 
 4873000   0.46431648   -8.8838881    586.19293  0.010024505  0.008252367            6 
 4874000   0.47959998   -8.8932837    586.46832  0.010027156 0.0082495671            7 
 4875000   0.46864477   -8.8926018     585.3603  0.010006159 0.0082467656            4 
 4876000   0.46088834   -8.8812905    585.94686  0.010014131 0.0082439662            7 
 4877000   0.46774548   -8.8868459    586.17161  0.010015918 0.0082411663            5 
 4878000   0.47097539    -8.886056    585.90826  0.010009366  0.008238368            7 
 4879000   0.47704874   -8.8823365    585.75539  0.010004704 0.0082355737            3 
 4880000   0.47299001   -8.8822009    586.00611  0.010006935 0.0082327791            6 
 4881000   0.46505679    -8.881595     586.0244  0.010005197 0.0082299859            5 
 4882000   0.46869706   -8.8808894    585.55472 0.0099951303  0.008227194            8 
 4883000   0.47535531   -8.8934077    586.11699  0.010002679 0.0082244038            5 
 4884000   0.47276092   -8.8915126    585.99955 0.0099986273 0.0082216117            5 
 4885000   0.46476879   -8.8928589    585.74854 0.0099922985 0.0082188225            6 
 4886000   0.46933747   -8.8880013    585.18655 0.0099806684 0.0082160338            5 
 4887000   0.47062014    -8.885665     585.6987 0.0099873592 0.0082132443            3 
 4888000   0.46456394    -8.874534    585.73817 0.0099859889  0.008210459            5 
 4889000   0.46854686   -8.8785917    586.65444 0.0099995643 0.0082076747            5 
 4890000   0.47385889   -8.8800635    585.39608  0.009976075 0.0082048918            5 
 4891000   0.46529173   -8.8952126    585.93731 0.0099832568 0.0082021098            3 
 4892000   0.47121342   -8.9022059    585.56561 0.0099748844  0.008199329            6 
 4893000   0.47127982   -8.8753641    584.98778 0.0099630046 0.0081965487            5 
 4894000   0.47931529   -8.8941761    585.44868  0.009968817 0.0081937727            7 
 4895000   0.47216103   -8.8989583    585.40665 0.0099660648 0.0081909965            4 
 4896000   0.47580705   -8.8883381    586.20198 0.0099775664 0.0081882225            3 
 4897000   0.47311569    -8.880216    586.02636 0.0099725403 0.0081854483            7 
 4898000   0.46712694   -8.8935793    586.23966 0.0099741333 0.0081826767            8 
 4899000   0.47550528   -8.8958651     586.3747 0.0099743944 0.0081799073            5 
 4900000   0.47059983    -8.879422    586.46659 0.0099739215 0.0081771371            5 
 4901000   0.44482997   -8.9032741    586.33151 0.0099695898 0.0081743674            5 
 4902000   0.46654017   -8.8878073    586.11265 0.0099638353 0.0081715983            4 
 4903000   0.47057869   -8.8970396    585.34701   0.00994879 0.0081688297            6 
 4904000   0.46075426   -8.8804962    585.98899 0.0099576704 0.0081660654            5 
 4905000   0.47543305   -8.8997313    585.53168 0.0099478709 0.0081632997            8 
 4906000   0.46674662   -8.8989019    586.08796 0.0099552922  0.008160533            7 
 4907000   0.47283282   -8.8931065    586.34659 0.0099576555 0.0081577694            3 
 4908000   0.46691194   -8.8915278    585.09737 0.0099344161 0.0081550088            9 
 4909000   0.45864184   -8.9034129    585.73993 0.0099433002 0.0081522471            3 
 4910000   0.46562548   -8.9007838    586.19466 0.0099489929 0.0081494854            6 
 4911000   0.47147084   -8.8906449    585.59049 0.0099367149 0.0081467283            5 
 4912000   0.46701846   -8.9047468    585.24019 0.0099287491 0.0081439705            8 
 4913000   0.46553253   -8.8973551     585.6311 0.0099333587  0.008141214            6 
 4914000   0.45309236   -8.8848645    586.78319 0.0099508749 0.0081384599            5 
 4915000   0.46525214   -8.8769458    585.38439 0.0099251338 0.0081357035            6 
 4916000   0.47004696   -8.8993775    586.04162 0.0099342558  0.008132951            4 
 4917000   0.47802786   -8.8901666    585.71099  0.009926632 0.0081301995            4 
 4918000   0.47056081   -8.8925756    586.53736  0.009938616 0.0081274495            4 
 4919000   0.45440392   -8.9002081    586.21073  0.009931062 0.0081247009            4 
 4920000   0.47368476   -8.8864724    586.11296 0.0099273876 0.0081219518            5 
 4921000   0.46391338   -8.8970211    585.41008 0.0099134675 0.0081192049            4 
 4922000   0.47113619   -8.8867485    585.14693  0.009906998  0.008116459            5 
 4923000   0.47037426   -8.8933424    584.73576 0.0098980256 0.0081137138            3 
 4924000   0.45331267   -8.8875889    585.59189 0.0099105044 0.0081109699            6 
 4925000   0.46437559   -8.9140721     586.3828 0.0099218748 0.0081082272            6 
 4926000   0.46349083   -8.8927858    585.32133 0.0099019037 0.0081054841            5 
 4927000   0.46977923   -8.9016962    585.97835 0.0099110065 0.0081027443            4 
 4928000   0.46152953   -8.8782396    585.39663 0.0098991584 0.0081000043            6 
 4929000   0.46031988   -8.9024071    585.36752 0.0098966579 0.0080972665           11 
 4930000   0.45297858   -8.8993594     584.9386 0.0098874002 0.0080945295            9 
 4931000   0.46606303   -8.8873131    585.21639 0.0098900898 0.0080917922            5 
 4932000   0.45445552   -8.8957372    585.56057 0.0098938999  0.008089058            8 
 4933000    0.4702679   -8.9002832    585.04608 0.0098832029 0.0080863251            6 
 4934000    0.4692446   -8.9070791     585.9563  0.009896573 0.0080835929            6 
 4935000   0.45946554   -8.8900706    585.83615 0.0098925388 0.0080808637            4 
 4936000   0.46053828    -8.886619    585.41242  0.009883381 0.0080781348            6 
 4937000    0.4583057    -8.900484     585.9921 0.0098911636 0.0080754069            5 
 4938000   0.45830125   -8.9112534    585.88506 0.0098873542 0.0080726796            2 
 4939000    0.4655723   -8.9097099    585.08656 0.0098718797 0.0080699555            6 
 4940000   0.46023591   -8.9133032    585.32545  0.009873911 0.0080672313            4 
 4941000   0.47322679   -8.8962901    584.70238 0.0098614043  0.008064507            6 
 4942000   0.47245451   -8.8869822    585.29861 0.0098694626 0.0080617851            5 
 4943000   0.46190574   -8.9035928    586.04925 0.0098801209 0.0080590636            7 
 4944000   0.46454978   -8.8979271    585.03341 0.0098610001 0.0080563455            4 
 4945000   0.45530257   -8.8895193    585.97757 0.0098749169 0.0080536278            7 
 4946000   0.46150671   -8.9004148     584.8442 0.0098538247 0.0080509096            6 
 4947000   0.45673209   -8.9129436    585.90039 0.0098696245 0.0080481917            3 
 4948000   0.46194737   -8.8922579    585.37503 0.0098587818 0.0080454755            4 
 4949000   0.45712487   -8.8863591    585.40779 0.0098573414 0.0080427613            5 
 4950000   0.45716172   -8.9017337    584.60103 0.0098417681 0.0080400477            7 
 4951000   0.45479772   -8.8966291    585.59472 0.0098565057 0.0080373327            3 
 4952000   0.46832866   -8.9021602    586.21999 0.0098650375 0.0080346223            8 
 4953000   0.45120845   -8.8914708    584.71363 0.0098377016 0.0080319119            6 
 4954000   0.46414057   -8.8969883    586.21496 0.0098609702 0.0080292058            9 
 4955000   0.45402173   -8.8843687    585.82907 0.0098524902 0.0080264975            8 
 4956000   0.46267438   -8.9231442    585.94193    0.0098524 0.0080237926            3 
 4957000    0.4553187   -8.8960368    585.67951 0.0098460008 0.0080210882            5 
 4958000   0.45356521   -8.8969147    585.75707 0.0098453186 0.0080183832            4 
 4959000   0.46435302    -8.894434    585.09298 0.0098321734 0.0080156812            5 
 4960000   0.46786939   -8.8886332    585.67081 0.0098398993  0.008012981            5 
 4961000   0.45507216   -8.8903075    584.79807 0.0098232559 0.0080102813            4 
 4962000   0.46537669   -8.9003883    585.62432 0.0098351525  0.008007583            5 
 4963000    0.4506323   -8.8960998    584.89132  0.009820863 0.0080048836            5 
 4964000   0.45319987   -8.9276045    585.65904 0.0098317727 0.0080021862            7 
 4965000   0.46247071   -8.9064563    585.31177 0.0098239638 0.0079994902            7 
 4966000   0.45825106   -8.9183614    585.23054 0.0098206226 0.0079967951            5 
 4967000    0.4684619    -8.916585    585.11122 0.0098166435 0.0079941018            5 
 4968000    0.4569084   -8.9008841    585.24223 0.0098168652 0.0079914083            4 
 4969000     0.447776   -8.9113718    585.05252 0.0098117078 0.0079887175            6 
 4970000   0.45659629   -8.9072982    585.24034  0.009812883 0.0079860289            5 
 4971000   0.45554254   -8.9047335    586.02336 0.0098240353 0.0079833397            4 
 4972000   0.45476958   -8.9078214    584.42041 0.0097951933 0.0079806514            3 
 4973000   0.45851558   -8.9141381    585.21557 0.0098065482  0.007977965            3 
 4974000   0.45866832   -8.9096149    585.82421 0.0098147737 0.0079752789            4 
 4975000   0.43885753   -8.9032867    585.62216 0.0098094164 0.0079725927            6 
 4976000   0.45324393   -8.8986325     585.6677 0.0098082077 0.0079699093            5 
 4977000    0.4532249   -8.9169788    584.61073 0.0097885394  0.007967225            4 
 4978000    0.4568751    -8.912638    585.46688 0.0098009054 0.0079645443            4 
 4979000   0.45649886   -8.8937425    585.45398  0.009798721 0.0079618654           10 
 4980000   0.45710671   -8.9050292    585.33748 0.0097948039 0.0079591869            7 
 4981000   0.46764821   -8.9158211    585.49006 0.0097953901 0.0079565078            5 
 4982000   0.45426018   -8.9117696    585.62256 0.0097956404 0.0079538334            3 
 4983000   0.45807688   -8.8938679     585.3031 0.0097883319 0.0079511582            5 
 4984000    0.4534955   -8.9079399    584.34009 0.0097702664 0.0079484858            7 
 4985000    0.4541038   -8.9116842     584.7888 0.0097758074 0.0079458136            3 
 4986000   0.46035985    -8.911284    584.65836 0.0097716666 0.0079431403            3 
 4987000   0.44632958   -8.9178452     584.5626 0.0097681071 0.0079404698            3 
 4988000   0.45734566   -8.9126139    585.62762 0.0097839418 0.0079378018            5 
 4989000    0.4494947   -8.9259094    585.12431 0.0097735736 0.0079351334            7 
 4990000   0.45762409   -8.9084765    586.03373 0.0097868024 0.0079324662            4 
 4991000   0.44996439   -8.9127778    585.59162 0.0097774598 0.0079297999            5 
 4992000    0.4545281   -8.9098771    585.15972 0.0097682913 0.0079271342            7 
 4993000   0.44509485   -8.9218534    585.64183 0.0097743813 0.0079244714            5 
 4994000   0.45484919   -8.9076154    584.32221  0.009750404 0.0079218088            5 
 4995000   0.44738885   -8.9112827    585.39971 0.0097664282 0.0079191465            2 
 4996000   0.45969865    -8.925086    584.64448 0.0097518762 0.0079164856            3 
 4997000   0.45169933   -8.9081753    584.66985 0.0097503476 0.0079138261            4 
 4998000   0.45837406   -8.9144283    585.01252 0.0097541103 0.0079111668            7 
 4999000   0.46300151   -8.9243494    585.18092 0.0097549664 0.0079085071            4 
 5000000   0.44998828   -8.9116985      585.277 0.0097546167 0.0079058501            5 
 5001000   0.44414796   -8.9128411    584.75337 0.0097439407 0.0079031956            5 
 5002000    0.4461685   -8.9126871    585.15296 0.0097486499 0.0079005423            4 
 5003000   0.44960578   -8.9258102    584.62696 0.0097379399 0.0078978877            4 
 5004000   0.45892277   -8.9176386    584.73977 0.0097378726 0.0078952361            3 
 5005000   0.46349055   -8.9081129     584.1922 0.0097268099 0.0078925854            7 
 5006000   0.46143267   -8.9062422    585.07011 0.0097394811 0.0078899381            5 
 5007000   0.44898385   -8.9150308    586.36481 0.0097590841 0.0078872902            4 
 5008000   0.45043296   -8.9197139     584.5964 0.0097277091  0.007884642            4 
 5009000   0.44652311    -8.908886     584.8352 0.0097297398 0.0078819974            6 
 5010000   0.45160143   -8.9028771    584.79268 0.0097270905 0.0078793539            7 
 5011000   0.45342599   -8.9140122    585.26429 0.0097329922 0.0078767123            4 
 5012000   0.44725506   -8.9172761    585.18096 0.0097296648 0.0078740687            6 
Loop time of 12154.8 on 48 procs for 5000000 steps with 4000 atoms

Performance: 71082.755 tau/day, 411.359 timesteps/s
99.4% CPU use with 48 MPI tasks x no OpenMP threads

MPI task timing breakdown:
Section |  min time  |  avg time  |  max time  |%varavg| %total
---------------------------------------------------------------
Pair    | 788.52     | 850.06     | 901.84     |  94.9 |  6.99
Neigh   | 80.058     | 83.476     | 86.524     |  17.4 |  0.69
Comm    | 783.51     | 837.14     | 909.16     | 105.0 |  6.89
Output  | 13.775     | 13.78      | 13.859     |   0.3 |  0.11
Modify  | 10236      | 10258      | 10279      |  10.6 | 84.39
Other   |            | 112.5      |            |       |  0.93

Nlocal:        83.3333 ave          92 max          72 min
Histogram: 1 0 0 6 10 4 17 6 1 3
Nghost:        2141.44 ave        2161 max        2125 min
Histogram: 3 7 5 4 4 13 4 3 3 2
Neighs:        14116.5 ave       15698 max       12112 min
Histogram: 1 1 3 6 7 7 12 7 2 2
FullNghs:      28293.4 ave       31148 max       24545 min
Histogram: 1 0 2 4 12 8 9 7 3 2

Total # of neighbors = 1358082
Ave neighs/atom = 339.52050
Neighbor list builds = 267249
Dangerous builds = 1

#clear
#
#next RN
#
#jump SELF
Total wall time: 3:22:38
